<?xml version="1.0"?>
<VTKFile type="UnstructuredGrid" version="0.1" byte_order="LittleEndian">
<UnstructuredGrid>
<Piece NumberOfPoints="31784" NumberOfCells="11127">
<Points>
<DataArray type="Float64" NumberOfComponents="3" format="ascii">
-0.5 -0.5 0 -0.47195313969810748 -0.47481122521109881 0 -0.5 -0.45517223239845911 0 -0.5 -0.5 0 -0.47195313969810748 -0.47481122521109881 0 -0.45335892971806913 -0.5 0 -0.45335892971806913 -0.5 0 -0.44076583355802018 -0.46754340692400581 0 -0.420281768472478 -0.48063287485242651 0 -0.47195313969810748 -0.47481122521109881 0 -0.45335892971806913 -0.5 0 -0.44076583355802018 -0.46754340692400581 0 -0.44498276375334889 -0.44277739617446188 0 -0.44076583355802018 -0.46754340692400581 0 -0.42994431064125338 -0.44935154977227282 0 -0.44498276375334889 -0.44277739617446188 0 -0.44076583355802018 -0.46754340692400581 0 -0.46564093521444799 -0.45134048673302901 0 -0.47195313969810748 -0.47481122521109881 0 -0.44076583355802018 -0.46754340692400581 0 -0.46564093521444799 -0.45134048673302901 0 -0.44498276375334889 -0.44277739617446188 0 -0.46564093521444799 -0.45134048673302901 0 -0.4637803461504782 -0.43184455231440089 0 -0.46564093521444799 -0.45134048673302901 0 -0.48331898101307369 -0.43162816627705197 0 -0.4637803461504782 -0.43184455231440089 0 -0.46564093521444799 -0.45134048673302901 0 -0.5 -0.45517223239845911 0 -0.48331898101307369 -0.43162816627705197 0 -0.47195313969810748 -0.47481122521109881 0 -0.46564093521444799 -0.45134048673302901 0 -0.5 -0.45517223239845911 0 -0.48081337114765521 -0.40738652445076051 0 -0.48331898101307369 -0.43162816627705197 0 -0.49999999999999972 -0.39425847612528447 0 -0.5 -0.45517223239845911 0 -0.48331898101307369 -0.43162816627705197 0 -0.49999999999999972 -0.39425847612528447 0 -0.48081337114765521 -0.40738652445076051 0 -0.4616267422953107 -0.42051457277623661 0 -0.48081337114765521 -0.40738652445076051 0 -0.46419467671751052 -0.40117595395713518 0 -0.4616267422953107 -0.42051457277623661 0 -0.48081337114765521 -0.40738652445076051 0 -0.47421613210080632 -0.42199795573361643 0 -0.4616267422953107 -0.42051457277623661 0 -0.48081337114765521 -0.40738652445076051 0 -0.48331898101307369 -0.43162816627705197 0 -0.47421613210080632 -0.42199795573361643 0 -0.48331898101307369 -0.43162816627705197 0 -0.47421613210080632 -0.42199795573361643 0 -0.4637803461504782 -0.43184455231440089 0 -0.49999999999999972 -0.39425847612528447 0 -0.47740040585619831 -0.37866244440872338 0 -0.5 -0.36613403373003761 0 -0.49999999999999972 -0.39425847612528447 0 -0.47864162249791747 -0.39436753541088382 0 -0.47740040585619831 -0.37866244440872338 0 -0.48081337114765521 -0.40738652445076051 0 -0.49999999999999972 -0.39425847612528447 0 -0.47864162249791747 -0.39436753541088382 0 -0.48081337114765521 -0.40738652445076051 0 -0.49999999999999972 -0.39425847612528447 0 -0.48081337114765521 -0.40738652445076051 0 -0.47864162249791747 -0.39436753541088382 0 -0.46419467671751052 -0.40117595395713518 0 -0.47864162249791747 -0.39436753541088382 0 -0.47740040585619831 -0.37866244440872338 0 -0.46419467671751052 -0.40117595395713518 0 -0.47740040585619831 -0.37866244440872338 0 -0.46419467671751052 -0.40117595395713518 0 -0.47740040585619831 -0.37866244440872338 0 -0.46578787837660351 -0.37724047050536202 0 -0.4631204814674863 -0.38554315196631728 0 -0.47740040585619831 -0.37866244440872338 0 -0.4631204814674863 -0.38554315196631728 0 -0.46419467671751052 -0.40117595395713518 0 -0.45567031296207849 -0.38026519902373501 0 -0.46578787837660351 -0.37724047050536202 0 -0.4631204814674863 -0.38554315196631728 0 -0.45567031296207849 -0.38026519902373501 0 -0.4631204814674863 -0.38554315196631728 0 -0.45254913342504072 -0.39037169193663063 0 -0.46419467671751052 -0.40117595395713518 0 -0.44863156864490789 -0.40144303210361598 0 -0.44819452018359518 -0.41185484163464331 0 -0.4631204814674863 -0.38554315196631728 0 -0.46419467671751052 -0.40117595395713518 0 -0.45254913342504072 -0.39037169193663063 0 -0.46419467671751052 -0.40117595395713518 0 -0.44863156864490789 -0.40144303210361598 0 -0.45254913342504072 -0.39037169193663063 0 -0.44863156864490789 -0.40144303210361598 0 -0.43828190350027513 -0.39269291818792917 0 -0.43939387763557508 -0.40861353268669792 0 -0.44863156864490789 -0.40144303210361598 0 -0.43828190350027513 -0.39269291818792917 0 -0.45254913342504072 -0.39037169193663063 0 -0.45567031296207849 -0.38026519902373501 0 -0.45254913342504072 -0.39037169193663063 0 -0.44546726379484769 -0.37837182148071941 0 -0.43828190350027513 -0.39269291818792917 0 -0.45254913342504072 -0.39037169193663063 0 -0.44546726379484769 -0.37837182148071941 0 -0.43828190350027513 -0.39269291818792917 0 -0.44546726379484769 -0.37837182148071941 0 -0.43570306073217568 -0.38195662465183228 0 -0.44546726379484769 -0.37837182148071941 0 -0.43570306073217568 -0.38195662465183228 0 -0.4385075982461436 -0.36984117428956331 0 -0.44498276375334889 -0.44277739617446188 0 -0.4637803461504782 -0.43184455231440089 0 -0.45098894757882257 -0.42368946350554731 0 -0.4637803461504782 -0.43184455231440089 0 -0.4616267422953107 -0.42051457277623661 0 -0.45098894757882257 -0.42368946350554731 0 -0.47421613210080632 -0.42199795573361643 0 -0.4637803461504782 -0.43184455231440089 0 -0.4616267422953107 -0.42051457277623661 0 -0.46419467671751052 -0.40117595395713518 0 -0.45098894757882257 -0.42368946350554731 0 -0.46419467671751052 -0.40117595395713518 0 -0.4616267422953107 -0.42051457277623661 0 -0.45098894757882257 -0.42368946350554731 0 -0.46419467671751052 -0.40117595395713518 0 -0.44819452018359518 -0.41185484163464331 0 -0.45098894757882257 -0.42368946350554731 0 -0.44819452018359518 -0.41185484163464331 0 -0.43776353034116 -0.42435222592021971 0 -0.45098894757882257 -0.42368946350554731 0 -0.44819452018359518 -0.41185484163464331 0 -0.43939387763557508 -0.40861353268669792 0 -0.43776353034116 -0.42435222592021971 0 -0.44863156864490789 -0.40144303210361598 0 -0.44819452018359518 -0.41185484163464331 0 -0.43939387763557508 -0.40861353268669792 0 -0.44498276375334889 -0.44277739617446188 0 -0.43776353034116 -0.42435222592021971 0 -0.45098894757882257 -0.42368946350554731 0 -0.44498276375334889 -0.44277739617446188 0 -0.43776353034116 -0.42435222592021971 0 -0.42702300303687052 -0.43404634274125331 0 -0.43776353034116 -0.42435222592021971 0 -0.42702300303687052 -0.43404634274125331 0 -0.42876649365348518 -0.41669353582699342 0 -0.42702300303687052 -0.43404634274125331 0 -0.42876649365348518 -0.41669353582699342 0 -0.41716547965948392 -0.42255971974292789 0 -0.43939387763557508 -0.40861353268669792 0 -0.43776353034116 -0.42435222592021971 0 -0.42876649365348518 -0.41669353582699342 0 -0.43939387763557508 -0.40861353268669792 0 -0.42876649365348518 -0.41669353582699342 0 -0.42981850639815639 -0.40215468321327752 0 -0.42876649365348518 -0.41669353582699342 0 -0.42143456484966602 -0.40843471065758458 0 -0.42981850639815639 -0.40215468321327752 0 -0.42876649365348518 -0.41669353582699342 0 -0.42143456484966602 -0.40843471065758458 0 -0.41716547965948392 -0.42255971974292789 0 -0.41716547965948392 -0.42255971974292789 0 -0.40223907680406051 -0.42519587924638519 0 -0.40552523464215778 -0.40650567234662821 0 -0.42143456484966602 -0.40843471065758458 0 -0.41716547965948392 -0.42255971974292789 0 -0.40552523464215778 -0.40650567234662821 0 -0.42702300303687052 -0.43404634274125331 0 -0.41716547965948392 -0.42255971974292789 0 -0.41195509762624388 -0.44008942669196449 0 -0.41716547965948392 -0.42255971974292789 0 -0.40223907680406051 -0.42519587924638519 0 -0.41195509762624388 -0.44008942669196449 0 -0.42512980446940107 -0.37541018896899181 0 -0.42738806078602981 -0.38357458008510598 0 -0.41560316382788631 -0.38092683155568241 0 -0.42512980446940107 -0.37541018896899181 0 -0.43570306073217568 -0.38195662465183228 0 -0.42738806078602981 -0.38357458008510598 0 -0.42512980446940107 -0.37541018896899181 0 -0.43570306073217568 -0.38195662465183228 0 -0.4385075982461436 -0.36984117428956331 0 -0.43828190350027513 -0.39269291818792917 0 -0.43570306073217568 -0.38195662465183228 0 -0.42738806078602981 -0.38357458008510598 0 -0.42738806078602981 -0.38357458008510598 0 -0.4230367134737259 -0.39158010823211831 0 -0.41560316382788631 -0.38092683155568241 0 -0.43828190350027513 -0.39269291818792917 0 -0.42738806078602981 -0.38357458008510598 0 -0.4230367134737259 -0.39158010823211831 0 -0.43828190350027513 -0.39269291818792917 0 -0.43939387763557508 -0.40861353268669792 0 -0.42981850639815639 -0.40215468321327752 0 -0.4230367134737259 -0.39158010823211831 0 -0.42981850639815639 -0.40215468321327752 0 -0.41584039188478888 -0.39873858955586622 0 -0.43828190350027513 -0.39269291818792917 0 -0.4230367134737259 -0.39158010823211831 0 -0.42981850639815639 -0.40215468321327752 0 -0.42143456484966602 -0.40843471065758458 0 -0.42981850639815639 -0.40215468321327752 0 -0.41584039188478888 -0.39873858955586622 0 -0.42143456484966602 -0.40843471065758458 0 -0.41584039188478888 -0.39873858955586622 0 -0.40552523464215778 -0.40650567234662821 0 -0.41584039188478888 -0.39873858955586622 0 -0.4083823032698351 -0.39032347829971792 0 -0.40552523464215778 -0.40650567234662821 0 -0.4230367134737259 -0.39158010823211831 0 -0.41584039188478888 -0.39873858955586622 0 -0.4083823032698351 -0.39032347829971792 0 -0.4230367134737259 -0.39158010823211831 0 -0.4083823032698351 -0.39032347829971792 0 -0.41560316382788631 -0.38092683155568241 0 -0.4083823032698351 -0.39032347829971792 0 -0.41560316382788631 -0.38092683155568241 0 -0.4034719374953486 -0.38267888112340331 0 -0.41560316382788631 -0.38092683155568241 0 -0.41503021305809329 -0.3711562178611495 0 -0.40612780941816362 -0.37352494189598617 0 -0.41560316382788631 -0.38092683155568241 0 -0.4034719374953486 -0.38267888112340331 0 -0.40612780941816362 -0.37352494189598617 0 -0.42512980446940107 -0.37541018896899181 0 -0.41560316382788631 -0.38092683155568241 0 -0.41503021305809329 -0.3711562178611495 0 -0.39182505496934789 -0.37805489951778448 0 -0.4034719374953486 -0.38267888112340331 0 -0.40612780941816362 -0.37352494189598617 0 -0.4083823032698351 -0.39032347829971792 0 -0.4034719374953486 -0.38267888112340331 0 -0.39542135599151002 -0.39056425434784542 0 -0.39182505496934789 -0.37805489951778448 0 -0.4034719374953486 -0.38267888112340331 0 -0.39542135599151002 -0.39056425434784542 0 -0.4083823032698351 -0.39032347829971792 0 -0.39542135599151002 -0.39056425434784542 0 -0.40552523464215778 -0.40650567234662821 0 -0.39542135599151002 -0.39056425434784542 0 -0.3890918423832917 -0.40213901131109858 0 -0.40552523464215778 -0.40650567234662821 0 -0.3890918423832917 -0.40213901131109858 0 -0.37704218087991392 -0.41163515313220372 0 -0.37287900164024479 -0.39761685205590408 0 -0.3890918423832917 -0.40213901131109858 0 -0.38234652813425107 -0.38840387375272001 0 -0.37287900164024479 -0.39761685205590408 0 -0.39542135599151002 -0.39056425434784542 0 -0.3890918423832917 -0.40213901131109858 0 -0.38234652813425107 -0.38840387375272001 0 -0.38234652813425107 -0.38840387375272001 0 -0.37806709611998529 -0.37019884555566579 0 -0.36796056440194752 -0.38124354250862591 0 -0.39182505496934789 -0.37805489951778448 0 -0.38234652813425107 -0.38840387375272001 0 -0.37806709611998529 -0.37019884555566579 0 -0.39182505496934789 -0.37805489951778448 0 -0.39542135599151002 -0.39056425434784542 0 -0.38234652813425107 -0.38840387375272001 0 -0.40223907680406051 -0.42519587924638519 0 -0.39105609696896881 -0.43697833985280782 0 -0.38259376701554748 -0.42424463091800019 0 -0.40223907680406051 -0.42519587924638519 0 -0.39105609696896881 -0.43697833985280782 0 -0.41195509762624388 -0.44008942669196449 0 -0.40223907680406051 -0.42519587924638519 0 -0.40552523464215778 -0.40650567234662821 0 -0.39299989715371603 -0.41398026120388048 0 -0.3890918423832917 -0.40213901131109858 0 -0.40552523464215778 -0.40650567234662821 0 -0.39299989715371603 -0.41398026120388048 0 -0.40223907680406051 -0.42519587924638519 0 -0.39299989715371603 -0.41398026120388048 0 -0.38259376701554748 -0.42424463091800019 0 -0.39299989715371603 -0.41398026120388048 0 -0.37704218087991392 -0.41163515313220372 0 -0.38259376701554748 -0.42424463091800019 0 -0.37704218087991392 -0.41163515313220372 0 -0.38259376701554748 -0.42424463091800019 0 -0.36600546413519441 -0.42582984354445552 0 -0.3890918423832917 -0.40213901131109858 0 -0.39299989715371603 -0.41398026120388048 0 -0.37704218087991392 -0.41163515313220372 0 -0.39105609696896881 -0.43697833985280782 0 -0.38259376701554748 -0.42424463091800019 0 -0.37477801086035001 -0.44467785641080287 0 -0.39105609696896881 -0.43697833985280782 0 -0.39677395175957342 -0.45229970658187052 0 -0.37477801086035001 -0.44467785641080287 0 -0.45335892971806913 -0.5 0 -0.39055271937167813 -0.49999999999999928 0 -0.420281768472478 -0.48063287485242651 0 -0.39677395175957342 -0.45229970658187052 0 -0.37477801086035001 -0.44467785641080287 0 -0.39105609696896881 -0.43697833985280782 0 -0.39677395175957342 -0.45229970658187052 0 -0.41195509762624388 -0.44008942669196449 0 -0.39677395175957342 -0.45229970658187052 0 -0.39796146705582541 -0.47569941058518872 0 -0.41876989265879683 -0.45992155675293811 0 -0.39677395175957342 -0.45229970658187052 0 -0.38537300832660792 -0.46396556085242019 0 -0.39796146705582541 -0.47569941058518872 0 -0.38537300832660792 -0.46396556085242019 0 -0.37259124437924462 -0.4585940236589327 0 -0.37477801086035001 -0.44467785641080287 0 -0.38537300832660792 -0.46396556085242019 0 -0.37358889256723288 -0.47524422579083558 0 -0.37259124437924462 -0.4585940236589327 0 -0.39677395175957342 -0.45229970658187052 0 -0.38537300832660792 -0.46396556085242019 0 -0.37477801086035001 -0.44467785641080287 0 -0.39055271937167813 -0.49999999999999928 0 -0.39796146705582541 -0.47569941058518872 0 -0.37358889256723288 -0.47524422579083558 0 -0.38537300832660792 -0.46396556085242019 0 -0.39796146705582541 -0.47569941058518872 0 -0.37358889256723288 -0.47524422579083558 0 -0.39055271937167813 -0.49999999999999928 0 -0.37358889256723288 -0.47524422579083558 0 -0.39055271937167813 -0.49999999999999928 0 -0.38462467747360962 -0.49859203904836158 0 -0.36153429731470038 -0.5 0 -0.39055271937167813 -0.49999999999999928 0 -0.38462467747360962 -0.49859203904836158 0 -0.37358889256723288 -0.47524422579083558 0 -0.39055271937167813 -0.49999999999999928 0 -0.39796146705582541 -0.47569941058518872 0 -0.420281768472478 -0.48063287485242651 0 -0.39796146705582541 -0.47569941058518872 0 -0.420281768472478 -0.48063287485242651 0 -0.41876989265879683 -0.45992155675293811 0 -0.44076583355802018 -0.46754340692400581 0 -0.420281768472478 -0.48063287485242651 0 -0.41876989265879683 -0.45992155675293811 0 -0.44076583355802018 -0.46754340692400581 0 -0.41876989265879683 -0.45992155675293811 0 -0.44076583355802018 -0.46754340692400581 0 -0.42994431064125338 -0.44935154977227282 0 -0.41876989265879683 -0.45992155675293811 0 -0.44498276375334889 -0.44277739617446188 0 -0.42702300303687052 -0.43404634274125331 0 -0.42994431064125338 -0.44935154977227282 0 -0.42702300303687052 -0.43404634274125331 0 -0.42994431064125338 -0.44935154977227282 0 -0.41195509762624388 -0.44008942669196449 0 -0.42994431064125338 -0.44935154977227282 0 -0.41195509762624388 -0.44008942669196449 0 -0.41876989265879683 -0.45992155675293811 0 -0.39677395175957342 -0.45229970658187052 0 -0.41195509762624388 -0.44008942669196449 0 -0.41876989265879683 -0.45992155675293811 0 -0.39677395175957342 -0.45229970658187052 0 -0.41876989265879683 -0.45992155675293811 0 -0.45198404615408339 -0.25580831368155488 0 -0.44700570693460001 -0.27115251465373152 0 -0.43609885823592143 -0.25863102145899552 0 -0.45198404615408339 -0.25580831368155488 0 -0.43609885823592143 -0.25863102145899552 0 -0.44512291106003149 -0.2448953896992169 0 -0.44700570693460001 -0.27115251465373152 0 -0.44958359090391242 -0.28565189682008829 0 -0.4336547096305563 -0.28465201155355879 0 -0.44700570693460001 -0.27115251465373152 0 -0.4336547096305563 -0.28465201155355879 0 -0.43609885823592143 -0.25863102145899552 0 -0.44700570693460001 -0.27115251465373152 0 -0.4650890049498812 -0.2695707455273344 0 -0.44958359090391242 -0.28565189682008829 0 -0.45198404615408339 -0.25580831368155488 0 -0.44700570693460001 -0.27115251465373152 0 -0.4650890049498812 -0.2695707455273344 0 -0.45198404615408339 -0.25580831368155488 0 -0.4650890049498812 -0.2695707455273344 0 -0.46129520831447851 -0.24502482097609909 0 -0.4650890049498812 -0.2695707455273344 0 -0.47220291559910088 -0.26460170609306599 0 -0.46367657095700138 -0.24383033485755981 0 -0.4650890049498812 -0.2695707455273344 0 -0.46367657095700138 -0.24383033485755981 0 -0.4650890049498812 -0.2695707455273344 0 -0.46367657095700138 -0.24383033485755981 0 -0.46129520831447851 -0.24502482097609909 0 -0.47220291559910088 -0.26460170609306599 0 -0.47213923693113119 -0.24177652727367069 0 -0.47220291559910088 -0.26460170609306599 0 -0.48297322937947912 -0.25315898037087892 0 -0.47213923693113119 -0.24177652727367069 0 -0.47220291559910088 -0.26460170609306599 0 -0.47126453110013639 -0.24339475536900981 0 -0.46367657095700138 -0.24383033485755981 0 -0.47220291559910088 -0.26460170609306599 0 -0.48297322937947912 -0.25315898037087892 0 -0.48605689990574658 -0.26856763400987138 0 -0.48297322937947912 -0.25315898037087892 0 -0.5 -0.25363626414904988 0 -0.48605689990574658 -0.26856763400987138 0 -0.5 -0.25363626414904988 0 -0.48605689990574658 -0.26856763400987138 0 -0.5 -0.28176070654429691 0 -0.48605689990574658 -0.26856763400987138 0 -0.48491594386923209 -0.28242621612661939 0 -0.5 -0.28176070654429691 0 -0.4650890049498812 -0.2695707455273344 0 -0.47220291559910088 -0.26460170609306599 0 -0.47226659426706918 -0.28742688491246121 0 -0.47220291559910088 -0.26460170609306599 0 -0.47226659426706918 -0.28742688491246121 0 -0.47220291559910088 -0.26460170609306599 0 -0.48605689990574658 -0.26856763400987138 0 -0.47226659426706918 -0.28742688491246121 0 -0.48605689990574658 -0.26856763400987138 0 -0.47226659426706918 -0.28742688491246121 0 -0.48605689990574658 -0.26856763400987138 0 -0.47226659426706918 -0.28742688491246121 0 -0.48491594386923209 -0.28242621612661939 0 -0.47226659426706918 -0.28742688491246121 0 -0.46650143894275919 -0.2953111561971089 0 -0.47226659426706918 -0.28742688491246121 0 -0.48280753516384101 -0.29061344858128929 0 -0.48428316544452671 -0.30151872210287239 0 -0.47226659426706918 -0.28742688491246121 0 -0.48280753516384101 -0.29061344858128929 0 -0.48491594386923209 -0.28242621612661939 0 -0.48280753516384101 -0.29061344858128929 0 -0.5 -0.28176070654429691 0 -0.48428316544452671 -0.30151872210287239 0 -0.48280753516384101 -0.29061344858128929 0 -0.48491594386923209 -0.28242621612661939 0 -0.5 -0.28176070654429691 0 -0.5 -0.28176070654429691 0 -0.5 -0.30988514893954378 0 -0.48428316544452671 -0.30151872210287239 0 -0.5 -0.30988514893954378 0 -0.48428316544452671 -0.30151872210287239 0 -0.48704840153783729 -0.31929796805376692 0 -0.47226659426706918 -0.28742688491246121 0 -0.48428316544452671 -0.30151872210287239 0 -0.47234721172493938 -0.31632365600538082 0 -0.46650143894275919 -0.2953111561971089 0 -0.46781828824869842 -0.31930961707805122 0 -0.47234721172493938 -0.31632365600538082 0 -0.47226659426706918 -0.28742688491246121 0 -0.46650143894275919 -0.2953111561971089 0 -0.47234721172493938 -0.31632365600538082 0 -0.47226659426706918 -0.28742688491246121 0 -0.47234721172493938 -0.31632365600538082 0 -0.48428316544452671 -0.30151872210287239 0 -0.47234721172493938 -0.31632365600538082 0 -0.48704840153783729 -0.31929796805376692 0 -0.46650143894275919 -0.2953111561971089 0 -0.45094356042598549 -0.31658769220344679 0 -0.46650143894275919 -0.2953111561971089 0 -0.46781828824869842 -0.31930961707805122 0 -0.46650143894275919 -0.2953111561971089 0 -0.46031145328672018 -0.31551016402357462 0 -0.46781828824869842 -0.31930961707805122 0 -0.46650143894275919 -0.2953111561971089 0 -0.45094356042598549 -0.31658769220344679 0 -0.46031145328672018 -0.31551016402357462 0 -0.46650143894275919 -0.2953111561971089 0 -0.44229913502827078 -0.30061985187850288 0 -0.45094356042598549 -0.31658769220344679 0 -0.4650890049498812 -0.2695707455273344 0 -0.46650143894275919 -0.2953111561971089 0 -0.4650890049498812 -0.2695707455273344 0 -0.46650143894275919 -0.2953111561971089 0 -0.44958359090391242 -0.28565189682008829 0 -0.4650890049498812 -0.2695707455273344 0 -0.47226659426706918 -0.28742688491246121 0 -0.46650143894275919 -0.2953111561971089 0 -0.46650143894275919 -0.2953111561971089 0 -0.44958359090391242 -0.28565189682008829 0 -0.44229913502827078 -0.30061985187850288 0 -0.44229913502827078 -0.30061985187850288 0 -0.4336547096305563 -0.28465201155355879 0 -0.44958359090391242 -0.28565189682008829 0 -0.44229913502827078 -0.30061985187850288 0 -0.4336547096305563 -0.28465201155355879 0 -0.44229913502827078 -0.30061985187850288 0 -0.45094356042598549 -0.31658769220344679 0 -0.44229913502827078 -0.30061985187850288 0 -0.4387732422136747 -0.31655765756509863 0 -0.45094356042598549 -0.31658769220344679 0 -0.44229913502827078 -0.30061985187850288 0 -0.4387732422136747 -0.31655765756509863 0 -0.43165803436938532 -0.30590909349976358 0 -0.45094356042598549 -0.31658769220344679 0 -0.43930412213651732 -0.33250547479781101 0 -0.45073446156281188 -0.32963898315419271 0 -0.4387732422136747 -0.31655765756509863 0 -0.45094356042598549 -0.31658769220344679 0 -0.43930412213651732 -0.33250547479781101 0 -0.45094356042598549 -0.31658769220344679 0 -0.43930412213651732 -0.33250547479781101 0 -0.45094356042598549 -0.31658769220344679 0 -0.45073446156281188 -0.32963898315419271 0 -0.45457225095242998 -0.32329054962300929 0 -0.45094356042598549 -0.31658769220344679 0 -0.45457225095242998 -0.32329054962300929 0 -0.43930412213651732 -0.33250547479781101 0 -0.45280734193905331 -0.33762256438041383 0 -0.4476242653069985 -0.35119819878437991 0 -0.43930412213651732 -0.33250547479781101 0 -0.45280734193905331 -0.33762256438041383 0 -0.45073446156281188 -0.32963898315419271 0 -0.45280734193905331 -0.33762256438041383 0 -0.457816058900887 -0.33196140182075462 0 -0.46913513755463587 -0.34330807795899371 0 -0.45280734193905331 -0.33762256438041383 0 -0.45073446156281188 -0.32963898315419271 0 -0.457816058900887 -0.33196140182075462 0 -0.46195575244910808 -0.32550854338007362 0 -0.46781828824869842 -0.31930961707805122 0 -0.46913513755463587 -0.34330807795899371 0 -0.46781828824869842 -0.31930961707805122 0 -0.46913513755463587 -0.34330807795899371 0 -0.457816058900887 -0.33196140182075462 0 -0.46195575244910808 -0.32550854338007362 0 -0.46913513755463587 -0.34330807795899371 0 -0.45073446156281188 -0.32963898315419271 0 -0.457816058900887 -0.33196140182075462 0 -0.45457225095242998 -0.32329054962300929 0 -0.46195575244910808 -0.32550854338007362 0 -0.45457225095242998 -0.32329054962300929 0 -0.46031145328672018 -0.31551016402357462 0 -0.457816058900887 -0.33196140182075462 0 -0.46195575244910808 -0.32550854338007362 0 -0.45457225095242998 -0.32329054962300929 0 -0.45094356042598549 -0.31658769220344679 0 -0.45457225095242998 -0.32329054962300929 0 -0.46031145328672018 -0.31551016402357462 0 -0.46195575244910808 -0.32550854338007362 0 -0.46031145328672018 -0.31551016402357462 0 -0.46781828824869842 -0.31930961707805122 0 -0.46781828824869842 -0.31930961707805122 0 -0.47234721172493938 -0.31632365600538082 0 -0.47861163051972111 -0.33075272188624638 0 -0.47234721172493938 -0.31632365600538082 0 -0.48704840153783729 -0.31929796805376692 0 -0.47861163051972111 -0.33075272188624638 0 -0.5 -0.30988514893954378 0 -0.48704840153783729 -0.31929796805376692 0 -0.5 -0.33800959133479069 0 -0.48704840153783729 -0.31929796805376692 0 -0.5 -0.33800959133479069 0 -0.47861163051972111 -0.33075272188624638 0 -0.5 -0.33800959133479069 0 -0.47861163051972111 -0.33075272188624638 0 -0.48332176788085812 -0.3441295494294368 0 -0.47861163051972111 -0.33075272188624638 0 -0.46913513755463587 -0.34330807795899371 0 -0.48332176788085812 -0.3441295494294368 0 -0.46781828824869842 -0.31930961707805122 0 -0.47861163051972111 -0.33075272188624638 0 -0.46913513755463587 -0.34330807795899371 0 -0.46913513755463587 -0.34330807795899371 0 -0.47837875682273828 -0.35272327527216951 0 -0.47045198686057332 -0.36730653883993608 0 -0.47837875682273828 -0.35272327527216951 0 -0.49060613499488609 -0.35614893486031152 0 -0.47045198686057332 -0.36730653883993608 0 -0.46913513755463587 -0.34330807795899371 0 -0.47045198686057332 -0.36730653883993608 0 -0.47837875682273828 -0.35272327527216951 0 -0.48332176788085812 -0.3441295494294368 0 -0.49060613499488609 -0.35614893486031152 0 -0.46913513755463587 -0.34330807795899371 0 -0.47837875682273828 -0.35272327527216951 0 -0.48332176788085812 -0.3441295494294368 0 -0.5 -0.33800959133479069 0 -0.49060613499488609 -0.35614893486031152 0 -0.5 -0.36613403373003761 0 -0.5 -0.33800959133479069 0 -0.48332176788085812 -0.3441295494294368 0 -0.49060613499488609 -0.35614893486031152 0 -0.47740040585619831 -0.37866244440872338 0 -0.49060613499488609 -0.35614893486031152 0 -0.5 -0.36613403373003761 0 -0.47740040585619831 -0.37866244440872338 0 -0.49060613499488609 -0.35614893486031152 0 -0.47045198686057332 -0.36730653883993608 0 -0.47740040585619831 -0.37866244440872338 0 -0.49060613499488609 -0.35614893486031152 0 -0.47740040585619831 -0.37866244440872338 0 -0.46578787837660351 -0.37724047050536202 0 -0.47045198686057332 -0.36730653883993608 0 -0.46578787837660351 -0.37724047050536202 0 -0.47045198686057332 -0.36730653883993608 0 -0.45533066860105098 -0.36501327111446669 0 -0.45567031296207849 -0.38026519902373501 0 -0.46578787837660351 -0.37724047050536202 0 -0.45533066860105098 -0.36501327111446669 0 -0.46913513755463587 -0.34330807795899371 0 -0.47045198686057332 -0.36730653883993608 0 -0.45533066860105098 -0.36501327111446669 0 -0.46913513755463587 -0.34330807795899371 0 -0.45533066860105098 -0.36501327111446669 0 -0.4476242653069985 -0.35119819878437991 0 -0.45280734193905331 -0.33762256438041383 0 -0.46913513755463587 -0.34330807795899371 0 -0.4476242653069985 -0.35119819878437991 0 -0.43930412213651732 -0.33250547479781101 0 -0.4476242653069985 -0.35119819878437991 0 -0.42766468384704648 -0.34842325739217339 0 -0.44546726379484769 -0.37837182148071941 0 -0.45533066860105098 -0.36501327111446669 0 -0.4385075982461436 -0.36984117428956331 0 -0.4476242653069985 -0.35119819878437991 0 -0.4385075982461436 -0.36984117428956331 0 -0.43505300150821019 -0.35813648410269699 0 -0.45533066860105098 -0.36501327111446669 0 -0.4476242653069985 -0.35119819878437991 0 -0.4385075982461436 -0.36984117428956331 0 -0.45567031296207849 -0.38026519902373501 0 -0.44546726379484769 -0.37837182148071941 0 -0.45533066860105098 -0.36501327111446669 0 -0.42512980446940107 -0.37541018896899181 0 -0.4259851491922223 -0.36630398466086561 0 -0.41503021305809329 -0.3711562178611495 0 -0.42512980446940107 -0.37541018896899181 0 -0.4259851491922223 -0.36630398466086561 0 -0.4385075982461436 -0.36984117428956331 0 -0.4259851491922223 -0.36630398466086561 0 -0.42512980446940107 -0.37541018896899181 0 -0.4385075982461436 -0.36984117428956331 0 -0.4259851491922223 -0.36630398466086561 0 -0.4385075982461436 -0.36984117428956331 0 -0.4259851491922223 -0.36630398466086561 0 -0.43505300150821019 -0.35813648410269699 0 -0.4476242653069985 -0.35119819878437991 0 -0.43505300150821019 -0.35813648410269699 0 -0.42766468384704648 -0.34842325739217339 0 -0.4259851491922223 -0.36630398466086561 0 -0.42766468384704648 -0.34842325739217339 0 -0.4259851491922223 -0.36630398466086561 0 -0.42766468384704648 -0.34842325739217339 0 -0.41845088003161579 -0.36102380755221442 0 -0.4259851491922223 -0.36630398466086561 0 -0.43505300150821019 -0.35813648410269699 0 -0.42766468384704648 -0.34842325739217339 0 -0.42766468384704648 -0.34842325739217339 0 -0.41845088003161579 -0.36102380755221442 0 -0.41159737553690517 -0.34634342724695261 0 -0.41845088003161579 -0.36102380755221442 0 -0.40230513838279353 -0.35961514222422147 0 -0.42766468384704648 -0.34842325739217339 0 -0.41159737553690517 -0.34634342724695261 0 -0.41845088003161579 -0.36102380755221442 0 -0.4259851491922223 -0.36630398466086561 0 -0.41503021305809329 -0.3711562178611495 0 -0.40230513838279353 -0.35961514222422147 0 -0.4259851491922223 -0.36630398466086561 0 -0.40230513838279353 -0.35961514222422147 0 -0.4259851491922223 -0.36630398466086561 0 -0.41845088003161579 -0.36102380755221442 0 -0.40230513838279353 -0.35961514222422147 0 -0.41503021305809329 -0.3711562178611495 0 -0.40612780941816362 -0.37352494189598617 0 -0.40230513838279353 -0.35961514222422147 0 -0.40230513838279353 -0.35961514222422147 0 -0.39139004529273091 -0.36686402579624722 0 -0.37862512757336447 -0.35292629978757789 0 -0.40612780941816362 -0.37352494189598617 0 -0.40230513838279353 -0.35961514222422147 0 -0.39139004529273091 -0.36686402579624722 0 -0.39182505496934789 -0.37805489951778448 0 -0.40612780941816362 -0.37352494189598617 0 -0.39139004529273091 -0.36686402579624722 0 -0.39182505496934789 -0.37805489951778448 0 -0.39139004529273091 -0.36686402579624722 0 -0.37806709611998529 -0.37019884555566579 0 -0.39139004529273091 -0.36686402579624722 0 -0.37806709611998529 -0.37019884555566579 0 -0.37862512757336447 -0.35292629978757789 0 -0.40230513838279353 -0.35961514222422147 0 -0.37862512757336447 -0.35292629978757789 0 -0.41159737553690517 -0.34634342724695261 0 -0.40230513838279353 -0.35961514222422147 0 -0.39509723496579913 -0.34444782286977121 0 -0.40230513838279353 -0.35961514222422147 0 -0.37862512757336447 -0.35292629978757789 0 -0.39509723496579913 -0.34444782286977121 0 -0.41159737553690517 -0.34634342724695261 0 -0.39509723496579913 -0.34444782286977121 0 -0.40014361020194078 -0.32973730730158779 0 -0.39509723496579913 -0.34444782286977121 0 -0.40014361020194078 -0.32973730730158779 0 -0.38545926827335519 -0.32959316157942392 0 -0.37862512757336447 -0.35292629978757789 0 -0.38545926827335519 -0.32959316157942392 0 -0.3659278087539457 -0.32701822138356418 0 -0.37862512757336447 -0.35292629978757789 0 -0.39509723496579913 -0.34444782286977121 0 -0.38545926827335519 -0.32959316157942392 0 -0.38545926827335519 -0.32959316157942392 0 -0.37819189111157642 -0.31096016299688523 0 -0.3659278087539457 -0.32701822138356418 0 -0.38545926827335519 -0.32959316157942392 0 -0.39469357457311238 -0.31280162160544922 0 -0.37819189111157642 -0.31096016299688523 0 -0.40014361020194078 -0.32973730730158779 0 -0.39469357457311238 -0.31280162160544922 0 -0.41272546147702921 -0.31660492021712661 0 -0.40014361020194078 -0.32973730730158779 0 -0.38545926827335519 -0.32959316157942392 0 -0.39469357457311238 -0.31280162160544922 0 -0.40014361020194078 -0.32973730730158779 0 -0.41272546147702921 -0.31660492021712661 0 -0.41590287448733132 -0.33296208500558783 0 -0.41272546147702921 -0.31660492021712661 0 -0.41590287448733132 -0.33296208500558783 0 -0.42966135910821518 -0.32716617544596838 0 -0.41159737553690517 -0.34634342724695261 0 -0.40014361020194078 -0.32973730730158779 0 -0.41590287448733132 -0.33296208500558783 0 -0.42766468384704648 -0.34842325739217339 0 -0.41159737553690517 -0.34634342724695261 0 -0.41590287448733132 -0.33296208500558783 0 -0.43930412213651732 -0.33250547479781101 0 -0.42766468384704648 -0.34842325739217339 0 -0.42966135910821518 -0.32716617544596838 0 -0.43930412213651732 -0.33250547479781101 0 -0.42766468384704648 -0.34842325739217339 0 -0.42766468384704648 -0.34842325739217339 0 -0.41590287448733132 -0.33296208500558783 0 -0.42966135910821518 -0.32716617544596838 0 -0.42766468384704648 -0.34842325739217339 0 -0.42966135910821518 -0.32716617544596838 0 -0.4387732422136747 -0.31655765756509863 0 -0.43930412213651732 -0.33250547479781101 0 -0.42966135910821518 -0.32716617544596838 0 -0.41272546147702921 -0.31660492021712661 0 -0.42966135910821518 -0.32716617544596838 0 -0.43165803436938532 -0.30590909349976358 0 -0.42966135910821518 -0.32716617544596838 0 -0.43165803436938532 -0.30590909349976358 0 -0.4387732422136747 -0.31655765756509863 0 -0.42966135910821518 -0.32716617544596838 0 -0.43165803436938532 -0.30590909349976358 0 -0.44229913502827078 -0.30061985187850288 0 -0.43165803436938532 -0.30590909349976358 0 -0.4336547096305563 -0.28465201155355879 0 -0.43165803436938532 -0.30590909349976358 0 -0.4336547096305563 -0.28465201155355879 0 -0.41794117588528118 -0.2841550165654475 0 -0.43165803436938532 -0.30590909349976358 0 -0.4336547096305563 -0.28465201155355879 0 -0.43165803436938532 -0.30590909349976358 0 -0.41794117588528118 -0.2841550165654475 0 -0.40339670249033238 -0.29713842979107752 0 -0.41794117588528118 -0.2841550165654475 0 -0.40339670249033238 -0.29713842979107752 0 -0.4032485603658657 -0.27838891855888831 0 -0.41272546147702921 -0.31660492021712661 0 -0.43165803436938532 -0.30590909349976358 0 -0.40339670249033238 -0.29713842979107752 0 -0.39469357457311238 -0.31280162160544922 0 -0.41272546147702921 -0.31660492021712661 0 -0.40339670249033238 -0.29713842979107752 0 -0.39469357457311238 -0.31280162160544922 0 -0.40339670249033238 -0.29713842979107752 0 -0.38824451388444098 -0.29277574774659437 0 -0.37819189111157642 -0.31096016299688523 0 -0.38824451388444098 -0.29277574774659437 0 -0.37169717967474358 -0.29381652547146903 0 -0.39469357457311238 -0.31280162160544922 0 -0.37819189111157642 -0.31096016299688523 0 -0.38824451388444098 -0.29277574774659437 0 -0.38824451388444098 -0.29277574774659437 0 -0.37862201780784349 -0.28028457552675812 0 -0.37169717967474358 -0.29381652547146903 0 -0.38824451388444098 -0.29277574774659437 0 -0.38657268605129519 -0.27586633119648868 0 -0.37862201780784349 -0.28028457552675812 0 -0.40339670249033238 -0.29713842979107752 0 -0.4032485603658657 -0.27838891855888831 0 -0.38657268605129519 -0.27586633119648868 0 -0.40339670249033238 -0.29713842979107752 0 -0.38824451388444098 -0.29277574774659437 0 -0.38657268605129519 -0.27586633119648868 0 -0.40339670249033238 -0.29713842979107752 0 -0.38657268605129519 -0.27586633119648868 0 -0.4032485603658657 -0.27838891855888831 0 -0.39707871186655558 -0.27003762274757331 0 -0.38657268605129519 -0.27586633119648868 0 -0.4032485603658657 -0.27838891855888831 0 -0.39707871186655558 -0.27003762274757331 0 -0.41015193518333198 -0.26918432482979371 0 -0.39707871186655558 -0.27003762274757331 0 -0.40094663154871918 -0.26047038997278171 0 -0.41015193518333198 -0.26918432482979371 0 -0.38657268605129519 -0.27586633119648868 0 -0.36974866961225789 -0.25459423260190001 0 -0.37098602314984441 -0.26819715878643169 0 -0.39707871186655558 -0.27003762274757331 0 -0.38657268605129519 -0.27586633119648868 0 -0.38447374618356578 -0.26627814917991399 0 -0.38657268605129519 -0.27586633119648868 0 -0.37862201780784349 -0.28028457552675812 0 -0.37098602314984441 -0.26819715878643169 0 -0.38657268605129519 -0.27586633119648868 0 -0.36974866961225789 -0.25459423260190001 0 -0.38657268605129519 -0.27586633119648868 0 -0.38447374618356578 -0.26627814917991399 0 -0.36974866961225789 -0.25459423260190001 0 -0.38112758091709659 -0.25537441217556323 0 -0.36602630737336872 -0.24988771933633419 0 -0.38988428883739262 -0.2480663092035745 0 -0.38447374618356578 -0.26627814917991399 0 -0.38112758091709659 -0.25537441217556323 0 -0.40094663154871918 -0.26047038997278171 0 -0.38447374618356578 -0.26627814917991399 0 -0.38112758091709659 -0.25537441217556323 0 -0.36974866961225789 -0.25459423260190001 0 -0.38447374618356578 -0.26627814917991399 0 -0.40094663154871918 -0.26047038997278171 0 -0.39707871186655558 -0.27003762274757331 0 -0.38447374618356578 -0.26627814917991399 0 -0.40094663154871918 -0.26047038997278171 0 -0.38112758091709659 -0.25537441217556323 0 -0.40094663154871918 -0.26047038997278171 0 -0.38988428883739262 -0.2480663092035745 0 -0.40094663154871918 -0.26047038997278171 0 -0.41312622280070271 -0.24673212853871329 0 -0.38988428883739262 -0.2480663092035745 0 -0.40094663154871918 -0.26047038997278171 0 -0.41741951691387269 -0.25466263076564932 0 -0.41015193518333198 -0.26918432482979371 0 -0.40094663154871918 -0.26047038997278171 0 -0.41741951691387269 -0.25466263076564932 0 -0.40094663154871918 -0.26047038997278171 0 -0.41741951691387269 -0.25466263076564932 0 -0.41312622280070271 -0.24673212853871329 0 -0.41741951691387269 -0.25466263076564932 0 -0.41312622280070271 -0.24673212853871329 0 -0.41741951691387269 -0.25466263076564932 0 -0.41015193518333198 -0.26918432482979371 0 -0.42553711327221477 -0.26965732115960389 0 -0.41741951691387269 -0.25466263076564932 0 -0.42553711327221477 -0.26965732115960389 0 -0.41794117588528118 -0.2841550165654475 0 -0.4032485603658657 -0.27838891855888831 0 -0.41015193518333198 -0.26918432482979371 0 -0.41794117588528118 -0.2841550165654475 0 -0.41015193518333198 -0.26918432482979371 0 -0.42553711327221477 -0.26965732115960389 0 -0.4336547096305563 -0.28465201155355879 0 -0.42553711327221477 -0.26965732115960389 0 -0.43609885823592143 -0.25863102145899552 0 -0.4336547096305563 -0.28465201155355879 0 -0.41794117588528118 -0.2841550165654475 0 -0.42553711327221477 -0.26965732115960389 0 -0.4336547096305563 -0.28465201155355879 0 -0.43609885823592143 -0.25863102145899552 0 -0.4336547096305563 -0.28465201155355879 0 -0.42553711327221477 -0.26965732115960389 0 -0.41741951691387269 -0.25466263076564932 0 -0.43609885823592143 -0.25863102145899552 0 -0.44512291106003149 -0.2448953896992169 0 -0.41741951691387269 -0.25466263076564932 0 -0.42553711327221477 -0.26965732115960389 0 -0.43609885823592143 -0.25863102145899552 0 -0.32044529332293531 -0.26472073256094591 0 -0.33217923387065729 -0.25339380460878591 0 -0.31024950802584528 -0.2588172852757088 0 -0.33217923387065729 -0.25339380460878591 0 -0.31024950802584528 -0.2588172852757088 0 -0.31178766327647622 -0.2415869100383104 0 -0.32044529332293531 -0.26472073256094591 0 -0.33217923387065729 -0.25339380460878591 0 -0.32044529332293531 -0.26472073256094591 0 -0.30871135277521428 -0.27604766051310697 0 -0.31024950802584528 -0.2588172852757088 0 -0.32044529332293531 -0.26472073256094591 0 -0.32235963434777698 -0.27770395650671359 0 -0.30871135277521428 -0.27604766051310697 0 -0.32044529332293531 -0.26472073256094591 0 -0.32235963434777698 -0.27770395650671359 0 -0.33713658184353151 -0.27171727398533191 0 -0.32044529332293531 -0.26472073256094591 0 -0.30871135277521428 -0.27604766051310697 0 -0.32235963434777698 -0.27770395650671359 0 -0.3173730803852437 -0.28873824718953622 0 -0.30871135277521428 -0.27604766051310697 0 -0.32235963434777698 -0.27770395650671359 0 -0.33713658184353151 -0.27171727398533191 0 -0.33053450009799462 -0.28733308585845801 0 -0.33713658184353151 -0.27171727398533191 0 -0.33217923387065729 -0.25339380460878591 0 -0.35540062583925031 -0.26683919006777213 0 -0.32044529332293531 -0.26472073256094591 0 -0.33713658184353151 -0.27171727398533191 0 -0.33217923387065729 -0.25339380460878591 0 -0.33217923387065729 -0.25339380460878591 0 -0.33815463984256022 -0.2476256662196912 0 -0.33217923387065729 -0.25339380460878591 0 -0.34584741230798449 -0.25045217551598059 0 -0.33815463984256022 -0.2476256662196912 0 -0.33217923387065729 -0.25339380460878591 0 -0.35540062583925031 -0.26683919006777213 0 -0.33217923387065729 -0.25339380460878591 0 -0.34584741230798449 -0.25045217551598059 0 -0.35540062583925031 -0.26683919006777213 0 -0.34584741230798449 -0.25045217551598059 0 -0.35530596627362709 -0.25098394110675409 0 -0.35540062583925031 -0.26683919006777213 0 -0.35530596627362709 -0.25098394110675409 0 -0.36102226119263647 -0.25838393819103661 0 -0.35540062583925031 -0.26683919006777213 0 -0.35530596627362709 -0.25098394110675409 0 -0.36102226119263647 -0.25838393819103661 0 -0.36974866961225789 -0.25459423260190001 0 -0.35530596627362709 -0.25098394110675409 0 -0.36974866961225789 -0.25459423260190001 0 -0.36602630737336872 -0.24988771933633419 0 -0.36574436933386922 -0.26189574707600838 0 -0.36102226119263647 -0.25838393819103661 0 -0.35540062583925031 -0.26683919006777213 0 -0.36574436933386922 -0.26189574707600838 0 -0.36102226119263647 -0.25838393819103661 0 -0.36974866961225789 -0.25459423260190001 0 -0.36574436933386922 -0.26189574707600838 0 -0.36974866961225789 -0.25459423260190001 0 -0.37098602314984441 -0.26819715878643169 0 -0.38112758091709659 -0.25537441217556323 0 -0.36974866961225789 -0.25459423260190001 0 -0.36602630737336872 -0.24988771933633419 0 -0.36974866961225789 -0.25459423260190001 0 -0.36602630737336872 -0.24988771933633419 0 -0.37862201780784349 -0.28028457552675812 0 -0.37098602314984441 -0.26819715878643169 0 -0.35540062583925031 -0.26683919006777213 0 -0.37862201780784349 -0.28028457552675812 0 -0.35540062583925031 -0.26683919006777213 0 -0.36612863965155062 -0.28141113133255002 0 -0.35540062583925031 -0.26683919006777213 0 -0.35879473528436528 -0.28470423426420088 0 -0.36612863965155062 -0.28141113133255002 0 -0.37862201780784349 -0.28028457552675812 0 -0.35540062583925031 -0.26683919006777213 0 -0.36574436933386922 -0.26189574707600838 0 -0.37098602314984441 -0.26819715878643169 0 -0.35540062583925031 -0.26683919006777213 0 -0.35540062583925031 -0.26683919006777213 0 -0.34969833564204278 -0.27794355233249651 0 -0.35879473528436528 -0.28470423426420088 0 -0.33713658184353151 -0.27171727398533191 0 -0.34969833564204278 -0.27794355233249651 0 -0.34549746593620201 -0.28855779193747261 0 -0.33713658184353151 -0.27171727398533191 0 -0.35540062583925031 -0.26683919006777213 0 -0.34969833564204278 -0.27794355233249651 0 -0.34969833564204278 -0.27794355233249651 0 -0.34549746593620201 -0.28855779193747261 0 -0.35879473528436528 -0.28470423426420088 0 -0.34549746593620201 -0.28855779193747261 0 -0.35833492121290872 -0.29555407768558151 0 -0.35024056704248457 -0.30252648716418018 0 -0.34549746593620201 -0.28855779193747261 0 -0.35024056704248457 -0.30252648716418018 0 -0.33862155509215719 -0.29868213535368698 0 -0.34549746593620201 -0.28855779193747261 0 -0.35833492121290872 -0.29555407768558151 0 -0.35879473528436528 -0.28470423426420088 0 -0.35879473528436528 -0.28470423426420088 0 -0.36612863965155062 -0.28141113133255002 0 -0.37169717967474358 -0.29381652547146903 0 -0.35833492121290872 -0.29555407768558151 0 -0.35879473528436528 -0.28470423426420088 0 -0.37169717967474358 -0.29381652547146903 0 -0.37862201780784349 -0.28028457552675812 0 -0.36612863965155062 -0.28141113133255002 0 -0.37169717967474358 -0.29381652547146903 0 -0.37819189111157642 -0.31096016299688523 0 -0.37169717967474358 -0.29381652547146903 0 -0.36399833572979878 -0.3052317029691754 0 -0.35833492121290872 -0.29555407768558151 0 -0.37169717967474358 -0.29381652547146903 0 -0.36399833572979878 -0.3052317029691754 0 -0.36399833572979878 -0.3052317029691754 0 -0.35024056704248457 -0.30252648716418018 0 -0.35401789767802588 -0.31434185943482862 0 -0.35833492121290872 -0.29555407768558151 0 -0.36399833572979878 -0.3052317029691754 0 -0.35024056704248457 -0.30252648716418018 0 -0.35024056704248457 -0.30252648716418018 0 -0.34232424262055139 -0.3114200946011223 0 -0.35401789767802588 -0.31434185943482862 0 -0.34232424262055139 -0.3114200946011223 0 -0.33014408104551279 -0.30818305116554462 0 -0.33862155509215719 -0.29868213535368698 0 -0.33014408104551279 -0.30818305116554462 0 -0.33862155509215719 -0.29868213535368698 0 -0.32360215173837231 -0.29964761103378668 0 -0.35024056704248457 -0.30252648716418018 0 -0.34232424262055139 -0.3114200946011223 0 -0.33862155509215719 -0.29868213535368698 0 -0.34549746593620201 -0.28855779193747261 0 -0.33862155509215719 -0.29868213535368698 0 -0.33053450009799462 -0.28733308585845801 0 -0.33713658184353151 -0.27171727398533191 0 -0.34549746593620201 -0.28855779193747261 0 -0.33053450009799462 -0.28733308585845801 0 -0.33862155509215719 -0.29868213535368698 0 -0.33053450009799462 -0.28733308585845801 0 -0.32360215173837231 -0.29964761103378668 0 -0.33053450009799462 -0.28733308585845801 0 -0.3173730803852437 -0.28873824718953622 0 -0.32360215173837231 -0.29964761103378668 0 -0.3173730803852437 -0.28873824718953622 0 -0.32360215173837231 -0.29964761103378668 0 -0.30647721224561131 -0.30107444480056078 0 -0.32235963434777698 -0.27770395650671359 0 -0.33053450009799462 -0.28733308585845801 0 -0.3173730803852437 -0.28873824718953622 0 -0.32360215173837231 -0.29964761103378668 0 -0.31846248156371398 -0.31387470183493421 0 -0.30647721224561131 -0.30107444480056078 0 -0.33014408104551279 -0.30818305116554462 0 -0.32360215173837231 -0.29964761103378668 0 -0.31846248156371398 -0.31387470183493421 0 -0.32398203641958012 -0.32723881102008978 0 -0.31846248156371398 -0.31387470183493421 0 -0.3042430717160079 -0.32610122908801448 0 -0.33014408104551279 -0.30818305116554462 0 -0.31846248156371398 -0.31387470183493421 0 -0.33302215736082619 -0.31950439998930169 0 -0.32398203641958012 -0.32723881102008978 0 -0.31846248156371398 -0.31387470183493421 0 -0.33302215736082619 -0.31950439998930169 0 -0.32398203641958012 -0.32723881102008978 0 -0.31299548380299153 -0.33918341219777859 0 -0.33149411732619499 -0.34605852560974393 0 -0.32398203641958012 -0.32723881102008978 0 -0.31299548380299153 -0.33918341219777859 0 -0.32398203641958012 -0.32723881102008978 0 -0.31299548380299153 -0.33918341219777859 0 -0.3042430717160079 -0.32610122908801448 0 -0.33654963388732401 -0.33293309224510098 0 -0.35494511676393542 -0.34623745735093442 0 -0.33149411732619499 -0.34605852560974393 0 -0.32398203641958012 -0.32723881102008978 0 -0.33654963388732401 -0.33293309224510098 0 -0.33149411732619499 -0.34605852560974393 0 -0.33654963388732401 -0.33293309224510098 0 -0.33302215736082619 -0.31950439998930169 0 -0.34793789644677731 -0.32540237229967439 0 -0.32398203641958012 -0.32723881102008978 0 -0.33654963388732401 -0.33293309224510098 0 -0.33302215736082619 -0.31950439998930169 0 -0.34232424262055139 -0.3114200946011223 0 -0.33014408104551279 -0.30818305116554462 0 -0.33302215736082619 -0.31950439998930169 0 -0.34232424262055139 -0.3114200946011223 0 -0.33302215736082619 -0.31950439998930169 0 -0.34793789644677731 -0.32540237229967439 0 -0.34232424262055139 -0.3114200946011223 0 -0.34793789644677731 -0.32540237229967439 0 -0.35401789767802588 -0.31434185943482862 0 -0.34793789644677731 -0.32540237229967439 0 -0.35401789767802588 -0.31434185943482862 0 -0.3659278087539457 -0.32701822138356418 0 -0.37819189111157642 -0.31096016299688523 0 -0.36399833572979878 -0.3052317029691754 0 -0.3659278087539457 -0.32701822138356418 0 -0.36399833572979878 -0.3052317029691754 0 -0.35401789767802588 -0.31434185943482862 0 -0.3659278087539457 -0.32701822138356418 0 -0.37862512757336447 -0.35292629978757789 0 -0.3659278087539457 -0.32701822138356418 0 -0.35494511676393542 -0.34623745735093442 0 -0.33654963388732401 -0.33293309224510098 0 -0.34793789644677731 -0.32540237229967439 0 -0.35494511676393542 -0.34623745735093442 0 -0.34793789644677731 -0.32540237229967439 0 -0.3659278087539457 -0.32701822138356418 0 -0.35494511676393542 -0.34623745735093442 0 -0.35494511676393542 -0.34623745735093442 0 -0.36181340404854029 -0.36423243415248829 0 -0.34491613087807971 -0.35983845717018448 0 -0.35494511676393542 -0.34623745735093442 0 -0.34491613087807971 -0.35983845717018448 0 -0.33149411732619499 -0.34605852560974393 0 -0.37862512757336447 -0.35292629978757789 0 -0.35494511676393542 -0.34623745735093442 0 -0.37862512757336447 -0.35292629978757789 0 -0.35494511676393542 -0.34623745735093442 0 -0.36181340404854029 -0.36423243415248829 0 -0.37806709611998529 -0.37019884555566579 0 -0.36181340404854029 -0.36423243415248829 0 -0.36796056440194752 -0.38124354250862591 0 -0.37806709611998529 -0.37019884555566579 0 -0.37862512757336447 -0.35292629978757789 0 -0.36181340404854029 -0.36423243415248829 0 -0.36181340404854029 -0.36423243415248829 0 -0.36796056440194752 -0.38124354250862591 0 -0.34740229027317931 -0.37728728206859419 0 -0.36181340404854029 -0.36423243415248829 0 -0.34491613087807971 -0.35983845717018448 0 -0.34740229027317931 -0.37728728206859419 0 -0.34491613087807971 -0.35983845717018448 0 -0.32892572597854852 -0.36537658666916178 0 -0.34740229027317931 -0.37728728206859419 0 -0.34491613087807971 -0.35983845717018448 0 -0.32892572597854852 -0.36537658666916178 0 -0.33149411732619499 -0.34605852560974393 0 -0.31299548380299153 -0.33918341219777859 0 -0.33149411732619499 -0.34605852560974393 0 -0.31871567685294949 -0.35269630977065503 0 -0.32892572597854852 -0.36537658666916178 0 -0.33149411732619499 -0.34605852560974393 0 -0.31871567685294949 -0.35269630977065503 0 -0.32892572597854852 -0.36537658666916178 0 -0.31871567685294949 -0.35269630977065503 0 -0.31324692053530678 -0.36499090086960528 0 -0.32892572597854852 -0.36537658666916178 0 -0.31324692053530678 -0.36499090086960528 0 -0.31675011595343128 -0.37801274369223509 0 -0.31324692053530678 -0.36499090086960528 0 -0.31675011595343128 -0.37801274369223509 0 -0.29965547300052398 -0.37749139095495671 0 -0.3020089311864036 -0.35112801337546817 0 -0.29965547300052398 -0.37749139095495671 0 -0.31324692053530678 -0.36499090086960528 0 -0.3020089311864036 -0.35112801337546817 0 -0.29965547300052398 -0.37749139095495671 0 -0.31871567685294949 -0.35269630977065503 0 -0.31324692053530678 -0.36499090086960528 0 -0.3020089311864036 -0.35112801337546817 0 -0.31299548380299153 -0.33918341219777859 0 -0.31871567685294949 -0.35269630977065503 0 -0.3020089311864036 -0.35112801337546817 0 -0.31299548380299153 -0.33918341219777859 0 -0.3020089311864036 -0.35112801337546817 0 -0.3020089311864036 -0.35112801337546817 0 -0.28538106301538729 -0.36028805644514322 0 -0.27916336960675359 -0.34852442906377318 0 -0.3020089311864036 -0.35112801337546817 0 -0.27916336960675359 -0.34852442906377318 0 -0.29197729802810918 -0.3376193767015615 0 -0.3020089311864036 -0.35112801337546817 0 -0.28249212483161662 -0.37234672285655762 0 -0.3020089311864036 -0.35112801337546817 0 -0.28249212483161662 -0.37234672285655762 0 -0.29965547300052398 -0.37749139095495671 0 -0.3020089311864036 -0.35112801337546817 0 -0.28538106301538729 -0.36028805644514322 0 -0.28249212483161662 -0.37234672285655762 0 -0.28538106301538729 -0.36028805644514322 0 -0.28249212483161662 -0.37234672285655762 0 -0.27874385369435578 -0.37090624818397872 0 -0.28538106301538729 -0.36028805644514322 0 -0.27874385369435578 -0.37090624818397872 0 -0.27916336960675359 -0.34852442906377318 0 -0.27874385369435578 -0.37090624818397872 0 -0.27491795730079732 -0.37406623059446048 0 -0.26852639293794789 -0.37143730576861278 0 -0.27874385369435578 -0.37090624818397872 0 -0.26689629967721151 -0.35948934116556408 0 -0.27916336960675359 -0.34852442906377318 0 -0.28249212483161662 -0.37234672285655762 0 -0.27874385369435578 -0.37090624818397872 0 -0.27491795730079732 -0.37406623059446048 0 -0.27874385369435578 -0.37090624818397872 0 -0.27916336960675359 -0.34852442906377318 0 -0.27874385369435578 -0.37090624818397872 0 -0.26689629967721151 -0.35948934116556408 0 -0.26852639293794789 -0.37143730576861278 0 -0.26689629967721151 -0.35948934116556408 0 -0.26852639293794789 -0.37143730576861278 0 -0.25854009537799472 -0.37366270180325412 0 -0.26689629967721151 -0.35948934116556408 0 -0.25854009537799472 -0.37366270180325412 0 -0.24823058369421111 -0.35707636429209633 0 -0.26689629967721151 -0.35948934116556408 0 -0.26508687474269288 -0.33943895014858733 0 -0.24823058369421111 -0.35707636429209633 0 -0.26508687474269288 -0.33943895014858733 0 -0.24823058369421111 -0.35707636429209633 0 -0.24452904022962091 -0.33800369540610359 0 -0.26689629967721151 -0.35948934116556408 0 -0.27916336960675359 -0.34852442906377318 0 -0.26508687474269288 -0.33943895014858733 0 -0.27916336960675359 -0.34852442906377318 0 -0.26508687474269288 -0.33943895014858733 0 -0.27958288551915139 -0.32614260994356781 0 -0.26508687474269288 -0.33943895014858733 0 -0.2622657208305843 -0.32088224311473262 0 -0.27958288551915139 -0.32614260994356781 0 -0.27916336960675359 -0.34852442906377318 0 -0.27958288551915139 -0.32614260994356781 0 -0.26508687474269288 -0.33943895014858733 0 -0.2622657208305843 -0.32088224311473262 0 -0.24452904022962091 -0.33800369540610359 0 -0.2622657208305843 -0.32088224311473262 0 -0.24452904022962091 -0.33800369540610359 0 -0.2622657208305843 -0.32088224311473262 0 -0.25485185364117569 -0.31091628090915507 0 -0.2424342912697138 -0.31726817694032772 0 -0.2622657208305843 -0.32088224311473262 0 -0.26365684937450301 -0.30647033263742068 0 -0.25485185364117569 -0.31091628090915507 0 -0.2622657208305843 -0.32088224311473262 0 -0.27958288551915139 -0.32614260994356781 0 -0.28000240143154848 -0.30376079082336233 0 -0.27958288551915139 -0.32614260994356781 0 -0.28000240143154848 -0.30376079082336233 0 -0.27958288551915139 -0.32614260994356781 0 -0.29276219429131928 -0.31195964755777439 0 -0.28000240143154848 -0.30376079082336233 0 -0.29214136238864702 -0.32545571582272947 0 -0.3042430717160079 -0.32610122908801448 0 -0.29276219429131928 -0.31195964755777439 0 -0.27958288551915139 -0.32614260994356781 0 -0.29214136238864702 -0.32545571582272947 0 -0.29276219429131928 -0.31195964755777439 0 -0.27958288551915139 -0.32614260994356781 0 -0.29214136238864702 -0.32545571582272947 0 -0.29197729802810918 -0.3376193767015615 0 -0.27916336960675359 -0.34852442906377318 0 -0.27958288551915139 -0.32614260994356781 0 -0.29197729802810918 -0.3376193767015615 0 -0.29214136238864702 -0.32545571582272947 0 -0.29197729802810918 -0.3376193767015615 0 -0.3042430717160079 -0.32610122908801448 0 -0.3020089311864036 -0.35112801337546817 0 -0.29197729802810918 -0.3376193767015615 0 -0.3042430717160079 -0.32610122908801448 0 -0.31299548380299153 -0.33918341219777859 0 -0.3020089311864036 -0.35112801337546817 0 -0.3042430717160079 -0.32610122908801448 0 -0.3020089311864036 -0.35112801337546817 0 -0.3042430717160079 -0.32610122908801448 0 -0.31846248156371398 -0.31387470183493421 0 -0.3042430717160079 -0.32610122908801448 0 -0.30647721224561131 -0.30107444480056078 0 -0.3042430717160079 -0.32610122908801448 0 -0.30647721224561131 -0.30107444480056078 0 -0.3042430717160079 -0.32610122908801448 0 -0.30647721224561131 -0.30107444480056078 0 -0.29276219429131928 -0.31195964755777439 0 -0.30647721224561131 -0.30107444480056078 0 -0.29435687710338082 -0.28990422566823398 0 -0.29276219429131928 -0.31195964755777439 0 -0.3173730803852437 -0.28873824718953622 0 -0.30647721224561131 -0.30107444480056078 0 -0.30871135277521428 -0.27604766051310697 0 -0.30647721224561131 -0.30107444480056078 0 -0.30871135277521428 -0.27604766051310697 0 -0.30647721224561131 -0.30107444480056078 0 -0.29435687710338082 -0.28990422566823398 0 -0.30871135277521428 -0.27604766051310697 0 -0.29435687710338082 -0.28990422566823398 0 -0.30871135277521428 -0.27604766051310697 0 -0.29435687710338082 -0.28990422566823398 0 -0.28000240143154848 -0.30376079082336233 0 -0.280492404374246 -0.27761838023130281 0 -0.29435687710338082 -0.28990422566823398 0 -0.280492404374246 -0.27761838023130281 0 -0.29445696508050101 -0.27734691575725412 0 -0.29435687710338082 -0.28990422566823398 0 -0.28000240143154848 -0.30376079082336233 0 -0.29435687710338082 -0.28990422566823398 0 -0.29276219429131928 -0.31195964755777439 0 -0.28000240143154848 -0.30376079082336233 0 -0.2622657208305843 -0.32088224311473262 0 -0.28000240143154848 -0.30376079082336233 0 -0.26365684937450301 -0.30647033263742068 0 -0.28000240143154848 -0.30376079082336233 0 -0.26821146512390009 -0.29954320688198011 0 -0.26365684937450301 -0.30647033263742068 0 -0.2622657208305843 -0.32088224311473262 0 -0.28000240143154848 -0.30376079082336233 0 -0.28000240143154848 -0.30376079082336233 0 -0.26821146512390009 -0.29954320688198011 0 -0.27813605659964707 -0.2888973331229982 0 -0.26821146512390009 -0.29954320688198011 0 -0.26365684937450301 -0.30647033263742068 0 -0.25105055308990187 -0.29904437094413933 0 -0.26365684937450301 -0.30647033263742068 0 -0.25105055308990187 -0.29904437094413933 0 -0.25485185364117569 -0.31091628090915507 0 -0.25105055308990187 -0.29904437094413933 0 -0.27813605659964707 -0.2888973331229982 0 -0.25105055308990187 -0.29904437094413933 0 -0.25520024324094709 -0.28952989485031178 0 -0.27813605659964707 -0.2888973331229982 0 -0.25520024324094709 -0.28952989485031178 0 -0.27006854836404809 -0.28114902436007422 0 -0.26401861847471791 -0.27690738539956711 0 -0.28000240143154848 -0.30376079082336233 0 -0.280492404374246 -0.27761838023130281 0 -0.26821146512390009 -0.29954320688198011 0 -0.25105055308990187 -0.29904437094413933 0 -0.27813605659964707 -0.2888973331229982 0 -0.25520024324094709 -0.28952989485031178 0 -0.27813605659964707 -0.2888973331229982 0 -0.27006854836404809 -0.28114902436007422 0 -0.28000240143154848 -0.30376079082336233 0 -0.27813605659964707 -0.2888973331229982 0 -0.280492404374246 -0.27761838023130281 0 -0.27813605659964707 -0.2888973331229982 0 -0.280492404374246 -0.27761838023130281 0 -0.27006854836404809 -0.28114902436007422 0 -0.280492404374246 -0.27761838023130281 0 -0.26974522906178428 -0.27402919386980201 0 -0.27032886792179828 -0.26378832605123431 0 -0.26974522906178428 -0.27402919386980201 0 -0.26414066725455382 -0.26900311951873801 0 -0.27032886792179828 -0.26378832605123431 0 -0.26974522906178428 -0.27402919386980201 0 -0.26401861847471791 -0.27690738539956711 0 -0.26414066725455382 -0.26900311951873801 0 -0.280492404374246 -0.27761838023130281 0 -0.27006854836404809 -0.28114902436007422 0 -0.26974522906178428 -0.27402919386980201 0 -0.27006854836404809 -0.28114902436007422 0 -0.26974522906178428 -0.27402919386980201 0 -0.26401861847471791 -0.27690738539956711 0 -0.25520024324094709 -0.28952989485031178 0 -0.25497060464776611 -0.26946607999266198 0 -0.25520024324094709 -0.28952989485031178 0 -0.26401861847471791 -0.27690738539956711 0 -0.25497060464776611 -0.26946607999266198 0 -0.25520024324094709 -0.28952989485031178 0 -0.25497060464776611 -0.26946607999266198 0 -0.24460591383417499 -0.27920758034247489 0 -0.26414066725455382 -0.26900311951873801 0 -0.25497060464776611 -0.26946607999266198 0 -0.26164001616670213 -0.26082461228042447 0 -0.26401861847471791 -0.27690738539956711 0 -0.26414066725455382 -0.26900311951873801 0 -0.25497060464776611 -0.26946607999266198 0 -0.25497060464776611 -0.26946607999266198 0 -0.26164001616670213 -0.26082461228042447 0 -0.25474096605458452 -0.24940226513501221 0 -0.25497060464776611 -0.26946607999266198 0 -0.25474096605458452 -0.24940226513501221 0 -0.25497060464776611 -0.26946607999266198 0 -0.24996920996262001 -0.25890031527547408 0 -0.25474096605458452 -0.24940226513501221 0 -0.24996920996262001 -0.25890031527547408 0 -0.25474096605458452 -0.24940226513501221 0 -0.25497060464776611 -0.26946607999266198 0 -0.24996920996262001 -0.25890031527547408 0 -0.2457352516265868 -0.26708665517320851 0 -0.26414066725455382 -0.26900311951873801 0 -0.26164001616670213 -0.26082461228042447 0 -0.27032886792179828 -0.26378832605123431 0 -0.26164001616670213 -0.26082461228042447 0 -0.26645699982561721 -0.25273161929269761 0 -0.25474096605458452 -0.24940226513501221 0 -0.280492404374246 -0.27761838023130281 0 -0.28098240731694268 -0.25147596963924318 0 -0.26645699982561721 -0.25273161929269761 0 -0.27032886792179828 -0.26378832605123431 0 -0.28098240731694268 -0.25147596963924318 0 -0.280492404374246 -0.27761838023130281 0 -0.27032886792179828 -0.26378832605123431 0 -0.28098240731694268 -0.25147596963924318 0 -0.26164001616670213 -0.26082461228042447 0 -0.26645699982561721 -0.25273161929269761 0 -0.27032886792179828 -0.26378832605123431 0 -0.280492404374246 -0.27761838023130281 0 -0.28098240731694268 -0.25147596963924318 0 -0.29426722606916278 -0.26581739661637233 0 -0.28098240731694268 -0.25147596963924318 0 -0.29426722606916278 -0.26581739661637233 0 -0.29586806936253279 -0.24754567328369301 0 -0.280492404374246 -0.27761838023130281 0 -0.29445696508050101 -0.27734691575725412 0 -0.29426722606916278 -0.26581739661637233 0 -0.29426722606916278 -0.26581739661637233 0 -0.30871135277521428 -0.27604766051310697 0 -0.31024950802584528 -0.2588172852757088 0 -0.29445696508050101 -0.27734691575725412 0 -0.29426722606916278 -0.26581739661637233 0 -0.30871135277521428 -0.27604766051310697 0 -0.30871135277521428 -0.27604766051310697 0 -0.31024950802584528 -0.2588172852757088 0 -0.29435687710338082 -0.28990422566823398 0 -0.29445696508050101 -0.27734691575725412 0 -0.30871135277521428 -0.27604766051310697 0 -0.29426722606916278 -0.26581739661637233 0 -0.31024950802584528 -0.2588172852757088 0 -0.29586806936253279 -0.24754567328369301 0 -0.31024950802584528 -0.2588172852757088 0 -0.31178766327647622 -0.2415869100383104 0 -0.34150423968104382 -0.44754853035788889 0 -0.32638489580629859 -0.45049606475015691 0 -0.3457981563620689 -0.46652805618289178 0 -0.32638489580629859 -0.45049606475015691 0 -0.3457981563620689 -0.46652805618289178 0 -0.32638489580629859 -0.45049606475015691 0 -0.32205508572647401 -0.46597682427473669 0 -0.3457981563620689 -0.46652805618289178 0 -0.34150423968104382 -0.44754853035788889 0 -0.33949271643592738 -0.43166653627479068 0 -0.32552298543790981 -0.433748432230042 0 -0.34150423968104382 -0.44754853035788889 0 -0.32638489580629859 -0.45049606475015691 0 -0.32552298543790981 -0.433748432230042 0 -0.32638489580629859 -0.45049606475015691 0 -0.32552298543790981 -0.433748432230042 0 -0.30697163525052829 -0.43446407331742198 0 -0.32638489580629859 -0.45049606475015691 0 -0.30697163525052829 -0.43446407331742198 0 -0.30654218114048309 -0.45411251036540901 0 -0.32638489580629859 -0.45049606475015691 0 -0.30697163525052829 -0.43446407331742198 0 -0.32638489580629859 -0.45049606475015691 0 -0.32205508572647401 -0.46597682427473669 0 -0.30654218114048309 -0.45411251036540901 0 -0.31446746008415483 -0.47847635880979827 0 -0.32024547058525032 -0.48815387565794571 0 -0.33106271397009951 -0.4780645406893545 0 -0.32205508572647401 -0.46597682427473669 0 -0.31446746008415483 -0.47847635880979827 0 -0.33106271397009951 -0.4780645406893545 0 -0.32205508572647401 -0.46597682427473669 0 -0.31446746008415483 -0.47847635880979827 0 -0.30807510699573948 -0.46818341485081028 0 -0.32024547058525032 -0.48815387565794571 0 -0.3325158752577228 -0.5 0 -0.30982209380979531 -0.49553754780393777 0 -0.3325158752577228 -0.5 0 -0.30349745320074523 -0.5 0 -0.30982209380979531 -0.49553754780393777 0 -0.32024547058525032 -0.48815387565794571 0 -0.3325158752577228 -0.5 0 -0.33106271397009951 -0.4780645406893545 0 -0.31446746008415483 -0.47847635880979827 0 -0.31310222102073992 -0.48732719856924128 0 -0.32024547058525032 -0.48815387565794571 0 -0.31310222102073992 -0.48732719856924128 0 -0.32024547058525032 -0.48815387565794571 0 -0.30982209380979531 -0.49553754780393777 0 -0.3325158752577228 -0.5 0 -0.33106271397009951 -0.4780645406893545 0 -0.34722449196448618 -0.4854305288975746 0 -0.32205508572647401 -0.46597682427473669 0 -0.33106271397009951 -0.4780645406893545 0 -0.3457981563620689 -0.46652805618289178 0 -0.33106271397009951 -0.4780645406893545 0 -0.34722449196448618 -0.4854305288975746 0 -0.3457981563620689 -0.46652805618289178 0 -0.34722449196448618 -0.4854305288975746 0 -0.36521141691783932 -0.48256004761562671 0 -0.3457981563620689 -0.46652805618289178 0 -0.36521141691783932 -0.48256004761562671 0 -0.36030588290248211 -0.4687051952927565 0 -0.3457981563620689 -0.46652805618289178 0 -0.36521141691783932 -0.48256004761562671 0 -0.3457981563620689 -0.46652805618289178 0 -0.3325158752577228 -0.5 0 -0.34722449196448618 -0.4854305288975746 0 -0.36153429731470038 -0.5 0 -0.34722449196448618 -0.4854305288975746 0 -0.36153429731470038 -0.5 0 -0.36521141691783932 -0.48256004761562671 0 -0.38462467747360962 -0.49859203904836158 0 -0.36153429731470038 -0.5 0 -0.36521141691783932 -0.48256004761562671 0 -0.38462467747360962 -0.49859203904836158 0 -0.36521141691783932 -0.48256004761562671 0 -0.38462467747360962 -0.49859203904836158 0 -0.36521141691783932 -0.48256004761562671 0 -0.37358889256723288 -0.47524422579083558 0 -0.36521141691783932 -0.48256004761562671 0 -0.37358889256723288 -0.47524422579083558 0 -0.36030588290248211 -0.4687051952927565 0 -0.37358889256723288 -0.47524422579083558 0 -0.36030588290248211 -0.4687051952927565 0 -0.35662506576278752 -0.45048845158167211 0 -0.37358889256723288 -0.47524422579083558 0 -0.37259124437924462 -0.4585940236589327 0 -0.35662506576278752 -0.45048845158167211 0 -0.37358889256723288 -0.47524422579083558 0 -0.35662506576278752 -0.45048845158167211 0 -0.34150423968104382 -0.44754853035788889 0 -0.3457981563620689 -0.46652805618289178 0 -0.35662506576278752 -0.45048845158167211 0 -0.36030588290248211 -0.4687051952927565 0 -0.3457981563620689 -0.46652805618289178 0 -0.35662506576278752 -0.45048845158167211 0 -0.34150423968104382 -0.44754853035788889 0 -0.35278206996112638 -0.43705600623973517 0 -0.33949271643592738 -0.43166653627479068 0 -0.34150423968104382 -0.44754853035788889 0 -0.35662506576278752 -0.45048845158167211 0 -0.35278206996112638 -0.43705600623973517 0 -0.37477801086035001 -0.44467785641080287 0 -0.35278206996112638 -0.43705600623973517 0 -0.37259124437924462 -0.4585940236589327 0 -0.35662506576278752 -0.45048845158167211 0 -0.37477801086035001 -0.44467785641080287 0 -0.35662506576278752 -0.45048845158167211 0 -0.37477801086035001 -0.44467785641080287 0 -0.35278206996112638 -0.43705600623973517 0 -0.37477801086035001 -0.44467785641080287 0 -0.36600546413519441 -0.42582984354445552 0 -0.35278206996112638 -0.43705600623973517 0 -0.38259376701554748 -0.42424463091800019 0 -0.37477801086035001 -0.44467785641080287 0 -0.36600546413519441 -0.42582984354445552 0 -0.37704218087991392 -0.41163515313220372 0 -0.36600546413519441 -0.42582984354445552 0 -0.36130207608205323 -0.40954394757697798 0 -0.37704218087991392 -0.41163515313220372 0 -0.36130207608205323 -0.40954394757697798 0 -0.37287900164024479 -0.39761685205590408 0 -0.36130207608205323 -0.40954394757697798 0 -0.34512236258828788 -0.4068065504879147 0 -0.35012850937075141 -0.42161057475650482 0 -0.36600546413519441 -0.42582984354445552 0 -0.36130207608205323 -0.40954394757697798 0 -0.35012850937075141 -0.42161057475650482 0 -0.36600546413519441 -0.42582984354445552 0 -0.35012850937075141 -0.42161057475650482 0 -0.35278206996112638 -0.43705600623973517 0 -0.35012850937075141 -0.42161057475650482 0 -0.35278206996112638 -0.43705600623973517 0 -0.33949271643592738 -0.43166653627479068 0 -0.38234652813425107 -0.38840387375272001 0 -0.36796056440194752 -0.38124354250862591 0 -0.37287900164024479 -0.39761685205590408 0 -0.36796056440194752 -0.38124354250862591 0 -0.37287900164024479 -0.39761685205590408 0 -0.35632311282679863 -0.39441300484790481 0 -0.36130207608205323 -0.40954394757697798 0 -0.37287900164024479 -0.39761685205590408 0 -0.35632311282679863 -0.39441300484790481 0 -0.36130207608205323 -0.40954394757697798 0 -0.34512236258828788 -0.4068065504879147 0 -0.35632311282679863 -0.39441300484790481 0 -0.34512236258828788 -0.4068065504879147 0 -0.35632311282679863 -0.39441300484790481 0 -0.34061387724792042 -0.39443448224989908 0 -0.35632311282679863 -0.39441300484790481 0 -0.34740229027317931 -0.37728728206859419 0 -0.34061387724792042 -0.39443448224989908 0 -0.36796056440194752 -0.38124354250862591 0 -0.35632311282679863 -0.39441300484790481 0 -0.34740229027317931 -0.37728728206859419 0 -0.34740229027317931 -0.37728728206859419 0 -0.32988971292606778 -0.38273983404135548 0 -0.34061387724792042 -0.39443448224989908 0 -0.32892572597854852 -0.36537658666916178 0 -0.34740229027317931 -0.37728728206859419 0 -0.32988971292606778 -0.38273983404135548 0 -0.34512236258828788 -0.4068065504879147 0 -0.32869787056840788 -0.40295671993982468 0 -0.34061387724792042 -0.39443448224989908 0 -0.32988971292606778 -0.38273983404135548 0 -0.32869787056840788 -0.40295671993982468 0 -0.34061387724792042 -0.39443448224989908 0 -0.32869787056840788 -0.40295671993982468 0 -0.31440127151796571 -0.39266479000372329 0 -0.31516617106372652 -0.4149292712313617 0 -0.32988971292606778 -0.38273983404135548 0 -0.32869787056840788 -0.40295671993982468 0 -0.31440127151796571 -0.39266479000372329 0 -0.32892572597854852 -0.36537658666916178 0 -0.32988971292606778 -0.38273983404135548 0 -0.31675011595343128 -0.37801274369223509 0 -0.32988971292606778 -0.38273983404135548 0 -0.31440127151796571 -0.39266479000372329 0 -0.31675011595343128 -0.37801274369223509 0 -0.35012850937075141 -0.42161057475650482 0 -0.33949271643592738 -0.43166653627479068 0 -0.33366872943379577 -0.4178805735563772 0 -0.33949271643592738 -0.43166653627479068 0 -0.33366872943379577 -0.4178805735563772 0 -0.32552298543790981 -0.433748432230042 0 -0.34512236258828788 -0.4068065504879147 0 -0.32869787056840788 -0.40295671993982468 0 -0.33366872943379577 -0.4178805735563772 0 -0.34512236258828788 -0.4068065504879147 0 -0.35012850937075141 -0.42161057475650482 0 -0.33366872943379577 -0.4178805735563772 0 -0.32869787056840788 -0.40295671993982468 0 -0.33366872943379577 -0.4178805735563772 0 -0.31516617106372652 -0.4149292712313617 0 -0.31516617106372652 -0.4149292712313617 0 -0.32552298543790981 -0.433748432230042 0 -0.30697163525052829 -0.43446407331742198 0 -0.33366872943379577 -0.4178805735563772 0 -0.31516617106372652 -0.4149292712313617 0 -0.32552298543790981 -0.433748432230042 0 -0.31516617106372652 -0.4149292712313617 0 -0.30697163525052829 -0.43446407331742198 0 -0.30189099125243207 -0.41746712794590229 0 -0.30697163525052829 -0.43446407331742198 0 -0.28755837469475798 -0.41843208188468722 0 -0.30697163525052829 -0.43446407331742198 0 -0.30189099125243207 -0.41746712794590229 0 -0.28755837469475798 -0.41843208188468722 0 -0.31516617106372652 -0.4149292712313617 0 -0.30189099125243207 -0.41746712794590229 0 -0.29730201481464352 -0.40385476853444502 0 -0.30189099125243207 -0.41746712794590229 0 -0.28755837469475798 -0.41843208188468722 0 -0.29730201481464352 -0.40385476853444502 0 -0.28755837469475798 -0.41843208188468722 0 -0.29730201481464352 -0.40385476853444502 0 -0.2832677867335236 -0.40582461318122098 0 -0.28755837469475798 -0.41843208188468722 0 -0.2832677867335236 -0.40582461318122098 0 -0.27732704541651299 -0.41493500192272481 0 -0.30697163525052829 -0.43446407331742198 0 -0.28755837469475798 -0.41843208188468722 0 -0.2953087727291685 -0.44179082748682502 0 -0.28755837469475798 -0.41843208188468722 0 -0.28223946768849928 -0.44005273869697259 0 -0.2953087727291685 -0.44179082748682502 0 -0.28755837469475798 -0.41843208188468722 0 -0.27488832541738722 -0.42711940441238699 0 -0.28223946768849928 -0.44005273869697259 0 -0.31440127151796571 -0.39266479000372329 0 -0.31675011595343128 -0.37801274369223509 0 -0.29965547300052398 -0.37749139095495671 0 -0.29965547300052398 -0.37749139095495671 0 -0.29730201481464352 -0.40385476853444502 0 -0.31440127151796571 -0.39266479000372329 0 -0.31516617106372652 -0.4149292712313617 0 -0.29730201481464352 -0.40385476853444502 0 -0.31440127151796571 -0.39266479000372329 0 -0.29965547300052398 -0.37749139095495671 0 -0.29730201481464352 -0.40385476853444502 0 -0.29730201481464352 -0.40385476853444502 0 -0.2832677867335236 -0.40582461318122098 0 -0.28560846025042569 -0.39791062168938579 0 -0.2832677867335236 -0.40582461318122098 0 -0.28560846025042569 -0.39791062168938579 0 -0.27778143775676328 -0.39468848338127288 0 -0.28560846025042569 -0.39791062168938579 0 -0.28863573281915578 -0.38953965865073981 0 -0.27778143775676328 -0.39468848338127288 0 -0.29730201481464352 -0.40385476853444502 0 -0.28560846025042569 -0.39791062168938579 0 -0.28863573281915578 -0.38953965865073981 0 -0.28249212483161662 -0.37234672285655762 0 -0.29965547300052398 -0.37749139095495671 0 -0.28863573281915578 -0.38953965865073981 0 -0.29965547300052398 -0.37749139095495671 0 -0.29730201481464352 -0.40385476853444502 0 -0.28863573281915578 -0.38953965865073981 0 -0.28249212483161662 -0.37234672285655762 0 -0.28863573281915578 -0.38953965865073981 0 -0.27778143775676328 -0.39468848338127288 0 -0.28249212483161662 -0.37234672285655762 0 -0.27778143775676328 -0.39468848338127288 0 -0.26297531847683048 -0.39356543233764779 0 -0.28249212483161662 -0.37234672285655762 0 -0.26990945773926911 -0.38157464556869319 0 -0.26297531847683048 -0.39356543233764779 0 -0.28249212483161662 -0.37234672285655762 0 -0.26297531847683048 -0.39356543233764779 0 -0.26852639293794789 -0.37143730576861278 0 -0.25854009537799472 -0.37366270180325412 0 -0.26990945773926911 -0.38157464556869319 0 -0.27491795730079732 -0.37406623059446048 0 -0.26852639293794789 -0.37143730576861278 0 -0.26990945773926911 -0.38157464556869319 0 -0.28249212483161662 -0.37234672285655762 0 -0.27491795730079732 -0.37406623059446048 0 -0.26990945773926911 -0.38157464556869319 0 -0.26885738368512668 -0.3975199791230084 0 -0.27778143775676328 -0.39468848338127288 0 -0.26297531847683048 -0.39356543233764779 0 -0.26885738368512668 -0.3975199791230084 0 -0.26297531847683048 -0.39356543233764779 0 -0.2832677867335236 -0.40582461318122098 0 -0.27778143775676328 -0.39468848338127288 0 -0.27263325750066481 -0.40611235583034971 0 -0.26885738368512668 -0.3975199791230084 0 -0.27778143775676328 -0.39468848338127288 0 -0.27263325750066481 -0.40611235583034971 0 -0.26885738368512668 -0.3975199791230084 0 -0.27263325750066481 -0.40611235583034971 0 -0.26356152909764391 -0.40673008964464541 0 -0.26297531847683048 -0.39356543233764779 0 -0.25048966069534118 -0.40713986353964399 0 -0.24652040123758451 -0.39349923948501719 0 -0.26885738368512668 -0.3975199791230084 0 -0.26297531847683048 -0.39356543233764779 0 -0.26356152909764391 -0.40673008964464541 0 -0.26297531847683048 -0.39356543233764779 0 -0.26356152909764391 -0.40673008964464541 0 -0.25048966069534118 -0.40713986353964399 0 -0.26297531847683048 -0.39356543233764779 0 -0.25048966069534118 -0.40713986353964399 0 -0.25854009537799472 -0.37366270180325412 0 -0.26990945773926911 -0.38157464556869319 0 -0.26297531847683048 -0.39356543233764779 0 -0.25854009537799472 -0.37366270180325412 0 -0.26297531847683048 -0.39356543233764779 0 -0.23843536714441091 -0.37706707976624332 0 -0.26297531847683048 -0.39356543233764779 0 -0.23843536714441091 -0.37706707976624332 0 -0.27488832541738722 -0.42711940441238699 0 -0.26994477653088977 -0.4434735214888067 0 -0.28223946768849928 -0.44005273869697259 0 -0.27488832541738722 -0.42711940441238699 0 -0.26300749187366701 -0.4307648518290888 0 -0.26994477653088977 -0.4434735214888067 0 -0.27488832541738722 -0.42711940441238699 0 -0.26828748273623182 -0.41718655430497942 0 -0.26300749187366701 -0.4307648518290888 0 -0.28755837469475798 -0.41843208188468722 0 -0.27488832541738722 -0.42711940441238699 0 -0.27732704541651299 -0.41493500192272481 0 -0.27488832541738722 -0.42711940441238699 0 -0.27732704541651299 -0.41493500192272481 0 -0.26828748273623182 -0.41718655430497942 0 -0.2832677867335236 -0.40582461318122098 0 -0.27263325750066481 -0.40611235583034971 0 -0.27732704541651299 -0.41493500192272481 0 -0.27263325750066481 -0.40611235583034971 0 -0.26828748273623182 -0.41718655430497942 0 -0.26356152909764391 -0.40673008964464541 0 -0.27263325750066481 -0.40611235583034971 0 -0.27732704541651299 -0.41493500192272481 0 -0.26828748273623182 -0.41718655430497942 0 -0.26828748273623182 -0.41718655430497942 0 -0.26356152909764391 -0.40673008964464541 0 -0.25544780637392889 -0.41936567711969569 0 -0.26356152909764391 -0.40673008964464541 0 -0.25048966069534118 -0.40713986353964399 0 -0.25544780637392889 -0.41936567711969569 0 -0.25544780637392889 -0.41936567711969569 0 -0.26300749187366701 -0.4307648518290888 0 -0.24933667092683809 -0.43365840865817629 0 -0.26828748273623182 -0.41718655430497942 0 -0.25544780637392889 -0.41936567711969569 0 -0.26300749187366701 -0.4307648518290888 0 -0.26300749187366701 -0.4307648518290888 0 -0.25757506682303533 -0.44511578844094762 0 -0.24933667092683809 -0.43365840865817629 0 -0.25757506682303533 -0.44511578844094762 0 -0.24349708357390051 -0.44916195052230617 0 -0.24933667092683809 -0.43365840865817629 0 -0.25757506682303533 -0.44511578844094762 0 -0.25525802599817232 -0.45661965473742239 0 -0.24349708357390051 -0.44916195052230617 0 -0.25757506682303533 -0.44511578844094762 0 -0.25525802599817232 -0.45661965473742239 0 -0.26601551102341492 -0.4564254418349753 0 -0.25757506682303533 -0.44511578844094762 0 -0.26601551102341492 -0.4564254418349753 0 -0.26994477653088977 -0.4434735214888067 0 -0.26300749187366701 -0.4307648518290888 0 -0.25757506682303533 -0.44511578844094762 0 -0.26994477653088977 -0.4434735214888067 0 -0.25733572255657722 -0.46696852895328428 0 -0.25525802599817232 -0.45661965473742239 0 -0.24572831272695389 -0.46237308304183022 0 -0.25733572255657722 -0.46696852895328428 0 -0.24993514789051591 -0.47438800105982021 0 -0.24572831272695389 -0.46237308304183022 0 -0.25733572255657722 -0.46696852895328428 0 -0.25525802599817232 -0.45661965473742239 0 -0.26601551102341492 -0.4564254418349753 0 -0.25733572255657722 -0.46696852895328428 0 -0.26837046903740652 -0.4685395861745994 0 -0.26601551102341492 -0.4564254418349753 0 -0.26837046903740652 -0.4685395861745994 0 -0.26601551102341492 -0.4564254418349753 0 -0.27713969379627879 -0.45616391723550709 0 -0.26837046903740652 -0.4685395861745994 0 -0.27713969379627879 -0.45616391723550709 0 -0.28242280770345979 -0.46664287000360788 0 -0.27713969379627879 -0.45616391723550709 0 -0.26994477653088977 -0.4434735214888067 0 -0.28223946768849928 -0.44005273869697259 0 -0.26601551102341492 -0.4564254418349753 0 -0.27713969379627879 -0.45616391723550709 0 -0.26994477653088977 -0.4434735214888067 0 -0.27713969379627879 -0.45616391723550709 0 -0.28223946768849928 -0.44005273869697259 0 -0.29001615022776261 -0.45447815476625503 0 -0.28223946768849928 -0.44005273869697259 0 -0.2953087727291685 -0.44179082748682502 0 -0.29001615022776261 -0.45447815476625503 0 -0.27713969379627879 -0.45616391723550709 0 -0.28242280770345979 -0.46664287000360788 0 -0.29001615022776261 -0.45447815476625503 0 -0.28242280770345979 -0.46664287000360788 0 -0.29502040687251069 -0.46628358670645609 0 -0.29001615022776261 -0.45447815476625503 0 -0.29502040687251069 -0.46628358670645609 0 -0.29001615022776261 -0.45447815476625503 0 -0.30654218114048309 -0.45411251036540901 0 -0.29502040687251069 -0.46628358670645609 0 -0.30807510699573948 -0.46818341485081028 0 -0.30654218114048309 -0.45411251036540901 0 -0.32205508572647401 -0.46597682427473669 0 -0.30807510699573948 -0.46818341485081028 0 -0.30654218114048309 -0.45411251036540901 0 -0.2953087727291685 -0.44179082748682502 0 -0.29001615022776261 -0.45447815476625503 0 -0.30654218114048309 -0.45411251036540901 0 -0.30697163525052829 -0.43446407331742198 0 -0.2953087727291685 -0.44179082748682502 0 -0.30654218114048309 -0.45411251036540901 0 -0.30349745320074523 -0.5 0 -0.30982209380979531 -0.49553754780393777 0 -0.28241959308822467 -0.49663843085845072 0 -0.29896685373992249 -0.48498198251473218 0 -0.30982209380979531 -0.49553754780393777 0 -0.28971721602883821 -0.48821665874992098 0 -0.29896685373992249 -0.48498198251473218 0 -0.30982209380979531 -0.49553754780393777 0 -0.3074626775497773 -0.48495904013744873 0 -0.31310222102073992 -0.48732719856924128 0 -0.30982209380979531 -0.49553754780393777 0 -0.3074626775497773 -0.48495904013744873 0 -0.31446746008415483 -0.47847635880979827 0 -0.3074626775497773 -0.48495904013744873 0 -0.30169224033291481 -0.47673426349712511 0 -0.31446746008415483 -0.47847635880979827 0 -0.31310222102073992 -0.48732719856924128 0 -0.3074626775497773 -0.48495904013744873 0 -0.31446746008415483 -0.47847635880979827 0 -0.30807510699573948 -0.46818341485081028 0 -0.30169224033291481 -0.47673426349712511 0 -0.29502040687251069 -0.46628358670645609 0 -0.30807510699573948 -0.46818341485081028 0 -0.30169224033291481 -0.47673426349712511 0 -0.29896685373992249 -0.48498198251473218 0 -0.3074626775497773 -0.48495904013744873 0 -0.30169224033291481 -0.47673426349712511 0 -0.29896685373992249 -0.48498198251473218 0 -0.30169224033291481 -0.47673426349712511 0 -0.28939958536114929 -0.47729115531260519 0 -0.29896685373992249 -0.48498198251473218 0 -0.28939958536114929 -0.47729115531260519 0 -0.28971721602883821 -0.48821665874992098 0 -0.29502040687251069 -0.46628358670645609 0 -0.30169224033291481 -0.47673426349712511 0 -0.28939958536114929 -0.47729115531260519 0 -0.28242280770345979 -0.46664287000360788 0 -0.29502040687251069 -0.46628358670645609 0 -0.28939958536114929 -0.47729115531260519 0 -0.28242280770345979 -0.46664287000360788 0 -0.28939958536114929 -0.47729115531260519 0 -0.27610449935572612 -0.47580053655150689 0 -0.28939958536114929 -0.47729115531260519 0 -0.28187307349467278 -0.48237818916488773 0 -0.28971721602883821 -0.48821665874992098 0 -0.28939958536114929 -0.47729115531260519 0 -0.28187307349467278 -0.48237818916488773 0 -0.27610449935572612 -0.47580053655150689 0 -0.30982209380979531 -0.49553754780393777 0 -0.28241959308822467 -0.49663843085845072 0 -0.30982209380979531 -0.49553754780393777 0 -0.28971721602883821 -0.48821665874992098 0 -0.28241959308822467 -0.49663843085845072 0 -0.28971721602883821 -0.48821665874992098 0 -0.28241959308822467 -0.49663843085845072 0 -0.2812164959964184 -0.48926586202770278 0 -0.28187307349467278 -0.48237818916488773 0 -0.28971721602883821 -0.48821665874992098 0 -0.2812164959964184 -0.48926586202770278 0 -0.30349745320074523 -0.5 0 -0.28241959308822467 -0.49663843085845072 0 -0.27447903114376759 -0.5 0 -0.28241959308822467 -0.49663843085845072 0 -0.27447903114376759 -0.5 0 -0.25501709236665432 -0.49773931391296372 0 -0.28241959308822467 -0.49663843085845072 0 -0.2726078316205407 -0.48923938699695918 0 -0.25501709236665432 -0.49773931391296372 0 -0.28241959308822467 -0.49663843085845072 0 -0.25501709236665432 -0.49773931391296372 0 -0.28187307349467278 -0.48237818916488773 0 -0.2812164959964184 -0.48926586202770278 0 -0.2726078316205407 -0.48923938699695918 0 -0.28241959308822467 -0.49663843085845072 0 -0.2812164959964184 -0.48926586202770278 0 -0.2726078316205407 -0.48923938699695918 0 -0.2726078316205407 -0.48923938699695918 0 -0.26766630665288749 -0.48012406521448731 0 -0.25964889375826411 -0.48618672668906832 0 -0.26837046903740652 -0.4685395861745994 0 -0.28242280770345979 -0.46664287000360788 0 -0.27610449935572612 -0.47580053655150689 0 -0.28187307349467278 -0.48237818916488773 0 -0.2726078316205407 -0.48923938699695918 0 -0.27610449935572612 -0.47580053655150689 0 -0.2726078316205407 -0.48923938699695918 0 -0.27610449935572612 -0.47580053655150689 0 -0.26766630665288749 -0.48012406521448731 0 -0.26837046903740652 -0.4685395861745994 0 -0.27610449935572612 -0.47580053655150689 0 -0.26766630665288749 -0.48012406521448731 0 -0.25733572255657722 -0.46696852895328428 0 -0.26837046903740652 -0.4685395861745994 0 -0.25937128203248222 -0.4764839529045064 0 -0.26837046903740652 -0.4685395861745994 0 -0.26766630665288749 -0.48012406521448731 0 -0.25937128203248222 -0.4764839529045064 0 -0.26766630665288749 -0.48012406521448731 0 -0.25937128203248222 -0.4764839529045064 0 -0.25964889375826411 -0.48618672668906832 0 -0.25937128203248222 -0.4764839529045064 0 -0.25327115229924219 -0.48269680933577908 0 -0.25964889375826411 -0.48618672668906832 0 -0.25937128203248222 -0.4764839529045064 0 -0.25327115229924219 -0.48269680933577908 0 -0.24993514789051591 -0.47438800105982021 0 -0.25733572255657722 -0.46696852895328428 0 -0.25937128203248222 -0.4764839529045064 0 -0.24993514789051591 -0.47438800105982021 0 -0.27447903114376759 -0.5 0 -0.25501709236665432 -0.49773931391296372 0 -0.24546060908678999 -0.5 0 -0.2726078316205407 -0.48923938699695918 0 -0.25964889375826411 -0.48618672668906832 0 -0.25501709236665432 -0.49773931391296372 0 -0.25327115229924219 -0.48269680933577908 0 -0.25964889375826411 -0.48618672668906832 0 -0.25084296877058798 -0.48795591401875649 0 -0.25964889375826411 -0.48618672668906832 0 -0.25084296877058798 -0.48795591401875649 0 -0.25501709236665432 -0.49773931391296372 0 -0.25501709236665432 -0.49773931391296372 0 -0.24132006070019149 -0.4912328284698273 0 -0.2276145916450838 -0.49884019696747661 0 -0.25501709236665432 -0.49773931391296372 0 -0.24546060908678999 -0.5 0 -0.2276145916450838 -0.49884019696747661 0 -0.25084296877058798 -0.48795591401875649 0 -0.25501709236665432 -0.49773931391296372 0 -0.24132006070019149 -0.4912328284698273 0 -0.25501709236665432 -0.49773931391296372 0 -0.2276145916450838 -0.49884019696747661 0 -0.24132006070019149 -0.4912328284698273 0 -0.24495764472858789 -0.48192389168614458 0 -0.2315551969488841 -0.48365362111175569 0 -0.25084296877058798 -0.48795591401875649 0 -0.24132006070019149 -0.4912328284698273 0 -0.24495764472858789 -0.48192389168614458 0 -0.25327115229924219 -0.48269680933577908 0 -0.24495764472858789 -0.48192389168614458 0 -0.24993514789051591 -0.47438800105982021 0 -0.25327115229924219 -0.48269680933577908 0 -0.25084296877058798 -0.48795591401875649 0 -0.24495764472858789 -0.48192389168614458 0 -0.24495764472858789 -0.48192389168614458 0 -0.24993514789051591 -0.47438800105982021 0 -0.23911867886047719 -0.47320376399405351 0 -0.24993514789051591 -0.47438800105982021 0 -0.23911867886047719 -0.47320376399405351 0 -0.24572831272695389 -0.46237308304183022 0 -0.24495764472858789 -0.48192389168614458 0 -0.23911867886047719 -0.47320376399405351 0 -0.2315551969488841 -0.48365362111175569 0 -0.23911867886047719 -0.47320376399405351 0 -0.2315551969488841 -0.48365362111175569 0 -0.2257925287917982 -0.47085890409898201 0 -0.2257925287917982 -0.47085890409898201 0 -0.21993265613886359 -0.47923186082298291 0 -0.21075503288847869 -0.46994727140232062 0 -0.2315551969488841 -0.48365362111175569 0 -0.21993265613886359 -0.47923186082298291 0 -0.219146631533683 -0.48977714334774691 0 -0.2315551969488841 -0.48365362111175569 0 -0.2257925287917982 -0.47085890409898201 0 -0.21993265613886359 -0.47923186082298291 0 -0.24546060908678999 -0.5 0 -0.2276145916450838 -0.49884019696747661 0 -0.21644218702981241 -0.5 0 -0.2315551969488841 -0.48365362111175569 0 -0.219146631533683 -0.48977714334774691 0 -0.2276145916450838 -0.49884019696747661 0 -0.219146631533683 -0.48977714334774691 0 -0.2276145916450838 -0.49884019696747661 0 -0.21644218702981241 -0.5 0 -0.24132006070019149 -0.4912328284698273 0 -0.2315551969488841 -0.48365362111175569 0 -0.2276145916450838 -0.49884019696747661 0 -0.24349708357390051 -0.44916195052230617 0 -0.22902529755157611 -0.44820402533100778 0 -0.23417717835780649 -0.4351819552054671 0 -0.24349708357390051 -0.44916195052230617 0 -0.23417717835780649 -0.4351819552054671 0 -0.24933667092683809 -0.43365840865817629 0 -0.24349708357390051 -0.44916195052230617 0 -0.2337538959012713 -0.4604212455428216 0 -0.22902529755157611 -0.44820402533100778 0 -0.24349708357390051 -0.44916195052230617 0 -0.24572831272695389 -0.46237308304183022 0 -0.2337538959012713 -0.4604212455428216 0 -0.25525802599817232 -0.45661965473742239 0 -0.24349708357390051 -0.44916195052230617 0 -0.24572831272695389 -0.46237308304183022 0 -0.23911867886047719 -0.47320376399405351 0 -0.24572831272695389 -0.46237308304183022 0 -0.2337538959012713 -0.4604212455428216 0 -0.23911867886047719 -0.47320376399405351 0 -0.2257925287917982 -0.47085890409898201 0 -0.2337538959012713 -0.4604212455428216 0 -0.2257925287917982 -0.47085890409898201 0 -0.21963971201281471 -0.45869566171995768 0 -0.2337538959012713 -0.4604212455428216 0 -0.21963971201281471 -0.45869566171995768 0 -0.2337538959012713 -0.4604212455428216 0 -0.22902529755157611 -0.44820402533100778 0 -0.21963971201281471 -0.45869566171995768 0 -0.22902529755157611 -0.44820402533100778 0 -0.21116082163887809 -0.44487997526274059 0 -0.22902529755157611 -0.44820402533100778 0 -0.21116082163887809 -0.44487997526274059 0 -0.22204994271700429 -0.43663845341038338 0 -0.22902529755157611 -0.44820402533100778 0 -0.23417717835780649 -0.4351819552054671 0 -0.22204994271700429 -0.43663845341038338 0 -0.21116082163887809 -0.44487997526274059 0 -0.1965762447249626 -0.441992478208457 0 -0.2070120468145164 -0.42774875953720332 0 -0.21116082163887809 -0.44487997526274059 0 -0.2036450973285161 -0.45734804320422873 0 -0.1965762447249626 -0.441992478208457 0 -0.21963971201281471 -0.45869566171995768 0 -0.2036450973285161 -0.45734804320422873 0 -0.21075503288847869 -0.46994727140232062 0 -0.21963971201281471 -0.45869566171995768 0 -0.21116082163887809 -0.44487997526274059 0 -0.2036450973285161 -0.45734804320422873 0 -0.2257925287917982 -0.47085890409898201 0 -0.21963971201281471 -0.45869566171995768 0 -0.21075503288847869 -0.46994727140232062 0 -0.2036450973285161 -0.45734804320422873 0 -0.21075503288847869 -0.46994727140232062 0 -0.19647065897568231 -0.47084822824122319 0 -0.2036450973285161 -0.45734804320422873 0 -0.19647065897568231 -0.47084822824122319 0 -0.18726811373028049 -0.45772464439067378 0 -0.2036450973285161 -0.45734804320422873 0 -0.1965762447249626 -0.441992478208457 0 -0.18726811373028049 -0.45772464439067378 0 -0.21993265613886359 -0.47923186082298291 0 -0.219146631533683 -0.48977714334774691 0 -0.2037053029108212 -0.4871819430699843 0 -0.219146631533683 -0.48977714334774691 0 -0.2037053029108212 -0.4871819430699843 0 -0.21644218702981241 -0.5 0 -0.2037053029108212 -0.4871819430699843 0 -0.21075503288847869 -0.46994727140232062 0 -0.19647065897568231 -0.47084822824122319 0 -0.21993265613886359 -0.47923186082298291 0 -0.2037053029108212 -0.4871819430699843 0 -0.21075503288847869 -0.46994727140232062 0 -0.19647065897568231 -0.47084822824122319 0 -0.17927865348161121 -0.4789264978567227 0 -0.18726811373028049 -0.45772464439067378 0 -0.2037053029108212 -0.4871819430699843 0 -0.19647065897568231 -0.47084822824122319 0 -0.17927865348161121 -0.4789264978567227 0 -0.2037053029108212 -0.4871819430699843 0 -0.18742376497283481 -0.5 0 -0.17927865348161121 -0.4789264978567227 0 -0.2037053029108212 -0.4871819430699843 0 -0.21644218702981241 -0.5 0 -0.18742376497283481 -0.5 0 -0.18742376497283481 -0.5 0 -0.1584053429158572 -0.5 0 -0.17927865348161121 -0.4789264978567227 0 -0.1584053429158572 -0.5 0 -0.17927865348161121 -0.4789264978567227 0 -0.14930339068774651 -0.47588092409832161 0 -0.17927865348161121 -0.4789264978567227 0 -0.17162832228485431 -0.45949438145582289 0 -0.14930339068774651 -0.47588092409832161 0 -0.17927865348161121 -0.4789264978567227 0 -0.18726811373028049 -0.45772464439067378 0 -0.17162832228485431 -0.45949438145582289 0 -0.18726811373028049 -0.45772464439067378 0 -0.17162832228485431 -0.45949438145582289 0 -0.17451375088398349 -0.43729361258557981 0 -0.1965762447249626 -0.441992478208457 0 -0.18726811373028049 -0.45772464439067378 0 -0.17451375088398349 -0.43729361258557981 0 -0.15291484243539899 -0.45225529757069138 0 -0.15094950796599191 -0.43274501622321832 0 -0.17451375088398349 -0.43729361258557981 0 -0.17162832228485431 -0.45949438145582289 0 -0.15291484243539899 -0.45225529757069138 0 -0.17451375088398349 -0.43729361258557981 0 -0.17162832228485431 -0.45949438145582289 0 -0.15291484243539899 -0.45225529757069138 0 -0.14930339068774651 -0.47588092409832161 0 -0.15291484243539899 -0.45225529757069138 0 -0.12997229261664189 -0.45846395231765558 0 -0.14930339068774651 -0.47588092409832161 0 -0.15291484243539899 -0.45225529757069138 0 -0.13308815750411199 -0.43873762179369757 0 -0.15094950796599191 -0.43274501622321832 0 -0.15291484243539899 -0.45225529757069138 0 -0.13308815750411199 -0.43873762179369757 0 -0.12997229261664189 -0.45846395231765558 0 -0.13308815750411199 -0.43873762179369757 0 -0.12997229261664189 -0.45846395231765558 0 -0.11292899607097261 -0.44140405704002689 0 -0.12997229261664189 -0.45846395231765558 0 -0.1263771898803478 -0.47918543486112242 0 -0.14930339068774651 -0.47588092409832161 0 -0.1263771898803478 -0.47918543486112242 0 -0.12938692085887959 -0.5 0 -0.14930339068774651 -0.47588092409832161 0 -0.1584053429158572 -0.5 0 -0.12938692085887959 -0.5 0 -0.14930339068774651 -0.47588092409832161 0 -0.14640831967022311 -0.40269071753949509 0 -0.14004983017408379 -0.38231848049159223 0 -0.159425265436237 -0.39286219516559168 0 -0.14640831967022311 -0.40269071753949509 0 -0.15778047463390379 -0.41592331924524029 0 -0.159425265436237 -0.39286219516559168 0 -0.14004983017408379 -0.38231848049159223 0 -0.159425265436237 -0.39286219516559168 0 -0.1620076372008811 -0.37348245916570572 0 -0.14004983017408379 -0.38231848049159223 0 -0.1232153942088636 -0.36710666441551698 0 -0.1189731496770001 -0.3856698936610341 0 -0.14004983017408379 -0.38231848049159223 0 -0.1304451056459674 -0.40140417662093741 0 -0.1189731496770001 -0.3856698936610341 0 -0.14640831967022311 -0.40269071753949509 0 -0.14004983017408379 -0.38231848049159223 0 -0.1304451056459674 -0.40140417662093741 0 -0.1304451056459674 -0.40140417662093741 0 -0.14017434189853181 -0.41898080276892241 0 -0.1223744859709926 -0.42238396519094529 0 -0.14640831967022311 -0.40269071753949509 0 -0.1304451056459674 -0.40140417662093741 0 -0.14017434189853181 -0.41898080276892241 0 -0.13308815750411199 -0.43873762179369757 0 -0.14017434189853181 -0.41898080276892241 0 -0.1223744859709926 -0.42238396519094529 0 -0.13308815750411199 -0.43873762179369757 0 -0.14017434189853181 -0.41898080276892241 0 -0.15094950796599191 -0.43274501622321832 0 -0.14017434189853181 -0.41898080276892241 0 -0.15094950796599191 -0.43274501622321832 0 -0.15778047463390379 -0.41592331924524029 0 -0.14640831967022311 -0.40269071753949509 0 -0.14017434189853181 -0.41898080276892241 0 -0.15778047463390379 -0.41592331924524029 0 -0.15778047463390379 -0.41592331924524029 0 -0.17590647449521099 -0.41212292625180469 0 -0.159425265436237 -0.39286219516559168 0 -0.15778047463390379 -0.41592331924524029 0 -0.17451375088398349 -0.43729361258557981 0 -0.17590647449521099 -0.41212292625180469 0 -0.15094950796599191 -0.43274501622321832 0 -0.15778047463390379 -0.41592331924524029 0 -0.17451375088398349 -0.43729361258557981 0 -0.1965762447249626 -0.441992478208457 0 -0.17451375088398349 -0.43729361258557981 0 -0.1896983675906492 -0.42602265187774369 0 -0.17451375088398349 -0.43729361258557981 0 -0.17590647449521099 -0.41212292625180469 0 -0.1896983675906492 -0.42602265187774369 0 -0.17590647449521099 -0.41212292625180469 0 -0.1896983675906492 -0.42602265187774369 0 -0.19448332103457261 -0.41095548280567418 0 -0.17590647449521099 -0.41212292625180469 0 -0.17888589439865379 -0.39182238875426811 0 -0.19448332103457261 -0.41095548280567418 0 -0.17590647449521099 -0.41212292625180469 0 -0.17888589439865379 -0.39182238875426811 0 -0.159425265436237 -0.39286219516559168 0 -0.17888589439865379 -0.39182238875426811 0 -0.159425265436237 -0.39286219516559168 0 -0.1620076372008811 -0.37348245916570572 0 -0.17888589439865379 -0.39182238875426811 0 -0.1895195140929207 -0.37103442305459688 0 -0.1620076372008811 -0.37348245916570572 0 -0.19904593924007061 -0.39287368775342019 0 -0.21836098438947821 -0.38325950525922198 0 -0.1895195140929207 -0.37103442305459688 0 -0.17888589439865379 -0.39182238875426811 0 -0.19904593924007061 -0.39287368775342019 0 -0.1895195140929207 -0.37103442305459688 0 -0.17888589439865379 -0.39182238875426811 0 -0.19904593924007061 -0.39287368775342019 0 -0.19448332103457261 -0.41095548280567418 0 -0.19904593924007061 -0.39287368775342019 0 -0.19448332103457261 -0.41095548280567418 0 -0.21877458056348839 -0.40837948308830141 0 -0.19904593924007061 -0.39287368775342019 0 -0.21836098438947821 -0.38325950525922198 0 -0.21877458056348839 -0.40837948308830141 0 -0.1965762447249626 -0.441992478208457 0 -0.1896983675906492 -0.42602265187774369 0 -0.2070120468145164 -0.42774875953720332 0 -0.1896983675906492 -0.42602265187774369 0 -0.19448332103457261 -0.41095548280567418 0 -0.2070120468145164 -0.42774875953720332 0 -0.19448332103457261 -0.41095548280567418 0 -0.2070120468145164 -0.42774875953720332 0 -0.21877458056348839 -0.40837948308830141 0 -0.2070120468145164 -0.42774875953720332 0 -0.2231500724636685 -0.42271459856928922 0 -0.21877458056348839 -0.40837948308830141 0 -0.2070120468145164 -0.42774875953720332 0 -0.22204994271700429 -0.43663845341038338 0 -0.2231500724636685 -0.42271459856928922 0 -0.21116082163887809 -0.44487997526274059 0 -0.2070120468145164 -0.42774875953720332 0 -0.22204994271700429 -0.43663845341038338 0 -0.23417717835780649 -0.4351819552054671 0 -0.22204994271700429 -0.43663845341038338 0 -0.2231500724636685 -0.42271459856928922 0 -0.23417717835780649 -0.4351819552054671 0 -0.2231500724636685 -0.42271459856928922 0 -0.23800400291385199 -0.42071429474164029 0 -0.21877458056348839 -0.40837948308830141 0 -0.23800400291385199 -0.42071429474164029 0 -0.23418125863375519 -0.39622458229653412 0 -0.2231500724636685 -0.42271459856928922 0 -0.21877458056348839 -0.40837948308830141 0 -0.23800400291385199 -0.42071429474164029 0 -0.25048966069534118 -0.40713986353964399 0 -0.23800400291385199 -0.42071429474164029 0 -0.23418125863375519 -0.39622458229653412 0 -0.25048966069534118 -0.40713986353964399 0 -0.25544780637392889 -0.41936567711969569 0 -0.23800400291385199 -0.42071429474164029 0 -0.25048966069534118 -0.40713986353964399 0 -0.23800400291385199 -0.42071429474164029 0 -0.25544780637392889 -0.41936567711969569 0 -0.23800400291385199 -0.42071429474164029 0 -0.24933667092683809 -0.43365840865817629 0 -0.23417717835780649 -0.4351819552054671 0 -0.23800400291385199 -0.42071429474164029 0 -0.24933667092683809 -0.43365840865817629 0 -0.21836098438947821 -0.38325950525922198 0 -0.23418125863375519 -0.39622458229653412 0 -0.23843536714441091 -0.37706707976624332 0 -0.21836098438947821 -0.38325950525922198 0 -0.21877458056348839 -0.40837948308830141 0 -0.23418125863375519 -0.39622458229653412 0 -0.25048966069534118 -0.40713986353964399 0 -0.23418125863375519 -0.39622458229653412 0 -0.24652040123758451 -0.39349923948501719 0 -0.26297531847683048 -0.39356543233764779 0 -0.24652040123758451 -0.39349923948501719 0 -0.23843536714441091 -0.37706707976624332 0 -0.23418125863375519 -0.39622458229653412 0 -0.24652040123758451 -0.39349923948501719 0 -0.23843536714441091 -0.37706707976624332 0 -0.23843536714441091 -0.37706707976624332 0 -0.23143739479988279 -0.35175437152125921 0 -0.24823058369421111 -0.35707636429209633 0 -0.25854009537799472 -0.37366270180325412 0 -0.23843536714441091 -0.37706707976624332 0 -0.24823058369421111 -0.35707636429209633 0 -0.23843536714441091 -0.37706707976624332 0 -0.23143739479988279 -0.35175437152125921 0 -0.2138954158119922 -0.36056872719483718 0 -0.21836098438947821 -0.38325950525922198 0 -0.23843536714441091 -0.37706707976624332 0 -0.2138954158119922 -0.36056872719483718 0 -0.23843536714441091 -0.37706707976624332 0 -0.2138954158119922 -0.36056872719483718 0 -0.23143739479988279 -0.35175437152125921 0 -0.21967780227788219 -0.33427905931100849 0 -0.2138954158119922 -0.36056872719483718 0 -0.23143739479988279 -0.35175437152125921 0 -0.24823058369421111 -0.35707636429209633 0 -0.24452904022962091 -0.33800369540610359 0 -0.24452904022962091 -0.33800369540610359 0 -0.2424342912697138 -0.31726817694032772 0 -0.21967780227788219 -0.33427905931100849 0 -0.2622657208305843 -0.32088224311473262 0 -0.24452904022962091 -0.33800369540610359 0 -0.2424342912697138 -0.31726817694032772 0 -0.2424342912697138 -0.31726817694032772 0 -0.21967780227788219 -0.33427905931100849 0 -0.22396504958015651 -0.30919140876528051 0 -0.23143739479988279 -0.35175437152125921 0 -0.24452904022962091 -0.33800369540610359 0 -0.21967780227788219 -0.33427905931100849 0 -0.21967780227788219 -0.33427905931100849 0 -0.19687954607041111 -0.31933844658642158 0 -0.22396504958015651 -0.30919140876528051 0 -0.19687954607041111 -0.31933844658642158 0 -0.22396504958015651 -0.30919140876528051 0 -0.21967780227788219 -0.33427905931100849 0 -0.19687954607041111 -0.31933844658642158 0 -0.18935546447957349 -0.34407037462343132 0 -0.18935546447957349 -0.34407037462343132 0 -0.1895195140929207 -0.37103442305459688 0 -0.2138954158119922 -0.36056872719483718 0 -0.18935546447957349 -0.34407037462343132 0 -0.2138954158119922 -0.36056872719483718 0 -0.21836098438947821 -0.38325950525922198 0 -0.1895195140929207 -0.37103442305459688 0 -0.2138954158119922 -0.36056872719483718 0 -0.21967780227788219 -0.33427905931100849 0 -0.18935546447957349 -0.34407037462343132 0 -0.2138954158119922 -0.36056872719483718 0 -0.22421827505207351 -0.25849603103945717 0 -0.23560069965350419 -0.26683618245428359 0 -0.2195973017796326 -0.26863096789510238 0 -0.22421827505207351 -0.25849603103945717 0 -0.23273519137616619 -0.25198235051106233 0 -0.22051011839665 -0.2494853703664586 0 -0.22421827505207351 -0.25849603103945717 0 -0.23273519137616619 -0.25198235051106233 0 -0.23560069965350419 -0.26683618245428359 0 -0.23273519137616619 -0.25198235051106233 0 -0.24136445036956539 -0.25800666638939979 0 -0.24315000177681551 -0.24811761251743861 0 -0.24996920996262001 -0.25890031527547408 0 -0.24315000177681551 -0.24811761251743861 0 -0.25474096605458452 -0.24940226513501221 0 -0.24996920996262001 -0.25890031527547408 0 -0.24136445036956539 -0.25800666638939979 0 -0.24315000177681551 -0.24811761251743861 0 -0.24996920996262001 -0.25890031527547408 0 -0.24136445036956539 -0.25800666638939979 0 -0.2457352516265868 -0.26708665517320851 0 -0.24136445036956539 -0.25800666638939979 0 -0.23560069965350419 -0.26683618245428359 0 -0.2457352516265868 -0.26708665517320851 0 -0.23273519137616619 -0.25198235051106233 0 -0.24136445036956539 -0.25800666638939979 0 -0.23560069965350419 -0.26683618245428359 0 -0.23560069965350419 -0.26683618245428359 0 -0.24460591383417499 -0.27920758034247489 0 -0.2284206061757996 -0.27627188686823739 0 -0.24460591383417499 -0.27920758034247489 0 -0.2284206061757996 -0.27627188686823739 0 -0.23110043035988859 -0.2877298630293717 0 -0.23560069965350419 -0.26683618245428359 0 -0.2457352516265868 -0.26708665517320851 0 -0.24460591383417499 -0.27920758034247489 0 -0.25497060464776611 -0.26946607999266198 0 -0.2457352516265868 -0.26708665517320851 0 -0.24460591383417499 -0.27920758034247489 0 -0.23560069965350419 -0.26683618245428359 0 -0.2284206061757996 -0.27627188686823739 0 -0.2195973017796326 -0.26863096789510238 0 -0.2284206061757996 -0.27627188686823739 0 -0.2195973017796326 -0.26863096789510238 0 -0.2138621068297587 -0.28422238788553028 0 -0.23110043035988859 -0.2877298630293717 0 -0.24118443802101391 -0.29294062358631562 0 -0.22396504958015651 -0.30919140876528051 0 -0.23110043035988859 -0.2877298630293717 0 -0.22396504958015651 -0.30919140876528051 0 -0.2138621068297587 -0.28422238788553028 0 -0.2284206061757996 -0.27627188686823739 0 -0.23110043035988859 -0.2877298630293717 0 -0.2138621068297587 -0.28422238788553028 0 -0.24460591383417499 -0.27920758034247489 0 -0.23110043035988859 -0.2877298630293717 0 -0.24118443802101391 -0.29294062358631562 0 -0.25520024324094709 -0.28952989485031178 0 -0.24460591383417499 -0.27920758034247489 0 -0.24118443802101391 -0.29294062358631562 0 -0.25105055308990187 -0.29904437094413933 0 -0.25520024324094709 -0.28952989485031178 0 -0.24118443802101391 -0.29294062358631562 0 -0.25105055308990187 -0.29904437094413933 0 -0.22396504958015651 -0.30919140876528051 0 -0.25105055308990187 -0.29904437094413933 0 -0.24118443802101391 -0.29294062358631562 0 -0.22396504958015651 -0.30919140876528051 0 -0.25105055308990187 -0.29904437094413933 0 -0.2424342912697138 -0.31726817694032772 0 -0.22396504958015651 -0.30919140876528051 0 -0.25105055308990187 -0.29904437094413933 0 -0.25485185364117569 -0.31091628090915507 0 -0.2424342912697138 -0.31726817694032772 0 -0.22396504958015651 -0.30919140876528051 0 -0.20508286040256279 -0.30146033622995028 0 -0.2138621068297587 -0.28422238788553028 0 -0.19687954607041111 -0.31933844658642158 0 -0.22396504958015651 -0.30919140876528051 0 -0.20508286040256279 -0.30146033622995028 0 -0.19687954607041111 -0.31933844658642158 0 -0.20508286040256279 -0.30146033622995028 0 -0.17854008097669041 -0.30469128828657649 0 -0.20508286040256279 -0.30146033622995028 0 -0.19106263118523389 -0.28642401579582039 0 -0.17854008097669041 -0.30469128828657649 0 -0.20508286040256279 -0.30146033622995028 0 -0.19106263118523389 -0.28642401579582039 0 -0.2138621068297587 -0.28422238788553028 0 -0.2195973017796326 -0.26863096789510238 0 -0.2138621068297587 -0.28422238788553028 0 -0.2024639380979274 -0.2697746802313612 0 -0.19106263118523389 -0.28642401579582039 0 -0.2024639380979274 -0.2697746802313612 0 -0.18206163993499611 -0.26810374185102598 0 -0.19106263118523389 -0.28642401579582039 0 -0.2138621068297587 -0.28422238788553028 0 -0.2024639380979274 -0.2697746802313612 0 -0.2024639380979274 -0.2697746802313612 0 -0.1927851707192122 -0.25412297205211248 0 -0.18206163993499611 -0.26810374185102598 0 -0.2024639380979274 -0.2697746802313612 0 -0.1927851707192122 -0.25412297205211248 0 -0.21144503114979729 -0.25749017821183168 0 -0.2195973017796326 -0.26863096789510238 0 -0.2024639380979274 -0.2697746802313612 0 -0.21144503114979729 -0.25749017821183168 0 -0.1927851707192122 -0.25412297205211248 0 -0.21144503114979729 -0.25749017821183168 0 -0.2084938664009798 -0.24540349480722509 0 -0.22421827505207351 -0.25849603103945717 0 -0.2195973017796326 -0.26863096789510238 0 -0.21144503114979729 -0.25749017821183168 0 -0.22421827505207351 -0.25849603103945717 0 -0.21144503114979729 -0.25749017821183168 0 -0.22051011839665 -0.2494853703664586 0 -0.21144503114979729 -0.25749017821183168 0 -0.2084938664009798 -0.24540349480722509 0 -0.22051011839665 -0.2494853703664586 0 -0.16133336932083139 -0.26174810251721342 0 -0.1769479238532963 -0.2494803231200094 0 -0.15855273362674019 -0.24168924605756789 0 -0.16133336932083139 -0.26174810251721342 0 -0.18206163993499611 -0.26810374185102598 0 -0.1769479238532963 -0.2494803231200094 0 -0.1927851707192122 -0.25412297205211248 0 -0.18206163993499611 -0.26810374185102598 0 -0.1769479238532963 -0.2494803231200094 0 -0.19106263118523389 -0.28642401579582039 0 -0.18206163993499611 -0.26810374185102598 0 -0.16743583491204711 -0.2848904823884042 0 -0.16133336932083139 -0.26174810251721342 0 -0.18206163993499611 -0.26810374185102598 0 -0.16743583491204711 -0.2848904823884042 0 -0.16133336932083139 -0.26174810251721342 0 -0.16743583491204711 -0.2848904823884042 0 -0.14654356231571161 -0.27412549164876332 0 -0.16743583491204711 -0.2848904823884042 0 -0.15982396237245861 -0.3069528888369451 0 -0.1526855982784078 -0.29218784778248502 0 -0.19106263118523389 -0.28642401579582039 0 -0.16743583491204711 -0.2848904823884042 0 -0.17854008097669041 -0.30469128828657649 0 -0.16743583491204711 -0.2848904823884042 0 -0.17854008097669041 -0.30469128828657649 0 -0.15982396237245861 -0.3069528888369451 0 -0.15982396237245861 -0.3069528888369451 0 -0.1402755618147371 -0.31107366948061732 0 -0.1526855982784078 -0.29218784778248502 0 -0.1402755618147371 -0.31107366948061732 0 -0.1526855982784078 -0.29218784778248502 0 -0.1402755618147371 -0.31107366948061732 0 -0.1341596079041259 -0.28784149521653107 0 -0.1526855982784078 -0.29218784778248502 0 -0.1402755618147371 -0.31107366948061732 0 -0.1341596079041259 -0.28784149521653107 0 -0.1202327337592452 -0.2975987591473328 0 -0.1402755618147371 -0.31107366948061732 0 -0.1202327337592452 -0.2975987591473328 0 -0.16743583491204711 -0.2848904823884042 0 -0.1526855982784078 -0.29218784778248502 0 -0.14654356231571161 -0.27412549164876332 0 -0.1341596079041259 -0.28784149521653107 0 -0.1526855982784078 -0.29218784778248502 0 -0.14654356231571161 -0.27412549164876332 0 -0.1341596079041259 -0.28784149521653107 0 -0.14654356231571161 -0.27412549164876332 0 -0.1236634938915013 -0.26483126583975408 0 -0.14654356231571161 -0.27412549164876332 0 -0.1409804625795113 -0.2521902354594629 0 -0.1236634938915013 -0.26483126583975408 0 -0.1409804625795113 -0.2521902354594629 0 -0.1236634938915013 -0.26483126583975408 0 -0.1201960282300749 -0.2454449538855544 0 -0.16133336932083139 -0.26174810251721342 0 -0.14654356231571161 -0.27412549164876332 0 -0.1409804625795113 -0.2521902354594629 0 -0.16133336932083139 -0.26174810251721342 0 -0.1409804625795113 -0.2521902354594629 0 -0.15855273362674019 -0.24168924605756789 0 -0.16594497723158649 -0.3504783309209743 0 -0.1620076372008811 -0.37348245916570572 0 -0.14321418323820481 -0.35276491575052737 0 -0.1895195140929207 -0.37103442305459688 0 -0.16594497723158649 -0.3504783309209743 0 -0.1620076372008811 -0.37348245916570572 0 -0.18935546447957349 -0.34407037462343132 0 -0.1895195140929207 -0.37103442305459688 0 -0.16594497723158649 -0.3504783309209743 0 -0.19687954607041111 -0.31933844658642158 0 -0.18935546447957349 -0.34407037462343132 0 -0.1648155131471547 -0.32757202205202518 0 -0.19687954607041111 -0.31933844658642158 0 -0.17854008097669041 -0.30469128828657649 0 -0.1648155131471547 -0.32757202205202518 0 -0.18935546447957349 -0.34407037462343132 0 -0.1648155131471547 -0.32757202205202518 0 -0.18935546447957349 -0.34407037462343132 0 -0.16594497723158649 -0.3504783309209743 0 -0.1648155131471547 -0.32757202205202518 0 -0.17854008097669041 -0.30469128828657649 0 -0.15982396237245861 -0.3069528888369451 0 -0.1648155131471547 -0.32757202205202518 0 -0.16594497723158649 -0.3504783309209743 0 -0.1648155131471547 -0.32757202205202518 0 -0.14675755123078429 -0.33394579087955928 0 -0.15982396237245861 -0.3069528888369451 0 -0.1402755618147371 -0.31107366948061732 0 -0.1648155131471547 -0.32757202205202518 0 -0.1402755618147371 -0.31107366948061732 0 -0.1648155131471547 -0.32757202205202518 0 -0.14675755123078429 -0.33394579087955928 0 -0.1402755618147371 -0.31107366948061732 0 -0.1648155131471547 -0.32757202205202518 0 -0.1402755618147371 -0.31107366948061732 0 -0.14675755123078429 -0.33394579087955928 0 -0.12811047554980379 -0.32958672146193069 0 -0.1402755618147371 -0.31107366948061732 0 -0.12811047554980379 -0.32958672146193069 0 -0.1102273179884013 -0.31737031949025252 0 -0.1402755618147371 -0.31107366948061732 0 -0.12811047554980379 -0.32958672146193069 0 -0.14675755123078429 -0.33394579087955928 0 -0.12811047554980379 -0.32958672146193069 0 -0.14321418323820481 -0.35276491575052737 0 -0.12811047554980379 -0.32958672146193069 0 -0.14321418323820481 -0.35276491575052737 0 -0.1159453892848705 -0.348099773443244 0 -0.14321418323820481 -0.35276491575052737 0 -0.1232153942088636 -0.36710666441551698 0 -0.1159453892848705 -0.348099773443244 0 -0.16594497723158649 -0.3504783309209743 0 -0.14675755123078429 -0.33394579087955928 0 -0.14321418323820481 -0.35276491575052737 0 -0.14004983017408379 -0.38231848049159223 0 -0.1620076372008811 -0.37348245916570572 0 -0.14321418323820481 -0.35276491575052737 0 -0.14004983017408379 -0.38231848049159223 0 -0.14321418323820481 -0.35276491575052737 0 -0.1232153942088636 -0.36710666441551698 0 -0.1232153942088636 -0.36710666441551698 0 -0.1037803030199372 -0.36661282542455742 0 -0.1159453892848705 -0.348099773443244 0 -0.1232153942088636 -0.36710666441551698 0 -0.1123225423966253 -0.37475057077498553 0 -0.1037803030199372 -0.36661282542455742 0 -0.1123225423966253 -0.37475057077498553 0 -0.1037803030199372 -0.36661282542455742 0 -0.099414473360478567 -0.37336843356445631 0 -0.1037803030199372 -0.36661282542455742 0 -0.090744790245609941 -0.36479171818855838 0 -0.091329874101917577 -0.35483615922560369 0 -0.1037803030199372 -0.36661282542455742 0 -0.099414473360478567 -0.37336843356445631 0 -0.090744790245609941 -0.36479171818855838 0 -0.1037803030199372 -0.36661282542455742 0 -0.1015299617261694 -0.34798631332296692 0 -0.091329874101917577 -0.35483615922560369 0 -0.1037803030199372 -0.36661282542455742 0 -0.1015299617261694 -0.34798631332296692 0 -0.1159453892848705 -0.348099773443244 0 -0.1037803030199372 -0.36661282542455742 0 -0.1159453892848705 -0.348099773443244 0 -0.12811047554980379 -0.32958672146193069 0 -0.1159453892848705 -0.348099773443244 0 -0.12811047554980379 -0.32958672146193069 0 -0.1159453892848705 -0.348099773443244 0 -0.110228048957124 -0.33305149622775082 0 -0.12811047554980379 -0.32958672146193069 0 -0.110228048957124 -0.33305149622775082 0 -0.1102273179884013 -0.31737031949025252 0 -0.1102273179884013 -0.31737031949025252 0 -0.094802123860530801 -0.33202051578028707 0 -0.081554584166146846 -0.3180930446142749 0 -0.110228048957124 -0.33305149622775082 0 -0.1102273179884013 -0.31737031949025252 0 -0.094802123860530801 -0.33202051578028707 0 -0.1015299617261694 -0.34798631332296692 0 -0.094802123860530801 -0.33202051578028707 0 -0.08738858817846358 -0.34348681333329423 0 -0.1015299617261694 -0.34798631332296692 0 -0.110228048957124 -0.33305149622775082 0 -0.094802123860530801 -0.33202051578028707 0 -0.1015299617261694 -0.34798631332296692 0 -0.1159453892848705 -0.348099773443244 0 -0.110228048957124 -0.33305149622775082 0 -0.094802123860530801 -0.33202051578028707 0 -0.08738858817846358 -0.34348681333329423 0 -0.079938346504426355 -0.33364774598455332 0 -0.08738858817846358 -0.34348681333329423 0 -0.079938346504426355 -0.33364774598455332 0 -0.073622595850459452 -0.3494321567020493 0 -0.094802123860530801 -0.33202051578028707 0 -0.079938346504426355 -0.33364774598455332 0 -0.081554584166146846 -0.3180930446142749 0 -0.079938346504426355 -0.33364774598455332 0 -0.081554584166146846 -0.3180930446142749 0 -0.060551221422672018 -0.32677642867406093 0 -0.081554584166146846 -0.3180930446142749 0 -0.063598924258293887 -0.31274809921827662 0 -0.060551221422672018 -0.32677642867406093 0 -0.079938346504426355 -0.33364774598455332 0 -0.073622595850459452 -0.3494321567020493 0 -0.060551221422672018 -0.32677642867406093 0 -0.073622595850459452 -0.3494321567020493 0 -0.060407562558311381 -0.34449296570662252 0 -0.060551221422672018 -0.32677642867406093 0 -0.073622595850459452 -0.3494321567020493 0 -0.060551221422672018 -0.32677642867406093 0 -0.073622595850459452 -0.3494321567020493 0 -0.07126590786564041 -0.3638530297988839 0 -0.060407562558311381 -0.34449296570662252 0 -0.073622595850459452 -0.3494321567020493 0 -0.07126590786564041 -0.3638530297988839 0 -0.086693970278246768 -0.3720878847300379 0 -0.07126590786564041 -0.3638530297988839 0 -0.086693970278246768 -0.3720878847300379 0 -0.058927914254924968 -0.36566146732721649 0 -0.086693970278246768 -0.3720878847300379 0 -0.058927914254924968 -0.36566146732721649 0 -0.069825266851977402 -0.37973519870560318 0 -0.086693970278246768 -0.3720878847300379 0 -0.058927914254924968 -0.36566146732721649 0 -0.073622595850459452 -0.3494321567020493 0 -0.086693970278246768 -0.3720878847300379 0 -0.090744790245609941 -0.36479171818855838 0 -0.073622595850459452 -0.3494321567020493 0 -0.086693970278246768 -0.3720878847300379 0 -0.086693970278246768 -0.3720878847300379 0 -0.090470354991692203 -0.37296192403982881 0 -0.094871321278357304 -0.37869469576194992 0 -0.099414473360478567 -0.37336843356445631 0 -0.090470354991692203 -0.37296192403982881 0 -0.090744790245609941 -0.36479171818855838 0 -0.086693970278246768 -0.3720878847300379 0 -0.090470354991692203 -0.37296192403982881 0 -0.090744790245609941 -0.36479171818855838 0 -0.086693970278246768 -0.3720878847300379 0 -0.090470354991692203 -0.37296192403982881 0 -0.08738858817846358 -0.34348681333329423 0 -0.073622595850459452 -0.3494321567020493 0 -0.091329874101917577 -0.35483615922560369 0 -0.073622595850459452 -0.3494321567020493 0 -0.090744790245609941 -0.36479171818855838 0 -0.091329874101917577 -0.35483615922560369 0 -0.1015299617261694 -0.34798631332296692 0 -0.08738858817846358 -0.34348681333329423 0 -0.091329874101917577 -0.35483615922560369 0 -0.093848435311629577 -0.25549326223420432 0 -0.1236634938915013 -0.26483126583975408 0 -0.1201960282300749 -0.2454449538855544 0 -0.1341596079041259 -0.28784149521653107 0 -0.1236634938915013 -0.26483126583975408 0 -0.10878193955607229 -0.28114243292182228 0 -0.093848435311629577 -0.25549326223420432 0 -0.10878193955607229 -0.28114243292182228 0 -0.084951458401242907 -0.27876960813438523 0 -0.093848435311629577 -0.25549326223420432 0 -0.1236634938915013 -0.26483126583975408 0 -0.10878193955607229 -0.28114243292182228 0 -0.10878193955607229 -0.28114243292182228 0 -0.1202327337592452 -0.2975987591473328 0 -0.094615078767362124 -0.3017382589007741 0 -0.10878193955607229 -0.28114243292182228 0 -0.094615078767362124 -0.3017382589007741 0 -0.084951458401242907 -0.27876960813438523 0 -0.1341596079041259 -0.28784149521653107 0 -0.10878193955607229 -0.28114243292182228 0 -0.1202327337592452 -0.2975987591473328 0 -0.1402755618147371 -0.31107366948061732 0 -0.1102273179884013 -0.31737031949025252 0 -0.1202327337592452 -0.2975987591473328 0 -0.1102273179884013 -0.31737031949025252 0 -0.081554584166146846 -0.3180930446142749 0 -0.094615078767362124 -0.3017382589007741 0 -0.1102273179884013 -0.31737031949025252 0 -0.1202327337592452 -0.2975987591473328 0 -0.094615078767362124 -0.3017382589007741 0 -0.094615078767362124 -0.3017382589007741 0 -0.071047462881123166 -0.30292947977342383 0 -0.071934894321899215 -0.28744197318917752 0 -0.081554584166146846 -0.3180930446142749 0 -0.094615078767362124 -0.3017382589007741 0 -0.071047462881123166 -0.30292947977342383 0 -0.094615078767362124 -0.3017382589007741 0 -0.071047462881123166 -0.30292947977342383 0 -0.081554584166146846 -0.3180930446142749 0 -0.063598924258293887 -0.31274809921827662 0 -0.071047462881123166 -0.30292947977342383 0 -0.071934894321899215 -0.28744197318917752 0 -0.059831005522924148 -0.2763747138297028 0 -0.05886172723214269 -0.29557318305024161 0 -0.071047462881123166 -0.30292947977342383 0 -0.071934894321899215 -0.28744197318917752 0 -0.05886172723214269 -0.29557318305024161 0 -0.094615078767362124 -0.3017382589007741 0 -0.071934894321899215 -0.28744197318917752 0 -0.084951458401242907 -0.27876960813438523 0 -0.071934894321899215 -0.28744197318917752 0 -0.084951458401242907 -0.27876960813438523 0 -0.059831005522924148 -0.2763747138297028 0 -0.084951458401242907 -0.27876960813438523 0 -0.067616611320363673 -0.26065514634699838 0 -0.059831005522924148 -0.2763747138297028 0 -0.093848435311629577 -0.25549326223420432 0 -0.067616611320363673 -0.26065514634699838 0 -0.067632281104626477 -0.2440042252389642 0 -0.093848435311629577 -0.25549326223420432 0 -0.084951458401242907 -0.27876960813438523 0 -0.067616611320363673 -0.26065514634699838 0 -0.037102886815276057 -0.26336117771021678 0 -0.041416862870223482 -0.25312883832289901 0 -0.031120816745664089 -0.25259138804725551 0 -0.037102886815276057 -0.26336117771021678 0 -0.027081906274658011 -0.2626503171014295 0 -0.031120816745664089 -0.25259138804725551 0 -0.037102886815276057 -0.26336117771021678 0 -0.041416862870223482 -0.25312883832289901 0 -0.048049608935672887 -0.26147615919506412 0 -0.067616611320363673 -0.26065514634699838 0 -0.048049608935672887 -0.26147615919506412 0 -0.051386878646086043 -0.2478129094496698 0 -0.041416862870223482 -0.25312883832289901 0 -0.048049608935672887 -0.26147615919506412 0 -0.051386878646086043 -0.2478129094496698 0 -0.067616611320363673 -0.26065514634699838 0 -0.051386878646086043 -0.2478129094496698 0 -0.067632281104626477 -0.2440042252389642 0 -0.048049608935672887 -0.26147615919506412 0 -0.059831005522924148 -0.2763747138297028 0 -0.044435505217184021 -0.27441101926471401 0 -0.067616611320363673 -0.26065514634699838 0 -0.048049608935672887 -0.26147615919506412 0 -0.059831005522924148 -0.2763747138297028 0 -0.059831005522924148 -0.2763747138297028 0 -0.044435505217184021 -0.27441101926471401 0 -0.047874922345520779 -0.28793510083986468 0 -0.044435505217184021 -0.27441101926471401 0 -0.036859113366974047 -0.28046538097889062 0 -0.047874922345520779 -0.28793510083986468 0 -0.037102886815276057 -0.26336117771021678 0 -0.048049608935672887 -0.26147615919506412 0 -0.044435505217184021 -0.27441101926471401 0 -0.037102886815276057 -0.26336117771021678 0 -0.044435505217184021 -0.27441101926471401 0 -0.0309148519100341 -0.27243697916027632 0 -0.037102886815276057 -0.26336117771021678 0 -0.0309148519100341 -0.27243697916027632 0 -0.027081906274658011 -0.2626503171014295 0 -0.044435505217184021 -0.27441101926471401 0 -0.036859113366974047 -0.28046538097889062 0 -0.0309148519100341 -0.27243697916027632 0 -0.036859113366974047 -0.28046538097889062 0 -0.035606423808867083 -0.28955080045791048 0 -0.0255680307750225 -0.28272186747047801 0 -0.035606423808867083 -0.28955080045791048 0 -0.036212653559638819 -0.29749676532623648 0 -0.025466223031793661 -0.29453676899625708 0 -0.035606423808867083 -0.28955080045791048 0 -0.043286925599988632 -0.29426991481042652 0 -0.036212653559638819 -0.29749676532623648 0 -0.035606423808867083 -0.28955080045791048 0 -0.043286925599988632 -0.29426991481042652 0 -0.047874922345520779 -0.28793510083986468 0 -0.043286925599988632 -0.29426991481042652 0 -0.047874922345520779 -0.28793510083986468 0 -0.048653709534466627 -0.29660951787118361 0 -0.036859113366974047 -0.28046538097889062 0 -0.035606423808867083 -0.28955080045791048 0 -0.047874922345520779 -0.28793510083986468 0 -0.059831005522924148 -0.2763747138297028 0 -0.047874922345520779 -0.28793510083986468 0 -0.05886172723214269 -0.29557318305024161 0 -0.047874922345520779 -0.28793510083986468 0 -0.05886172723214269 -0.29557318305024161 0 -0.048653709534466627 -0.29660951787118361 0 -0.071047462881123166 -0.30292947977342383 0 -0.05886172723214269 -0.29557318305024161 0 -0.04747984699488416 -0.30412070064607261 0 -0.063598924258293887 -0.31274809921827662 0 -0.071047462881123166 -0.30292947977342383 0 -0.04747984699488416 -0.30412070064607261 0 -0.05886172723214269 -0.29557318305024161 0 -0.048653709534466627 -0.29660951787118361 0 -0.04747984699488416 -0.30412070064607261 0 -0.071047462881123166 -0.30292947977342383 0 -0.04747984699488416 -0.30412070064607261 0 -0.048653709534466627 -0.29660951787118361 0 -0.04747984699488416 -0.30412070064607261 0 -0.045765125499796888 -0.30114869000931271 0 -0.04747984699488416 -0.30412070064607261 0 -0.03028546994919129 -0.30498978731686388 0 -0.04747984699488416 -0.30412070064607261 0 -0.045765125499796888 -0.30114869000931271 0 -0.03028546994919129 -0.30498978731686388 0 -0.04747984699488416 -0.30412070064607261 0 -0.03028546994919129 -0.30498978731686388 0 -0.039191473618719518 -0.32173739165742082 0 -0.043286925599988632 -0.29426991481042652 0 -0.045765125499796888 -0.30114869000931271 0 -0.036212653559638819 -0.29749676532623648 0 -0.04747984699488416 -0.30412070064607261 0 -0.045765125499796888 -0.30114869000931271 0 -0.043286925599988632 -0.29426991481042652 0 -0.048653709534466627 -0.29660951787118361 0 -0.045765125499796888 -0.30114869000931271 0 -0.045765125499796888 -0.30114869000931271 0 -0.036212653559638819 -0.29749676532623648 0 -0.03028546994919129 -0.30498978731686388 0 -0.03028546994919129 -0.30498978731686388 0 -0.01309109290349837 -0.30585887398765432 0 -0.025466223031793661 -0.29453676899625708 0 -0.03028546994919129 -0.30498978731686388 0 -0.01309109290349837 -0.30585887398765432 0 -0.03028546994919129 -0.30498978731686388 0 -0.01309109290349837 -0.30585887398765432 0 -0.018837139971953961 -0.3173946496489139 0 -0.036212653559638819 -0.29749676532623648 0 -0.03028546994919129 -0.30498978731686388 0 -0.025466223031793661 -0.29453676899625708 0 -0.01309109290349837 -0.30585887398765432 0 -0.0029118423047481429 -0.29908933609197491 0 -0.01203366719454391 -0.28660251941839993 0 -0.01309109290349837 -0.30585887398765432 0 -0.0037362541763149119 -0.31130568738419218 0 -0.018837139971953961 -0.3173946496489139 0 -0.0037362541763149119 -0.31130568738419218 0 -0.0029118423047481429 -0.29908933609197491 0 0.0049576531561908027 -0.30699132357812869 0 -0.01309109290349837 -0.30585887398765432 0 -0.0037362541763149119 -0.31130568738419218 0 -0.0029118423047481429 -0.29908933609197491 0 -0.0029118423047481429 -0.29908933609197491 0 -0.00019008444443280409 -0.28498279421653411 0 -0.01203366719454391 -0.28660251941839993 0 -0.01309109290349837 -0.30585887398765432 0 -0.01203366719454391 -0.28660251941839993 0 -0.025466223031793661 -0.29453676899625708 0 -0.01203366719454391 -0.28660251941839993 0 -0.025466223031793661 -0.29453676899625708 0 -0.0255680307750225 -0.28272186747047801 0 -0.035606423808867083 -0.28955080045791048 0 -0.025466223031793661 -0.29453676899625708 0 -0.0255680307750225 -0.28272186747047801 0 -0.01203366719454391 -0.28660251941839993 0 -0.0255680307750225 -0.28272186747047801 0 -0.017101884240373209 -0.26895237361376878 0 -0.036859113366974047 -0.28046538097889062 0 -0.0255680307750225 -0.28272186747047801 0 -0.0309148519100341 -0.27243697916027632 0 -0.0255680307750225 -0.28272186747047801 0 -0.0309148519100341 -0.27243697916027632 0 -0.017101884240373209 -0.26895237361376878 0 -0.0309148519100341 -0.27243697916027632 0 -0.017101884240373209 -0.26895237361376878 0 -0.027081906274658011 -0.2626503171014295 0 -0.00019008444443280409 -0.28498279421653411 0 -0.01203366719454391 -0.28660251941839993 0 -0.0018361495761199029 -0.27032559245580662 0 -0.01203366719454391 -0.28660251941839993 0 -0.017101884240373209 -0.26895237361376878 0 -0.0018361495761199029 -0.27032559245580662 0 -0.017101884240373209 -0.26895237361376878 0 -0.0018361495761199029 -0.27032559245580662 0 -0.0080390378877481152 -0.25912195719888798 0 -0.0018361495761199029 -0.27032559245580662 0 -0.0080390378877481152 -0.25912195719888798 0 0.0039536351843116394 -0.25386432206923099 0 -0.017101884240373209 -0.26895237361376878 0 -0.0080390378877481152 -0.25912195719888798 0 -0.019336687937684369 -0.25446284815493742 0 -0.0080390378877481152 -0.25912195719888798 0 -0.0082108068989264153 -0.2437558387173519 0 0.0039536351843116394 -0.25386432206923099 0 -0.0080390378877481152 -0.25912195719888798 0 -0.019336687937684369 -0.25446284815493742 0 -0.0082108068989264153 -0.2437558387173519 0 -0.017101884240373209 -0.26895237361376878 0 -0.019336687937684369 -0.25446284815493742 0 -0.027081906274658011 -0.2626503171014295 0 -0.019336687937684369 -0.25446284815493742 0 -0.027081906274658011 -0.2626503171014295 0 -0.031120816745664089 -0.25259138804725551 0 -0.047961816930423312 -0.35018234235576351 0 -0.024657725995206201 -0.33651165491264312 0 -0.031161858231603241 -0.35923504992439498 0 -0.058927914254924968 -0.36566146732721649 0 -0.047961816930423312 -0.35018234235576351 0 -0.031161858231603241 -0.35923504992439498 0 -0.042913612710910091 -0.37312470590084779 0 -0.058927914254924968 -0.36566146732721649 0 -0.031161858231603241 -0.35923504992439498 0 -0.058927914254924968 -0.36566146732721649 0 -0.031161858231603241 -0.35923504992439498 0 -0.042913612710910091 -0.37312470590084779 0 -0.031161858231603241 -0.35923504992439498 0 -0.030094788772804981 -0.37368156014436299 0 -0.042913612710910091 -0.37312470590084779 0 -0.058927914254924968 -0.36566146732721649 0 -0.054947954533151822 -0.38153028965604963 0 -0.07126590786564041 -0.3638530297988839 0 -0.058927914254924968 -0.36566146732721649 0 -0.047961816930423312 -0.35018234235576351 0 -0.07126590786564041 -0.3638530297988839 0 -0.047961816930423312 -0.35018234235576351 0 -0.07126590786564041 -0.3638530297988839 0 -0.047961816930423312 -0.35018234235576351 0 -0.060407562558311381 -0.34449296570662252 0 -0.060407562558311381 -0.34449296570662252 0 -0.048266481445873553 -0.33525750710671132 0 -0.060551221422672018 -0.32677642867406093 0 -0.047961816930423312 -0.35018234235576351 0 -0.060407562558311381 -0.34449296570662252 0 -0.048266481445873553 -0.33525750710671132 0 -0.048266481445873553 -0.33525750710671132 0 -0.060551221422672018 -0.32677642867406093 0 -0.039191473618719518 -0.32173739165742082 0 -0.04747984699488416 -0.30412070064607261 0 -0.060551221422672018 -0.32677642867406093 0 -0.04747984699488416 -0.30412070064607261 0 -0.060551221422672018 -0.32677642867406093 0 -0.039191473618719518 -0.32173739165742082 0 -0.063598924258293887 -0.31274809921827662 0 -0.04747984699488416 -0.30412070064607261 0 -0.060551221422672018 -0.32677642867406093 0 -0.047961816930423312 -0.35018234235576351 0 -0.048266481445873553 -0.33525750710671132 0 -0.024657725995206201 -0.33651165491264312 0 -0.048266481445873553 -0.33525750710671132 0 -0.039191473618719518 -0.32173739165742082 0 -0.024657725995206201 -0.33651165491264312 0 -0.047961816930423312 -0.35018234235576351 0 -0.024657725995206201 -0.33651165491264312 0 -0.03028546994919129 -0.30498978731686388 0 -0.039191473618719518 -0.32173739165742082 0 -0.018837139971953961 -0.3173946496489139 0 -0.039191473618719518 -0.32173739165742082 0 -0.024657725995206201 -0.33651165491264312 0 -0.018837139971953961 -0.3173946496489139 0 -0.024657725995206201 -0.33651165491264312 0 -0.018837139971953961 -0.3173946496489139 0 -0.001353635059988922 -0.32284096746952262 0 -0.0037362541763149119 -0.31130568738419218 0 -0.018837139971953961 -0.3173946496489139 0 -0.001353635059988922 -0.32284096746952262 0 -0.024657725995206201 -0.33651165491264312 0 -0.001353635059988922 -0.32284096746952262 0 -0.0097765298800385654 -0.33911505687542548 0 -0.001353635059988922 -0.32284096746952262 0 -0.0097765298800385654 -0.33911505687542548 0 0.0053144986862649207 -0.33981402497835661 0 -0.024657725995206201 -0.33651165491264312 0 -0.001353635059988922 -0.32284096746952262 0 -0.0097765298800385654 -0.33911505687542548 0 -0.0033958022082815 -0.35280863252157352 0 -0.031161858231603241 -0.35923504992439498 0 -0.0097765298800385654 -0.33911505687542548 0 -0.0033958022082815 -0.35280863252157352 0 0.0053144986862649207 -0.33981402497835661 0 -0.024657725995206201 -0.33651165491264312 0 -0.0097765298800385654 -0.33911505687542548 0 -0.031161858231603241 -0.35923504992439498 0 -0.0033958022082815 -0.35280863252157352 0 -0.031161858231603241 -0.35923504992439498 0 -0.031161858231603241 -0.35923504992439498 0 -0.030094788772804981 -0.37368156014436299 0 -0.013943585654482791 -0.37043213885092402 0 -0.0033958022082815 -0.35280863252157352 0 -0.031161858231603241 -0.35923504992439498 0 -0.013943585654482791 -0.37043213885092402 0 -0.013943585654482791 -0.37043213885092402 0 -0.00059381270617452487 -0.37697237717465393 0 0.0020059410162170731 -0.36564019270545328 0 -0.0033958022082815 -0.35280863252157352 0 -0.013943585654482791 -0.37043213885092402 0 0.0020059410162170731 -0.36564019270545328 0 -0.013943585654482791 -0.37043213885092402 0 -0.0077355309969082383 -0.39001028402193483 0 -0.02311237141594075 -0.38414049943651168 0 -0.013943585654482791 -0.37043213885092402 0 -0.00059381270617452487 -0.37697237717465393 0 -0.0077355309969082383 -0.39001028402193483 0 -0.0077355309969082383 -0.39001028402193483 0 -0.0074320890386337024 -0.40694553560935498 0 0.003261312738943584 -0.39977956012240812 0 -0.0077355309969082383 -0.39001028402193483 0 -0.02435240389344227 -0.40106335171312202 0 -0.0074320890386337024 -0.40694553560935498 0 -0.0077355309969082383 -0.39001028402193483 0 -0.02435240389344227 -0.40106335171312202 0 -0.02311237141594075 -0.38414049943651168 0 -0.02435240389344227 -0.40106335171312202 0 -0.02311237141594075 -0.38414049943651168 0 -0.039460029843901602 -0.38657825609513008 0 -0.030094788772804981 -0.37368156014436299 0 -0.02311237141594075 -0.38414049943651168 0 -0.039460029843901602 -0.38657825609513008 0 -0.030094788772804981 -0.37368156014436299 0 -0.013943585654482791 -0.37043213885092402 0 -0.02311237141594075 -0.38414049943651168 0 -0.042913612710910091 -0.37312470590084779 0 -0.030094788772804981 -0.37368156014436299 0 -0.039460029843901602 -0.38657825609513008 0 -0.042913612710910091 -0.37312470590084779 0 -0.039460029843901602 -0.38657825609513008 0 -0.054947954533151822 -0.38153028965604963 0 -0.02435240389344227 -0.40106335171312202 0 -0.039460029843901602 -0.38657825609513008 0 -0.040666313152452817 -0.40295738549361731 0 -0.039460029843901602 -0.38657825609513008 0 -0.040666313152452817 -0.40295738549361731 0 -0.051158050126393823 -0.39482257956578692 0 -0.051158050126393823 -0.39482257956578692 0 -0.055339944931692371 -0.41033407375327519 0 -0.06537600817077048 -0.39271289283086208 0 -0.040666313152452817 -0.40295738549361731 0 -0.051158050126393823 -0.39482257956578692 0 -0.055339944931692371 -0.41033407375327519 0 -0.051158050126393823 -0.39482257956578692 0 -0.054947954533151822 -0.38153028965604963 0 -0.06537600817077048 -0.39271289283086208 0 -0.058927914254924968 -0.36566146732721649 0 -0.054947954533151822 -0.38153028965604963 0 -0.069825266851977402 -0.37973519870560318 0 -0.039460029843901602 -0.38657825609513008 0 -0.051158050126393823 -0.39482257956578692 0 -0.054947954533151822 -0.38153028965604963 0 -0.050530946824905103 -0.43079673267516899 0 -0.05898343605172221 -0.44882029566371712 0 -0.074274612549458691 -0.43133143379458611 0 -0.050530946824905103 -0.43079673267516899 0 -0.055339944931692371 -0.41033407375327519 0 -0.074274612549458691 -0.43133143379458611 0 -0.055339944931692371 -0.41033407375327519 0 -0.033511242786129568 -0.4187948615299234 0 -0.040666313152452817 -0.40295738549361731 0 -0.055339944931692371 -0.41033407375327519 0 -0.033511242786129568 -0.4187948615299234 0 -0.02435240389344227 -0.40106335171312202 0 -0.040666313152452817 -0.40295738549361731 0 -0.033511242786129568 -0.4187948615299234 0 -0.050530946824905103 -0.43079673267516899 0 -0.055339944931692371 -0.41033407375327519 0 -0.033511242786129568 -0.4187948615299234 0 -0.050530946824905103 -0.43079673267516899 0 -0.033511242786129568 -0.4187948615299234 0 -0.030283414496062699 -0.43817927516900279 0 -0.033511242786129568 -0.4187948615299234 0 -0.01168254064056674 -0.42725564930657162 0 -0.033511242786129568 -0.4187948615299234 0 -0.01168254064056674 -0.42725564930657162 0 -0.030283414496062699 -0.43817927516900279 0 -0.02435240389344227 -0.40106335171312202 0 -0.019437126723423799 -0.41487311041286162 0 -0.0074320890386337024 -0.40694553560935498 0 -0.02435240389344227 -0.40106335171312202 0 -0.033511242786129568 -0.4187948615299234 0 -0.019437126723423799 -0.41487311041286162 0 -0.033511242786129568 -0.4187948615299234 0 -0.019437126723423799 -0.41487311041286162 0 -0.01168254064056674 -0.42725564930657162 0 -0.019437126723423799 -0.41487311041286162 0 -0.0057760053095382118 -0.41790257368011458 0 -0.0074320890386337024 -0.40694553560935498 0 -0.019437126723423799 -0.41487311041286162 0 -0.0057760053095382118 -0.41790257368011458 0 -0.01168254064056674 -0.42725564930657162 0 -0.0057760053095382118 -0.41790257368011458 0 -0.0074320890386337024 -0.40694553560935498 0 0.0056970885256454164 -0.41168491302385962 0 -0.01168254064056674 -0.42725564930657162 0 -0.0088618208689051972 -0.45065358436346159 0 0.002702311892385807 -0.42598037654519072 0 -0.0057760053095382118 -0.41790257368011458 0 -0.01168254064056674 -0.42725564930657162 0 0.002702311892385807 -0.42598037654519072 0 -0.0088618208689051972 -0.45065358436346159 0 0.002702311892385807 -0.42598037654519072 0 -0.0088618208689051972 -0.45065358436346159 0 -0.020425953630196138 -0.47532679218173252 0 0.007654331115178414 -0.47489969430106183 0 -0.0088618208689051972 -0.45065358436346159 0 -0.020425953630196138 -0.47532679218173252 0 -0.0088618208689051972 -0.45065358436346159 0 -0.020425953630196138 -0.47532679218173252 0 -0.032310298924838297 -0.45729872824959777 0 -0.01168254064056674 -0.42725564930657162 0 -0.0088618208689051972 -0.45065358436346159 0 -0.030283414496062699 -0.43817927516900279 0 -0.0088618208689051972 -0.45065358436346159 0 -0.030283414496062699 -0.43817927516900279 0 -0.032310298924838297 -0.45729872824959777 0 -0.0048170967694046718 -0.5 0 -0.01683942816898536 -0.49034130003985887 0 0.007654331115178414 -0.47489969430106183 0 -0.020425953630196138 -0.47532679218173252 0 -0.01683942816898536 -0.49034130003985887 0 0.007654331115178414 -0.47489969430106183 0 -0.020425953630196138 -0.47532679218173252 0 -0.031990086391488128 -0.50000000000000278 0 -0.03701230704094928 -0.48727330017328779 0 -0.020425953630196138 -0.47532679218173252 0 -0.01683942816898536 -0.49034130003985887 0 -0.031990086391488128 -0.50000000000000278 0 -0.0048170967694046718 -0.5 0 -0.01683942816898536 -0.49034130003985887 0 -0.031990086391488128 -0.50000000000000278 0 -0.020425953630196138 -0.47532679218173252 0 -0.031990086391488128 -0.50000000000000278 0 -0.042331654687946807 -0.50000000000000078 0 -0.031990086391488128 -0.50000000000000278 0 -0.03701230704094928 -0.48727330017328779 0 -0.042331654687946807 -0.50000000000000078 0 -0.03701230704094928 -0.48727330017328779 0 -0.048666559211694903 -0.4863835228175038 0 -0.020425953630196138 -0.47532679218173252 0 -0.03701230704094928 -0.48727330017328779 0 -0.041647281283420413 -0.47465618586720282 0 -0.020425953630196138 -0.47532679218173252 0 -0.041647281283420413 -0.47465618586720282 0 -0.032310298924838297 -0.45729872824959777 0 -0.03701230704094928 -0.48727330017328779 0 -0.041647281283420413 -0.47465618586720282 0 -0.048666559211694903 -0.4863835228175038 0 -0.055404857430825342 -0.47738953691433739 0 -0.050412458032274399 -0.46254417473601278 0 -0.066963538563728872 -0.46886761200698518 0 -0.055404857430825342 -0.47738953691433739 0 -0.064241814170120815 -0.48961598807941498 0 -0.066963538563728872 -0.46886761200698518 0 -0.041647281283420413 -0.47465618586720282 0 -0.055404857430825342 -0.47738953691433739 0 -0.050412458032274399 -0.46254417473601278 0 -0.041647281283420413 -0.47465618586720282 0 -0.055404857430825342 -0.47738953691433739 0 -0.048666559211694903 -0.4863835228175038 0 -0.042331654687946807 -0.50000000000000078 0 -0.048666559211694903 -0.4863835228175038 0 -0.064241814170120815 -0.48961598807941498 0 -0.042331654687946807 -0.50000000000000078 0 -0.071350076744924384 -0.5 0 -0.064241814170120815 -0.48961598807941498 0 -0.042331654687946807 -0.50000000000000078 0 -0.064241814170120815 -0.48961598807941498 0 -0.055404857430825342 -0.47738953691433739 0 -0.048666559211694903 -0.4863835228175038 0 -0.064241814170120815 -0.48961598807941498 0 -0.030283414496062699 -0.43817927516900279 0 -0.044694480201778103 -0.44546113366823192 0 -0.032310298924838297 -0.45729872824959777 0 -0.050530946824905103 -0.43079673267516899 0 -0.030283414496062699 -0.43817927516900279 0 -0.044694480201778103 -0.44546113366823192 0 -0.041647281283420413 -0.47465618586720282 0 -0.032310298924838297 -0.45729872824959777 0 -0.050412458032274399 -0.46254417473601278 0 -0.044694480201778103 -0.44546113366823192 0 -0.032310298924838297 -0.45729872824959777 0 -0.050412458032274399 -0.46254417473601278 0 -0.050412458032274399 -0.46254417473601278 0 -0.05898343605172221 -0.44882029566371712 0 -0.066963538563728872 -0.46886761200698518 0 -0.050530946824905103 -0.43079673267516899 0 -0.044694480201778103 -0.44546113366823192 0 -0.05898343605172221 -0.44882029566371712 0 -0.044694480201778103 -0.44546113366823192 0 -0.050412458032274399 -0.46254417473601278 0 -0.05898343605172221 -0.44882029566371712 0 -0.05898343605172221 -0.44882029566371712 0 -0.074192492821154504 -0.45493364437691308 0 -0.074274612549458691 -0.43133143379458611 0 -0.05898343605172221 -0.44882029566371712 0 -0.074192492821154504 -0.45493364437691308 0 -0.066963538563728872 -0.46886761200698518 0 -0.074192492821154504 -0.45493364437691308 0 -0.084984352527255724 -0.46411493507670137 0 -0.066963538563728872 -0.46886761200698518 0 -0.074192492821154504 -0.45493364437691308 0 -0.084984352527255724 -0.46411493507670137 0 -0.089551624464632579 -0.44869347860253828 0 -0.074192492821154504 -0.45493364437691308 0 -0.089551624464632579 -0.44869347860253828 0 -0.074274612549458691 -0.43133143379458611 0 -0.089551624464632579 -0.44869347860253828 0 -0.095758881081206976 -0.43317387786606038 0 -0.074274612549458691 -0.43133143379458611 0 -0.071350076744924384 -0.5 0 -0.064241814170120815 -0.48961598807941498 0 -0.086151973652294517 -0.47923197615882851 0 -0.064241814170120815 -0.48961598807941498 0 -0.086151973652294517 -0.47923197615882851 0 -0.064241814170120815 -0.48961598807941498 0 -0.066963538563728872 -0.46886761200698518 0 -0.086151973652294517 -0.47923197615882851 0 -0.084984352527255724 -0.46411493507670137 0 -0.066963538563728872 -0.46886761200698518 0 -0.086151973652294517 -0.47923197615882851 0 -0.084984352527255724 -0.46411493507670137 0 -0.086151973652294517 -0.47923197615882851 0 -0.10806213313446821 -0.46884796423824199 0 -0.071350076744924384 -0.5 0 -0.086151973652294517 -0.47923197615882851 0 -0.100368498801902 -0.5 0 -0.086151973652294517 -0.47923197615882851 0 -0.100368498801902 -0.5 0 -0.10806213313446821 -0.46884796423824199 0 -0.086151973652294517 -0.47923197615882851 0 -0.10806213313446821 -0.46884796423824199 0 -0.1263771898803478 -0.47918543486112242 0 -0.100368498801902 -0.5 0 -0.10806213313446821 -0.46884796423824199 0 -0.12997229261664189 -0.45846395231765558 0 -0.1263771898803478 -0.47918543486112242 0 -0.10806213313446821 -0.46884796423824199 0 -0.1263771898803478 -0.47918543486112242 0 -0.12938692085887959 -0.5 0 -0.100368498801902 -0.5 0 -0.089551624464632579 -0.44869347860253828 0 -0.10806213313446821 -0.46884796423824199 0 -0.11292899607097261 -0.44140405704002689 0 -0.089551624464632579 -0.44869347860253828 0 -0.11292899607097261 -0.44140405704002689 0 -0.095758881081206976 -0.43317387786606038 0 -0.084984352527255724 -0.46411493507670137 0 -0.089551624464632579 -0.44869347860253828 0 -0.10806213313446821 -0.46884796423824199 0 -0.12997229261664189 -0.45846395231765558 0 -0.10806213313446821 -0.46884796423824199 0 -0.11292899607097261 -0.44140405704002689 0 -0.12997229261664189 -0.45846395231765558 0 -0.10806213313446821 -0.46884796423824199 0 -0.11292899607097261 -0.44140405704002689 0 -0.1223744859709926 -0.42238396519094529 0 -0.10688768563539119 -0.42157963839547458 0 -0.13308815750411199 -0.43873762179369757 0 -0.11292899607097261 -0.44140405704002689 0 -0.1223744859709926 -0.42238396519094529 0 -0.11292899607097261 -0.44140405704002689 0 -0.095758881081206976 -0.43317387786606038 0 -0.10688768563539119 -0.42157963839547458 0 -0.095758881081206976 -0.43317387786606038 0 -0.10688768563539119 -0.42157963839547458 0 -0.091641968555545392 -0.41811787881987211 0 -0.10688768563539119 -0.42157963839547458 0 -0.1016846847177682 -0.40717958594565018 0 -0.1151823383508446 -0.40484701417139052 0 -0.10688768563539119 -0.42157963839547458 0 -0.1016846847177682 -0.40717958594565018 0 -0.091641968555545392 -0.41811787881987211 0 -0.1304451056459674 -0.40140417662093741 0 -0.1223744859709926 -0.42238396519094529 0 -0.1151823383508446 -0.40484701417139052 0 -0.1223744859709926 -0.42238396519094529 0 -0.10688768563539119 -0.42157963839547458 0 -0.1151823383508446 -0.40484701417139052 0 -0.1151823383508446 -0.40484701417139052 0 -0.1189731496770001 -0.3856698936610341 0 -0.1087543480842971 -0.39785518727659541 0 -0.1304451056459674 -0.40140417662093741 0 -0.1151823383508446 -0.40484701417139052 0 -0.1189731496770001 -0.3856698936610341 0 -0.1232153942088636 -0.36710666441551698 0 -0.1123225423966253 -0.37475057077498553 0 -0.1189731496770001 -0.3856698936610341 0 -0.1123225423966253 -0.37475057077498553 0 -0.1189731496770001 -0.3856698936610341 0 -0.10365179485138171 -0.38197522028496272 0 -0.1189731496770001 -0.3856698936610341 0 -0.10365179485138171 -0.38197522028496272 0 -0.098997349222818054 -0.39341249819997898 0 -0.086693970278246768 -0.3720878847300379 0 -0.096776264098777182 -0.38376530910166601 0 -0.098997349222818054 -0.39341249819997898 0 -0.1189731496770001 -0.3856698936610341 0 -0.098997349222818054 -0.39341249819997898 0 -0.1123225423966253 -0.37475057077498553 0 -0.099414473360478567 -0.37336843356445631 0 -0.10365179485138171 -0.38197522028496272 0 -0.10365179485138171 -0.38197522028496272 0 -0.096776264098777182 -0.38376530910166601 0 -0.098997349222818054 -0.39341249819997898 0 -0.099414473360478567 -0.37336843356445631 0 -0.10365179485138171 -0.38197522028496272 0 -0.094871321278357304 -0.37869469576194992 0 -0.10365179485138171 -0.38197522028496272 0 -0.096776264098777182 -0.38376530910166601 0 -0.094871321278357304 -0.37869469576194992 0 -0.099414473360478567 -0.37336843356445631 0 -0.090470354991692203 -0.37296192403982881 0 -0.094871321278357304 -0.37869469576194992 0 -0.1189731496770001 -0.3856698936610341 0 -0.1087543480842971 -0.39785518727659541 0 -0.098997349222818054 -0.39341249819997898 0 -0.1016846847177682 -0.40717958594565018 0 -0.1151823383508446 -0.40484701417139052 0 -0.1087543480842971 -0.39785518727659541 0 -0.1016846847177682 -0.40717958594565018 0 -0.1087543480842971 -0.39785518727659541 0 -0.098997349222818054 -0.39341249819997898 0 -0.098997349222818054 -0.39341249819997898 0 -0.077168647077255181 -0.40187328597662703 0 -0.098997349222818054 -0.39341249819997898 0 -0.08265913965452179 -0.38758927133663079 0 -0.077168647077255181 -0.40187328597662703 0 -0.1016846847177682 -0.40717958594565018 0 -0.098997349222818054 -0.39341249819997898 0 -0.077168647077255181 -0.40187328597662703 0 -0.086693970278246768 -0.3720878847300379 0 -0.098997349222818054 -0.39341249819997898 0 -0.086693970278246768 -0.3720878847300379 0 -0.08265913965452179 -0.38758927133663079 0 -0.069825266851977402 -0.37973519870560318 0 -0.086693970278246768 -0.3720878847300379 0 -0.098997349222818054 -0.39341249819997898 0 -0.08265913965452179 -0.38758927133663079 0 -0.086693970278246768 -0.3720878847300379 0 -0.096776264098777182 -0.38376530910166601 0 -0.094871321278357304 -0.37869469576194992 0 -0.08265913965452179 -0.38758927133663079 0 -0.069825266851977402 -0.37973519870560318 0 -0.06537600817077048 -0.39271289283086208 0 -0.054947954533151822 -0.38153028965604963 0 -0.069825266851977402 -0.37973519870560318 0 -0.06537600817077048 -0.39271289283086208 0 -0.08265913965452179 -0.38758927133663079 0 -0.077168647077255181 -0.40187328597662703 0 -0.06537600817077048 -0.39271289283086208 0 -0.055339944931692371 -0.41033407375327519 0 -0.077168647077255181 -0.40187328597662703 0 -0.06537600817077048 -0.39271289283086208 0 -0.055339944931692371 -0.41033407375327519 0 -0.077168647077255181 -0.40187328597662703 0 -0.055339944931692371 -0.41033407375327519 0 -0.077168647077255181 -0.40187328597662703 0 -0.074274612549458691 -0.43133143379458611 0 -0.095758881081206976 -0.43317387786606038 0 -0.074274612549458691 -0.43133143379458611 0 -0.091641968555545392 -0.41811787881987211 0 -0.077168647077255181 -0.40187328597662703 0 -0.074274612549458691 -0.43133143379458611 0 -0.091641968555545392 -0.41811787881987211 0 -0.1016846847177682 -0.40717958594565018 0 -0.077168647077255181 -0.40187328597662703 0 -0.091641968555545392 -0.41811787881987211 0 -0.072492361515411691 -0.074883691550583317 0 -0.087117203432108659 -0.094136632999930442 0 -0.095102597611057896 -0.067647007873285828 0 -0.072492361515411691 -0.074883691550583317 0 -0.095102597611057896 -0.067647007873285828 0 -0.077051816862565986 -0.045577704184593067 0 -0.072492361515411691 -0.074883691550583317 0 -0.062578667556781084 -0.099344886596047982 0 -0.087117203432108659 -0.094136632999930442 0 -0.087117203432108659 -0.094136632999930442 0 -0.1049927385451255 -0.1084340212553251 0 -0.074017408629707404 -0.12668324375143111 0 -0.062578667556781084 -0.099344886596047982 0 -0.087117203432108659 -0.094136632999930442 0 -0.074017408629707404 -0.12668324375143111 0 -0.062578667556781084 -0.099344886596047982 0 -0.052215807681537357 -0.1199223163369068 0 -0.074017408629707404 -0.12668324375143111 0 -0.087117203432108659 -0.094136632999930442 0 -0.1049927385451255 -0.1084340212553251 0 -0.11315337835954981 -0.089716311561978554 0 -0.1049927385451255 -0.1084340212553251 0 -0.074017408629707404 -0.12668324375143111 0 -0.104665349039026 -0.13028809875266109 0 -0.1049927385451255 -0.1084340212553251 0 -0.104665349039026 -0.13028809875266109 0 -0.12521940374751089 -0.13125923008986989 0 -0.1049927385451255 -0.1084340212553251 0 -0.12521940374751089 -0.13125923008986989 0 -0.1312041591080417 -0.11178561525067141 0 -0.1049927385451255 -0.1084340212553251 0 -0.11315337835954981 -0.089716311561978554 0 -0.1312041591080417 -0.11178561525067141 0 -0.11315337835954981 -0.089716311561978554 0 -0.1312041591080417 -0.11178561525067141 0 -0.087117203432108659 -0.094136632999930442 0 -0.11315337835954981 -0.089716311561978554 0 -0.095102597611057896 -0.067647007873285828 0 -0.11315337835954981 -0.089716311561978554 0 -0.095102597611057896 -0.067647007873285828 0 -0.11315337835954981 -0.089716311561978554 0 -0.12110214893971109 -0.06263671928939113 0 -0.13248807850548869 -0.080128832314290618 0 -0.11315337835954981 -0.089716311561978554 0 -0.095102597611057896 -0.067647007873285828 0 -0.12110214893971109 -0.06263671928939113 0 -0.12110214893971109 -0.06263671928939113 0 -0.1225876040589456 -0.043810651769905631 0 -0.1059132059741127 -0.047298259958579912 0 -0.1225876040589456 -0.043810651769905631 0 -0.1059132059741127 -0.047298259958579912 0 -0.1123302474018891 -0.03105716900435631 0 -0.1225876040589456 -0.043810651769905631 0 -0.1123302474018891 -0.03105716900435631 0 -0.12761815919661079 -0.033891784110575633 0 -0.099089375263918367 -0.031895172003832878 0 -0.1059132059741127 -0.047298259958579912 0 -0.1123302474018891 -0.03105716900435631 0 -0.099089375263918367 -0.031895172003832878 0 -0.1059132059741127 -0.047298259958579912 0 -0.092660433584711946 -0.04428057897210716 0 -0.095102597611057896 -0.067647007873285828 0 -0.12110214893971109 -0.06263671928939113 0 -0.1059132059741127 -0.047298259958579912 0 -0.095102597611057896 -0.067647007873285828 0 -0.1059132059741127 -0.047298259958579912 0 -0.092660433584711946 -0.04428057897210716 0 -0.1142584850649991 -0.0002901362221794076 0 -0.1227689365701201 -0.01435403555269865 0 -0.13058747053558109 -0.00038793411768107971 0 -0.1142584850649991 -0.0002901362221794076 0 -0.1227689365701201 -0.01435403555269865 0 -0.10812963148834009 -0.01730887505759748 0 -0.1227689365701201 -0.01435403555269865 0 -0.12022879200316899 -0.024284549935693431 0 -0.10812963148834009 -0.01730887505759748 0 -0.1227689365701201 -0.01435403555269865 0 -0.12022879200316899 -0.024284549935693431 0 -0.13029698535888509 -0.024810885953239079 0 -0.12022879200316899 -0.024284549935693431 0 -0.1123302474018891 -0.03105716900435631 0 -0.12761815919661079 -0.033891784110575633 0 -0.12022879200316899 -0.024284549935693431 0 -0.1123302474018891 -0.03105716900435631 0 -0.10812963148834009 -0.01730887505759748 0 -0.099089375263918367 -0.031895172003832878 0 -0.10812963148834009 -0.01730887505759748 0 -0.090681948034660204 -0.016545563785031681 0 -0.099089375263918367 -0.031895172003832878 0 -0.1123302474018891 -0.03105716900435631 0 -0.10812963148834009 -0.01730887505759748 0 -0.10812963148834009 -0.01730887505759748 0 -0.096491488995410254 -0.0010129761140146209 0 -0.090681948034660204 -0.016545563785031681 0 -0.1142584850649991 -0.0002901362221794076 0 -0.10812963148834009 -0.01730887505759748 0 -0.096491488995410254 -0.0010129761140146209 0 -0.096491488995410254 -0.0010129761140146209 0 -0.090681948034660204 -0.016545563785031681 0 -0.077912580661624001 -0.003284153508062593 0 -0.090681948034660204 -0.016545563785031681 0 -0.076323439586763825 -0.016787455186438371 0 -0.077912580661624001 -0.003284153508062593 0 -0.090681948034660204 -0.016545563785031681 0 -0.086145172211904847 -0.028984750840244149 0 -0.076323439586763825 -0.016787455186438371 0 -0.099089375263918367 -0.031895172003832878 0 -0.090681948034660204 -0.016545563785031681 0 -0.086145172211904847 -0.028984750840244149 0 -0.086145172211904847 -0.028984750840244149 0 -0.076323439586763825 -0.016787455186438371 0 -0.059001036114072772 -0.023508400495901419 0 -0.086145172211904847 -0.028984750840244149 0 -0.059001036114072772 -0.023508400495901419 0 -0.076323439586763825 -0.016787455186438371 0 -0.064857247096065981 -0.012150554360836121 0 -0.059001036114072772 -0.023508400495901419 0 -0.064857247096065981 -0.012150554360836121 0 -0.077912580661624001 -0.003284153508062593 0 -0.061449402821678538 0.00025584916866763259 0 -0.076323439586763825 -0.016787455186438371 0 -0.064857247096065981 -0.012150554360836121 0 -0.077912580661624001 -0.003284153508062593 0 -0.095102597611057896 -0.067647007873285828 0 -0.077051816862565986 -0.045577704184593067 0 -0.095102597611057896 -0.067647007873285828 0 -0.092660433584711946 -0.04428057897210716 0 -0.077051816862565986 -0.045577704184593067 0 -0.086145172211904847 -0.028984750840244149 0 -0.092660433584711946 -0.04428057897210716 0 -0.077051816862565986 -0.045577704184593067 0 -0.099089375263918367 -0.031895172003832878 0 -0.086145172211904847 -0.028984750840244149 0 -0.092660433584711946 -0.04428057897210716 0 -0.077051816862565986 -0.045577704184593067 0 -0.061503391399382393 -0.048339955487096312 0 -0.059001036114072772 -0.023508400495901419 0 -0.086145172211904847 -0.028984750840244149 0 -0.077051816862565986 -0.045577704184593067 0 -0.059001036114072772 -0.023508400495901419 0 -0.077051816862565986 -0.045577704184593067 0 -0.059001036114072772 -0.023508400495901419 0 -0.072492361515411691 -0.074883691550583317 0 -0.061503391399382393 -0.048339955487096312 0 -0.054775555645857753 -0.062534109027383974 0 -0.072492361515411691 -0.074883691550583317 0 -0.077051816862565986 -0.045577704184593067 0 -0.061503391399382393 -0.048339955487096312 0 -0.072492361515411691 -0.074883691550583317 0 -0.061503391399382393 -0.048339955487096312 0 -0.061503391399382393 -0.048339955487096312 0 -0.046955065438996663 -0.045573394159163741 0 -0.054775555645857753 -0.062534109027383974 0 -0.046955065438996663 -0.045573394159163741 0 -0.04055222422243919 -0.061171940780281257 0 -0.054775555645857753 -0.062534109027383974 0 -0.061503391399382393 -0.048339955487096312 0 -0.046955065438996663 -0.045573394159163741 0 -0.050514421283353157 -0.021796219423609271 0 -0.061503391399382393 -0.048339955487096312 0 -0.050514421283353157 -0.021796219423609271 0 -0.046955065438996663 -0.045573394159163741 0 -0.038879773717848128 -0.034304107505868077 0 -0.035652894630616022 -0.047103083976342157 0 -0.046955065438996663 -0.045573394159163741 0 -0.038879773717848128 -0.034304107505868077 0 -0.050514421283353157 -0.021796219423609271 0 -0.038879773717848128 -0.034304107505868077 0 -0.032630440453718212 -0.024828149570173749 0 -0.025067970405900281 -0.039228289445114028 0 -0.038879773717848128 -0.034304107505868077 0 -0.035652894630616022 -0.047103083976342157 0 -0.025067970405900281 -0.039228289445114028 0 -0.035652894630616022 -0.047103083976342157 0 -0.04055222422243919 -0.061171940780281257 0 -0.02804186952570685 -0.056370872468697937 0 -0.046955065438996663 -0.045573394159163741 0 -0.035652894630616022 -0.047103083976342157 0 -0.04055222422243919 -0.061171940780281257 0 -0.050514421283353157 -0.021796219423609271 0 -0.043332816364281983 -0.0044491319830825219 0 -0.050514421283353157 -0.021796219423609271 0 -0.052563541188637597 -0.015637769719126511 0 -0.043332816364281983 -0.0044491319830825219 0 -0.056782432883930797 -0.0087968403457646359 0 -0.043332816364281983 -0.0044491319830825219 0 -0.061449402821678538 0.00025584916866763259 0 -0.064857247096065981 -0.012150554360836121 0 -0.056782432883930797 -0.0087968403457646359 0 -0.061449402821678538 0.00025584916866763259 0 -0.064857247096065981 -0.012150554360836121 0 -0.056782432883930797 -0.0087968403457646359 0 -0.058359995234847389 -0.014971157235456939 0 -0.056782432883930797 -0.0087968403457646359 0 -0.058359995234847389 -0.014971157235456939 0 -0.052563541188637597 -0.015637769719126511 0 -0.056782432883930797 -0.0087968403457646359 0 -0.052563541188637597 -0.015637769719126511 0 -0.043332816364281983 -0.0044491319830825219 0 -0.061503391399382393 -0.048339955487096312 0 -0.050514421283353157 -0.021796219423609271 0 -0.059001036114072772 -0.023508400495901419 0 -0.050514421283353157 -0.021796219423609271 0 -0.052563541188637597 -0.015637769719126511 0 -0.059001036114072772 -0.023508400495901419 0 -0.064857247096065981 -0.012150554360836121 0 -0.058359995234847389 -0.014971157235456939 0 -0.059001036114072772 -0.023508400495901419 0 -0.050514421283353157 -0.021796219423609271 0 -0.059001036114072772 -0.023508400495901419 0 -0.052563541188637597 -0.015637769719126511 0 -0.059001036114072772 -0.023508400495901419 0 -0.058359995234847389 -0.014971157235456939 0 -0.052563541188637597 -0.015637769719126511 0 -0.059001036114072772 -0.023508400495901419 0 -0.038879773717848128 -0.034304107505868077 0 -0.050514421283353157 -0.021796219423609271 0 -0.035783490713305 -0.018824242846091251 0 -0.038879773717848128 -0.034304107505868077 0 -0.032630440453718212 -0.024828149570173749 0 -0.035783490713305 -0.018824242846091251 0 -0.032630440453718212 -0.024828149570173749 0 -0.035783490713305 -0.018824242846091251 0 -0.050514421283353157 -0.021796219423609271 0 -0.035783490713305 -0.018824242846091251 0 -0.035783490713305 -0.018824242846091251 0 -0.043332816364281983 -0.0044491319830825219 0 -0.024908960302026259 -0.0020286333171264212 0 -0.050514421283353157 -0.021796219423609271 0 -0.035783490713305 -0.018824242846091251 0 -0.043332816364281983 -0.0044491319830825219 0 -0.035783490713305 -0.018824242846091251 0 -0.043332816364281983 -0.0044491319830825219 0 -0.035783490713305 -0.018824242846091251 0 -0.024908960302026259 -0.0020286333171264212 0 -0.009958688835701085 -0.01361406919586922 0 -0.032630440453718212 -0.024828149570173749 0 -0.035783490713305 -0.018824242846091251 0 -0.009958688835701085 -0.01361406919586922 0 -0.035783490713305 -0.018824242846091251 0 -0.009958688835701085 -0.01361406919586922 0 -0.032630440453718212 -0.024828149570173749 0 -0.009958688835701085 -0.01361406919586922 0 -0.01301089029620262 -0.040722508836605213 0 -0.009958688835701085 -0.01361406919586922 0 -0.01301089029620262 -0.040722508836605213 0 0.001927903010464381 -0.028678454869142951 0 -0.024908960302026259 -0.0020286333171264212 0 -0.009958688835701085 -0.01361406919586922 0 -0.0064648095591495029 0.0049702259743342123 0 -0.009958688835701085 -0.01361406919586922 0 -0.0064648095591495029 0.0049702259743342123 0 0.0080183541192206075 -0.0001163402675899565 0 -0.035652894630616022 -0.047103083976342157 0 -0.02804186952570685 -0.056370872468697937 0 -0.025067970405900281 -0.039228289445114028 0 -0.02804186952570685 -0.056370872468697937 0 -0.025067970405900281 -0.039228289445114028 0 -0.014352450098495379 -0.059632336044136633 0 -0.025067970405900281 -0.039228289445114028 0 -0.014352450098495379 -0.059632336044136633 0 -0.025067970405900281 -0.039228289445114028 0 -0.01301089029620262 -0.040722508836605213 0 -0.014352450098495379 -0.059632336044136633 0 -0.032630440453718212 -0.024828149570173749 0 -0.025067970405900281 -0.039228289445114028 0 -0.01301089029620262 -0.040722508836605213 0 -0.032630440453718212 -0.024828149570173749 0 -0.01301089029620262 -0.040722508836605213 0 -0.032630440453718212 -0.024828149570173749 0 -0.025067970405900281 -0.039228289445114028 0 -0.01301089029620262 -0.040722508836605213 0 0.0035951371165175851 -0.040859910095091781 0 0.006397824160430849 -0.056727591935359062 0 -0.01301089029620262 -0.040722508836605213 0 0.001927903010464381 -0.028678454869142951 0 0.0035951371165175851 -0.040859910095091781 0 -0.01301089029620262 -0.040722508836605213 0 0.006397824160430849 -0.056727591935359062 0 -0.01301089029620262 -0.040722508836605213 0 -0.014352450098495379 -0.059632336044136633 0 0.006397824160430849 -0.056727591935359062 0 -0.014352450098495379 -0.059632336044136633 0 -0.003636929791090468 -0.080036382643159237 0 0.006397824160430849 -0.056727591935359062 0 -0.014352450098495379 -0.059632336044136633 0 -0.003636929791090468 -0.080036382643159237 0 -0.027048668586705411 -0.076985081052444115 0 -0.014352450098495379 -0.059632336044136633 0 -0.003636929791090468 -0.080036382643159237 0 -0.003636929791090468 -0.080036382643159237 0 -0.027048668586705411 -0.076985081052444115 0 -0.015076055628352141 -0.10246872895047229 0 -0.027048668586705411 -0.076985081052444115 0 -0.03960987731637388 -0.1012954432684101 0 -0.015076055628352141 -0.10246872895047229 0 -0.02804186952570685 -0.056370872468697937 0 -0.014352450098495379 -0.059632336044136633 0 -0.027048668586705411 -0.076985081052444115 0 -0.04055222422243919 -0.061171940780281257 0 -0.027048668586705411 -0.076985081052444115 0 -0.049810746328228177 -0.078645501607579466 0 -0.04055222422243919 -0.061171940780281257 0 -0.02804186952570685 -0.056370872468697937 0 -0.027048668586705411 -0.076985081052444115 0 -0.027048668586705411 -0.076985081052444115 0 -0.049810746328228177 -0.078645501607579466 0 -0.03960987731637388 -0.1012954432684101 0 -0.062578667556781084 -0.099344886596047982 0 -0.049810746328228177 -0.078645501607579466 0 -0.03960987731637388 -0.1012954432684101 0 -0.072492361515411691 -0.074883691550583317 0 -0.062578667556781084 -0.099344886596047982 0 -0.049810746328228177 -0.078645501607579466 0 -0.04055222422243919 -0.061171940780281257 0 -0.049810746328228177 -0.078645501607579466 0 -0.054775555645857753 -0.062534109027383974 0 -0.072492361515411691 -0.074883691550583317 0 -0.049810746328228177 -0.078645501607579466 0 -0.054775555645857753 -0.062534109027383974 0 -0.062578667556781084 -0.099344886596047982 0 -0.052215807681537357 -0.1199223163369068 0 -0.03960987731637388 -0.1012954432684101 0 -0.052215807681537357 -0.1199223163369068 0 -0.03960987731637388 -0.1012954432684101 0 -0.030196149695172189 -0.12845158666296469 0 -0.03960987731637388 -0.1012954432684101 0 -0.015076055628352141 -0.10246872895047229 0 -0.030196149695172189 -0.12845158666296469 0 -0.003636929791090468 -0.080036382643159237 0 -0.015076055628352141 -0.10246872895047229 0 0.0062094743525467136 -0.10273533307031189 0 -0.015076055628352141 -0.10246872895047229 0 -0.00024223516699402629 -0.12553518175368369 0 -0.030196149695172189 -0.12845158666296469 0 -0.015076055628352141 -0.10246872895047229 0 -0.00024223516699402629 -0.12553518175368369 0 0.0062094743525467136 -0.10273533307031189 0 -0.00024223516699402629 -0.12553518175368369 0 -0.030196149695172189 -0.12845158666296469 0 -0.01636615938572503 -0.1461963292408674 0 -0.030196149695172189 -0.12845158666296469 0 -0.01636615938572503 -0.1461963292408674 0 -0.034502060040319547 -0.15897963881414159 0 -0.00024223516699402629 -0.12553518175368369 0 -0.01636615938572503 -0.1461963292408674 0 0.0043086689965235398 -0.1542508539049337 0 -0.01636615938572503 -0.1461963292408674 0 -0.014744385745625539 -0.17512783634549689 0 0.0043086689965235398 -0.1542508539049337 0 -0.014744385745625539 -0.17512783634549689 0 0.0099739598612314292 -0.17423772217135619 0 0.0043086689965235398 -0.1542508539049337 0 -0.014744385745625539 -0.17512783634549689 0 -0.0022379012392575791 -0.18928406987637861 0 -0.020645040244049329 -0.19169498507099869 0 -0.014744385745625539 -0.17512783634549689 0 -0.0022379012392575791 -0.18928406987637861 0 0.0099739598612314292 -0.17423772217135619 0 -0.014744385745625539 -0.17512783634549689 0 -0.035933381283118272 -0.1792789753293417 0 -0.020645040244049329 -0.19169498507099869 0 -0.014744385745625539 -0.17512783634549689 0 -0.034502060040319547 -0.15897963881414159 0 -0.014744385745625539 -0.17512783634549689 0 -0.034502060040319547 -0.15897963881414159 0 -0.035933381283118272 -0.1792789753293417 0 -0.01636615938572503 -0.1461963292408674 0 -0.014744385745625539 -0.17512783634549689 0 -0.034502060040319547 -0.15897963881414159 0 -0.034502060040319547 -0.15897963881414159 0 -0.035933381283118272 -0.1792789753293417 0 -0.059674864083062537 -0.16761560537486789 0 -0.035933381283118272 -0.1792789753293417 0 -0.059674864083062537 -0.16761560537486789 0 -0.053588618354584297 -0.18924879966448679 0 -0.059674864083062537 -0.16761560537486789 0 -0.053588618354584297 -0.18924879966448679 0 -0.059674864083062537 -0.16761560537486789 0 -0.053588618354584297 -0.18924879966448679 0 -0.071140878909105032 -0.18270985045731181 0 -0.034502060040319547 -0.15897963881414159 0 -0.059674864083062537 -0.16761560537486789 0 -0.054259734335013493 -0.14283144128278641 0 -0.052215807681537357 -0.1199223163369068 0 -0.054259734335013493 -0.14283144128278641 0 -0.074017408629707404 -0.12668324375143111 0 -0.052215807681537357 -0.1199223163369068 0 -0.030196149695172189 -0.12845158666296469 0 -0.054259734335013493 -0.14283144128278641 0 -0.030196149695172189 -0.12845158666296469 0 -0.034502060040319547 -0.15897963881414159 0 -0.054259734335013493 -0.14283144128278641 0 -0.034502060040319547 -0.15897963881414159 0 -0.054259734335013493 -0.14283144128278641 0 -0.019336687937684369 -0.25446284815493742 0 -0.023843391411193411 -0.23908015820847059 0 -0.0082108068989264153 -0.2437558387173519 0 -0.019336687937684369 -0.25446284815493742 0 -0.031120816745664089 -0.25259138804725551 0 -0.023843391411193411 -0.23908015820847059 0 -0.031120816745664089 -0.25259138804725551 0 -0.023843391411193411 -0.23908015820847059 0 -0.038745352919687177 -0.2420082936729224 0 -0.023843391411193411 -0.23908015820847059 0 -0.0082108068989264153 -0.2437558387173519 0 -0.0091759533933142984 -0.22947178415111291 0 -0.0082108068989264153 -0.2437558387173519 0 -0.0091759533933142984 -0.22947178415111291 0 0.0092677963370525664 -0.2341794941031228 0 -0.0091759533933142984 -0.22947178415111291 0 -0.021998785467330449 -0.22400568100325141 0 -0.0025814440370384578 -0.21549617376277669 0 -0.0091759533933142984 -0.22947178415111291 0 -0.0025814440370384578 -0.21549617376277669 0 0.0092677963370525664 -0.2341794941031228 0 -0.021998785467330449 -0.22400568100325141 0 -0.0025814440370384578 -0.21549617376277669 0 -0.023843391411193411 -0.23908015820847059 0 -0.0091759533933142984 -0.22947178415111291 0 -0.021998785467330449 -0.22400568100325141 0 -0.023843391411193411 -0.23908015820847059 0 -0.021998785467330449 -0.22400568100325141 0 -0.031500914173958658 -0.23440233028209201 0 -0.021998785467330449 -0.22400568100325141 0 -0.02500950757483265 -0.20876500506034501 0 -0.0025814440370384578 -0.21549617376277669 0 -0.021998785467330449 -0.22400568100325141 0 -0.02500950757483265 -0.20876500506034501 0 -0.035228414949570609 -0.2191773828178939 0 -0.02500950757483265 -0.20876500506034501 0 -0.0025814440370384578 -0.21549617376277669 0 -0.010727892503407501 -0.202651240119089 0 -0.0025814440370384578 -0.21549617376277669 0 -0.010727892503407501 -0.202651240119089 0 -0.0025814440370384578 -0.21549617376277669 0 -0.010727892503407501 -0.202651240119089 0 0.0040784261185659388 -0.2007201160184032 0 -0.010727892503407501 -0.202651240119089 0 -0.0022379012392575791 -0.18928406987637861 0 -0.020645040244049329 -0.19169498507099869 0 -0.010727892503407501 -0.202651240119089 0 -0.0022379012392575791 -0.18928406987637861 0 0.0040784261185659388 -0.2007201160184032 0 -0.02500950757483265 -0.20876500506034501 0 -0.020645040244049329 -0.19169498507099869 0 -0.035217173118054473 -0.19506278369534111 0 -0.02500950757483265 -0.20876500506034501 0 -0.010727892503407501 -0.202651240119089 0 -0.020645040244049329 -0.19169498507099869 0 -0.035933381283118272 -0.1792789753293417 0 -0.020645040244049329 -0.19169498507099869 0 -0.035217173118054473 -0.19506278369534111 0 -0.035217173118054473 -0.19506278369534111 0 -0.053588618354584297 -0.18924879966448679 0 -0.047502372626106057 -0.21088199395410581 0 -0.035933381283118272 -0.1792789753293417 0 -0.035217173118054473 -0.19506278369534111 0 -0.053588618354584297 -0.18924879966448679 0 -0.053588618354584297 -0.18924879966448679 0 -0.047502372626106057 -0.21088199395410581 0 -0.053588618354584297 -0.18924879966448679 0 -0.047502372626106057 -0.21088199395410581 0 -0.06784142867452285 -0.2009038339299983 0 -0.047502372626106057 -0.21088199395410581 0 -0.06401324568395482 -0.2235508978105214 0 -0.06784142867452285 -0.2009038339299983 0 -0.02500950757483265 -0.20876500506034501 0 -0.047502372626106057 -0.21088199395410581 0 -0.035228414949570609 -0.2191773828178939 0 -0.02500950757483265 -0.20876500506034501 0 -0.035217173118054473 -0.19506278369534111 0 -0.047502372626106057 -0.21088199395410581 0 -0.021998785467330449 -0.22400568100325141 0 -0.035228414949570609 -0.2191773828178939 0 -0.041416126897623633 -0.23251518824372361 0 -0.047502372626106057 -0.21088199395410581 0 -0.035228414949570609 -0.2191773828178939 0 -0.041416126897623633 -0.23251518824372361 0 -0.047502372626106057 -0.21088199395410581 0 -0.041416126897623633 -0.23251518824372361 0 -0.021998785467330449 -0.22400568100325141 0 -0.041416126897623633 -0.23251518824372361 0 -0.031500914173958658 -0.23440233028209201 0 -0.021998785467330449 -0.22400568100325141 0 -0.041416126897623633 -0.23251518824372361 0 -0.041416126897623633 -0.23251518824372361 0 -0.067632281104626477 -0.2440042252389642 0 -0.06401324568395482 -0.2235508978105214 0 -0.047502372626106057 -0.21088199395410581 0 -0.041416126897623633 -0.23251518824372361 0 -0.06401324568395482 -0.2235508978105214 0 -0.041416126897623633 -0.23251518824372361 0 -0.051386878646086043 -0.2478129094496698 0 -0.067632281104626477 -0.2440042252389642 0 -0.041416126897623633 -0.23251518824372361 0 -0.067632281104626477 -0.2440042252389642 0 -0.041416862870223482 -0.25312883832289901 0 -0.051386878646086043 -0.2478129094496698 0 -0.038745352919687177 -0.2420082936729224 0 -0.041416126897623633 -0.23251518824372361 0 -0.051386878646086043 -0.2478129094496698 0 -0.038745352919687177 -0.2420082936729224 0 -0.041416126897623633 -0.23251518824372361 0 -0.038745352919687177 -0.2420082936729224 0 -0.041416126897623633 -0.23251518824372361 0 -0.031500914173958658 -0.23440233028209201 0 -0.038745352919687177 -0.2420082936729224 0 -0.023843391411193411 -0.23908015820847059 0 -0.031500914173958658 -0.23440233028209201 0 -0.038745352919687177 -0.2420082936729224 0 -0.041416862870223482 -0.25312883832289901 0 -0.031120816745664089 -0.25259138804725551 0 -0.038745352919687177 -0.2420082936729224 0 -0.093848435311629577 -0.25549326223420432 0 -0.067632281104626477 -0.2440042252389642 0 -0.093848435311629577 -0.25549326223420432 0 -0.067632281104626477 -0.2440042252389642 0 -0.086640583767295845 -0.2307882682079849 0 -0.067632281104626477 -0.2440042252389642 0 -0.06401324568395482 -0.2235508978105214 0 -0.086640583767295845 -0.2307882682079849 0 -0.06401324568395482 -0.2235508978105214 0 -0.086640583767295845 -0.2307882682079849 0 -0.081291138108688474 -0.21329800359577439 0 -0.086640583767295845 -0.2307882682079849 0 -0.081291138108688474 -0.21329800359577439 0 -0.096293603438828118 -0.21272702561277951 0 -0.081291138108688474 -0.21329800359577439 0 -0.090938657712513429 -0.19337541307135689 0 -0.096293603438828118 -0.21272702561277951 0 -0.06401324568395482 -0.2235508978105214 0 -0.081291138108688474 -0.21329800359577439 0 -0.06784142867452285 -0.2009038339299983 0 -0.053588618354584297 -0.18924879966448679 0 -0.06784142867452285 -0.2009038339299983 0 -0.071140878909105032 -0.18270985045731181 0 -0.06784142867452285 -0.2009038339299983 0 -0.090938657712513429 -0.19337541307135689 0 -0.071140878909105032 -0.18270985045731181 0 -0.081291138108688474 -0.21329800359577439 0 -0.06784142867452285 -0.2009038339299983 0 -0.090938657712513429 -0.19337541307135689 0 -0.090938657712513429 -0.19337541307135689 0 -0.1129762778552646 -0.19776929174355559 0 -0.10971240855359669 -0.17825952730605621 0 -0.090938657712513429 -0.19337541307135689 0 -0.1129762778552646 -0.19776929174355559 0 -0.096293603438828118 -0.21272702561277951 0 -0.1129762778552646 -0.19776929174355559 0 -0.1096213597503783 -0.2284041514452258 0 -0.13220235609933559 -0.20607482066615049 0 -0.1129762778552646 -0.19776929174355559 0 -0.096293603438828118 -0.21272702561277951 0 -0.1096213597503783 -0.2284041514452258 0 -0.086640583767295845 -0.2307882682079849 0 -0.096293603438828118 -0.21272702561277951 0 -0.1096213597503783 -0.2284041514452258 0 -0.1096213597503783 -0.2284041514452258 0 -0.1201960282300749 -0.2454449538855544 0 -0.1354865421298232 -0.22657995325513361 0 -0.1096213597503783 -0.2284041514452258 0 -0.1354865421298232 -0.22657995325513361 0 -0.093848435311629577 -0.25549326223420432 0 -0.1096213597503783 -0.2284041514452258 0 -0.1201960282300749 -0.2454449538855544 0 -0.093848435311629577 -0.25549326223420432 0 -0.086640583767295845 -0.2307882682079849 0 -0.1096213597503783 -0.2284041514452258 0 -0.074017408629707404 -0.12668324375143111 0 -0.07797946722516913 -0.15105050154979091 0 -0.096119880358578658 -0.14761436463794611 0 -0.074017408629707404 -0.12668324375143111 0 -0.096119880358578658 -0.14761436463794611 0 -0.104665349039026 -0.13028809875266109 0 -0.054259734335013493 -0.14283144128278641 0 -0.074017408629707404 -0.12668324375143111 0 -0.054259734335013493 -0.14283144128278641 0 -0.074017408629707404 -0.12668324375143111 0 -0.07797946722516913 -0.15105050154979091 0 -0.059674864083062537 -0.16761560537486789 0 -0.054259734335013493 -0.14283144128278641 0 -0.07797946722516913 -0.15105050154979091 0 -0.059674864083062537 -0.16761560537486789 0 -0.07797946722516913 -0.15105050154979091 0 -0.075923600085406606 -0.1671746835155086 0 -0.059674864083062537 -0.16761560537486789 0 -0.075923600085406606 -0.1671746835155086 0 -0.071140878909105032 -0.18270985045731181 0 -0.075923600085406606 -0.1671746835155086 0 -0.071140878909105032 -0.18270985045731181 0 -0.093124284866729301 -0.1705465437001733 0 -0.071140878909105032 -0.18270985045731181 0 -0.093124284866729301 -0.1705465437001733 0 -0.090938657712513429 -0.19337541307135689 0 -0.071140878909105032 -0.18270985045731181 0 -0.093124284866729301 -0.1705465437001733 0 -0.07797946722516913 -0.15105050154979091 0 -0.075923600085406606 -0.1671746835155086 0 -0.093124284866729301 -0.1705465437001733 0 -0.07797946722516913 -0.15105050154979091 0 -0.093124284866729301 -0.1705465437001733 0 -0.096119880358578658 -0.14761436463794611 0 -0.093124284866729301 -0.1705465437001733 0 -0.1151076908243536 -0.15838323694303469 0 -0.096119880358578658 -0.14761436463794611 0 -0.093124284866729301 -0.1705465437001733 0 -0.1151076908243536 -0.15838323694303469 0 -0.093124284866729301 -0.1705465437001733 0 -0.10971240855359669 -0.17825952730605621 0 -0.1151076908243536 -0.15838323694303469 0 -0.090938657712513429 -0.19337541307135689 0 -0.093124284866729301 -0.1705465437001733 0 -0.10971240855359669 -0.17825952730605621 0 -0.1129762778552646 -0.19776929174355559 0 -0.10971240855359669 -0.17825952730605621 0 -0.12994089928144911 -0.17718554173558751 0 -0.10971240855359669 -0.17825952730605621 0 -0.1151076908243536 -0.15838323694303469 0 -0.12994089928144911 -0.17718554173558751 0 -0.1151076908243536 -0.15838323694303469 0 -0.096119880358578658 -0.14761436463794611 0 -0.104665349039026 -0.13028809875266109 0 -0.1151076908243536 -0.15838323694303469 0 -0.104665349039026 -0.13028809875266109 0 -0.12521940374751089 -0.13125923008986989 0 -0.12521940374751089 -0.13125923008986989 0 -0.13709109678197801 -0.14621993018589621 0 -0.1590745027396023 -0.1340566234287576 0 -0.13709109678197801 -0.14621993018589621 0 -0.1532463701350443 -0.16628272437307029 0 -0.1590745027396023 -0.1340566234287576 0 -0.12521940374751089 -0.13125923008986989 0 -0.1590745027396023 -0.1340566234287576 0 -0.1312041591080417 -0.11178561525067141 0 -0.13709109678197801 -0.14621993018589621 0 -0.1590745027396023 -0.1340566234287576 0 -0.1151076908243536 -0.15838323694303469 0 -0.13709109678197801 -0.14621993018589621 0 -0.1151076908243536 -0.15838323694303469 0 -0.12521940374751089 -0.13125923008986989 0 -0.13709109678197801 -0.14621993018589621 0 -0.1151076908243536 -0.15838323694303469 0 -0.13709109678197801 -0.14621993018589621 0 -0.12994089928144911 -0.17718554173558751 0 -0.13709109678197801 -0.14621993018589621 0 -0.12994089928144911 -0.17718554173558751 0 -0.1532463701350443 -0.16628272437307029 0 -0.1532463701350443 -0.16628272437307029 0 -0.14790129633980609 -0.1885514256528969 0 -0.16592504048945761 -0.18775681690055371 0 -0.12994089928144911 -0.17718554173558751 0 -0.1532463701350443 -0.16628272437307029 0 -0.14790129633980609 -0.1885514256528969 0 -0.1532463701350443 -0.16628272437307029 0 -0.17822621133811761 -0.1725689077285287 0 -0.16809639516940739 -0.15506577847567121 0 -0.1532463701350443 -0.16628272437307029 0 -0.17822621133811761 -0.1725689077285287 0 -0.16592504048945761 -0.18775681690055371 0 -0.17822621133811761 -0.1725689077285287 0 -0.1827215591134155 -0.19775023230173891 0 -0.19305243940595221 -0.18485338744073079 0 -0.17822621133811761 -0.1725689077285287 0 -0.16592504048945761 -0.18775681690055371 0 -0.1827215591134155 -0.19775023230173891 0 -0.17822621133811761 -0.1725689077285287 0 -0.1827215591134155 -0.19775023230173891 0 -0.17822621133811761 -0.1725689077285287 0 -0.18183849646486561 -0.14735485837232801 0 -0.16809639516940739 -0.15506577847567121 0 -0.17822621133811761 -0.1725689077285287 0 -0.18183849646486561 -0.14735485837232801 0 -0.20185371801066559 -0.15920672327392349 0 -0.1532463701350443 -0.16628272437307029 0 -0.1590745027396023 -0.1340566234287576 0 -0.16809639516940739 -0.15506577847567121 0 -0.18183849646486561 -0.14735485837232801 0 -0.1590745027396023 -0.1340566234287576 0 -0.184759263658029 -0.122851007557693 0 -0.18183849646486561 -0.14735485837232801 0 -0.1590745027396023 -0.1340566234287576 0 -0.16809639516940739 -0.15506577847567121 0 -0.1409804625795113 -0.2521902354594629 0 -0.1354865421298232 -0.22657995325513361 0 -0.15855273362674019 -0.24168924605756789 0 -0.1409804625795113 -0.2521902354594629 0 -0.1201960282300749 -0.2454449538855544 0 -0.1354865421298232 -0.22657995325513361 0 -0.1096213597503783 -0.2284041514452258 0 -0.1354865421298232 -0.22657995325513361 0 -0.13220235609933559 -0.20607482066615049 0 -0.1354865421298232 -0.22657995325513361 0 -0.16135172450926821 -0.22475575506504139 0 -0.1354865421298232 -0.22657995325513361 0 -0.16135172450926821 -0.22475575506504139 0 -0.15855273362674019 -0.24168924605756789 0 -0.1354865421298232 -0.22657995325513361 0 -0.13220235609933559 -0.20607482066615049 0 -0.15814364353354479 -0.20445585858182849 0 -0.1354865421298232 -0.22657995325513361 0 -0.15814364353354479 -0.20445585858182849 0 -0.16135172450926821 -0.22475575506504139 0 -0.1129762778552646 -0.19776929174355559 0 -0.12994089928144911 -0.17718554173558751 0 -0.13220235609933559 -0.20607482066615049 0 -0.12994089928144911 -0.17718554173558751 0 -0.13220235609933559 -0.20607482066615049 0 -0.14790129633980609 -0.1885514256528969 0 -0.13220235609933559 -0.20607482066615049 0 -0.14790129633980609 -0.1885514256528969 0 -0.15814364353354479 -0.20445585858182849 0 -0.14790129633980609 -0.1885514256528969 0 -0.16592504048945761 -0.18775681690055371 0 -0.15814364353354479 -0.20445585858182849 0 -0.16592504048945761 -0.18775681690055371 0 -0.1827215591134155 -0.19775023230173891 0 -0.15814364353354479 -0.20445585858182849 0 -0.1827215591134155 -0.19775023230173891 0 -0.1872169068887132 -0.22293155687494909 0 -0.1918981886673008 -0.20737343316310841 0 -0.1827215591134155 -0.19775023230173891 0 -0.1872169068887132 -0.22293155687494909 0 -0.1827215591134155 -0.19775023230173891 0 -0.17347670025375861 -0.21239253136257069 0 -0.1872169068887132 -0.22293155687494909 0 -0.17347670025375861 -0.21239253136257069 0 -0.15814364353354479 -0.20445585858182849 0 -0.16135172450926821 -0.22475575506504139 0 -0.1827215591134155 -0.19775023230173891 0 -0.17347670025375861 -0.21239253136257069 0 -0.15814364353354479 -0.20445585858182849 0 -0.16135172450926821 -0.22475575506504139 0 -0.17521637936771051 -0.23538110692854669 0 -0.15855273362674019 -0.24168924605756789 0 -0.17347670025375861 -0.21239253136257069 0 -0.16135172450926821 -0.22475575506504139 0 -0.1872169068887132 -0.22293155687494909 0 -0.16135172450926821 -0.22475575506504139 0 -0.1872169068887132 -0.22293155687494909 0 -0.17521637936771051 -0.23538110692854669 0 -0.16135172450926821 -0.22475575506504139 0 -0.1872169068887132 -0.22293155687494909 0 -0.1872169068887132 -0.22293155687494909 0 -0.17521637936771051 -0.23538110692854669 0 -0.1900010388039628 -0.23852726446353081 0 -0.1927851707192122 -0.25412297205211248 0 -0.1769479238532963 -0.2494803231200094 0 -0.1900010388039628 -0.23852726446353081 0 -0.17521637936771051 -0.23538110692854669 0 -0.1769479238532963 -0.2494803231200094 0 -0.1900010388039628 -0.23852726446353081 0 -0.17521637936771051 -0.23538110692854669 0 -0.1769479238532963 -0.2494803231200094 0 -0.15855273362674019 -0.24168924605756789 0 -0.2084938664009798 -0.24540349480722509 0 -0.21908789812991999 -0.24138448998292861 0 -0.22051011839665 -0.2494853703664586 0 -0.2139688422804733 -0.23578230620825591 0 -0.2084938664009798 -0.24540349480722509 0 -0.21908789812991999 -0.24138448998292861 0 -0.2139688422804733 -0.23578230620825591 0 -0.20622600327449819 -0.23638348211406701 0 -0.2084938664009798 -0.24540349480722509 0 -0.20622600327449819 -0.23638348211406701 0 -0.2084938664009798 -0.24540349480722509 0 -0.1993931267243666 -0.24127232915174521 0 -0.1927851707192122 -0.25412297205211248 0 -0.2084938664009798 -0.24540349480722509 0 -0.1993931267243666 -0.24127232915174521 0 -0.1927851707192122 -0.25412297205211248 0 -0.1900010388039628 -0.23852726446353081 0 -0.1927851707192122 -0.25412297205211248 0 -0.1900010388039628 -0.23852726446353081 0 -0.1993931267243666 -0.24127232915174521 0 -0.20622600327449819 -0.23638348211406701 0 -0.1993931267243666 -0.24127232915174521 0 -0.19945955442318 -0.2319244323217908 0 -0.1900010388039628 -0.23852726446353081 0 -0.1993931267243666 -0.24127232915174521 0 -0.19945955442318 -0.2319244323217908 0 -0.1872169068887132 -0.22293155687494909 0 -0.1900010388039628 -0.23852726446353081 0 -0.1933716835516871 -0.22249747787700089 0 -0.1900010388039628 -0.23852726446353081 0 -0.19945955442318 -0.2319244323217908 0 -0.1933716835516871 -0.22249747787700089 0 -0.1872169068887132 -0.22293155687494909 0 -0.1900010388039628 -0.23852726446353081 0 -0.1872169068887132 -0.22293155687494909 0 -0.1933716835516871 -0.22249747787700089 0 -0.19585517184948889 -0.21530377842294529 0 -0.1872169068887132 -0.22293155687494909 0 -0.1933716835516871 -0.22249747787700089 0 -0.1933716835516871 -0.22249747787700089 0 -0.20115867597299911 -0.22381479447203009 0 -0.19585517184948889 -0.21530377842294529 0 -0.19945955442318 -0.2319244323217908 0 -0.1933716835516871 -0.22249747787700089 0 -0.20115867597299911 -0.22381479447203009 0 -0.20893886327797051 -0.22755090884419441 0 -0.21391659359435661 -0.220194247042268 0 -0.20567437352220549 -0.21595321893051189 0 -0.20115867597299911 -0.22381479447203009 0 -0.20893886327797051 -0.22755090884419441 0 -0.20567437352220549 -0.21595321893051189 0 -0.2139688422804733 -0.23578230620825591 0 -0.20622600327449819 -0.23638348211406701 0 -0.20893886327797051 -0.22755090884419441 0 -0.19945955442318 -0.2319244323217908 0 -0.20115867597299911 -0.22381479447203009 0 -0.20893886327797051 -0.22755090884419441 0 -0.20622600327449819 -0.23638348211406701 0 -0.19945955442318 -0.2319244323217908 0 -0.20893886327797051 -0.22755090884419441 0 -0.2139688422804733 -0.23578230620825591 0 -0.20893886327797051 -0.22755090884419441 0 -0.21774334903206141 -0.22897747817538691 0 -0.2139688422804733 -0.23578230620825591 0 -0.21774334903206141 -0.22897747817538691 0 -0.22393704233728229 -0.2362219524287959 0 -0.20893886327797051 -0.22755090884419441 0 -0.21774334903206141 -0.22897747817538691 0 -0.21391659359435661 -0.220194247042268 0 -0.21774334903206141 -0.22897747817538691 0 -0.21391659359435661 -0.220194247042268 0 -0.2218318140303929 -0.22307454446659519 0 -0.21391659359435661 -0.220194247042268 0 -0.21727883710039331 -0.21104382688646409 0 -0.2218318140303929 -0.22307454446659519 0 -0.21391659359435661 -0.220194247042268 0 -0.21727883710039331 -0.21104382688646409 0 -0.20567437352220549 -0.21595321893051189 0 -0.21727883710039331 -0.21104382688646409 0 -0.2080632089151884 -0.2083095465325944 0 -0.21130935095340081 -0.1966490961918046 0 -0.2080632089151884 -0.2083095465325944 0 -0.20567437352220549 -0.21595321893051189 0 -0.19943731862534039 -0.20522180070768331 0 -0.2080632089151884 -0.2083095465325944 0 -0.19943731862534039 -0.20522180070768331 0 -0.21130935095340081 -0.1966490961918046 0 -0.21727883710039331 -0.21104382688646409 0 -0.2080632089151884 -0.2083095465325944 0 -0.20567437352220549 -0.21595321893051189 0 -0.20115867597299911 -0.22381479447203009 0 -0.20567437352220549 -0.21595321893051189 0 -0.19585517184948889 -0.21530377842294529 0 -0.20567437352220549 -0.21595321893051189 0 -0.19585517184948889 -0.21530377842294529 0 -0.19943731862534039 -0.20522180070768331 0 -0.1872169068887132 -0.22293155687494909 0 -0.19585517184948889 -0.21530377842294529 0 -0.1918981886673008 -0.20737343316310841 0 -0.19585517184948889 -0.21530377842294529 0 -0.1918981886673008 -0.20737343316310841 0 -0.19943731862534039 -0.20522180070768331 0 -0.19943731862534039 -0.20522180070768331 0 -0.1942599868595461 -0.1956597975082256 0 -0.21130935095340081 -0.1966490961918046 0 -0.1918981886673008 -0.20737343316310841 0 -0.19943731862534039 -0.20522180070768331 0 -0.1942599868595461 -0.1956597975082256 0 -0.1827215591134155 -0.19775023230173891 0 -0.1918981886673008 -0.20737343316310841 0 -0.1942599868595461 -0.1956597975082256 0 -0.1827215591134155 -0.19775023230173891 0 -0.1942599868595461 -0.1956597975082256 0 -0.19305243940595221 -0.18485338744073079 0 -0.1942599868595461 -0.1956597975082256 0 -0.19305243940595221 -0.18485338744073079 0 -0.20588631194693649 -0.18520144462838589 0 -0.21130935095340081 -0.1966490961918046 0 -0.22439505083603231 -0.19647768267539209 0 -0.21756174363244621 -0.17986162036525619 0 -0.1942599868595461 -0.1956597975082256 0 -0.21130935095340081 -0.1966490961918046 0 -0.20588631194693649 -0.18520144462838589 0 -0.21727883710039331 -0.21104382688646409 0 -0.21130935095340081 -0.1966490961918046 0 -0.22439505083603231 -0.19647768267539209 0 -0.22439505083603231 -0.19647768267539209 0 -0.23630405748483321 -0.19642511648356581 0 -0.22871693281934871 -0.20681294600872949 0 -0.22439505083603231 -0.19647768267539209 0 -0.23630405748483321 -0.19642511648356581 0 -0.23030117209940701 -0.18292621618168131 0 -0.23630405748483321 -0.19642511648356581 0 -0.25159482283769069 -0.1857195072511863 0 -0.24543790992382999 -0.19934792512221711 0 -0.23630405748483321 -0.19642511648356581 0 -0.25159482283769069 -0.1857195072511863 0 -0.24543790992382999 -0.19934792512221711 0 -0.24628661236862789 -0.2089003999259387 0 -0.25412148991951777 -0.1952778502858005 0 -0.24543790992382999 -0.19934792512221711 0 -0.23630405748483321 -0.19642511648356581 0 -0.23750519277319929 -0.20995714598784451 0 -0.24543790992382999 -0.19934792512221711 0 -0.23750519277319929 -0.20995714598784451 0 -0.24628661236862789 -0.2089003999259387 0 -0.24628661236862789 -0.2089003999259387 0 -0.2426956373634481 -0.21747206999966309 0 -0.25443122798705142 -0.22234005771040641 0 -0.23750519277319929 -0.20995714598784451 0 -0.2426956373634481 -0.21747206999966309 0 -0.2330994482417991 -0.2216983782746256 0 -0.23750519277319929 -0.20995714598784451 0 -0.24628661236862789 -0.2089003999259387 0 -0.2426956373634481 -0.21747206999966309 0 -0.23750519277319929 -0.20995714598784451 0 -0.2271175160069239 -0.21532780948461819 0 -0.2330994482417991 -0.2216983782746256 0 -0.23630405748483321 -0.19642511648356581 0 -0.23750519277319929 -0.20995714598784451 0 -0.22871693281934871 -0.20681294600872949 0 -0.23750519277319929 -0.20995714598784451 0 -0.2271175160069239 -0.21532780948461819 0 -0.22871693281934871 -0.20681294600872949 0 -0.21727883710039331 -0.21104382688646409 0 -0.22439505083603231 -0.19647768267539209 0 -0.22871693281934871 -0.20681294600872949 0 -0.21727883710039331 -0.21104382688646409 0 -0.2271175160069239 -0.21532780948461819 0 -0.2218318140303929 -0.22307454446659519 0 -0.21727883710039331 -0.21104382688646409 0 -0.2271175160069239 -0.21532780948461819 0 -0.22871693281934871 -0.20681294600872949 0 -0.21774334903206141 -0.22897747817538691 0 -0.22597385239084761 -0.22937886583459849 0 -0.22393704233728229 -0.2362219524287959 0 -0.21774334903206141 -0.22897747817538691 0 -0.2218318140303929 -0.22307454446659519 0 -0.22597385239084761 -0.22937886583459849 0 -0.22597385239084761 -0.22937886583459849 0 -0.23351866347067551 -0.23104480320550261 0 -0.2330994482417991 -0.2216983782746256 0 -0.22597385239084761 -0.22937886583459849 0 -0.23351866347067551 -0.23104480320550261 0 -0.22393704233728229 -0.2362219524287959 0 -0.2271175160069239 -0.21532780948461819 0 -0.2218318140303929 -0.22307454446659519 0 -0.2330994482417991 -0.2216983782746256 0 -0.2218318140303929 -0.22307454446659519 0 -0.22597385239084761 -0.22937886583459849 0 -0.2330994482417991 -0.2216983782746256 0 -0.23351866347067551 -0.23104480320550261 0 -0.2330994482417991 -0.2216983782746256 0 -0.24156531546854379 -0.2256179340912956 0 -0.2426956373634481 -0.21747206999966309 0 -0.2330994482417991 -0.2216983782746256 0 -0.24156531546854379 -0.2256179340912956 0 -0.2426956373634481 -0.21747206999966309 0 -0.24156531546854379 -0.2256179340912956 0 -0.25443122798705142 -0.22234005771040641 0 -0.24156531546854379 -0.2256179340912956 0 -0.24378640529073531 -0.2361111442621783 0 -0.25443122798705142 -0.22234005771040641 0 -0.23351866347067551 -0.23104480320550261 0 -0.24156531546854379 -0.2256179340912956 0 -0.24378640529073531 -0.2361111442621783 0 -0.24378640529073531 -0.2361111442621783 0 -0.24315000177681551 -0.24811761251743861 0 -0.23360931564931561 -0.24124542133426269 0 -0.23351866347067551 -0.23104480320550261 0 -0.24378640529073531 -0.2361111442621783 0 -0.23360931564931561 -0.24124542133426269 0 -0.24378640529073531 -0.2361111442621783 0 -0.24315000177681551 -0.24811761251743861 0 -0.25474096605458452 -0.24940226513501221 0 -0.23273519137616619 -0.25198235051106233 0 -0.24315000177681551 -0.24811761251743861 0 -0.23360931564931561 -0.24124542133426269 0 -0.23273519137616619 -0.25198235051106233 0 -0.23360931564931561 -0.24124542133426269 0 -0.2259124673627344 -0.24327954890764639 0 -0.23351866347067551 -0.23104480320550261 0 -0.23360931564931561 -0.24124542133426269 0 -0.22393704233728229 -0.2362219524287959 0 -0.23360931564931561 -0.24124542133426269 0 -0.22393704233728229 -0.2362219524287959 0 -0.2259124673627344 -0.24327954890764639 0 -0.2139688422804733 -0.23578230620825591 0 -0.22393704233728229 -0.2362219524287959 0 -0.21908789812991999 -0.24138448998292861 0 -0.22393704233728229 -0.2362219524287959 0 -0.21908789812991999 -0.24138448998292861 0 -0.2259124673627344 -0.24327954890764639 0 -0.21908789812991999 -0.24138448998292861 0 -0.22051011839665 -0.2494853703664586 0 -0.2259124673627344 -0.24327954890764639 0 -0.23273519137616619 -0.25198235051106233 0 -0.22051011839665 -0.2494853703664586 0 -0.2259124673627344 -0.24327954890764639 0 -0.21065499661537901 -0.13356005910711621 0 -0.20185371801066559 -0.15920672327392349 0 -0.21065499661537901 -0.13356005910711621 0 -0.20185371801066559 -0.15920672327392349 0 -0.2207359796902246 -0.14925810198321099 0 -0.18183849646486561 -0.14735485837232801 0 -0.21065499661537901 -0.13356005910711621 0 -0.184759263658029 -0.122851007557693 0 -0.18183849646486561 -0.14735485837232801 0 -0.21065499661537901 -0.13356005910711621 0 -0.20185371801066559 -0.15920672327392349 0 -0.17822621133811761 -0.1725689077285287 0 -0.20185371801066559 -0.15920672327392349 0 -0.19305243940595221 -0.18485338744073079 0 -0.20185371801066559 -0.15920672327392349 0 -0.19305243940595221 -0.18485338744073079 0 -0.20185371801066559 -0.15920672327392349 0 -0.19305243940595221 -0.18485338744073079 0 -0.20588631194693649 -0.18520144462838589 0 -0.21130935095340081 -0.1966490961918046 0 -0.21756174363244621 -0.17986162036525619 0 -0.20588631194693649 -0.18520144462838589 0 -0.20185371801066559 -0.15920672327392349 0 -0.21756174363244621 -0.17986162036525619 0 -0.20588631194693649 -0.18520144462838589 0 -0.20185371801066559 -0.15920672327392349 0 -0.22452439330533619 -0.16580333057260799 0 -0.2207359796902246 -0.14925810198321099 0 -0.20185371801066559 -0.15920672327392349 0 -0.21756174363244621 -0.17986162036525619 0 -0.22452439330533619 -0.16580333057260799 0 -0.22452439330533619 -0.16580333057260799 0 -0.2394388560837491 -0.167736617973682 0 -0.2357677703538866 -0.15285196259033629 0 -0.21756174363244621 -0.17986162036525619 0 -0.22452439330533619 -0.16580333057260799 0 -0.23030117209940701 -0.18292621618168131 0 -0.22452439330533619 -0.16580333057260799 0 -0.23030117209940701 -0.18292621618168131 0 -0.2394388560837491 -0.167736617973682 0 -0.22439505083603231 -0.19647768267539209 0 -0.21756174363244621 -0.17986162036525619 0 -0.23030117209940701 -0.18292621618168131 0 -0.23630405748483321 -0.19642511648356581 0 -0.2418900116927751 -0.17991793610292151 0 -0.25159482283769069 -0.1857195072511863 0 -0.23630405748483321 -0.19642511648356581 0 -0.23030117209940701 -0.18292621618168131 0 -0.2418900116927751 -0.17991793610292151 0 -0.23030117209940701 -0.18292621618168131 0 -0.2418900116927751 -0.17991793610292151 0 -0.2394388560837491 -0.167736617973682 0 -0.2418900116927751 -0.17991793610292151 0 -0.2394388560837491 -0.167736617973682 0 -0.25279107386103339 -0.17499761870979039 0 -0.2418900116927751 -0.17991793610292151 0 -0.25279107386103339 -0.17499761870979039 0 -0.25159482283769069 -0.1857195072511863 0 -0.2394388560837491 -0.167736617973682 0 -0.2555266313151574 -0.1720021620539908 0 -0.2394388560837491 -0.167736617973682 0 -0.2357677703538866 -0.15285196259033629 0 -0.25148740288540772 -0.15425196995663881 0 -0.2394388560837491 -0.167736617973682 0 -0.2555266313151574 -0.1720021620539908 0 -0.25279107386103339 -0.17499761870979039 0 -0.2394388560837491 -0.167736617973682 0 -0.2555266313151574 -0.1720021620539908 0 -0.25148740288540772 -0.15425196995663881 0 -0.2357677703538866 -0.15285196259033629 0 -0.24419633202524141 -0.13996315767187251 0 -0.25148740288540772 -0.15425196995663881 0 -0.2357677703538866 -0.15285196259033629 0 -0.22957358177666479 -0.137546740877934 0 -0.24419633202524141 -0.13996315767187251 0 -0.22452439330533619 -0.16580333057260799 0 -0.2357677703538866 -0.15285196259033629 0 -0.2207359796902246 -0.14925810198321099 0 -0.2357677703538866 -0.15285196259033629 0 -0.2207359796902246 -0.14925810198321099 0 -0.22957358177666479 -0.137546740877934 0 -0.21065499661537901 -0.13356005910711621 0 -0.22957358177666479 -0.137546740877934 0 -0.22859929503225121 -0.1218830019876215 0 -0.21065499661537901 -0.13356005910711621 0 -0.2207359796902246 -0.14925810198321099 0 -0.22957358177666479 -0.137546740877934 0 -0.22957358177666479 -0.137546740877934 0 -0.23803577048721539 -0.12941035066110981 0 -0.22859929503225121 -0.1218830019876215 0 -0.23803577048721539 -0.12941035066110981 0 -0.2490751570056102 -0.13011287184706249 0 -0.23873448659630919 -0.1175459809210585 0 -0.22957358177666479 -0.137546740877934 0 -0.23803577048721539 -0.12941035066110981 0 -0.24419633202524141 -0.13996315767187251 0 -0.23803577048721539 -0.12941035066110981 0 -0.24419633202524141 -0.13996315767187251 0 -0.2490751570056102 -0.13011287184706249 0 -0.23803577048721539 -0.12941035066110981 0 -0.23873448659630919 -0.1175459809210585 0 -0.22859929503225121 -0.1218830019876215 0 -0.24890370058353761 -0.1190210316412107 0 -0.23873448659630919 -0.1175459809210585 0 -0.2343926869382589 -0.1063431707762184 0 -0.24890370058353761 -0.1190210316412107 0 -0.245638968291645 -0.091116661313453196 0 -0.24890370058353761 -0.1190210316412107 0 -0.2343926869382589 -0.1063431707762184 0 -0.245638968291645 -0.091116661313453196 0 -0.2343926869382589 -0.1063431707762184 0 -0.21945627522009239 -0.1079133949403087 0 -0.22825755382480581 -0.082266730773501162 0 -0.21945627522009239 -0.1079133949403087 0 -0.22825755382480581 -0.082266730773501162 0 -0.21065499661537901 -0.13356005910711621 0 -0.21945627522009239 -0.1079133949403087 0 -0.22859929503225121 -0.1218830019876215 0 -0.23873448659630919 -0.1175459809210585 0 -0.2343926869382589 -0.1063431707762184 0 -0.22859929503225121 -0.1218830019876215 0 -0.2343926869382589 -0.1063431707762184 0 -0.21945627522009239 -0.1079133949403087 0 -0.22859929503225121 -0.1218830019876215 0 -0.2423742359997523 -0.063212290985695696 0 -0.245638968291645 -0.091116661313453196 0 -0.2423742359997523 -0.063212290985695696 0 -0.245638968291645 -0.091116661313453196 0 -0.26176355569361209 -0.072118407874494417 0 -0.2343926869382589 -0.1063431707762184 0 -0.245638968291645 -0.091116661313453196 0 -0.22825755382480581 -0.082266730773501162 0 -0.2423742359997523 -0.063212290985695696 0 -0.245638968291645 -0.091116661313453196 0 -0.22825755382480581 -0.082266730773501162 0 -0.2423742359997523 -0.063212290985695696 0 -0.22825755382480581 -0.082266730773501162 0 -0.2279053128875406 -0.061383799692151443 0 -0.22825755382480581 -0.082266730773501162 0 -0.21545644571979469 -0.066407197294931011 0 -0.2279053128875406 -0.061383799692151443 0 -0.21545644571979469 -0.066407197294931011 0 -0.20466722804058041 -0.085880704532662236 0 -0.1998112477978429 -0.062788943271550518 0 -0.21945627522009239 -0.1079133949403087 0 -0.22825755382480581 -0.082266730773501162 0 -0.20466722804058041 -0.085880704532662236 0 -0.22825755382480581 -0.082266730773501162 0 -0.21545644571979469 -0.066407197294931011 0 -0.20466722804058041 -0.085880704532662236 0 -0.20466722804058041 -0.085880704532662236 0 -0.18433362267532799 -0.097856803632563785 0 -0.1840843271707438 -0.072579577302367151 0 -0.20466722804058041 -0.085880704532662236 0 -0.1998112477978429 -0.062788943271550518 0 -0.1840843271707438 -0.072579577302367151 0 -0.1998112477978429 -0.062788943271550518 0 -0.1840843271707438 -0.072579577302367151 0 -0.18899887763350989 -0.055334034908438932 0 -0.21065499661537901 -0.13356005910711621 0 -0.21945627522009239 -0.1079133949403087 0 -0.21065499661537901 -0.13356005910711621 0 -0.21945627522009239 -0.1079133949403087 0 -0.20004819854732339 -0.10990259832353701 0 -0.21945627522009239 -0.1079133949403087 0 -0.20466722804058041 -0.085880704532662236 0 -0.20004819854732339 -0.10990259832353701 0 -0.20466722804058041 -0.085880704532662236 0 -0.20004819854732339 -0.10990259832353701 0 -0.18433362267532799 -0.097856803632563785 0 -0.20004819854732339 -0.10990259832353701 0 -0.184759263658029 -0.122851007557693 0 -0.18433362267532799 -0.097856803632563785 0 -0.21065499661537901 -0.13356005910711621 0 -0.20004819854732339 -0.10990259832353701 0 -0.184759263658029 -0.122851007557693 0 -0.184759263658029 -0.122851007557693 0 -0.1635162372448192 -0.10787148358766201 0 -0.18433362267532799 -0.097856803632563785 0 -0.1590745027396023 -0.1340566234287576 0 -0.184759263658029 -0.122851007557693 0 -0.1635162372448192 -0.10787148358766201 0 -0.1635162372448192 -0.10787148358766201 0 -0.18433362267532799 -0.097856803632563785 0 -0.17064839964675771 -0.087596389141914519 0 -0.18433362267532799 -0.097856803632563785 0 -0.1840843271707438 -0.072579577302367151 0 -0.17064839964675771 -0.087596389141914519 0 -0.1840843271707438 -0.072579577302367151 0 -0.1655396739742678 -0.067169926023093574 0 -0.17561099983614811 -0.053263663108207779 0 -0.1840843271707438 -0.072579577302367151 0 -0.1655396739742678 -0.067169926023093574 0 -0.17064839964675771 -0.087596389141914519 0 -0.1635162372448192 -0.10787148358766201 0 -0.17064839964675771 -0.087596389141914519 0 -0.15357395766064061 -0.084726232483140637 0 -0.1655396739742678 -0.067169926023093574 0 -0.17064839964675771 -0.087596389141914519 0 -0.15357395766064061 -0.084726232483140637 0 -0.15357395766064061 -0.084726232483140637 0 -0.13248807850548869 -0.080128832314290618 0 -0.1312041591080417 -0.11178561525067141 0 -0.15357395766064061 -0.084726232483140637 0 -0.14653495525535859 -0.058899864068427087 0 -0.15357395766064061 -0.084726232483140637 0 -0.13248807850548869 -0.080128832314290618 0 -0.14653495525535859 -0.058899864068427087 0 -0.1655396739742678 -0.067169926023093574 0 -0.15357395766064061 -0.084726232483140637 0 -0.14653495525535859 -0.058899864068427087 0 -0.12110214893971109 -0.06263671928939113 0 -0.13248807850548869 -0.080128832314290618 0 -0.14653495525535859 -0.058899864068427087 0 -0.1590745027396023 -0.1340566234287576 0 -0.1635162372448192 -0.10787148358766201 0 -0.1312041591080417 -0.11178561525067141 0 -0.1635162372448192 -0.10787148358766201 0 -0.15357395766064061 -0.084726232483140637 0 -0.1312041591080417 -0.11178561525067141 0 -0.11315337835954981 -0.089716311561978554 0 -0.13248807850548869 -0.080128832314290618 0 -0.1312041591080417 -0.11178561525067141 0 -0.13898799120320601 -0.031209764988861681 0 -0.16253600138224419 -0.03148621384789075 0 -0.1632021862563971 -0.02525821132419151 0 -0.1546895833806291 -0.020227736817729901 0 -0.13898799120320601 -0.031209764988861681 0 -0.1632021862563971 -0.02525821132419151 0 -0.14698212605282909 -0.01799072566996119 0 -0.1546895833806291 -0.020227736817729901 0 -0.13898799120320601 -0.031209764988861681 0 -0.13898799120320601 -0.031209764988861681 0 -0.1632021862563971 -0.02525821132419151 0 -0.14698212605282909 -0.01799072566996119 0 -0.1546895833806291 -0.020227736817729901 0 -0.1585847434738851 -0.01014702752176275 0 -0.14698212605282909 -0.01799072566996119 0 -0.1445788586201906 -0.0061992583406401142 0 -0.1585847434738851 -0.01014702752176275 0 -0.1445788586201906 -0.0061992583406401142 0 -0.1585847434738851 -0.01014702752176275 0 -0.1543432639347562 0.00011314664630232489 0 -0.14698212605282909 -0.01799072566996119 0 -0.1445788586201906 -0.0061992583406401142 0 -0.13478773086939241 -0.015798849553271651 0 -0.1445788586201906 -0.0061992583406401142 0 -0.13058747053558109 -0.00038793411768107971 0 -0.13478773086939241 -0.015798849553271651 0 -0.1227689365701201 -0.01435403555269865 0 -0.13058747053558109 -0.00038793411768107971 0 -0.13478773086939241 -0.015798849553271651 0 -0.13058747053558109 -0.00038793411768107971 0 -0.13478773086939241 -0.015798849553271651 0 -0.1227689365701201 -0.01435403555269865 0 -0.13478773086939241 -0.015798849553271651 0 -0.13029698535888509 -0.024810885953239079 0 -0.14698212605282909 -0.01799072566996119 0 -0.13478773086939241 -0.015798849553271651 0 -0.13898799120320601 -0.031209764988861681 0 -0.13478773086939241 -0.015798849553271651 0 -0.13898799120320601 -0.031209764988861681 0 -0.13478773086939241 -0.015798849553271651 0 -0.13898799120320601 -0.031209764988861681 0 -0.13029698535888509 -0.024810885953239079 0 -0.13898799120320601 -0.031209764988861681 0 -0.13029698535888509 -0.024810885953239079 0 -0.13693716347197471 -0.031713833419491057 0 -0.13029698535888509 -0.024810885953239079 0 -0.12761815919661079 -0.033891784110575633 0 -0.13693716347197471 -0.031713833419491057 0 -0.12022879200316899 -0.024284549935693431 0 -0.13029698535888509 -0.024810885953239079 0 -0.12761815919661079 -0.033891784110575633 0 -0.13949595285007699 -0.033073495653713543 0 -0.13457693525324649 -0.048286606555086362 0 -0.14653495525535859 -0.058899864068427087 0 -0.12761815919661079 -0.033891784110575633 0 -0.13106966283971999 -0.039765634522320292 0 -0.13949595285007699 -0.033073495653713543 0 -0.1225876040589456 -0.043810651769905631 0 -0.13106966283971999 -0.039765634522320292 0 -0.13457693525324649 -0.048286606555086362 0 -0.1225876040589456 -0.043810651769905631 0 -0.12761815919661079 -0.033891784110575633 0 -0.13106966283971999 -0.039765634522320292 0 -0.13106966283971999 -0.039765634522320292 0 -0.13949595285007699 -0.033073495653713543 0 -0.13457693525324649 -0.048286606555086362 0 -0.12761815919661079 -0.033891784110575633 0 -0.13949595285007699 -0.033073495653713543 0 -0.12761815919661079 -0.033891784110575633 0 -0.13949595285007699 -0.033073495653713543 0 -0.13693716347197471 -0.031713833419491057 0 -0.13898799120320601 -0.031209764988861681 0 -0.13949595285007699 -0.033073495653713543 0 -0.13898799120320601 -0.031209764988861681 0 -0.13693716347197471 -0.031713833419491057 0 -0.13898799120320601 -0.031209764988861681 0 -0.13949595285007699 -0.033073495653713543 0 -0.13693716347197471 -0.031713833419491057 0 -0.12110214893971109 -0.06263671928939113 0 -0.1225876040589456 -0.043810651769905631 0 -0.13457693525324649 -0.048286606555086362 0 -0.12110214893971109 -0.06263671928939113 0 -0.13457693525324649 -0.048286606555086362 0 -0.14653495525535859 -0.058899864068427087 0 -0.14653495525535859 -0.058899864068427087 0 -0.15163345915937829 -0.043066605764579047 0 -0.16263097159662329 -0.045406397413393251 0 -0.13898799120320601 -0.031209764988861681 0 -0.13949595285007699 -0.033073495653713543 0 -0.16253600138224419 -0.03148621384789075 0 -0.13949595285007699 -0.033073495653713543 0 -0.15259302871364491 -0.036518337393706142 0 -0.16253600138224419 -0.03148621384789075 0 -0.13949595285007699 -0.033073495653713543 0 -0.14653495525535859 -0.058899864068427087 0 -0.15163345915937829 -0.043066605764579047 0 -0.13949595285007699 -0.033073495653713543 0 -0.14653495525535859 -0.058899864068427087 0 -0.13949595285007699 -0.033073495653713543 0 -0.16253600138224419 -0.03148621384789075 0 -0.13949595285007699 -0.033073495653713543 0 -0.15163345915937829 -0.043066605764579047 0 -0.15259302871364491 -0.036518337393706142 0 -0.15163345915937829 -0.043066605764579047 0 -0.15259302871364491 -0.036518337393706142 0 -0.1567067014628799 -0.038447034308641187 0 -0.16253600138224419 -0.03148621384789075 0 -0.1567067014628799 -0.038447034308641187 0 -0.16263097159662329 -0.045406397413393251 0 -0.15259302871364491 -0.036518337393706142 0 -0.16253600138224419 -0.03148621384789075 0 -0.1567067014628799 -0.038447034308641187 0 -0.15163345915937829 -0.043066605764579047 0 -0.1567067014628799 -0.038447034308641187 0 -0.16263097159662329 -0.045406397413393251 0 -0.16263097159662329 -0.045406397413393251 0 -0.17561099983614811 -0.053263663108207779 0 -0.174717599393824 -0.039948915240943308 0 -0.16253600138224419 -0.03148621384789075 0 -0.16263097159662329 -0.045406397413393251 0 -0.174717599393824 -0.039948915240943308 0 -0.1655396739742678 -0.067169926023093574 0 -0.16263097159662329 -0.045406397413393251 0 -0.17561099983614811 -0.053263663108207779 0 -0.1655396739742678 -0.067169926023093574 0 -0.14653495525535859 -0.058899864068427087 0 -0.16263097159662329 -0.045406397413393251 0 -0.1840843271707438 -0.072579577302367151 0 -0.17561099983614811 -0.053263663108207779 0 -0.18899887763350989 -0.055334034908438932 0 -0.17561099983614811 -0.053263663108207779 0 -0.18620902927788649 -0.042741692681673049 0 -0.18899887763350989 -0.055334034908438932 0 -0.16253600138224419 -0.03148621384789075 0 -0.174717599393824 -0.039948915240943308 0 -0.18557604991441151 -0.029898932042069368 0 -0.17561099983614811 -0.053263663108207779 0 -0.174717599393824 -0.039948915240943308 0 -0.18620902927788649 -0.042741692681673049 0 -0.174717599393824 -0.039948915240943308 0 -0.18620902927788649 -0.042741692681673049 0 -0.18557604991441151 -0.029898932042069368 0 -0.18741638130958829 -0.019306657659521369 0 -0.1632021862563971 -0.02525821132419151 0 -0.18557604991441151 -0.029898932042069368 0 -0.18741638130958829 -0.019306657659521369 0 -0.1632021862563971 -0.02525821132419151 0 -0.18741638130958829 -0.019306657659521369 0 -0.1632021862563971 -0.02525821132419151 0 -0.1746069118233301 -0.015422102149024159 0 -0.16253600138224419 -0.03148621384789075 0 -0.18557604991441151 -0.029898932042069368 0 -0.16253600138224419 -0.03148621384789075 0 -0.18557604991441151 -0.029898932042069368 0 -0.1632021862563971 -0.02525821132419151 0 -0.16569086991682799 -0.01653295458387239 0 -0.1632021862563971 -0.02525821132419151 0 -0.1746069118233301 -0.015422102149024159 0 -0.1546895833806291 -0.020227736817729901 0 -0.16569086991682799 -0.01653295458387239 0 -0.1632021862563971 -0.02525821132419151 0 -0.1546895833806291 -0.020227736817729901 0 -0.16569086991682799 -0.01653295458387239 0 -0.1585847434738851 -0.01014702752176275 0 -0.1585847434738851 -0.01014702752176275 0 -0.1543432639347562 0.00011314664630232489 0 -0.1671822861204908 0.0027737184899516401 0 -0.16569086991682799 -0.01653295458387239 0 -0.1585847434738851 -0.01014702752176275 0 -0.17208565998729891 -0.0091669591445696051 0 -0.16569086991682799 -0.01653295458387239 0 -0.1746069118233301 -0.015422102149024159 0 -0.17208565998729891 -0.0091669591445696051 0 -0.1585847434738851 -0.01014702752176275 0 -0.17208565998729891 -0.0091669591445696051 0 -0.1671822861204908 0.0027737184899516401 0 -0.17208565998729891 -0.0091669591445696051 0 -0.18463946164653819 -0.0068457280329659569 0 -0.18047125014562829 0.0067741249090084738 0 -0.1746069118233301 -0.015422102149024159 0 -0.17208565998729891 -0.0091669591445696051 0 -0.18463946164653819 -0.0068457280329659569 0 -0.18741638130958829 -0.019306657659521369 0 -0.1746069118233301 -0.015422102149024159 0 -0.18463946164653819 -0.0068457280329659569 0 -0.18463946164653819 -0.0068457280329659569 0 -0.19402091285923451 -5.1295700694124131e-05 0 -0.18047125014562829 0.0067741249090084738 0 -0.18463946164653819 -0.0068457280329659569 0 -0.19402091285923451 -5.1295700694124131e-05 0 -0.19537190511957589 -0.010138046085466789 0 -0.18741638130958829 -0.019306657659521369 0 -0.19537190511957589 -0.010138046085466789 0 -0.2116305763627794 -0.013355103994851229 0 -0.19402091285923451 -5.1295700694124131e-05 0 -0.2032057532180945 -0.0046753221100128686 0 -0.20406773536918671 0.003097220457531749 0 -0.19402091285923451 -5.1295700694124131e-05 0 -0.19537190511957589 -0.010138046085466789 0 -0.2032057532180945 -0.0046753221100128686 0 -0.18741638130958829 -0.019306657659521369 0 -0.18463946164653819 -0.0068457280329659569 0 -0.19537190511957589 -0.010138046085466789 0 -0.18557604991441151 -0.029898932042069368 0 -0.18741638130958829 -0.019306657659521369 0 -0.2086160984465788 -0.028311650236248001 0 -0.18741638130958829 -0.019306657659521369 0 -0.2086160984465788 -0.028311650236248001 0 -0.2116305763627794 -0.013355103994851229 0 -0.18741638130958829 -0.019306657659521369 0 -0.2116305763627794 -0.013355103994851229 0 -0.18557604991441151 -0.029898932042069368 0 -0.2086160984465788 -0.028311650236248001 0 -0.2116305763627794 -0.013355103994851229 0 -0.2244471829223755 -0.019939440603799811 0 -0.21895240918914671 -0.02861232886104547 0 -0.2086160984465788 -0.028311650236248001 0 -0.2116305763627794 -0.013355103994851229 0 -0.21895240918914671 -0.02861232886104547 0 -0.19537190511957589 -0.010138046085466789 0 -0.2116305763627794 -0.013355103994851229 0 -0.2032057532180945 -0.0046753221100128686 0 -0.21093763637969601 -0.00292938522658396 0 -0.2222693236313342 -0.0051537201465370764 0 -0.21842811924960989 0.0008331812346521457 0 -0.2116305763627794 -0.013355103994851229 0 -0.21093763637969601 -0.00292938522658396 0 -0.2222693236313342 -0.0051537201465370764 0 -0.2116305763627794 -0.013355103994851229 0 -0.21093763637969601 -0.00292938522658396 0 -0.2032057532180945 -0.0046753221100128686 0 -0.21093763637969601 -0.00292938522658396 0 -0.2032057532180945 -0.0046753221100128686 0 -0.20406773536918671 0.003097220457531749 0 -0.1998112477978429 -0.062788943271550518 0 -0.18899887763350989 -0.055334034908438932 0 -0.1992787840849283 -0.045296298178396123 0 -0.1998112477978429 -0.062788943271550518 0 -0.1992787840849283 -0.045296298178396123 0 -0.20875034285382851 -0.053156168157214523 0 -0.18620902927788649 -0.042741692681673049 0 -0.18899887763350989 -0.055334034908438932 0 -0.1992787840849283 -0.045296298178396123 0 -0.2086160984465788 -0.028311650236248001 0 -0.1992787840849283 -0.045296298178396123 0 -0.19491999043095129 -0.036562143284596629 0 -0.18557604991441151 -0.029898932042069368 0 -0.2086160984465788 -0.028311650236248001 0 -0.19491999043095129 -0.036562143284596629 0 -0.18620902927788649 -0.042741692681673049 0 -0.1992787840849283 -0.045296298178396123 0 -0.19491999043095129 -0.036562143284596629 0 -0.18620902927788649 -0.042741692681673049 0 -0.18557604991441151 -0.029898932042069368 0 -0.19491999043095129 -0.036562143284596629 0 -0.2086160984465788 -0.028311650236248001 0 -0.1992787840849283 -0.045296298178396123 0 -0.21336204994731051 -0.040777214135851933 0 -0.2086160984465788 -0.028311650236248001 0 -0.21336204994731051 -0.040777214135851933 0 -0.21895240918914671 -0.02861232886104547 0 -0.1992787840849283 -0.045296298178396123 0 -0.21336204994731051 -0.040777214135851933 0 -0.20875034285382851 -0.053156168157214523 0 -0.21545644571979469 -0.066407197294931011 0 -0.1998112477978429 -0.062788943271550518 0 -0.20875034285382851 -0.053156168157214523 0 -0.21336204994731051 -0.040777214135851933 0 -0.20875034285382851 -0.053156168157214523 0 -0.2203082564257493 -0.050990203843689567 0 -0.21545644571979469 -0.066407197294931011 0 -0.20875034285382851 -0.053156168157214523 0 -0.2203082564257493 -0.050990203843689567 0 -0.2423742359997523 -0.063212290985695696 0 -0.2279053128875406 -0.061383799692151443 0 -0.2311107488720168 -0.049599599537103051 0 -0.21545644571979469 -0.066407197294931011 0 -0.2279053128875406 -0.061383799692151443 0 -0.2203082564257493 -0.050990203843689567 0 -0.2279053128875406 -0.061383799692151443 0 -0.2203082564257493 -0.050990203843689567 0 -0.2311107488720168 -0.049599599537103051 0 -0.2311107488720168 -0.049599599537103051 0 -0.22543574292343549 -0.03826149583399082 0 -0.23910950370785969 -0.035307920657938377 0 -0.2203082564257493 -0.050990203843689567 0 -0.2311107488720168 -0.049599599537103051 0 -0.22543574292343549 -0.03826149583399082 0 -0.21336204994731051 -0.040777214135851933 0 -0.2203082564257493 -0.050990203843689567 0 -0.22543574292343549 -0.03826149583399082 0 -0.21336204994731051 -0.040777214135851933 0 -0.22543574292343549 -0.03826149583399082 0 -0.21895240918914671 -0.02861232886104547 0 -0.22543574292343549 -0.03826149583399082 0 -0.21895240918914671 -0.02861232886104547 0 -0.22956996891008169 -0.02714691790883339 0 -0.22543574292343549 -0.03826149583399082 0 -0.23910950370785969 -0.035307920657938377 0 -0.22956996891008169 -0.02714691790883339 0 -0.2423742359997523 -0.063212290985695696 0 -0.23910950370785969 -0.035307920657938377 0 -0.24997477263562401 -0.040386630044923447 0 -0.23910950370785969 -0.035307920657938377 0 -0.24997477263562401 -0.040386630044923447 0 -0.25301086650695931 -0.029581749303916851 0 -0.2423742359997523 -0.063212290985695696 0 -0.2311107488720168 -0.049599599537103051 0 -0.23910950370785969 -0.035307920657938377 0 -0.2423742359997523 -0.063212290985695696 0 -0.23910950370785969 -0.035307920657938377 0 -0.2423742359997523 -0.063212290985695696 0 -0.24997477263562401 -0.040386630044923447 0 -0.25735797515756892 -0.057543211036644233 0 -0.2116305763627794 -0.013355103994851229 0 -0.23584477141597049 -0.0074035503301806797 0 -0.2116305763627794 -0.013355103994851229 0 -0.2244471829223755 -0.019939440603799811 0 -0.23584477141597049 -0.0074035503301806797 0 -0.2116305763627794 -0.013355103994851229 0 -0.2222693236313342 -0.0051537201465370764 0 -0.23584477141597049 -0.0074035503301806797 0 -0.2334180770432035 -0.0046442994666332574 0 -0.22827838640309939 -0.003841686725019586 0 -0.23584477141597049 -0.0074035503301806797 0 -0.22827838640309939 -0.003841686725019586 0 -0.2222693236313342 -0.0051537201465370764 0 -0.23584477141597049 -0.0074035503301806797 0 -0.2334180770432035 -0.0046442994666332574 0 -0.2319483481882352 -0.002665219982235156 0 -0.22827838640309939 -0.003841686725019586 0 -0.2334180770432035 -0.0046442994666332574 0 -0.2319483481882352 -0.002665219982235156 0 -0.23534153006453479 -0.0033384841958367432 0 -0.23308759639957219 -0.00068054635179085759 0 -0.2319483481882352 -0.002665219982235156 0 -0.23534153006453479 -0.0033384841958367432 0 -0.23308759639957219 -0.00068054635179085759 0 -0.2319483481882352 -0.002665219982235156 0 -0.2298398395681007 -0.00022888140942733151 0 -0.2298398395681007 -0.00022888140942733151 0 -0.22827838640309939 -0.003841686725019586 0 -0.22415008105314049 0.0013088099856923201 0 -0.2319483481882352 -0.002665219982235156 0 -0.2298398395681007 -0.00022888140942733151 0 -0.22827838640309939 -0.003841686725019586 0 -0.22827838640309939 -0.003841686725019586 0 -0.2222693236313342 -0.0051537201465370764 0 -0.22415008105314049 0.0013088099856923201 0 -0.2222693236313342 -0.0051537201465370764 0 -0.21842811924960989 0.0008331812346521457 0 -0.22415008105314049 0.0013088099856923201 0 -0.2244471829223755 -0.019939440603799811 0 -0.22956996891008169 -0.02714691790883339 0 -0.23584477141597049 -0.0074035503301806797 0 -0.2244471829223755 -0.019939440603799811 0 -0.21895240918914671 -0.02861232886104547 0 -0.22956996891008169 -0.02714691790883339 0 -0.23910950370785969 -0.035307920657938377 0 -0.22956996891008169 -0.02714691790883339 0 -0.23584477141597049 -0.0074035503301806797 0 -0.23910950370785969 -0.035307920657938377 0 -0.2449829687872189 -0.025982184731763992 0 -0.24290889715345301 -0.018894467808878639 0 -0.23910950370785969 -0.035307920657938377 0 -0.23584477141597049 -0.0074035503301806797 0 -0.23910950370785969 -0.035307920657938377 0 -0.24290889715345301 -0.018894467808878639 0 -0.23584477141597049 -0.0074035503301806797 0 -0.23910950370785969 -0.035307920657938377 0 -0.2449829687872189 -0.025982184731763992 0 -0.25301086650695931 -0.029581749303916851 0 -0.2449829687872189 -0.025982184731763992 0 -0.24860316514038161 -0.020148090880240131 0 -0.25301086650695931 -0.029581749303916851 0 -0.24290889715345301 -0.018894467808878639 0 -0.24860316514038161 -0.020148090880240131 0 -0.24558426685147289 -0.01379988099101024 0 -0.2449829687872189 -0.025982184731763992 0 -0.24290889715345301 -0.018894467808878639 0 -0.24860316514038161 -0.020148090880240131 0 -0.24860316514038161 -0.020148090880240131 0 -0.24558426685147289 -0.01379988099101024 0 -0.25199418670317669 -0.01294271932718878 0 -0.24290889715345301 -0.018894467808878639 0 -0.24332870701781481 -0.01072517926213847 0 -0.24558426685147289 -0.01379988099101024 0 -0.23584477141597049 -0.0074035503301806797 0 -0.26385620570381479 -0.00051868159833714025 0 -0.24332870701781481 -0.01072517926213847 0 -0.23584477141597049 -0.0074035503301806797 0 -0.25073532842711432 -0.0072330047771375838 0 -0.24748794537639809 -0.0106185142437675 0 -0.24558426685147289 -0.01379988099101024 0 -0.25199418670317669 -0.01294271932718878 0 -0.23584477141597049 -0.0074035503301806797 0 -0.26385620570381479 -0.00051868159833714025 0 -0.24898136322109801 0.0008124272531647704 0 -0.24748794537639809 -0.0106185142437675 0 -0.24332870701781481 -0.01072517926213847 0 -0.25073532842711432 -0.0072330047771375838 0 -0.24748794537639809 -0.0106185142437675 0 -0.24332870701781481 -0.01072517926213847 0 -0.24558426685147289 -0.01379988099101024 0 -0.24290889715345301 -0.018894467808878639 0 -0.24332870701781481 -0.01072517926213847 0 -0.23584477141597049 -0.0074035503301806797 0 -0.23574278336364171 -0.00071358323771446644 0 -0.23846254304204739 -0.0033773170731823368 0 -0.23889873637516279 0.00055847664986828367 0 -0.23574278336364171 -0.00071358323771446644 0 -0.23534153006453479 -0.0033384841958367432 0 -0.23846254304204739 -0.0033773170731823368 0 -0.23308759639957219 -0.00068054635179085759 0 -0.23574278336364171 -0.00071358323771446644 0 -0.23534153006453479 -0.0033384841958367432 0 -0.2334180770432035 -0.0046442994666332574 0 -0.23534153006453479 -0.0033384841958367432 0 -0.23567734914417759 -0.0059725560998941177 0 -0.23567734914417759 -0.0059725560998941177 0 -0.23584477141597049 -0.0074035503301806797 0 -0.23846254304204739 -0.0033773170731823368 0 -0.2334180770432035 -0.0046442994666332574 0 -0.23567734914417759 -0.0059725560998941177 0 -0.23584477141597049 -0.0074035503301806797 0 -0.23567734914417759 -0.0059725560998941177 0 -0.23584477141597049 -0.0074035503301806797 0 -0.23534153006453479 -0.0033384841958367432 0 -0.23567734914417759 -0.0059725560998941177 0 -0.23846254304204739 -0.0033773170731823368 0 -0.23584477141597049 -0.0074035503301806797 0 -0.24185388084259871 -0.0016477510648864699 0 -0.23846254304204739 -0.0033773170731823368 0 -0.24185388084259871 -0.0016477510648864699 0 -0.23846254304204739 -0.0033773170731823368 0 -0.23889873637516279 0.00055847664986828367 0 -0.23584477141597049 -0.0074035503301806797 0 -0.24185388084259871 -0.0016477510648864699 0 -0.24898136322109801 0.0008124272531647704 0 -0.23584477141597049 -0.0074035503301806797 0 -0.25073532842711432 -0.0072330047771375838 0 -0.26385620570381479 -0.00051868159833714025 0 -0.25199418670317669 -0.01294271932718878 0 -0.26271063014767643 -0.014039010223981969 0 -0.25567406398737169 -0.01955761019415447 0 -0.24748794537639809 -0.0106185142437675 0 -0.25073532842711432 -0.0072330047771375838 0 -0.25199418670317669 -0.01294271932718878 0 -0.25073532842711432 -0.0072330047771375838 0 -0.25199418670317669 -0.01294271932718878 0 -0.25977358802602518 -0.0085099809697739559 0 -0.25199418670317669 -0.01294271932718878 0 -0.25977358802602518 -0.0085099809697739559 0 -0.26271063014767643 -0.014039010223981969 0 -0.25977358802602518 -0.0085099809697739559 0 -0.26271063014767643 -0.014039010223981969 0 -0.26957158914834362 -0.0078164889222243038 0 -0.25073532842711432 -0.0072330047771375838 0 -0.25977358802602518 -0.0085099809697739559 0 -0.26385620570381479 -0.00051868159833714025 0 -0.25977358802602518 -0.0085099809697739559 0 -0.26385620570381479 -0.00051868159833714025 0 -0.26957158914834362 -0.0078164889222243038 0 -0.25301086650695931 -0.029581749303916851 0 -0.25567406398737169 -0.01955761019415447 0 -0.26221621529226408 -0.02326190184150953 0 -0.24860316514038161 -0.020148090880240131 0 -0.25301086650695931 -0.029581749303916851 0 -0.25567406398737169 -0.01955761019415447 0 -0.24860316514038161 -0.020148090880240131 0 -0.25199418670317669 -0.01294271932718878 0 -0.25567406398737169 -0.01955761019415447 0 -0.26271063014767643 -0.014039010223981969 0 -0.25567406398737169 -0.01955761019415447 0 -0.26221621529226408 -0.02326190184150953 0 -0.25301086650695931 -0.029581749303916851 0 -0.26221621529226408 -0.02326190184150953 0 -0.26625032656324099 -0.033621951043085581 0 -0.27343518925607219 -0.01950918844240879 0 -0.28429080695340642 -0.018821297250952738 0 -0.28277568448759832 -0.034757975226559192 0 -0.27343518925607219 -0.01950918844240879 0 -0.28277568448759832 -0.034757975226559192 0 -0.26625032656324099 -0.033621951043085581 0 -0.26221621529226408 -0.02326190184150953 0 -0.27343518925607219 -0.01950918844240879 0 -0.26625032656324099 -0.033621951043085581 0 -0.26271063014767643 -0.014039010223981969 0 -0.26221621529226408 -0.02326190184150953 0 -0.27343518925607219 -0.01950918844240879 0 -0.27343518925607219 -0.01950918844240879 0 -0.2789132404634333 -0.009881621539752642 0 -0.28429080695340642 -0.018821297250952738 0 -0.26385620570381479 -0.00051868159833714025 0 -0.26957158914834362 -0.0078164889222243038 0 -0.27637133406048681 6.0118097708170069e-05 0 -0.26271063014767643 -0.014039010223981969 0 -0.27343518925607219 -0.01950918844240879 0 -0.26957158914834362 -0.0078164889222243038 0 -0.27343518925607219 -0.01950918844240879 0 -0.26957158914834362 -0.0078164889222243038 0 -0.2789132404634333 -0.009881621539752642 0 -0.2789132404634333 -0.009881621539752642 0 -0.28659625960943408 -0.001455963500717139 0 -0.27637133406048681 6.0118097708170069e-05 0 -0.26957158914834362 -0.0078164889222243038 0 -0.2789132404634333 -0.009881621539752642 0 -0.27637133406048681 6.0118097708170069e-05 0 -0.28659625960943408 -0.001455963500717139 0 -0.29973366095049381 -0.028501737545325929 0 -0.2789132404634333 -0.009881621539752642 0 -0.28659625960943408 -0.001455963500717139 0 -0.28429080695340642 -0.018821297250952738 0 -0.28659625960943408 -0.001455963500717139 0 -0.29973366095049381 -0.028501737545325929 0 -0.30163738401920542 -0.0075785633733654522 0 -0.28659625960943408 -0.001455963500717139 0 -0.30163738401920542 -0.0075785633733654522 0 -0.29334304352314777 0.0054221616610599672 0 -0.28429080695340642 -0.018821297250952738 0 -0.29973366095049381 -0.028501737545325929 0 -0.28277568448759832 -0.034757975226559192 0 -0.28659625960943408 -0.001455963500717139 0 -0.28429080695340642 -0.018821297250952738 0 -0.29973366095049381 -0.028501737545325929 0 -0.29973366095049381 -0.028501737545325929 0 -0.30929725319939139 -0.014594215113377509 0 -0.30163738401920542 -0.0075785633733654522 0 -0.29973366095049381 -0.028501737545325929 0 -0.30929725319939139 -0.014594215113377509 0 -0.32205879001289639 -0.027003539190167659 0 -0.30163738401920542 -0.0075785633733654522 0 -0.29334304352314777 0.0054221616610599672 0 -0.32018931475417339 0.001150658064265807 0 -0.30929725319939139 -0.014594215113377509 0 -0.30163738401920542 -0.0075785633733654522 0 -0.32018931475417339 0.001150658064265807 0 -0.29427272879957661 -0.048357428008257312 0 -0.3006638999669502 -0.068524400438003299 0 -0.31287106229155348 -0.055547511589934748 0 -0.29973366095049381 -0.028501737545325929 0 -0.31287106229155348 -0.055547511589934748 0 -0.29973366095049381 -0.028501737545325929 0 -0.29427272879957661 -0.048357428008257312 0 -0.31287106229155348 -0.055547511589934748 0 -0.29973366095049381 -0.028501737545325929 0 -0.32205879001289639 -0.027003539190167659 0 -0.31287106229155348 -0.055547511589934748 0 -0.29973366095049381 -0.028501737545325929 0 -0.28277568448759832 -0.034757975226559192 0 -0.29427272879957661 -0.048357428008257312 0 -0.28277568448759832 -0.034757975226559192 0 -0.29427272879957661 -0.048357428008257312 0 -0.27531933630128708 -0.054455515241463373 0 -0.29427272879957661 -0.048357428008257312 0 -0.27531933630128708 -0.054455515241463373 0 -0.3006638999669502 -0.068524400438003299 0 -0.27531933630128708 -0.054455515241463373 0 -0.3006638999669502 -0.068524400438003299 0 -0.28277568448759832 -0.034757975226559192 0 -0.27531933630128708 -0.054455515241463373 0 -0.26625032656324099 -0.033621951043085581 0 -0.24997477263562401 -0.040386630044923447 0 -0.25301086650695931 -0.029581749303916851 0 -0.26625032656324099 -0.033621951043085581 0 -0.24997477263562401 -0.040386630044923447 0 -0.27531933630128708 -0.054455515241463373 0 -0.26625032656324099 -0.033621951043085581 0 -0.24997477263562401 -0.040386630044923447 0 -0.27531933630128708 -0.054455515241463373 0 -0.25735797515756892 -0.057543211036644233 0 -0.27531933630128708 -0.054455515241463373 0 -0.25735797515756892 -0.057543211036644233 0 -0.26176355569361209 -0.072118407874494417 0 -0.24997477263562401 -0.040386630044923447 0 -0.27531933630128708 -0.054455515241463373 0 -0.2423742359997523 -0.063212290985695696 0 -0.25735797515756892 -0.057543211036644233 0 -0.26176355569361209 -0.072118407874494417 0 -0.245638968291645 -0.091116661313453196 0 -0.26176355569361209 -0.072118407874494417 0 -0.26573810387795349 -0.089906265610051522 0 -0.26573810387795349 -0.089906265610051522 0 -0.27896641856762178 -0.099889736116010264 0 -0.28138974303758868 -0.078240095193600784 0 -0.26176355569361209 -0.072118407874494417 0 -0.26573810387795349 -0.089906265610051522 0 -0.28138974303758868 -0.078240095193600784 0 -0.27531933630128708 -0.054455515241463373 0 -0.26176355569361209 -0.072118407874494417 0 -0.28138974303758868 -0.078240095193600784 0 -0.24890370058353761 -0.1190210316412107 0 -0.23873448659630919 -0.1175459809210585 0 -0.26458535147830009 -0.12566093812653781 0 -0.2490751570056102 -0.13011287184706249 0 -0.23873448659630919 -0.1175459809210585 0 -0.26458535147830009 -0.12566093812653781 0 -0.23873448659630919 -0.1175459809210585 0 -0.26458535147830009 -0.12566093812653781 0 -0.24890370058353761 -0.1190210316412107 0 -0.26129250176637903 -0.1162311910209206 0 -0.26458535147830009 -0.12566093812653781 0 -0.26129250176637903 -0.1162311910209206 0 -0.26989059230129447 -0.11324259503934379 0 -0.26458535147830009 -0.12566093812653781 0 -0.24890370058353761 -0.1190210316412107 0 -0.26129250176637903 -0.1162311910209206 0 -0.26143504088094688 -0.10538706678874479 0 -0.26129250176637903 -0.1162311910209206 0 -0.26143504088094688 -0.10538706678874479 0 -0.26989059230129447 -0.11324259503934379 0 -0.24890370058353761 -0.1190210316412107 0 -0.245638968291645 -0.091116661313453196 0 -0.26143504088094688 -0.10538706678874479 0 -0.245638968291645 -0.091116661313453196 0 -0.26573810387795349 -0.089906265610051522 0 -0.26143504088094688 -0.10538706678874479 0 -0.26573810387795349 -0.089906265610051522 0 -0.26143504088094688 -0.10538706678874479 0 -0.27896641856762178 -0.099889736116010264 0 -0.26143504088094688 -0.10538706678874479 0 -0.27896641856762178 -0.099889736116010264 0 -0.26989059230129447 -0.11324259503934379 0 -0.26989059230129447 -0.11324259503934379 0 -0.2824630051703515 -0.11581777816881481 0 -0.26458535147830009 -0.12566093812653781 0 -0.27896641856762178 -0.099889736116010264 0 -0.26989059230129447 -0.11324259503934379 0 -0.2824630051703515 -0.11581777816881481 0 -0.2824630051703515 -0.11581777816881481 0 -0.3019580228843563 -0.1211594277132096 0 -0.29043621636029121 -0.1337758953320165 0 -0.2824630051703515 -0.11581777816881481 0 -0.29631633503399918 -0.1047077714721129 0 -0.3019580228843563 -0.1211594277132096 0 -0.27896641856762178 -0.099889736116010264 0 -0.29631633503399918 -0.1047077714721129 0 -0.2931489399130624 -0.088646496956291065 0 -0.27896641856762178 -0.099889736116010264 0 -0.2824630051703515 -0.11581777816881481 0 -0.29631633503399918 -0.1047077714721129 0 -0.29631633503399918 -0.1047077714721129 0 -0.2931489399130624 -0.088646496956291065 0 -0.30840830295915211 -0.091870481561728126 0 -0.29631633503399918 -0.1047077714721129 0 -0.30840830295915211 -0.091870481561728126 0 -0.31347982940842162 -0.1085429600944028 0 -0.3019580228843563 -0.1211594277132096 0 -0.31347982940842162 -0.1085429600944028 0 -0.31298176765499008 -0.12768264289185971 0 -0.29631633503399918 -0.1047077714721129 0 -0.3019580228843563 -0.1211594277132096 0 -0.31347982940842162 -0.1085429600944028 0 -0.3019580228843563 -0.1211594277132096 0 -0.31347982940842162 -0.1085429600944028 0 -0.27531933630128708 -0.054455515241463373 0 -0.28138974303758868 -0.078240095193600784 0 -0.3006638999669502 -0.068524400438003299 0 -0.27896641856762178 -0.099889736116010264 0 -0.28138974303758868 -0.078240095193600784 0 -0.2931489399130624 -0.088646496956291065 0 -0.28138974303758868 -0.078240095193600784 0 -0.2931489399130624 -0.088646496956291065 0 -0.3006638999669502 -0.068524400438003299 0 -0.30840830295915211 -0.091870481561728126 0 -0.3006638999669502 -0.068524400438003299 0 -0.32600846363261332 -0.082593285634543462 0 -0.2931489399130624 -0.088646496956291065 0 -0.30840830295915211 -0.091870481561728126 0 -0.3006638999669502 -0.068524400438003299 0 -0.3006638999669502 -0.068524400438003299 0 -0.32600846363261332 -0.082593285634543462 0 -0.31287106229155348 -0.055547511589934748 0 -0.32600846363261332 -0.082593285634543462 0 -0.31287106229155348 -0.055547511589934748 0 -0.3006638999669502 -0.068524400438003299 0 -0.32600846363261332 -0.082593285634543462 0 -0.32600846363261332 -0.082593285634543462 0 -0.32994541755867668 -0.065523940672659473 0 -0.31287106229155348 -0.055547511589934748 0 -0.30840830295915211 -0.091870481561728126 0 -0.32600846363261332 -0.082593285634543462 0 -0.3217994836632227 -0.096560450044075513 0 -0.32600846363261332 -0.082593285634543462 0 -0.3217994836632227 -0.096560450044075513 0 -0.33538003630846669 -0.10188640384366721 0 -0.32600846363261332 -0.082593285634543462 0 -0.33806346252847741 -0.089285071602833652 0 -0.33641746483631257 -0.077190728809175366 0 -0.32600846363261332 -0.082593285634543462 0 -0.33806346252847741 -0.089285071602833652 0 -0.33538003630846669 -0.10188640384366721 0 -0.32600846363261332 -0.082593285634543462 0 -0.33538003630846669 -0.10188640384366721 0 -0.32600846363261332 -0.082593285634543462 0 -0.33806346252847741 -0.089285071602833652 0 -0.33806346252847741 -0.089285071602833652 0 -0.33641746483631257 -0.077190728809175366 0 -0.34621720494826802 -0.080296783193934226 0 -0.33641746483631257 -0.077190728809175366 0 -0.34185277551352738 -0.068254562941906002 0 -0.32994541755867668 -0.065523940672659473 0 -0.32600846363261332 -0.082593285634543462 0 -0.33641746483631257 -0.077190728809175366 0 -0.32994541755867668 -0.065523940672659473 0 -0.33641746483631257 -0.077190728809175366 0 -0.34185277551352738 -0.068254562941906002 0 -0.34621720494826802 -0.080296783193934226 0 -0.34185277551352738 -0.068254562941906002 0 -0.32994541755867668 -0.065523940672659473 0 -0.33883434200898133 -0.054638500767707203 0 -0.32806929135225149 -0.11745084265915 0 -0.31347982940842162 -0.1085429600944028 0 -0.31298176765499008 -0.12768264289185971 0 -0.32806929135225149 -0.11745084265915 0 -0.32468216018309071 -0.1061101641603239 0 -0.31347982940842162 -0.1085429600944028 0 -0.30840830295915211 -0.091870481561728126 0 -0.31347982940842162 -0.1085429600944028 0 -0.3217994836632227 -0.096560450044075513 0 -0.32468216018309071 -0.1061101641603239 0 -0.31347982940842162 -0.1085429600944028 0 -0.3217994836632227 -0.096560450044075513 0 -0.32468216018309071 -0.1061101641603239 0 -0.3217994836632227 -0.096560450044075513 0 -0.33538003630846669 -0.10188640384366721 0 -0.33806346252847741 -0.089285071602833652 0 -0.33538003630846669 -0.10188640384366721 0 -0.34873377613304352 -0.091239940372063427 0 -0.32806929135225149 -0.11745084265915 0 -0.32468216018309071 -0.1061101641603239 0 -0.33538003630846669 -0.10188640384366721 0 -0.32806929135225149 -0.11745084265915 0 -0.33538003630846669 -0.10188640384366721 0 -0.34475160898432011 -0.1211795220527908 0 -0.33538003630846669 -0.10188640384366721 0 -0.34475160898432011 -0.1211795220527908 0 -0.32806929135225149 -0.11745084265915 0 -0.34475160898432011 -0.1211795220527908 0 -0.32506695058544222 -0.13427905473048249 0 -0.35895090308536409 -0.12191433820847571 0 -0.34475160898432011 -0.1211795220527908 0 -0.35569443856576333 -0.1021742935164254 0 -0.33538003630846669 -0.10188640384366721 0 -0.34475160898432011 -0.1211795220527908 0 -0.35569443856576333 -0.1021742935164254 0 -0.33538003630846669 -0.10188640384366721 0 -0.35569443856576333 -0.1021742935164254 0 -0.34873377613304352 -0.091239940372063427 0 -0.35569443856576333 -0.1021742935164254 0 -0.37395678160750789 -0.094619310834044221 0 -0.37173483673604091 -0.1139549048190531 0 -0.35569443856576333 -0.1021742935164254 0 -0.37395678160750789 -0.094619310834044221 0 -0.35895900817113829 -0.085636211009834234 0 -0.35895090308536409 -0.12191433820847571 0 -0.35569443856576333 -0.1021742935164254 0 -0.37173483673604091 -0.1139549048190531 0 -0.35895090308536409 -0.12191433820847571 0 -0.37173483673604091 -0.1139549048190531 0 -0.36845044948052252 -0.13179033039219501 0 -0.34185277551352738 -0.068254562941906002 0 -0.35699326143097709 -0.071074170357676894 0 -0.35313929672813732 -0.0586099493171756 0 -0.34185277551352738 -0.068254562941906002 0 -0.35699326143097709 -0.071074170357676894 0 -0.34621720494826802 -0.080296783193934226 0 -0.34621720494826802 -0.080296783193934226 0 -0.34873377613304352 -0.091239940372063427 0 -0.35895900817113829 -0.085636211009834234 0 -0.35569443856576333 -0.1021742935164254 0 -0.34873377613304352 -0.091239940372063427 0 -0.35895900817113829 -0.085636211009834234 0 -0.33806346252847741 -0.089285071602833652 0 -0.34621720494826802 -0.080296783193934226 0 -0.34873377613304352 -0.091239940372063427 0 -0.35699326143097709 -0.071074170357676894 0 -0.34621720494826802 -0.080296783193934226 0 -0.35895900817113829 -0.085636211009834234 0 -0.37395678160750789 -0.094619310834044221 0 -0.35895900817113829 -0.085636211009834234 0 -0.37317333675973641 -0.076838860864389291 0 -0.35699326143097709 -0.071074170357676894 0 -0.35895900817113829 -0.085636211009834234 0 -0.37317333675973641 -0.076838860864389291 0 -0.35699326143097709 -0.071074170357676894 0 -0.37317333675973641 -0.076838860864389291 0 -0.36861794646505569 -0.056808654818822059 0 -0.35699326143097709 -0.071074170357676894 0 -0.36861794646505569 -0.056808654818822059 0 -0.35313929672813732 -0.0586099493171756 0 -0.36861794646505569 -0.056808654818822059 0 -0.35313929672813732 -0.0586099493171756 0 -0.35175481386384361 -0.044153793250738073 0 -0.35313929672813732 -0.0586099493171756 0 -0.35175481386384361 -0.044153793250738073 0 -0.33883434200898133 -0.054638500767707203 0 -0.34185277551352738 -0.068254562941906002 0 -0.35313929672813732 -0.0586099493171756 0 -0.33883434200898133 -0.054638500767707203 0 -0.35175481386384361 -0.044153793250738073 0 -0.34480370292944518 -0.023309926752381749 0 -0.33647050520548077 -0.040869955194572323 0 -0.35175481386384361 -0.044153793250738073 0 -0.37213347902921551 -0.030696478596289722 0 -0.34480370292944518 -0.023309926752381749 0 -0.36861794646505569 -0.056808654818822059 0 -0.35175481386384361 -0.044153793250738073 0 -0.37213347902921551 -0.030696478596289722 0 -0.37213347902921551 -0.030696478596289722 0 -0.36456756248231031 -0.0060988437326308671 0 -0.34480370292944518 -0.023309926752381749 0 -0.37213347902921551 -0.030696478596289722 0 -0.36456756248231031 -0.0060988437326308671 0 -0.38676228593091921 -0.0096889771908787482 0 -0.36456756248231031 -0.0060988437326308671 0 -0.34480370292944518 -0.023309926752381749 0 -0.34237283903370141 -0.002508710274382982 0 -0.36456756248231031 -0.0060988437326308671 0 -0.34237283903370141 -0.002508710274382982 0 -0.34480370292944518 -0.023309926752381749 0 -0.32205879001289639 -0.027003539190167659 0 -0.33647050520548077 -0.040869955194572323 0 -0.34480370292944518 -0.023309926752381749 0 -0.32935086995285379 -0.012380169193006239 0 -0.32205879001289639 -0.027003539190167659 0 -0.34237283903370141 -0.002508710274382982 0 -0.32018931475417339 0.001150658064265807 0 -0.34237283903370141 -0.002508710274382982 0 -0.32935086995285379 -0.012380169193006239 0 -0.32018931475417339 0.001150658064265807 0 -0.34480370292944518 -0.023309926752381749 0 -0.34237283903370141 -0.002508710274382982 0 -0.32935086995285379 -0.012380169193006239 0 -0.32205879001289639 -0.027003539190167659 0 -0.32018931475417339 0.001150658064265807 0 -0.30929725319939139 -0.014594215113377509 0 -0.32205879001289639 -0.027003539190167659 0 -0.32018931475417339 0.001150658064265807 0 -0.32935086995285379 -0.012380169193006239 0 -0.32205879001289639 -0.027003539190167659 0 -0.32018931475417339 0.001150658064265807 0 -0.32205879001289639 -0.027003539190167659 0 -0.32490087721223732 -0.055244016011866931 0 -0.33647050520548077 -0.040869955194572323 0 -0.32205879001289639 -0.027003539190167659 0 -0.32490087721223732 -0.055244016011866931 0 -0.32205879001289639 -0.027003539190167659 0 -0.31287106229155348 -0.055547511589934748 0 -0.32490087721223732 -0.055244016011866931 0 -0.32994541755867668 -0.065523940672659473 0 -0.31287106229155348 -0.055547511589934748 0 -0.32490087721223732 -0.055244016011866931 0 -0.32490087721223732 -0.055244016011866931 0 -0.33883434200898133 -0.054638500767707203 0 -0.33647050520548077 -0.040869955194572323 0 -0.32994541755867668 -0.065523940672659473 0 -0.32490087721223732 -0.055244016011866931 0 -0.33883434200898133 -0.054638500767707203 0 -0.35175481386384361 -0.044153793250738073 0 -0.33883434200898133 -0.054638500767707203 0 -0.33647050520548077 -0.040869955194572323 0 -0.31178766327647622 -0.2415869100383104 0 -0.29577285248071278 -0.23231419699453529 0 -0.29586806936253279 -0.24754567328369301 0 -0.31024950802584528 -0.2588172852757088 0 -0.31178766327647622 -0.2415869100383104 0 -0.29586806936253279 -0.24754567328369301 0 -0.31178766327647622 -0.2415869100383104 0 -0.3119564728220891 -0.23969590988512249 0 -0.29577285248071278 -0.23231419699453529 0 -0.31178766327647622 -0.2415869100383104 0 -0.29577285248071278 -0.23231419699453529 0 -0.31178766327647622 -0.2415869100383104 0 -0.3119564728220891 -0.23969590988512249 0 -0.3119564728220891 -0.23969590988512249 0 -0.30724358455105821 -0.22565786077562541 0 -0.29577285248071278 -0.23231419699453529 0 -0.30724358455105821 -0.22565786077562541 0 -0.29577285248071278 -0.23231419699453529 0 -0.29040861234203702 -0.21793930703309439 0 -0.29577285248071278 -0.23231419699453529 0 -0.28214875900605751 -0.23526228113798819 0 -0.29040861234203702 -0.21793930703309439 0 -0.28098240731694268 -0.25147596963924318 0 -0.28214875900605751 -0.23526228113798819 0 -0.29586806936253279 -0.24754567328369301 0 -0.29577285248071278 -0.23231419699453529 0 -0.28214875900605751 -0.23526228113798819 0 -0.29586806936253279 -0.24754567328369301 0 -0.28098240731694268 -0.25147596963924318 0 -0.28214875900605751 -0.23526228113798819 0 -0.26882286924879267 -0.24206308811020411 0 -0.28214875900605751 -0.23526228113798819 0 -0.26882286924879267 -0.24206308811020411 0 -0.26620988970161719 -0.2265736859374918 0 -0.26645699982561721 -0.25273161929269761 0 -0.28098240731694268 -0.25147596963924318 0 -0.26882286924879267 -0.24206308811020411 0 -0.26882286924879267 -0.24206308811020411 0 -0.25474096605458452 -0.24940226513501221 0 -0.26620988970161719 -0.2265736859374918 0 -0.25474096605458452 -0.24940226513501221 0 -0.25443122798705142 -0.22234005771040641 0 -0.24378640529073531 -0.2361111442621783 0 -0.25474096605458452 -0.24940226513501221 0 -0.25443122798705142 -0.22234005771040641 0 -0.25474096605458452 -0.24940226513501221 0 -0.26620988970161719 -0.2265736859374918 0 -0.26645699982561721 -0.25273161929269761 0 -0.26882286924879267 -0.24206308811020411 0 -0.25474096605458452 -0.24940226513501221 0 -0.25443122798705142 -0.22234005771040641 0 -0.26620988970161719 -0.2265736859374918 0 -0.26337005879140718 -0.20922338957603551 0 -0.25474096605458452 -0.24940226513501221 0 -0.25443122798705142 -0.22234005771040641 0 -0.26620988970161719 -0.2265736859374918 0 -0.28214875900605751 -0.23526228113798819 0 -0.26620988970161719 -0.2265736859374918 0 -0.29040861234203702 -0.21793930703309439 0 -0.26620988970161719 -0.2265736859374918 0 -0.27767881334865041 -0.2037451067399714 0 -0.26337005879140718 -0.20922338957603551 0 -0.26620988970161719 -0.2265736859374918 0 -0.27767881334865041 -0.2037451067399714 0 -0.29040861234203702 -0.21793930703309439 0 -0.26620988970161719 -0.2265736859374918 0 -0.27767881334865041 -0.2037451067399714 0 -0.27767881334865041 -0.2037451067399714 0 -0.26337005879140718 -0.20922338957603551 0 -0.26561914569373918 -0.19951380069398189 0 -0.25443122798705142 -0.22234005771040641 0 -0.25412148991951777 -0.1952778502858005 0 -0.24628661236862789 -0.2089003999259387 0 -0.25443122798705142 -0.22234005771040641 0 -0.25412148991951777 -0.1952778502858005 0 -0.25443122798705142 -0.22234005771040641 0 -0.26337005879140718 -0.20922338957603551 0 -0.25412148991951777 -0.1952778502858005 0 -0.25412148991951777 -0.1952778502858005 0 -0.26730622071538152 -0.18980885617412019 0 -0.25159482283769069 -0.1857195072511863 0 -0.24543790992382999 -0.19934792512221711 0 -0.25412148991951777 -0.1952778502858005 0 -0.25159482283769069 -0.1857195072511863 0 -0.26337005879140718 -0.20922338957603551 0 -0.25412148991951777 -0.1952778502858005 0 -0.26561914569373918 -0.19951380069398189 0 -0.25412148991951777 -0.1952778502858005 0 -0.26561914569373918 -0.19951380069398189 0 -0.26730622071538152 -0.18980885617412019 0 -0.27767881334865041 -0.2037451067399714 0 -0.26730622071538152 -0.18980885617412019 0 -0.28914773699568252 -0.18091652754245069 0 -0.27767881334865041 -0.2037451067399714 0 -0.26561914569373918 -0.19951380069398189 0 -0.26730622071538152 -0.18980885617412019 0 -0.27767881334865041 -0.2037451067399714 0 -0.29531187857526708 -0.19802970975112161 0 -0.28914773699568252 -0.18091652754245069 0 -0.27767881334865041 -0.2037451067399714 0 -0.28914773699568252 -0.18091652754245069 0 -0.27767881334865041 -0.2037451067399714 0 -0.29531187857526708 -0.19802970975112161 0 -0.29040861234203702 -0.21793930703309439 0 -0.30724358455105821 -0.22565786077562541 0 -0.30741932600860372 -0.2068172634689894 0 -0.32041655156547449 -0.22101429098559119 0 -0.29531187857526708 -0.19802970975112161 0 -0.29040861234203702 -0.21793930703309439 0 -0.30741932600860372 -0.2068172634689894 0 -0.30724358455105821 -0.22565786077562541 0 -0.29040861234203702 -0.21793930703309439 0 -0.30741932600860372 -0.2068172634689894 0 -0.29531187857526708 -0.19802970975112161 0 -0.30741932600860372 -0.2068172634689894 0 -0.30975453873677711 -0.18638025511922571 0 -0.29531187857526708 -0.19802970975112161 0 -0.30975453873677711 -0.18638025511922571 0 -0.28914773699568252 -0.18091652754245069 0 -0.30597865930208479 -0.1736067242968711 0 -0.30975453873677711 -0.18638025511922571 0 -0.28914773699568252 -0.18091652754245069 0 -0.30975453873677711 -0.18638025511922571 0 -0.28914773699568252 -0.18091652754245069 0 -0.30597865930208479 -0.1736067242968711 0 -0.30144335274796419 -0.15644244029400969 0 -0.32356900872791527 -0.1706876742317987 0 -0.30597865930208479 -0.1736067242968711 0 -0.30144335274796419 -0.15644244029400969 0 -0.28914773699568252 -0.18091652754245069 0 -0.30144335274796419 -0.15644244029400969 0 -0.28207228528396122 -0.1643811506800866 0 -0.29725898237737569 -0.15374840334136849 0 -0.30144335274796419 -0.15644244029400969 0 -0.28914773699568252 -0.18091652754245069 0 -0.30144335274796419 -0.15644244029400969 0 -0.28207228528396122 -0.1643811506800866 0 -0.28914773699568252 -0.18091652754245069 0 -0.28207228528396122 -0.1643811506800866 0 -0.29725898237737569 -0.15374840334136849 0 -0.28914773699568252 -0.18091652754245069 0 -0.26688558819054758 -0.17501389801880601 0 -0.26730622071538152 -0.18980885617412019 0 -0.28914773699568252 -0.18091652754245069 0 -0.26688558819054758 -0.17501389801880601 0 -0.28207228528396122 -0.1643811506800866 0 -0.28914773699568252 -0.18091652754245069 0 -0.26688558819054758 -0.17501389801880601 0 -0.26688558819054758 -0.17501389801880601 0 -0.25159482283769069 -0.1857195072511863 0 -0.26730622071538152 -0.18980885617412019 0 -0.26688558819054758 -0.17501389801880601 0 -0.25159482283769069 -0.1857195072511863 0 -0.26688558819054758 -0.17501389801880601 0 -0.2555266313151574 -0.1720021620539908 0 -0.25279107386103339 -0.17499761870979039 0 -0.26688558819054758 -0.17501389801880601 0 -0.2555266313151574 -0.1720021620539908 0 -0.26688558819054758 -0.17501389801880601 0 -0.25279107386103339 -0.17499761870979039 0 -0.25159482283769069 -0.1857195072511863 0 -0.2555266313151574 -0.1720021620539908 0 -0.25279107386103339 -0.17499761870979039 0 -0.2555266313151574 -0.1720021620539908 0 -0.27298142383772428 -0.15288902869300369 0 -0.25148740288540772 -0.15425196995663881 0 -0.2555266313151574 -0.1720021620539908 0 -0.27298142383772428 -0.15288902869300369 0 -0.26688558819054758 -0.17501389801880601 0 -0.2555266313151574 -0.1720021620539908 0 -0.26936648215684778 -0.16607155986147171 0 -0.2555266313151574 -0.1720021620539908 0 -0.26936648215684778 -0.16607155986147171 0 -0.27298142383772428 -0.15288902869300369 0 -0.28207228528396122 -0.1643811506800866 0 -0.26688558819054758 -0.17501389801880601 0 -0.26936648215684778 -0.16607155986147171 0 -0.28207228528396122 -0.1643811506800866 0 -0.26688558819054758 -0.17501389801880601 0 -0.28207228528396122 -0.1643811506800866 0 -0.26936648215684778 -0.16607155986147171 0 -0.27298142383772428 -0.15288902869300369 0 -0.28207228528396122 -0.1643811506800866 0 -0.27298142383772428 -0.15288902869300369 0 -0.2863836238733426 -0.14674648546884839 0 -0.27298142383772428 -0.15288902869300369 0 -0.25907587188139708 -0.13900561721275051 0 -0.27512466928111368 -0.13731958153430401 0 -0.27298142383772428 -0.15288902869300369 0 -0.27512466928111368 -0.13731958153430401 0 -0.29043621636029121 -0.1337758953320165 0 -0.27298142383772428 -0.15288902869300369 0 -0.25148740288540772 -0.15425196995663881 0 -0.25907587188139708 -0.13900561721275051 0 -0.24419633202524141 -0.13996315767187251 0 -0.25148740288540772 -0.15425196995663881 0 -0.25907587188139708 -0.13900561721275051 0 -0.2490751570056102 -0.13011287184706249 0 -0.25907587188139708 -0.13900561721275051 0 -0.26458535147830009 -0.12566093812653781 0 -0.24419633202524141 -0.13996315767187251 0 -0.2490751570056102 -0.13011287184706249 0 -0.25907587188139708 -0.13900561721275051 0 -0.26458535147830009 -0.12566093812653781 0 -0.27512466928111368 -0.13731958153430401 0 -0.29043621636029121 -0.1337758953320165 0 -0.25907587188139708 -0.13900561721275051 0 -0.26458535147830009 -0.12566093812653781 0 -0.27512466928111368 -0.13731958153430401 0 -0.26458535147830009 -0.12566093812653781 0 -0.29043621636029121 -0.1337758953320165 0 -0.2824630051703515 -0.11581777816881481 0 -0.26458535147830009 -0.12566093812653781 0 -0.29043621636029121 -0.1337758953320165 0 -0.3019580228843563 -0.1211594277132096 0 -0.29043621636029121 -0.1337758953320165 0 -0.27298142383772428 -0.15288902869300369 0 -0.29043621636029121 -0.1337758953320165 0 -0.2863836238733426 -0.14674648546884839 0 -0.27298142383772428 -0.15288902869300369 0 -0.29043621636029121 -0.1337758953320165 0 -0.28207228528396122 -0.1643811506800866 0 -0.2863836238733426 -0.14674648546884839 0 -0.29725898237737569 -0.15374840334136849 0 -0.2863836238733426 -0.14674648546884839 0 -0.29725898237737569 -0.15374840334136849 0 -0.2863836238733426 -0.14674648546884839 0 -0.29723037474452441 -0.14392705431891431 0 -0.29725898237737569 -0.15374840334136849 0 -0.29043621636029121 -0.1337758953320165 0 -0.2863836238733426 -0.14674648546884839 0 -0.29723037474452441 -0.14392705431891431 0 -0.29725898237737569 -0.15374840334136849 0 -0.31484267636708918 -0.14143743313342499 0 -0.29725898237737569 -0.15374840334136849 0 -0.30459469261335159 -0.15016978438406059 0 -0.31484267636708918 -0.14143743313342499 0 -0.29723037474452441 -0.14392705431891431 0 -0.29725898237737569 -0.15374840334136849 0 -0.31484267636708918 -0.14143743313342499 0 -0.30144335274796419 -0.15644244029400969 0 -0.29725898237737569 -0.15374840334136849 0 -0.30144335274796419 -0.15644244029400969 0 -0.30459469261335159 -0.15016978438406059 0 -0.30144335274796419 -0.15644244029400969 0 -0.29725898237737569 -0.15374840334136849 0 -0.30459469261335159 -0.15016978438406059 0 -0.30144335274796419 -0.15644244029400969 0 -0.30459469261335159 -0.15016978438406059 0 -0.31648954397296519 -0.15442143230275179 0 -0.30459469261335159 -0.15016978438406059 0 -0.31490044170614279 -0.1466640841988841 0 -0.31648954397296519 -0.15442143230275179 0 -0.30459469261335159 -0.15016978438406059 0 -0.31490044170614279 -0.1466640841988841 0 -0.31484267636708918 -0.14143743313342499 0 -0.29043621636029121 -0.1337758953320165 0 -0.29723037474452441 -0.14392705431891431 0 -0.31484267636708918 -0.14143743313342499 0 -0.29043621636029121 -0.1337758953320165 0 -0.31484267636708918 -0.14143743313342499 0 -0.29043621636029121 -0.1337758953320165 0 -0.31298176765499008 -0.12768264289185971 0 -0.31484267636708918 -0.14143743313342499 0 -0.3019580228843563 -0.1211594277132096 0 -0.29043621636029121 -0.1337758953320165 0 -0.31298176765499008 -0.12768264289185971 0 -0.32806929135225149 -0.11745084265915 0 -0.32506695058544222 -0.13427905473048249 0 -0.31298176765499008 -0.12768264289185971 0 -0.32506695058544222 -0.13427905473048249 0 -0.31484267636708918 -0.14143743313342499 0 -0.32337190597079057 -0.14574110498202919 0 -0.32506695058544222 -0.13427905473048249 0 -0.31298176765499008 -0.12768264289185971 0 -0.31484267636708918 -0.14143743313342499 0 -0.32506695058544222 -0.13427905473048249 0 -0.31484267636708918 -0.14143743313342499 0 -0.31490044170614279 -0.1466640841988841 0 -0.31484267636708918 -0.14143743313342499 0 -0.32337190597079057 -0.14574110498202919 0 -0.31490044170614279 -0.1466640841988841 0 -0.31648954397296519 -0.15442143230275179 0 -0.32337190597079057 -0.14574110498202919 0 -0.31648954397296519 -0.15442143230275179 0 -0.32337190597079057 -0.14574110498202919 0 -0.33165234787077352 -0.15573221691221101 0 -0.33165234787077352 -0.15573221691221101 0 -0.33914529267584692 -0.13948588878647519 0 -0.3461191282796926 -0.15312680491255151 0 -0.32337190597079057 -0.14574110498202919 0 -0.33165234787077352 -0.15573221691221101 0 -0.33914529267584692 -0.13948588878647519 0 -0.34475160898432011 -0.1211795220527908 0 -0.32506695058544222 -0.13427905473048249 0 -0.33914529267584692 -0.13948588878647519 0 -0.32506695058544222 -0.13427905473048249 0 -0.32337190597079057 -0.14574110498202919 0 -0.33914529267584692 -0.13948588878647519 0 -0.34475160898432011 -0.1211795220527908 0 -0.35412318166017359 -0.14047264026191439 0 -0.35895090308536409 -0.12191433820847571 0 -0.34475160898432011 -0.1211795220527908 0 -0.35412318166017359 -0.14047264026191439 0 -0.34475160898432011 -0.1211795220527908 0 -0.33914529267584692 -0.13948588878647519 0 -0.35412318166017359 -0.14047264026191439 0 -0.35895090308536409 -0.12191433820847571 0 -0.35412318166017359 -0.14047264026191439 0 -0.36845044948052252 -0.13179033039219501 0 -0.36368119908652807 -0.1533079052960693 0 -0.38211199826376863 -0.16512875353770709 0 -0.37852457519263688 -0.1469241592143892 0 -0.35412318166017359 -0.14047264026191439 0 -0.36845044948052252 -0.13179033039219501 0 -0.36368119908652807 -0.1533079052960693 0 -0.36845044948052252 -0.13179033039219501 0 -0.36368119908652807 -0.1533079052960693 0 -0.37852457519263688 -0.1469241592143892 0 -0.35412318166017359 -0.14047264026191439 0 -0.36368119908652807 -0.1533079052960693 0 -0.3461191282796926 -0.15312680491255151 0 -0.33914529267584692 -0.13948588878647519 0 -0.35412318166017359 -0.14047264026191439 0 -0.3461191282796926 -0.15312680491255151 0 -0.35131298418146623 -0.16444116463361261 0 -0.36699649171805582 -0.17272464774994839 0 -0.35321183579965337 -0.17570021128670191 0 -0.3461191282796926 -0.15312680491255151 0 -0.35131298418146623 -0.16444116463361261 0 -0.34128876061285479 -0.16880860629662539 0 -0.36368119908652807 -0.1533079052960693 0 -0.3461191282796926 -0.15312680491255151 0 -0.35131298418146623 -0.16444116463361261 0 -0.35131298418146623 -0.16444116463361261 0 -0.35321183579965337 -0.17570021128670191 0 -0.34128876061285479 -0.16880860629662539 0 -0.36368119908652807 -0.1533079052960693 0 -0.36699649171805582 -0.17272464774994839 0 -0.38211199826376863 -0.16512875353770709 0 -0.36368119908652807 -0.1533079052960693 0 -0.35131298418146623 -0.16444116463361261 0 -0.36699649171805582 -0.17272464774994839 0 -0.37230828124455873 -0.18534963435539009 0 -0.36699649171805582 -0.17272464774994839 0 -0.38400774997116499 -0.18056385457081259 0 -0.36699649171805582 -0.17272464774994839 0 -0.36158169057786521 -0.18355880405743491 0 -0.35321183579965337 -0.17570021128670191 0 -0.37230828124455873 -0.18534963435539009 0 -0.36699649171805582 -0.17272464774994839 0 -0.36158169057786521 -0.18355880405743491 0 -0.34569466470786642 -0.18493290816958791 0 -0.35321183579965337 -0.17570021128670191 0 -0.34128876061285479 -0.16880860629662539 0 -0.36158169057786521 -0.18355880405743491 0 -0.34569466470786642 -0.18493290816958791 0 -0.35321183579965337 -0.17570021128670191 0 -0.34569466470786642 -0.18493290816958791 0 -0.34128876061285479 -0.16880860629662539 0 -0.32356900872791527 -0.1706876742317987 0 -0.34569466470786642 -0.18493290816958791 0 -0.32356900872791527 -0.1706876742317987 0 -0.34569466470786642 -0.18493290816958791 0 -0.32356900872791527 -0.1706876742317987 0 -0.33036134047787141 -0.191843982696001 0 -0.33165234787077352 -0.15573221691221101 0 -0.34128876061285479 -0.16880860629662539 0 -0.32356900872791527 -0.1706876742317987 0 -0.33165234787077352 -0.15573221691221101 0 -0.3461191282796926 -0.15312680491255151 0 -0.34128876061285479 -0.16880860629662539 0 -0.30144335274796419 -0.15644244029400969 0 -0.31648954397296519 -0.15442143230275179 0 -0.32356900872791527 -0.1706876742317987 0 -0.30144335274796419 -0.15644244029400969 0 -0.32356900872791527 -0.1706876742317987 0 -0.31648954397296519 -0.15442143230275179 0 -0.33165234787077352 -0.15573221691221101 0 -0.32356900872791527 -0.1706876742317987 0 -0.30975453873677711 -0.18638025511922571 0 -0.32356900872791527 -0.1706876742317987 0 -0.33036134047787141 -0.191843982696001 0 -0.30597865930208479 -0.1736067242968711 0 -0.30975453873677711 -0.18638025511922571 0 -0.32356900872791527 -0.1706876742317987 0 -0.30741932600860372 -0.2068172634689894 0 -0.30975453873677711 -0.18638025511922571 0 -0.32211464684264551 -0.20462193241254839 0 -0.30975453873677711 -0.18638025511922571 0 -0.32211464684264551 -0.20462193241254839 0 -0.33036134047787141 -0.191843982696001 0 -0.30975453873677711 -0.18638025511922571 0 -0.33036134047787141 -0.191843982696001 0 -0.32211464684264551 -0.20462193241254839 0 -0.33610063673418339 -0.21205003541272241 0 -0.32041655156547449 -0.22101429098559119 0 -0.30741932600860372 -0.2068172634689894 0 -0.32211464684264551 -0.20462193241254839 0 -0.32041655156547449 -0.22101429098559119 0 -0.32211464684264551 -0.20462193241254839 0 -0.33610063673418339 -0.21205003541272241 0 -0.33036134047787141 -0.191843982696001 0 -0.33610063673418339 -0.21205003541272241 0 -0.33036134047787141 -0.191843982696001 0 -0.35096814221896577 -0.19730771027277619 0 -0.33036134047787141 -0.191843982696001 0 -0.35096814221896577 -0.19730771027277619 0 -0.34569466470786642 -0.18493290816958791 0 -0.33036134047787141 -0.191843982696001 0 -0.35096814221896577 -0.19730771027277619 0 -0.36158169057786521 -0.18355880405743491 0 -0.34569466470786642 -0.18493290816958791 0 -0.3678203206878175 -0.199178142107377 0 -0.34569466470786642 -0.18493290816958791 0 -0.3678203206878175 -0.199178142107377 0 -0.34569466470786642 -0.18493290816958791 0 -0.35096814221896577 -0.19730771027277619 0 -0.3678203206878175 -0.199178142107377 0 -0.37230828124455873 -0.18534963435539009 0 -0.36158169057786521 -0.18355880405743491 0 -0.3678203206878175 -0.199178142107377 0 -0.37230828124455873 -0.18534963435539009 0 -0.3678203206878175 -0.199178142107377 0 -0.38113515326788983 -0.19072272329137729 0 -0.35096814221896577 -0.19730771027277619 0 -0.3678203206878175 -0.199178142107377 0 -0.36079401714152731 -0.21397574056903149 0 -0.3678203206878175 -0.199178142107377 0 -0.36079401714152731 -0.21397574056903149 0 -0.38994597666776881 -0.2134233760451659 0 -0.36079401714152731 -0.21397574056903149 0 -0.37045772120340931 -0.22021287173370119 0 -0.37819758453444258 -0.21762968879584549 0 -0.33610063673418339 -0.21205003541272241 0 -0.35096814221896577 -0.19730771027277619 0 -0.35019686231697428 -0.21416390506546029 0 -0.35096814221896577 -0.19730771027277619 0 -0.36079401714152731 -0.21397574056903149 0 -0.35019686231697428 -0.21416390506546029 0 -0.36079401714152731 -0.21397574056903149 0 -0.35292465317322069 -0.23332213400731119 0 -0.36279873185178457 -0.2303299308172484 0 -0.33610063673418339 -0.21205003541272241 0 -0.35019686231697428 -0.21416390506546029 0 -0.35292465317322069 -0.23332213400731119 0 -0.33610063673418339 -0.21205003541272241 0 -0.35292465317322069 -0.23332213400731119 0 -0.36079401714152731 -0.21397574056903149 0 -0.35019686231697428 -0.21416390506546029 0 -0.35292465317322069 -0.23332213400731119 0 -0.36079401714152731 -0.21397574056903149 0 -0.36279873185178457 -0.2303299308172484 0 -0.36789358126929023 -0.22523874472307609 0 -0.36079401714152731 -0.21397574056903149 0 -0.37045772120340931 -0.22021287173370119 0 -0.36789358126929023 -0.22523874472307609 0 -0.36279873185178457 -0.2303299308172484 0 -0.37193331465817941 -0.23089715811860781 0 -0.36671889591465728 -0.23759824096923809 0 -0.35292465317322069 -0.23332213400731119 0 -0.36279873185178457 -0.2303299308172484 0 -0.36671889591465728 -0.23759824096923809 0 -0.36279873185178457 -0.2303299308172484 0 -0.37193331465817941 -0.23089715811860781 0 -0.36789358126929023 -0.22523874472307609 0 -0.37193331465817941 -0.23089715811860781 0 -0.37499157791119991 -0.22493774892125379 0 -0.36789358126929023 -0.22523874472307609 0 -0.37499157791119991 -0.22493774892125379 0 -0.37045772120340931 -0.22021287173370119 0 -0.36789358126929023 -0.22523874472307609 0 -0.37499157791119991 -0.22493774892125379 0 -0.37045772120340931 -0.22021287173370119 0 -0.37819758453444258 -0.21762968879584549 0 -0.35292465317322069 -0.23332213400731119 0 -0.36602630737336872 -0.24988771933633419 0 -0.35292465317322069 -0.23332213400731119 0 -0.36671889591465728 -0.23759824096923809 0 -0.36602630737336872 -0.24988771933633419 0 -0.36671889591465728 -0.23759824096923809 0 -0.36602630737336872 -0.24988771933633419 0 -0.3757219899279084 -0.2421291010700683 0 -0.36671889591465728 -0.23759824096923809 0 -0.37509706815988558 -0.23621041457652589 0 -0.3757219899279084 -0.2421291010700683 0 -0.37193331465817941 -0.23089715811860781 0 -0.36671889591465728 -0.23759824096923809 0 -0.37509706815988558 -0.23621041457652589 0 -0.35530596627362709 -0.25098394110675409 0 -0.35292465317322069 -0.23332213400731119 0 -0.36602630737336872 -0.24988771933633419 0 -0.35530596627362709 -0.25098394110675409 0 -0.35292465317322069 -0.23332213400731119 0 -0.34628306742097781 -0.24243591184056079 0 -0.35292465317322069 -0.23332213400731119 0 -0.34628306742097781 -0.24243591184056079 0 -0.33943300251249803 -0.23227400683224589 0 -0.34584741230798449 -0.25045217551598059 0 -0.35530596627362709 -0.25098394110675409 0 -0.34628306742097781 -0.24243591184056079 0 -0.34584741230798449 -0.25045217551598059 0 -0.34628306742097781 -0.24243591184056079 0 -0.33815463984256022 -0.2476256662196912 0 -0.34628306742097781 -0.24243591184056079 0 -0.33815463984256022 -0.2476256662196912 0 -0.33476271467901592 -0.2398816952622064 0 -0.33815463984256022 -0.2476256662196912 0 -0.33023339301161159 -0.24396746843678091 0 -0.33476271467901592 -0.2398816952622064 0 -0.33217923387065729 -0.25339380460878591 0 -0.33815463984256022 -0.2476256662196912 0 -0.33023339301161159 -0.24396746843678091 0 -0.33476271467901592 -0.2398816952622064 0 -0.3283923536358262 -0.23059226452759221 0 -0.32711058623940992 -0.23905477425494071 0 -0.33023339301161159 -0.24396746843678091 0 -0.33476271467901592 -0.2398816952622064 0 -0.32711058623940992 -0.23905477425494071 0 -0.34628306742097781 -0.24243591184056079 0 -0.33476271467901592 -0.2398816952622064 0 -0.33943300251249803 -0.23227400683224589 0 -0.33610063673418339 -0.21205003541272241 0 -0.33943300251249803 -0.23227400683224589 0 -0.3283923536358262 -0.23059226452759221 0 -0.33610063673418339 -0.21205003541272241 0 -0.35292465317322069 -0.23332213400731119 0 -0.33943300251249803 -0.23227400683224589 0 -0.33610063673418339 -0.21205003541272241 0 -0.3283923536358262 -0.23059226452759221 0 -0.32041655156547449 -0.22101429098559119 0 -0.33476271467901592 -0.2398816952622064 0 -0.33943300251249803 -0.23227400683224589 0 -0.3283923536358262 -0.23059226452759221 0 -0.3283923536358262 -0.23059226452759221 0 -0.31849957716803629 -0.23278399285022161 0 -0.32306630268980641 -0.23629865485610771 0 -0.3283923536358262 -0.23059226452759221 0 -0.32041655156547449 -0.22101429098559119 0 -0.31849957716803629 -0.23278399285022161 0 -0.30724358455105821 -0.22565786077562541 0 -0.32041655156547449 -0.22101429098559119 0 -0.31849957716803629 -0.23278399285022161 0 -0.3119564728220891 -0.23969590988512249 0 -0.30724358455105821 -0.22565786077562541 0 -0.31849957716803629 -0.23278399285022161 0 -0.33217923387065729 -0.25339380460878591 0 -0.31178766327647622 -0.2415869100383104 0 -0.33217923387065729 -0.25339380460878591 0 -0.31178766327647622 -0.2415869100383104 0 -0.31895979042641492 -0.23988140183828019 0 -0.31849957716803629 -0.23278399285022161 0 -0.31895979042641492 -0.23988140183828019 0 -0.32306630268980641 -0.23629865485610771 0 -0.3119564728220891 -0.23969590988512249 0 -0.31849957716803629 -0.23278399285022161 0 -0.31895979042641492 -0.23988140183828019 0 -0.31178766327647622 -0.2415869100383104 0 -0.3119564728220891 -0.23969590988512249 0 -0.31895979042641492 -0.23988140183828019 0 -0.33217923387065729 -0.25339380460878591 0 -0.33023339301161159 -0.24396746843678091 0 -0.31895979042641492 -0.23988140183828019 0 -0.3283923536358262 -0.23059226452759221 0 -0.32711058623940992 -0.23905477425494071 0 -0.32306630268980641 -0.23629865485610771 0 -0.31895979042641492 -0.23988140183828019 0 -0.32711058623940992 -0.23905477425494071 0 -0.32306630268980641 -0.23629865485610771 0 -0.33023339301161159 -0.24396746843678091 0 -0.31895979042641492 -0.23988140183828019 0 -0.32711058623940992 -0.23905477425494071 0 -0.42912456693036699 -0.24581375911896339 0 -0.42889623761276818 -0.23231820447948451 0 -0.44512291106003149 -0.2448953896992169 0 -0.41741951691387269 -0.25466263076564932 0 -0.44512291106003149 -0.2448953896992169 0 -0.42912456693036699 -0.24581375911896339 0 -0.44512291106003149 -0.2448953896992169 0 -0.41741951691387269 -0.25466263076564932 0 -0.42912456693036699 -0.24581375911896339 0 -0.44512291106003149 -0.2448953896992169 0 -0.42912456693036699 -0.24581375911896339 0 -0.42889623761276818 -0.23231820447948451 0 -0.42165388346825139 -0.2395812661147709 0 -0.42889623761276818 -0.23231820447948451 0 -0.41546850652916889 -0.23346097232192159 0 -0.42165388346825139 -0.2395812661147709 0 -0.42889623761276818 -0.23231820447948451 0 -0.41706721166507449 -0.21290948921562131 0 -0.43909265483915899 -0.212492156259981 0 -0.42889623761276818 -0.23231820447948451 0 -0.41546850652916889 -0.23346097232192159 0 -0.40621799191276847 -0.22342397837647129 0 -0.41312622280070271 -0.24673212853871329 0 -0.40432695575490241 -0.22268232915988101 0 -0.40621799191276847 -0.22342397837647129 0 -0.42889623761276818 -0.23231820447948451 0 -0.40621799191276847 -0.22342397837647129 0 -0.41706721166507449 -0.21290948921562131 0 -0.42889623761276818 -0.23231820447948451 0 -0.40621799191276847 -0.22342397837647129 0 -0.40432695575490241 -0.22268232915988101 0 -0.40621799191276847 -0.22342397837647129 0 -0.41706721166507449 -0.21290948921562131 0 -0.41741951691387269 -0.25466263076564932 0 -0.42912456693036699 -0.24581375911896339 0 -0.41312622280070271 -0.24673212853871329 0 -0.41546850652916889 -0.23346097232192159 0 -0.41312622280070271 -0.24673212853871329 0 -0.40621799191276847 -0.22342397837647129 0 -0.42912456693036699 -0.24581375911896339 0 -0.42165388346825139 -0.2395812661147709 0 -0.41312622280070271 -0.24673212853871329 0 -0.42912456693036699 -0.24581375911896339 0 -0.41312622280070271 -0.24673212853871329 0 -0.41546850652916889 -0.23346097232192159 0 -0.42165388346825139 -0.2395812661147709 0 -0.41312622280070271 -0.24673212853871329 0 -0.41312622280070271 -0.24673212853871329 0 -0.38988428883739262 -0.2480663092035745 0 -0.41312622280070271 -0.24673212853871329 0 -0.39759383272167209 -0.23703939925239401 0 -0.39896889161358412 -0.2205809393708387 0 -0.41312622280070271 -0.24673212853871329 0 -0.39759383272167209 -0.23703939925239401 0 -0.38988428883739262 -0.2480663092035745 0 -0.39759383272167209 -0.23703939925239401 0 -0.38988428883739262 -0.2480663092035745 0 -0.38839592763500858 -0.2327782198964497 0 -0.36602630737336872 -0.24988771933633419 0 -0.38988428883739262 -0.2480663092035745 0 -0.36602630737336872 -0.24988771933633419 0 -0.38988428883739262 -0.2480663092035745 0 -0.3757219899279084 -0.2421291010700683 0 -0.38098662737935579 -0.2388401524080927 0 -0.3801245129193272 -0.23158742031662249 0 -0.38839592763500858 -0.2327782198964497 0 -0.38988428883739262 -0.2480663092035745 0 -0.38098662737935579 -0.2388401524080927 0 -0.38839592763500858 -0.2327782198964497 0 -0.38098662737935579 -0.2388401524080927 0 -0.37509706815988558 -0.23621041457652589 0 -0.3801245129193272 -0.23158742031662249 0 -0.38098662737935579 -0.2388401524080927 0 -0.37509706815988558 -0.23621041457652589 0 -0.3757219899279084 -0.2421291010700683 0 -0.38988428883739262 -0.2480663092035745 0 -0.38098662737935579 -0.2388401524080927 0 -0.3757219899279084 -0.2421291010700683 0 -0.3813427528825506 -0.22406060983966941 0 -0.38401353629756518 -0.22027438973339691 0 -0.37819758453444258 -0.21762968879584549 0 -0.37499157791119991 -0.22493774892125379 0 -0.3813427528825506 -0.22406060983966941 0 -0.37819758453444258 -0.21762968879584549 0 -0.37193331465817941 -0.23089715811860781 0 -0.37499157791119991 -0.22493774892125379 0 -0.3801245129193272 -0.23158742031662249 0 -0.37193331465817941 -0.23089715811860781 0 -0.37509706815988558 -0.23621041457652589 0 -0.3801245129193272 -0.23158742031662249 0 -0.37499157791119991 -0.22493774892125379 0 -0.3813427528825506 -0.22406060983966941 0 -0.3801245129193272 -0.23158742031662249 0 -0.3813427528825506 -0.22406060983966941 0 -0.3801245129193272 -0.23158742031662249 0 -0.38839592763500858 -0.2327782198964497 0 -0.3813427528825506 -0.22406060983966941 0 -0.38839592763500858 -0.2327782198964497 0 -0.38854804555631711 -0.22314166004071259 0 -0.3813427528825506 -0.22406060983966941 0 -0.38854804555631711 -0.22314166004071259 0 -0.38401353629756518 -0.22027438973339691 0 -0.38854804555631711 -0.22314166004071259 0 -0.38401353629756518 -0.22027438973339691 0 -0.38796576221695089 -0.21626560025735991 0 -0.41312622280070271 -0.24673212853871329 0 -0.39896889161358412 -0.2205809393708387 0 -0.40432695575490241 -0.22268232915988101 0 -0.39759383272167209 -0.23703939925239401 0 -0.38839592763500858 -0.2327782198964497 0 -0.39896889161358412 -0.2205809393708387 0 -0.41312622280070271 -0.24673212853871329 0 -0.39896889161358412 -0.2205809393708387 0 -0.38839592763500858 -0.2327782198964497 0 -0.38854804555631711 -0.22314166004071259 0 -0.39896889161358412 -0.2205809393708387 0 -0.38854804555631711 -0.22314166004071259 0 -0.39896889161358412 -0.2205809393708387 0 -0.38796576221695089 -0.21626560025735991 0 -0.39896889161358412 -0.2205809393708387 0 -0.39784842790082381 -0.21851123724118421 0 -0.39896889161358412 -0.2205809393708387 0 -0.40432695575490241 -0.22268232915988101 0 -0.40432695575490241 -0.22268232915988101 0 -0.39784842790082381 -0.21851123724118421 0 -0.39896889161358412 -0.2205809393708387 0 -0.40432695575490241 -0.22268232915988101 0 -0.39784842790082381 -0.21851123724118421 0 -0.40432695575490241 -0.22268232915988101 0 -0.40621799191276847 -0.22342397837647129 0 -0.39784842790082381 -0.21851123724118421 0 -0.39504176849099021 -0.21332682217126159 0 -0.41706721166507449 -0.21290948921562131 0 -0.39504176849099021 -0.21332682217126159 0 -0.41706721166507449 -0.21290948921562131 0 -0.40109835406841488 -0.207692572117361 0 -0.39504176849099021 -0.21332682217126159 0 -0.41706721166507449 -0.21290948921562131 0 -0.40109835406841488 -0.207692572117361 0 -0.39599309841816582 -0.2027342137000796 0 -0.40588786544512578 -0.20159120114138609 0 -0.40109835406841488 -0.207692572117361 0 -0.39203154264082168 -0.20776638252304391 0 -0.39504176849099021 -0.21332682217126159 0 -0.39203154264082168 -0.20776638252304391 0 -0.3878882434157902 -0.19999331701946971 0 -0.39599309841816582 -0.2027342137000796 0 -0.40109835406841488 -0.207692572117361 0 -0.39203154264082168 -0.20776638252304391 0 -0.39599309841816582 -0.2027342137000796 0 -0.39203154264082168 -0.20776638252304391 0 -0.39504176849099021 -0.21332682217126159 0 -0.39784842790082381 -0.21851123724118421 0 -0.38994597666776881 -0.2134233760451659 0 -0.39896889161358412 -0.2205809393708387 0 -0.39784842790082381 -0.21851123724118421 0 -0.38796576221695089 -0.21626560025735991 0 -0.39896889161358412 -0.2205809393708387 0 -0.38796576221695089 -0.21626560025735991 0 -0.39784842790082381 -0.21851123724118421 0 -0.39504176849099021 -0.21332682217126159 0 -0.38994597666776881 -0.2134233760451659 0 -0.39784842790082381 -0.21851123724118421 0 -0.38796576221695089 -0.21626560025735991 0 -0.38994597666776881 -0.2134233760451659 0 -0.39784842790082381 -0.21851123724118421 0 -0.39504176849099021 -0.21332682217126159 0 -0.39203154264082168 -0.20776638252304391 0 -0.39504176849099021 -0.21332682217126159 0 -0.38994597666776881 -0.2134233760451659 0 -0.39504176849099021 -0.21332682217126159 0 -0.38994597666776881 -0.2134233760451659 0 -0.38796576221695089 -0.21626560025735991 0 -0.38994597666776881 -0.2134233760451659 0 -0.37819758453444258 -0.21762968879584549 0 -0.3678203206878175 -0.199178142107377 0 -0.38994597666776881 -0.2134233760451659 0 -0.3878882434157902 -0.19999331701946971 0 -0.3678203206878175 -0.199178142107377 0 -0.38994597666776881 -0.2134233760451659 0 -0.36079401714152731 -0.21397574056903149 0 -0.38994597666776881 -0.2134233760451659 0 -0.36079401714152731 -0.21397574056903149 0 -0.38994597666776881 -0.2134233760451659 0 -0.37819758453444258 -0.21762968879584549 0 -0.38401353629756518 -0.22027438973339691 0 -0.38796576221695089 -0.21626560025735991 0 -0.37819758453444258 -0.21762968879584549 0 -0.39203154264082168 -0.20776638252304391 0 -0.38994597666776881 -0.2134233760451659 0 -0.3878882434157902 -0.19999331701946971 0 -0.3678203206878175 -0.199178142107377 0 -0.38113515326788983 -0.19072272329137729 0 -0.3878882434157902 -0.19999331701946971 0 -0.38113515326788983 -0.19072272329137729 0 -0.3878882434157902 -0.19999331701946971 0 -0.38968124582288638 -0.19042057991767969 0 -0.3878882434157902 -0.19999331701946971 0 -0.38968124582288638 -0.19042057991767969 0 -0.39767861281453909 -0.19545255969433811 0 -0.38968124582288638 -0.19042057991767969 0 -0.39767861281453909 -0.19545255969433811 0 -0.39769646964504779 -0.18537044501240069 0 -0.3878882434157902 -0.19999331701946971 0 -0.39599309841816582 -0.2027342137000796 0 -0.39767861281453909 -0.19545255969433811 0 -0.39767861281453909 -0.19545255969433811 0 -0.40588786544512578 -0.20159120114138609 0 -0.40715678877471012 -0.19224216355591039 0 -0.39599309841816582 -0.2027342137000796 0 -0.39767861281453909 -0.19545255969433811 0 -0.40588786544512578 -0.20159120114138609 0 -0.39767861281453909 -0.19545255969433811 0 -0.40715678877471012 -0.19224216355591039 0 -0.39769646964504779 -0.18537044501240069 0 -0.40715678877471012 -0.19224216355591039 0 -0.42005991625705369 -0.1970096381039495 0 -0.42051535819193109 -0.18176937011332481 0 -0.40588786544512578 -0.20159120114138609 0 -0.40715678877471012 -0.19224216355591039 0 -0.42005991625705369 -0.1970096381039495 0 -0.40588786544512578 -0.20159120114138609 0 -0.42005991625705369 -0.1970096381039495 0 -0.41706721166507449 -0.21290948921562131 0 -0.42005991625705369 -0.1970096381039495 0 -0.41706721166507449 -0.21290948921562131 0 -0.42808849271858429 -0.20481838773371369 0 -0.40432695575490241 -0.22268232915988101 0 -0.39784842790082381 -0.21851123724118421 0 -0.41706721166507449 -0.21290948921562131 0 -0.40109835406841488 -0.207692572117361 0 -0.40588786544512578 -0.20159120114138609 0 -0.41706721166507449 -0.21290948921562131 0 -0.41706721166507449 -0.21290948921562131 0 -0.42808849271858429 -0.20481838773371369 0 -0.43909265483915899 -0.212492156259981 0 -0.41706721166507449 -0.21290948921562131 0 -0.43909265483915899 -0.212492156259981 0 -0.42808849271858429 -0.20481838773371369 0 -0.43613418811304988 -0.19686226735530279 0 -0.43909265483915899 -0.212492156259981 0 -0.42005991625705369 -0.1970096381039495 0 -0.43613418811304988 -0.19686226735530279 0 -0.43012096160381408 -0.1871239861225745 0 -0.42005991625705369 -0.1970096381039495 0 -0.42808849271858429 -0.20481838773371369 0 -0.43613418811304988 -0.19686226735530279 0 -0.43613418811304988 -0.19686226735530279 0 -0.43012096160381408 -0.1871239861225745 0 -0.43943033760463562 -0.18733112312790379 0 -0.42005991625705369 -0.1970096381039495 0 -0.43012096160381408 -0.1871239861225745 0 -0.42051535819193109 -0.18176937011332481 0 -0.43410048902587117 -0.17723756949878811 0 -0.42107580212219919 -0.17033310502251031 0 -0.42051535819193109 -0.18176937011332481 0 -0.43012096160381408 -0.1871239861225745 0 -0.43410048902587117 -0.17723756949878811 0 -0.42051535819193109 -0.18176937011332481 0 -0.43012096160381408 -0.1871239861225745 0 -0.43410048902587117 -0.17723756949878811 0 -0.43943033760463562 -0.18733112312790379 0 -0.43410048902587117 -0.17723756949878811 0 -0.43098298332788182 -0.16504250708560769 0 -0.43967356045482742 -0.17225679447704489 0 -0.43098298332788182 -0.16504250708560769 0 -0.42966641302370712 -0.15321910109029541 0 -0.44289899203623101 -0.16114137150829261 0 -0.43098298332788182 -0.16504250708560769 0 -0.41994316161008499 -0.15869012994305881 0 -0.42966641302370712 -0.15321910109029541 0 -0.43410048902587117 -0.17723756949878811 0 -0.43098298332788182 -0.16504250708560769 0 -0.42107580212219919 -0.17033310502251031 0 -0.43098298332788182 -0.16504250708560769 0 -0.42107580212219919 -0.17033310502251031 0 -0.41994316161008499 -0.15869012994305881 0 -0.42107580212219919 -0.17033310502251031 0 -0.41994316161008499 -0.15869012994305881 0 -0.40901555866176148 -0.1704650538860121 0 -0.41994316161008499 -0.15869012994305881 0 -0.40901555866176148 -0.1704650538860121 0 -0.40706946666432647 -0.15432405839094229 0 -0.40901555866176148 -0.1704650538860121 0 -0.42051535819193109 -0.18176937011332481 0 -0.40609839134245329 -0.180869673771199 0 -0.42107580212219919 -0.17033310502251031 0 -0.40901555866176148 -0.1704650538860121 0 -0.42051535819193109 -0.18176937011332481 0 -0.40715678877471012 -0.19224216355591039 0 -0.42051535819193109 -0.18176937011332481 0 -0.40609839134245329 -0.180869673771199 0 -0.40715678877471012 -0.19224216355591039 0 -0.40609839134245329 -0.180869673771199 0 -0.39769646964504779 -0.18537044501240069 0 -0.40609839134245329 -0.180869673771199 0 -0.39610778143881581 -0.17450133628834699 0 -0.39769646964504779 -0.18537044501240069 0 -0.40901555866176148 -0.1704650538860121 0 -0.40609839134245329 -0.180869673771199 0 -0.39610778143881581 -0.17450133628834699 0 -0.39610778143881581 -0.17450133628834699 0 -0.39769646964504779 -0.18537044501240069 0 -0.38400774997116499 -0.18056385457081259 0 -0.36699649171805582 -0.17272464774994839 0 -0.38400774997116499 -0.18056385457081259 0 -0.38211199826376863 -0.16512875353770709 0 -0.38968124582288638 -0.19042057991767969 0 -0.39769646964504779 -0.18537044501240069 0 -0.38400774997116499 -0.18056385457081259 0 -0.38113515326788983 -0.19072272329137729 0 -0.38968124582288638 -0.19042057991767969 0 -0.38400774997116499 -0.18056385457081259 0 -0.39610778143881581 -0.17450133628834699 0 -0.38400774997116499 -0.18056385457081259 0 -0.38211199826376863 -0.16512875353770709 0 -0.37230828124455873 -0.18534963435539009 0 -0.38113515326788983 -0.19072272329137729 0 -0.38400774997116499 -0.18056385457081259 0 -0.38211199826376863 -0.16512875353770709 0 -0.3970964571237382 -0.1625821780805857 0 -0.39249418441351153 -0.15018703249467211 0 -0.40901555866176148 -0.1704650538860121 0 -0.3970964571237382 -0.1625821780805857 0 -0.40706946666432647 -0.15432405839094229 0 -0.39610778143881581 -0.17450133628834699 0 -0.38211199826376863 -0.16512875353770709 0 -0.3970964571237382 -0.1625821780805857 0 -0.40901555866176148 -0.1704650538860121 0 -0.39610778143881581 -0.17450133628834699 0 -0.3970964571237382 -0.1625821780805857 0 -0.3970964571237382 -0.1625821780805857 0 -0.39249418441351153 -0.15018703249467211 0 -0.40706946666432647 -0.15432405839094229 0 -0.39249418441351153 -0.15018703249467211 0 -0.3851872658124374 -0.13251977329028991 0 -0.40444671667566179 -0.13947547222790049 0 -0.39249418441351153 -0.15018703249467211 0 -0.40444671667566179 -0.13947547222790049 0 -0.40706946666432647 -0.15432405839094229 0 -0.38211199826376863 -0.16512875353770709 0 -0.39249418441351153 -0.15018703249467211 0 -0.37852457519263688 -0.1469241592143892 0 -0.39249418441351153 -0.15018703249467211 0 -0.37852457519263688 -0.1469241592143892 0 -0.3851872658124374 -0.13251977329028991 0 -0.37173483673604091 -0.1139549048190531 0 -0.36845044948052252 -0.13179033039219501 0 -0.3851872658124374 -0.13251977329028991 0 -0.36845044948052252 -0.13179033039219501 0 -0.37852457519263688 -0.1469241592143892 0 -0.3851872658124374 -0.13251977329028991 0 -0.3851872658124374 -0.13251977329028991 0 -0.40444671667566179 -0.13947547222790049 0 -0.40097548697862417 -0.1237433445616898 0 -0.40444671667566179 -0.13947547222790049 0 -0.41935844104264919 -0.12551795179852551 0 -0.40097548697862417 -0.1237433445616898 0 -0.40444671667566179 -0.13947547222790049 0 -0.41935844104264919 -0.12551795179852551 0 -0.41942072150120119 -0.1445444837134246 0 -0.40444671667566179 -0.13947547222790049 0 -0.40706946666432647 -0.15432405839094229 0 -0.41942072150120119 -0.1445444837134246 0 -0.41994316161008499 -0.15869012994305881 0 -0.40706946666432647 -0.15432405839094229 0 -0.41942072150120119 -0.1445444837134246 0 -0.41942072150120119 -0.1445444837134246 0 -0.42966641302370712 -0.15321910109029541 0 -0.43508620664313619 -0.13667701320109349 0 -0.42966641302370712 -0.15321910109029541 0 -0.43508620664313619 -0.13667701320109349 0 -0.44289899203623101 -0.16114137150829261 0 -0.41994316161008499 -0.15869012994305881 0 -0.41942072150120119 -0.1445444837134246 0 -0.42966641302370712 -0.15321910109029541 0 -0.41935844104264919 -0.12551795179852551 0 -0.41942072150120119 -0.1445444837134246 0 -0.43508620664313619 -0.13667701320109349 0 -0.41935844104264919 -0.12551795179852551 0 -0.43508620664313619 -0.13667701320109349 0 -0.43832491721629241 -0.1229934523303141 0 -0.43508620664313619 -0.13667701320109349 0 -0.45241739407169113 -0.1327579342250203 0 -0.43832491721629241 -0.1229934523303141 0 -0.43508620664313619 -0.13667701320109349 0 -0.45241739407169113 -0.1327579342250203 0 -0.44950817666427179 -0.14717808502022051 0 -0.43508620664313619 -0.13667701320109349 0 -0.44289899203623101 -0.16114137150829261 0 -0.43508620664313619 -0.13667701320109349 0 -0.44950817666427179 -0.14717808502022051 0 -0.44289899203623101 -0.16114137150829261 0 -0.44955796258783998 -0.1555480604338231 0 -0.44950817666427179 -0.14717808502022051 0 -0.44289899203623101 -0.16114137150829261 0 -0.44955796258783998 -0.1555480604338231 0 -0.44950817666427179 -0.14717808502022051 0 -0.45607226716869859 -0.15221723809732179 0 -0.44950817666427179 -0.14717808502022051 0 -0.4606934472737525 -0.14558699117210519 0 -0.45607226716869859 -0.15221723809732179 0 -0.45241739407169113 -0.1327579342250203 0 -0.44950817666427179 -0.14717808502022051 0 -0.4606934472737525 -0.14558699117210519 0 -0.4606934472737525 -0.14558699117210519 0 -0.45607226716869859 -0.15221723809732179 0 -0.46270271974610649 -0.15569650968149781 0 -0.4606934472737525 -0.14558699117210519 0 -0.46270271974610649 -0.15569650968149781 0 -0.46829545968368091 -0.15092316734074671 0 -0.46270271974610649 -0.15569650968149781 0 -0.46829545968368091 -0.15092316734074671 0 -0.47019577416667202 -0.15897352166578141 0 -0.4606934472737525 -0.14558699117210519 0 -0.46604479787449088 -0.136891714688541 0 -0.47065240685288301 -0.14405094601755131 0 -0.4606934472737525 -0.14558699117210519 0 -0.46829545968368091 -0.15092316734074671 0 -0.47065240685288301 -0.14405094601755131 0 -0.45241739407169113 -0.1327579342250203 0 -0.46358990834632868 -0.1283027919072236 0 -0.45398471116157302 -0.1165250113585506 0 -0.45241739407169113 -0.1327579342250203 0 -0.4606934472737525 -0.14558699117210519 0 -0.46604479787449088 -0.136891714688541 0 -0.45241739407169113 -0.1327579342250203 0 -0.46604479787449088 -0.136891714688541 0 -0.46358990834632868 -0.1283027919072236 0 -0.46604479787449088 -0.136891714688541 0 -0.46358990834632868 -0.1283027919072236 0 -0.47524825393792097 -0.13221031150319951 0 -0.46358990834632868 -0.1283027919072236 0 -0.47524825393792097 -0.13221031150319951 0 -0.47202031163892888 -0.12254882597757449 0 -0.47524825393792097 -0.13221031150319951 0 -0.47327458475359663 -0.13855483882768119 0 -0.47964455902772379 -0.14150232110412581 0 -0.46604479787449088 -0.136891714688541 0 -0.47524825393792097 -0.13221031150319951 0 -0.47327458475359663 -0.13855483882768119 0 -0.46604479787449088 -0.136891714688541 0 -0.47327458475359663 -0.13855483882768119 0 -0.47065240685288301 -0.14405094601755131 0 -0.47524825393792097 -0.13221031150319951 0 -0.48363102024267962 -0.13697532878903651 0 -0.47964455902772379 -0.14150232110412581 0 -0.47524825393792097 -0.13221031150319951 0 -0.48333284374163349 -0.1281080542023717 0 -0.47202031163892888 -0.12254882597757449 0 -0.47524825393792097 -0.13221031150319951 0 -0.48363102024267962 -0.13697532878903651 0 -0.48333284374163349 -0.1281080542023717 0 -0.49378055036284979 -0.1395138156288416 0 -0.49142021625787569 -0.114649277139032 0 -0.49378055036284979 -0.1395138156288416 0 -0.5 -0.14113849456806229 0 -0.5 -0.11301405217281529 0 -0.48333284374163349 -0.1281080542023717 0 -0.49378055036284979 -0.1395138156288416 0 -0.48598613902220561 -0.1224023592414782 0 -0.49378055036284979 -0.1395138156288416 0 -0.49142021625787569 -0.114649277139032 0 -0.48598613902220561 -0.1224023592414782 0 -0.48363102024267962 -0.13697532878903651 0 -0.48333284374163349 -0.1281080542023717 0 -0.49378055036284979 -0.1395138156288416 0 -0.48363102024267962 -0.13697532878903651 0 -0.49378055036284979 -0.1395138156288416 0 -0.48589921645898199 -0.14396536513751221 0 -0.49378055036284979 -0.1395138156288416 0 -0.49614088446782401 -0.16437835411865109 0 -0.49378055036284979 -0.1395138156288416 0 -0.5 -0.14113849456806229 0 -0.49614088446782401 -0.16437835411865109 0 -0.49378055036284979 -0.1395138156288416 0 -0.48816176475665107 -0.15259149399103081 0 -0.49614088446782401 -0.16437835411865109 0 -0.49378055036284979 -0.1395138156288416 0 -0.48589921645898199 -0.14396536513751221 0 -0.48816176475665107 -0.15259149399103081 0 -0.48589921645898199 -0.14396536513751221 0 -0.48816176475665107 -0.15259149399103081 0 -0.48144431356863809 -0.14885349615579149 0 -0.48816176475665107 -0.15259149399103081 0 -0.48138784451112321 -0.1565407316488098 0 -0.48624306986858479 -0.15708455117714079 0 -0.48816176475665107 -0.15259149399103081 0 -0.48144431356863809 -0.14885349615579149 0 -0.48138784451112321 -0.1565407316488098 0 -0.48144431356863809 -0.14885349615579149 0 -0.4755775431933118 -0.14825677369239271 0 -0.47524611385103649 -0.15413924787217159 0 -0.48144431356863809 -0.14885349615579149 0 -0.47524611385103649 -0.15413924787217159 0 -0.48138784451112321 -0.1565407316488098 0 -0.48363102024267962 -0.13697532878903651 0 -0.48589921645898199 -0.14396536513751221 0 -0.47964455902772379 -0.14150232110412581 0 -0.48589921645898199 -0.14396536513751221 0 -0.48144431356863809 -0.14885349615579149 0 -0.47964455902772379 -0.14150232110412581 0 -0.48144431356863809 -0.14885349615579149 0 -0.47964455902772379 -0.14150232110412581 0 -0.4755775431933118 -0.14825677369239271 0 -0.47327458475359663 -0.13855483882768119 0 -0.47964455902772379 -0.14150232110412581 0 -0.47065240685288301 -0.14405094601755131 0 -0.47964455902772379 -0.14150232110412581 0 -0.4755775431933118 -0.14825677369239271 0 -0.47065240685288301 -0.14405094601755131 0 -0.46829545968368091 -0.15092316734074671 0 -0.4755775431933118 -0.14825677369239271 0 -0.47065240685288301 -0.14405094601755131 0 -0.46829545968368091 -0.15092316734074671 0 -0.47524611385103649 -0.15413924787217159 0 -0.47019577416667202 -0.15897352166578141 0 -0.46829545968368091 -0.15092316734074671 0 -0.4755775431933118 -0.14825677369239271 0 -0.47524611385103649 -0.15413924787217159 0 -0.47524611385103649 -0.15413924787217159 0 -0.47019577416667202 -0.15897352166578141 0 -0.47828949408393262 -0.161434708308375 0 -0.47019577416667202 -0.15897352166578141 0 -0.47312117249319602 -0.16506487510317919 0 -0.47828949408393262 -0.161434708308375 0 -0.47019577416667202 -0.15897352166578141 0 -0.47312117249319602 -0.16506487510317919 0 -0.46553345846284938 -0.1660973982477098 0 -0.47283141714381621 -0.17037146447606591 0 -0.46902707065379651 -0.1753164573556267 0 -0.46553345846284938 -0.1660973982477098 0 -0.47312117249319602 -0.16506487510317919 0 -0.47283141714381621 -0.17037146447606591 0 -0.46553345846284938 -0.1660973982477098 0 -0.47312117249319602 -0.16506487510317919 0 -0.47283141714381621 -0.17037146447606591 0 -0.4788879055091394 -0.16745013641523271 0 -0.4788879055091394 -0.16745013641523271 0 -0.4839454835103234 -0.16948030936337699 0 -0.47804499014303858 -0.17405123089135299 0 -0.47283141714381621 -0.17037146447606591 0 -0.4788879055091394 -0.16745013641523271 0 -0.47804499014303858 -0.17405123089135299 0 -0.47312117249319602 -0.16506487510317919 0 -0.4788879055091394 -0.16745013641523271 0 -0.47828949408393262 -0.161434708308375 0 -0.4788879055091394 -0.16745013641523271 0 -0.4839454835103234 -0.16948030936337699 0 -0.48521565451727228 -0.1632630000638586 0 -0.47524611385103649 -0.15413924787217159 0 -0.47828949408393262 -0.161434708308375 0 -0.48138784451112321 -0.1565407316488098 0 -0.47828949408393262 -0.161434708308375 0 -0.48138784451112321 -0.1565407316488098 0 -0.48521565451727228 -0.1632630000638586 0 -0.4788879055091394 -0.16745013641523271 0 -0.47828949408393262 -0.161434708308375 0 -0.48521565451727228 -0.1632630000638586 0 -0.48138784451112321 -0.1565407316488098 0 -0.48624306986858479 -0.15708455117714079 0 -0.48521565451727228 -0.1632630000638586 0 -0.48816176475665107 -0.15259149399103081 0 -0.48624306986858479 -0.15708455117714079 0 -0.48938133894784802 -0.160388910641865 0 -0.5 -0.14113849456806229 0 -0.5 -0.16926293696330921 0 -0.49614088446782401 -0.16437835411865109 0 -0.48816176475665107 -0.15259149399103081 0 -0.48938133894784802 -0.160388910641865 0 -0.49614088446782401 -0.16437835411865109 0 -0.48938133894784802 -0.160388910641865 0 -0.48521565451727228 -0.1632630000638586 0 -0.49114532112890769 -0.1646271538586434 0 -0.48624306986858479 -0.15708455117714079 0 -0.48938133894784802 -0.160388910641865 0 -0.48521565451727228 -0.1632630000638586 0 -0.4839454835103234 -0.16948030936337699 0 -0.48521565451727228 -0.1632630000638586 0 -0.48957709249145731 -0.16926558724263829 0 -0.4839454835103234 -0.16948030936337699 0 -0.48957709249145731 -0.16926558724263829 0 -0.48480778330538199 -0.1748158506949942 0 -0.48521565451727228 -0.1632630000638586 0 -0.48957709249145731 -0.16926558724263829 0 -0.49114532112890769 -0.1646271538586434 0 -0.48957709249145731 -0.16926558724263829 0 -0.49614088446782401 -0.16437835411865109 0 -0.4914510272037354 -0.17736785142540509 0 -0.48957709249145731 -0.16926558724263829 0 -0.49114532112890769 -0.1646271538586434 0 -0.49614088446782401 -0.16437835411865109 0 -0.48938133894784802 -0.160388910641865 0 -0.49114532112890769 -0.1646271538586434 0 -0.49614088446782401 -0.16437835411865109 0 -0.49614088446782401 -0.16437835411865109 0 -0.49850121857279822 -0.18924289260846069 0 -0.49614088446782401 -0.16437835411865109 0 -0.4914510272037354 -0.17736785142540509 0 -0.49850121857279822 -0.18924289260846069 0 -0.5 -0.16926293696330921 0 -0.5 -0.1973873793585561 0 -0.49850121857279822 -0.18924289260846069 0 -0.5 -0.16926293696330921 0 -0.49614088446782401 -0.16437835411865109 0 -0.49850121857279822 -0.18924289260846069 0 -0.4914510272037354 -0.17736785142540509 0 -0.49116051569897851 -0.1854106687480338 0 -0.49850121857279822 -0.18924289260846069 0 -0.48957709249145731 -0.16926558724263829 0 -0.4914510272037354 -0.17736785142540509 0 -0.48480778330538199 -0.1748158506949942 0 -0.4914510272037354 -0.17736785142540509 0 -0.48480778330538199 -0.1748158506949942 0 -0.48423588760864061 -0.18378249462095389 0 -0.4914510272037354 -0.17736785142540509 0 -0.49116051569897851 -0.1854106687480338 0 -0.48423588760864061 -0.18378249462095389 0 -0.49116051569897851 -0.1854106687480338 0 -0.48423588760864061 -0.18378249462095389 0 -0.49045392941074001 -0.19124943633731539 0 -0.48423588760864061 -0.18378249462095389 0 -0.47712743754922138 -0.18025010157861221 0 -0.47749047948527212 -0.18707787787380151 0 -0.48480778330538199 -0.1748158506949942 0 -0.48423588760864061 -0.18378249462095389 0 -0.47712743754922138 -0.18025010157861221 0 -0.4839454835103234 -0.16948030936337699 0 -0.48480778330538199 -0.1748158506949942 0 -0.47804499014303858 -0.17405123089135299 0 -0.48480778330538199 -0.1748158506949942 0 -0.47712743754922138 -0.18025010157861221 0 -0.47804499014303858 -0.17405123089135299 0 -0.47283141714381621 -0.17037146447606591 0 -0.47804499014303858 -0.17405123089135299 0 -0.46902707065379651 -0.1753164573556267 0 -0.47712743754922138 -0.18025010157861221 0 -0.46902707065379651 -0.1753164573556267 0 -0.47191766038247851 -0.18327611783844799 0 -0.47712743754922138 -0.18025010157861221 0 -0.47804499014303858 -0.17405123089135299 0 -0.46902707065379651 -0.1753164573556267 0 -0.47191766038247851 -0.18327611783844799 0 -0.4665589667472359 -0.1817565563181586 0 -0.47142864783394173 -0.19224271129070911 0 -0.46902707065379651 -0.1753164573556267 0 -0.47191766038247851 -0.18327611783844799 0 -0.4665589667472359 -0.1817565563181586 0 -0.47712743754922138 -0.18025010157861221 0 -0.47749047948527212 -0.18707787787380151 0 -0.47191766038247851 -0.18327611783844799 0 -0.45934140566715559 -0.18248935060057539 0 -0.46336210762440139 -0.1733729559158865 0 -0.45634963659096972 -0.1612050170573619 0 -0.4665589667472359 -0.1817565563181586 0 -0.45934140566715559 -0.18248935060057539 0 -0.47142864783394173 -0.19224271129070911 0 -0.45934140566715559 -0.18248935060057539 0 -0.45062753443013809 -0.17119612808954571 0 -0.45071177742932572 -0.18560572981549159 0 -0.4665589667472359 -0.1817565563181586 0 -0.45934140566715559 -0.18248935060057539 0 -0.46336210762440139 -0.1733729559158865 0 -0.46902707065379651 -0.1753164573556267 0 -0.4665589667472359 -0.1817565563181586 0 -0.46336210762440139 -0.1733729559158865 0 -0.44955796258783998 -0.1555480604338231 0 -0.45934140566715559 -0.18248935060057539 0 -0.45634963659096972 -0.1612050170573619 0 -0.46902707065379651 -0.1753164573556267 0 -0.46336210762440139 -0.1733729559158865 0 -0.46553345846284938 -0.1660973982477098 0 -0.44955796258783998 -0.1555480604338231 0 -0.45934140566715559 -0.18248935060057539 0 -0.45062753443013809 -0.17119612808954571 0 -0.44955796258783998 -0.1555480604338231 0 -0.45934140566715559 -0.18248935060057539 0 -0.46336210762440139 -0.1733729559158865 0 -0.46553345846284938 -0.1660973982477098 0 -0.45634963659096972 -0.1612050170573619 0 -0.46270271974610649 -0.15569650968149781 0 -0.46553345846284938 -0.1660973982477098 0 -0.45634963659096972 -0.1612050170573619 0 -0.46270271974610649 -0.15569650968149781 0 -0.47019577416667202 -0.15897352166578141 0 -0.46553345846284938 -0.1660973982477098 0 -0.45607226716869859 -0.15221723809732179 0 -0.46270271974610649 -0.15569650968149781 0 -0.45634963659096972 -0.1612050170573619 0 -0.44955796258783998 -0.1555480604338231 0 -0.45607226716869859 -0.15221723809732179 0 -0.45634963659096972 -0.1612050170573619 0 -0.44955796258783998 -0.1555480604338231 0 -0.45062753443013809 -0.17119612808954571 0 -0.44289899203623101 -0.16114137150829261 0 -0.43098298332788182 -0.16504250708560769 0 -0.44289899203623101 -0.16114137150829261 0 -0.43967356045482742 -0.17225679447704489 0 -0.43410048902587117 -0.17723756949878811 0 -0.43967356045482742 -0.17225679447704489 0 -0.45071177742932572 -0.18560572981549159 0 -0.43410048902587117 -0.17723756949878811 0 -0.43943033760463562 -0.18733112312790379 0 -0.45071177742932572 -0.18560572981549159 0 -0.44289899203623101 -0.16114137150829261 0 -0.43967356045482742 -0.17225679447704489 0 -0.45071177742932572 -0.18560572981549159 0 -0.45062753443013809 -0.17119612808954571 0 -0.44289899203623101 -0.16114137150829261 0 -0.45071177742932572 -0.18560572981549159 0 -0.44289899203623101 -0.16114137150829261 0 -0.45071177742932572 -0.18560572981549159 0 -0.43613418811304988 -0.19686226735530279 0 -0.44848057436683908 -0.19979797339803571 0 -0.43909265483915899 -0.212492156259981 0 -0.45071177742932572 -0.18560572981549159 0 -0.44848057436683908 -0.19979797339803571 0 -0.45852456282242038 -0.2100700881226904 0 -0.45071177742932572 -0.18560572981549159 0 -0.44848057436683908 -0.19979797339803571 0 -0.44368921937846262 -0.19239927342418339 0 -0.43943033760463562 -0.18733112312790379 0 -0.45071177742932572 -0.18560572981549159 0 -0.44368921937846262 -0.19239927342418339 0 -0.43613418811304988 -0.19686226735530279 0 -0.43943033760463562 -0.18733112312790379 0 -0.44368921937846262 -0.19239927342418339 0 -0.43613418811304988 -0.19686226735530279 0 -0.44848057436683908 -0.19979797339803571 0 -0.44368921937846262 -0.19239927342418339 0 -0.43909265483915899 -0.212492156259981 0 -0.45012351547251023 -0.21458037383688741 0 -0.44949313115456502 -0.22845001686725 0 -0.44848057436683908 -0.19979797339803571 0 -0.45012351547251023 -0.21458037383688741 0 -0.45852456282242038 -0.2100700881226904 0 -0.44848057436683908 -0.19979797339803571 0 -0.43909265483915899 -0.212492156259981 0 -0.45012351547251023 -0.21458037383688741 0 -0.45012351547251023 -0.21458037383688741 0 -0.45852456282242038 -0.2100700881226904 0 -0.45502665417956689 -0.22209163453647951 0 -0.45852456282242038 -0.2100700881226904 0 -0.46651557951189199 -0.21824663094354571 0 -0.46912484874647131 -0.2094306407673277 0 -0.45852456282242038 -0.2100700881226904 0 -0.45942564866634322 -0.1968989523265213 0 -0.46912484874647131 -0.2094306407673277 0 -0.45071177742932572 -0.18560572981549159 0 -0.45852456282242038 -0.2100700881226904 0 -0.45071177742932572 -0.18560572981549159 0 -0.45852456282242038 -0.2100700881226904 0 -0.45942564866634322 -0.1968989523265213 0 -0.45934140566715559 -0.18248935060057539 0 -0.46912484874647131 -0.2094306407673277 0 -0.45934140566715559 -0.18248935060057539 0 -0.45942564866634322 -0.1968989523265213 0 -0.46912484874647131 -0.2094306407673277 0 -0.45934140566715559 -0.18248935060057539 0 -0.47142864783394173 -0.19224271129070911 0 -0.46912484874647131 -0.2094306407673277 0 -0.45934140566715559 -0.18248935060057539 0 -0.45071177742932572 -0.18560572981549159 0 -0.45942564866634322 -0.1968989523265213 0 -0.47749047948527212 -0.18707787787380151 0 -0.47191766038247851 -0.18327611783844799 0 -0.47142864783394173 -0.19224271129070911 0 -0.47142864783394173 -0.19224271129070911 0 -0.47834964508304989 -0.2035311854745594 0 -0.46912484874647131 -0.2094306407673277 0 -0.48081953778328301 -0.19288523730578011 0 -0.48631919654122452 -0.19962962248183219 0 -0.47834964508304989 -0.2035311854745594 0 -0.47142864783394173 -0.19224271129070911 0 -0.48081953778328301 -0.19288523730578011 0 -0.47834964508304989 -0.2035311854745594 0 -0.48423588760864061 -0.18378249462095389 0 -0.47749047948527212 -0.18707787787380151 0 -0.48081953778328301 -0.19288523730578011 0 -0.47749047948527212 -0.18707787787380151 0 -0.47142864783394173 -0.19224271129070911 0 -0.48081953778328301 -0.19288523730578011 0 -0.48081953778328301 -0.19288523730578011 0 -0.49045392941074001 -0.19124943633731539 0 -0.48631919654122452 -0.19962962248183219 0 -0.48423588760864061 -0.18378249462095389 0 -0.48081953778328301 -0.19288523730578011 0 -0.49045392941074001 -0.19124943633731539 0 -0.49045392941074001 -0.19124943633731539 0 -0.48631919654122452 -0.19962962248183219 0 -0.5 -0.1973873793585561 0 -0.49045392941074001 -0.19124943633731539 0 -0.5 -0.1973873793585561 0 -0.49850121857279822 -0.18924289260846069 0 -0.49116051569897851 -0.1854106687480338 0 -0.49045392941074001 -0.19124943633731539 0 -0.49850121857279822 -0.18924289260846069 0 -0.5 -0.1973873793585561 0 -0.48683966310225651 -0.2126649339659504 0 -0.5 -0.22551182175380299 0 -0.48631919654122452 -0.19962962248183219 0 -0.5 -0.1973873793585561 0 -0.48683966310225651 -0.2126649339659504 0 -0.48683966310225651 -0.2126649339659504 0 -0.47859811037737682 -0.2113757846764544 0 -0.48007828457772961 -0.2198763784979802 0 -0.48683966310225651 -0.2126649339659504 0 -0.47859811037737682 -0.2113757846764544 0 -0.47834964508304989 -0.2035311854745594 0 -0.48631919654122452 -0.19962962248183219 0 -0.48683966310225651 -0.2126649339659504 0 -0.47834964508304989 -0.2035311854745594 0 -0.47859811037737682 -0.2113757846764544 0 -0.47834964508304989 -0.2035311854745594 0 -0.46912484874647131 -0.2094306407673277 0 -0.46912484874647131 -0.2094306407673277 0 -0.47252316634906111 -0.21878880433693251 0 -0.48007828457772961 -0.2198763784979802 0 -0.46651557951189199 -0.21824663094354571 0 -0.46912484874647131 -0.2094306407673277 0 -0.47252316634906111 -0.21878880433693251 0 -0.46912484874647131 -0.2094306407673277 0 -0.47252316634906111 -0.21878880433693251 0 -0.47859811037737682 -0.2113757846764544 0 -0.46912484874647131 -0.2094306407673277 0 -0.48007828457772961 -0.2198763784979802 0 -0.47252316634906111 -0.21878880433693251 0 -0.46842146283615749 -0.23668114091455081 0 -0.46633734821551509 -0.2345344464298893 0 -0.47252316634906111 -0.21878880433693251 0 -0.47213923693113119 -0.24177652727367069 0 -0.46842146283615749 -0.23668114091455081 0 -0.47252316634906111 -0.21878880433693251 0 -0.47890829182578681 -0.2363719309340799 0 -0.47213923693113119 -0.24177652727367069 0 -0.47252316634906111 -0.21878880433693251 0 -0.47213923693113119 -0.24177652727367069 0 -0.47252316634906111 -0.21878880433693251 0 -0.47890829182578681 -0.2363719309340799 0 -0.48007828457772961 -0.2198763784979802 0 -0.48765078587600452 -0.22780930838308619 0 -0.47890829182578681 -0.2363719309340799 0 -0.47252316634906111 -0.21878880433693251 0 -0.48007828457772961 -0.2198763784979802 0 -0.47890829182578681 -0.2363719309340799 0 -0.48683966310225651 -0.2126649339659504 0 -0.48007828457772961 -0.2198763784979802 0 -0.48765078587600452 -0.22780930838308619 0 -0.48683966310225651 -0.2126649339659504 0 -0.48765078587600452 -0.22780930838308619 0 -0.5 -0.22551182175380299 0 -0.48765078587600452 -0.22780930838308619 0 -0.5 -0.22551182175380299 0 -0.48851059018447929 -0.24023850450257331 0 -0.48297322937947912 -0.25315898037087892 0 -0.5 -0.25363626414904988 0 -0.48851059018447929 -0.24023850450257331 0 -0.5 -0.25363626414904988 0 -0.5 -0.22551182175380299 0 -0.48851059018447929 -0.24023850450257331 0 -0.48765078587600452 -0.22780930838308619 0 -0.48851059018447929 -0.24023850450257331 0 -0.47890829182578681 -0.2363719309340799 0 -0.48297322937947912 -0.25315898037087892 0 -0.48108202534558592 -0.2444400869909357 0 -0.47213923693113119 -0.24177652727367069 0 -0.48297322937947912 -0.25315898037087892 0 -0.48851059018447929 -0.24023850450257331 0 -0.48108202534558592 -0.2444400869909357 0 -0.47220291559910088 -0.26460170609306599 0 -0.47213923693113119 -0.24177652727367069 0 -0.47126453110013639 -0.24339475536900981 0 -0.48851059018447929 -0.24023850450257331 0 -0.48108202534558592 -0.2444400869909357 0 -0.47890829182578681 -0.2363719309340799 0 -0.48108202534558592 -0.2444400869909357 0 -0.47890829182578681 -0.2363719309340799 0 -0.47213923693113119 -0.24177652727367069 0 -0.47213923693113119 -0.24177652727367069 0 -0.46824249342439578 -0.2407157262391818 0 -0.46842146283615749 -0.23668114091455081 0 -0.47213923693113119 -0.24177652727367069 0 -0.47126453110013639 -0.24339475536900981 0 -0.46824249342439578 -0.2407157262391818 0 -0.47126453110013639 -0.24339475536900981 0 -0.46367657095700138 -0.24383033485755981 0 -0.46824249342439578 -0.2407157262391818 0 -0.47126453110013639 -0.24339475536900981 0 -0.46367657095700138 -0.24383033485755981 0 -0.46367657095700138 -0.24383033485755981 0 -0.45894245988606108 -0.24410209190954391 0 -0.46367657095700138 -0.24383033485755981 0 -0.46129520831447851 -0.24502482097609909 0 -0.45894245988606108 -0.24410209190954391 0 -0.45198404615408339 -0.25580831368155488 0 -0.46129520831447851 -0.24502482097609909 0 -0.45894245988606108 -0.24410209190954391 0 -0.46129520831447851 -0.24502482097609909 0 -0.45894245988606108 -0.24410209190954391 0 -0.45894245988606108 -0.24410209190954391 0 -0.45346551947063368 -0.24195407979908851 0 -0.45346551947063368 -0.24195407979908851 0 -0.4576402137267741 -0.23478893153260039 0 -0.46338177653899232 -0.23845795680591431 0 -0.45346551947063368 -0.24195407979908851 0 -0.46338177653899232 -0.23845795680591431 0 -0.45894245988606108 -0.24410209190954391 0 -0.45346551947063368 -0.24195407979908851 0 -0.46338177653899232 -0.23845795680591431 0 -0.45346551947063368 -0.24195407979908851 0 -0.4576402137267741 -0.23478893153260039 0 -0.44949313115456502 -0.22845001686725 0 -0.4576402137267741 -0.23478893153260039 0 -0.46328191851561679 -0.2366381290877482 0 -0.46338177653899232 -0.23845795680591431 0 -0.46328191851561679 -0.2366381290877482 0 -0.46338177653899232 -0.23845795680591431 0 -0.46367657095700138 -0.24383033485755981 0 -0.46338177653899232 -0.23845795680591431 0 -0.46367657095700138 -0.24383033485755981 0 -0.45894245988606108 -0.24410209190954391 0 -0.46338177653899232 -0.23845795680591431 0 -0.46367657095700138 -0.24383033485755981 0 -0.46338177653899232 -0.23845795680591431 0 -0.46824249342439578 -0.2407157262391818 0 -0.46338177653899232 -0.23845795680591431 0 -0.46824249342439578 -0.2407157262391818 0 -0.46842146283615749 -0.23668114091455081 0 -0.46338177653899232 -0.23845795680591431 0 -0.46842146283615749 -0.23668114091455081 0 -0.46328191851561679 -0.2366381290877482 0 -0.46338177653899232 -0.23845795680591431 0 -0.46842146283615749 -0.23668114091455081 0 -0.46328191851561679 -0.2366381290877482 0 -0.46842146283615749 -0.23668114091455081 0 -0.46633734821551509 -0.2345344464298893 0 -0.45852456282242038 -0.2100700881226904 0 -0.46651557951189199 -0.21824663094354571 0 -0.46633734821551509 -0.2345344464298893 0 -0.45852456282242038 -0.2100700881226904 0 -0.45502665417956689 -0.22209163453647951 0 -0.45857872295406188 -0.22844447510299951 0 -0.46651557951189199 -0.21824663094354571 0 -0.47252316634906111 -0.21878880433693251 0 -0.46633734821551509 -0.2345344464298893 0 -0.45852456282242038 -0.2100700881226904 0 -0.46633734821551509 -0.2345344464298893 0 -0.45857872295406188 -0.22844447510299951 0 -0.46328191851561679 -0.2366381290877482 0 -0.46633734821551509 -0.2345344464298893 0 -0.45857872295406188 -0.22844447510299951 0 -0.45852456282242038 -0.2100700881226904 0 -0.46633734821551509 -0.2345344464298893 0 -0.45502665417956689 -0.22209163453647951 0 -0.45857872295406188 -0.22844447510299951 0 -0.44949313115456502 -0.22845001686725 0 -0.4576402137267741 -0.23478893153260039 0 -0.46328191851561679 -0.2366381290877482 0 -0.45857872295406188 -0.22844447510299951 0 -0.4576402137267741 -0.23478893153260039 0 -0.45857872295406188 -0.22844447510299951 0 -0.44949313115456502 -0.22845001686725 0 -0.42889623761276818 -0.23231820447948451 0 -0.43909265483915899 -0.212492156259981 0 -0.44949313115456502 -0.22845001686725 0 -0.42889623761276818 -0.23231820447948451 0 -0.45346551947063368 -0.24195407979908851 0 -0.44949313115456502 -0.22845001686725 0 -0.45012351547251023 -0.21458037383688741 0 -0.45502665417956689 -0.22209163453647951 0 -0.44949313115456502 -0.22845001686725 0 -0.42889623761276818 -0.23231820447948451 0 -0.45346551947063368 -0.24195407979908851 0 -0.44512291106003149 -0.2448953896992169 0 -0.42889623761276818 -0.23231820447948451 0 -0.45346551947063368 -0.24195407979908851 0 -0.45198404615408339 -0.25580831368155488 0 -0.45894245988606108 -0.24410209190954391 0 -0.44512291106003149 -0.2448953896992169 0 -0.45894245988606108 -0.24410209190954391 0 -0.44512291106003149 -0.2448953896992169 0 -0.45894245988606108 -0.24410209190954391 0 -0.45346551947063368 -0.24195407979908851 0 -0.44512291106003149 -0.2448953896992169 0 -0.45346551947063368 -0.24195407979908851 0 -0.44512291106003149 -0.2448953896992169 0 -0.41327717503754308 -0.036481544167953288 0 -0.41717038724556599 -0.056573618860198398 0 -0.39295478511181092 -0.045761143513466447 0 -0.41327717503754308 -0.036481544167953288 0 -0.41717038724556599 -0.056573618860198398 0 -0.43521213479742471 -0.047726943533260617 0 -0.41717038724556599 -0.056573618860198398 0 -0.43521213479742471 -0.047726943533260617 0 -0.43783657661272912 -0.073457386591141219 0 -0.43521213479742471 -0.047726943533260617 0 -0.4291942405461755 -0.02688948549895892 0 -0.4442091172569762 -0.030813217984686239 0 -0.41327717503754308 -0.036481544167953288 0 -0.43521213479742471 -0.047726943533260617 0 -0.4291942405461755 -0.02688948549895892 0 -0.4291942405461755 -0.02688948549895892 0 -0.41552429940294738 -0.011402213664737419 0 -0.44170164520326222 -0.01386498777376533 0 -0.41552429940294738 -0.011402213664737419 0 -0.44170164520326222 -0.01386498777376533 0 -0.43282219782417808 0.0067111543073615967 0 -0.41327717503754308 -0.036481544167953288 0 -0.4291942405461755 -0.02688948549895892 0 -0.41552429940294738 -0.011402213664737419 0 -0.41327717503754308 -0.036481544167953288 0 -0.41552429940294738 -0.011402213664737419 0 -0.39521171684373019 -0.02792200317183936 0 -0.41552429940294738 -0.011402213664737419 0 -0.39521171684373019 -0.02792200317183936 0 -0.38676228593091921 -0.0096889771908787482 0 -0.41552429940294738 -0.011402213664737419 0 -0.38676228593091921 -0.0096889771908787482 0 -0.40880063239782438 0.0064614529214151737 0 -0.36456756248231031 -0.0060988437326308671 0 -0.38676228593091921 -0.0096889771908787482 0 -0.36456756248231031 -0.0060988437326308671 0 -0.38676228593091921 -0.0096889771908787482 0 -0.37851880893388989 0.0058557856277009872 0 -0.37213347902921551 -0.030696478596289722 0 -0.39521171684373019 -0.02792200317183936 0 -0.38676228593091921 -0.0096889771908787482 0 -0.36861794646505569 -0.056808654818822059 0 -0.37213347902921551 -0.030696478596289722 0 -0.39295478511181092 -0.045761143513466447 0 -0.37213347902921551 -0.030696478596289722 0 -0.39521171684373019 -0.02792200317183936 0 -0.39295478511181092 -0.045761143513466447 0 -0.41327717503754308 -0.036481544167953288 0 -0.39521171684373019 -0.02792200317183936 0 -0.39295478511181092 -0.045761143513466447 0 -0.41717038724556599 -0.056573618860198398 0 -0.39295478511181092 -0.045761143513466447 0 -0.39131800604975497 -0.066084561465695843 0 -0.36861794646505569 -0.056808654818822059 0 -0.39295478511181092 -0.045761143513466447 0 -0.39131800604975497 -0.066084561465695843 0 -0.37317333675973641 -0.076838860864389291 0 -0.36861794646505569 -0.056808654818822059 0 -0.39131800604975497 -0.066084561465695843 0 -0.37317333675973641 -0.076838860864389291 0 -0.39368015533912948 -0.088364927505251545 0 -0.39131800604975497 -0.066084561465695843 0 -0.37395678160750789 -0.094619310834044221 0 -0.37317333675973641 -0.076838860864389291 0 -0.39368015533912948 -0.088364927505251545 0 -0.39368015533912948 -0.088364927505251545 0 -0.40796570843551883 -0.074435371491704608 0 -0.41535246486642008 -0.092118173653586669 0 -0.41717038724556599 -0.056573618860198398 0 -0.39131800604975497 -0.066084561465695843 0 -0.40796570843551883 -0.074435371491704608 0 -0.39368015533912948 -0.088364927505251545 0 -0.39131800604975497 -0.066084561465695843 0 -0.40796570843551883 -0.074435371491704608 0 -0.37173483673604091 -0.1139549048190531 0 -0.3851872658124374 -0.13251977329028991 0 -0.38883427890225208 -0.1085006492696495 0 -0.37395678160750789 -0.094619310834044221 0 -0.39368015533912948 -0.088364927505251545 0 -0.38883427890225208 -0.1085006492696495 0 -0.37395678160750789 -0.094619310834044221 0 -0.37173483673604091 -0.1139549048190531 0 -0.38883427890225208 -0.1085006492696495 0 -0.39368015533912948 -0.088364927505251545 0 -0.40770377754988291 -0.1096892648319843 0 -0.41535246486642008 -0.092118173653586669 0 -0.39368015533912948 -0.088364927505251545 0 -0.38883427890225208 -0.1085006492696495 0 -0.40770377754988291 -0.1096892648319843 0 -0.38883427890225208 -0.1085006492696495 0 -0.40097548697862417 -0.1237433445616898 0 -0.40770377754988291 -0.1096892648319843 0 -0.3851872658124374 -0.13251977329028991 0 -0.38883427890225208 -0.1085006492696495 0 -0.40097548697862417 -0.1237433445616898 0 -0.41935844104264919 -0.12551795179852551 0 -0.40097548697862417 -0.1237433445616898 0 -0.40770377754988291 -0.1096892648319843 0 -0.41935844104264919 -0.12551795179852551 0 -0.40770377754988291 -0.1096892648319843 0 -0.43077783316241242 -0.10348935106838041 0 -0.40770377754988291 -0.1096892648319843 0 -0.43077783316241242 -0.10348935106838041 0 -0.41535246486642008 -0.092118173653586669 0 -0.40770377754988291 -0.1096892648319843 0 -0.43077783316241242 -0.10348935106838041 0 -0.41935844104264919 -0.12551795179852551 0 -0.43077783316241242 -0.10348935106838041 0 -0.43832491721629241 -0.1229934523303141 0 -0.41717038724556599 -0.056573618860198398 0 -0.40796570843551883 -0.074435371491704608 0 -0.43783657661272912 -0.073457386591141219 0 -0.40796570843551883 -0.074435371491704608 0 -0.41535246486642008 -0.092118173653586669 0 -0.43783657661272912 -0.073457386591141219 0 -0.43077783316241242 -0.10348935106838041 0 -0.41535246486642008 -0.092118173653586669 0 -0.43783657661272912 -0.073457386591141219 0 -0.40796570843551883 -0.074435371491704608 0 -0.43783657661272912 -0.073457386591141219 0 -0.43783657661272912 -0.073457386591141219 0 -0.46770744478993931 -0.072479401690577844 0 -0.43077783316241242 -0.10348935106838041 0 -0.43783657661272912 -0.073457386591141219 0 -0.45385188877494181 -0.097289437304776433 0 -0.43783657661272912 -0.073457386591141219 0 -0.46326102839593342 -0.086270175059009094 0 -0.45385188877494181 -0.097289437304776433 0 -0.46326102839593342 -0.086270175059009094 0 -0.45385188877494181 -0.097289437304776433 0 -0.47692594438747132 -0.091089523541172474 0 -0.46326102839593342 -0.086270175059009094 0 -0.46770744478993931 -0.072479401690577844 0 -0.4723571208004182 -0.082245969900889837 0 -0.43783657661272912 -0.073457386591141219 0 -0.46770744478993931 -0.072479401690577844 0 -0.45742802159336571 -0.058873096714459568 0 -0.43783657661272912 -0.073457386591141219 0 -0.46326102839593342 -0.086270175059009094 0 -0.46770744478993931 -0.072479401690577844 0 -0.46770744478993931 -0.072479401690577844 0 -0.47109280957207722 -0.064200110108167702 0 -0.45742802159336571 -0.058873096714459568 0 -0.43077783316241242 -0.10348935106838041 0 -0.43832491721629241 -0.1229934523303141 0 -0.45398471116157302 -0.1165250113585506 0 -0.45241739407169113 -0.1327579342250203 0 -0.43832491721629241 -0.1229934523303141 0 -0.45398471116157302 -0.1165250113585506 0 -0.43077783316241242 -0.10348935106838041 0 -0.45385188877494181 -0.097289437304776433 0 -0.43077783316241242 -0.10348935106838041 0 -0.45385188877494181 -0.097289437304776433 0 -0.45398471116157302 -0.1165250113585506 0 -0.45385188877494181 -0.097289437304776433 0 -0.47692594438747132 -0.091089523541172474 0 -0.45385188877494181 -0.097289437304776433 0 -0.46993439746753751 -0.1107115970564006 0 -0.47410529814962338 -0.1016340075623484 0 -0.45385188877494181 -0.097289437304776433 0 -0.45398471116157302 -0.1165250113585506 0 -0.46993439746753751 -0.1107115970564006 0 -0.45385188877494181 -0.097289437304776433 0 -0.47410529814962338 -0.1016340075623484 0 -0.47692594438747132 -0.091089523541172474 0 -0.46358990834632868 -0.1283027919072236 0 -0.45398471116157302 -0.1165250113585506 0 -0.47202031163892888 -0.12254882597757449 0 -0.45398471116157302 -0.1165250113585506 0 -0.47202031163892888 -0.12254882597757449 0 -0.46993439746753751 -0.1107115970564006 0 -0.48333284374163349 -0.1281080542023717 0 -0.47940376165588061 -0.1185504474942734 0 -0.47202031163892888 -0.12254882597757449 0 -0.48333284374163349 -0.1281080542023717 0 -0.47940376165588061 -0.1185504474942734 0 -0.48598613902220561 -0.1224023592414782 0 -0.47940376165588061 -0.1185504474942734 0 -0.48199332309278831 -0.1111902017428722 0 -0.48598613902220561 -0.1224023592414782 0 -0.47940376165588061 -0.1185504474942734 0 -0.47202031163892888 -0.12254882597757449 0 -0.46993439746753751 -0.1107115970564006 0 -0.47940376165588061 -0.1185504474942734 0 -0.46993439746753751 -0.1107115970564006 0 -0.48199332309278831 -0.1111902017428722 0 -0.48199332309278831 -0.1111902017428722 0 -0.48378588744323853 -0.1020844045296745 0 -0.47410529814962338 -0.1016340075623484 0 -0.46993439746753751 -0.1107115970564006 0 -0.48199332309278831 -0.1111902017428722 0 -0.47410529814962338 -0.1016340075623484 0 -0.48378588744323853 -0.1020844045296745 0 -0.47692594438747132 -0.091089523541172474 0 -0.48905988215290153 -0.089784738649222484 0 -0.48378588744323853 -0.1020844045296745 0 -0.47410529814962338 -0.1016340075623484 0 -0.47692594438747132 -0.091089523541172474 0 -0.5 -0.11301405217281529 0 -0.49142021625787569 -0.114649277139032 0 -0.48905988215290153 -0.089784738649222484 0 -0.5 -0.11301405217281529 0 -0.48905988215290153 -0.089784738649222484 0 -0.50000000000000067 -0.084889609777568403 0 -0.49142021625787569 -0.114649277139032 0 -0.48905988215290153 -0.089784738649222484 0 -0.48378588744323853 -0.1020844045296745 0 -0.49142021625787569 -0.114649277139032 0 -0.48905988215290153 -0.089784738649222484 0 -0.48199332309278831 -0.1111902017428722 0 -0.48378588744323853 -0.1020844045296745 0 -0.49142021625787569 -0.114649277139032 0 -0.49378055036284979 -0.1395138156288416 0 -0.5 -0.11301405217281529 0 -0.49142021625787569 -0.114649277139032 0 -0.48199332309278831 -0.1111902017428722 0 -0.49142021625787569 -0.114649277139032 0 -0.48598613902220561 -0.1224023592414782 0 -0.48130265591181681 -0.072034288708983568 0 -0.47109280957207722 -0.064200110108167702 0 -0.47355196287296503 -0.054015517872303347 0 -0.46770744478993931 -0.072479401690577844 0 -0.48130265591181681 -0.072034288708983568 0 -0.48153406562832901 -0.079144779312799951 0 -0.46770744478993931 -0.072479401690577844 0 -0.48130265591181681 -0.072034288708983568 0 -0.47109280957207722 -0.064200110108167702 0 -0.46770744478993931 -0.072479401690577844 0 -0.4723571208004182 -0.082245969900889837 0 -0.48153406562832901 -0.079144779312799951 0 -0.46770744478993931 -0.072479401690577844 0 -0.48130265591181681 -0.072034288708983568 0 -0.46326102839593342 -0.086270175059009094 0 -0.4723571208004182 -0.082245969900889837 0 -0.47692594438747132 -0.091089523541172474 0 -0.47692594438747132 -0.091089523541172474 0 -0.48153406562832901 -0.079144779312799951 0 -0.48900958074573742 -0.081656332355388828 0 -0.4723571208004182 -0.082245969900889837 0 -0.47692594438747132 -0.091089523541172474 0 -0.48153406562832901 -0.079144779312799951 0 -0.47692594438747132 -0.091089523541172474 0 -0.48905988215290153 -0.089784738649222484 0 -0.50000000000000067 -0.084889609777568403 0 -0.47692594438747132 -0.091089523541172474 0 -0.50000000000000067 -0.084889609777568403 0 -0.47692594438747132 -0.091089523541172474 0 -0.48900958074573742 -0.081656332355388828 0 -0.50000000000000067 -0.084889609777568403 0 -0.48900958074573742 -0.081656332355388828 0 -0.50000000000000067 -0.084889609777568403 0 -0.49757831296714938 -0.071501416790014469 0 -0.48130265591181681 -0.072034288708983568 0 -0.48153406562832901 -0.079144779312799951 0 -0.49757831296714938 -0.071501416790014469 0 -0.50000000000000067 -0.084889609777568403 0 -0.49757831296714938 -0.071501416790014469 0 -0.5 -0.06335245231474218 0 -0.48153406562832901 -0.079144779312799951 0 -0.48900958074573742 -0.081656332355388828 0 -0.49757831296714938 -0.071501416790014469 0 -0.48130265591181681 -0.072034288708983568 0 -0.49757831296714938 -0.071501416790014469 0 -0.49031670079379192 -0.063839081985299362 0 -0.48130265591181681 -0.072034288708983568 0 -0.49757831296714938 -0.071501416790014469 0 -0.49757831296714938 -0.071501416790014469 0 -0.49031670079379192 -0.063839081985299362 0 -0.5 -0.06335245231474218 0 -0.48130265591181681 -0.072034288708983568 0 -0.49031670079379192 -0.063839081985299362 0 -0.49063976585020008 -0.045803068399025912 0 -0.49031670079379192 -0.063839081985299362 0 -0.5 -0.06335245231474218 0 -0.49447513971945128 -0.054559764143495587 0 -0.5 -0.06335245231474218 0 -0.49447513971945128 -0.054559764143495587 0 -0.5 -0.04181529485191593 0 -0.48130265591181681 -0.072034288708983568 0 -0.49063976585020008 -0.045803068399025912 0 -0.49031670079379192 -0.063839081985299362 0 -0.49447513971945128 -0.054559764143495587 0 -0.49063976585020008 -0.045803068399025912 0 -0.49447513971945128 -0.054559764143495587 0 -0.5 -0.04181529485191593 0 -0.49063976585020008 -0.045803068399025912 0 -0.5 -0.04181529485191593 0 -0.49063976585020008 -0.045803068399025912 0 -0.49999999999999872 -0.0202781373890897 0 -0.49063976585020008 -0.045803068399025912 0 -0.48622240514109272 -0.032667767681922637 0 -0.49999999999999872 -0.0202781373890897 0 -0.49063976585020008 -0.045803068399025912 0 -0.49999999999999872 -0.0202781373890897 0 -0.49063976585020008 -0.045803068399025912 0 -0.48622240514109272 -0.032667767681922637 0 -0.4775544655652999 -0.040459916536825832 0 -0.49063976585020008 -0.045803068399025912 0 -0.4775544655652999 -0.040459916536825832 0 -0.47355196287296503 -0.054015517872303347 0 -0.48622240514109272 -0.032667767681922637 0 -0.4775544655652999 -0.040459916536825832 0 -0.4766953891488705 -0.024129948402749169 0 -0.4775544655652999 -0.040459916536825832 0 -0.47355196287296503 -0.054015517872303347 0 -0.46050448994118559 -0.040542546977043292 0 -0.4775544655652999 -0.040459916536825832 0 -0.46050448994118559 -0.040542546977043292 0 -0.4766953891488705 -0.024129948402749169 0 -0.48130265591181681 -0.072034288708983568 0 -0.49063976585020008 -0.045803068399025912 0 -0.47355196287296503 -0.054015517872303347 0 -0.47355196287296503 -0.054015517872303347 0 -0.45742802159336571 -0.058873096714459568 0 -0.46050448994118559 -0.040542546977043292 0 -0.47109280957207722 -0.064200110108167702 0 -0.47355196287296503 -0.054015517872303347 0 -0.45742802159336571 -0.058873096714459568 0 -0.43521213479742471 -0.047726943533260617 0 -0.46050448994118559 -0.040542546977043292 0 -0.4442091172569762 -0.030813217984686239 0 -0.43521213479742471 -0.047726943533260617 0 -0.45742802159336571 -0.058873096714459568 0 -0.46050448994118559 -0.040542546977043292 0 -0.43521213479742471 -0.047726943533260617 0 -0.43783657661272912 -0.073457386591141219 0 -0.45742802159336571 -0.058873096714459568 0 -0.45046423092230142 -0.00032054793612165423 0 -0.44170164520326222 -0.01386498777376533 0 -0.45675615993061908 -0.018769056254026271 0 -0.45046423092230142 -0.00032054793612165423 0 -0.44170164520326222 -0.01386498777376533 0 -0.43282219782417808 0.0067111543073615967 0 -0.4291942405461755 -0.02688948549895892 0 -0.44170164520326222 -0.01386498777376533 0 -0.4442091172569762 -0.030813217984686239 0 -0.44170164520326222 -0.01386498777376533 0 -0.4442091172569762 -0.030813217984686239 0 -0.45675615993061908 -0.018769056254026271 0 -0.46050448994118559 -0.040542546977043292 0 -0.4442091172569762 -0.030813217984686239 0 -0.45675615993061908 -0.018769056254026271 0 -0.46050448994118559 -0.040542546977043292 0 -0.45675615993061908 -0.018769056254026271 0 -0.4766953891488705 -0.024129948402749169 0 -0.45046423092230142 -0.00032054793612165423 0 -0.45675615993061908 -0.018769056254026271 0 -0.46685733032710541 -0.002170707986364288 0 -0.45675615993061908 -0.018769056254026271 0 -0.46685733032710541 -0.002170707986364288 0 -0.4766953891488705 -0.024129948402749169 0 -0.46685733032710541 -0.002170707986364288 0 -0.48382833110561801 -0.003855456681043562 0 -0.4766953891488705 -0.024129948402749169 0 -0.48622240514109272 -0.032667767681922637 0 -0.4766953891488705 -0.024129948402749169 0 -0.49999999999999872 -0.0202781373890897 0 -0.48382833110561801 -0.003855456681043562 0 -0.4766953891488705 -0.024129948402749169 0 -0.49999999999999872 -0.0202781373890897 0 -0.48382833110561801 -0.003855456681043562 0 -0.49999999999999872 -0.0202781373890897 0 -0.5 0.0079601834970139951 0 -0.48382833110561801 -0.003855456681043562 0 -0.5 0.0079601834970139951 0 -0.47558893605211389 0.019341326875971329 0 -0.5 0.0079601834970139951 0 -0.47558893605211389 0.019341326875971329 0 -0.5 0.036198504383117669 0 -0.46685733032710541 -0.002170707986364288 0 -0.48382833110561801 -0.003855456681043562 0 -0.47558893605211389 0.019341326875971329 0 -0.5 0.036198504383117669 0 -0.47509377298368788 0.047080604386352691 0 -0.5 0.064436825269221343 0 -0.47509377298368788 0.047080604386352691 0 -0.47843366055100539 0.068836220332311931 0 -0.5 0.064436825269221343 0 -0.47558893605211389 0.019341326875971329 0 -0.5 0.036198504383117669 0 -0.47509377298368788 0.047080604386352691 0 -0.47509377298368788 0.047080604386352691 0 -0.45260707897071639 0.057447317259891197 0 -0.47509377298368788 0.047080604386352691 0 -0.45260707897071639 0.057447317259891197 0 -0.47843366055100539 0.068836220332311931 0 -0.47509377298368788 0.047080604386352691 0 -0.45075395227428622 0.037763388244366453 0 -0.45260707897071639 0.057447317259891197 0 -0.47558893605211389 0.019341326875971329 0 -0.47509377298368788 0.047080604386352691 0 -0.45075395227428622 0.037763388244366453 0 -0.45075395227428622 0.037763388244366453 0 -0.45260707897071639 0.057447317259891197 0 -0.42815954080382812 0.044793011862856343 0 -0.45075395227428622 0.037763388244366453 0 -0.43637107365479483 0.025879582161698601 0 -0.42815954080382812 0.044793011862856343 0 -0.46685733032710541 -0.002170707986364288 0 -0.47558893605211389 0.019341326875971329 0 -0.45264086780530699 0.016523928043463129 0 -0.45046423092230142 -0.00032054793612165423 0 -0.46685733032710541 -0.002170707986364288 0 -0.45264086780530699 0.016523928043463129 0 -0.47558893605211389 0.019341326875971329 0 -0.45075395227428622 0.037763388244366453 0 -0.45264086780530699 0.016523928043463129 0 -0.45264086780530699 0.016523928043463129 0 -0.43282219782417808 0.0067111543073615967 0 -0.43637107365479483 0.025879582161698601 0 -0.45075395227428622 0.037763388244366453 0 -0.45264086780530699 0.016523928043463129 0 -0.43637107365479483 0.025879582161698601 0 -0.45046423092230142 -0.00032054793612165423 0 -0.45264086780530699 0.016523928043463129 0 -0.43282219782417808 0.0067111543073615967 0 -0.43282219782417808 0.0067111543073615967 0 -0.40880063239782438 0.0064614529214151737 0 -0.41841358555083907 0.022696462200156579 0 -0.41552429940294738 -0.011402213664737419 0 -0.43282219782417808 0.0067111543073615967 0 -0.40880063239782438 0.0064614529214151737 0 -0.40880063239782438 0.0064614529214151737 0 -0.41841358555083907 0.022696462200156579 0 -0.40069628022349252 0.024507553508085731 0 -0.41841358555083907 0.022696462200156579 0 -0.4071263497141121 0.042425527710960233 0 -0.40069628022349252 0.024507553508085731 0 -0.43282219782417808 0.0067111543073615967 0 -0.41841358555083907 0.022696462200156579 0 -0.43637107365479483 0.025879582161698601 0 -0.41841358555083907 0.022696462200156579 0 -0.43637107365479483 0.025879582161698601 0 -0.42815954080382812 0.044793011862856343 0 -0.45260707897071639 0.057447317259891197 0 -0.42815954080382812 0.044793011862856343 0 -0.43012038495774513 0.067814030133429695 0 -0.42815954080382812 0.044793011862856343 0 -0.40960781810326119 0.061820013887040913 0 -0.43012038495774513 0.067814030133429695 0 -0.42815954080382812 0.044793011862856343 0 -0.40960781810326119 0.061820013887040913 0 -0.4071263497141121 0.042425527710960233 0 -0.41841358555083907 0.022696462200156579 0 -0.42815954080382812 0.044793011862856343 0 -0.4071263497141121 0.042425527710960233 0 -0.4071263497141121 0.042425527710960233 0 -0.38922493743855302 0.036922626219035727 0 -0.40069628022349252 0.024507553508085731 0 -0.4071263497141121 0.042425527710960233 0 -0.39495565641319857 0.053633986854003883 0 -0.38922493743855302 0.036922626219035727 0 -0.40960781810326119 0.061820013887040913 0 -0.4071263497141121 0.042425527710960233 0 -0.39495565641319857 0.053633986854003883 0 -0.40960781810326119 0.061820013887040913 0 -0.39495565641319857 0.053633986854003883 0 -0.40003556534852142 0.068964467700736137 0 -0.39495565641319857 0.053633986854003883 0 -0.38708910258723489 0.063716796063654144 0 -0.40003556534852142 0.068964467700736137 0 -0.39495565641319857 0.053633986854003883 0 -0.37973077195786142 0.052061776294690137 0 -0.38922493743855302 0.036922626219035727 0 -0.39495565641319857 0.053633986854003883 0 -0.37973077195786142 0.052061776294690137 0 -0.38708910258723489 0.063716796063654144 0 -0.37973077195786142 0.052061776294690137 0 -0.37666575935382879 0.066907963707994761 0 -0.38708910258723489 0.063716796063654144 0 -0.37973077195786142 0.052061776294690137 0 -0.38922493743855302 0.036922626219035727 0 -0.37274884129767788 0.035974001910163818 0 -0.38922493743855302 0.036922626219035727 0 -0.38296283187889207 0.022412192914518469 0 -0.37274884129767788 0.035974001910163818 0 -0.38296283187889207 0.022412192914518469 0 -0.37851880893388989 0.0058557856277009872 0 -0.36805969923601373 0.019294206343926711 0 -0.38676228593091921 -0.0096889771908787482 0 -0.37851880893388989 0.0058557856277009872 0 -0.3920587127826336 0.010359979038077741 0 -0.38296283187889207 0.022412192914518469 0 -0.37851880893388989 0.0058557856277009872 0 -0.3920587127826336 0.010359979038077741 0 -0.40880063239782438 0.0064614529214151737 0 -0.3920587127826336 0.010359979038077741 0 -0.40069628022349252 0.024507553508085731 0 -0.38676228593091921 -0.0096889771908787482 0 -0.40880063239782438 0.0064614529214151737 0 -0.3920587127826336 0.010359979038077741 0 -0.38922493743855302 0.036922626219035727 0 -0.38296283187889207 0.022412192914518469 0 -0.40069628022349252 0.024507553508085731 0 -0.38296283187889207 0.022412192914518469 0 -0.3920587127826336 0.010359979038077741 0 -0.40069628022349252 0.024507553508085731 0 -0.40495009106494623 0.1004212813184443 0 -0.39400305847102879 0.1124054923824209 0 -0.38345123666959458 0.105085813983875 0 -0.40495009106494623 0.1004212813184443 0 -0.38345123666959458 0.105085813983875 0 -0.39312542483917429 0.092075254187458114 0 -0.40495009106494623 0.1004212813184443 0 -0.39400305847102879 0.1124054923824209 0 -0.40226649118511998 0.1226618196299218 0 -0.40495009106494623 0.1004212813184443 0 -0.40226649118511998 0.1226618196299218 0 -0.39400305847102879 0.1124054923824209 0 -0.40226649118511998 0.1226618196299218 0 -0.38534441496445421 0.12145305459744241 0 -0.38534441496445421 0.12145305459744241 0 -0.38345123666959458 0.105085813983875 0 -0.3674004400436075 0.1179238570671524 0 -0.39400305847102879 0.1124054923824209 0 -0.38534441496445421 0.12145305459744241 0 -0.38345123666959458 0.105085813983875 0 -0.38345123666959458 0.105085813983875 0 -0.38046059034979479 0.094259139147089221 0 -0.36496273937373619 0.095928525573411833 0 -0.38345123666959458 0.105085813983875 0 -0.38046059034979479 0.094259139147089221 0 -0.39312542483917429 0.092075254187458114 0 -0.38046059034979479 0.094259139147089221 0 -0.38030296051667428 0.083946962843611944 0 -0.36496273937373619 0.095928525573411833 0 -0.38030296051667428 0.083946962843611944 0 -0.39025934432334491 0.075851190380410521 0 -0.39144924868662828 0.083150248995242482 0 -0.38030296051667428 0.083946962843611944 0 -0.39312542483917429 0.092075254187458114 0 -0.39144924868662828 0.083150248995242482 0 -0.38046059034979479 0.094259139147089221 0 -0.38030296051667428 0.083946962843611944 0 -0.39312542483917429 0.092075254187458114 0 -0.38030296051667428 0.083946962843611944 0 -0.37666575935382879 0.066907963707994761 0 -0.39025934432334491 0.075851190380410521 0 -0.37666575935382879 0.066907963707994761 0 -0.39025934432334491 0.075851190380410521 0 -0.38708910258723489 0.063716796063654144 0 -0.40960781810326119 0.061820013887040913 0 -0.40003556534852142 0.068964467700736137 0 -0.40763369094477298 0.078180743006966785 0 -0.39025934432334491 0.075851190380410521 0 -0.38708910258723489 0.063716796063654144 0 -0.40003556534852142 0.068964467700736137 0 -0.39025934432334491 0.075851190380410521 0 -0.40003556534852142 0.068964467700736137 0 -0.40210926506731998 0.080727588569489417 0 -0.40003556534852142 0.068964467700736137 0 -0.40210926506731998 0.080727588569489417 0 -0.40763369094477298 0.078180743006966785 0 -0.40495009106494623 0.1004212813184443 0 -0.40210926506731998 0.080727588569489417 0 -0.40763369094477298 0.078180743006966785 0 -0.40495009106494623 0.1004212813184443 0 -0.39312542483917429 0.092075254187458114 0 -0.40210926506731998 0.080727588569489417 0 -0.39025934432334491 0.075851190380410521 0 -0.39144924868662828 0.083150248995242482 0 -0.40210926506731998 0.080727588569489417 0 -0.39312542483917429 0.092075254187458114 0 -0.39144924868662828 0.083150248995242482 0 -0.40210926506731998 0.080727588569489417 0 -0.40210926506731998 0.080727588569489417 0 -0.40763369094477298 0.078180743006966785 0 -0.40495009106494623 0.1004212813184443 0 -0.40763369094477298 0.078180743006966785 0 -0.40495009106494623 0.1004212813184443 0 -0.41397106844912562 0.089758422889764378 0 -0.40763369094477298 0.078180743006966785 0 -0.41397106844912562 0.089758422889764378 0 -0.40763369094477298 0.078180743006966785 0 -0.42050735984259158 0.081753488202163965 0 -0.41397106844912562 0.089758422889764378 0 -0.42050735984259158 0.081753488202163965 0 -0.42126151229565761 0.090353862898330389 0 -0.41397106844912562 0.089758422889764378 0 -0.42126151229565761 0.090353862898330389 0 -0.41705285942107773 0.09930415968973394 0 -0.40960781810326119 0.061820013887040913 0 -0.40763369094477298 0.078180743006966785 0 -0.43012038495774513 0.067814030133429695 0 -0.40763369094477298 0.078180743006966785 0 -0.43012038495774513 0.067814030133429695 0 -0.40763369094477298 0.078180743006966785 0 -0.42050735984259158 0.081753488202163965 0 -0.43012038495774513 0.067814030133429695 0 -0.40960781810326119 0.061820013887040913 0 -0.40763369094477298 0.078180743006966785 0 -0.43012038495774513 0.067814030133429695 0 -0.42955014256565632 0.082660382082328579 0 -0.44030840761237922 0.083660447793297871 0 -0.42050735984259158 0.081753488202163965 0 -0.43012038495774513 0.067814030133429695 0 -0.42955014256565632 0.082660382082328579 0 -0.42126151229565761 0.090353862898330389 0 -0.42955014256565632 0.082660382082328579 0 -0.42896453480772923 0.095801735797187496 0 -0.42050735984259158 0.081753488202163965 0 -0.42126151229565761 0.090353862898330389 0 -0.42955014256565632 0.082660382082328579 0 -0.42955014256565632 0.082660382082328579 0 -0.42896453480772923 0.095801735797187496 0 -0.44030840761237922 0.083660447793297871 0 -0.42896453480772923 0.095801735797187496 0 -0.44005354258077689 0.1024976397835597 0 -0.44030840761237922 0.083660447793297871 0 -0.42357298626237738 0.1076352241664712 0 -0.42896453480772923 0.095801735797187496 0 -0.44005354258077689 0.1024976397835597 0 -0.42357298626237738 0.1076352241664712 0 -0.42896453480772923 0.095801735797187496 0 -0.41705285942107773 0.09930415968973394 0 -0.42126151229565761 0.090353862898330389 0 -0.42896453480772923 0.095801735797187496 0 -0.41705285942107773 0.09930415968973394 0 -0.42357298626237738 0.1076352241664712 0 -0.41705285942107773 0.09930415968973394 0 -0.41210134986786978 0.1122692803166629 0 -0.40495009106494623 0.1004212813184443 0 -0.41705285942107773 0.09930415968973394 0 -0.41210134986786978 0.1122692803166629 0 -0.40495009106494623 0.1004212813184443 0 -0.41397106844912562 0.089758422889764378 0 -0.41705285942107773 0.09930415968973394 0 -0.40495009106494623 0.1004212813184443 0 -0.40226649118511998 0.1226618196299218 0 -0.41210134986786978 0.1122692803166629 0 -0.42357298626237738 0.1076352241664712 0 -0.41210134986786978 0.1122692803166629 0 -0.41981821694303612 0.1236999988624799 0 -0.40226649118511998 0.1226618196299218 0 -0.41210134986786978 0.1122692803166629 0 -0.41981821694303612 0.1236999988624799 0 -0.42357298626237738 0.1076352241664712 0 -0.41981821694303612 0.1236999988624799 0 -0.44005354258077689 0.1024976397835597 0 -0.41981821694303612 0.1236999988624799 0 -0.43311644820242401 0.12407748064960809 0 -0.44005354258077689 0.1024976397835597 0 -0.41981821694303612 0.1236999988624799 0 -0.44005354258077689 0.1024976397835597 0 -0.44434416775589952 0.1169413920321461 0 -0.45939103385233088 0.12040456688098 0 -0.45519181133942987 0.134278530838774 0 -0.43311644820242401 0.12407748064960809 0 -0.44434416775589952 0.1169413920321461 0 -0.44005354258077689 0.1024976397835597 0 -0.44434416775589952 0.1169413920321461 0 -0.44005354258077689 0.1024976397835597 0 -0.4600607553832835 0.1040622460605347 0 -0.44005354258077689 0.1024976397835597 0 -0.4600607553832835 0.1040622460605347 0 -0.46028886821851772 0.081295280704639497 0 -0.44434416775589952 0.1169413920321461 0 -0.4600607553832835 0.1040622460605347 0 -0.45939103385233088 0.12040456688098 0 -0.4600607553832835 0.1040622460605347 0 -0.45939103385233088 0.12040456688098 0 -0.47800638999255929 0.1145914373230794 0 -0.45939103385233088 0.12040456688098 0 -0.47800638999255929 0.1145914373230794 0 -0.46850097823779369 0.13323507898744941 0 -0.45260707897071639 0.057447317259891197 0 -0.44030840761237922 0.083660447793297871 0 -0.46028886821851772 0.081295280704639497 0 -0.45260707897071639 0.057447317259891197 0 -0.43012038495774513 0.067814030133429695 0 -0.45260707897071639 0.057447317259891197 0 -0.43012038495774513 0.067814030133429695 0 -0.44030840761237922 0.083660447793297871 0 -0.44005354258077689 0.1024976397835597 0 -0.44030840761237922 0.083660447793297871 0 -0.46028886821851772 0.081295280704639497 0 -0.44005354258077689 0.1024976397835597 0 -0.46028886821851772 0.081295280704639497 0 -0.4600607553832835 0.1040622460605347 0 -0.46028886821851772 0.081295280704639497 0 -0.47535793482907318 0.092292066115178137 0 -0.45260707897071639 0.057447317259891197 0 -0.46028886821851772 0.081295280704639497 0 -0.47843366055100539 0.068836220332311931 0 -0.46028886821851772 0.081295280704639497 0 -0.47843366055100539 0.068836220332311931 0 -0.47535793482907318 0.092292066115178137 0 -0.47843366055100539 0.068836220332311931 0 -0.47535793482907318 0.092292066115178137 0 -0.5 0.092675146155325128 0 -0.47843366055100539 0.068836220332311931 0 -0.5 0.092675146155325128 0 -0.5 0.064436825269221343 0 -0.4600607553832835 0.1040622460605347 0 -0.47535793482907318 0.092292066115178137 0 -0.47800638999255929 0.1145914373230794 0 -0.47535793482907318 0.092292066115178137 0 -0.5 0.092675146155325128 0 -0.47800638999255929 0.1145914373230794 0 -0.47800638999255929 0.1145914373230794 0 -0.49999999999999922 0.1209134670414289 0 -0.48301972746147909 0.13626456834341549 0 -0.5 0.092675146155325128 0 -0.47800638999255929 0.1145914373230794 0 -0.49999999999999922 0.1209134670414289 0 -0.49999999999999922 0.1209134670414289 0 -0.48301972746147909 0.13626456834341549 0 -0.49999999999999922 0.1209134670414289 0 -0.48301972746147909 0.13626456834341549 0 -0.5 0.14361908481290289 0 -0.47800638999255929 0.1145914373230794 0 -0.48301972746147909 0.13626456834341549 0 -0.46850097823779369 0.13323507898744941 0 -0.48301972746147909 0.13626456834341549 0 -0.46850097823779369 0.13323507898744941 0 -0.46603945492295962 0.15161566964540249 0 -0.48301972746147909 0.13626456834341549 0 -0.4780661181882 0.15082384395577761 0 -0.49056495908786729 0.15454697727008571 0 -0.48301972746147909 0.13626456834341549 0 -0.4780661181882 0.15082384395577761 0 -0.46603945492295962 0.15161566964540249 0 -0.48301972746147909 0.13626456834341549 0 -0.46603945492295962 0.15161566964540249 0 -0.49056495908786729 0.15454697727008571 0 -0.5 0.14361908481290289 0 -0.5 0.1663247025843769 0 -0.48301972746147909 0.13626456834341549 0 -0.49056495908786729 0.15454697727008571 0 -0.5 0.14361908481290289 0 -0.49056495908786729 0.15454697727008571 0 -0.5 0.1663247025843769 0 -0.47733300497046088 0.1696654740370582 0 -0.47733300497046088 0.1696654740370582 0 -0.49329057704314277 0.19516950538824321 0 -0.47733300497046088 0.1696654740370582 0 -0.49999999999999961 0.18903032035585091 0 -0.49329057704314277 0.19516950538824321 0 -0.5 0.1663247025843769 0 -0.47733300497046088 0.1696654740370582 0 -0.49999999999999961 0.18903032035585091 0 -0.47733300497046088 0.1696654740370582 0 -0.46327654030959292 0.176570080997485 0 -0.47652396713247741 0.1904584311085758 0 -0.47733300497046088 0.1696654740370582 0 -0.47652396713247741 0.1904584311085758 0 -0.47733300497046088 0.1696654740370582 0 -0.49329057704314277 0.19516950538824321 0 -0.47652396713247741 0.1904584311085758 0 -0.4780661181882 0.15082384395577761 0 -0.49056495908786729 0.15454697727008571 0 -0.47733300497046088 0.1696654740370582 0 -0.4780661181882 0.15082384395577761 0 -0.47733300497046088 0.1696654740370582 0 -0.4780661181882 0.15082384395577761 0 -0.47733300497046088 0.1696654740370582 0 -0.46603945492295962 0.15161566964540249 0 -0.47733300497046088 0.1696654740370582 0 -0.46603945492295962 0.15161566964540249 0 -0.47733300497046088 0.1696654740370582 0 -0.45589279629698021 0.16078880771434331 0 -0.46327654030959292 0.176570080997485 0 -0.47733300497046088 0.1696654740370582 0 -0.45589279629698021 0.16078880771434331 0 -0.46603945492295962 0.15161566964540249 0 -0.45589279629698021 0.16078880771434331 0 -0.46327654030959292 0.176570080997485 0 -0.44990115562268962 0.17180049988919671 0 -0.46327654030959292 0.176570080997485 0 -0.47652396713247741 0.1904584311085758 0 -0.46114479096031719 0.18954507769189341 0 -0.46327654030959292 0.176570080997485 0 -0.45224359966537092 0.18351502067301151 0 -0.44990115562268962 0.17180049988919671 0 -0.46327654030959292 0.176570080997485 0 -0.45224359966537092 0.18351502067301151 0 -0.46114479096031719 0.18954507769189341 0 -0.45224359966537092 0.18351502067301151 0 -0.4410965073585425 0.18070355387376771 0 -0.44564963057427898 0.18831227916219409 0 -0.45224359966537092 0.18351502067301151 0 -0.4410965073585425 0.18070355387376771 0 -0.44990115562268962 0.17180049988919671 0 -0.4410965073585425 0.18070355387376771 0 -0.43931130165638749 0.16833053293779171 0 -0.43237701936782819 0.17481663280639539 0 -0.4410965073585425 0.18070355387376771 0 -0.44990115562268962 0.17180049988919671 0 -0.43931130165638749 0.16833053293779171 0 -0.45589279629698021 0.16078880771434331 0 -0.44621137077963602 0.1612374005541401 0 -0.45249388939349861 0.15003661455475781 0 -0.45589279629698021 0.16078880771434331 0 -0.44621137077963602 0.1612374005541401 0 -0.44990115562268962 0.17180049988919671 0 -0.44621137077963602 0.1612374005541401 0 -0.44990115562268962 0.17180049988919671 0 -0.43931130165638749 0.16833053293779171 0 -0.44621137077963602 0.1612374005541401 0 -0.44300552671833371 0.15243430090241181 0 -0.4353645324221268 0.1596530313096384 0 -0.44621137077963602 0.1612374005541401 0 -0.43931130165638749 0.16833053293779171 0 -0.4353645324221268 0.1596530313096384 0 -0.45249388939349861 0.15003661455475781 0 -0.44482765688262388 0.14342477889439709 0 -0.45519181133942987 0.134278530838774 0 -0.44300552671833371 0.15243430090241181 0 -0.43576314317726078 0.14812296306806599 0 -0.4353645324221268 0.1596530313096384 0 -0.44300552671833371 0.15243430090241181 0 -0.45249388939349861 0.15003661455475781 0 -0.44482765688262388 0.14342477889439709 0 -0.44621137077963602 0.1612374005541401 0 -0.44300552671833371 0.15243430090241181 0 -0.45249388939349861 0.15003661455475781 0 -0.44300552671833371 0.15243430090241181 0 -0.44482765688262388 0.14342477889439709 0 -0.43576314317726078 0.14812296306806599 0 -0.44482765688262388 0.14342477889439709 0 -0.43761803836977292 0.13493628483109721 0 -0.43576314317726078 0.14812296306806599 0 -0.44434416775589952 0.1169413920321461 0 -0.45519181133942987 0.134278530838774 0 -0.44434416775589952 0.1169413920321461 0 -0.43761803836977292 0.13493628483109721 0 -0.45519181133942987 0.134278530838774 0 -0.44482765688262388 0.14342477889439709 0 -0.43761803836977292 0.13493628483109721 0 -0.45519181133942987 0.134278530838774 0 -0.43311644820242401 0.12407748064960809 0 -0.44434416775589952 0.1169413920321461 0 -0.43761803836977292 0.13493628483109721 0 -0.45519181133942987 0.134278530838774 0 -0.46850097823779369 0.13323507898744941 0 -0.46603945492295962 0.15161566964540249 0 -0.45939103385233088 0.12040456688098 0 -0.45519181133942987 0.134278530838774 0 -0.46850097823779369 0.13323507898744941 0 -0.45519181133942987 0.134278530838774 0 -0.46603945492295962 0.15161566964540249 0 -0.45249388939349861 0.15003661455475781 0 -0.45519181133942987 0.134278530838774 0 -0.46603945492295962 0.15161566964540249 0 -0.45589279629698021 0.16078880771434331 0 -0.46603945492295962 0.15161566964540249 0 -0.45589279629698021 0.16078880771434331 0 -0.45249388939349861 0.15003661455475781 0 -0.46603945492295962 0.15161566964540249 0 -0.4747252934195485 0.2366858676297777 0 -0.4864582281214031 0.24789642101710549 0 -0.47110761906606391 0.26377519469504229 0 -0.4864582281214031 0.24789642101710549 0 -0.5 0.23233913195031999 0 -0.50000000000000466 0.25878548979328192 0 -0.4747252934195485 0.2366858676297777 0 -0.4864582281214031 0.24789642101710549 0 -0.5 0.23233913195031999 0 -0.4747252934195485 0.2366858676297777 0 -0.48761005567851018 0.22154229046688731 0 -0.5 0.23233913195031999 0 -0.48761005567851018 0.22154229046688731 0 -0.5 0.23233913195031999 0 -0.49999999999999922 0.20589277410735821 0 -0.4747252934195485 0.2366858676297777 0 -0.47571492929449388 0.21125138818009351 0 -0.46776591732321238 0.21852480880511571 0 -0.4747252934195485 0.2366858676297777 0 -0.48761005567851018 0.22154229046688731 0 -0.47571492929449388 0.21125138818009351 0 -0.4747252934195485 0.2366858676297777 0 -0.47571492929449388 0.21125138818009351 0 -0.47571492929449388 0.21125138818009351 0 -0.46776591732321238 0.21852480880511571 0 -0.48761005567851018 0.22154229046688731 0 -0.47571492929449388 0.21125138818009351 0 -0.49999999999999922 0.20589277410735821 0 -0.47571492929449388 0.21125138818009351 0 -0.49329057704314277 0.19516950538824321 0 -0.47571492929449388 0.21125138818009351 0 -0.49999999999999922 0.20589277410735821 0 -0.49329057704314277 0.19516950538824321 0 -0.49999999999999922 0.20589277410735821 0 -0.49999999999999961 0.18903032035585091 0 -0.49329057704314277 0.19516950538824321 0 -0.49999999999999922 0.20589277410735821 0 -0.49329057704314277 0.19516950538824321 0 -0.49999999999999961 0.18903032035585091 0 -0.49329057704314277 0.19516950538824321 0 -0.47571492929449388 0.21125138818009351 0 -0.49329057704314277 0.19516950538824321 0 -0.47652396713247741 0.1904584311085758 0 -0.47571492929449388 0.21125138818009351 0 -0.47652396713247741 0.1904584311085758 0 -0.46196545832800051 0.20293131932713049 0 -0.47571492929449388 0.21125138818009351 0 -0.47652396713247741 0.1904584311085758 0 -0.47652396713247741 0.1904584311085758 0 -0.46114479096031719 0.18954507769189341 0 -0.46196545832800051 0.20293131932713049 0 -0.46114479096031719 0.18954507769189341 0 -0.46196545832800051 0.20293131932713049 0 -0.45056509644787018 0.1953534573826339 0 -0.46196545832800051 0.20293131932713049 0 -0.45056509644787018 0.1953534573826339 0 -0.45240672613542532 0.20780687277216561 0 -0.45224359966537092 0.18351502067301151 0 -0.46114479096031719 0.18954507769189341 0 -0.45056509644787018 0.1953534573826339 0 -0.45224359966537092 0.18351502067301151 0 -0.44564963057427898 0.18831227916219409 0 -0.45056509644787018 0.1953534573826339 0 -0.44564963057427898 0.18831227916219409 0 -0.43869331882533241 0.1936770847193634 0 -0.45056509644787018 0.1953534573826339 0 -0.4410965073585425 0.18070355387376771 0 -0.44564963057427898 0.18831227916219409 0 -0.43869331882533241 0.1936770847193634 0 -0.43869331882533241 0.1936770847193634 0 -0.44450911792220738 0.20348647851535259 0 -0.43545116840085701 0.20462441732921971 0 -0.43869331882533241 0.1936770847193634 0 -0.45056509644787018 0.1953534573826339 0 -0.44450911792220738 0.20348647851535259 0 -0.45056509644787018 0.1953534573826339 0 -0.45240672613542532 0.20780687277216561 0 -0.44450911792220738 0.20348647851535259 0 -0.45240672613542532 0.20780687277216561 0 -0.44450911792220738 0.20348647851535259 0 -0.44365716198064981 0.2124032227651442 0 -0.44365716198064981 0.2124032227651442 0 -0.43567220442284432 0.21441462362689381 0 -0.43545116840085701 0.20462441732921971 0 -0.44450911792220738 0.20348647851535259 0 -0.44365716198064981 0.2124032227651442 0 -0.43545116840085701 0.20462441732921971 0 -0.44365716198064981 0.2124032227651442 0 -0.43962766476634701 0.2216314668164571 0 -0.43567220442284432 0.21441462362689381 0 -0.44365716198064981 0.2124032227651442 0 -0.45288206532675551 0.2199110687674101 0 -0.43962766476634701 0.2216314668164571 0 -0.45240672613542532 0.20780687277216561 0 -0.44365716198064981 0.2124032227651442 0 -0.45288206532675551 0.2199110687674101 0 -0.46086145680706808 0.21275568987532281 0 -0.46776591732321238 0.21852480880511571 0 -0.45288206532675551 0.2199110687674101 0 -0.45240672613542532 0.20780687277216561 0 -0.46086145680706808 0.21275568987532281 0 -0.45288206532675551 0.2199110687674101 0 -0.46196545832800051 0.20293131932713049 0 -0.45240672613542532 0.20780687277216561 0 -0.46086145680706808 0.21275568987532281 0 -0.47571492929449388 0.21125138818009351 0 -0.46196545832800051 0.20293131932713049 0 -0.46086145680706808 0.21275568987532281 0 -0.47571492929449388 0.21125138818009351 0 -0.46086145680706808 0.21275568987532281 0 -0.46776591732321238 0.21852480880511571 0 -0.4747252934195485 0.2366858676297777 0 -0.46776591732321238 0.21852480880511571 0 -0.45898113570831589 0.23134546406602291 0 -0.46776591732321238 0.21852480880511571 0 -0.45898113570831589 0.23134546406602291 0 -0.45288206532675551 0.2199110687674101 0 -0.45288206532675551 0.2199110687674101 0 -0.43962766476634701 0.2216314668164571 0 -0.44548738532427939 0.23139283709066841 0 -0.44548738532427939 0.23139283709066841 0 -0.43832336990594117 0.2411603305761349 0 -0.43304895553031841 0.22977138819329321 0 -0.43962766476634701 0.2216314668164571 0 -0.44548738532427939 0.23139283709066841 0 -0.43304895553031841 0.22977138819329321 0 -0.45898113570831589 0.23134546406602291 0 -0.45288206532675551 0.2199110687674101 0 -0.44548738532427939 0.23139283709066841 0 -0.45898113570831589 0.23134546406602291 0 -0.44548738532427939 0.23139283709066841 0 -0.45225919446382767 0.2469585194357036 0 -0.44548738532427939 0.23139283709066841 0 -0.43832336990594117 0.2411603305761349 0 -0.45225919446382767 0.2469585194357036 0 -0.43832336990594117 0.2411603305761349 0 -0.45225919446382767 0.2469585194357036 0 -0.43489938255193511 0.25339869357052103 0 -0.4747252934195485 0.2366858676297777 0 -0.45225919446382767 0.2469585194357036 0 -0.47110761906606391 0.26377519469504229 0 -0.4747252934195485 0.2366858676297777 0 -0.45898113570831589 0.23134546406602291 0 -0.45225919446382767 0.2469585194357036 0 -0.41419508274048672 0.24718566810885911 0 -0.42480762156486868 0.24193369551973459 0 -0.42053927380911449 0.25816862458371881 0 -0.41341734640450961 0.2369120430056775 0 -0.41419508274048672 0.24718566810885911 0 -0.40544112445214858 0.24378105236840311 0 -0.41419508274048672 0.24718566810885911 0 -0.40544112445214858 0.24378105236840311 0 -0.40677004747179191 0.25513292506676172 0 -0.41341734640450961 0.2369120430056775 0 -0.40303757320313738 0.23453816662219479 0 -0.40544112445214858 0.24378105236840311 0 -0.41341734640450961 0.2369120430056775 0 -0.42480762156486868 0.24193369551973459 0 -0.4211935865153057 0.22760767956746719 0 -0.41341734640450961 0.2369120430056775 0 -0.41419508274048672 0.24718566810885911 0 -0.42480762156486868 0.24193369551973459 0 -0.43832336990594117 0.2411603305761349 0 -0.42480762156486868 0.24193369551973459 0 -0.43489938255193511 0.25339869357052103 0 -0.43832336990594117 0.2411603305761349 0 -0.42480762156486868 0.24193369551973459 0 -0.43304895553031841 0.22977138819329321 0 -0.42480762156486868 0.24193369551973459 0 -0.43304895553031841 0.22977138819329321 0 -0.4211935865153057 0.22760767956746719 0 -0.43962766476634701 0.2216314668164571 0 -0.43304895553031841 0.22977138819329321 0 -0.4298411866241465 0.22043987208587429 0 -0.43962766476634701 0.2216314668164571 0 -0.4298411866241465 0.22043987208587429 0 -0.43567220442284432 0.21441462362689381 0 -0.4298411866241465 0.22043987208587429 0 -0.4211935865153057 0.22760767956746719 0 -0.4218587979985674 0.2173034890774766 0 -0.43304895553031841 0.22977138819329321 0 -0.4298411866241465 0.22043987208587429 0 -0.4211935865153057 0.22760767956746719 0 -0.41482919593942941 0.22034326722088821 0 -0.4211935865153057 0.22760767956746719 0 -0.4218587979985674 0.2173034890774766 0 -0.41482919593942941 0.22034326722088821 0 -0.4211935865153057 0.22760767956746719 0 -0.41014060789960682 0.22736786548601681 0 -0.41341734640450961 0.2369120430056775 0 -0.4211935865153057 0.22760767956746719 0 -0.41014060789960682 0.22736786548601681 0 -0.41341734640450961 0.2369120430056775 0 -0.41014060789960682 0.22736786548601681 0 -0.40303757320313738 0.23453816662219479 0 -0.41482919593942941 0.22034326722088821 0 -0.41014060789960682 0.22736786548601681 0 -0.40697456226429579 0.2186930826240833 0 -0.41482919593942941 0.22034326722088821 0 -0.41133131710229909 0.21163742818661541 0 -0.40697456226429579 0.2186930826240833 0 -0.41133131710229909 0.21163742818661541 0 -0.40697456226429579 0.2186930826240833 0 -0.40431415010515359 0.21323986659178959 0 -0.41133131710229909 0.21163742818661541 0 -0.40320811132935053 0.20718039940010161 0 -0.40431415010515359 0.21323986659178959 0 -0.41133131710229909 0.21163742818661541 0 -0.41229292979429372 0.2037041580533179 0 -0.40320811132935053 0.20718039940010161 0 -0.41229292979429372 0.2037041580533179 0 -0.42003903462185471 0.20904143091400959 0 -0.41962152140879327 0.2008391644252546 0 -0.41133131710229909 0.21163742818661541 0 -0.41229292979429372 0.2037041580533179 0 -0.42003903462185471 0.20904143091400959 0 -0.41133131710229909 0.21163742818661541 0 -0.42003903462185471 0.20904143091400959 0 -0.41689474877383581 0.21450957496436049 0 -0.42003903462185471 0.20904143091400959 0 -0.41689474877383581 0.21450957496436049 0 -0.4218587979985674 0.2173034890774766 0 -0.41482919593942941 0.22034326722088821 0 -0.41133131710229909 0.21163742818661541 0 -0.41689474877383581 0.21450957496436049 0 -0.41482919593942941 0.22034326722088821 0 -0.41689474877383581 0.21450957496436049 0 -0.4218587979985674 0.2173034890774766 0 -0.4298411866241465 0.22043987208587429 0 -0.4218587979985674 0.2173034890774766 0 -0.42764591051149642 0.21191058523365791 0 -0.42003903462185471 0.20904143091400959 0 -0.4218587979985674 0.2173034890774766 0 -0.42764591051149642 0.21191058523365791 0 -0.4298411866241465 0.22043987208587429 0 -0.42764591051149642 0.21191058523365791 0 -0.43567220442284432 0.21441462362689381 0 -0.42764591051149642 0.21191058523365791 0 -0.43567220442284432 0.21441462362689381 0 -0.43545116840085701 0.20462441732921971 0 -0.42764591051149642 0.21191058523365791 0 -0.43545116840085701 0.20462441732921971 0 -0.4275218910892371 0.20230195720951299 0 -0.42003903462185471 0.20904143091400959 0 -0.42764591051149642 0.21191058523365791 0 -0.4275218910892371 0.20230195720951299 0 -0.42003903462185471 0.20904143091400959 0 -0.4275218910892371 0.20230195720951299 0 -0.41962152140879327 0.2008391644252546 0 -0.4275218910892371 0.20230195720951299 0 -0.42276212736433288 0.1937167162556965 0 -0.41962152140879327 0.2008391644252546 0 -0.4275218910892371 0.20230195720951299 0 -0.43045857405423188 0.19417696923461331 0 -0.42276212736433288 0.1937167162556965 0 -0.43545116840085701 0.20462441732921971 0 -0.4275218910892371 0.20230195720951299 0 -0.43045857405423188 0.19417696923461331 0 -0.43869331882533241 0.1936770847193634 0 -0.43545116840085701 0.20462441732921971 0 -0.43045857405423188 0.19417696923461331 0 -0.43869331882533241 0.1936770847193634 0 -0.43045857405423188 0.19417696923461331 0 -0.42923085195241151 0.1853548576292057 0 -0.42276212736433288 0.1937167162556965 0 -0.42923085195241151 0.1853548576292057 0 -0.41651766921955902 0.1842120236336004 0 -0.43045857405423188 0.19417696923461331 0 -0.42276212736433288 0.1937167162556965 0 -0.42923085195241151 0.1853548576292057 0 -0.42276212736433288 0.1937167162556965 0 -0.41354669995737031 0.1954188345124622 0 -0.41651766921955902 0.1842120236336004 0 -0.42276212736433288 0.1937167162556965 0 -0.41962152140879327 0.2008391644252546 0 -0.41354669995737031 0.1954188345124622 0 -0.41229292979429372 0.2037041580533179 0 -0.41962152140879327 0.2008391644252546 0 -0.41354669995737031 0.1954188345124622 0 -0.41229292979429372 0.2037041580533179 0 -0.41354669995737031 0.1954188345124622 0 -0.40503843223765529 0.19810132829082749 0 -0.41229292979429372 0.2037041580533179 0 -0.40503843223765529 0.19810132829082749 0 -0.40320811132935053 0.20718039940010161 0 -0.41354669995737031 0.1954188345124622 0 -0.40562461189000221 0.18807674530374369 0 -0.40503843223765529 0.19810132829082749 0 -0.41354669995737031 0.1954188345124622 0 -0.40562461189000221 0.18807674530374369 0 -0.41651766921955902 0.1842120236336004 0 -0.40562461189000221 0.18807674530374369 0 -0.40503843223765529 0.19810132829082749 0 -0.39590756620514672 0.191686225856153 0 -0.40503843223765529 0.19810132829082749 0 -0.39706416214998519 0.20069111578141541 0 -0.40320811132935053 0.20718039940010161 0 -0.40503843223765529 0.19810132829082749 0 -0.39706416214998519 0.20069111578141541 0 -0.39590756620514672 0.191686225856153 0 -0.39706416214998519 0.20069111578141541 0 -0.39590756620514672 0.191686225856153 0 -0.38993159976637759 0.20169510289004769 0 -0.39590756620514672 0.191686225856153 0 -0.3876470526797508 0.19139562594504439 0 -0.39042064177229879 0.18415210355266029 0 -0.39590756620514672 0.191686225856153 0 -0.3876470526797508 0.19139562594504439 0 -0.38993159976637759 0.20169510289004769 0 -0.37595974106493962 0.1951542839385596 0 -0.38113030046570612 0.19981545171747439 0 -0.38370496680569488 0.17126756647080049 0 -0.3876470526797508 0.19139562594504439 0 -0.38113030046570612 0.19981545171747439 0 -0.38993159976637759 0.20169510289004769 0 -0.38113030046570612 0.19981545171747439 0 -0.38993159976637759 0.20169510289004769 0 -0.3862656554765993 0.2064074834642845 0 -0.38113030046570612 0.19981545171747439 0 -0.37922557978225491 0.2209349834616797 0 -0.38993159976637759 0.20169510289004769 0 -0.38897062082841061 0.20917862061353801 0 -0.3862656554765993 0.2064074834642845 0 -0.38113030046570612 0.19981545171747439 0 -0.3862656554765993 0.2064074834642845 0 -0.38503010084590322 0.21494075863607801 0 -0.37595974106493962 0.1951542839385596 0 -0.37922557978225491 0.2209349834616797 0 -0.37595974106493962 0.1951542839385596 0 -0.37922557978225491 0.2209349834616797 0 -0.37291371999479739 0.2063004324965492 0 -0.38897062082841061 0.20917862061353801 0 -0.3862656554765993 0.2064074834642845 0 -0.38503010084590322 0.21494075863607801 0 -0.37595974106493962 0.1951542839385596 0 -0.38113030046570612 0.19981545171747439 0 -0.37922557978225491 0.2209349834616797 0 -0.38113030046570612 0.19981545171747439 0 -0.38503010084590322 0.21494075863607801 0 -0.37922557978225491 0.2209349834616797 0 -0.38897062082841061 0.20917862061353801 0 -0.38503010084590322 0.21494075863607801 0 -0.39203998304967291 0.2156166828598349 0 -0.38503010084590322 0.21494075863607801 0 -0.39203998304967291 0.2156166828598349 0 -0.38845511163015323 0.2214922693344952 0 -0.39203998304967291 0.2156166828598349 0 -0.39637782483578982 0.20925235353023389 0 -0.39911614662157818 0.21716468657491 0 -0.39203998304967291 0.2156166828598349 0 -0.39911614662157818 0.21716468657491 0 -0.39489420725288532 0.2214580365365956 0 -0.38897062082841061 0.20917862061353801 0 -0.39203998304967291 0.2156166828598349 0 -0.39637782483578982 0.20925235353023389 0 -0.39706416214998519 0.20069111578141541 0 -0.38993159976637759 0.20169510289004769 0 -0.39637782483578982 0.20925235353023389 0 -0.38993159976637759 0.20169510289004769 0 -0.38897062082841061 0.20917862061353801 0 -0.39637782483578982 0.20925235353023389 0 -0.39706416214998519 0.20069111578141541 0 -0.39637782483578982 0.20925235353023389 0 -0.40320811132935053 0.20718039940010161 0 -0.39637782483578982 0.20925235353023389 0 -0.40320811132935053 0.20718039940010161 0 -0.40431415010515359 0.21323986659178959 0 -0.40697456226429579 0.2186930826240833 0 -0.40431415010515359 0.21323986659178959 0 -0.39911614662157818 0.21716468657491 0 -0.39637782483578982 0.20925235353023389 0 -0.40431415010515359 0.21323986659178959 0 -0.39911614662157818 0.21716468657491 0 -0.40697456226429579 0.2186930826240833 0 -0.39911614662157818 0.21716468657491 0 -0.39999249910747919 0.22513505956967439 0 -0.41014060789960682 0.22736786548601681 0 -0.40697456226429579 0.2186930826240833 0 -0.39999249910747919 0.22513505956967439 0 -0.39999249910747919 0.22513505956967439 0 -0.39425131204105007 0.23208148811291021 0 -0.40303757320313738 0.23453816662219479 0 -0.41014060789960682 0.22736786548601681 0 -0.39999249910747919 0.22513505956967439 0 -0.40303757320313738 0.23453816662219479 0 -0.39999249910747919 0.22513505956967439 0 -0.39425131204105007 0.23208148811291021 0 -0.39292995968704308 0.2257692492046301 0 -0.39425131204105007 0.23208148811291021 0 -0.39292995968704308 0.2257692492046301 0 -0.3870566684036475 0.22867939246947541 0 -0.39911614662157818 0.21716468657491 0 -0.39999249910747919 0.22513505956967439 0 -0.39489420725288532 0.2214580365365956 0 -0.39292995968704308 0.2257692492046301 0 -0.39489420725288532 0.2214580365365956 0 -0.38845511163015323 0.2214922693344952 0 -0.39999249910747919 0.22513505956967439 0 -0.39292995968704308 0.2257692492046301 0 -0.39489420725288532 0.2214580365365956 0 -0.39203998304967291 0.2156166828598349 0 -0.39489420725288532 0.2214580365365956 0 -0.38845511163015323 0.2214922693344952 0 -0.38503010084590322 0.21494075863607801 0 -0.38845511163015323 0.2214922693344952 0 -0.38477437875135528 0.22336893935104921 0 -0.38845511163015323 0.2214922693344952 0 -0.38477437875135528 0.22336893935104921 0 -0.3870566684036475 0.22867939246947541 0 -0.39292995968704308 0.2257692492046301 0 -0.38845511163015323 0.2214922693344952 0 -0.3870566684036475 0.22867939246947541 0 -0.38503010084590322 0.21494075863607801 0 -0.37922557978225491 0.2209349834616797 0 -0.37855563412571719 0.22836333696414829 0 -0.38503010084590322 0.21494075863607801 0 -0.38477437875135528 0.22336893935104921 0 -0.37855563412571719 0.22836333696414829 0 -0.37922557978225491 0.2209349834616797 0 -0.37855563412571719 0.22836333696414829 0 -0.37242119288695658 0.2244933160128105 0 -0.37922557978225491 0.2209349834616797 0 -0.37855563412571719 0.22836333696414829 0 -0.38477437875135528 0.22336893935104921 0 -0.37855563412571719 0.22836333696414829 0 -0.3870566684036475 0.22867939246947541 0 -0.37855563412571719 0.22836333696414829 0 -0.3870566684036475 0.22867939246947541 0 -0.38792232922081987 0.23488467093951881 0 -0.39425131204105007 0.23208148811291021 0 -0.3870566684036475 0.22867939246947541 0 -0.38792232922081987 0.23488467093951881 0 -0.37855563412571719 0.22836333696414829 0 -0.3847654822196544 0.24334764596057379 0 -0.37598096778572848 0.25691122221082219 0 -0.38792232922081987 0.23488467093951881 0 -0.3847654822196544 0.24334764596057379 0 -0.39498254931403021 0.2419514911904867 0 -0.37855563412571719 0.22836333696414829 0 -0.37598096778572848 0.25691122221082219 0 -0.37855563412571719 0.22836333696414829 0 -0.38792232922081987 0.23488467093951881 0 -0.3847654822196544 0.24334764596057379 0 -0.3847654822196544 0.24334764596057379 0 -0.39498254931403021 0.2419514911904867 0 -0.38906308120036093 0.25396651877489862 0 -0.39498254931403021 0.2419514911904867 0 -0.38906308120036093 0.25396651877489862 0 -0.39845724446818748 0.25142219155153089 0 -0.39425131204105007 0.23208148811291021 0 -0.39498254931403021 0.2419514911904867 0 -0.40303757320313738 0.23453816662219479 0 -0.39425131204105007 0.23208148811291021 0 -0.38792232922081987 0.23488467093951881 0 -0.39498254931403021 0.2419514911904867 0 -0.39498254931403021 0.2419514911904867 0 -0.40303757320313738 0.23453816662219479 0 -0.40544112445214858 0.24378105236840311 0 -0.39498254931403021 0.2419514911904867 0 -0.40544112445214858 0.24378105236840311 0 -0.39845724446818748 0.25142219155153089 0 -0.41882841145987959 0.15012529129314109 0 -0.41810413908053579 0.14013362265608881 0 -0.42675062434241751 0.14378431455361371 0 -0.41882841145987959 0.15012529129314109 0 -0.41167970078538352 0.14770648159482319 0 -0.41810413908053579 0.14013362265608881 0 -0.41882841145987959 0.15012529129314109 0 -0.4100260743416706 0.15549393552124999 0 -0.41767024953907361 0.16026804042922971 0 -0.41882841145987959 0.15012529129314109 0 -0.42699875628353529 0.15506440119288831 0 -0.41767024953907361 0.16026804042922971 0 -0.41882841145987959 0.15012529129314109 0 -0.4100260743416706 0.15549393552124999 0 -0.41167970078538352 0.14770648159482319 0 -0.4100260743416706 0.15549393552124999 0 -0.41167970078538352 0.14770648159482319 0 -0.4050396584111382 0.15046740578557791 0 -0.41167970078538352 0.14770648159482319 0 -0.41084492130507783 0.1413819733680739 0 -0.4050396584111382 0.15046740578557791 0 -0.41167970078538352 0.14770648159482319 0 -0.41084492130507783 0.1413819733680739 0 -0.41810413908053579 0.14013362265608881 0 -0.41981821694303612 0.1236999988624799 0 -0.41084492130507783 0.1413819733680739 0 -0.41810413908053579 0.14013362265608881 0 -0.41981821694303612 0.1236999988624799 0 -0.41810413908053579 0.14013362265608881 0 -0.42708149338763718 0.13332634031057761 0 -0.40226649118511998 0.1226618196299218 0 -0.41981821694303612 0.1236999988624799 0 -0.39958289130529479 0.1449023579413995 0 -0.41981821694303612 0.1236999988624799 0 -0.41084492130507783 0.1413819733680739 0 -0.39958289130529479 0.1449023579413995 0 -0.41981821694303612 0.1236999988624799 0 -0.39958289130529479 0.1449023579413995 0 -0.41810413908053579 0.14013362265608881 0 -0.42708149338763718 0.13332634031057761 0 -0.42675062434241751 0.14378431455361371 0 -0.41981821694303612 0.1236999988624799 0 -0.43311644820242401 0.12407748064960809 0 -0.42708149338763718 0.13332634031057761 0 -0.43311644820242401 0.12407748064960809 0 -0.43761803836977292 0.13493628483109721 0 -0.42708149338763718 0.13332634031057761 0 -0.43761803836977292 0.13493628483109721 0 -0.42708149338763718 0.13332634031057761 0 -0.42675062434241751 0.14378431455361371 0 -0.43761803836977292 0.13493628483109721 0 -0.43576314317726078 0.14812296306806599 0 -0.42675062434241751 0.14378431455361371 0 -0.41882841145987959 0.15012529129314109 0 -0.42675062434241751 0.14378431455361371 0 -0.42699875628353529 0.15506440119288831 0 -0.43576314317726078 0.14812296306806599 0 -0.42675062434241751 0.14378431455361371 0 -0.42699875628353529 0.15506440119288831 0 -0.43576314317726078 0.14812296306806599 0 -0.42699875628353529 0.15506440119288831 0 -0.4353645324221268 0.1596530313096384 0 -0.42699875628353529 0.15506440119288831 0 -0.4353645324221268 0.1596530313096384 0 -0.42737693687954831 0.1664708484187582 0 -0.43931130165638749 0.16833053293779171 0 -0.42737693687954831 0.1664708484187582 0 -0.43237701936782819 0.17481663280639539 0 -0.43931130165638749 0.16833053293779171 0 -0.4353645324221268 0.1596530313096384 0 -0.42737693687954831 0.1664708484187582 0 -0.42737693687954831 0.1664708484187582 0 -0.42375108440228909 0.17628916199359021 0 -0.41519246012412792 0.17053111739286009 0 -0.42699875628353529 0.15506440119288831 0 -0.42737693687954831 0.1664708484187582 0 -0.41767024953907361 0.16026804042922971 0 -0.4410965073585425 0.18070355387376771 0 -0.43869331882533241 0.1936770847193634 0 -0.42923085195241151 0.1853548576292057 0 -0.4410965073585425 0.18070355387376771 0 -0.43237701936782819 0.17481663280639539 0 -0.42923085195241151 0.1853548576292057 0 -0.43237701936782819 0.17481663280639539 0 -0.42375108440228909 0.17628916199359021 0 -0.42923085195241151 0.1853548576292057 0 -0.42737693687954831 0.1664708484187582 0 -0.43237701936782819 0.17481663280639539 0 -0.42375108440228909 0.17628916199359021 0 -0.42375108440228909 0.17628916199359021 0 -0.42923085195241151 0.1853548576292057 0 -0.41651766921955902 0.1842120236336004 0 -0.42375108440228909 0.17628916199359021 0 -0.41651766921955902 0.1842120236336004 0 -0.41519246012412792 0.17053111739286009 0 -0.41651766921955902 0.1842120236336004 0 -0.40806283856757181 0.1769215306736576 0 -0.41519246012412792 0.17053111739286009 0 -0.40562461189000221 0.18807674530374369 0 -0.41651766921955902 0.1842120236336004 0 -0.40806283856757181 0.1769215306736576 0 -0.42737693687954831 0.1664708484187582 0 -0.41767024953907361 0.16026804042922971 0 -0.41519246012412792 0.17053111739286009 0 -0.40806283856757181 0.1769215306736576 0 -0.41519246012412792 0.17053111739286009 0 -0.40736070659870671 0.1661945286396071 0 -0.41767024953907361 0.16026804042922971 0 -0.41519246012412792 0.17053111739286009 0 -0.40736070659870671 0.1661945286396071 0 -0.4100260743416706 0.15549393552124999 0 -0.41767024953907361 0.16026804042922971 0 -0.40736070659870671 0.1661945286396071 0 -0.4100260743416706 0.15549393552124999 0 -0.40736070659870671 0.1661945286396071 0 -0.39760467712262548 0.16129695858536561 0 -0.39760467712262548 0.16129695858536561 0 -0.39562646293995712 0.17769155922933169 0 -0.40736070659870671 0.1661945286396071 0 -0.39760467712262548 0.16129695858536561 0 -0.39562646293995712 0.17769155922933169 0 -0.39760467712262548 0.16129695858536561 0 -0.39562646293995712 0.17769155922933169 0 -0.38881687931084502 0.16372004458172049 0 -0.39760467712262548 0.16129695858536561 0 -0.38881687931084502 0.16372004458172049 0 -0.39027079142589072 0.148803178754397 0 -0.40562461189000221 0.18807674530374369 0 -0.40806283856757181 0.1769215306736576 0 -0.39562646293995712 0.17769155922933169 0 -0.40562461189000221 0.18807674530374369 0 -0.39590756620514672 0.191686225856153 0 -0.39562646293995712 0.17769155922933169 0 -0.40806283856757181 0.1769215306736576 0 -0.40736070659870671 0.1661945286396071 0 -0.39562646293995712 0.17769155922933169 0 -0.39590756620514672 0.191686225856153 0 -0.39562646293995712 0.17769155922933169 0 -0.39042064177229879 0.18415210355266029 0 -0.3876470526797508 0.19139562594504439 0 -0.38113030046570612 0.19981545171747439 0 -0.38370496680569488 0.17126756647080049 0 -0.38113030046570612 0.19981545171747439 0 -0.38370496680569488 0.17126756647080049 0 -0.3876470526797508 0.19139562594504439 0 -0.39042064177229879 0.18415210355266029 0 -0.38370496680569488 0.17126756647080049 0 -0.37595974106493962 0.1951542839385596 0 -0.38370496680569488 0.17126756647080049 0 -0.37310664072449568 0.16941080831475719 0 -0.39562646293995712 0.17769155922933169 0 -0.39042064177229879 0.18415210355266029 0 -0.38370496680569488 0.17126756647080049 0 -0.38881687931084502 0.16372004458172049 0 -0.37963030250190533 0.15982768812234591 0 -0.38226948528443921 0.15107268855349629 0 -0.38881687931084502 0.16372004458172049 0 -0.38370496680569488 0.17126756647080049 0 -0.37963030250190533 0.15982768812234591 0 -0.39562646293995712 0.17769155922933169 0 -0.38881687931084502 0.16372004458172049 0 -0.38370496680569488 0.17126756647080049 0 -0.38370496680569488 0.17126756647080049 0 -0.37963030250190533 0.15982768812234591 0 -0.37310664072449568 0.16941080831475719 0 -0.37963030250190533 0.15982768812234591 0 -0.38226948528443921 0.15107268855349629 0 -0.37025354038405178 0.1436673326909548 0 -0.38226948528443921 0.15107268855349629 0 -0.38256790171574229 0.13756201045565 0 -0.37025354038405178 0.1436673326909548 0 -0.38226948528443921 0.15107268855349629 0 -0.39027079142589072 0.148803178754397 0 -0.38256790171574229 0.13756201045565 0 -0.39027079142589072 0.148803178754397 0 -0.39143884787656102 0.14146052417887689 0 -0.38256790171574229 0.13756201045565 0 -0.38881687931084502 0.16372004458172049 0 -0.38226948528443921 0.15107268855349629 0 -0.39027079142589072 0.148803178754397 0 -0.39760467712262548 0.16129695858536561 0 -0.39804407377839668 0.14651471458672091 0 -0.39958289130529479 0.1449023579413995 0 -0.39760467712262548 0.16129695858536561 0 -0.39027079142589072 0.148803178754397 0 -0.39804407377839668 0.14651471458672091 0 -0.39760467712262548 0.16129695858536561 0 -0.39958289130529479 0.1449023579413995 0 -0.4050396584111382 0.15046740578557791 0 -0.39760467712262548 0.16129695858536561 0 -0.39958289130529479 0.1449023579413995 0 -0.39027079142589072 0.148803178754397 0 -0.39358422854044911 0.14517144650639671 0 -0.39143884787656102 0.14146052417887689 0 -0.39027079142589072 0.148803178754397 0 -0.39358422854044911 0.14517144650639671 0 -0.39804407377839668 0.14651471458672091 0 -0.39358422854044911 0.14517144650639671 0 -0.39143884787656102 0.14146052417887689 0 -0.39545355015164563 0.1422140231044845 0 -0.39358422854044911 0.14517144650639671 0 -0.39545355015164563 0.1422140231044845 0 -0.39804407377839668 0.14651471458672091 0 -0.39545355015164563 0.1422140231044845 0 -0.39804407377839668 0.14651471458672091 0 -0.39958289130529479 0.1449023579413995 0 -0.41084492130507783 0.1413819733680739 0 -0.39958289130529479 0.1449023579413995 0 -0.4050396584111382 0.15046740578557791 0 -0.39804407377839668 0.14651471458672091 0 -0.39958289130529479 0.1449023579413995 0 -0.4100260743416706 0.15549393552124999 0 -0.39760467712262548 0.16129695858536561 0 -0.4050396584111382 0.15046740578557791 0 -0.40226649118511998 0.1226618196299218 0 -0.39958289130529479 0.1449023579413995 0 -0.39461770925752621 0.13302107230902871 0 -0.40226649118511998 0.1226618196299218 0 -0.38534441496445421 0.12145305459744241 0 -0.39461770925752621 0.13302107230902871 0 -0.40226649118511998 0.1226618196299218 0 -0.39958289130529479 0.1449023579413995 0 -0.39143884787656102 0.14146052417887689 0 -0.39545355015164563 0.1422140231044845 0 -0.39461770925752621 0.13302107230902871 0 -0.39545355015164563 0.1422140231044845 0 -0.39958289130529479 0.1449023579413995 0 -0.39461770925752621 0.13302107230902871 0 -0.38534441496445421 0.12145305459744241 0 -0.38256790171574229 0.13756201045565 0 -0.3674004400436075 0.1179238570671524 0 -0.38534441496445421 0.12145305459744241 0 -0.39461770925752621 0.13302107230902871 0 -0.38256790171574229 0.13756201045565 0 -0.39143884787656102 0.14146052417887689 0 -0.39461770925752621 0.13302107230902871 0 -0.38256790171574229 0.13756201045565 0 -0.37025354038405178 0.1436673326909548 0 -0.3674004400436075 0.1179238570671524 0 -0.38256790171574229 0.13756201045565 0 -0.3674004400436075 0.1179238570671524 0 -0.38256790171574229 0.13756201045565 0 -0.37025354038405178 0.1436673326909548 0 -0.3674004400436075 0.1179238570671524 0 -0.35702050269386831 0.1327139642115952 0 -0.37025354038405178 0.1436673326909548 0 -0.3674004400436075 0.1179238570671524 0 -0.35702050269386831 0.1327139642115952 0 -0.34575989467192381 0.1286381266460514 0 -0.35052151589020292 0.116970012989599 0 -0.35702050269386831 0.1327139642115952 0 -0.35019783991262837 0.14026840218844719 0 -0.35877229446705111 0.14770094539230699 0 -0.35019783991262837 0.14026840218844719 0 -0.34575989467192381 0.1286381266460514 0 -0.34150755372463037 0.13763977359471349 0 -0.35702050269386831 0.1327139642115952 0 -0.35019783991262837 0.14026840218844719 0 -0.34575989467192381 0.1286381266460514 0 -0.34704233427478942 0.1484653124025867 0 -0.35469301525693792 0.1560461251775786 0 -0.34733250719320058 0.15899147607606279 0 -0.34704233427478942 0.1484653124025867 0 -0.34733250719320058 0.15899147607606279 0 -0.34085351654000878 0.15263599001330419 0 -0.35019783991262837 0.14026840218844719 0 -0.34704233427478942 0.1484653124025867 0 -0.34150755372463037 0.13763977359471349 0 -0.35019783991262837 0.14026840218844719 0 -0.34704233427478942 0.1484653124025867 0 -0.35877229446705111 0.14770094539230699 0 -0.35877229446705111 0.14770094539230699 0 -0.35469301525693792 0.1560461251775786 0 -0.36269643520071748 0.1592138534545614 0 -0.34704233427478942 0.1484653124025867 0 -0.35877229446705111 0.14770094539230699 0 -0.35469301525693792 0.1560461251775786 0 -0.35877229446705111 0.14770094539230699 0 -0.37025354038405178 0.1436673326909548 0 -0.36269643520071748 0.1592138534545614 0 -0.35702050269386831 0.1327139642115952 0 -0.35877229446705111 0.14770094539230699 0 -0.37025354038405178 0.1436673326909548 0 -0.37963030250190533 0.15982768812234591 0 -0.37025354038405178 0.1436673326909548 0 -0.37310664072449568 0.16941080831475719 0 -0.37025354038405178 0.1436673326909548 0 -0.37310664072449568 0.16941080831475719 0 -0.36269643520071748 0.1592138534545614 0 -0.37025354038405178 0.1436673326909548 0 -0.37310664072449568 0.16941080831475719 0 -0.37310664072449568 0.16941080831475719 0 -0.36222900662890412 0.17087621761215599 0 -0.36269643520071748 0.1592138534545614 0 -0.36222900662890412 0.17087621761215599 0 -0.36269643520071748 0.1592138534545614 0 -0.35528242892761469 0.1653761507855154 0 -0.37595974106493962 0.1951542839385596 0 -0.37310664072449568 0.16941080831475719 0 -0.37595974106493962 0.1951542839385596 0 -0.37310664072449568 0.16941080831475719 0 -0.3655328014617118 0.18328004213421739 0 -0.36222900662890412 0.17087621761215599 0 -0.3655328014617118 0.18328004213421739 0 -0.3545267268299811 0.1771002333717287 0 -0.37310664072449568 0.16941080831475719 0 -0.36222900662890412 0.17087621761215599 0 -0.3655328014617118 0.18328004213421739 0 -0.3655328014617118 0.18328004213421739 0 -0.3545267268299811 0.1771002333717287 0 -0.35703669068077298 0.19660426029196959 0 -0.3545267268299811 0.1771002333717287 0 -0.34016998016344963 0.17592043128754739 0 -0.35703669068077298 0.19660426029196959 0 -0.34016998016344963 0.17592043128754739 0 -0.35703669068077298 0.19660426029196959 0 -0.3545267268299811 0.1771002333717287 0 -0.34704643737374258 0.16789084505542881 0 -0.34016998016344963 0.17592043128754739 0 -0.35469301525693792 0.1560461251775786 0 -0.35528242892761469 0.1653761507855154 0 -0.34733250719320058 0.15899147607606279 0 -0.35469301525693792 0.1560461251775786 0 -0.36269643520071748 0.1592138534545614 0 -0.35528242892761469 0.1653761507855154 0 -0.3545267268299811 0.1771002333717287 0 -0.35528242892761469 0.1653761507855154 0 -0.34704643737374258 0.16789084505542881 0 -0.36222900662890412 0.17087621761215599 0 -0.3545267268299811 0.1771002333717287 0 -0.35528242892761469 0.1653761507855154 0 -0.35528242892761469 0.1653761507855154 0 -0.34704643737374258 0.16789084505542881 0 -0.34733250719320058 0.15899147607606279 0 -0.34704643737374258 0.16789084505542881 0 -0.34733250719320058 0.15899147607606279 0 -0.33953880567626871 0.16068722136055399 0 -0.33268031239176488 0.1583718136023485 0 -0.34016998016344963 0.17592043128754739 0 -0.3233032696461261 0.15523660228312519 0 -0.34733250719320058 0.15899147607606279 0 -0.33953880567626871 0.16068722136055399 0 -0.34085351654000878 0.15263599001330419 0 -0.33953880567626871 0.16068722136055399 0 -0.33268031239176488 0.1583718136023485 0 -0.34016998016344963 0.17592043128754739 0 -0.34016998016344963 0.17592043128754739 0 -0.3233032696461261 0.15523660228312519 0 -0.34704643737374258 0.16789084505542881 0 -0.33953880567626871 0.16068722136055399 0 -0.34016998016344963 0.17592043128754739 0 -0.33953880567626871 0.16068722136055399 0 -0.33268031239176488 0.1583718136023485 0 -0.33337410759350428 0.15069955626403089 0 -0.33085208916903641 0.18639892934009311 0 -0.34016998016344963 0.17592043128754739 0 -0.35703669068077298 0.19660426029196959 0 -0.33085208916903641 0.18639892934009311 0 -0.34016998016344963 0.17592043128754739 0 -0.31864432414891941 0.1604758513093982 0 -0.33085208916903641 0.18639892934009311 0 -0.31988614259622222 0.17733253846159661 0 -0.31396944458725112 0.1908459037538919 0 -0.33085208916903641 0.18639892934009311 0 -0.31988614259622222 0.17733253846159661 0 -0.31864432414891941 0.1604758513093982 0 -0.33085208916903641 0.18639892934009311 0 -0.31864432414891941 0.1604758513093982 0 -0.3157895568664642 0.16778321520680289 0 -0.31396944458725112 0.1908459037538919 0 -0.30928109465125242 0.17834825899616491 0 -0.3157895568664642 0.16778321520680289 0 -0.31396944458725112 0.1908459037538919 0 -0.31988614259622222 0.17733253846159661 0 -0.3157895568664642 0.16778321520680289 0 -0.31396944458725112 0.1908459037538919 0 -0.31988614259622222 0.17733253846159661 0 -0.3157895568664642 0.16778321520680289 0 -0.31864432414891941 0.1604758513093982 0 -0.34016998016344963 0.17592043128754739 0 -0.31864432414891941 0.1604758513093982 0 -0.3233032696461261 0.15523660228312519 0 -0.3157895568664642 0.16778321520680289 0 -0.31864432414891941 0.1604758513093982 0 -0.30315967921291609 0.16078798973314201 0 -0.3233032696461261 0.15523660228312519 0 -0.3059120499644834 0.13343898283696279 0 -0.31864432414891941 0.1604758513093982 0 -0.3233032696461261 0.15523660228312519 0 -0.3059120499644834 0.13343898283696279 0 -0.3233032696461261 0.15523660228312519 0 -0.32066455900623497 0.1436351539247733 0 -0.3059120499644834 0.13343898283696279 0 -0.32701539887947573 0.14931525681648511 0 -0.3233032696461261 0.15523660228312519 0 -0.32066455900623497 0.1436351539247733 0 -0.33268031239176488 0.1583718136023485 0 -0.32701539887947573 0.14931525681648511 0 -0.3233032696461261 0.15523660228312519 0 -0.32066455900623497 0.1436351539247733 0 -0.32805447288916739 0.14105829710729451 0 -0.318483602177284 0.1372318475457138 0 -0.32701539887947573 0.14931525681648511 0 -0.32066455900623497 0.1436351539247733 0 -0.32805447288916739 0.14105829710729451 0 -0.32066455900623497 0.1436351539247733 0 -0.318483602177284 0.1372318475457138 0 -0.3059120499644834 0.13343898283696279 0 -0.318483602177284 0.1372318475457138 0 -0.31346186956156169 0.1305639985115255 0 -0.3059120499644834 0.13343898283696279 0 -0.318483602177284 0.1372318475457138 0 -0.31346186956156169 0.1305639985115255 0 -0.32249430199673301 0.1337189287183583 0 -0.31346186956156169 0.1305639985115255 0 -0.32077068178610768 0.12712211317260991 0 -0.32249430199673301 0.1337189287183583 0 -0.31346186956156169 0.1305639985115255 0 -0.32077068178610768 0.12712211317260991 0 -0.31427267927131758 0.12100423151837759 0 -0.32077068178610768 0.12712211317260991 0 -0.32889797536438758 0.131377602304657 0 -0.32724165493071949 0.1244926899229274 0 -0.32077068178610768 0.12712211317260991 0 -0.32249430199673301 0.1337189287183583 0 -0.32889797536438758 0.131377602304657 0 -0.32805447288916739 0.14105829710729451 0 -0.318483602177284 0.1372318475457138 0 -0.32249430199673301 0.1337189287183583 0 -0.32805447288916739 0.14105829710729451 0 -0.32249430199673301 0.1337189287183583 0 -0.32889797536438758 0.131377602304657 0 -0.32805447288916739 0.14105829710729451 0 -0.33432283596342499 0.13589634667824091 0 -0.32889797536438758 0.131377602304657 0 -0.32805447288916739 0.14105829710729451 0 -0.33432283596342499 0.13589634667824091 0 -0.33697982796228088 0.1443363839632863 0 -0.32889797536438758 0.131377602304657 0 -0.33596171820158022 0.12731152581170471 0 -0.32724165493071949 0.1244926899229274 0 -0.33432283596342499 0.13589634667824091 0 -0.32889797536438758 0.131377602304657 0 -0.33596171820158022 0.12731152581170471 0 -0.34575989467192381 0.1286381266460514 0 -0.33596171820158022 0.12731152581170471 0 -0.34150755372463037 0.13763977359471349 0 -0.33432283596342499 0.13589634667824091 0 -0.33596171820158022 0.12731152581170471 0 -0.34150755372463037 0.13763977359471349 0 -0.33432283596342499 0.13589634667824091 0 -0.34150755372463037 0.13763977359471349 0 -0.33697982796228088 0.1443363839632863 0 -0.34704233427478942 0.1484653124025867 0 -0.34150755372463037 0.13763977359471349 0 -0.33697982796228088 0.1443363839632863 0 -0.33697982796228088 0.1443363839632863 0 -0.34085351654000878 0.15263599001330419 0 -0.33337410759350428 0.15069955626403089 0 -0.34704233427478942 0.1484653124025867 0 -0.33697982796228088 0.1443363839632863 0 -0.34085351654000878 0.15263599001330419 0 -0.33953880567626871 0.16068722136055399 0 -0.34085351654000878 0.15263599001330419 0 -0.33337410759350428 0.15069955626403089 0 -0.33268031239176488 0.1583718136023485 0 -0.32701539887947573 0.14931525681648511 0 -0.33337410759350428 0.15069955626403089 0 -0.32701539887947573 0.14931525681648511 0 -0.32805447288916739 0.14105829710729451 0 -0.33337410759350428 0.15069955626403089 0 -0.32805447288916739 0.14105829710729451 0 -0.33697982796228088 0.1443363839632863 0 -0.33337410759350428 0.15069955626403089 0 -0.3642949191525518 0.23693161584707809 0 -0.35209199661588869 0.23150167969629329 0 -0.36112413904262408 0.25068135202179881 0 -0.35209199661588869 0.23150167969629329 0 -0.36112413904262408 0.25068135202179881 0 -0.34680969642511672 0.24381564219795679 0 -0.35209199661588869 0.23150167969629329 0 -0.36112413904262408 0.25068135202179881 0 -0.3700538498751294 0.24099316581486949 0 -0.37598096778572848 0.25691122221082219 0 -0.36112413904262408 0.25068135202179881 0 -0.3700538498751294 0.24099316581486949 0 -0.3642949191525518 0.23693161584707809 0 -0.36112413904262408 0.25068135202179881 0 -0.37855563412571719 0.22836333696414829 0 -0.3700538498751294 0.24099316581486949 0 -0.37598096778572848 0.25691122221082219 0 -0.3700538498751294 0.24099316581486949 0 -0.3642949191525518 0.23693161584707809 0 -0.37031358926902552 0.2320783020305002 0 -0.3642949191525518 0.23693161584707809 0 -0.36475463797887131 0.22393506287421949 0 -0.35209199661588869 0.23150167969629329 0 -0.3642949191525518 0.23693161584707809 0 -0.37031358926902552 0.2320783020305002 0 -0.36475463797887131 0.22393506287421949 0 -0.37031358926902552 0.2320783020305002 0 -0.37242119288695658 0.2244933160128105 0 -0.36475463797887131 0.22393506287421949 0 -0.37855563412571719 0.22836333696414829 0 -0.3700538498751294 0.24099316581486949 0 -0.37031358926902552 0.2320783020305002 0 -0.37855563412571719 0.22836333696414829 0 -0.37031358926902552 0.2320783020305002 0 -0.37242119288695658 0.2244933160128105 0 -0.37922557978225491 0.2209349834616797 0 -0.37242119288695658 0.2244933160128105 0 -0.36991273864047991 0.21857976895930459 0 -0.37242119288695658 0.2244933160128105 0 -0.36475463797887131 0.22393506287421949 0 -0.36991273864047991 0.21857976895930459 0 -0.36475463797887131 0.22393506287421949 0 -0.36409482693271411 0.2142157449325304 0 -0.36991273864047991 0.21857976895930459 0 -0.36475463797887131 0.22393506287421949 0 -0.35209199661588869 0.23150167969629329 0 -0.35509122658742948 0.21170445732714011 0 -0.35209199661588869 0.23150167969629329 0 -0.34305985418915502 0.2123220073707871 0 -0.34680969642511672 0.24381564219795679 0 -0.35209199661588869 0.23150167969629329 0 -0.33608192381098112 0.22732462940735651 0 -0.35209199661588869 0.23150167969629329 0 -0.35509122658742948 0.21170445732714011 0 -0.34305985418915502 0.2123220073707871 0 -0.35509122658742948 0.21170445732714011 0 -0.34305985418915502 0.2123220073707871 0 -0.35509122658742948 0.21170445732714011 0 -0.34879023003052578 0.20303235825281821 0 -0.34305985418915502 0.2123220073707871 0 -0.35509122658742948 0.21170445732714011 0 -0.36028799868301348 0.20581163844386691 0 -0.34879023003052578 0.20303235825281821 0 -0.36475463797887131 0.22393506287421949 0 -0.35509122658742948 0.21170445732714011 0 -0.36409482693271411 0.2142157449325304 0 -0.37922557978225491 0.2209349834616797 0 -0.36961336880421802 0.20944009447237169 0 -0.37291371999479739 0.2063004324965492 0 -0.37922557978225491 0.2209349834616797 0 -0.36991273864047991 0.21857976895930459 0 -0.36961336880421802 0.20944009447237169 0 -0.36409482693271411 0.2142157449325304 0 -0.36991273864047991 0.21857976895930459 0 -0.36961336880421802 0.20944009447237169 0 -0.36961336880421802 0.20944009447237169 0 -0.37291371999479739 0.2063004324965492 0 -0.36726892870464872 0.1997095920129035 0 -0.35509122658742948 0.21170445732714011 0 -0.36409482693271411 0.2142157449325304 0 -0.36028799868301348 0.20581163844386691 0 -0.36409482693271411 0.2142157449325304 0 -0.36961336880421802 0.20944009447237169 0 -0.36028799868301348 0.20581163844386691 0 -0.36961336880421802 0.20944009447237169 0 -0.36028799868301348 0.20581163844386691 0 -0.36726892870464872 0.1997095920129035 0 -0.36726892870464872 0.1997095920129035 0 -0.36644954047801831 0.19368704459441249 0 -0.35703669068077298 0.19660426029196959 0 -0.36028799868301348 0.20581163844386691 0 -0.36726892870464872 0.1997095920129035 0 -0.35703669068077298 0.19660426029196959 0 -0.37595974106493962 0.1951542839385596 0 -0.36726892870464872 0.1997095920129035 0 -0.36644954047801831 0.19368704459441249 0 -0.37595974106493962 0.1951542839385596 0 -0.37291371999479739 0.2063004324965492 0 -0.36726892870464872 0.1997095920129035 0 -0.37595974106493962 0.1951542839385596 0 -0.3655328014617118 0.18328004213421739 0 -0.36644954047801831 0.19368704459441249 0 -0.3655328014617118 0.18328004213421739 0 -0.36644954047801831 0.19368704459441249 0 -0.35703669068077298 0.19660426029196959 0 -0.33085208916903641 0.18639892934009311 0 -0.35703669068077298 0.19660426029196959 0 -0.34879023003052578 0.20303235825281821 0 -0.36028799868301348 0.20581163844386691 0 -0.35703669068077298 0.19660426029196959 0 -0.34879023003052578 0.20303235825281821 0 -0.33085208916903641 0.18639892934009311 0 -0.34879023003052578 0.20303235825281821 0 -0.34305985418915502 0.2123220073707871 0 -0.33085208916903641 0.18639892934009311 0 -0.34305985418915502 0.2123220073707871 0 -0.33085208916903641 0.18639892934009311 0 -0.31396944458725112 0.1908459037538919 0 -0.31933084218040958 0.20287219248823521 0 -0.33085208916903641 0.18639892934009311 0 -0.31933084218040958 0.20287219248823521 0 -0.32760459324859631 0.2131152998358809 0 -0.31396944458725112 0.1908459037538919 0 -0.31214933230803782 0.21390859230098069 0 -0.31396944458725112 0.1908459037538919 0 -0.31933084218040958 0.20287219248823521 0 -0.31214933230803782 0.21390859230098069 0 -0.31933084218040958 0.20287219248823521 0 -0.32760459324859631 0.2131152998358809 0 -0.31214933230803782 0.21390859230098069 0 -0.32760459324859631 0.2131152998358809 0 -0.31214933230803782 0.21390859230098069 0 -0.32760459324859631 0.2131152998358809 0 -0.32384229704002232 0.22460412560828949 0 -0.31214933230803782 0.21390859230098069 0 -0.33085208916903641 0.18639892934009311 0 -0.32760459324859631 0.2131152998358809 0 -0.34305985418915502 0.2123220073707871 0 -0.32760459324859631 0.2131152998358809 0 -0.34305985418915502 0.2123220073707871 0 -0.33608192381098112 0.22732462940735651 0 -0.32760459324859631 0.2131152998358809 0 -0.34305985418915502 0.2123220073707871 0 -0.35209199661588869 0.23150167969629329 0 -0.34305985418915502 0.2123220073707871 0 -0.33608192381098112 0.22732462940735651 0 -0.33608192381098112 0.22732462940735651 0 -0.32384229704002232 0.22460412560828949 0 -0.33203151462214658 0.24456066409039151 0 -0.32760459324859631 0.2131152998358809 0 -0.33608192381098112 0.22732462940735651 0 -0.32384229704002232 0.22460412560828949 0 -0.33203151462214658 0.24456066409039151 0 -0.31134412121034988 0.22411144240683939 0 -0.32384229704002232 0.22460412560828949 0 -0.33203151462214658 0.24456066409039151 0 -0.31134412121034988 0.22411144240683939 0 -0.32384229704002232 0.22460412560828949 0 -0.31134412121034988 0.22411144240683939 0 -0.31214933230803782 0.21390859230098069 0 -0.33203151462214658 0.24456066409039151 0 -0.31134412121034988 0.22411144240683939 0 -0.30919794695879482 0.25130567042049928 0 -0.34680969642511672 0.24381564219795679 0 -0.33608192381098112 0.22732462940735651 0 -0.33203151462214658 0.24456066409039151 0 -0.29081059797592362 0.24013846524049029 0 -0.27242324899305259 0.2289712600604806 0 -0.28700965172550669 0.24967468444264029 0 -0.29081059797592362 0.24013846524049029 0 -0.27628865148235071 0.24759774354384109 0 -0.29081059797592362 0.24013846524049029 0 -0.3027462928990311 0.23656087391373981 0 -0.29596404233288548 0.23228763146651399 0 -0.28700965172550669 0.24967468444264029 0 -0.29081059797592362 0.24013846524049029 0 -0.29456129008659948 0.25219639827619361 0 -0.29081059797592362 0.24013846524049029 0 -0.30919794695879482 0.25130567042049928 0 -0.29456129008659948 0.25219639827619361 0 -0.29081059797592362 0.24013846524049029 0 -0.30919794695879482 0.25130567042049928 0 -0.3027462928990311 0.23656087391373981 0 -0.31134412121034988 0.22411144240683939 0 -0.30919794695879482 0.25130567042049928 0 -0.31134412121034988 0.22411144240683939 0 -0.30919794695879482 0.25130567042049928 0 -0.29081059797592362 0.24013846524049029 0 -0.3027462928990311 0.23656087391373981 0 -0.30919794695879482 0.25130567042049928 0 -0.3027462928990311 0.23656087391373981 0 -0.30360502228943931 0.2266748381595429 0 -0.29596404233288548 0.23228763146651399 0 -0.30360502228943931 0.2266748381595429 0 -0.29596404233288548 0.23228763146651399 0 -0.29773924945860569 0.2146482375382783 0 -0.3027462928990311 0.23656087391373981 0 -0.30360502228943931 0.2266748381595429 0 -0.31134412121034988 0.22411144240683939 0 -0.30882653868244281 0.22162284453493611 0 -0.31134412121034988 0.22411144240683939 0 -0.31214933230803782 0.21390859230098069 0 -0.31134412121034988 0.22411144240683939 0 -0.31214933230803782 0.21390859230098069 0 -0.30882653868244281 0.22162284453493611 0 -0.31134412121034988 0.22411144240683939 0 -0.30360502228943931 0.2266748381595429 0 -0.30882653868244281 0.22162284453493611 0 -0.31134412121034988 0.22411144240683939 0 -0.30360502228943931 0.2266748381595429 0 -0.30882653868244281 0.22162284453493611 0 -0.29773924945860569 0.2146482375382783 0 -0.29081059797592362 0.24013846524049029 0 -0.28627427297045321 0.22946836177245061 0 -0.27242324899305259 0.2289712600604806 0 -0.29596404233288548 0.23228763146651399 0 -0.29773924945860569 0.2146482375382783 0 -0.28627427297045321 0.22946836177245061 0 -0.29773924945860569 0.2146482375382783 0 -0.28099643736023888 0.2155076178317116 0 -0.29596404233288548 0.23228763146651399 0 -0.28627427297045321 0.22946836177245061 0 -0.29773924945860569 0.2146482375382783 0 -0.29081059797592362 0.24013846524049029 0 -0.29596404233288548 0.23228763146651399 0 -0.28627427297045321 0.22946836177245061 0 -0.28627427297045321 0.22946836177245061 0 -0.28099643736023888 0.2155076178317116 0 -0.29773924945860569 0.2146482375382783 0 -0.28823665943266408 0.19994406872574341 0 -0.28099643736023888 0.2155076178317116 0 -0.29773924945860569 0.2146482375382783 0 -0.28099643736023888 0.2155076178317116 0 -0.29773924945860569 0.2146482375382783 0 -0.31214933230803782 0.21390859230098069 0 -0.30044946433576009 0.18771811363571009 0 -0.29773924945860569 0.2146482375382783 0 -0.31214933230803782 0.21390859230098069 0 -0.30882653868244281 0.22162284453493611 0 -0.29773924945860569 0.2146482375382783 0 -0.31214933230803782 0.21390859230098069 0 -0.31396944458725112 0.1908459037538919 0 -0.31214933230803782 0.21390859230098069 0 -0.30044946433576009 0.18771811363571009 0 -0.29773924945860569 0.2146482375382783 0 -0.30044946433576009 0.18771811363571009 0 -0.30044946433576009 0.18771811363571009 0 -0.28823665943266408 0.19994406872574341 0 -0.285161674125683 0.17781657874684489 0 -0.29773924945860569 0.2146482375382783 0 -0.30044946433576009 0.18771811363571009 0 -0.28823665943266408 0.19994406872574341 0 -0.28823665943266408 0.19994406872574341 0 -0.27328887062388568 0.1951198351193916 0 -0.285161674125683 0.17781657874684489 0 -0.27328887062388568 0.1951198351193916 0 -0.25268122198648679 0.1941180386094952 0 -0.25902459924707483 0.18441397815610949 0 -0.27328887062388568 0.1951198351193916 0 -0.25268122198648679 0.1941180386094952 0 -0.2556610845585473 0.20626407668457891 0 -0.2556610845585473 0.20626407668457891 0 -0.26438606981458651 0.2163601999697404 0 -0.247775702268934 0.21721278210776851 0 -0.26438606981458651 0.2163601999697404 0 -0.247775702268934 0.21721278210776851 0 -0.27328887062388568 0.1951198351193916 0 -0.2556610845585473 0.20626407668457891 0 -0.26438606981458651 0.2163601999697404 0 -0.27328887062388568 0.1951198351193916 0 -0.28099643736023888 0.2155076178317116 0 -0.27328887062388568 0.1951198351193916 0 -0.26438606981458651 0.2163601999697404 0 -0.28099643736023888 0.2155076178317116 0 -0.28823665943266408 0.19994406872574341 0 -0.27328887062388568 0.1951198351193916 0 -0.28099643736023888 0.2155076178317116 0 -0.26438606981458651 0.2163601999697404 0 -0.28099643736023888 0.2155076178317116 0 -0.26438606981458651 0.2163601999697404 0 -0.28099643736023888 0.2155076178317116 0 -0.27242324899305259 0.2289712600604806 0 -0.28627427297045321 0.22946836177245061 0 -0.28099643736023888 0.2155076178317116 0 -0.27242324899305259 0.2289712600604806 0 -0.26438606981458651 0.2163601999697404 0 -0.27242324899305259 0.2289712600604806 0 -0.25714777800571209 0.22925707836421971 0 -0.26438606981458651 0.2163601999697404 0 -0.25714777800571209 0.22925707836421971 0 -0.247775702268934 0.21721278210776851 0 -0.27242324899305259 0.2289712600604806 0 -0.25714777800571209 0.22925707836421971 0 -0.26398461248970367 0.2398919541419329 0 -0.25714777800571209 0.22925707836421971 0 -0.26398461248970367 0.2398919541419329 0 -0.25006108478002698 0.24413400530429169 0 -0.26398461248970367 0.2398919541419329 0 -0.25006108478002698 0.24413400530429169 0 -0.26146097822572562 0.25195855027952968 0 -0.29081059797592362 0.24013846524049029 0 -0.27242324899305259 0.2289712600604806 0 -0.27628865148235071 0.24759774354384109 0 -0.26398461248970367 0.2398919541419329 0 -0.27628865148235071 0.24759774354384109 0 -0.26146097822572562 0.25195855027952968 0 -0.27242324899305259 0.2289712600604806 0 -0.26398461248970367 0.2398919541419329 0 -0.27628865148235071 0.24759774354384109 0 -0.29246081808963159 0.144838471699688 0 -0.30315967921291609 0.16078798973314201 0 -0.28654626876983669 0.15759749377436411 0 -0.29246081808963159 0.144838471699688 0 -0.28654626876983669 0.15759749377436411 0 -0.28068976510294641 0.141219708011844 0 -0.29246081808963159 0.144838471699688 0 -0.29196760368860958 0.13372432846811941 0 -0.28068976510294641 0.141219708011844 0 -0.28567837638739502 0.12713103729610109 0 -0.29196760368860958 0.13372432846811941 0 -0.28068976510294641 0.141219708011844 0 -0.28567837638739502 0.12713103729610109 0 -0.29196760368860958 0.13372432846811941 0 -0.29463430462837742 0.120079541304825 0 -0.29246081808963159 0.144838471699688 0 -0.29196760368860958 0.13372432846811941 0 -0.3059120499644834 0.13343898283696279 0 -0.29196760368860958 0.13372432846811941 0 -0.3059120499644834 0.13343898283696279 0 -0.29463430462837742 0.120079541304825 0 -0.3059120499644834 0.13343898283696279 0 -0.29463430462837742 0.120079541304825 0 -0.30322684813257128 0.12773698115998491 0 -0.3059120499644834 0.13343898283696279 0 -0.29463430462837742 0.120079541304825 0 -0.30322684813257128 0.12773698115998491 0 -0.3059120499644834 0.13343898283696279 0 -0.31346186956156169 0.1305639985115255 0 -0.3059120499644834 0.13343898283696279 0 -0.31427267927131758 0.12100423151837759 0 -0.3059120499644834 0.13343898283696279 0 -0.30315967921291609 0.16078798973314201 0 -0.31864432414891941 0.1604758513093982 0 -0.3059120499644834 0.13343898283696279 0 -0.30315967921291609 0.16078798973314201 0 -0.31864432414891941 0.1604758513093982 0 -0.3059120499644834 0.13343898283696279 0 -0.29246081808963159 0.144838471699688 0 -0.3059120499644834 0.13343898283696279 0 -0.30315967921291609 0.16078798973314201 0 -0.3157895568664642 0.16778321520680289 0 -0.30315967921291609 0.16078798973314201 0 -0.30928109465125242 0.17834825899616491 0 -0.30044946433576009 0.18771811363571009 0 -0.30315967921291609 0.16078798973314201 0 -0.30928109465125242 0.17834825899616491 0 -0.30044946433576009 0.18771811363571009 0 -0.30315967921291609 0.16078798973314201 0 -0.31396944458725112 0.1908459037538919 0 -0.30044946433576009 0.18771811363571009 0 -0.30928109465125242 0.17834825899616491 0 -0.30044946433576009 0.18771811363571009 0 -0.30315967921291609 0.16078798973314201 0 -0.285161674125683 0.17781657874684489 0 -0.285161674125683 0.17781657874684489 0 -0.28654626876983669 0.15759749377436411 0 -0.2761569963096801 0.16650743304162061 0 -0.30315967921291609 0.16078798973314201 0 -0.285161674125683 0.17781657874684489 0 -0.28654626876983669 0.15759749377436411 0 -0.27604236394903692 0.1571095183565501 0 -0.2761569963096801 0.16650743304162061 0 -0.26890517454889462 0.16032572792752189 0 -0.28654626876983669 0.15759749377436411 0 -0.27604236394903692 0.1571095183565501 0 -0.2761569963096801 0.16650743304162061 0 -0.2761569963096801 0.16650743304162061 0 -0.26890517454889462 0.16032572792752189 0 -0.26558130388753232 0.17473205240707171 0 -0.27328887062388568 0.1951198351193916 0 -0.26558130388753232 0.17473205240707171 0 -0.27328887062388568 0.1951198351193916 0 -0.285161674125683 0.17781657874684489 0 -0.26558130388753232 0.17473205240707171 0 -0.27328887062388568 0.1951198351193916 0 -0.25902459924707483 0.18441397815610949 0 -0.26558130388753232 0.17473205240707171 0 -0.285161674125683 0.17781657874684489 0 -0.2761569963096801 0.16650743304162061 0 -0.26558130388753232 0.17473205240707171 0 -0.25902459924707483 0.18441397815610949 0 -0.26558130388753232 0.17473205240707171 0 -0.25532905878588918 0.1758407175801833 0 -0.26558130388753232 0.17473205240707171 0 -0.25532905878588918 0.1758407175801833 0 -0.25941085950780191 0.1668827910683322 0 -0.25268122198648679 0.1941180386094952 0 -0.25902459924707483 0.18441397815610949 0 -0.2482425409515801 0.1822592470644058 0 -0.25902459924707483 0.18441397815610949 0 -0.25532905878588918 0.1758407175801833 0 -0.2482425409515801 0.1822592470644058 0 -0.26890517454889462 0.16032572792752189 0 -0.26558130388753232 0.17473205240707171 0 -0.25787373715117889 0.15434426969475179 0 -0.26558130388753232 0.17473205240707171 0 -0.25941085950780191 0.1668827910683322 0 -0.25787373715117889 0.15434426969475179 0 -0.26558130388753232 0.17473205240707171 0 -0.25787373715117889 0.15434426969475179 0 -0.25532905878588918 0.1758407175801833 0 -0.25941085950780191 0.1668827910683322 0 -0.24444842484294479 0.17268946326672441 0 -0.25941085950780191 0.1668827910683322 0 -0.25787373715117889 0.15434426969475179 0 -0.24984691479657839 0.1574097777255466 0 -0.25787373715117889 0.15434426969475179 0 -0.26406903427693212 0.13765959589518889 0 -0.2469851836315565 0.1426497956307389 0 -0.25787373715117889 0.15434426969475179 0 -0.26887147144704499 0.14893536613761549 0 -0.26406903427693212 0.13765959589518889 0 -0.25787373715117889 0.15434426969475179 0 -0.2469851836315565 0.1426497956307389 0 -0.24984691479657839 0.1574097777255466 0 -0.26890517454889462 0.16032572792752189 0 -0.25787373715117889 0.15434426969475179 0 -0.26887147144704499 0.14893536613761549 0 -0.27604236394903692 0.1571095183565501 0 -0.26887147144704499 0.14893536613761549 0 -0.28068976510294641 0.141219708011844 0 -0.26887147144704499 0.14893536613761549 0 -0.28068976510294641 0.141219708011844 0 -0.26406903427693212 0.13765959589518889 0 -0.28654626876983669 0.15759749377436411 0 -0.27604236394903692 0.1571095183565501 0 -0.28068976510294641 0.141219708011844 0 -0.27604236394903692 0.1571095183565501 0 -0.26890517454889462 0.16032572792752189 0 -0.26887147144704499 0.14893536613761549 0 -0.28068976510294641 0.141219708011844 0 -0.27525870962118498 0.12538345342265539 0 -0.26406903427693212 0.13765959589518889 0 -0.28567837638739502 0.12713103729610109 0 -0.28068976510294641 0.141219708011844 0 -0.27525870962118498 0.12538345342265539 0 -0.27525870962118498 0.12538345342265539 0 -0.26406903427693212 0.13765959589518889 0 -0.25885248836733549 0.1195373367531132 0 -0.25885248836733549 0.1195373367531132 0 -0.2469851836315565 0.1426497956307389 0 -0.26406903427693212 0.13765959589518889 0 -0.25885248836733549 0.1195373367531132 0 -0.2469851836315565 0.1426497956307389 0 -0.25885248836733549 0.1195373367531132 0 -0.27071979310311461 0.096424877875487536 0 -0.25885248836733549 0.1195373367531132 0 -0.27071979310311461 0.096424877875487536 0 -0.24636491872908509 0.096554757406472846 0 -0.27071979310311461 0.096424877875487536 0 -0.27415538341004719 0.1131377781386496 0 -0.28339871516668408 0.1063012167790757 0 -0.27071979310311461 0.096424877875487536 0 -0.28339871516668408 0.1063012167790757 0 -0.28493633862300738 0.091036964865712999 0 -0.25885248836733549 0.1195373367531132 0 -0.27071979310311461 0.096424877875487536 0 -0.27415538341004719 0.1131377781386496 0 -0.27525870962118498 0.12538345342265539 0 -0.25885248836733549 0.1195373367531132 0 -0.27415538341004719 0.1131377781386496 0 -0.27415538341004719 0.1131377781386496 0 -0.28254721079191719 0.1180420058629162 0 -0.28339871516668408 0.1063012167790757 0 -0.28567837638739502 0.12713103729610109 0 -0.27525870962118498 0.12538345342265539 0 -0.28254721079191719 0.1180420058629162 0 -0.27525870962118498 0.12538345342265539 0 -0.27415538341004719 0.1131377781386496 0 -0.28254721079191719 0.1180420058629162 0 -0.28567837638739502 0.12713103729610109 0 -0.28254721079191719 0.1180420058629162 0 -0.29463430462837742 0.120079541304825 0 -0.29463430462837742 0.120079541304825 0 -0.28339871516668408 0.1063012167790757 0 -0.29516312259250249 0.1079839713994265 0 -0.29463430462837742 0.120079541304825 0 -0.28339871516668408 0.1063012167790757 0 -0.28254721079191719 0.1180420058629162 0 -0.29463430462837742 0.120079541304825 0 -0.28339871516668408 0.1063012167790757 0 -0.28339871516668408 0.1063012167790757 0 -0.29424302995243767 0.09660362953439125 0 -0.28493633862300738 0.091036964865712999 0 -0.28339871516668408 0.1063012167790757 0 -0.29424302995243767 0.09660362953439125 0 -0.29516312259250249 0.1079839713994265 0 -0.30837644062251118 0.108951497979414 0 -0.31084083128054052 0.084464013121865245 0 -0.30220438730189969 0.089711751793227296 0 -0.29424302995243767 0.09660362953439125 0 -0.30837644062251118 0.108951497979414 0 -0.30220438730189969 0.089711751793227296 0 -0.29424302995243767 0.09660362953439125 0 -0.29516312259250249 0.1079839713994265 0 -0.30837644062251118 0.108951497979414 0 -0.30837644062251118 0.108951497979414 0 -0.31084083128054052 0.084464013121865245 0 -0.30322684813257128 0.12773698115998491 0 -0.3059120499644834 0.13343898283696279 0 -0.30837644062251118 0.108951497979414 0 -0.30322684813257128 0.12773698115998491 0 -0.29463430462837742 0.120079541304825 0 -0.30837644062251118 0.108951497979414 0 -0.3059120499644834 0.13343898283696279 0 -0.30837644062251118 0.108951497979414 0 -0.31427267927131758 0.12100423151837759 0 -0.3059120499644834 0.13343898283696279 0 -0.30837644062251118 0.108951497979414 0 -0.29463430462837742 0.120079541304825 0 -0.29516312259250249 0.1079839713994265 0 -0.30837644062251118 0.108951497979414 0 -0.30480203006332229 0.078672122167828956 0 -0.30927935446042448 0.056115267628292387 0 -0.30480203006332229 0.078672122167828956 0 -0.29577702497079411 0.067418862486359615 0 -0.30132341244580191 0.060788174756513769 0 -0.31084083128054052 0.084464013121865245 0 -0.31330522193856991 0.059976528264316542 0 -0.30480203006332229 0.078672122167828956 0 -0.31084083128054052 0.084464013121865245 0 -0.31330522193856991 0.059976528264316542 0 -0.30480203006332229 0.078672122167828956 0 -0.30927935446042448 0.056115267628292387 0 -0.31330522193856991 0.059976528264316542 0 -0.30480203006332229 0.078672122167828956 0 -0.30132341244580191 0.060788174756513769 0 -0.30927935446042448 0.056115267628292387 0 -0.30480203006332229 0.078672122167828956 0 -0.29373305705390768 0.082542681141748647 0 -0.29577702497079411 0.067418862486359615 0 -0.30480203006332229 0.078672122167828956 0 -0.31084083128054052 0.084464013121865245 0 -0.30220438730189969 0.089711751793227296 0 -0.30480203006332229 0.078672122167828956 0 -0.30220438730189969 0.089711751793227296 0 -0.29373305705390768 0.082542681141748647 0 -0.29373305705390768 0.082542681141748647 0 -0.28493633862300738 0.091036964865712999 0 -0.28258709783889352 0.073312418997861839 0 -0.29424302995243767 0.09660362953439125 0 -0.29373305705390768 0.082542681141748647 0 -0.28493633862300738 0.091036964865712999 0 -0.29424302995243767 0.09660362953439125 0 -0.30220438730189969 0.089711751793227296 0 -0.29373305705390768 0.082542681141748647 0 -0.28258709783889352 0.073312418997861839 0 -0.29577702497079411 0.067418862486359615 0 -0.29445440257467248 0.050199960120236198 0 -0.29373305705390768 0.082542681141748647 0 -0.28258709783889352 0.073312418997861839 0 -0.29577702497079411 0.067418862486359615 0 -0.28258709783889352 0.073312418997861839 0 -0.26560513530100888 0.078371459059326826 0 -0.26671940585664111 0.058782908711179992 0 -0.27071979310311461 0.096424877875487536 0 -0.28493633862300738 0.091036964865712999 0 -0.28258709783889352 0.073312418997861839 0 -0.27071979310311461 0.096424877875487536 0 -0.28258709783889352 0.073312418997861839 0 -0.26560513530100888 0.078371459059326826 0 -0.27071979310311461 0.096424877875487536 0 -0.28258709783889352 0.073312418997861839 0 -0.25817743021029249 0.0872568435248222 0 -0.26560513530100888 0.078371459059326826 0 -0.24949207580967209 0.073420190236084246 0 -0.27071979310311461 0.096424877875487536 0 -0.25817743021029249 0.0872568435248222 0 -0.26560513530100888 0.078371459059326826 0 -0.25817743021029249 0.0872568435248222 0 -0.24949207580967209 0.073420190236084246 0 -0.24636491872908509 0.096554757406472846 0 -0.27071979310311461 0.096424877875487536 0 -0.25817743021029249 0.0872568435248222 0 -0.24636491872908509 0.096554757406472846 0 -0.26560513530100888 0.078371459059326826 0 -0.26671940585664111 0.058782908711179992 0 -0.24949207580967209 0.073420190236084246 0 -0.26671940585664111 0.058782908711179992 0 -0.24987615818431921 0.052252513707734358 0 -0.24949207580967209 0.073420190236084246 0 -0.26136664208317378 0.032978093457854497 0 -0.26671940585664111 0.058782908711179992 0 -0.24987615818431921 0.052252513707734358 0 -0.26136664208317378 0.032978093457854497 0 -0.27310413759690089 0.046044537937696597 0 -0.2841889302988056 0.040478223311961263 0 -0.26136664208317378 0.032978093457854497 0 -0.2841889302988056 0.040478223311961263 0 -0.26136664208317378 0.032978093457854497 0 -0.27310413759690089 0.046044537937696597 0 -0.26671940585664111 0.058782908711179992 0 -0.26136664208317378 0.032978093457854497 0 -0.27787308232031238 0.029485986494344429 0 -0.2841889302988056 0.040478223311961263 0 -0.27310413759690089 0.046044537937696597 0 -0.28020310342382709 0.053560867199565348 0 -0.2841889302988056 0.040478223311961263 0 -0.28258709783889352 0.073312418997861839 0 -0.28020310342382709 0.053560867199565348 0 -0.26671940585664111 0.058782908711179992 0 -0.27310413759690089 0.046044537937696597 0 -0.28020310342382709 0.053560867199565348 0 -0.26671940585664111 0.058782908711179992 0 -0.26746938423273531 0.0096073856905865944 0 -0.24159572494232279 0.013792609720113201 0 -0.26385620570381479 -0.00051868159833714025 0 -0.26746938423273531 0.0096073856905865944 0 -0.24898136322109801 0.0008124272531647704 0 -0.26746938423273531 0.0096073856905865944 0 -0.24159572494232279 0.013792609720113201 0 -0.24898136322109801 0.0008124272531647704 0 -0.2559234215204515 0.020417559765030149 0 -0.26746938423273531 0.0096073856905865944 0 -0.24159572494232279 0.013792609720113201 0 -0.26136664208317378 0.032978093457854497 0 -0.2559234215204515 0.020417559765030149 0 -0.23854435386754211 0.02547796360374777 0 -0.2559234215204515 0.020417559765030149 0 -0.27074506944647769 0.021511546392545339 0 -0.26746938423273531 0.0096073856905865944 0 -0.26136664208317378 0.032978093457854497 0 -0.2559234215204515 0.020417559765030149 0 -0.27074506944647769 0.021511546392545339 0 -0.26136664208317378 0.032978093457854497 0 -0.27787308232031238 0.029485986494344429 0 -0.27074506944647769 0.021511546392545339 0 -0.27787308232031238 0.029485986494344429 0 -0.27074506944647769 0.021511546392545339 0 -0.2838011328956408 0.02162205255947406 0 -0.27074506944647769 0.021511546392545339 0 -0.27724237714132022 0.01418434974306548 0 -0.2838011328956408 0.02162205255947406 0 -0.26746938423273531 0.0096073856905865944 0 -0.27724237714132022 0.01418434974306548 0 -0.29334304352314777 0.0054221616610599672 0 -0.26746938423273531 0.0096073856905865944 0 -0.27637133406048681 6.0118097708170069e-05 0 -0.29334304352314777 0.0054221616610599672 0 -0.26746938423273531 0.0096073856905865944 0 -0.29334304352314777 0.0054221616610599672 0 -0.27074506944647769 0.021511546392545339 0 -0.26746938423273531 0.0096073856905865944 0 -0.27724237714132022 0.01418434974306548 0 -0.26385620570381479 -0.00051868159833714025 0 -0.26746938423273531 0.0096073856905865944 0 -0.27637133406048681 6.0118097708170069e-05 0 -0.27724237714132022 0.01418434974306548 0 -0.29334304352314777 0.0054221616610599672 0 -0.28697069153776172 0.01427507397946088 0 -0.28659625960943408 -0.001455963500717139 0 -0.27637133406048681 6.0118097708170069e-05 0 -0.29334304352314777 0.0054221616610599672 0 -0.29334304352314777 0.0054221616610599672 0 -0.29349621259093811 0.015871731954244031 0 -0.30036294235843902 0.01331427792985145 0 -0.29334304352314777 0.0054221616610599672 0 -0.28697069153776172 0.01427507397946088 0 -0.29349621259093811 0.015871731954244031 0 -0.29349621259093811 0.015871731954244031 0 -0.2838011328956408 0.02162205255947406 0 -0.29175863958047799 0.02359145379967997 0 -0.29349621259093811 0.015871731954244031 0 -0.29175863958047799 0.02359145379967997 0 -0.29736612138536639 0.020275440819623299 0 -0.27724237714132022 0.01418434974306548 0 -0.28697069153776172 0.01427507397946088 0 -0.2838011328956408 0.02162205255947406 0 -0.28697069153776172 0.01427507397946088 0 -0.29349621259093811 0.015871731954244031 0 -0.2838011328956408 0.02162205255947406 0 -0.27787308232031238 0.029485986494344429 0 -0.2838011328956408 0.02162205255947406 0 -0.28926363687746443 0.030840016749886991 0 -0.2838011328956408 0.02162205255947406 0 -0.28926363687746443 0.030840016749886991 0 -0.29175863958047799 0.02359145379967997 0 -0.28926363687746443 0.030840016749886991 0 -0.29908381068505269 0.026763866479227461 0 -0.29688424617767989 0.034155659877700202 0 -0.28926363687746443 0.030840016749886991 0 -0.29175863958047799 0.02359145379967997 0 -0.29908381068505269 0.026763866479227461 0 -0.29175863958047799 0.02359145379967997 0 -0.29908381068505269 0.026763866479227461 0 -0.29736612138536639 0.020275440819623299 0 -0.29908381068505269 0.026763866479227461 0 -0.3057752506668901 0.02871572787091603 0 -0.30575549864319512 0.02386578290961669 0 -0.29908381068505269 0.026763866479227461 0 -0.30575549864319512 0.02386578290961669 0 -0.30320421094365452 0.01974106627156207 0 -0.29908381068505269 0.026763866479227461 0 -0.3057752506668901 0.02871572787091603 0 -0.3030748334703115 0.033001856475370323 0 -0.3057752506668901 0.02871572787091603 0 -0.31036680837522918 0.024772079746598862 0 -0.30861411741368189 0.032109380724089413 0 -0.31036680837522918 0.024772079746598862 0 -0.30861411741368189 0.032109380724089413 0 -0.31375667885752673 0.03355841308875579 0 -0.3057752506668901 0.02871572787091603 0 -0.31036680837522918 0.024772079746598862 0 -0.30575549864319512 0.02386578290961669 0 -0.31036680837522918 0.024772079746598862 0 -0.30575549864319512 0.02386578290961669 0 -0.30946409383634133 0.01918561257973293 0 -0.30575549864319512 0.02386578290961669 0 -0.30946409383634133 0.01918561257973293 0 -0.30320421094365452 0.01974106627156207 0 -0.30946409383634133 0.01918561257973293 0 -0.30320421094365452 0.01974106627156207 0 -0.30858433271803809 0.01311043941917581 0 -0.29908381068505269 0.026763866479227461 0 -0.30320421094365452 0.01974106627156207 0 -0.29736612138536639 0.020275440819623299 0 -0.30320421094365452 0.01974106627156207 0 -0.29736612138536639 0.020275440819623299 0 -0.30036294235843902 0.01331427792985145 0 -0.29349621259093811 0.015871731954244031 0 -0.29736612138536639 0.020275440819623299 0 -0.30036294235843902 0.01331427792985145 0 -0.29334304352314777 0.0054221616610599672 0 -0.32018931475417339 0.001150658064265807 0 -0.29334304352314777 0.0054221616610599672 0 -0.30600207082514069 0.0072591763755061227 0 -0.32018931475417339 0.001150658064265807 0 -0.30320421094365452 0.01974106627156207 0 -0.30036294235843902 0.01331427792985145 0 -0.30858433271803809 0.01311043941917581 0 -0.29334304352314777 0.0054221616610599672 0 -0.30036294235843902 0.01331427792985145 0 -0.30600207082514069 0.0072591763755061227 0 -0.30036294235843902 0.01331427792985145 0 -0.30858433271803809 0.01311043941917581 0 -0.30600207082514069 0.0072591763755061227 0 -0.30946409383634133 0.01918561257973293 0 -0.30858433271803809 0.01311043941917581 0 -0.31823400325462881 0.011001558549219109 0 -0.30858433271803809 0.01311043941917581 0 -0.30600207082514069 0.0072591763755061227 0 -0.31300927740284201 0.0081520279938586057 0 -0.28258709783889352 0.073312418997861839 0 -0.29445440257467248 0.050199960120236198 0 -0.28258709783889352 0.073312418997861839 0 -0.28020310342382709 0.053560867199565348 0 -0.29445440257467248 0.050199960120236198 0 -0.28020310342382709 0.053560867199565348 0 -0.29445440257467248 0.050199960120236198 0 -0.2841889302988056 0.040478223311961263 0 -0.27787308232031238 0.029485986494344429 0 -0.28926363687746443 0.030840016749886991 0 -0.2841889302988056 0.040478223311961263 0 -0.28926363687746443 0.030840016749886991 0 -0.2841889302988056 0.040478223311961263 0 -0.29407976616453818 0.040467286988155743 0 -0.28926363687746443 0.030840016749886991 0 -0.29407976616453818 0.040467286988155743 0 -0.29688424617767989 0.034155659877700202 0 -0.29445440257467248 0.050199960120236198 0 -0.2841889302988056 0.040478223311961263 0 -0.29407976616453818 0.040467286988155743 0 -0.29445440257467248 0.050199960120236198 0 -0.29407976616453818 0.040467286988155743 0 -0.29939631025459978 0.04576321496514877 0 -0.30927935446042448 0.056115267628292387 0 -0.31375667885752673 0.03355841308875579 0 -0.30754988607692951 0.041340842694483251 0 -0.30927935446042448 0.056115267628292387 0 -0.31375667885752673 0.03355841308875579 0 -0.29407976616453818 0.040467286988155743 0 -0.29939631025459978 0.04576321496514877 0 -0.30144492787262611 0.040010454980369252 0 -0.30144492787262611 0.040010454980369252 0 -0.3046982045013662 0.046603711357130921 0 -0.30754988607692951 0.041340842694483251 0 -0.29939631025459978 0.04576321496514877 0 -0.30144492787262611 0.040010454980369252 0 -0.3046982045013662 0.046603711357130921 0 -0.29908381068505269 0.026763866479227461 0 -0.29688424617767989 0.034155659877700202 0 -0.3030748334703115 0.033001856475370323 0 -0.30144492787262611 0.040010454980369252 0 -0.29688424617767989 0.034155659877700202 0 -0.3030748334703115 0.033001856475370323 0 -0.29407976616453818 0.040467286988155743 0 -0.30144492787262611 0.040010454980369252 0 -0.29688424617767989 0.034155659877700202 0 -0.30144492787262611 0.040010454980369252 0 -0.3030748334703115 0.033001856475370323 0 -0.30664664800593872 0.036256048919919591 0 -0.30664664800593872 0.036256048919919591 0 -0.30947350276369512 0.035501160192431588 0 -0.30861411741368189 0.032109380724089413 0 -0.3057752506668901 0.02871572787091603 0 -0.3030748334703115 0.033001856475370323 0 -0.30861411741368189 0.032109380724089413 0 -0.3030748334703115 0.033001856475370323 0 -0.30664664800593872 0.036256048919919591 0 -0.30861411741368189 0.032109380724089413 0 -0.30664664800593872 0.036256048919919591 0 -0.30947350276369512 0.035501160192431588 0 -0.30754988607692951 0.041340842694483251 0 -0.30947350276369512 0.035501160192431588 0 -0.30754988607692951 0.041340842694483251 0 -0.31375667885752673 0.03355841308875579 0 -0.30947350276369512 0.035501160192431588 0 -0.30861411741368189 0.032109380724089413 0 -0.31375667885752673 0.03355841308875579 0 -0.30144492787262611 0.040010454980369252 0 -0.30664664800593872 0.036256048919919591 0 -0.30754988607692951 0.041340842694483251 0 -0.3046982045013662 0.046603711357130921 0 -0.3023042501597959 0.051534661379851722 0 -0.30927935446042448 0.056115267628292387 0 -0.3046982045013662 0.046603711357130921 0 -0.30754988607692951 0.041340842694483251 0 -0.30927935446042448 0.056115267628292387 0 -0.29577702497079411 0.067418862486359615 0 -0.29445440257467248 0.050199960120236198 0 -0.30132341244580191 0.060788174756513769 0 -0.29939631025459978 0.04576321496514877 0 -0.3046982045013662 0.046603711357130921 0 -0.3023042501597959 0.051534661379851722 0 -0.29445440257467248 0.050199960120236198 0 -0.29939631025459978 0.04576321496514877 0 -0.3023042501597959 0.051534661379851722 0 -0.29445440257467248 0.050199960120236198 0 -0.3023042501597959 0.051534661379851722 0 -0.30132341244580191 0.060788174756513769 0 -0.3023042501597959 0.051534661379851722 0 -0.30132341244580191 0.060788174756513769 0 -0.30927935446042448 0.056115267628292387 0 -0.31330522193856991 0.059976528264316542 0 -0.31777454739845867 0.045222967311696213 0 -0.31576961259659919 0.035489043406767819 0 -0.31330522193856991 0.059976528264316542 0 -0.31861584400316689 0.05817189038994465 0 -0.31775164000111478 0.051507395194089978 0 -0.31330522193856991 0.059976528264316542 0 -0.31576961259659919 0.035489043406767819 0 -0.30927935446042448 0.056115267628292387 0 -0.31330522193856991 0.059976528264316542 0 -0.31576961259659919 0.035489043406767819 0 -0.31861584400316689 0.05817189038994465 0 -0.3229568238274424 0.056892106195764749 0 -0.31775164000111478 0.051507395194089978 0 -0.31330522193856991 0.059976528264316542 0 -0.31861584400316689 0.05817189038994465 0 -0.32044969024554049 0.064311531905607344 0 -0.31861584400316689 0.05817189038994465 0 -0.3229568238274424 0.056892106195764749 0 -0.32044969024554049 0.064311531905607344 0 -0.3229568238274424 0.056892106195764749 0 -0.33335262482401312 0.054407151984212927 0 -0.32708421858261522 0.065724210335878497 0 -0.3229568238274424 0.056892106195764749 0 -0.32708421858261522 0.065724210335878497 0 -0.32044969024554049 0.064311531905607344 0 -0.3229568238274424 0.056892106195764749 0 -0.32502690536844031 0.047779014419086899 0 -0.33335262482401312 0.054407151984212927 0 -0.3229568238274424 0.056892106195764749 0 -0.32502690536844031 0.047779014419086899 0 -0.31775164000111478 0.051507395194089978 0 -0.32502690536844031 0.047779014419086899 0 -0.31775164000111478 0.051507395194089978 0 -0.31777454739845867 0.045222967311696213 0 -0.31330522193856991 0.059976528264316542 0 -0.31775164000111478 0.051507395194089978 0 -0.31777454739845867 0.045222967311696213 0 -0.31884440918757151 0.039368407042117193 0 -0.31777454739845867 0.045222967311696213 0 -0.31576961259659919 0.035489043406767819 0 -0.30927935446042448 0.056115267628292387 0 -0.31375667885752673 0.03355841308875579 0 -0.31576961259659919 0.035489043406767819 0 -0.31884440918757151 0.039368407042117193 0 -0.31777454739845867 0.045222967311696213 0 -0.32166741435423429 0.041132148526682157 0 -0.31884440918757151 0.039368407042117193 0 -0.31576961259659919 0.035489043406767819 0 -0.32115875668151073 0.036309110066184279 0 -0.31576961259659919 0.035489043406767819 0 -0.32115875668151073 0.036309110066184279 0 -0.32226017374783911 0.028673204635962062 0 -0.32115875668151073 0.036309110066184279 0 -0.32781444282009781 0.036570908512742813 0 -0.32226017374783911 0.028673204635962062 0 -0.31884440918757151 0.039368407042117193 0 -0.32115875668151073 0.036309110066184279 0 -0.32166741435423429 0.041132148526682157 0 -0.32115875668151073 0.036309110066184279 0 -0.32781444282009781 0.036570908512742813 0 -0.32166741435423429 0.041132148526682157 0 -0.32502690536844031 0.047779014419086899 0 -0.32781444282009781 0.036570908512742813 0 -0.32166741435423429 0.041132148526682157 0 -0.32502690536844031 0.047779014419086899 0 -0.31777454739845867 0.045222967311696213 0 -0.32166741435423429 0.041132148526682157 0 -0.33414724673429042 0.043764187334190248 0 -0.3396312006430488 0.03090738909655005 0 -0.34496511998381729 0.047167771872841602 0 -0.32502690536844031 0.047779014419086899 0 -0.32781444282009781 0.036570908512742813 0 -0.33414724673429042 0.043764187334190248 0 -0.32781444282009781 0.036570908512742813 0 -0.33414724673429042 0.043764187334190248 0 -0.3396312006430488 0.03090738909655005 0 -0.33335262482401312 0.054407151984212927 0 -0.34594163398508432 0.064887559730827937 0 -0.32708421858261522 0.065724210335878497 0 -0.33335262482401312 0.054407151984212927 0 -0.34496511998381729 0.047167771872841602 0 -0.34594163398508432 0.064887559730827937 0 -0.33414724673429042 0.043764187334190248 0 -0.33335262482401312 0.054407151984212927 0 -0.34496511998381729 0.047167771872841602 0 -0.32502690536844031 0.047779014419086899 0 -0.33414724673429042 0.043764187334190248 0 -0.33335262482401312 0.054407151984212927 0 -0.32018931475417339 0.001150658064265807 0 -0.31823400325462881 0.011001558549219109 0 -0.33284168086622851 0.0087815400107964306 0 -0.30600207082514069 0.0072591763755061227 0 -0.32018931475417339 0.001150658064265807 0 -0.31300927740284201 0.0081520279938586057 0 -0.32018931475417339 0.001150658064265807 0 -0.31823400325462881 0.011001558549219109 0 -0.32018931475417339 0.001150658064265807 0 -0.31823400325462881 0.011001558549219109 0 -0.31300927740284201 0.0081520279938586057 0 -0.30858433271803809 0.01311043941917581 0 -0.31823400325462881 0.011001558549219109 0 -0.31300927740284201 0.0081520279938586057 0 -0.31823400325462881 0.011001558549219109 0 -0.32863015864083872 0.015771813905720439 0 -0.33284168086622851 0.0087815400107964306 0 -0.31375667885752673 0.03355841308875579 0 -0.31576961259659919 0.035489043406767819 0 -0.31823400325462881 0.011001558549219109 0 -0.31036680837522918 0.024772079746598862 0 -0.31375667885752673 0.03355841308875579 0 -0.31823400325462881 0.011001558549219109 0 -0.31576961259659919 0.035489043406767819 0 -0.31823400325462881 0.011001558549219109 0 -0.31375667885752673 0.03355841308875579 0 -0.31823400325462881 0.011001558549219109 0 -0.31576961259659919 0.035489043406767819 0 -0.31823400325462881 0.011001558549219109 0 -0.32226017374783911 0.028673204635962062 0 -0.31823400325462881 0.011001558549219109 0 -0.32226017374783911 0.028673204635962062 0 -0.32832405338635862 0.02399540264489624 0 -0.31823400325462881 0.011001558549219109 0 -0.32832405338635862 0.02399540264489624 0 -0.32863015864083872 0.015771813905720439 0 -0.31036680837522918 0.024772079746598862 0 -0.30946409383634133 0.01918561257973293 0 -0.31823400325462881 0.011001558549219109 0 -0.32781444282009781 0.036570908512742813 0 -0.32226017374783911 0.028673204635962062 0 -0.32832405338635862 0.02399540264489624 0 -0.3396312006430488 0.03090738909655005 0 -0.33544292983876461 0.01896765845760065 0 -0.34843162122259952 0.014699954709301501 0 -0.32832405338635862 0.02399540264489624 0 -0.3396312006430488 0.03090738909655005 0 -0.33544292983876461 0.01896765845760065 0 -0.32781444282009781 0.036570908512742813 0 -0.32832405338635862 0.02399540264489624 0 -0.3396312006430488 0.03090738909655005 0 -0.32832405338635862 0.02399540264489624 0 -0.32863015864083872 0.015771813905720439 0 -0.33544292983876461 0.01896765845760065 0 -0.34237283903370141 -0.002508710274382982 0 -0.32018931475417339 0.001150658064265807 0 -0.33284168086622851 0.0087815400107964306 0 -0.34237283903370141 -0.002508710274382982 0 -0.33284168086622851 0.0087815400107964306 0 -0.34843162122259952 0.014699954709301501 0 -0.32863015864083872 0.015771813905720439 0 -0.33544292983876461 0.01896765845760065 0 -0.33284168086622851 0.0087815400107964306 0 -0.33544292983876461 0.01896765845760065 0 -0.33284168086622851 0.0087815400107964306 0 -0.34843162122259952 0.014699954709301501 0 -0.36456756248231031 -0.0060988437326308671 0 -0.34237283903370141 -0.002508710274382982 0 -0.34843162122259952 0.014699954709301501 0 -0.34843162122259952 0.014699954709301501 0 -0.36805969923601373 0.019294206343926711 0 -0.35642746924075469 0.03321534710288121 0 -0.3396312006430488 0.03090738909655005 0 -0.34843162122259952 0.014699954709301501 0 -0.35642746924075469 0.03321534710288121 0 -0.38296283187889207 0.022412192914518469 0 -0.36805969923601373 0.019294206343926711 0 -0.37274884129767788 0.035974001910163818 0 -0.36805969923601373 0.019294206343926711 0 -0.35642746924075469 0.03321534710288121 0 -0.37274884129767788 0.035974001910163818 0 -0.36456756248231031 -0.0060988437326308671 0 -0.34843162122259952 0.014699954709301501 0 -0.36805969923601373 0.019294206343926711 0 -0.36456756248231031 -0.0060988437326308671 0 -0.37851880893388989 0.0058557856277009872 0 -0.36805969923601373 0.019294206343926711 0 -0.34496511998381729 0.047167771872841602 0 -0.36008733803399279 0.05193786258593068 0 -0.34594163398508432 0.064887559730827937 0 -0.34496511998381729 0.047167771872841602 0 -0.35642746924075469 0.03321534710288121 0 -0.36008733803399279 0.05193786258593068 0 -0.3396312006430488 0.03090738909655005 0 -0.34496511998381729 0.047167771872841602 0 -0.35642746924075469 0.03321534710288121 0 -0.35642746924075469 0.03321534710288121 0 -0.37274884129767788 0.035974001910163818 0 -0.36008733803399279 0.05193786258593068 0 -0.37973077195786142 0.052061776294690137 0 -0.37274884129767788 0.035974001910163818 0 -0.36008733803399279 0.05193786258593068 0 -0.37973077195786142 0.052061776294690137 0 -0.37666575935382879 0.066907963707994761 0 -0.36008733803399279 0.05193786258593068 0 -0.38030296051667428 0.083946962843611944 0 -0.37666575935382879 0.066907963707994761 0 -0.36252503870386449 0.073933194079671249 0 -0.36008733803399279 0.05193786258593068 0 -0.36252503870386449 0.073933194079671249 0 -0.37666575935382879 0.066907963707994761 0 -0.36008733803399279 0.05193786258593068 0 -0.36252503870386449 0.073933194079671249 0 -0.36008733803399279 0.05193786258593068 0 -0.36252503870386449 0.073933194079671249 0 -0.34594163398508432 0.064887559730827937 0 -0.34594163398508432 0.064887559730827937 0 -0.35423120491103588 0.085580845077260603 0 -0.3405229590696125 0.083124092579636544 0 -0.36252503870386449 0.073933194079671249 0 -0.34594163398508432 0.064887559730827937 0 -0.35423120491103588 0.085580845077260603 0 -0.35396169955660989 0.1005239748233946 0 -0.3405229590696125 0.083124092579636544 0 -0.35423120491103588 0.085580845077260603 0 -0.35396169955660989 0.1005239748233946 0 -0.3405229590696125 0.083124092579636544 0 -0.38030296051667428 0.083946962843611944 0 -0.36252503870386449 0.073933194079671249 0 -0.36496273937373619 0.095928525573411833 0 -0.36252503870386449 0.073933194079671249 0 -0.36496273937373619 0.095928525573411833 0 -0.36252503870386449 0.073933194079671249 0 -0.35423120491103588 0.085580845077260603 0 -0.36496273937373619 0.095928525573411833 0 -0.36496273937373619 0.095928525573411833 0 -0.3674004400436075 0.1179238570671524 0 -0.35396169955660989 0.1005239748233946 0 -0.36496273937373619 0.095928525573411833 0 -0.3674004400436075 0.1179238570671524 0 -0.38345123666959458 0.105085813983875 0 -0.36496273937373619 0.095928525573411833 0 -0.3674004400436075 0.1179238570671524 0 -0.3674004400436075 0.1179238570671524 0 -0.35396169955660989 0.1005239748233946 0 -0.35702050269386831 0.1327139642115952 0 -0.3674004400436075 0.1179238570671524 0 -0.35052151589020292 0.116970012989599 0 -0.3674004400436075 0.1179238570671524 0 -0.35052151589020292 0.116970012989599 0 -0.35396169955660989 0.1005239748233946 0 -0.35052151589020292 0.116970012989599 0 -0.34391685190273891 0.1067270768170623 0 -0.33935023760863248 0.1169250810802487 0 -0.34575989467192381 0.1286381266460514 0 -0.35052151589020292 0.116970012989599 0 -0.33935023760863248 0.1169250810802487 0 -0.35052151589020292 0.116970012989599 0 -0.35396169955660989 0.1005239748233946 0 -0.34391685190273891 0.1067270768170623 0 -0.35396169955660989 0.1005239748233946 0 -0.33950376582090358 0.09766977648151226 0 -0.3405229590696125 0.083124092579636544 0 -0.35423120491103588 0.085580845077260603 0 -0.36496273937373619 0.095928525573411833 0 -0.35396169955660989 0.1005239748233946 0 -0.35396169955660989 0.1005239748233946 0 -0.34391685190273891 0.1067270768170623 0 -0.33950376582090358 0.09766977648151226 0 -0.34391685190273891 0.1067270768170623 0 -0.33950376582090358 0.09766977648151226 0 -0.33114866374909041 0.10487181963816181 0 -0.33950376582090358 0.09766977648151226 0 -0.33114866374909041 0.10487181963816181 0 -0.32903802398467302 0.093659758515528699 0 -0.34575989467192381 0.1286381266460514 0 -0.33596171820158022 0.12731152581170471 0 -0.33935023760863248 0.1169250810802487 0 -0.34391685190273891 0.1067270768170623 0 -0.33114866374909041 0.10487181963816181 0 -0.33935023760863248 0.1169250810802487 0 -0.33114866374909041 0.10487181963816181 0 -0.33935023760863248 0.1169250810802487 0 -0.32913460628321461 0.11716660610648701 0 -0.33596171820158022 0.12731152581170471 0 -0.33935023760863248 0.1169250810802487 0 -0.32913460628321461 0.11716660610648701 0 -0.33596171820158022 0.12731152581170471 0 -0.32913460628321461 0.11716660610648701 0 -0.32724165493071949 0.1244926899229274 0 -0.32077068178610768 0.12712211317260991 0 -0.32724165493071949 0.1244926899229274 0 -0.32238540633553397 0.1202335095340923 0 -0.32913460628321461 0.11716660610648701 0 -0.32724165493071949 0.1244926899229274 0 -0.32238540633553397 0.1202335095340923 0 -0.32913460628321461 0.11716660610648701 0 -0.32238540633553397 0.1202335095340923 0 -0.32050740940631017 0.1113819069500596 0 -0.33114866374909041 0.10487181963816181 0 -0.32913460628321461 0.11716660610648701 0 -0.32050740940631017 0.1113819069500596 0 -0.30837644062251118 0.108951497979414 0 -0.32050740940631017 0.1113819069500596 0 -0.31427267927131758 0.12100423151837759 0 -0.32238540633553397 0.1202335095340923 0 -0.32050740940631017 0.1113819069500596 0 -0.31427267927131758 0.12100423151837759 0 -0.32077068178610768 0.12712211317260991 0 -0.32238540633553397 0.1202335095340923 0 -0.31427267927131758 0.12100423151837759 0 -0.30837644062251118 0.108951497979414 0 -0.31084083128054052 0.084464013121865245 0 -0.31866877349342071 0.096811684238738427 0 -0.33114866374909041 0.10487181963816181 0 -0.31866877349342071 0.096811684238738427 0 -0.32903802398467302 0.093659758515528699 0 -0.33114866374909041 0.10487181963816181 0 -0.32050740940631017 0.1113819069500596 0 -0.31866877349342071 0.096811684238738427 0 -0.30837644062251118 0.108951497979414 0 -0.32050740940631017 0.1113819069500596 0 -0.31866877349342071 0.096811684238738427 0 -0.31084083128054052 0.084464013121865245 0 -0.31866877349342071 0.096811684238738427 0 -0.32078120363696899 0.088124789546344326 0 -0.31866877349342071 0.096811684238738427 0 -0.32078120363696899 0.088124789546344326 0 -0.32903802398467302 0.093659758515528699 0 -0.32078120363696899 0.088124789546344326 0 -0.32607442134994902 0.084241398873381668 0 -0.32903802398467302 0.093659758515528699 0 -0.32607442134994902 0.084241398873381668 0 -0.31939757535343011 0.081013422414070557 0 -0.32513787972949482 0.075235788541081761 0 -0.32078120363696899 0.088124789546344326 0 -0.32607442134994902 0.084241398873381668 0 -0.31939757535343011 0.081013422414070557 0 -0.31084083128054052 0.084464013121865245 0 -0.31939757535343011 0.081013422414070557 0 -0.31729841377582152 0.073000075137915982 0 -0.31084083128054052 0.084464013121865245 0 -0.32078120363696899 0.088124789546344326 0 -0.31939757535343011 0.081013422414070557 0 -0.31084083128054052 0.084464013121865245 0 -0.31330522193856991 0.059976528264316542 0 -0.31729841377582152 0.073000075137915982 0 -0.31330522193856991 0.059976528264316542 0 -0.31729841377582152 0.073000075137915982 0 -0.32044969024554049 0.064311531905607344 0 -0.32708421858261522 0.065724210335878497 0 -0.32044969024554049 0.064311531905607344 0 -0.32513787972949482 0.075235788541081761 0 -0.31939757535343011 0.081013422414070557 0 -0.31729841377582152 0.073000075137915982 0 -0.32513787972949482 0.075235788541081761 0 -0.31729841377582152 0.073000075137915982 0 -0.32044969024554049 0.064311531905607344 0 -0.32513787972949482 0.075235788541081761 0 -0.34594163398508432 0.064887559730827937 0 -0.32708421858261522 0.065724210335878497 0 -0.3405229590696125 0.083124092579636544 0 -0.32708421858261522 0.065724210335878497 0 -0.3405229590696125 0.083124092579636544 0 -0.32708421858261522 0.065724210335878497 0 -0.32513787972949482 0.075235788541081761 0 -0.3405229590696125 0.083124092579636544 0 -0.33950376582090358 0.09766977648151226 0 -0.3405229590696125 0.083124092579636544 0 -0.32903802398467302 0.093659758515528699 0 -0.32607442134994902 0.084241398873381668 0 -0.3405229590696125 0.083124092579636544 0 -0.32903802398467302 0.093659758515528699 0 -0.32607442134994902 0.084241398873381668 0 -0.32513787972949482 0.075235788541081761 0 -0.3405229590696125 0.083124092579636544 0 -0.39289342680530442 0.5 0 -0.39462886676704317 0.46838923121281267 0 -0.41121548462743779 0.48201335898409209 0 -0.39289342680530442 0.5 0 -0.37867182102719532 0.48140896602341687 0 -0.39462886676704317 0.46838923121281267 0 -0.39289342680530442 0.5 0 -0.37867182102719532 0.48140896602341687 0 -0.36449000419944971 0.5 0 -0.37867182102719532 0.48140896602341687 0 -0.39462886676704317 0.46838923121281267 0 -0.37476042249018182 0.46542014300639722 0 -0.38308617961569619 0.45209835823525862 0 -0.39462886676704317 0.46838923121281267 0 -0.37476042249018182 0.46542014300639722 0 -0.38308617961569619 0.45209835823525862 0 -0.36989994327681991 0.45247579671256272 0 -0.37476042249018182 0.46542014300639722 0 -0.3864291352249925 0.44153769337062421 0 -0.38067854918914162 0.42984422672391692 0 -0.37429840712895762 0.44267207421282778 0 -0.38308617961569619 0.45209835823525862 0 -0.36989994327681991 0.45247579671256272 0 -0.37429840712895762 0.44267207421282778 0 -0.38308617961569619 0.45209835823525862 0 -0.3864291352249925 0.44153769337062421 0 -0.37429840712895762 0.44267207421282778 0 -0.38308617961569619 0.45209835823525862 0 -0.3864291352249925 0.44153769337062421 0 -0.3977059085465311 0.4499514908846014 0 -0.3864291352249925 0.44153769337062421 0 -0.3977059085465311 0.4499514908846014 0 -0.39642125585854843 0.43365884762555262 0 -0.3977059085465311 0.4499514908846014 0 -0.41176927559052651 0.44199207382121319 0 -0.39642125585854843 0.43365884762555262 0 -0.3977059085465311 0.4499514908846014 0 -0.39462886676704317 0.46838923121281267 0 -0.41390073822237972 0.46203274104214759 0 -0.38308617961569619 0.45209835823525862 0 -0.3977059085465311 0.4499514908846014 0 -0.39462886676704317 0.46838923121281267 0 -0.41390073822237972 0.46203274104214759 0 -0.41176927559052651 0.44199207382121319 0 -0.43159295575770662 0.44430902215457008 0 -0.3977059085465311 0.4499514908846014 0 -0.41390073822237972 0.46203274104214759 0 -0.41176927559052651 0.44199207382121319 0 -0.41176927559052651 0.44199207382121319 0 -0.43159295575770662 0.44430902215457008 0 -0.4225220238229504 0.4289935323575248 0 -0.41390073822237972 0.46203274104214759 0 -0.43741587467569809 0.46170562568711843 0 -0.41390073822237972 0.46203274104214759 0 -0.43159295575770662 0.44430902215457008 0 -0.43741587467569809 0.46170562568711843 0 -0.41390073822237972 0.46203274104214759 0 -0.43741587467569809 0.46170562568711843 0 -0.4333575419313026 0.4796448226655004 0 -0.41390073822237972 0.46203274104214759 0 -0.4333575419313026 0.4796448226655004 0 -0.41121548462743779 0.48201335898409209 0 -0.39462886676704317 0.46838923121281267 0 -0.41390073822237972 0.46203274104214759 0 -0.41121548462743779 0.48201335898409209 0 -0.39289342680530442 0.5 0 -0.41121548462743779 0.48201335898409209 0 -0.42129684941115908 0.5 0 -0.4333575419313026 0.4796448226655004 0 -0.41121548462743779 0.48201335898409209 0 -0.42129684941115908 0.5 0 -0.4333575419313026 0.4796448226655004 0 -0.42129684941115908 0.5 0 -0.4497002720170139 0.5 0 -0.4333575419313026 0.4796448226655004 0 -0.4497002720170139 0.5 0 -0.45329283823362299 0.48133616513368882 0 -0.4333575419313026 0.4796448226655004 0 -0.45035759438447698 0.47083991836574163 0 -0.45329283823362299 0.48133616513368882 0 -0.43741587467569809 0.46170562568711843 0 -0.4333575419313026 0.4796448226655004 0 -0.45035759438447698 0.47083991836574163 0 -0.45329283823362299 0.48133616513368882 0 -0.46306738605211217 0.47532840436797091 0 -0.47064820238123573 0.48371311336788397 0 -0.45035759438447698 0.47083991836574163 0 -0.45647733821130621 0.47384154849735682 0 -0.45329283823362299 0.48133616513368882 0 -0.45647733821130621 0.47384154849735682 0 -0.46306738605211217 0.47532840436797091 0 -0.46119188746074108 0.46687619413104497 0 -0.45035759438447698 0.47083991836574163 0 -0.45647733821130621 0.47384154849735682 0 -0.46119188746074108 0.46687619413104497 0 -0.45647733821130621 0.47384154849735682 0 -0.45329283823362299 0.48133616513368882 0 -0.46306738605211217 0.47532840436797091 0 -0.46306738605211217 0.47532840436797091 0 -0.47087525455570078 0.47012732801453899 0 -0.46119188746074108 0.46687619413104497 0 -0.46306738605211217 0.47532840436797091 0 -0.47064820238123573 0.48371311336788397 0 -0.47087525455570078 0.47012732801453899 0 -0.4497002720170139 0.5 0 -0.4781036946228685 0.49999999999999961 0 -0.47064820238123573 0.48371311336788397 0 -0.4497002720170139 0.5 0 -0.45329283823362299 0.48133616513368882 0 -0.47064820238123573 0.48371311336788397 0 -0.4781036946228685 0.49999999999999961 0 -0.47064820238123573 0.48371311336788397 0 -0.48905184731143392 0.48492831712142792 0 -0.4781036946228685 0.49999999999999961 0 -0.48905184731143392 0.48492831712142792 0 -0.47064820238123573 0.48371311336788397 0 -0.47087525455570078 0.47012732801453899 0 -0.48726136737020131 0.47211546235395058 0 -0.47064820238123573 0.48371311336788397 0 -0.48726136737020131 0.47211546235395058 0 -0.48905184731143392 0.48492831712142792 0 -0.48726136737020131 0.47211546235395058 0 -0.49999999999999972 0.46985663424285651 0 -0.48905184731143392 0.48492831712142792 0 -0.49999999999999972 0.46985663424285651 0 -0.48905184731143392 0.48492831712142792 0 -0.4781036946228685 0.49999999999999961 0 -0.5 0.5 0 -0.48905184731143392 0.48492831712142792 0 -0.49999999999999972 0.46985663424285651 0 -0.5 0.5 0 -0.48905184731143392 0.48492831712142792 0 -0.48621771118486978 0.44796884276889237 0 -0.47914598973026701 0.43469213402103468 0 -0.5 0.43296813639638521 0 -0.48621771118486978 0.44796884276889237 0 -0.50000000000000133 0.46083502778881152 0 -0.5 0.43296813639638521 0 -0.48726136737020131 0.47211546235395058 0 -0.50000000000000133 0.46083502778881152 0 -0.48046550556450879 0.46110676906045028 0 -0.48621771118486978 0.44796884276889237 0 -0.50000000000000133 0.46083502778881152 0 -0.48046550556450879 0.46110676906045028 0 -0.50000000000000133 0.46083502778881152 0 -0.48046550556450879 0.46110676906045028 0 -0.48726136737020131 0.47211546235395058 0 -0.49999999999999972 0.46985663424285651 0 -0.50000000000000133 0.46083502778881152 0 -0.47087525455570078 0.47012732801453899 0 -0.48726136737020131 0.47211546235395058 0 -0.48046550556450879 0.46110676906045028 0 -0.48046550556450879 0.46110676906045028 0 -0.47147706062957317 0.45024214657778022 0 -0.46093101112901652 0.46137851033208899 0 -0.47087525455570078 0.47012732801453899 0 -0.48046550556450879 0.46110676906045028 0 -0.46093101112901652 0.46137851033208899 0 -0.48046550556450879 0.46110676906045028 0 -0.46093101112901652 0.46137851033208899 0 -0.47147706062957317 0.45024214657778022 0 -0.45995816799726819 0.44087690373165778 0 -0.47914598973026701 0.43469213402103468 0 -0.48621771118486978 0.44796884276889237 0 -0.48046550556450879 0.46110676906045028 0 -0.47147706062957317 0.45024214657778022 0 -0.48621771118486978 0.44796884276889237 0 -0.47147706062957317 0.45024214657778022 0 -0.47914598973026701 0.43469213402103468 0 -0.45995816799726819 0.44087690373165778 0 -0.46093101112901652 0.46137851033208899 0 -0.44752819004120142 0.4485988878627909 0 -0.47147706062957317 0.45024214657778022 0 -0.45995816799726819 0.44087690373165778 0 -0.46093101112901652 0.46137851033208899 0 -0.45995816799726819 0.44087690373165778 0 -0.46093101112901652 0.46137851033208899 0 -0.47087525455570078 0.47012732801453899 0 -0.46119188746074108 0.46687619413104497 0 -0.46093101112901652 0.46137851033208899 0 -0.46119188746074108 0.46687619413104497 0 -0.46093101112901652 0.46137851033208899 0 -0.45035759438447698 0.47083991836574163 0 -0.46119188746074108 0.46687619413104497 0 -0.46093101112901652 0.46137851033208899 0 -0.43741587467569809 0.46170562568711843 0 -0.46093101112901652 0.46137851033208899 0 -0.44752819004120142 0.4485988878627909 0 -0.43741587467569809 0.46170562568711843 0 -0.45035759438447698 0.47083991836574163 0 -0.46093101112901652 0.46137851033208899 0 -0.43741587467569809 0.46170562568711843 0 -0.46093101112901652 0.46137851033208899 0 -0.43159295575770662 0.44430902215457008 0 -0.43741587467569809 0.46170562568711843 0 -0.44752819004120142 0.4485988878627909 0 -0.43159295575770662 0.44430902215457008 0 -0.44752819004120142 0.4485988878627909 0 -0.44774294064631831 0.43472437740851921 0 -0.45995816799726819 0.44087690373165778 0 -0.44752819004120142 0.4485988878627909 0 -0.44774294064631831 0.43472437740851921 0 -0.43159295575770662 0.44430902215457008 0 -0.44774294064631831 0.43472437740851921 0 -0.43571031064659987 0.42814575419973983 0 -0.44629506549072329 0.42220256396583961 0 -0.44774294064631831 0.43472437740851921 0 -0.43571031064659987 0.42814575419973983 0 -0.44629506549072329 0.42220256396583961 0 -0.43862432244308419 0.41650323798583289 0 -0.43571031064659987 0.42814575419973983 0 -0.44629506549072329 0.42220256396583961 0 -0.44774294064631831 0.43472437740851921 0 -0.45898532486551791 0.42037529713122668 0 -0.43862432244308419 0.41650323798583289 0 -0.44740478758562169 0.40929025474671121 0 -0.43319099978351527 0.40499835990701699 0 -0.44629506549072329 0.42220256396583961 0 -0.43862432244308419 0.41650323798583289 0 -0.44740478758562169 0.40929025474671121 0 -0.44629506549072329 0.42220256396583961 0 -0.44740478758562169 0.40929025474671121 0 -0.45898532486551791 0.42037529713122668 0 -0.45898532486551791 0.42037529713122668 0 -0.45790853850480751 0.39768320049248168 0 -0.45898532486551791 0.42037529713122668 0 -0.46588029358155492 0.41157498772293688 0 -0.45790853850480751 0.39768320049248168 0 -0.44740478758562169 0.40929025474671121 0 -0.45898532486551791 0.42037529713122668 0 -0.45790853850480751 0.39768320049248168 0 -0.45898532486551791 0.42037529713122668 0 -0.46588029358155492 0.41157498772293688 0 -0.46631678104923779 0.42784639715563438 0 -0.45898532486551791 0.42037529713122668 0 -0.46588029358155492 0.41157498772293688 0 -0.45995816799726819 0.44087690373165778 0 -0.45898532486551791 0.42037529713122668 0 -0.46631678104923779 0.42784639715563438 0 -0.45995816799726819 0.44087690373165778 0 -0.44774294064631831 0.43472437740851921 0 -0.45898532486551791 0.42037529713122668 0 -0.45995816799726819 0.44087690373165778 0 -0.45898532486551791 0.42037529713122668 0 -0.45995816799726819 0.44087690373165778 0 -0.46631678104923779 0.42784639715563438 0 -0.47914598973026701 0.43469213402103468 0 -0.44774294064631831 0.43472437740851921 0 -0.45898532486551791 0.42037529713122668 0 -0.46588029358155492 0.41157498772293688 0 -0.46631678104923779 0.42784639715563438 0 -0.47914598973026701 0.43469213402103468 0 -0.46588029358155492 0.41157498772293688 0 -0.47914598973026701 0.43469213402103468 0 -0.46588029358155492 0.41157498772293688 0 -0.47914598973026701 0.43469213402103468 0 -0.48444792507507117 0.41628482580764559 0 -0.46588029358155492 0.41157498772293688 0 -0.48444792507507117 0.41628482580764559 0 -0.48175184999166021 0.39131751985724539 0 -0.48444792507507117 0.41628482580764559 0 -0.5 0.43296813639638521 0 -0.5 0.40510124500395872 0 -0.47914598973026701 0.43469213402103468 0 -0.48444792507507117 0.41628482580764559 0 -0.5 0.43296813639638521 0 -0.5 0.3772343536115324 0 -0.48175184999166021 0.39131751985724539 0 -0.49762340640176589 0.37106005199155417 0 -0.48175184999166021 0.39131751985724539 0 -0.49762340640176589 0.37106005199155417 0 -0.48175184999166021 0.39131751985724539 0 -0.48250959790406012 0.37356429496207499 0 -0.49762340640176589 0.37106005199155417 0 -0.48444792507507117 0.41628482580764559 0 -0.5 0.40510124500395872 0 -0.48175184999166021 0.39131751985724539 0 -0.5 0.3772343536115324 0 -0.5 0.40510124500395872 0 -0.48175184999166021 0.39131751985724539 0 -0.46588029358155492 0.41157498772293688 0 -0.48175184999166021 0.39131751985724539 0 -0.48175184999166021 0.39131751985724539 0 -0.47058491708030609 0.38041925280838218 0 -0.48250959790406012 0.37356429496207499 0 -0.48175184999166021 0.39131751985724539 0 -0.47058491708030609 0.38041925280838218 0 -0.45790853850480751 0.39768320049248168 0 -0.45708374044938188 0.38030148220177079 0 -0.45790853850480751 0.39768320049248168 0 -0.47058491708030609 0.38041925280838218 0 -0.45708374044938188 0.38030148220177079 0 -0.45974123117554061 0.36517580530240062 0 -0.47058491708030609 0.38041925280838218 0 -0.45708374044938188 0.38030148220177079 0 -0.45790853850480751 0.39768320049248168 0 -0.46588029358155492 0.41157498772293688 0 -0.48175184999166021 0.39131751985724539 0 -0.45790853850480751 0.39768320049248168 0 -0.46588029358155492 0.41157498772293688 0 -0.45790853850480751 0.39768320049248168 0 -0.44740478758562169 0.40929025474671121 0 -0.43989923582484608 0.39301767138677912 0 -0.43319099978351527 0.40499835990701699 0 -0.44740478758562169 0.40929025474671121 0 -0.45790853850480751 0.39768320049248168 0 -0.43989923582484608 0.39301767138677912 0 -0.43989923582484608 0.39301767138677912 0 -0.43052987549634752 0.38008079301898778 0 -0.4442438722082106 0.3738707984630712 0 -0.45790853850480751 0.39768320049248168 0 -0.43989923582484608 0.39301767138677912 0 -0.4442438722082106 0.3738707984630712 0 -0.45708374044938188 0.38030148220177079 0 -0.45790853850480751 0.39768320049248168 0 -0.4442438722082106 0.3738707984630712 0 -0.45790853850480751 0.39768320049248168 0 -0.4442438722082106 0.3738707984630712 0 -0.43052987549634752 0.38008079301898778 0 -0.41451281142306601 0.37650563042412499 0 -0.4253877056446187 0.39174116059596531 0 -0.43989923582484608 0.39301767138677912 0 -0.43052987549634752 0.38008079301898778 0 -0.4253877056446187 0.39174116059596531 0 -0.41451281142306601 0.37650563042412499 0 -0.40735383046228618 0.39410592018193691 0 -0.4253877056446187 0.39174116059596531 0 -0.40735383046228618 0.39410592018193691 0 -0.42072841115205267 0.40319197845089838 0 -0.4253877056446187 0.39174116059596531 0 -0.40977009745741427 0.40576244684510898 0 -0.40735383046228618 0.39410592018193691 0 -0.42072841115205267 0.40319197845089838 0 -0.42072841115205267 0.40319197845089838 0 -0.4253877056446187 0.39174116059596531 0 -0.43319099978351527 0.40499835990701699 0 -0.43989923582484608 0.39301767138677912 0 -0.4253877056446187 0.39174116059596531 0 -0.43319099978351527 0.40499835990701699 0 -0.43862432244308419 0.41650323798583289 0 -0.43319099978351527 0.40499835990701699 0 -0.42674310713021329 0.41633110107895782 0 -0.43862432244308419 0.41650323798583289 0 -0.42674310713021329 0.41633110107895782 0 -0.43571031064659987 0.42814575419973983 0 -0.42072841115205267 0.40319197845089838 0 -0.43319099978351527 0.40499835990701699 0 -0.42674310713021329 0.41633110107895782 0 -0.43159295575770662 0.44430902215457008 0 -0.43571031064659987 0.42814575419973983 0 -0.4225220238229504 0.4289935323575248 0 -0.42674310713021329 0.41633110107895782 0 -0.43571031064659987 0.42814575419973983 0 -0.4225220238229504 0.4289935323575248 0 -0.41176927559052651 0.44199207382121319 0 -0.4225220238229504 0.4289935323575248 0 -0.40923345322317523 0.42882055544358599 0 -0.4225220238229504 0.4289935323575248 0 -0.40923345322317523 0.42882055544358599 0 -0.41243791491908433 0.41673141702737271 0 -0.40923345322317523 0.42882055544358599 0 -0.41243791491908433 0.41673141702737271 0 -0.40136992482467609 0.42166103768161278 0 -0.42072841115205267 0.40319197845089838 0 -0.42674310713021329 0.41633110107895782 0 -0.41243791491908433 0.41673141702737271 0 -0.40977009745741427 0.40576244684510898 0 -0.42072841115205267 0.40319197845089838 0 -0.41243791491908433 0.41673141702737271 0 -0.42674310713021329 0.41633110107895782 0 -0.4225220238229504 0.4289935323575248 0 -0.41243791491908433 0.41673141702737271 0 -0.40977009745741427 0.40576244684510898 0 -0.41243791491908433 0.41673141702737271 0 -0.39856023329623408 0.40902047172022787 0 -0.41243791491908433 0.41673141702737271 0 -0.39856023329623408 0.40902047172022787 0 -0.40136992482467609 0.42166103768161278 0 -0.39856023329623408 0.40902047172022787 0 -0.40136992482467609 0.42166103768161278 0 -0.39019676682633853 0.42007389659132482 0 -0.39856023329623408 0.40902047172022787 0 -0.38674078025881259 0.40878494489525002 0 -0.39019676682633853 0.42007389659132482 0 -0.41176927559052651 0.44199207382121319 0 -0.40923345322317523 0.42882055544358599 0 -0.39642125585854843 0.43365884762555262 0 -0.40923345322317523 0.42882055544358599 0 -0.40136992482467609 0.42166103768161278 0 -0.39642125585854843 0.43365884762555262 0 -0.40136992482467609 0.42166103768161278 0 -0.39642125585854843 0.43365884762555262 0 -0.39019676682633853 0.42007389659132482 0 -0.3864291352249925 0.44153769337062421 0 -0.39642125585854843 0.43365884762555262 0 -0.38067854918914162 0.42984422672391692 0 -0.39642125585854843 0.43365884762555262 0 -0.38067854918914162 0.42984422672391692 0 -0.39019676682633853 0.42007389659132482 0 -0.38067854918914162 0.42984422672391692 0 -0.39019676682633853 0.42007389659132482 0 -0.37684391915543292 0.41635539798951421 0 -0.38067854918914162 0.42984422672391692 0 -0.37684391915543292 0.41635539798951421 0 -0.3728407073098865 0.4255912625744222 0 -0.38067854918914162 0.42984422672391692 0 -0.37041857671991169 0.43171617260290029 0 -0.37429840712895762 0.44267207421282778 0 -0.38674078025881259 0.40878494489525002 0 -0.37684391915543292 0.41635539798951421 0 -0.37720759847638669 0.40068593937053698 0 -0.38674078025881259 0.40878494489525002 0 -0.39019676682633853 0.42007389659132482 0 -0.37684391915543292 0.41635539798951421 0 -0.37720759847638669 0.40068593937053698 0 -0.39099341277771371 0.37692262575971658 0 -0.39205519037113978 0.39789352933272559 0 -0.38674078025881259 0.40878494489525002 0 -0.37720759847638669 0.40068593937053698 0 -0.39205519037113978 0.39789352933272559 0 -0.37720759847638669 0.40068593937053698 0 -0.39099341277771371 0.37692262575971658 0 -0.37153236075703089 0.38725356624042601 0 -0.37720759847638669 0.40068593937053698 0 -0.39099341277771371 0.37692262575971658 0 -0.39099341277771371 0.37692262575971658 0 -0.36399721317659878 0.37476923518029959 0 -0.37153236075703089 0.38725356624042601 0 -0.40735383046228618 0.39410592018193691 0 -0.39099341277771371 0.37692262575971658 0 -0.39205519037113978 0.39789352933272559 0 -0.41451281142306601 0.37650563042412499 0 -0.40735383046228618 0.39410592018193691 0 -0.39099341277771371 0.37692262575971658 0 -0.40735383046228618 0.39410592018193691 0 -0.39856023329623408 0.40902047172022787 0 -0.39205519037113978 0.39789352933272559 0 -0.40977009745741427 0.40576244684510898 0 -0.40735383046228618 0.39410592018193691 0 -0.39856023329623408 0.40902047172022787 0 -0.39856023329623408 0.40902047172022787 0 -0.38674078025881259 0.40878494489525002 0 -0.39205519037113978 0.39789352933272559 0 -0.40477922707904079 0.35315931214889618 0 -0.37955194810788789 0.35452529114838799 0 -0.39037311454626078 0.34146973137674491 0 -0.41451281142306601 0.37650563042412499 0 -0.39099341277771371 0.37692262575971658 0 -0.40477922707904079 0.35315931214889618 0 -0.39099341277771371 0.37692262575971658 0 -0.40477922707904079 0.35315931214889618 0 -0.37955194810788789 0.35452529114838799 0 -0.39099341277771371 0.37692262575971658 0 -0.40477922707904079 0.35315931214889618 0 -0.39099341277771371 0.37692262575971658 0 -0.37955194810788789 0.35452529114838799 0 -0.36399721317659878 0.37476923518029959 0 -0.37955194810788789 0.35452529114838799 0 -0.37779573963369989 0.33525716446138559 0 -0.39037311454626078 0.34146973137674491 0 -0.37779573963369989 0.33525716446138559 0 -0.38840847957312191 0.32899345203503871 0 -0.37822586773720202 0.32136025828387182 0 -0.37779573963369989 0.33525716446138559 0 -0.38840847957312191 0.32899345203503871 0 -0.39037311454626078 0.34146973137674491 0 -0.38008376656959769 0.31314391771657119 0 -0.37822586773720202 0.32136025828387182 0 -0.38709635655409358 0.31554606984025863 0 -0.38008376656959769 0.31314391771657119 0 -0.37822586773720202 0.32136025828387182 0 -0.3710367376126058 0.31173281731353503 0 -0.38840847957312191 0.32899345203503871 0 -0.38709635655409358 0.31554606984025863 0 -0.39596304300755758 0.32124028325124449 0 -0.38840847957312191 0.32899345203503871 0 -0.37822586773720202 0.32136025828387182 0 -0.38709635655409358 0.31554606984025863 0 -0.39596304300755758 0.32124028325124449 0 -0.40055621607164349 0.31427910334371711 0 -0.39413665710575507 0.31222704581876742 0 -0.38709635655409358 0.31554606984025863 0 -0.39596304300755758 0.32124028325124449 0 -0.39413665710575507 0.31222704581876742 0 -0.39596304300755758 0.32124028325124449 0 -0.40133017833755352 0.33541343709001581 0 -0.40626003411661699 0.3235099982394144 0 -0.40055621607164349 0.31427910334371711 0 -0.41147155273187758 0.31668693134386577 0 -0.40554716938954732 0.30758629134902099 0 -0.39596304300755758 0.32124028325124449 0 -0.40055621607164349 0.31427910334371711 0 -0.40626003411661699 0.3235099982394144 0 -0.40055621607164349 0.31427910334371711 0 -0.41147155273187758 0.31668693134386577 0 -0.40626003411661699 0.3235099982394144 0 -0.40477922707904079 0.35315931214889618 0 -0.39037311454626078 0.34146973137674491 0 -0.40133017833755352 0.33541343709001581 0 -0.38840847957312191 0.32899345203503871 0 -0.39596304300755758 0.32124028325124449 0 -0.40133017833755352 0.33541343709001581 0 -0.38840847957312191 0.32899345203503871 0 -0.39037311454626078 0.34146973137674491 0 -0.40133017833755352 0.33541343709001581 0 -0.40477922707904079 0.35315931214889618 0 -0.40133017833755352 0.33541343709001581 0 -0.41980750120530541 0.32931098093361238 0 -0.40133017833755352 0.33541343709001581 0 -0.41980750120530541 0.32931098093361238 0 -0.40626003411661699 0.3235099982394144 0 -0.41980750120530541 0.32931098093361238 0 -0.41147155273187758 0.31668693134386577 0 -0.41944228843877679 0.31040156390963791 0 -0.41980750120530541 0.32931098093361238 0 -0.41147155273187758 0.31668693134386577 0 -0.40626003411661699 0.3235099982394144 0 -0.41980750120530541 0.32931098093361238 0 -0.4350613720736638 0.31418519476605139 0 -0.4472702618979052 0.33011924715719232 0 -0.41980750120530541 0.32931098093361238 0 -0.4350613720736638 0.31418519476605139 0 -0.41944228843877679 0.31040156390963791 0 -0.41980750120530541 0.32931098093361238 0 -0.43057920591161342 0.35005839643366088 0 -0.4472702618979052 0.33011924715719232 0 -0.40477922707904079 0.35315931214889618 0 -0.43057920591161342 0.35005839643366088 0 -0.42655430048244042 0.36605855977789148 0 -0.40477922707904079 0.35315931214889618 0 -0.41980750120530541 0.32931098093361238 0 -0.43057920591161342 0.35005839643366088 0 -0.41451281142306601 0.37650563042412499 0 -0.40477922707904079 0.35315931214889618 0 -0.42655430048244042 0.36605855977789148 0 -0.43057920591161342 0.35005839643366088 0 -0.4442438722082106 0.3738707984630712 0 -0.43057920591161342 0.35005839643366088 0 -0.42655430048244042 0.36605855977789148 0 -0.4442438722082106 0.3738707984630712 0 -0.43052987549634752 0.38008079301898778 0 -0.42655430048244042 0.36605855977789148 0 -0.4442438722082106 0.3738707984630712 0 -0.43052987549634752 0.38008079301898778 0 -0.41451281142306601 0.37650563042412499 0 -0.42655430048244042 0.36605855977789148 0 -0.4442438722082106 0.3738707984630712 0 -0.44976039752559488 0.35324920025973189 0 -0.45974123117554061 0.36517580530240062 0 -0.43057920591161342 0.35005839643366088 0 -0.44976039752559488 0.35324920025973189 0 -0.4472702618979052 0.33011924715719232 0 -0.43057920591161342 0.35005839643366088 0 -0.4442438722082106 0.3738707984630712 0 -0.44976039752559488 0.35324920025973189 0 -0.44976039752559488 0.35324920025973189 0 -0.46696741643470469 0.34702175394233459 0 -0.45974123117554061 0.36517580530240062 0 -0.46696741643470469 0.34702175394233459 0 -0.45974123117554061 0.36517580530240062 0 -0.475116965426717 0.36646149267692368 0 -0.45708374044938188 0.38030148220177079 0 -0.4442438722082106 0.3738707984630712 0 -0.45974123117554061 0.36517580530240062 0 -0.47058491708030609 0.38041925280838218 0 -0.45974123117554061 0.36517580530240062 0 -0.475116965426717 0.36646149267692368 0 -0.47058491708030609 0.38041925280838218 0 -0.48250959790406012 0.37356429496207499 0 -0.475116965426717 0.36646149267692368 0 -0.48250959790406012 0.37356429496207499 0 -0.475116965426717 0.36646149267692368 0 -0.48657276393888099 0.35779751132208398 0 -0.46696741643470469 0.34702175394233459 0 -0.48657276393888099 0.35779751132208398 0 -0.48297428147565519 0.33608099273566738 0 -0.46696741643470469 0.34702175394233459 0 -0.475116965426717 0.36646149267692368 0 -0.48657276393888099 0.35779751132208398 0 -0.48657276393888099 0.35779751132208398 0 -0.5 0.34936746221910608 0 -0.48297428147565519 0.33608099273566738 0 -0.48657276393888099 0.35779751132208398 0 -0.5 0.34936746221910608 0 -0.49762340640176589 0.37106005199155417 0 -0.48250959790406012 0.37356429496207499 0 -0.48657276393888099 0.35779751132208398 0 -0.49762340640176589 0.37106005199155417 0 -0.5 0.3772343536115324 0 -0.5 0.34936746221910608 0 -0.49762340640176589 0.37106005199155417 0 -0.50000000000000311 0.3215005708266796 0 -0.47740341352529919 0.31283965761080562 0 -0.50000000000000311 0.3215005708266796 0 -0.48297428147565519 0.33608099273566738 0 -0.47740341352529919 0.31283965761080562 0 -0.5 0.34936746221910608 0 -0.50000000000000311 0.3215005708266796 0 -0.48297428147565519 0.33608099273566738 0 -0.46696741643470469 0.34702175394233459 0 -0.48297428147565519 0.33608099273566738 0 -0.46588444007683177 0.32604807916818651 0 -0.48297428147565519 0.33608099273566738 0 -0.47740341352529919 0.31283965761080562 0 -0.46588444007683177 0.32604807916818651 0 -0.47740341352529919 0.31283965761080562 0 -0.46588444007683177 0.32604807916818651 0 -0.45480682705059489 0.30417874439493259 0 -0.46588444007683177 0.32604807916818651 0 -0.4472702618979052 0.33011924715719232 0 -0.45480682705059489 0.30417874439493259 0 -0.44976039752559488 0.35324920025973189 0 -0.46696741643470469 0.34702175394233459 0 -0.4472702618979052 0.33011924715719232 0 -0.46696741643470469 0.34702175394233459 0 -0.46588444007683177 0.32604807916818651 0 -0.4472702618979052 0.33011924715719232 0 -0.4350613720736638 0.31418519476605139 0 -0.4472702618979052 0.33011924715719232 0 -0.45480682705059489 0.30417874439493259 0 -0.4350613720736638 0.31418519476605139 0 -0.45480682705059489 0.30417874439493259 0 -0.43221024057589053 0.29551783117905961 0 -0.45480682705059489 0.30417874439493259 0 -0.43221024057589053 0.29551783117905961 0 -0.45662909670734592 0.28401842614620521 0 -0.44221523813212299 0.26876489959680189 0 -0.43221024057589053 0.29551783117905961 0 -0.45662909670734592 0.28401842614620521 0 -0.45480682705059489 0.30417874439493259 0 -0.43221024057589053 0.29551783117905961 0 -0.45662909670734592 0.28401842614620521 0 -0.45480682705059489 0.30417874439493259 0 -0.47782913792484011 0.29049090861162857 0 -0.47740341352529919 0.31283965761080562 0 -0.45480682705059489 0.30417874439493259 0 -0.47740341352529919 0.31283965761080562 0 -0.45480682705059489 0.30417874439493259 0 -0.47782913792484011 0.29049090861162857 0 -0.47782913792484011 0.29049090861162857 0 -0.5 0.30059554381554698 0 -0.5 0.27969051680441448 0 -0.50000000000000311 0.3215005708266796 0 -0.47740341352529919 0.31283965761080562 0 -0.5 0.30059554381554698 0 -0.47740341352529919 0.31283965761080562 0 -0.47782913792484011 0.29049090861162857 0 -0.5 0.30059554381554698 0 -0.50000000000000466 0.25878548979328192 0 -0.47110761906606391 0.26377519469504229 0 -0.4864582281214031 0.24789642101710549 0 -0.50000000000000466 0.25878548979328192 0 -0.47110761906606391 0.26377519469504229 0 -0.50000000000000466 0.25878548979328192 0 -0.5 0.27969051680441448 0 -0.47110761906606391 0.26377519469504229 0 -0.47782913792484011 0.29049090861162857 0 -0.5 0.27969051680441448 0 -0.47110761906606391 0.26377519469504229 0 -0.45225919446382767 0.2469585194357036 0 -0.47110761906606391 0.26377519469504229 0 -0.44221523813212299 0.26876489959680189 0 -0.45662909670734592 0.28401842614620521 0 -0.47782913792484011 0.29049090861162857 0 -0.47110761906606391 0.26377519469504229 0 -0.47110761906606391 0.26377519469504229 0 -0.44221523813212299 0.26876489959680189 0 -0.45662909670734592 0.28401842614620521 0 -0.47110761906606391 0.26377519469504229 0 -0.44221523813212299 0.26876489959680189 0 -0.45225919446382767 0.2469585194357036 0 -0.44221523813212299 0.26876489959680189 0 -0.43489938255193511 0.25339869357052103 0 -0.44221523813212299 0.26876489959680189 0 -0.43489938255193511 0.25339869357052103 0 -0.42053927380911449 0.25816862458371881 0 -0.42480762156486868 0.24193369551973459 0 -0.43489938255193511 0.25339869357052103 0 -0.42053927380911449 0.25816862458371881 0 -0.42053927380911449 0.25816862458371881 0 -0.40735788454429378 0.2646945761609405 0 -0.40677004747179191 0.25513292506676172 0 -0.42053927380911449 0.25816862458371881 0 -0.40735788454429378 0.2646945761609405 0 -0.41332285719818229 0.27375460449856159 0 -0.41419508274048672 0.24718566810885911 0 -0.42053927380911449 0.25816862458371881 0 -0.40677004747179191 0.25513292506676172 0 -0.41332285719818229 0.27375460449856159 0 -0.40961365410118622 0.28685691796318658 0 -0.40266916638621553 0.28099541089157071 0 -0.40735788454429378 0.2646945761609405 0 -0.41332285719818229 0.27375460449856159 0 -0.39900051045238699 0.27251364483946589 0 -0.44221523813212299 0.26876489959680189 0 -0.42053927380911449 0.25816862458371881 0 -0.41332285719818229 0.27375460449856159 0 -0.44221523813212299 0.26876489959680189 0 -0.41332285719818229 0.27375460449856159 0 -0.42375004965836949 0.28378267914286548 0 -0.44221523813212299 0.26876489959680189 0 -0.41332285719818229 0.27375460449856159 0 -0.44221523813212299 0.26876489959680189 0 -0.43221024057589053 0.29551783117905961 0 -0.42375004965836949 0.28378267914286548 0 -0.4350613720736638 0.31418519476605139 0 -0.43221024057589053 0.29551783117905961 0 -0.41944228843877679 0.31040156390963791 0 -0.43221024057589053 0.29551783117905961 0 -0.41944228843877679 0.31040156390963791 0 -0.41127332594888127 0.29837152667259098 0 -0.41944228843877679 0.31040156390963791 0 -0.41127332594888127 0.29837152667259098 0 -0.40554716938954732 0.30758629134902099 0 -0.41147155273187758 0.31668693134386577 0 -0.41944228843877679 0.31040156390963791 0 -0.40554716938954732 0.30758629134902099 0 -0.43221024057589053 0.29551783117905961 0 -0.40961365410118622 0.28685691796318658 0 -0.43221024057589053 0.29551783117905961 0 -0.42375004965836949 0.28378267914286548 0 -0.40961365410118622 0.28685691796318658 0 -0.43221024057589053 0.29551783117905961 0 -0.41127332594888127 0.29837152667259098 0 -0.40961365410118622 0.28685691796318658 0 -0.41332285719818229 0.27375460449856159 0 -0.42375004965836949 0.28378267914286548 0 -0.40961365410118622 0.28685691796318658 0 -0.41127332594888127 0.29837152667259098 0 -0.40961365410118622 0.28685691796318658 0 -0.39909182719975911 0.29090694114419391 0 -0.40961365410118622 0.28685691796318658 0 -0.39909182719975911 0.29090694114419391 0 -0.40266916638621553 0.28099541089157071 0 -0.41127332594888127 0.29837152667259098 0 -0.39909182719975911 0.29090694114419391 0 -0.40162441666835669 0.29966241192005028 0 -0.39909182719975911 0.29090694114419391 0 -0.39448112459173568 0.29637420695923272 0 -0.38797640984450449 0.28889891716454502 0 -0.39909182719975911 0.29090694114419391 0 -0.39448112459173568 0.29637420695923272 0 -0.40162441666835669 0.29966241192005028 0 -0.39909182719975911 0.29090694114419391 0 -0.40266916638621553 0.28099541089157071 0 -0.39231698297956269 0.28094494601244591 0 -0.39909182719975911 0.29090694114419391 0 -0.38797640984450449 0.28889891716454502 0 -0.39231698297956269 0.28094494601244591 0 -0.40554716938954732 0.30758629134902099 0 -0.39772863621186022 0.3050730934752125 0 -0.39771510240628299 0.30954643764990442 0 -0.40055621607164349 0.31427910334371711 0 -0.40554716938954732 0.30758629134902099 0 -0.39771510240628299 0.30954643764990442 0 -0.41127332594888127 0.29837152667259098 0 -0.40554716938954732 0.30758629134902099 0 -0.40162441666835669 0.29966241192005028 0 -0.40554716938954732 0.30758629134902099 0 -0.40162441666835669 0.29966241192005028 0 -0.39772863621186022 0.3050730934752125 0 -0.39772863621186022 0.3050730934752125 0 -0.38611049062184771 0.29801703467436219 0 -0.39456302740531829 0.30637225831384779 0 -0.39772863621186022 0.3050730934752125 0 -0.38611049062184771 0.29801703467436219 0 -0.39448112459173568 0.29637420695923272 0 -0.39772863621186022 0.3050730934752125 0 -0.38611049062184771 0.29801703467436219 0 -0.39448112459173568 0.29637420695923272 0 -0.40162441666835669 0.29966241192005028 0 -0.39772863621186022 0.3050730934752125 0 -0.39456302740531829 0.30637225831384779 0 -0.39772863621186022 0.3050730934752125 0 -0.39771510240628299 0.30954643764990442 0 -0.39456302740531829 0.30637225831384779 0 -0.39413665710575507 0.31222704581876742 0 -0.38942487684941679 0.30754493947216888 0 -0.40055621607164349 0.31427910334371711 0 -0.39413665710575507 0.31222704581876742 0 -0.39771510240628299 0.30954643764990442 0 -0.39456302740531829 0.30637225831384779 0 -0.39413665710575507 0.31222704581876742 0 -0.39771510240628299 0.30954643764990442 0 -0.38709635655409358 0.31554606984025863 0 -0.38942487684941679 0.30754493947216888 0 -0.3852178525600693 0.30556228871360858 0 -0.38709635655409358 0.31554606984025863 0 -0.39413665710575507 0.31222704581876742 0 -0.38942487684941679 0.30754493947216888 0 -0.38008376656959769 0.31314391771657119 0 -0.38709635655409358 0.31554606984025863 0 -0.3852178525600693 0.30556228871360858 0 -0.38942487684941679 0.30754493947216888 0 -0.3852178525600693 0.30556228871360858 0 -0.38611049062184771 0.29801703467436219 0 -0.39456302740531829 0.30637225831384779 0 -0.38942487684941679 0.30754493947216888 0 -0.38611049062184771 0.29801703467436219 0 -0.39456302740531829 0.30637225831384779 0 -0.38611049062184771 0.29801703467436219 0 -0.3852178525600693 0.30556228871360858 0 -0.38611049062184771 0.29801703467436219 0 -0.37907470337622962 0.30054677457706841 0 -0.3852178525600693 0.30556228871360858 0 -0.37907470337622962 0.30054677457706841 0 -0.37179993937971861 0.30327044060508229 0 -0.3852178525600693 0.30556228871360858 0 -0.37179993937971861 0.30327044060508229 0 -0.38008376656959769 0.31314391771657119 0 -0.37703457403049778 0.30842736608719928 0 -0.3710367376126058 0.31173281731353503 0 -0.3852178525600693 0.30556228871360858 0 -0.37703457403049778 0.30842736608719928 0 -0.37179993937971861 0.30327044060508229 0 -0.38008376656959769 0.31314391771657119 0 -0.3852178525600693 0.30556228871360858 0 -0.37703457403049778 0.30842736608719928 0 -0.38797640984450449 0.28889891716454502 0 -0.38376442055431398 0.28127084659121038 0 -0.39231698297956269 0.28094494601244591 0 -0.39448112459173568 0.29637420695923272 0 -0.38611049062184771 0.29801703467436219 0 -0.38797640984450449 0.28889891716454502 0 -0.38611049062184771 0.29801703467436219 0 -0.37340630144573961 0.28545910745749598 0 -0.38611049062184771 0.29801703467436219 0 -0.37340630144573961 0.28545910745749598 0 -0.3729922658734029 0.29004993145030078 0 -0.38611049062184771 0.29801703467436219 0 -0.37907470337622962 0.30054677457706841 0 -0.3729922658734029 0.29004993145030078 0 -0.38611049062184771 0.29801703467436219 0 -0.38797640984450449 0.28889891716454502 0 -0.37340630144573961 0.28545910745749598 0 -0.38611049062184771 0.29801703467436219 0 -0.3729922658734029 0.29004993145030078 0 -0.38797640984450449 0.28889891716454502 0 -0.38376442055431398 0.28127084659121038 0 -0.37340630144573961 0.28545910745749598 0 -0.38376442055431398 0.28127084659121038 0 -0.38345828926893921 0.26910774349302802 0 -0.37340630144573961 0.28545910745749598 0 -0.38345828926893921 0.26910774349302802 0 -0.37598096778572848 0.25691122221082219 0 -0.37340630144573961 0.28545910745749598 0 -0.38376442055431398 0.28127084659121038 0 -0.38345828926893921 0.26910774349302802 0 -0.39231698297956269 0.28094494601244591 0 -0.3847654822196544 0.24334764596057379 0 -0.37598096778572848 0.25691122221082219 0 -0.38906308120036093 0.25396651877489862 0 -0.38345828926893921 0.26910774349302802 0 -0.38906308120036093 0.25396651877489862 0 -0.39602941990260532 0.26227897035710462 0 -0.38345828926893921 0.26910774349302802 0 -0.37598096778572848 0.25691122221082219 0 -0.38906308120036093 0.25396651877489862 0 -0.38906308120036093 0.25396651877489862 0 -0.39602941990260532 0.26227897035710462 0 -0.39845724446818748 0.25142219155153089 0 -0.40677004747179191 0.25513292506676172 0 -0.39602941990260532 0.26227897035710462 0 -0.39845724446818748 0.25142219155153089 0 -0.40544112445214858 0.24378105236840311 0 -0.40677004747179191 0.25513292506676172 0 -0.39845724446818748 0.25142219155153089 0 -0.40735788454429378 0.2646945761609405 0 -0.40677004747179191 0.25513292506676172 0 -0.39602941990260532 0.26227897035710462 0 -0.40735788454429378 0.2646945761609405 0 -0.39602941990260532 0.26227897035710462 0 -0.39900051045238699 0.27251364483946589 0 -0.41332285719818229 0.27375460449856159 0 -0.39900051045238699 0.27251364483946589 0 -0.40266916638621553 0.28099541089157071 0 -0.38345828926893921 0.26910774349302802 0 -0.39900051045238699 0.27251364483946589 0 -0.39231698297956269 0.28094494601244591 0 -0.39900051045238699 0.27251364483946589 0 -0.40266916638621553 0.28099541089157071 0 -0.39231698297956269 0.28094494601244591 0 -0.38345828926893921 0.26910774349302802 0 -0.39602941990260532 0.26227897035710462 0 -0.39900051045238699 0.27251364483946589 0 -0.35172749290186661 0.27713517777370072 0 -0.35271890803394312 0.26500988577394391 0 -0.37340630144573961 0.28545910745749598 0 -0.35172749290186661 0.27713517777370072 0 -0.35271890803394312 0.26500988577394391 0 -0.3304627199303305 0.26422042409710028 0 -0.34680969642511672 0.24381564219795679 0 -0.35271890803394312 0.26500988577394391 0 -0.36112413904262408 0.25068135202179881 0 -0.34680969642511672 0.24381564219795679 0 -0.33203151462214658 0.24456066409039151 0 -0.35271890803394312 0.26500988577394391 0 -0.35271890803394312 0.26500988577394391 0 -0.36554643835418649 0.26394587818728299 0 -0.36112413904262408 0.25068135202179881 0 -0.37598096778572848 0.25691122221082219 0 -0.36554643835418649 0.26394587818728299 0 -0.36112413904262408 0.25068135202179881 0 -0.37598096778572848 0.25691122221082219 0 -0.36554643835418649 0.26394587818728299 0 -0.37340630144573961 0.28545910745749598 0 -0.35271890803394312 0.26500988577394391 0 -0.36554643835418649 0.26394587818728299 0 -0.37340630144573961 0.28545910745749598 0 -0.37598096778572848 0.25691122221082219 0 -0.37340630144573961 0.28545910745749598 0 -0.35271890803394312 0.26500988577394391 0 -0.37340630144573961 0.28545910745749598 0 -0.35172749290186661 0.27713517777370072 0 -0.3729922658734029 0.29004993145030078 0 -0.35172749290186661 0.27713517777370072 0 -0.37340630144573961 0.28545910745749598 0 -0.3729922658734029 0.29004993145030078 0 -0.35172749290186661 0.27713517777370072 0 -0.3729922658734029 0.29004993145030078 0 -0.35857451903960708 0.28982533538598582 0 -0.37340630144573961 0.28545910745749598 0 -0.3729922658734029 0.29004993145030078 0 -0.3729922658734029 0.29004993145030078 0 -0.37179993937971861 0.30327044060508229 0 -0.35857451903960708 0.28982533538598582 0 -0.3729922658734029 0.29004993145030078 0 -0.37179993937971861 0.30327044060508229 0 -0.37179993937971861 0.30327044060508229 0 -0.34755878318792449 0.29912992730618759 0 -0.3710367376126058 0.31173281731353503 0 -0.37179993937971861 0.30327044060508229 0 -0.34755878318792449 0.29912992730618759 0 -0.37703457403049778 0.30842736608719928 0 -0.3710367376126058 0.31173281731353503 0 -0.37179993937971861 0.30327044060508229 0 -0.3710367376126058 0.31173281731353503 0 -0.37179993937971861 0.30327044060508229 0 -0.37907470337622962 0.30054677457706841 0 -0.3729922658734029 0.29004993145030078 0 -0.37179993937971861 0.30327044060508229 0 -0.3710367376126058 0.31173281731353503 0 -0.34755878318792449 0.29912992730618759 0 -0.35298699521539462 0.31967375351201749 0 -0.37179993937971861 0.30327044060508229 0 -0.34755878318792449 0.29912992730618759 0 -0.35857451903960708 0.28982533538598582 0 -0.35172749290186661 0.27713517777370072 0 -0.34755878318792449 0.29912992730618759 0 -0.33458777738628709 0.28139243614526432 0 -0.35172749290186661 0.27713517777370072 0 -0.34755878318792449 0.29912992730618759 0 -0.35857451903960708 0.28982533538598582 0 -0.34755878318792449 0.29912992730618759 0 -0.33458777738628709 0.28139243614526432 0 -0.32331762699613042 0.294989414007293 0 -0.34755878318792449 0.29912992730618759 0 -0.32331762699613042 0.294989414007293 0 -0.34755878318792449 0.29912992730618759 0 -0.32331762699613042 0.294989414007293 0 -0.3334536504332235 0.3198644768647893 0 -0.33458777738628709 0.28139243614526432 0 -0.32331762699613042 0.294989414007293 0 -0.31617147339059609 0.27598631296558462 0 -0.32331762699613042 0.294989414007293 0 -0.31617147339059609 0.27598631296558462 0 -0.29907647080433641 0.29084890070839842 0 -0.31617147339059609 0.27598631296558462 0 -0.3304627199303305 0.26422042409710028 0 -0.30856707406939421 0.25929947669675002 0 -0.33458777738628709 0.28139243614526432 0 -0.31617147339059609 0.27598631296558462 0 -0.3304627199303305 0.26422042409710028 0 -0.35172749290186661 0.27713517777370072 0 -0.3304627199303305 0.26422042409710028 0 -0.35172749290186661 0.27713517777370072 0 -0.33458777738628709 0.28139243614526432 0 -0.3304627199303305 0.26422042409710028 0 -0.33203151462214658 0.24456066409039151 0 -0.35271890803394312 0.26500988577394391 0 -0.3304627199303305 0.26422042409710028 0 -0.33203151462214658 0.24456066409039151 0 -0.35271890803394312 0.26500988577394391 0 -0.3304627199303305 0.26422042409710028 0 -0.30919794695879482 0.25130567042049928 0 -0.30856707406939421 0.25929947669675002 0 -0.33203151462214658 0.24456066409039151 0 -0.3304627199303305 0.26422042409710028 0 -0.30919794695879482 0.25130567042049928 0 -0.3304627199303305 0.26422042409710028 0 -0.30919794695879482 0.25130567042049928 0 -0.30919794695879482 0.25130567042049928 0 -0.30856707406939421 0.25929947669675002 0 -0.30919794695879482 0.25130567042049928 0 -0.30856707406939421 0.25929947669675002 0 -0.29904181696015941 0.2597449912090074 0 -0.30856707406939421 0.25929947669675002 0 -0.29904181696015941 0.2597449912090074 0 -0.29886795374699487 0.27098539354878393 0 -0.30919794695879482 0.25130567042049928 0 -0.29904181696015941 0.2597449912090074 0 -0.29456129008659948 0.25219639827619361 0 -0.31617147339059609 0.27598631296558462 0 -0.30856707406939421 0.25929947669675002 0 -0.29886795374699487 0.27098539354878393 0 -0.31617147339059609 0.27598631296558462 0 -0.29886795374699487 0.27098539354878393 0 -0.29907647080433641 0.29084890070839842 0 -0.29886795374699487 0.27098539354878393 0 -0.28429898263683639 0.27458450407469809 0 -0.29907647080433641 0.29084890070839842 0 -0.29886795374699487 0.27098539354878393 0 -0.28429898263683639 0.27458450407469809 0 -0.28701337766333412 0.259856449399606 0 -0.29904181696015941 0.2597449912090074 0 -0.29456129008659948 0.25219639827619361 0 -0.28701337766333412 0.259856449399606 0 -0.28700965172550669 0.24967468444264029 0 -0.29456129008659948 0.25219639827619361 0 -0.28701337766333412 0.259856449399606 0 -0.29904181696015941 0.2597449912090074 0 -0.29886795374699487 0.27098539354878393 0 -0.28701337766333412 0.259856449399606 0 -0.28700965172550669 0.24967468444264029 0 -0.27628865148235071 0.24759774354384109 0 -0.28701337766333412 0.259856449399606 0 -0.27628865148235071 0.24759774354384109 0 -0.28701337766333412 0.259856449399606 0 -0.27010332653597607 0.26401819937934862 0 -0.27628865148235071 0.24759774354384109 0 -0.27010332653597607 0.26401819937934862 0 -0.26146097822572562 0.25195855027952968 0 -0.28429898263683639 0.27458450407469809 0 -0.28701337766333412 0.259856449399606 0 -0.27010332653597607 0.26401819937934862 0 -0.27010332653597607 0.26401819937934862 0 -0.27342543661497892 0.287658346354707 0 -0.28429898263683639 0.27458450407469809 0 -0.27010332653597607 0.26401819937934862 0 -0.27342543661497892 0.287658346354707 0 -0.27010332653597607 0.26401819937934862 0 -0.25666633698837071 0.28091507941757921 0 -0.27342543661497892 0.287658346354707 0 -0.27010332653597607 0.26401819937934862 0 -0.25666633698837071 0.28091507941757921 0 -0.24601195953627361 0.26521614301805291 0 -0.27010332653597607 0.26401819937934862 0 -0.26146097822572562 0.25195855027952968 0 -0.24601195953627361 0.26521614301805291 0 -0.25006108478002698 0.24413400530429169 0 -0.26146097822572562 0.25195855027952968 0 -0.24601195953627361 0.26521614301805291 0 -0.25666633698837071 0.28091507941757921 0 -0.25629512984107072 0.30276053769542383 0 -0.2374958324135541 0.28492217064036368 0 -0.25666633698837071 0.28091507941757921 0 -0.25629512984107072 0.30276053769542383 0 -0.27342543661497892 0.287658346354707 0 -0.25629512984107072 0.30276053769542383 0 -0.27342543661497892 0.287658346354707 0 -0.27674754669398172 0.31129849333006537 0 -0.27342543661497892 0.287658346354707 0 -0.27674754669398172 0.31129849333006537 0 -0.27674754669398172 0.31129849333006537 0 -0.29907647080433641 0.29084890070839842 0 -0.29706729225564271 0.3110703573149709 0 -0.28429898263683639 0.27458450407469809 0 -0.27342543661497892 0.287658346354707 0 -0.29907647080433641 0.29084890070839842 0 -0.27342543661497892 0.287658346354707 0 -0.27674754669398172 0.31129849333006537 0 -0.29907647080433641 0.29084890070839842 0 -0.32331762699613042 0.294989414007293 0 -0.29907647080433641 0.29084890070839842 0 -0.32331762699613042 0.294989414007293 0 -0.29907647080433641 0.29084890070839842 0 -0.29706729225564271 0.3110703573149709 0 -0.32331762699613042 0.294989414007293 0 -0.29706729225564271 0.3110703573149709 0 -0.31140190403464019 0.32547393363744881 0 -0.29706729225564271 0.3110703573149709 0 -0.31140190403464019 0.32547393363744881 0 -0.28006965677298451 0.33493864030542392 0 -0.31140190403464019 0.32547393363744881 0 -0.28006965677298451 0.33493864030542392 0 -0.30182759741215992 0.34738959785193002 0 -0.31140190403464019 0.32547393363744881 0 -0.30182759741215992 0.34738959785193002 0 -0.32410020046939991 0.34217164139147782 0 -0.27674754669398172 0.31129849333006537 0 -0.29706729225564271 0.3110703573149709 0 -0.28006965677298451 0.33493864030542392 0 -0.27674754669398172 0.31129849333006537 0 -0.28006965677298451 0.33493864030542392 0 -0.27674754669398172 0.31129849333006537 0 -0.28006965677298451 0.33493864030542392 0 -0.2639823833508807 0.3249567835866945 0 -0.25629512984107072 0.30276053769542383 0 -0.27674754669398172 0.31129849333006537 0 -0.2639823833508807 0.3249567835866945 0 -0.28006965677298451 0.33493864030542392 0 -0.2639823833508807 0.3249567835866945 0 -0.25624990174621159 0.35010152198434957 0 -0.2639823833508807 0.3249567835866945 0 -0.25624990174621159 0.35010152198434957 0 -0.2450465082471352 0.32377169264754052 0 -0.25629512984107072 0.30276053769542383 0 -0.2639823833508807 0.3249567835866945 0 -0.2450465082471352 0.32377169264754052 0 -0.25624990174621159 0.35010152198434957 0 -0.26146476700806842 0.37582853035097857 0 -0.24071571882699311 0.37514703298740371 0 -0.28006965677298451 0.33493864030542392 0 -0.25624990174621159 0.35010152198434957 0 -0.28339176685198741 0.3585787872807823 0 -0.25624990174621159 0.35010152198434957 0 -0.28339176685198741 0.3585787872807823 0 -0.26146476700806842 0.37582853035097857 0 -0.28339176685198741 0.3585787872807823 0 -0.2780451082793084 0.38170872500188818 0 -0.26146476700806842 0.37582853035097857 0 -0.28339176685198741 0.3585787872807823 0 -0.29864511711913361 0.37945359799422101 0 -0.2780451082793084 0.38170872500188818 0 -0.28339176685198741 0.3585787872807823 0 -0.29937608946282762 0.36284832381123577 0 -0.29864511711913361 0.37945359799422101 0 -0.28006965677298451 0.33493864030542392 0 -0.28339176685198741 0.3585787872807823 0 -0.30182759741215992 0.34738959785193002 0 -0.28006965677298451 0.33493864030542392 0 -0.28339176685198741 0.3585787872807823 0 -0.28339176685198741 0.3585787872807823 0 -0.30182759741215992 0.34738959785193002 0 -0.29937608946282762 0.36284832381123577 0 -0.30182759741215992 0.34738959785193002 0 -0.29937608946282762 0.36284832381123577 0 -0.31543142250170692 0.3601205134034911 0 -0.29937608946282762 0.36284832381123577 0 -0.31543142250170692 0.3601205134034911 0 -0.29864511711913361 0.37945359799422101 0 -0.31543142250170692 0.3601205134034911 0 -0.32606164750335931 0.3767981391149447 0 -0.29864511711913361 0.37945359799422101 0 -0.31543142250170692 0.3601205134034911 0 -0.33848239783656497 0.36212413743774757 0 -0.32606164750335931 0.3767981391149447 0 -0.33848239783656497 0.36212413743774757 0 -0.34346211777407287 0.38288146421782437 0 -0.32606164750335931 0.3767981391149447 0 -0.33848239783656497 0.36212413743774757 0 -0.32410020046939991 0.34217164139147782 0 -0.34400423059810431 0.33805718915346011 0 -0.30182759741215992 0.34738959785193002 0 -0.31543142250170692 0.3601205134034911 0 -0.32410020046939991 0.34217164139147782 0 -0.31543142250170692 0.3601205134034911 0 -0.33848239783656497 0.36212413743774757 0 -0.32410020046939991 0.34217164139147782 0 -0.31140190403464019 0.32547393363744881 0 -0.32410020046939991 0.34217164139147782 0 -0.3334536504332235 0.3198644768647893 0 -0.32331762699613042 0.294989414007293 0 -0.31140190403464019 0.32547393363744881 0 -0.3334536504332235 0.3198644768647893 0 -0.3334536504332235 0.3198644768647893 0 -0.34400423059810431 0.33805718915346011 0 -0.35298699521539462 0.31967375351201749 0 -0.32410020046939991 0.34217164139147782 0 -0.3334536504332235 0.3198644768647893 0 -0.34400423059810431 0.33805718915346011 0 -0.34400423059810431 0.33805718915346011 0 -0.36261298200544689 0.3371314452734 0 -0.35748940352184783 0.35475068880437483 0 -0.34400423059810431 0.33805718915346011 0 -0.35298699521539462 0.31967375351201749 0 -0.36261298200544689 0.3371314452734 0 -0.34755878318792449 0.29912992730618759 0 -0.3334536504332235 0.3198644768647893 0 -0.35298699521539462 0.31967375351201749 0 -0.3710367376126058 0.31173281731353503 0 -0.35298699521539462 0.31967375351201749 0 -0.36819215662599247 0.32478349100822612 0 -0.35298699521539462 0.31967375351201749 0 -0.36819215662599247 0.32478349100822612 0 -0.36261298200544689 0.3371314452734 0 -0.37779573963369989 0.33525716446138559 0 -0.37822586773720202 0.32136025828387182 0 -0.36819215662599247 0.32478349100822612 0 -0.37822586773720202 0.32136025828387182 0 -0.3710367376126058 0.31173281731353503 0 -0.36819215662599247 0.32478349100822612 0 -0.37955194810788789 0.35452529114838799 0 -0.37779573963369989 0.33525716446138559 0 -0.36261298200544689 0.3371314452734 0 -0.37779573963369989 0.33525716446138559 0 -0.36819215662599247 0.32478349100822612 0 -0.36261298200544689 0.3371314452734 0 -0.37955194810788789 0.35452529114838799 0 -0.36261298200544689 0.3371314452734 0 -0.35748940352184783 0.35475068880437483 0 -0.37955194810788789 0.35452529114838799 0 -0.36399721317659878 0.37476923518029959 0 -0.35748940352184783 0.35475068880437483 0 -0.33848239783656497 0.36212413743774757 0 -0.36399721317659878 0.37476923518029959 0 -0.34346211777407287 0.38288146421782437 0 -0.33848239783656497 0.36212413743774757 0 -0.36399721317659878 0.37476923518029959 0 -0.35748940352184783 0.35475068880437483 0 -0.33848239783656497 0.36212413743774757 0 -0.34400423059810431 0.33805718915346011 0 -0.35748940352184783 0.35475068880437483 0 -0.34710272417601951 0.39846418802762767 0 -0.35432928448378559 0.41056947025284202 0 -0.33827909241818449 0.40921760798673962 0 -0.34710272417601951 0.39846418802762767 0 -0.35426858028001768 0.38870649447460592 0 -0.36251226599337982 0.39871109047267211 0 -0.34710272417601951 0.39846418802762767 0 -0.36251226599337982 0.39871109047267211 0 -0.35432928448378559 0.41056947025284202 0 -0.34710272417601951 0.39846418802762767 0 -0.35426858028001768 0.38870649447460592 0 -0.34346211777407287 0.38288146421782437 0 -0.36399721317659878 0.37476923518029959 0 -0.35426858028001768 0.38870649447460592 0 -0.34346211777407287 0.38288146421782437 0 -0.36399721317659878 0.37476923518029959 0 -0.36251226599337982 0.39871109047267211 0 -0.36399721317659878 0.37476923518029959 0 -0.37153236075703089 0.38725356624042601 0 -0.36251226599337982 0.39871109047267211 0 -0.36399721317659878 0.37476923518029959 0 -0.35426858028001768 0.38870649447460592 0 -0.36251226599337982 0.39871109047267211 0 -0.37720759847638669 0.40068593937053698 0 -0.37153236075703089 0.38725356624042601 0 -0.36251226599337982 0.39871109047267211 0 -0.37684391915543292 0.41635539798951421 0 -0.37720759847638669 0.40068593937053698 0 -0.36342178417505971 0.42444925298135738 0 -0.36251226599337982 0.39871109047267211 0 -0.36102731881016092 0.42265294576504447 0 -0.37720759847638669 0.40068593937053698 0 -0.36342178417505971 0.42444925298135738 0 -0.37720759847638669 0.40068593937053698 0 -0.36251226599337982 0.39871109047267211 0 -0.36102731881016092 0.42265294576504447 0 -0.37720759847638669 0.40068593937053698 0 -0.36102731881016092 0.42265294576504447 0 -0.36342178417505971 0.42444925298135738 0 -0.36102731881016092 0.42265294576504447 0 -0.36342178417505971 0.42444925298135738 0 -0.36310415031852789 0.43848518294849359 0 -0.36102731881016092 0.42265294576504447 0 -0.36310415031852789 0.43848518294849359 0 -0.35954237162694253 0.446594801057417 0 -0.36102731881016092 0.42265294576504447 0 -0.35954237162694253 0.446594801057417 0 -0.37684391915543292 0.41635539798951421 0 -0.3728407073098865 0.4255912625744222 0 -0.36342178417505971 0.42444925298135738 0 -0.37041857671991169 0.43171617260290029 0 -0.3728407073098865 0.4255912625744222 0 -0.36342178417505971 0.42444925298135738 0 -0.38067854918914162 0.42984422672391692 0 -0.37041857671991169 0.43171617260290029 0 -0.3728407073098865 0.4255912625744222 0 -0.37041857671991169 0.43171617260290029 0 -0.36342178417505971 0.42444925298135738 0 -0.36310415031852789 0.43848518294849359 0 -0.3530571424481308 0.43380843986294909 0 -0.34647853085286451 0.42068333099267557 0 -0.33211441019526938 0.42276591181162471 0 -0.36102731881016092 0.42265294576504447 0 -0.3530571424481308 0.43380843986294909 0 -0.35954237162694253 0.446594801057417 0 -0.36102731881016092 0.42265294576504447 0 -0.3530571424481308 0.43380843986294909 0 -0.35408266851330472 0.41924282844643229 0 -0.3530571424481308 0.43380843986294909 0 -0.35408266851330472 0.41924282844643229 0 -0.34647853085286451 0.42068333099267557 0 -0.36251226599337982 0.39871109047267211 0 -0.36102731881016092 0.42265294576504447 0 -0.35432928448378559 0.41056947025284202 0 -0.35432928448378559 0.41056947025284202 0 -0.34647853085286451 0.42068333099267557 0 -0.33827909241818449 0.40921760798673962 0 -0.35432928448378559 0.41056947025284202 0 -0.35408266851330472 0.41924282844643229 0 -0.34647853085286451 0.42068333099267557 0 -0.36102731881016092 0.42265294576504447 0 -0.35432928448378559 0.41056947025284202 0 -0.35408266851330472 0.41924282844643229 0 -0.33827909241818449 0.40921760798673962 0 -0.33211441019526938 0.42276591181162471 0 -0.32179678251404392 0.40754415627129309 0 -0.34647853085286451 0.42068333099267557 0 -0.33827909241818449 0.40921760798673962 0 -0.33211441019526938 0.42276591181162471 0 -0.3530571424481308 0.43380843986294909 0 -0.33211441019526938 0.42276591181162471 0 -0.32769471133177369 0.43761625678266158 0 -0.3530571424481308 0.43380843986294909 0 -0.32769471133177369 0.43761625678266158 0 -0.31205622106995562 0.42261401879813371 0 -0.3023322802154168 0.44142407370237402 0 -0.32769471133177369 0.43761625678266158 0 -0.33211441019526938 0.42276591181162471 0 -0.31205622106995562 0.42261401879813371 0 -0.32769471133177369 0.43761625678266158 0 -0.33211441019526938 0.42276591181162471 0 -0.32179678251404392 0.40754415627129309 0 -0.31205622106995562 0.42261401879813371 0 -0.32179678251404392 0.40754415627129309 0 -0.31531122526977551 0.39245059213369582 0 -0.33189997900223522 0.39478921818620039 0 -0.32179678251404392 0.40754415627129309 0 -0.31531122526977551 0.39245059213369582 0 -0.30111976712884331 0.40342758871136453 0 -0.33827909241818449 0.40921760798673962 0 -0.32179678251404392 0.40754415627129309 0 -0.33189997900223522 0.39478921818620039 0 -0.34710272417601951 0.39846418802762767 0 -0.33189997900223522 0.39478921818620039 0 -0.34346211777407287 0.38288146421782437 0 -0.34710272417601951 0.39846418802762767 0 -0.33827909241818449 0.40921760798673962 0 -0.33189997900223522 0.39478921818620039 0 -0.33189997900223522 0.39478921818620039 0 -0.34346211777407287 0.38288146421782437 0 -0.32606164750335931 0.3767981391149447 0 -0.31531122526977551 0.39245059213369582 0 -0.32606164750335931 0.3767981391149447 0 -0.29864511711913361 0.37945359799422101 0 -0.31531122526977551 0.39245059213369582 0 -0.33189997900223522 0.39478921818620039 0 -0.32606164750335931 0.3767981391149447 0 -0.31531122526977551 0.39245059213369582 0 -0.29864511711913361 0.37945359799422101 0 -0.30111976712884331 0.40342758871136453 0 -0.29864511711913361 0.37945359799422101 0 -0.30111976712884331 0.40342758871136453 0 -0.28173774377721938 0.39932807759429351 0 -0.29864511711913361 0.37945359799422101 0 -0.28173774377721938 0.39932807759429351 0 -0.2780451082793084 0.38170872500188818 0 -0.2780451082793084 0.38170872500188818 0 -0.26498614664013331 0.39535463178916552 0 -0.26146476700806842 0.37582853035097857 0 -0.28173774377721938 0.39932807759429351 0 -0.26498614664013331 0.39535463178916552 0 -0.27066808994741642 0.41309620155310411 0 -0.28173774377721938 0.39932807759429351 0 -0.2780451082793084 0.38170872500188818 0 -0.26498614664013331 0.39535463178916552 0 -0.26498614664013331 0.39535463178916552 0 -0.2494255779879137 0.41297875413730772 0 -0.2495854226672625 0.38994337376261928 0 -0.26498614664013331 0.39535463178916552 0 -0.26146476700806842 0.37582853035097857 0 -0.2495854226672625 0.38994337376261928 0 -0.26146476700806842 0.37582853035097857 0 -0.2495854226672625 0.38994337376261928 0 -0.24071571882699311 0.37514703298740371 0 -0.26319771354348648 0.42910532237969751 0 -0.25219189787274482 0.44895195600077648 0 -0.2349744780177388 0.43091482878617998 0 -0.26319771354348648 0.42910532237969751 0 -0.27066808994741642 0.41309620155310411 0 -0.2494255779879137 0.41297875413730772 0 -0.26319771354348648 0.42910532237969751 0 -0.2494255779879137 0.41297875413730772 0 -0.26498614664013331 0.39535463178916552 0 -0.27066808994741642 0.41309620155310411 0 -0.2494255779879137 0.41297875413730772 0 -0.28173774377721938 0.39932807759429351 0 -0.27066808994741642 0.41309620155310411 0 -0.28660768050919599 0.42305714917765852 0 -0.26319771354348648 0.42910532237969751 0 -0.27066808994741642 0.41309620155310411 0 -0.28660768050919599 0.42305714917765852 0 -0.26319771354348648 0.42910532237969751 0 -0.27696984909905981 0.44523189062208668 0 -0.26319771354348648 0.42910532237969751 0 -0.28660768050919599 0.42305714917765852 0 -0.27696984909905981 0.44523189062208668 0 -0.28660768050919599 0.42305714917765852 0 -0.3023322802154168 0.44142407370237402 0 -0.27696984909905981 0.44523189062208668 0 -0.30111976712884331 0.40342758871136453 0 -0.28173774377721938 0.39932807759429351 0 -0.28660768050919599 0.42305714917765852 0 -0.32179678251404392 0.40754415627129309 0 -0.30111976712884331 0.40342758871136453 0 -0.31205622106995562 0.42261401879813371 0 -0.30111976712884331 0.40342758871136453 0 -0.28660768050919599 0.42305714917765852 0 -0.31205622106995562 0.42261401879813371 0 -0.28660768050919599 0.42305714917765852 0 -0.31205622106995562 0.42261401879813371 0 -0.3023322802154168 0.44142407370237402 0 -0.3023322802154168 0.44142407370237402 0 -0.29546028710758121 0.46688338462407869 0 -0.32110793942586108 0.45614196832909198 0 -0.29546028710758121 0.46688338462407869 0 -0.3190149314636086 0.47778536091395252 0 -0.32110793942586108 0.45614196832909198 0 -0.29546028710758121 0.46688338462407869 0 -0.27696984909905981 0.44523189062208668 0 -0.2782859907817577 0.46948360896520852 0 -0.29546028710758121 0.46688338462407869 0 -0.27696984909905981 0.44523189062208668 0 -0.3023322802154168 0.44142407370237402 0 -0.29546028710758121 0.46688338462407869 0 -0.27696984909905981 0.44523189062208668 0 -0.3023322802154168 0.44142407370237402 0 -0.27696984909905981 0.44523189062208668 0 -0.27696984909905981 0.44523189062208668 0 -0.26423583306801468 0.46400701785259402 0 -0.2782859907817577 0.46948360896520852 0 -0.26423583306801468 0.46400701785259402 0 -0.25219189787274482 0.44895195600077648 0 -0.24370320509690799 0.46306417424953422 0 -0.26423583306801468 0.46400701785259402 0 -0.2547630805977999 0.4721741825754236 0 -0.24370320509690799 0.46306417424953422 0 -0.27696984909905981 0.44523189062208668 0 -0.26423583306801468 0.46400701785259402 0 -0.25219189787274482 0.44895195600077648 0 -0.26319771354348648 0.42910532237969751 0 -0.27696984909905981 0.44523189062208668 0 -0.25219189787274482 0.44895195600077648 0 -0.27696984909905981 0.44523189062208668 0 -0.25219189787274482 0.44895195600077648 0 -0.25601254374416088 0.48924829847086759 0 -0.27681904000477131 0.5 0 -0.24718526921035949 0.5 0 -0.25601254374416088 0.48924829847086759 0 -0.26859397632802229 0.48331302968130069 0 -0.24501015601844359 0.48073552419924398 0 -0.26423583306801468 0.46400701785259402 0 -0.2547630805977999 0.4721741825754236 0 -0.26859397632802229 0.48331302968130069 0 -0.2547630805977999 0.4721741825754236 0 -0.26859397632802229 0.48331302968130069 0 -0.24501015601844359 0.48073552419924398 0 -0.26859397632802229 0.48331302968130069 0 -0.24501015601844359 0.48073552419924398 0 -0.2782859907817577 0.46948360896520852 0 -0.26859397632802229 0.48331302968130069 0 -0.28521765621352202 0.48430388805337798 0 -0.26423583306801468 0.46400701785259402 0 -0.2782859907817577 0.46948360896520852 0 -0.26859397632802229 0.48331302968130069 0 -0.25601254374416088 0.48924829847086759 0 -0.26859397632802229 0.48331302968130069 0 -0.27681904000477131 0.5 0 -0.26859397632802229 0.48331302968130069 0 -0.27681904000477131 0.5 0 -0.28521765621352202 0.48430388805337798 0 -0.29546028710758121 0.46688338462407869 0 -0.28521765621352202 0.48430388805337798 0 -0.30645281079918307 0.5 0 -0.29546028710758121 0.46688338462407869 0 -0.30645281079918307 0.5 0 -0.3190149314636086 0.47778536091395252 0 -0.27681904000477131 0.5 0 -0.28521765621352202 0.48430388805337798 0 -0.30645281079918307 0.5 0 -0.29546028710758121 0.46688338462407869 0 -0.2782859907817577 0.46948360896520852 0 -0.28521765621352202 0.48430388805337798 0 -0.30645281079918307 0.5 0 -0.33608658159359489 0.49999999999999939 0 -0.3190149314636086 0.47778536091395252 0 -0.33608658159359489 0.49999999999999939 0 -0.34781447661026887 0.47329740052870828 0 -0.33608658159359489 0.49999999999999939 0 -0.33285507441594259 0.47225472869318003 0 -0.34781447661026887 0.47329740052870828 0 -0.33608658159359489 0.49999999999999939 0 -0.33285507441594259 0.47225472869318003 0 -0.3190149314636086 0.47778536091395252 0 -0.33285507441594259 0.47225472869318003 0 -0.3190149314636086 0.47778536091395252 0 -0.32110793942586108 0.45614196832909198 0 -0.3023322802154168 0.44142407370237402 0 -0.32110793942586108 0.45614196832909198 0 -0.32769471133177369 0.43761625678266158 0 -0.3023322802154168 0.44142407370237402 0 -0.32769471133177369 0.43761625678266158 0 -0.32110793942586108 0.45614196832909198 0 -0.32769471133177369 0.43761625678266158 0 -0.34025144298637922 0.45404891369414702 0 -0.32769471133177369 0.43761625678266158 0 -0.34025144298637922 0.45404891369414702 0 -0.34767643230002149 0.4445753618519328 0 -0.3530571424481308 0.43380843986294909 0 -0.32769471133177369 0.43761625678266158 0 -0.34767643230002149 0.4445753618519328 0 -0.33285507441594259 0.47225472869318003 0 -0.32110793942586108 0.45614196832909198 0 -0.34025144298637922 0.45404891369414702 0 -0.33285507441594259 0.47225472869318003 0 -0.34025144298637922 0.45404891369414702 0 -0.34781447661026887 0.47329740052870828 0 -0.35869529498329111 0.46025224736461712 0 -0.35954237162694253 0.446594801057417 0 -0.34781447661026887 0.47329740052870828 0 -0.34025144298637922 0.45404891369414702 0 -0.35954237162694253 0.446594801057417 0 -0.34781447661026887 0.47329740052870828 0 -0.35954237162694253 0.446594801057417 0 -0.34781447661026887 0.47329740052870828 0 -0.35869529498329111 0.46025224736461712 0 -0.35954237162694253 0.446594801057417 0 -0.34025144298637922 0.45404891369414702 0 -0.34767643230002149 0.4445753618519328 0 -0.35954237162694253 0.446594801057417 0 -0.3530571424481308 0.43380843986294909 0 -0.34767643230002149 0.4445753618519328 0 -0.35954237162694253 0.446594801057417 0 -0.36310415031852789 0.43848518294849359 0 -0.35954237162694253 0.446594801057417 0 -0.36703019819469351 0.44504650305173371 0 -0.36310415031852789 0.43848518294849359 0 -0.35954237162694253 0.446594801057417 0 -0.35869529498329111 0.46025224736461712 0 -0.35954237162694253 0.446594801057417 0 -0.36989994327681991 0.45247579671256272 0 -0.36703019819469351 0.44504650305173371 0 -0.35954237162694253 0.446594801057417 0 -0.36989994327681991 0.45247579671256272 0 -0.36703019819469351 0.44504650305173371 0 -0.36989994327681991 0.45247579671256272 0 -0.37429840712895762 0.44267207421282778 0 -0.36703019819469351 0.44504650305173371 0 -0.36310415031852789 0.43848518294849359 0 -0.37429840712895762 0.44267207421282778 0 -0.37041857671991169 0.43171617260290029 0 -0.36310415031852789 0.43848518294849359 0 -0.37429840712895762 0.44267207421282778 0 -0.35869529498329111 0.46025224736461712 0 -0.37476042249018182 0.46542014300639722 0 -0.36358042927104539 0.47789625848971568 0 -0.35869529498329111 0.46025224736461712 0 -0.36989994327681991 0.45247579671256272 0 -0.37476042249018182 0.46542014300639722 0 -0.37867182102719532 0.48140896602341687 0 -0.37476042249018182 0.46542014300639722 0 -0.36358042927104539 0.47789625848971568 0 -0.37867182102719532 0.48140896602341687 0 -0.36358042927104539 0.47789625848971568 0 -0.36449000419944971 0.5 0 -0.36358042927104539 0.47789625848971568 0 -0.36449000419944971 0.5 0 -0.35392894585529511 0.4880371272465287 0 -0.33608658159359489 0.49999999999999939 0 -0.36449000419944971 0.5 0 -0.35392894585529511 0.4880371272465287 0 -0.33608658159359489 0.49999999999999939 0 -0.35392894585529511 0.4880371272465287 0 -0.34781447661026887 0.47329740052870828 0 -0.36358042927104539 0.47789625848971568 0 -0.35392894585529511 0.4880371272465287 0 -0.34781447661026887 0.47329740052870828 0 -0.35869529498329111 0.46025224736461712 0 -0.36358042927104539 0.47789625848971568 0 -0.34781447661026887 0.47329740052870828 0 -0.1462687043292708 0.4830209218035395 0 -0.144155072297496 0.47730823470545192 0 -0.14886389176693801 0.47915321045730758 0 -0.1462687043292708 0.4830209218035395 0 -0.144155072297496 0.47730823470545192 0 -0.1405591489386574 0.48245386691123793 0 -0.14157354399855451 0.47242960416657143 0 -0.1492202232349456 0.47210441714173951 0 -0.14000072226511229 0.46579590344261512 0 -0.144155072297496 0.47730823470545192 0 -0.14157354399855451 0.47242960416657143 0 -0.13695721468141911 0.47625363618568167 0 -0.144155072297496 0.47730823470545192 0 -0.14157354399855451 0.47242960416657143 0 -0.1492202232349456 0.47210441714173951 0 -0.144155072297496 0.47730823470545192 0 -0.1492202232349456 0.47210441714173951 0 -0.14886389176693801 0.47915321045730758 0 -0.1492202232349456 0.47210441714173951 0 -0.1564112429618329 0.46333209159099997 0 -0.15692300983190041 0.47373573884480308 0 -0.1492202232349456 0.47210441714173951 0 -0.1537677411231895 0.47866032820928789 0 -0.15692300983190041 0.47373573884480308 0 -0.1492202232349456 0.47210441714173951 0 -0.1537677411231895 0.47866032820928789 0 -0.14886389176693801 0.47915321045730758 0 -0.1537677411231895 0.47866032820928789 0 -0.14886389176693801 0.47915321045730758 0 -0.15090771784978779 0.48467215042651901 0 -0.1462687043292708 0.4830209218035395 0 -0.14886389176693801 0.47915321045730758 0 -0.15090771784978779 0.48467215042651901 0 -0.1537677411231895 0.47866032820928789 0 -0.15519348724844151 0.48366410794895309 0 -0.15090771784978779 0.48467215042651901 0 -0.13418106917802519 0.49650568301115949 0 -0.15891246430868061 0.49626497472600062 0 -0.15480488792125269 0.48770758674090031 0 -0.15186429212712821 0.49005144138287637 0 -0.15090771784978779 0.48467215042651901 0 -0.13418106917802519 0.49650568301115949 0 -0.1582839568271236 0.5 0 -0.15891246430868061 0.49626497472600062 0 -0.15519348724844151 0.48366410794895309 0 -0.15480488792125269 0.48770758674090031 0 -0.15090771784978779 0.48467215042651901 0 -0.14523899201177681 0.49416037415101682 0 -0.13418106917802519 0.49650568301115949 0 -0.15891246430868061 0.49626497472600062 0 -0.15480488792125269 0.48770758674090031 0 -0.15186429212712821 0.49005144138287637 0 -0.15648311981821891 0.49187046500279541 0 -0.15186429212712821 0.49005144138287637 0 -0.15236732667846559 0.49346158299844117 0 -0.15648311981821891 0.49187046500279541 0 -0.15186429212712821 0.49005144138287637 0 -0.14930607308724381 0.49160354377991472 0 -0.14775368153160459 0.48874077658732418 0 -0.15186429212712821 0.49005144138287637 0 -0.14930607308724381 0.49160354377991472 0 -0.15236732667846559 0.49346158299844117 0 -0.15186429212712821 0.49005144138287637 0 -0.15090771784978779 0.48467215042651901 0 -0.14775368153160459 0.48874077658732418 0 -0.15236732667846559 0.49346158299844117 0 -0.14523899201177681 0.49416037415101682 0 -0.15891246430868061 0.49626497472600062 0 -0.15236732667846559 0.49346158299844117 0 -0.15891246430868061 0.49626497472600062 0 -0.15648311981821891 0.49187046500279541 0 -0.14930607308724381 0.49160354377991472 0 -0.15236732667846559 0.49346158299844117 0 -0.14523899201177681 0.49416037415101682 0 -0.1462687043292708 0.4830209218035395 0 -0.15090771784978779 0.48467215042651901 0 -0.14775368153160459 0.48874077658732418 0 -0.1462687043292708 0.4830209218035395 0 -0.14775368153160459 0.48874077658732418 0 -0.1429256730042513 0.48822648870894542 0 -0.14930607308724381 0.49160354377991472 0 -0.14523899201177681 0.49416037415101682 0 -0.14775368153160459 0.48874077658732418 0 -0.14523899201177681 0.49416037415101682 0 -0.14775368153160459 0.48874077658732418 0 -0.1429256730042513 0.48822648870894542 0 -0.14523899201177681 0.49416037415101682 0 -0.1429256730042513 0.48822648870894542 0 -0.13909339082494221 0.49156342719115081 0 -0.1462687043292708 0.4830209218035395 0 -0.1429256730042513 0.48822648870894542 0 -0.1405591489386574 0.48245386691123793 0 -0.1429256730042513 0.48822648870894542 0 -0.13840336153065691 0.48744106895420758 0 -0.1405591489386574 0.48245386691123793 0 -0.13840336153065691 0.48744106895420758 0 -0.13486024871297489 0.48412468221573512 0 -0.1405591489386574 0.48245386691123793 0 -0.13418106917802519 0.49650568301115949 0 -0.1286501860327115 0.5 0 -0.1582839568271236 0.5 0 -0.13840336153065691 0.48744106895420758 0 -0.13909339082494221 0.49156342719115081 0 -0.13493322574659841 0.49046815381264341 0 -0.1429256730042513 0.48822648870894542 0 -0.13840336153065691 0.48744106895420758 0 -0.13909339082494221 0.49156342719115081 0 -0.13493322574659841 0.49046815381264341 0 -0.13418106917802519 0.49650568301115949 0 -0.1297501961747429 0.48901393645631602 0 -0.13840336153065691 0.48744106895420758 0 -0.13493322574659841 0.49046815381264341 0 -0.13486024871297489 0.48412468221573512 0 -0.13493322574659841 0.49046815381264341 0 -0.1297501961747429 0.48901393645631602 0 -0.13486024871297489 0.48412468221573512 0 -0.14523899201177681 0.49416037415101682 0 -0.13909339082494221 0.49156342719115081 0 -0.13418106917802519 0.49650568301115949 0 -0.13909339082494221 0.49156342719115081 0 -0.13493322574659841 0.49046815381264341 0 -0.13418106917802519 0.49650568301115949 0 -0.13418106917802519 0.49650568301115949 0 -0.1286501860327115 0.5 0 -0.1297501961747429 0.48901393645631602 0 -0.1286501860327115 0.5 0 -0.1297501961747429 0.48901393645631602 0 -0.1192378480720349 0.48607531274691851 0 -0.1297501961747429 0.48901393645631602 0 -0.12855834520577511 0.47911743097432391 0 -0.1192378480720349 0.48607531274691851 0 -0.1297501961747429 0.48901393645631602 0 -0.12855834520577511 0.47911743097432391 0 -0.13486024871297489 0.48412468221573512 0 -0.12855834520577511 0.47911743097432391 0 -0.13486024871297489 0.48412468221573512 0 -0.13695721468141911 0.47625363618568167 0 -0.13486024871297489 0.48412468221573512 0 -0.1405591489386574 0.48245386691123793 0 -0.13695721468141911 0.47625363618568167 0 -0.144155072297496 0.47730823470545192 0 -0.1405591489386574 0.48245386691123793 0 -0.13695721468141911 0.47625363618568167 0 -0.14157354399855451 0.47242960416657143 0 -0.13759720692195701 0.47085070234099641 0 -0.14000072226511229 0.46579590344261512 0 -0.14157354399855451 0.47242960416657143 0 -0.13759720692195701 0.47085070234099641 0 -0.13695721468141911 0.47625363618568167 0 -0.13759720692195701 0.47085070234099641 0 -0.13695721468141911 0.47625363618568167 0 -0.13209818927006681 0.46955677782624572 0 -0.12855834520577511 0.47911743097432391 0 -0.13209818927006681 0.46955677782624572 0 -0.12221861502250531 0.47409019779979861 0 -0.12855834520577511 0.47911743097432391 0 -0.13695721468141911 0.47625363618568167 0 -0.13209818927006681 0.46955677782624572 0 -0.13924115758639921 0.46181795728127312 0 -0.12207107221096559 0.46030382297154571 0 -0.13924115758639921 0.46181795728127312 0 -0.13151621260537741 0.45130749443337231 0 -0.14838580954088229 0.4517407141106109 0 -0.13209818927006681 0.46955677782624572 0 -0.12207107221096559 0.46030382297154571 0 -0.12221861502250531 0.47409019779979861 0 -0.13209818927006681 0.46955677782624572 0 -0.13924115758639921 0.46181795728127312 0 -0.12207107221096559 0.46030382297154571 0 -0.13924115758639921 0.46181795728127312 0 -0.13151621260537741 0.45130749443337231 0 -0.12207107221096559 0.46030382297154571 0 -0.13209818927006681 0.46955677782624572 0 -0.13924115758639921 0.46181795728127312 0 -0.14000072226511229 0.46579590344261512 0 -0.13759720692195701 0.47085070234099641 0 -0.13209818927006681 0.46955677782624572 0 -0.14000072226511229 0.46579590344261512 0 -0.13151621260537741 0.45130749443337231 0 -0.1388896162623052 0.43835480007813099 0 -0.14838580954088229 0.4517407141106109 0 -0.13151621260537741 0.45130749443337231 0 -0.1388896162623052 0.43835480007813099 0 -0.1230748447028855 0.43656902168847961 0 -0.1388896162623052 0.43835480007813099 0 -0.14838580954088229 0.4517407141106109 0 -0.1570075063365792 0.43157249012477988 0 -0.14000072226511229 0.46579590344261512 0 -0.1564112429618329 0.46333209159099997 0 -0.13924115758639921 0.46181795728127312 0 -0.14838580954088229 0.4517407141106109 0 -0.1564112429618329 0.46333209159099997 0 -0.1492202232349456 0.47210441714173951 0 -0.14000072226511229 0.46579590344261512 0 -0.1564112429618329 0.46333209159099997 0 -0.13924115758639921 0.46181795728127312 0 -0.14000072226511229 0.46579590344261512 0 -0.1564112429618329 0.46333209159099997 0 -0.13924115758639921 0.46181795728127312 0 -0.1564112429618329 0.46333209159099997 0 -0.1564112429618329 0.46333209159099997 0 -0.17987650092497309 0.46540136215033201 0 -0.1742586950897074 0.47300300775307391 0 -0.14838580954088229 0.4517407141106109 0 -0.1564112429618329 0.46333209159099997 0 -0.16422998578172321 0.45009793468848702 0 -0.1564112429618329 0.46333209159099997 0 -0.17987650092497309 0.46540136215033201 0 -0.1564112429618329 0.46333209159099997 0 -0.16422998578172321 0.45009793468848702 0 -0.1795236191909739 0.4598620891745781 0 -0.1564112429618329 0.46333209159099997 0 -0.1795236191909739 0.4598620891745781 0 -0.14838580954088229 0.4517407141106109 0 -0.16422998578172321 0.45009793468848702 0 -0.1570075063365792 0.43157249012477988 0 -0.17982175087834751 0.44398228844146642 0 -0.1570075063365792 0.43157249012477988 0 -0.16422998578172321 0.45009793468848702 0 -0.17982175087834751 0.44398228844146642 0 -0.1570075063365792 0.43157249012477988 0 -0.16422998578172321 0.45009793468848702 0 -0.17982175087834751 0.44398228844146642 0 -0.1795236191909739 0.4598620891745781 0 -0.17982175087834751 0.44398228844146642 0 -0.1795236191909739 0.4598620891745781 0 -0.20263599542011471 0.45639208675815479 0 -0.1564112429618329 0.46333209159099997 0 -0.1795236191909739 0.4598620891745781 0 -0.17987650092497309 0.46540136215033201 0 -0.1795236191909739 0.4598620891745781 0 -0.17987650092497309 0.46540136215033201 0 -0.20263599542011471 0.45639208675815479 0 -0.17987650092497309 0.46540136215033201 0 -0.1742586950897074 0.47300300775307391 0 -0.1978425153992861 0.47558051323513062 0 -0.1742586950897074 0.47300300775307391 0 -0.18790680048459321 0.48139210017198342 0 -0.1978425153992861 0.47558051323513062 0 -0.1742586950897074 0.47300300775307391 0 -0.1978425153992861 0.47558051323513062 0 -0.17741506139283969 0.48121527106383272 0 -0.18117319186453729 0.48510331220801672 0 -0.18790680048459321 0.48139210017198342 0 -0.17741506139283969 0.48121527106383272 0 -0.1742586950897074 0.47300300775307391 0 -0.18790680048459321 0.48139210017198342 0 -0.17741506139283969 0.48121527106383272 0 -0.16902780405277079 0.48079340257547548 0 -0.1747088154725896 0.48578453261061377 0 -0.17741506139283969 0.48121527106383272 0 -0.1742586950897074 0.47300300775307391 0 -0.16902780405277079 0.48079340257547548 0 -0.17741506139283969 0.48121527106383272 0 -0.1747088154725896 0.48578453261061377 0 -0.18117319186453729 0.48510331220801672 0 -0.1742586950897074 0.47300300775307391 0 -0.16442389524382209 0.4741716060801594 0 -0.16902780405277079 0.48079340257547548 0 -0.1564112429618329 0.46333209159099997 0 -0.1742586950897074 0.47300300775307391 0 -0.16442389524382209 0.4741716060801594 0 -0.16902780405277079 0.48079340257547548 0 -0.16079194659571219 0.48041025120182879 0 -0.1630758053928418 0.48510406406119422 0 -0.16442389524382209 0.4741716060801594 0 -0.16902780405277079 0.48079340257547548 0 -0.16079194659571219 0.48041025120182879 0 -0.16902780405277079 0.48079340257547548 0 -0.1630758053928418 0.48510406406119422 0 -0.16778501982208399 0.48686529930588279 0 -0.16079194659571219 0.48041025120182879 0 -0.15896453620567011 0.48572410058402071 0 -0.1630758053928418 0.48510406406119422 0 -0.1537677411231895 0.47866032820928789 0 -0.15519348724844151 0.48366410794895309 0 -0.16079194659571219 0.48041025120182879 0 -0.15519348724844151 0.48366410794895309 0 -0.16079194659571219 0.48041025120182879 0 -0.15896453620567011 0.48572410058402071 0 -0.1537677411231895 0.47866032820928789 0 -0.16079194659571219 0.48041025120182879 0 -0.15692300983190041 0.47373573884480308 0 -0.1564112429618329 0.46333209159099997 0 -0.16442389524382209 0.4741716060801594 0 -0.15692300983190041 0.47373573884480308 0 -0.16442389524382209 0.4741716060801594 0 -0.16079194659571219 0.48041025120182879 0 -0.15692300983190041 0.47373573884480308 0 -0.1582839568271236 0.5 0 -0.15891246430868061 0.49626497472600062 0 -0.18364385943933589 0.49602426644084169 0 -0.15891246430868061 0.49626497472600062 0 -0.167299370977988 0.49217045247972441 0 -0.18364385943933589 0.49602426644084169 0 -0.15891246430868061 0.49626497472600062 0 -0.18364385943933589 0.49602426644084169 0 -0.15891246430868061 0.49626497472600062 0 -0.16037065941727169 0.4918318475235755 0 -0.167299370977988 0.49217045247972441 0 -0.15891246430868061 0.49626497472600062 0 -0.15648311981821891 0.49187046500279541 0 -0.16037065941727169 0.4918318475235755 0 -0.15480488792125269 0.48770758674090031 0 -0.15648311981821891 0.49187046500279541 0 -0.15859824843664511 0.48921867100349309 0 -0.15648311981821891 0.49187046500279541 0 -0.15859824843664511 0.48921867100349309 0 -0.16037065941727169 0.4918318475235755 0 -0.15519348724844151 0.48366410794895309 0 -0.15480488792125269 0.48770758674090031 0 -0.15896453620567011 0.48572410058402071 0 -0.15480488792125269 0.48770758674090031 0 -0.15859824843664511 0.48921867100349309 0 -0.15896453620567011 0.48572410058402071 0 -0.15859824843664511 0.48921867100349309 0 -0.15896453620567011 0.48572410058402071 0 -0.16236803882081211 0.48895935516617373 0 -0.15896453620567011 0.48572410058402071 0 -0.1630758053928418 0.48510406406119422 0 -0.16236803882081211 0.48895935516617373 0 -0.16037065941727169 0.4918318475235755 0 -0.16236803882081211 0.48895935516617373 0 -0.167299370977988 0.49217045247972441 0 -0.15859824843664511 0.48921867100349309 0 -0.16037065941727169 0.4918318475235755 0 -0.16236803882081211 0.48895935516617373 0 -0.16236803882081211 0.48895935516617373 0 -0.167299370977988 0.49217045247972441 0 -0.16778501982208399 0.48686529930588279 0 -0.1630758053928418 0.48510406406119422 0 -0.16236803882081211 0.48895935516617373 0 -0.16778501982208399 0.48686529930588279 0 -0.16902780405277079 0.48079340257547548 0 -0.16778501982208399 0.48686529930588279 0 -0.1747088154725896 0.48578453261061377 0 -0.167299370977988 0.49217045247972441 0 -0.16778501982208399 0.48686529930588279 0 -0.17331831557101379 0.49045613545488209 0 -0.1582839568271236 0.5 0 -0.18364385943933589 0.49602426644084169 0 -0.18791772762153569 0.5 0 -0.167299370977988 0.49217045247972441 0 -0.17331831557101379 0.49045613545488209 0 -0.18364385943933589 0.49602426644084169 0 -0.17331831557101379 0.49045613545488209 0 -0.17973270840186789 0.48934311425598859 0 -0.18364385943933589 0.49602426644084169 0 -0.16778501982208399 0.48686529930588279 0 -0.1747088154725896 0.48578453261061377 0 -0.17331831557101379 0.49045613545488209 0 -0.1747088154725896 0.48578453261061377 0 -0.17331831557101379 0.49045613545488209 0 -0.17973270840186789 0.48934311425598859 0 -0.1747088154725896 0.48578453261061377 0 -0.18117319186453729 0.48510331220801672 0 -0.17973270840186789 0.48934311425598859 0 -0.18117319186453729 0.48510331220801672 0 -0.17973270840186789 0.48934311425598859 0 -0.18583676896771301 0.48851641473498908 0 -0.17973270840186789 0.48934311425598859 0 -0.18583676896771301 0.48851641473498908 0 -0.18364385943933589 0.49602426644084169 0 -0.18117319186453729 0.48510331220801672 0 -0.18583676896771301 0.48851641473498908 0 -0.18790680048459321 0.48139210017198342 0 -0.18364385943933589 0.49602426644084169 0 -0.19490485987073411 0.48876886507615253 0 -0.2083752545699914 0.49578355815568292 0 -0.18364385943933589 0.49602426644084169 0 -0.18791772762153569 0.5 0 -0.2083752545699914 0.49578355815568292 0 -0.18364385943933589 0.49602426644084169 0 -0.2083752545699914 0.49578355815568292 0 -0.18583676896771301 0.48851641473498908 0 -0.18364385943933589 0.49602426644084169 0 -0.19490485987073411 0.48876886507615253 0 -0.18583676896771301 0.48851641473498908 0 -0.19490485987073411 0.48876886507615253 0 -0.18790680048459321 0.48139210017198342 0 -0.19490485987073411 0.48876886507615253 0 -0.18790680048459321 0.48139210017198342 0 -0.19830709523579379 0.48361796792995709 0 -0.20261367624179899 0.48793066901857979 0 -0.19830709523579379 0.48361796792995709 0 -0.2082676241825567 0.48441769214793923 0 -0.19490485987073411 0.48876886507615253 0 -0.20261367624179899 0.48793066901857979 0 -0.2083752545699914 0.49578355815568292 0 -0.19490485987073411 0.48876886507615253 0 -0.20261367624179899 0.48793066901857979 0 -0.19830709523579379 0.48361796792995709 0 -0.17987650092497309 0.46540136215033201 0 -0.1978425153992861 0.47558051323513062 0 -0.20334175888811329 0.46747063270966349 0 -0.18790680048459321 0.48139210017198342 0 -0.19830709523579379 0.48361796792995709 0 -0.1978425153992861 0.47558051323513062 0 -0.19830709523579379 0.48361796792995709 0 -0.1978425153992861 0.47558051323513062 0 -0.2082676241825567 0.48441769214793923 0 -0.2214263357088648 0.47815801871718733 0 -0.22680701685125351 0.46953990326899658 0 -0.20334175888811329 0.46747063270966349 0 -0.1978425153992861 0.47558051323513062 0 -0.2082676241825567 0.48441769214793923 0 -0.2214263357088648 0.47815801871718733 0 -0.1978425153992861 0.47558051323513062 0 -0.2214263357088648 0.47815801871718733 0 -0.20334175888811329 0.46747063270966349 0 -0.1978425153992861 0.47558051323513062 0 -0.2214263357088648 0.47815801871718733 0 -0.2082676241825567 0.48441769214793923 0 -0.2199299067976539 0.48798829787008141 0 -0.2214263357088648 0.47815801871718733 0 -0.18791772762153569 0.5 0 -0.21755149841594781 0.5 0 -0.2083752545699914 0.49578355815568292 0 -0.20261367624179899 0.48793066901857979 0 -0.2083752545699914 0.49578355815568292 0 -0.2082676241825567 0.48441769214793923 0 -0.2083752545699914 0.49578355815568292 0 -0.2082676241825567 0.48441769214793923 0 -0.2199299067976539 0.48798829787008141 0 -0.21755149841594781 0.5 0 -0.2083752545699914 0.49578355815568292 0 -0.23310664970064679 0.49554284987052399 0 -0.2083752545699914 0.49578355815568292 0 -0.23310664970064679 0.49554284987052399 0 -0.2199299067976539 0.48798829787008141 0 -0.21755149841594781 0.5 0 -0.23310664970064679 0.49554284987052399 0 -0.24718526921035949 0.5 0 -0.2083752545699914 0.49578355815568292 0 -0.23310664970064679 0.49554284987052399 0 -0.23310664970064679 0.49554284987052399 0 -0.22986826205640229 0.48560617266425921 0 -0.2199299067976539 0.48798829787008141 0 -0.2214263357088648 0.47815801871718733 0 -0.23176111981544331 0.47223468540448099 0 -0.23905062230309609 0.47448237389208092 0 -0.22986826205640229 0.48560617266425921 0 -0.2199299067976539 0.48798829787008141 0 -0.2214263357088648 0.47815801871718733 0 -0.2214263357088648 0.47815801871718733 0 -0.24501015601844359 0.48073552419924398 0 -0.22986826205640229 0.48560617266425921 0 -0.2214263357088648 0.47815801871718733 0 -0.24501015601844359 0.48073552419924398 0 -0.2214263357088648 0.47815801871718733 0 -0.22680701685125351 0.46953990326899658 0 -0.23176111981544331 0.47223468540448099 0 -0.22680701685125351 0.46953990326899658 0 -0.23176111981544331 0.47223468540448099 0 -0.23047425676368721 0.46986329675551558 0 -0.22680701685125351 0.46953990326899658 0 -0.23176111981544331 0.47223468540448099 0 -0.22680701685125351 0.46953990326899658 0 -0.23047425676368721 0.46986329675551558 0 -0.23176111981544331 0.47223468540448099 0 -0.23047425676368721 0.46986329675551558 0 -0.2349081648030143 0.46830983360551859 0 -0.2547630805977999 0.4721741825754236 0 -0.23905062230309609 0.47448237389208092 0 -0.24501015601844359 0.48073552419924398 0 -0.2547630805977999 0.4721741825754236 0 -0.23905062230309609 0.47448237389208092 0 -0.24370320509690799 0.46306417424953422 0 -0.2214263357088648 0.47815801871718733 0 -0.23905062230309609 0.47448237389208092 0 -0.24501015601844359 0.48073552419924398 0 -0.23176111981544331 0.47223468540448099 0 -0.23905062230309609 0.47448237389208092 0 -0.2349081648030143 0.46830983360551859 0 -0.23310664970064679 0.49554284987052399 0 -0.24501015601844359 0.48073552419924398 0 -0.24718526921035949 0.5 0 -0.25601254374416088 0.48924829847086759 0 -0.24501015601844359 0.48073552419924398 0 -0.24718526921035949 0.5 0 -0.23310664970064679 0.49554284987052399 0 -0.22986826205640229 0.48560617266425921 0 -0.24501015601844359 0.48073552419924398 0 -0.25219189787274482 0.44895195600077648 0 -0.2274139466464298 0.45267202137946649 0 -0.2349744780177388 0.43091482878617998 0 -0.25219189787274482 0.44895195600077648 0 -0.2274139466464298 0.45267202137946649 0 -0.25219189787274482 0.44895195600077648 0 -0.24370320509690799 0.46306417424953422 0 -0.2274139466464298 0.45267202137946649 0 -0.23905062230309609 0.47448237389208092 0 -0.24370320509690799 0.46306417424953422 0 -0.2349081648030143 0.46830983360551859 0 -0.24370320509690799 0.46306417424953422 0 -0.2349081648030143 0.46830983360551859 0 -0.22939140092357649 0.46118803296099581 0 -0.24370320509690799 0.46306417424953422 0 -0.22939140092357649 0.46118803296099581 0 -0.2274139466464298 0.45267202137946649 0 -0.22939140092357649 0.46118803296099581 0 -0.2274139466464298 0.45267202137946649 0 -0.20263599542011471 0.45639208675815479 0 -0.22680701685125351 0.46953990326899658 0 -0.22939140092357649 0.46118803296099581 0 -0.20263599542011471 0.45639208675815479 0 -0.22680701685125351 0.46953990326899658 0 -0.23047425676368721 0.46986329675551558 0 -0.22939140092357649 0.46118803296099581 0 -0.23047425676368721 0.46986329675551558 0 -0.2349081648030143 0.46830983360551859 0 -0.22939140092357649 0.46118803296099581 0 -0.2274139466464298 0.45267202137946649 0 -0.21461253179525891 0.4401985021918387 0 -0.2349744780177388 0.43091482878617998 0 -0.21461253179525891 0.4401985021918387 0 -0.20263599542011471 0.45639208675815479 0 -0.19860621499708489 0.43742163453985372 0 -0.2274139466464298 0.45267202137946649 0 -0.21461253179525891 0.4401985021918387 0 -0.20263599542011471 0.45639208675815479 0 -0.2274139466464298 0.45267202137946649 0 -0.20263599542011471 0.45639208675815479 0 -0.22680701685125351 0.46953990326899658 0 -0.20263599542011471 0.45639208675815479 0 -0.22680701685125351 0.46953990326899658 0 -0.20334175888811329 0.46747063270966349 0 -0.20263599542011471 0.45639208675815479 0 -0.22680701685125351 0.46953990326899658 0 -0.20334175888811329 0.46747063270966349 0 -0.17987650092497309 0.46540136215033201 0 -0.20334175888811329 0.46747063270966349 0 -0.1795236191909739 0.4598620891745781 0 -0.20263599542011471 0.45639208675815479 0 -0.17987650092497309 0.46540136215033201 0 -0.20334175888811329 0.46747063270966349 0 -0.20263599542011471 0.45639208675815479 0 -0.17982175087834751 0.44398228844146642 0 -0.20263599542011471 0.45639208675815479 0 -0.17982175087834751 0.44398228844146642 0 -0.20263599542011471 0.45639208675815479 0 -0.19860621499708489 0.43742163453985372 0 -0.17982175087834751 0.44398228844146642 0 -0.19860621499708489 0.43742163453985372 0 -0.1891083889761028 0.42179796269225822 0 -0.19860621499708489 0.43742163453985372 0 -0.1891083889761028 0.42179796269225822 0 -0.2120116398742512 0.42244654637552581 0 -0.1891083889761028 0.42179796269225822 0 -0.20153721699780161 0.41075400598351108 0 -0.19048228711317269 0.39756003883860858 0 -0.1891083889761028 0.42179796269225822 0 -0.20153721699780161 0.41075400598351108 0 -0.2120116398742512 0.42244654637552581 0 -0.2120116398742512 0.42244654637552581 0 -0.22935422424158161 0.41302114469781209 0 -0.214230652947838 0.40041679699398131 0 -0.20153721699780161 0.41075400598351108 0 -0.2120116398742512 0.42244654637552581 0 -0.214230652947838 0.40041679699398131 0 -0.21461253179525891 0.4401985021918387 0 -0.19860621499708489 0.43742163453985372 0 -0.2120116398742512 0.42244654637552581 0 -0.21461253179525891 0.4401985021918387 0 -0.2120116398742512 0.42244654637552581 0 -0.2349744780177388 0.43091482878617998 0 -0.2120116398742512 0.42244654637552581 0 -0.22935422424158161 0.41302114469781209 0 -0.2349744780177388 0.43091482878617998 0 -0.22935422424158161 0.41302114469781209 0 -0.2494255779879137 0.41297875413730772 0 -0.23565344243234079 0.39685218589491811 0 -0.22935422424158161 0.41302114469781209 0 -0.2494255779879137 0.41297875413730772 0 -0.2349744780177388 0.43091482878617998 0 -0.26319771354348648 0.42910532237969751 0 -0.2494255779879137 0.41297875413730772 0 -0.2349744780177388 0.43091482878617998 0 -0.2495854226672625 0.38994337376261928 0 -0.24071571882699311 0.37514703298740371 0 -0.23565344243234079 0.39685218589491811 0 -0.2494255779879137 0.41297875413730772 0 -0.23565344243234079 0.39685218589491811 0 -0.2494255779879137 0.41297875413730772 0 -0.2495854226672625 0.38994337376261928 0 -0.23565344243234079 0.39685218589491811 0 -0.23565344243234079 0.39685218589491811 0 -0.21429172212411851 0.37973289853061559 0 -0.214230652947838 0.40041679699398131 0 -0.22935422424158161 0.41302114469781209 0 -0.23565344243234079 0.39685218589491811 0 -0.214230652947838 0.40041679699398131 0 -0.24071571882699311 0.37514703298740371 0 -0.23565344243234079 0.39685218589491811 0 -0.21429172212411851 0.37973289853061559 0 -0.21429172212411851 0.37973289853061559 0 -0.214230652947838 0.40041679699398131 0 -0.19048228711317269 0.39756003883860858 0 -0.20153721699780161 0.41075400598351108 0 -0.214230652947838 0.40041679699398131 0 -0.19048228711317269 0.39756003883860858 0 -0.21429172212411851 0.37973289853061559 0 -0.19048228711317269 0.39756003883860858 0 -0.19405662508766219 0.37468799269846392 0 -0.19048228711317269 0.39756003883860858 0 -0.1724361560460389 0.39318222715400092 0 -0.17754970722824809 0.374709238619299 0 -0.19048228711317269 0.39756003883860858 0 -0.17754970722824809 0.374709238619299 0 -0.19405662508766219 0.37468799269846392 0 -0.15979865337196869 0.37515414918563061 0 -0.1724361560460389 0.39318222715400092 0 -0.15597110886189169 0.39288635121071308 0 -0.15979865337196869 0.37515414918563061 0 -0.1724361560460389 0.39318222715400092 0 -0.17754970722824809 0.374709238619299 0 -0.17005140497629029 0.4110919069137508 0 -0.15121813907381501 0.41111000370522771 0 -0.15597110886189169 0.39288635121071308 0 -0.1724361560460389 0.39318222715400092 0 -0.17005140497629029 0.4110919069137508 0 -0.15597110886189169 0.39288635121071308 0 -0.19048228711317269 0.39756003883860858 0 -0.1724361560460389 0.39318222715400092 0 -0.17005140497629029 0.4110919069137508 0 -0.1891083889761028 0.42179796269225822 0 -0.19048228711317269 0.39756003883860858 0 -0.17005140497629029 0.4110919069137508 0 -0.1891083889761028 0.42179796269225822 0 -0.17392534730551321 0.42735853773592031 0 -0.17005140497629029 0.4110919069137508 0 -0.17982175087834751 0.44398228844146642 0 -0.1891083889761028 0.42179796269225822 0 -0.17392534730551321 0.42735853773592031 0 -0.17982175087834751 0.44398228844146642 0 -0.17392534730551321 0.42735853773592031 0 -0.1570075063365792 0.43157249012477988 0 -0.17392534730551321 0.42735853773592031 0 -0.1570075063365792 0.43157249012477988 0 -0.17005140497629029 0.4110919069137508 0 -0.1570075063365792 0.43157249012477988 0 -0.17005140497629029 0.4110919069137508 0 -0.15121813907381501 0.41111000370522771 0 -0.1570075063365792 0.43157249012477988 0 -0.15121813907381501 0.41111000370522771 0 -0.1341932617948107 0.4191626918080934 0 -0.1388896162623052 0.43835480007813099 0 -0.1570075063365792 0.43157249012477988 0 -0.1341932617948107 0.4191626918080934 0 -0.1570075063365792 0.43157249012477988 0 -0.1341932617948107 0.4191626918080934 0 -0.1341932617948107 0.4191626918080934 0 -0.11850695917484071 0.42042171970169168 0 -0.1230748447028855 0.43656902168847961 0 -0.1388896162623052 0.43835480007813099 0 -0.1341932617948107 0.4191626918080934 0 -0.1230748447028855 0.43656902168847961 0 -0.15121813907381501 0.41111000370522771 0 -0.1341932617948107 0.4191626918080934 0 -0.1341877693597987 0.39968310393545842 0 -0.1341932617948107 0.4191626918080934 0 -0.1341877693597987 0.39968310393545842 0 -0.11137901725304231 0.40675289349140681 0 -0.1341877693597987 0.39968310393545842 0 -0.14257097354485609 0.37888722209891568 0 -0.12297553859164539 0.38416780542555168 0 -0.1341877693597987 0.39968310393545842 0 -0.14257097354485609 0.37888722209891568 0 -0.15597110886189169 0.39288635121071308 0 -0.15979865337196869 0.37515414918563061 0 -0.14257097354485609 0.37888722209891568 0 -0.15597110886189169 0.39288635121071308 0 -0.15121813907381501 0.41111000370522771 0 -0.1341877693597987 0.39968310393545842 0 -0.15597110886189169 0.39288635121071308 0 -0.15079085214823679 0.35899388900179102 0 -0.1461685812688471 0.3389976292938392 0 -0.1563634112241144 0.34615145401974612 0 -0.15079085214823679 0.35899388900179102 0 -0.13457205993024629 0.36158271735969538 0 -0.1461685812688471 0.3389976292938392 0 -0.15979865337196869 0.37515414918563061 0 -0.14257097354485609 0.37888722209891568 0 -0.15079085214823679 0.35899388900179102 0 -0.14257097354485609 0.37888722209891568 0 -0.15079085214823679 0.35899388900179102 0 -0.13457205993024629 0.36158271735969538 0 -0.14257097354485609 0.37888722209891568 0 -0.13457205993024629 0.36158271735969538 0 -0.12297553859164539 0.38416780542555168 0 -0.13457205993024629 0.36158271735969538 0 -0.12297553859164539 0.38416780542555168 0 -0.13457205993024629 0.36158271735969538 0 -0.13548951841769821 0.34335074600605869 0 -0.1217248257463549 0.34768517176175162 0 -0.13457205993024629 0.36158271735969538 0 -0.1461685812688471 0.3389976292938392 0 -0.13457205993024629 0.36158271735969538 0 -0.13548951841769821 0.34335074600605869 0 -0.1461685812688471 0.3389976292938392 0 -0.12973982913763571 0.3326518941281702 0 -0.13548951841769821 0.34335074600605869 0 -0.1217248257463549 0.34768517176175162 0 -0.12973982913763571 0.3326518941281702 0 -0.1387219398629646 0.3334390162536488 0 -0.13705784247271471 0.32735922668586698 0 -0.1387219398629646 0.3334390162536488 0 -0.13705784247271471 0.32735922668586698 0 -0.1420871212850387 0.328330578667485 0 -0.12973982913763571 0.3326518941281702 0 -0.1387219398629646 0.3334390162536488 0 -0.13548951841769821 0.34335074600605869 0 -0.1387219398629646 0.3334390162536488 0 -0.13548951841769821 0.34335074600605869 0 -0.14091218886676199 0.33760372292275698 0 -0.1289126291671952 0.31586768752469557 0 -0.12528313429078211 0.32332367707512782 0 -0.1228749423493791 0.31455105057782518 0 -0.1289126291671952 0.31586768752469557 0 -0.13353951307893169 0.31821162266362191 0 -0.1335845274397349 0.31287803813355552 0 -0.1289126291671952 0.31586768752469557 0 -0.1335845274397349 0.31287803813355552 0 -0.12850797467899941 0.31056171748584221 0 -0.1289126291671952 0.31586768752469557 0 -0.12850797467899941 0.31056171748584221 0 -0.1228749423493791 0.31455105057782518 0 -0.1289126291671952 0.31586768752469557 0 -0.12994930033805269 0.32060190391344229 0 -0.12528313429078211 0.32332367707512782 0 -0.1289126291671952 0.31586768752469557 0 -0.12994930033805269 0.32060190391344229 0 -0.13353951307893169 0.31821162266362191 0 -0.12973982913763571 0.3326518941281702 0 -0.1324861352123046 0.32385336693533168 0 -0.12528313429078211 0.32332367707512782 0 -0.1324861352123046 0.32385336693533168 0 -0.12994930033805269 0.32060190391344229 0 -0.12528313429078211 0.32332367707512782 0 -0.1324861352123046 0.32385336693533168 0 -0.12994930033805269 0.32060190391344229 0 -0.13353951307893169 0.31821162266362191 0 -0.12973982913763571 0.3326518941281702 0 -0.1324861352123046 0.32385336693533168 0 -0.13705784247271471 0.32735922668586698 0 -0.13705784247271471 0.32735922668586698 0 -0.13800714524765809 0.32086235201970809 0 -0.1432054242361796 0.32320645470250892 0 -0.1324861352123046 0.32385336693533168 0 -0.13705784247271471 0.32735922668586698 0 -0.13800714524765809 0.32086235201970809 0 -0.1324861352123046 0.32385336693533168 0 -0.13800714524765809 0.32086235201970809 0 -0.13353951307893169 0.31821162266362191 0 -0.13800714524765809 0.32086235201970809 0 -0.13353951307893169 0.31821162266362191 0 -0.13833466250700749 0.31510510107980538 0 -0.13800714524765809 0.32086235201970809 0 -0.13833466250700749 0.31510510107980538 0 -0.14297353181868111 0.31773765827105582 0 -0.13353951307893169 0.31821162266362191 0 -0.13833466250700749 0.31510510107980538 0 -0.1335845274397349 0.31287803813355552 0 -0.13833466250700749 0.31510510107980538 0 -0.1335845274397349 0.31287803813355552 0 -0.1378679771192847 0.31002377963479472 0 -0.1461685812688471 0.3389976292938392 0 -0.157765102607448 0.31641254122798312 0 -0.14955960362369461 0.32483363282017569 0 -0.1461685812688471 0.3389976292938392 0 -0.157765102607448 0.31641254122798312 0 -0.1481231587344965 0.33827541625203822 0 -0.157765102607448 0.31641254122798312 0 -0.16151132467336571 0.3228200173879201 0 -0.14762983562422469 0.31490232248326228 0 -0.14297353181868111 0.31773765827105582 0 -0.14263620449336389 0.31227960863104931 0 -0.13833466250700749 0.31510510107980538 0 -0.14297353181868111 0.31773765827105582 0 -0.14263620449336389 0.31227960863104931 0 -0.14762983562422469 0.31490232248326228 0 -0.14297353181868111 0.31773765827105582 0 -0.1472470768228599 0.32058364988469279 0 -0.1472470768228599 0.32058364988469279 0 -0.14562647447624669 0.325459681492132 0 -0.14955960362369461 0.32483363282017569 0 -0.1472470768228599 0.32058364988469279 0 -0.1432054242361796 0.32320645470250892 0 -0.14562647447624669 0.325459681492132 0 -0.13800714524765809 0.32086235201970809 0 -0.14297353181868111 0.31773765827105582 0 -0.1432054242361796 0.32320645470250892 0 -0.14297353181868111 0.31773765827105582 0 -0.1472470768228599 0.32058364988469279 0 -0.1432054242361796 0.32320645470250892 0 -0.1432054242361796 0.32320645470250892 0 -0.14562647447624669 0.325459681492132 0 -0.1420871212850387 0.328330578667485 0 -0.13705784247271471 0.32735922668586698 0 -0.1432054242361796 0.32320645470250892 0 -0.1420871212850387 0.328330578667485 0 -0.14562647447624669 0.325459681492132 0 -0.1420871212850387 0.328330578667485 0 -0.14603314641346071 0.33034409138579768 0 -0.14562647447624669 0.325459681492132 0 -0.14955960362369461 0.32483363282017569 0 -0.14603314641346071 0.33034409138579768 0 -0.1472470768228599 0.32058364988469279 0 -0.14955960362369461 0.32483363282017569 0 -0.1509266149983331 0.31776634908686407 0 -0.14955960362369461 0.32483363282017569 0 -0.1509266149983331 0.31776634908686407 0 -0.157765102607448 0.31641254122798312 0 -0.14762983562422469 0.31490232248326228 0 -0.1472470768228599 0.32058364988469279 0 -0.1509266149983331 0.31776634908686407 0 -0.1509266149983331 0.31776634908686407 0 -0.157765102607448 0.31641254122798312 0 -0.15243145631343841 0.31209959901820689 0 -0.14762983562422469 0.31490232248326228 0 -0.1509266149983331 0.31776634908686407 0 -0.15243145631343841 0.31209959901820689 0 -0.1461685812688471 0.3389976292938392 0 -0.1481231587344965 0.33827541625203822 0 -0.157765102607448 0.31641254122798312 0 -0.13548951841769821 0.34335074600605869 0 -0.1461685812688471 0.3389976292938392 0 -0.14091218886676199 0.33760372292275698 0 -0.1461685812688471 0.3389976292938392 0 -0.14091218886676199 0.33760372292275698 0 -0.14326871591753801 0.33462750013748149 0 -0.14955960362369461 0.32483363282017569 0 -0.1461685812688471 0.3389976292938392 0 -0.14603314641346071 0.33034409138579768 0 -0.1387219398629646 0.3334390162536488 0 -0.14326871591753801 0.33462750013748149 0 -0.1432501120118585 0.33141802375927182 0 -0.14326871591753801 0.33462750013748149 0 -0.1432501120118585 0.33141802375927182 0 -0.14603314641346071 0.33034409138579768 0 -0.1387219398629646 0.3334390162536488 0 -0.14091218886676199 0.33760372292275698 0 -0.14326871591753801 0.33462750013748149 0 -0.1461685812688471 0.3389976292938392 0 -0.14326871591753801 0.33462750013748149 0 -0.14603314641346071 0.33034409138579768 0 -0.1420871212850387 0.328330578667485 0 -0.1432501120118585 0.33141802375927182 0 -0.14603314641346071 0.33034409138579768 0 -0.1387219398629646 0.3334390162536488 0 -0.1420871212850387 0.328330578667485 0 -0.1432501120118585 0.33141802375927182 0 -0.1481231587344965 0.33827541625203822 0 -0.16151132467336571 0.3228200173879201 0 -0.1481231587344965 0.33827541625203822 0 -0.15688602385166431 0.3344853238406047 0 -0.16151132467336571 0.3228200173879201 0 -0.1526402970129869 0.34012649470523543 0 -0.15848234385437959 0.33926797203821518 0 -0.15688602385166431 0.3344853238406047 0 -0.1461685812688471 0.3389976292938392 0 -0.1526402970129869 0.34012649470523543 0 -0.1563634112241144 0.34615145401974612 0 -0.1481231587344965 0.33827541625203822 0 -0.1526402970129869 0.34012649470523543 0 -0.15688602385166431 0.3344853238406047 0 -0.1461685812688471 0.3389976292938392 0 -0.1481231587344965 0.33827541625203822 0 -0.1526402970129869 0.34012649470523543 0 -0.1526402970129869 0.34012649470523543 0 -0.15848234385437959 0.33926797203821518 0 -0.1563634112241144 0.34615145401974612 0 -0.15848234385437959 0.33926797203821518 0 -0.16367299498309271 0.33193671881961478 0 -0.1668637346237053 0.34216160822870262 0 -0.15848234385437959 0.33926797203821518 0 -0.1668637346237053 0.34216160822870262 0 -0.1563634112241144 0.34615145401974612 0 -0.15688602385166431 0.3344853238406047 0 -0.16367299498309271 0.33193671881961478 0 -0.16151132467336571 0.3228200173879201 0 -0.15848234385437959 0.33926797203821518 0 -0.15688602385166431 0.3344853238406047 0 -0.16367299498309271 0.33193671881961478 0 -0.16367299498309271 0.33193671881961478 0 -0.17062171724198541 0.32654379361503222 0 -0.17669265510997781 0.33599323109432611 0 -0.16367299498309271 0.33193671881961478 0 -0.1668637346237053 0.34216160822870262 0 -0.17669265510997781 0.33599323109432611 0 -0.157765102607448 0.31641254122798312 0 -0.16151132467336571 0.3228200173879201 0 -0.1650918987076391 0.31088090020811587 0 -0.16367299498309271 0.33193671881961478 0 -0.16151132467336571 0.3228200173879201 0 -0.17062171724198541 0.32654379361503222 0 -0.16151132467336571 0.3228200173879201 0 -0.17062171724198541 0.32654379361503222 0 -0.17050298668325581 0.31708258489893609 0 -0.16151132467336571 0.3228200173879201 0 -0.17050298668325581 0.31708258489893609 0 -0.1748994906122355 0.30736461852380248 0 -0.16151132467336571 0.3228200173879201 0 -0.1748994906122355 0.30736461852380248 0 -0.16151132467336571 0.3228200173879201 0 -0.1748994906122355 0.30736461852380248 0 -0.1650918987076391 0.31088090020811587 0 -0.18117904754824959 0.32596787574673208 0 -0.1809993227469382 0.31518652411299458 0 -0.19774998642334071 0.32237845999077752 0 -0.1809993227469382 0.31518652411299458 0 -0.19774998642334071 0.32237845999077752 0 -0.18073972305513999 0.3052707403760524 0 -0.17050298668325581 0.31708258489893609 0 -0.1809993227469382 0.31518652411299458 0 -0.1760341763972246 0.31245651134378127 0 -0.17050298668325581 0.31708258489893609 0 -0.18117904754824959 0.32596787574673208 0 -0.1809993227469382 0.31518652411299458 0 -0.1809993227469382 0.31518652411299458 0 -0.17773490554646859 0.31019231783939138 0 -0.1760341763972246 0.31245651134378127 0 -0.17062171724198541 0.32654379361503222 0 -0.17050298668325581 0.31708258489893609 0 -0.18117904754824959 0.32596787574673208 0 -0.17669265510997781 0.33599323109432611 0 -0.18185477271027439 0.3540977287578953 0 -0.19086991287927141 0.33855103359423211 0 -0.17062171724198541 0.32654379361503222 0 -0.18117904754824959 0.32596787574673208 0 -0.17669265510997781 0.33599323109432611 0 -0.18117904754824959 0.32596787574673208 0 -0.17669265510997781 0.33599323109432611 0 -0.19086991287927141 0.33855103359423211 0 -0.1668637346237053 0.34216160822870262 0 -0.17669265510997781 0.33599323109432611 0 -0.18185477271027439 0.3540977287578953 0 -0.1668637346237053 0.34216160822870262 0 -0.18185477271027439 0.3540977287578953 0 -0.16585546800768231 0.35695173101694683 0 -0.15079085214823679 0.35899388900179102 0 -0.16585546800768231 0.35695173101694683 0 -0.1563634112241144 0.34615145401974612 0 -0.1668637346237053 0.34216160822870262 0 -0.16585546800768231 0.35695173101694683 0 -0.1563634112241144 0.34615145401974612 0 -0.15979865337196869 0.37515414918563061 0 -0.16585546800768231 0.35695173101694683 0 -0.17754970722824809 0.374709238619299 0 -0.15979865337196869 0.37515414918563061 0 -0.15079085214823679 0.35899388900179102 0 -0.16585546800768231 0.35695173101694683 0 -0.18185477271027439 0.3540977287578953 0 -0.16585546800768231 0.35695173101694683 0 -0.17754970722824809 0.374709238619299 0 -0.18185477271027439 0.3540977287578953 0 -0.17754970722824809 0.374709238619299 0 -0.19405662508766219 0.37468799269846392 0 -0.18185477271027439 0.3540977287578953 0 -0.19405662508766219 0.37468799269846392 0 -0.20264766110319629 0.3580139680941028 0 -0.18185477271027439 0.3540977287578953 0 -0.20264766110319629 0.3580139680941028 0 -0.19086991287927141 0.33855103359423211 0 -0.20264766110319629 0.3580139680941028 0 -0.2147602497915419 0.33948617960550209 0 -0.19086991287927141 0.33855103359423211 0 -0.20264766110319629 0.3580139680941028 0 -0.23177051315974309 0.35659389922022672 0 -0.2147602497915419 0.33948617960550209 0 -0.21429172212411851 0.37973289853061559 0 -0.20264766110319629 0.3580139680941028 0 -0.23177051315974309 0.35659389922022672 0 -0.21429172212411851 0.37973289853061559 0 -0.19405662508766219 0.37468799269846392 0 -0.20264766110319629 0.3580139680941028 0 -0.24071571882699311 0.37514703298740371 0 -0.21429172212411851 0.37973289853061559 0 -0.23177051315974309 0.35659389922022672 0 -0.23177051315974309 0.35659389922022672 0 -0.23293430727568251 0.33842619384780642 0 -0.2147602497915419 0.33948617960550209 0 -0.23177051315974309 0.35659389922022672 0 -0.2147602497915419 0.33948617960550209 0 -0.25624990174621159 0.35010152198434957 0 -0.23177051315974309 0.35659389922022672 0 -0.23293430727568251 0.33842619384780642 0 -0.25624990174621159 0.35010152198434957 0 -0.24071571882699311 0.37514703298740371 0 -0.23177051315974309 0.35659389922022672 0 -0.2450465082471352 0.32377169264754052 0 -0.22329822644922509 0.3203462790947918 0 -0.2382740168166721 0.30890840757211457 0 -0.25624990174621159 0.35010152198434957 0 -0.2450465082471352 0.32377169264754052 0 -0.23293430727568251 0.33842619384780642 0 -0.23293430727568251 0.33842619384780642 0 -0.22329822644922509 0.3203462790947918 0 -0.2147602497915419 0.33948617960550209 0 -0.2450465082471352 0.32377169264754052 0 -0.23293430727568251 0.33842619384780642 0 -0.22329822644922509 0.3203462790947918 0 -0.22329822644922509 0.3203462790947918 0 -0.2147602497915419 0.33948617960550209 0 -0.19774998642334071 0.32237845999077752 0 -0.22329822644922509 0.3203462790947918 0 -0.19774998642334071 0.32237845999077752 0 -0.21067087086052819 0.30924423004929608 0 -0.2147602497915419 0.33948617960550209 0 -0.19774998642334071 0.32237845999077752 0 -0.18117904754824959 0.32596787574673208 0 -0.19086991287927141 0.33855103359423211 0 -0.19774998642334071 0.32237845999077752 0 -0.2147602497915419 0.33948617960550209 0 -0.19086991287927141 0.33855103359423211 0 -0.19774998642334071 0.32237845999077752 0 -0.19774998642334071 0.32237845999077752 0 -0.18073972305513999 0.3052707403760524 0 -0.19774998642334071 0.32237845999077752 0 -0.19958054670243411 0.307932906740712 0 -0.21067087086052819 0.30924423004929608 0 -0.19774998642334071 0.32237845999077752 0 -0.19958054670243411 0.307932906740712 0 -0.18073972305513999 0.3052707403760524 0 -0.2091177777343467 0.29509645550820712 0 -0.18073972305513999 0.3052707403760524 0 -0.19958054670243411 0.307932906740712 0 -0.2091177777343467 0.29509645550820712 0 -0.18073972305513999 0.3052707403760524 0 -0.19387548501812549 0.2854585886967555 0 -0.2091177777343467 0.29509645550820712 0 -0.18073972305513999 0.3052707403760524 0 -0.20879008094173179 0.28131767711784472 0 -0.2091177777343467 0.29509645550820712 0 -0.2229304052992232 0.27628573725332278 0 -0.19387548501812549 0.2854585886967555 0 -0.20879008094173179 0.28131767711784472 0 -0.2091177777343467 0.29509645550820712 0 -0.19958054670243411 0.307932906740712 0 -0.2091177777343467 0.29509645550820712 0 -0.21067087086052819 0.30924423004929608 0 -0.2091177777343467 0.29509645550820712 0 -0.21067087086052819 0.30924423004929608 0 -0.22377134485486519 0.30370350857295458 0 -0.22329822644922509 0.3203462790947918 0 -0.22377134485486519 0.30370350857295458 0 -0.2382740168166721 0.30890840757211457 0 -0.22329822644922509 0.3203462790947918 0 -0.21067087086052819 0.30924423004929608 0 -0.22377134485486519 0.30370350857295458 0 -0.22377134485486519 0.30370350857295458 0 -0.2374958324135541 0.28492217064036368 0 -0.2382740168166721 0.30890840757211457 0 -0.2091177777343467 0.29509645550820712 0 -0.2374958324135541 0.28492217064036368 0 -0.2091177777343467 0.29509645550820712 0 -0.22377134485486519 0.30370350857295458 0 -0.2374958324135541 0.28492217064036368 0 -0.2091177777343467 0.29509645550820712 0 -0.2374958324135541 0.28492217064036368 0 -0.2229304052992232 0.27628573725332278 0 -0.25629512984107072 0.30276053769542383 0 -0.2374958324135541 0.28492217064036368 0 -0.2382740168166721 0.30890840757211457 0 -0.25629512984107072 0.30276053769542383 0 -0.2450465082471352 0.32377169264754052 0 -0.2382740168166721 0.30890840757211457 0 -0.25006108478002698 0.24413400530429169 0 -0.24601195953627361 0.26521614301805291 0 -0.23695383633925579 0.24826950418610361 0 -0.24601195953627361 0.26521614301805291 0 -0.2262332628990571 0.25687017961323549 0 -0.23695383633925579 0.24826950418610361 0 -0.25666633698837071 0.28091507941757921 0 -0.2374958324135541 0.28492217064036368 0 -0.24601195953627361 0.26521614301805291 0 -0.2374958324135541 0.28492217064036368 0 -0.24601195953627361 0.26521614301805291 0 -0.2229304052992232 0.27628573725332278 0 -0.2229304052992232 0.27628573725332278 0 -0.2262332628990571 0.25687017961323549 0 -0.2091630227318057 0.26781054085405498 0 -0.24601195953627361 0.26521614301805291 0 -0.2229304052992232 0.27628573725332278 0 -0.2262332628990571 0.25687017961323549 0 -0.2262332628990571 0.25687017961323549 0 -0.20266042336288631 0.26587780115750759 0 -0.2262332628990571 0.25687017961323549 0 -0.20905810505216499 0.25073725147777459 0 -0.20266042336288631 0.26587780115750759 0 -0.2262332628990571 0.25687017961323549 0 -0.2091630227318057 0.26781054085405498 0 -0.20266042336288631 0.26587780115750759 0 -0.19387548501812549 0.2854585886967555 0 -0.20879008094173179 0.28131767711784472 0 -0.2091630227318057 0.26781054085405498 0 -0.20879008094173179 0.28131767711784472 0 -0.2229304052992232 0.27628573725332278 0 -0.2091630227318057 0.26781054085405498 0 -0.20266042336288631 0.26587780115750759 0 -0.1790875838267155 0.27488542270177968 0 -0.19387548501812549 0.2854585886967555 0 -0.2091630227318057 0.26781054085405498 0 -0.20266042336288631 0.26587780115750759 0 -0.1915106478636045 0.26407921493864978 0 -0.1790875838267155 0.27488542270177968 0 -0.19387548501812549 0.2854585886967555 0 -0.2091630227318057 0.26781054085405498 0 -0.20266042336288631 0.26587780115750759 0 -0.19387548501812549 0.2854585886967555 0 -0.20266042336288631 0.26587780115750759 0 -0.1790875838267155 0.27488542270177968 0 -0.20905810505216499 0.25073725147777459 0 -0.19746578726171521 0.25574480178594511 0 -0.19457001017949149 0.2447322455169563 0 -0.20905810505216499 0.25073725147777459 0 -0.20266042336288631 0.26587780115750759 0 -0.19746578726171521 0.25574480178594511 0 -0.20266042336288631 0.26587780115750759 0 -0.19746578726171521 0.25574480178594511 0 -0.1915106478636045 0.26407921493864978 0 -0.19746578726171521 0.25574480178594511 0 -0.1915106478636045 0.26407921493864978 0 -0.18682879700310079 0.25980883410936662 0 -0.18682879700310079 0.25980883410936662 0 -0.19457001017949149 0.2447322455169563 0 -0.19746578726171521 0.25574480178594511 0 -0.18682879700310079 0.25980883410936662 0 -0.19457001017949149 0.2447322455169563 0 -0.17707981406228859 0.26107055087035103 0 -0.19457001017949149 0.2447322455169563 0 -0.18682879700310079 0.25980883410936662 0 -0.17707981406228859 0.26107055087035103 0 -0.19457001017949149 0.2447322455169563 0 -0.18682879700310079 0.25980883410936662 0 -0.17707981406228859 0.26107055087035103 0 -0.1790875838267155 0.27488542270177968 0 -0.17707981406228859 0.26107055087035103 0 -0.15267587363866891 0.25418822484469139 0 -0.16796854263570771 0.24545478053275971 0 -0.17707981406228859 0.26107055087035103 0 -0.15958961794507989 0.27740885622373967 0 -0.15267587363866891 0.25418822484469139 0 -0.1790875838267155 0.27488542270177968 0 -0.16239068639471399 0.28681657728686238 0 -0.16090676541371871 0.2818326524310667 0 -0.17707981406228859 0.26107055087035103 0 -0.15958961794507989 0.27740885622373967 0 -0.1790875838267155 0.27488542270177968 0 -0.16090676541371871 0.2818326524310667 0 -0.15958961794507989 0.27740885622373967 0 -0.1790875838267155 0.27488542270177968 0 -0.16090676541371871 0.2818326524310667 0 -0.15958961794507989 0.27740885622373967 0 -0.16090676541371871 0.2818326524310667 0 -0.15958961794507989 0.27740885622373967 0 -0.15881195623573821 0.280290079159352 0 -0.16090676541371871 0.2818326524310667 0 -0.15958961794507989 0.27740885622373967 0 -0.15881195623573821 0.280290079159352 0 -0.15619217149944251 0.28058254947902561 0 -0.15881195623573821 0.280290079159352 0 -0.1583909983165103 0.28279397394985861 0 -0.15619217149944251 0.28058254947902561 0 -0.15958961794507989 0.27740885622373967 0 -0.15619217149944251 0.28058254947902561 0 -0.17707981406228859 0.26107055087035103 0 -0.15958961794507989 0.27740885622373967 0 -0.1790875838267155 0.27488542270177968 0 -0.1915106478636045 0.26407921493864978 0 -0.18682879700310079 0.25980883410936662 0 -0.1790875838267155 0.27488542270177968 0 -0.18682879700310079 0.25980883410936662 0 -0.1790875838267155 0.27488542270177968 0 -0.19387548501812549 0.2854585886967555 0 -0.17858794730444269 0.30310663653945369 0 -0.1790875838267155 0.27488542270177968 0 -0.18022816002383349 0.28931952527502908 0 -0.16936162394605001 0.29382745316212761 0 -0.1790875838267155 0.27488542270177968 0 -0.16936162394605001 0.29382745316212761 0 -0.19387548501812549 0.2854585886967555 0 -0.18022816002383349 0.28931952527502908 0 -0.17858794730444269 0.30310663653945369 0 -0.19387548501812549 0.2854585886967555 0 -0.1790875838267155 0.27488542270177968 0 -0.18022816002383349 0.28931952527502908 0 -0.18022816002383349 0.28931952527502908 0 -0.17858794730444269 0.30310663653945369 0 -0.16936162394605001 0.29382745316212761 0 -0.19387548501812549 0.2854585886967555 0 -0.18073972305513999 0.3052707403760524 0 -0.17858794730444269 0.30310663653945369 0 -0.1809993227469382 0.31518652411299458 0 -0.18073972305513999 0.3052707403760524 0 -0.17773490554646859 0.31019231783939138 0 -0.17858794730444269 0.30310663653945369 0 -0.16936162394605001 0.29382745316212761 0 -0.17188260356668941 0.30293991244014529 0 -0.17858794730444269 0.30310663653945369 0 -0.16936162394605001 0.29382745316212761 0 -0.17188260356668941 0.30293991244014529 0 -0.17858794730444269 0.30310663653945369 0 -0.1748994906122355 0.30736461852380248 0 -0.18073972305513999 0.3052707403760524 0 -0.17858794730444269 0.30310663653945369 0 -0.17050298668325581 0.31708258489893609 0 -0.1748994906122355 0.30736461852380248 0 -0.1760341763972246 0.31245651134378127 0 -0.18073972305513999 0.3052707403760524 0 -0.17858794730444269 0.30310663653945369 0 -0.1748994906122355 0.30736461852380248 0 -0.18073972305513999 0.3052707403760524 0 -0.1748994906122355 0.30736461852380248 0 -0.17858794730444269 0.30310663653945369 0 -0.1748994906122355 0.30736461852380248 0 -0.18073972305513999 0.3052707403760524 0 -0.1748994906122355 0.30736461852380248 0 -0.17773490554646859 0.31019231783939138 0 -0.1748994906122355 0.30736461852380248 0 -0.17773490554646859 0.31019231783939138 0 -0.1760341763972246 0.31245651134378127 0 -0.157765102607448 0.31641254122798312 0 -0.1575123935312342 0.30658904954699262 0 -0.16936162394605001 0.29382745316212761 0 -0.17188260356668941 0.30293991244014529 0 -0.1650918987076391 0.31088090020811587 0 -0.16936162394605001 0.29382745316212761 0 -0.157765102607448 0.31641254122798312 0 -0.16936162394605001 0.29382745316212761 0 -0.157765102607448 0.31641254122798312 0 -0.1650918987076391 0.31088090020811587 0 -0.16936162394605001 0.29382745316212761 0 -0.1748994906122355 0.30736461852380248 0 -0.1650918987076391 0.31088090020811587 0 -0.17188260356668941 0.30293991244014529 0 -0.1748994906122355 0.30736461852380248 0 -0.1650918987076391 0.31088090020811587 0 -0.16018253597360871 0.29899916848028152 0 -0.1575123935312342 0.30658904954699262 0 -0.16936162394605001 0.29382745316212761 0 -0.16018253597360871 0.29899916848028152 0 -0.15924062786245899 0.29533921179973183 0 -0.15461549855469139 0.30024095941227452 0 -0.16018253597360871 0.29899916848028152 0 -0.1575123935312342 0.30658904954699262 0 -0.15461549855469139 0.30024095941227452 0 -0.1790875838267155 0.27488542270177968 0 -0.16936162394605001 0.29382745316212761 0 -0.16239068639471399 0.28681657728686238 0 -0.16936162394605001 0.29382745316212761 0 -0.1638903311391337 0.29185331226958411 0 -0.15924062786245899 0.29533921179973183 0 -0.16936162394605001 0.29382745316212761 0 -0.1638903311391337 0.29185331226958411 0 -0.16239068639471399 0.28681657728686238 0 -0.16936162394605001 0.29382745316212761 0 -0.16239068639471399 0.28681657728686238 0 -0.1638903311391337 0.29185331226958411 0 -0.16239068639471399 0.28681657728686238 0 -0.16018253597360871 0.29899916848028152 0 -0.16936162394605001 0.29382745316212761 0 -0.15924062786245899 0.29533921179973183 0 -0.1638903311391337 0.29185331226958411 0 -0.15924062786245899 0.29533921179973183 0 -0.15973361829763791 0.29092718113453209 0 -0.1638903311391337 0.29185331226958411 0 -0.15973361829763791 0.29092718113453209 0 -0.16239068639471399 0.28681657728686238 0 -0.15924062786245899 0.29533921179973183 0 -0.15973361829763791 0.29092718113453209 0 -0.1556594088880118 0.29230383398260651 0 -0.15973361829763791 0.29092718113453209 0 -0.15749560418672781 0.28768402070394078 0 -0.1556594088880118 0.29230383398260651 0 -0.15749560418672781 0.28768402070394078 0 -0.16239068639471399 0.28681657728686238 0 -0.1583909983165103 0.28279397394985861 0 -0.15973361829763791 0.29092718113453209 0 -0.15749560418672781 0.28768402070394078 0 -0.16239068639471399 0.28681657728686238 0 -0.16239068639471399 0.28681657728686238 0 -0.16090676541371871 0.2818326524310667 0 -0.1583909983165103 0.28279397394985861 0 -0.16239068639471399 0.28681657728686238 0 -0.16090676541371871 0.2818326524310667 0 -0.16239068639471399 0.28681657728686238 0 -0.1583909983165103 0.28279397394985861 0 -0.15881195623573821 0.280290079159352 0 -0.16090676541371871 0.2818326524310667 0 -0.1583909983165103 0.28279397394985861 0 -0.16090676541371871 0.2818326524310667 0 -0.1583909983165103 0.28279397394985861 0 -0.1583909983165103 0.28279397394985861 0 -0.15619217149944251 0.28058254947902561 0 -0.15066406484676301 0.28574657931106229 0 -0.15619217149944251 0.28058254947902561 0 -0.15066406484676301 0.28574657931106229 0 -0.14519251435134531 0.28303803346481282 0 -0.15619217149944251 0.28058254947902561 0 -0.1583909983165103 0.28279397394985861 0 -0.15066406484676301 0.28574657931106229 0 -0.1583909983165103 0.28279397394985861 0 -0.15066406484676301 0.28574657931106229 0 -0.15619217149944251 0.28058254947902561 0 -0.15749560418672781 0.28768402070394078 0 -0.15066406484676301 0.28574657931106229 0 -0.1556594088880118 0.29230383398260651 0 -0.15749560418672781 0.28768402070394078 0 -0.1583909983165103 0.28279397394985861 0 -0.15066406484676301 0.28574657931106229 0 -0.1556594088880118 0.29230383398260651 0 -0.15342766442310249 0.29551774641112932 0 -0.15052297807858889 0.29203848094966972 0 -0.15924062786245899 0.29533921179973183 0 -0.1556594088880118 0.29230383398260651 0 -0.15342766442310249 0.29551774641112932 0 -0.15342766442310249 0.29551774641112932 0 -0.15052297807858889 0.29203848094966972 0 -0.14825226242748529 0.29675221818688863 0 -0.15066406484676301 0.28574657931106229 0 -0.15052297807858889 0.29203848094966972 0 -0.14563205764701459 0.2904471824157383 0 -0.15066406484676301 0.28574657931106229 0 -0.1556594088880118 0.29230383398260651 0 -0.15052297807858889 0.29203848094966972 0 -0.15052297807858889 0.29203848094966972 0 -0.14563205764701459 0.2904471824157383 0 -0.14825226242748529 0.29675221818688863 0 -0.14563205764701459 0.2904471824157383 0 -0.14825226242748529 0.29675221818688863 0 -0.1424995995480707 0.29368798265989188 0 -0.14825226242748529 0.29675221818688863 0 -0.1424995995480707 0.29368798265989188 0 -0.14168052600679409 0.29812016028473137 0 -0.1424995995480707 0.29368798265989188 0 -0.14168052600679409 0.29812016028473137 0 -0.13843868093347131 0.29351735796960499 0 -0.14563205764701459 0.2904471824157383 0 -0.1424995995480707 0.29368798265989188 0 -0.14073228680377969 0.28954169689694492 0 -0.15066406484676301 0.28574657931106229 0 -0.14073228680377969 0.28954169689694492 0 -0.14519251435134531 0.28303803346481282 0 -0.15066406484676301 0.28574657931106229 0 -0.14073228680377969 0.28954169689694492 0 -0.14073228680377969 0.28954169689694492 0 -0.14519251435134531 0.28303803346481282 0 -0.13813510727933889 0.28309401098471543 0 -0.15066406484676301 0.28574657931106229 0 -0.14563205764701459 0.2904471824157383 0 -0.14073228680377969 0.28954169689694492 0 -0.15066406484676301 0.28574657931106229 0 -0.14563205764701459 0.2904471824157383 0 -0.157765102607448 0.31641254122798312 0 -0.1575123935312342 0.30658904954699262 0 -0.15243145631343841 0.31209959901820689 0 -0.14762983562422469 0.31490232248326228 0 -0.15243145631343841 0.31209959901820689 0 -0.1463734461013631 0.30918467890406082 0 -0.15243145631343841 0.31209959901820689 0 -0.15044958963601771 0.30733404667765413 0 -0.1463734461013631 0.30918467890406082 0 -0.1575123935312342 0.30658904954699262 0 -0.15243145631343841 0.31209959901820689 0 -0.15044958963601771 0.30733404667765413 0 -0.1575123935312342 0.30658904954699262 0 -0.15044958963601771 0.30733404667765413 0 -0.15084060523552931 0.30282913427249308 0 -0.15044958963601771 0.30733404667765413 0 -0.15084060523552931 0.30282913427249308 0 -0.14571684452084729 0.30299585266990059 0 -0.1575123935312342 0.30658904954699262 0 -0.15084060523552931 0.30282913427249308 0 -0.15461549855469139 0.30024095941227452 0 -0.15924062786245899 0.29533921179973183 0 -0.15342766442310249 0.29551774641112932 0 -0.15461549855469139 0.30024095941227452 0 -0.14825226242748529 0.29675221818688863 0 -0.15084060523552931 0.30282913427249308 0 -0.15461549855469139 0.30024095941227452 0 -0.15342766442310249 0.29551774641112932 0 -0.14825226242748529 0.29675221818688863 0 -0.15461549855469139 0.30024095941227452 0 -0.14825226242748529 0.29675221818688863 0 -0.14168052600679409 0.29812016028473137 0 -0.14571684452084729 0.30299585266990059 0 -0.14168052600679409 0.29812016028473137 0 -0.14571684452084729 0.30299585266990059 0 -0.14013359602747011 0.30248630346108579 0 -0.14571684452084729 0.30299585266990059 0 -0.1419185888849103 0.30693320146200997 0 -0.14013359602747011 0.30248630346108579 0 -0.14825226242748529 0.29675221818688863 0 -0.15084060523552931 0.30282913427249308 0 -0.14571684452084729 0.30299585266990059 0 -0.14571684452084729 0.30299585266990059 0 -0.1419185888849103 0.30693320146200997 0 -0.1463734461013631 0.30918467890406082 0 -0.15044958963601771 0.30733404667765413 0 -0.14571684452084729 0.30299585266990059 0 -0.1463734461013631 0.30918467890406082 0 -0.1419185888849103 0.30693320146200997 0 -0.14263620449336389 0.31227960863104931 0 -0.1378679771192847 0.31002377963479472 0 -0.1419185888849103 0.30693320146200997 0 -0.14263620449336389 0.31227960863104931 0 -0.1463734461013631 0.30918467890406082 0 -0.14762983562422469 0.31490232248326228 0 -0.14263620449336389 0.31227960863104931 0 -0.1463734461013631 0.30918467890406082 0 -0.1335845274397349 0.31287803813355552 0 -0.1378679771192847 0.31002377963479472 0 -0.13350611859097289 0.30731278693884562 0 -0.13833466250700749 0.31510510107980538 0 -0.14263620449336389 0.31227960863104931 0 -0.1378679771192847 0.31002377963479472 0 -0.1419185888849103 0.30693320146200997 0 -0.13757084178831061 0.30565135245331282 0 -0.14013359602747011 0.30248630346108579 0 -0.1419185888849103 0.30693320146200997 0 -0.1378679771192847 0.31002377963479472 0 -0.13757084178831061 0.30565135245331282 0 -0.1378679771192847 0.31002377963479472 0 -0.13757084178831061 0.30565135245331282 0 -0.13350611859097289 0.30731278693884562 0 -0.13757084178831061 0.30565135245331282 0 -0.13350611859097289 0.30731278693884562 0 -0.1347523644688074 0.30131632641162731 0 -0.13757084178831061 0.30565135245331282 0 -0.1347523644688074 0.30131632641162731 0 -0.14013359602747011 0.30248630346108579 0 -0.14168052600679409 0.29812016028473137 0 -0.14013359602747011 0.30248630346108579 0 -0.13766643840847251 0.29756195169692329 0 -0.1347523644688074 0.30131632641162731 0 -0.14013359602747011 0.30248630346108579 0 -0.13766643840847251 0.29756195169692329 0 -0.1347523644688074 0.30131632641162731 0 -0.13766643840847251 0.29756195169692329 0 -0.13397514335773311 0.29455973495612869 0 -0.1347523644688074 0.30131632641162731 0 -0.12878847514386879 0.29740642510018123 0 -0.13397514335773311 0.29455973495612869 0 -0.12878847514386879 0.29740642510018123 0 -0.1283215161921861 0.30424954794557418 0 -0.1211217083685613 0.30094465742046339 0 -0.1347523644688074 0.30131632641162731 0 -0.12878847514386879 0.29740642510018123 0 -0.1283215161921861 0.30424954794557418 0 -0.13350611859097289 0.30731278693884562 0 -0.1347523644688074 0.30131632641162731 0 -0.1283215161921861 0.30424954794557418 0 -0.13350611859097289 0.30731278693884562 0 -0.1283215161921861 0.30424954794557418 0 -0.12850797467899941 0.31056171748584221 0 -0.1283215161921861 0.30424954794557418 0 -0.12850797467899941 0.31056171748584221 0 -0.1232524559019067 0.30795537431648529 0 -0.1335845274397349 0.31287803813355552 0 -0.13350611859097289 0.30731278693884562 0 -0.12850797467899941 0.31056171748584221 0 -0.134123707942188 0.28778676860612967 0 -0.13813510727933889 0.28309401098471543 0 -0.13075613586929999 0.28019708506703223 0 -0.14073228680377969 0.28954169689694492 0 -0.134123707942188 0.28778676860612967 0 -0.13813510727933889 0.28309401098471543 0 -0.14073228680377969 0.28954169689694492 0 -0.134123707942188 0.28778676860612967 0 -0.13843868093347131 0.29351735796960499 0 -0.1424995995480707 0.29368798265989188 0 -0.14073228680377969 0.28954169689694492 0 -0.13843868093347131 0.29351735796960499 0 -0.14168052600679409 0.29812016028473137 0 -0.13766643840847251 0.29756195169692329 0 -0.13843868093347131 0.29351735796960499 0 -0.13766643840847251 0.29756195169692329 0 -0.13843868093347131 0.29351735796960499 0 -0.13397514335773311 0.29455973495612869 0 -0.134123707942188 0.28778676860612967 0 -0.13843868093347131 0.29351735796960499 0 -0.13397514335773311 0.29455973495612869 0 -0.134123707942188 0.28778676860612967 0 -0.13397514335773311 0.29455973495612869 0 -0.1293135437093002 0.29153020457790513 0 -0.12878847514386879 0.29740642510018123 0 -0.13397514335773311 0.29455973495612869 0 -0.1293135437093002 0.29153020457790513 0 -0.12878847514386879 0.29740642510018123 0 -0.1293135437093002 0.29153020457790513 0 -0.123204488954481 0.29247322447188612 0 -0.1293135437093002 0.29153020457790513 0 -0.12647590314823001 0.28542486975519971 0 -0.123204488954481 0.29247322447188612 0 -0.12647590314823001 0.28542486975519971 0 -0.13075613586929999 0.28019708506703223 0 -0.1226341804027834 0.28008950938488109 0 -0.134123707942188 0.28778676860612967 0 -0.1293135437093002 0.29153020457790513 0 -0.12647590314823001 0.28542486975519971 0 -0.134123707942188 0.28778676860612967 0 -0.12647590314823001 0.28542486975519971 0 -0.13075613586929999 0.28019708506703223 0 -0.13075613586929999 0.28019708506703223 0 -0.124771597300839 0.2699058076309182 0 -0.1226341804027834 0.28008950938488109 0 -0.13075613586929999 0.28019708506703223 0 -0.13987089143008169 0.27490647088865711 0 -0.124771597300839 0.2699058076309182 0 -0.13813510727933889 0.28309401098471543 0 -0.13075613586929999 0.28019708506703223 0 -0.13987089143008169 0.27490647088865711 0 -0.13987089143008169 0.27490647088865711 0 -0.1357337309717726 0.26000689719628828 0 -0.124771597300839 0.2699058076309182 0 -0.1357337309717726 0.26000689719628828 0 -0.1167029876177143 0.25758629854510362 0 -0.124771597300839 0.2699058076309182 0 -0.1357337309717726 0.26000689719628828 0 -0.15267587363866891 0.25418822484469139 0 -0.1330808940887391 0.2402923867290355 0 -0.15958961794507989 0.27740885622373967 0 -0.1357337309717726 0.26000689719628828 0 -0.15267587363866891 0.25418822484469139 0 -0.15958961794507989 0.27740885622373967 0 -0.1357337309717726 0.26000689719628828 0 -0.15619217149944251 0.28058254947902561 0 -0.13987089143008169 0.27490647088865711 0 -0.1357337309717726 0.26000689719628828 0 -0.15619217149944251 0.28058254947902561 0 -0.14519251435134531 0.28303803346481282 0 -0.13987089143008169 0.27490647088865711 0 -0.15619217149944251 0.28058254947902561 0 -0.15958961794507989 0.27740885622373967 0 -0.15267587363866891 0.25418822484469139 0 -0.1357337309717726 0.26000689719628828 0 -0.15619217149944251 0.28058254947902561 0 -0.14519251435134531 0.28303803346481282 0 -0.13813510727933889 0.28309401098471543 0 -0.13987089143008169 0.27490647088865711 0 -0.1050303462371928 0.26678445957481689 0 -0.1030743804316909 0.28093776372038098 0 -0.11269650471832179 0.27841162573007089 0 -0.1030743804316909 0.28093776372038098 0 -0.09454064136845966 0.27383764615760481 0 -0.091045985372309818 0.28759052035305921 0 -0.1050303462371928 0.26678445957481689 0 -0.1030743804316909 0.28093776372038098 0 -0.09454064136845966 0.27383764615760481 0 -0.1050303462371928 0.26678445957481689 0 -0.09454064136845966 0.27383764615760481 0 -0.089571380476279175 0.26028189549895331 0 -0.1050303462371928 0.26678445957481689 0 -0.1035038409983251 0.25360306606961891 0 -0.089571380476279175 0.26028189549895331 0 -0.1035038409983251 0.25360306606961891 0 -0.089571380476279175 0.26028189549895331 0 -0.090939200216336349 0.2439314318156699 0 -0.1050303462371928 0.26678445957481689 0 -0.1035038409983251 0.25360306606961891 0 -0.1167029876177143 0.25758629854510362 0 -0.1357337309717726 0.26000689719628828 0 -0.1167029876177143 0.25758629854510362 0 -0.1152752904441029 0.23943124491355111 0 -0.1035038409983251 0.25360306606961891 0 -0.1167029876177143 0.25758629854510362 0 -0.1152752904441029 0.23943124491355111 0 -0.1050303462371928 0.26678445957481689 0 -0.1167029876177143 0.25758629854510362 0 -0.124771597300839 0.2699058076309182 0 -0.1050303462371928 0.26678445957481689 0 -0.124771597300839 0.2699058076309182 0 -0.11269650471832179 0.27841162573007089 0 -0.124771597300839 0.2699058076309182 0 -0.11269650471832179 0.27841162573007089 0 -0.1226341804027834 0.28008950938488109 0 -0.12647590314823001 0.28542486975519971 0 -0.1226341804027834 0.28008950938488109 0 -0.118470760977226 0.28650815874118463 0 -0.12647590314823001 0.28542486975519971 0 -0.118470760977226 0.28650815874118463 0 -0.123204488954481 0.29247322447188612 0 -0.11269650471832179 0.27841162573007089 0 -0.1226341804027834 0.28008950938488109 0 -0.118470760977226 0.28650815874118463 0 -0.123204488954481 0.29247322447188612 0 -0.1147048248806498 0.29311592519842922 0 -0.1211217083685613 0.30094465742046339 0 -0.118470760977226 0.28650815874118463 0 -0.123204488954481 0.29247322447188612 0 -0.1147048248806498 0.29311592519842922 0 -0.1147048248806498 0.29311592519842922 0 -0.1116916361133618 0.30112109975620083 0 -0.1042994788187431 0.29290566432631437 0 -0.1147048248806498 0.29311592519842922 0 -0.110446897213167 0.28622658300325249 0 -0.1042994788187431 0.29290566432631437 0 -0.118470760977226 0.28650815874118463 0 -0.1147048248806498 0.29311592519842922 0 -0.110446897213167 0.28622658300325249 0 -0.11269650471832179 0.27841162573007089 0 -0.118470760977226 0.28650815874118463 0 -0.110446897213167 0.28622658300325249 0 -0.1232524559019067 0.30795537431648529 0 -0.1211217083685613 0.30094465742046339 0 -0.11644998687793651 0.30944706845895081 0 -0.1232524559019067 0.30795537431648529 0 -0.11644998687793651 0.30944706845895081 0 -0.1228749423493791 0.31455105057782518 0 -0.12850797467899941 0.31056171748584221 0 -0.1232524559019067 0.30795537431648529 0 -0.1228749423493791 0.31455105057782518 0 -0.12878847514386879 0.29740642510018123 0 -0.123204488954481 0.29247322447188612 0 -0.1211217083685613 0.30094465742046339 0 -0.1283215161921861 0.30424954794557418 0 -0.1232524559019067 0.30795537431648529 0 -0.1211217083685613 0.30094465742046339 0 -0.1211217083685613 0.30094465742046339 0 -0.1116916361133618 0.30112109975620083 0 -0.11644998687793651 0.30944706845895081 0 -0.1147048248806498 0.29311592519842922 0 -0.1211217083685613 0.30094465742046339 0 -0.1116916361133618 0.30112109975620083 0 -0.1116916361133618 0.30112109975620083 0 -0.11644998687793651 0.30944706845895081 0 -0.1073914028025677 0.30803998656041859 0 -0.11644998687793651 0.30944706845895081 0 -0.1073914028025677 0.30803998656041859 0 -0.1099135300256537 0.31508926990324743 0 -0.1073914028025677 0.30803998656041859 0 -0.1033967501421488 0.30098565477709038 0 -0.09821594042089446 0.30742808618454182 0 -0.1073914028025677 0.30803998656041859 0 -0.09821594042089446 0.30742808618454182 0 -0.1015331773231577 0.31522748639903581 0 -0.1116916361133618 0.30112109975620083 0 -0.1033967501421488 0.30098565477709038 0 -0.1042994788187431 0.29290566432631437 0 -0.1116916361133618 0.30112109975620083 0 -0.1073914028025677 0.30803998656041859 0 -0.1033967501421488 0.30098565477709038 0 -0.1033967501421488 0.30098565477709038 0 -0.095456534296785911 0.2991045528066299 0 -0.1042994788187431 0.29290566432631437 0 -0.1033967501421488 0.30098565477709038 0 -0.095456534296785911 0.2991045528066299 0 -0.09821594042089446 0.30742808618454182 0 -0.095456534296785911 0.2991045528066299 0 -0.09821594042089446 0.30742808618454182 0 -0.089862434595422397 0.30692462601128367 0 -0.1030743804316909 0.28093776372038098 0 -0.11269650471832179 0.27841162573007089 0 -0.110446897213167 0.28622658300325249 0 -0.1030743804316909 0.28093776372038098 0 -0.110446897213167 0.28622658300325249 0 -0.1042994788187431 0.29290566432631437 0 -0.095456534296785911 0.2991045528066299 0 -0.1042994788187431 0.29290566432631437 0 -0.091045985372309818 0.28759052035305921 0 -0.1030743804316909 0.28093776372038098 0 -0.1042994788187431 0.29290566432631437 0 -0.091045985372309818 0.28759052035305921 0 -0.091045985372309818 0.28759052035305921 0 -0.077330258156955267 0.29296200761637942 0 -0.077479269293421762 0.27469322715949412 0 -0.095456534296785911 0.2991045528066299 0 -0.091045985372309818 0.28759052035305921 0 -0.086590709153140488 0.29830985512964908 0 -0.091045985372309818 0.28759052035305921 0 -0.086590709153140488 0.29830985512964908 0 -0.077330258156955267 0.29296200761637942 0 -0.09821594042089446 0.30742808618454182 0 -0.089862434595422397 0.30692462601128367 0 -0.09180567375670548 0.31603159719875751 0 -0.095456534296785911 0.2991045528066299 0 -0.089862434595422397 0.30692462601128367 0 -0.086590709153140488 0.29830985512964908 0 -0.086590709153140488 0.29830985512964908 0 -0.079258333344229048 0.3049675688608936 0 -0.077330258156955267 0.29296200761637942 0 -0.089862434595422397 0.30692462601128367 0 -0.086590709153140488 0.29830985512964908 0 -0.079258333344229048 0.3049675688608936 0 -0.089862434595422397 0.30692462601128367 0 -0.079258333344229048 0.3049675688608936 0 -0.081993965569784943 0.31554646972961198 0 -0.079258333344229048 0.3049675688608936 0 -0.070991130709945116 0.31269951620100073 0 -0.081993965569784943 0.31554646972961198 0 -0.079258333344229048 0.3049675688608936 0 -0.068944892310294464 0.30198831393404307 0 -0.070991130709945116 0.31269951620100073 0 -0.079258333344229048 0.3049675688608936 0 -0.068944892310294464 0.30198831393404307 0 -0.077330258156955267 0.29296200761637942 0 -0.068944892310294464 0.30198831393404307 0 -0.064126773219237113 0.29220094621262033 0 -0.058166178804870898 0.30264498469447187 0 -0.068944892310294464 0.30198831393404307 0 -0.061331244838200648 0.30994044654740849 0 -0.070991130709945116 0.31269951620100073 0 -0.068944892310294464 0.30198831393404307 0 -0.058166178804870898 0.30264498469447187 0 -0.061331244838200648 0.30994044654740849 0 -0.077330258156955267 0.29296200761637942 0 -0.064126773219237113 0.29220094621262033 0 -0.077479269293421762 0.27469322715949412 0 -0.064126773219237113 0.29220094621262033 0 -0.077479269293421762 0.27469322715949412 0 -0.058133221366766449 0.27716325246746798 0 -0.068944892310294464 0.30198831393404307 0 -0.077330258156955267 0.29296200761637942 0 -0.064126773219237113 0.29220094621262033 0 -0.077479269293421762 0.27469322715949412 0 -0.071638134720231256 0.25160056824951232 0 -0.058133221366766449 0.27716325246746798 0 -0.09454064136845966 0.27383764615760481 0 -0.091045985372309818 0.28759052035305921 0 -0.077479269293421762 0.27469322715949412 0 -0.09454064136845966 0.27383764615760481 0 -0.077479269293421762 0.27469322715949412 0 -0.089571380476279175 0.26028189549895331 0 -0.089571380476279175 0.26028189549895331 0 -0.071638134720231256 0.25160056824951232 0 -0.090939200216336349 0.2439314318156699 0 -0.077479269293421762 0.27469322715949412 0 -0.089571380476279175 0.26028189549895331 0 -0.071638134720231256 0.25160056824951232 0 -0.071638134720231256 0.25160056824951232 0 -0.058133221366766449 0.27716325246746798 0 -0.071638134720231256 0.25160056824951232 0 -0.047582303092072953 0.25568351472948869 0 -0.058133221366766449 0.27716325246746798 0 -0.047582303092072953 0.25568351472948869 0 -0.058133221366766449 0.27716325246746798 0 -0.041022872475810927 0.27077877173270548 0 -0.058133221366766449 0.27716325246746798 0 -0.041022872475810927 0.27077877173270548 0 -0.035530699067324513 0.28675889963542872 0 -0.041022872475810927 0.27077877173270548 0 -0.026433090121348039 0.27079186258543358 0 -0.035530699067324513 0.28675889963542872 0 -0.041022872475810927 0.27077877173270548 0 -0.029749535491655169 0.25695285520579519 0 -0.026433090121348039 0.27079186258543358 0 -0.047582303092072953 0.25568351472948869 0 -0.029749535491655169 0.25695285520579519 0 -0.029944724650433258 0.23787687703822741 0 -0.047582303092072953 0.25568351472948869 0 -0.041022872475810927 0.27077877173270548 0 -0.029749535491655169 0.25695285520579519 0 -0.029749535491655169 0.25695285520579519 0 -0.01308026696099435 0.26698934611300468 0 -0.01461207916612659 0.25319041248598168 0 -0.029749535491655169 0.25695285520579519 0 -0.026433090121348039 0.27079186258543358 0 -0.01308026696099435 0.26698934611300468 0 -0.026433090121348039 0.27079186258543358 0 -0.035530699067324513 0.28675889963542872 0 -0.026433090121348039 0.27079186258543358 0 -0.01308026696099435 0.26698934611300468 0 -0.011455845334984621 0.28626846857194138 0 -0.01308026696099435 0.26698934611300468 0 -0.011455845334984621 0.28626846857194138 0 0.00072056631817731583 0.26850394793373877 0 -0.01461207916612659 0.25319041248598168 0 -0.0057978565220940534 0.248168493099893 0 0.00072056631817731583 0.26850394793373877 0 -0.01461207916612659 0.25319041248598168 0 0.00072056631817731583 0.26850394793373877 0 -0.0057978565220940534 0.248168493099893 0 0.00072056631817731583 0.26850394793373877 0 -0.01308026696099435 0.26698934611300468 0 -0.01461207916612659 0.25319041248598168 0 0.00072056631817731583 0.26850394793373877 0 -0.011455845334984621 0.28626846857194138 0 -0.0027699588784619888 0.31251482367200029 0 0.0092371343351891171 0.29507299515471958 0 -0.011455845334984621 0.28626846857194138 0 -0.023014308829363131 0.30522066737114101 0 -0.0027699588784619888 0.31251482367200029 0 -0.011455845334984621 0.28626846857194138 0 0.0092371343351891171 0.29507299515471958 0 0.00072056631817731583 0.26850394793373877 0 -0.011455845334984621 0.28626846857194138 0 -0.023014308829363131 0.30522066737114101 0 -0.035530699067324513 0.28675889963542872 0 -0.026433090121348039 0.27079186258543358 0 -0.011455845334984621 0.28626846857194138 0 -0.035530699067324513 0.28675889963542872 0 -0.023014308829363131 0.30522066737114101 0 -0.044628308013301199 0.30272593668542358 0 -0.035530699067324513 0.28675889963542872 0 -0.023014308829363131 0.30522066737114101 0 -0.044628308013301199 0.30272593668542358 0 -0.033272478751157228 0.32422074156595582 0 -0.058133221366766449 0.27716325246746798 0 -0.044628308013301199 0.30272593668542358 0 -0.035530699067324513 0.28675889963542872 0 -0.044628308013301199 0.30272593668542358 0 -0.035530699067324513 0.28675889963542872 0 -0.064126773219237113 0.29220094621262033 0 -0.058133221366766449 0.27716325246746798 0 -0.044628308013301199 0.30272593668542358 0 -0.058133221366766449 0.27716325246746798 0 -0.044628308013301199 0.30272593668542358 0 -0.064126773219237113 0.29220094621262033 0 -0.044628308013301199 0.30272593668542358 0 -0.058166178804870898 0.30264498469447187 0 -0.044628308013301199 0.30272593668542358 0 -0.051799675643321337 0.30636928009286352 0 -0.050967425725011402 0.31385159925986411 0 -0.044628308013301199 0.30272593668542358 0 -0.050967425725011402 0.31385159925986411 0 -0.051799675643321337 0.30636928009286352 0 -0.050967425725011402 0.31385159925986411 0 -0.044628308013301199 0.30272593668542358 0 -0.051799675643321337 0.30636928009286352 0 -0.058166178804870898 0.30264498469447187 0 -0.051799675643321337 0.30636928009286352 0 -0.061331244838200648 0.30994044654740849 0 -0.050967425725011402 0.31385159925986411 0 -0.051799675643321337 0.30636928009286352 0 -0.058166178804870898 0.30264498469447187 0 -0.061331244838200648 0.30994044654740849 0 -0.050967425725011402 0.31385159925986411 0 -0.062263172167990793 0.33367654480692288 0 -0.063978935794063468 0.31953489921195599 0 -0.061331244838200648 0.30994044654740849 0 -0.050967425725011402 0.31385159925986411 0 -0.063978935794063468 0.31953489921195599 0 -0.050967425725011402 0.31385159925986411 0 -0.062263172167990793 0.33367654480692288 0 -0.050967425725011402 0.31385159925986411 0 -0.04783140475140208 0.34204590642979321 0 -0.050967425725011402 0.31385159925986411 0 -0.062263172167990793 0.33367654480692288 0 -0.04783140475140208 0.34204590642979321 0 -0.04783140475140208 0.34204590642979321 0 -0.035115982951930302 0.34264666695221913 0 -0.033272478751157228 0.32422074156595582 0 -0.044628308013301199 0.30272593668542358 0 -0.050967425725011402 0.31385159925986411 0 -0.033272478751157228 0.32422074156595582 0 -0.050967425725011402 0.31385159925986411 0 -0.04783140475140208 0.34204590642979321 0 -0.033272478751157228 0.32422074156595582 0 -0.044628308013301199 0.30272593668542358 0 -0.033272478751157228 0.32422074156595582 0 -0.023014308829363131 0.30522066737114101 0 -0.033272478751157228 0.32422074156595582 0 -0.016036444024401509 0.32353957974208181 0 -0.033272478751157228 0.32422074156595582 0 -0.016036444024401509 0.32353957974208181 0 -0.021916649489012709 0.34571554644648772 0 -0.035115982951930302 0.34264666695221913 0 -0.033272478751157228 0.32422074156595582 0 -0.021916649489012709 0.34571554644648772 0 -0.033272478751157228 0.32422074156595582 0 -0.021916649489012709 0.34571554644648772 0 -0.016036444024401509 0.32353957974208181 0 -0.002081473568400747 0.33367879441109771 0 -0.021916649489012709 0.34571554644648772 0 -0.002081473568400747 0.33367879441109771 0 -0.021916649489012709 0.34571554644648772 0 -0.002081473568400747 0.33367879441109771 0 -0.005421896929821363 0.3497730111300042 0 -0.021916649489012709 0.34571554644648772 0 -0.002081473568400747 0.33367879441109771 0 -0.005421896929821363 0.3497730111300042 0 0.0073159642976379849 0.34264390380503168 0 -0.016036444024401509 0.32353957974208181 0 -0.002081473568400747 0.33367879441109771 0 -0.0027699588784619888 0.31251482367200029 0 -0.023014308829363131 0.30522066737114101 0 -0.016036444024401509 0.32353957974208181 0 -0.0027699588784619888 0.31251482367200029 0 -0.01968419749053664 0.37940130250332732 0 0.0021909678231061551 0.36036808423700167 0 -0.01968419749053664 0.37940130250332732 0 -0.00076713742650450097 0.38132983848006419 0 0.0021909678231061551 0.36036808423700167 0 -0.012654488049614471 0.36324736630006149 0 -0.01968419749053664 0.37940130250332732 0 0.0021909678231061551 0.36036808423700167 0 -0.012654488049614471 0.36324736630006149 0 -0.005421896929821363 0.3497730111300042 0 0.0021909678231061551 0.36036808423700167 0 -0.012654488049614471 0.36324736630006149 0 -0.005421896929821363 0.3497730111300042 0 -0.021916649489012709 0.34571554644648772 0 -0.021916649489012709 0.34571554644648772 0 -0.038656922326248691 0.35587419157034239 0 -0.012654488049614471 0.36324736630006149 0 -0.021916649489012709 0.34571554644648772 0 -0.02758295566093303 0.36635747175693112 0 -0.021916649489012709 0.34571554644648772 0 -0.02758295566093303 0.36635747175693112 0 -0.038656922326248691 0.35587419157034239 0 -0.012654488049614471 0.36324736630006149 0 -0.021916649489012709 0.34571554644648772 0 -0.012654488049614471 0.36324736630006149 0 -0.02758295566093303 0.36635747175693112 0 -0.01968419749053664 0.37940130250332732 0 -0.02758295566093303 0.36635747175693112 0 -0.033714731473214153 0.37898408184456328 0 -0.01968419749053664 0.37940130250332732 0 -0.02758295566093303 0.36635747175693112 0 -0.044695383777792037 0.37024021359972242 0 -0.033714731473214153 0.37898408184456328 0 -0.02758295566093303 0.36635747175693112 0 -0.044695383777792037 0.37024021359972242 0 -0.038656922326248691 0.35587419157034239 0 -0.04783140475140208 0.34204590642979321 0 -0.044695383777792037 0.37024021359972242 0 -0.038656922326248691 0.35587419157034239 0 -0.035115982951930302 0.34264666695221913 0 -0.021916649489012709 0.34571554644648772 0 -0.038656922326248691 0.35587419157034239 0 -0.04783140475140208 0.34204590642979321 0 -0.044695383777792037 0.37024021359972242 0 -0.04783140475140208 0.34204590642979321 0 -0.035115982951930302 0.34264666695221913 0 -0.038656922326248691 0.35587419157034239 0 -0.062263172167990793 0.33367654480692288 0 -0.04783140475140208 0.34204590642979321 0 -0.056463400757628061 0.35727759522785268 0 -0.04783140475140208 0.34204590642979321 0 -0.044695383777792037 0.37024021359972242 0 -0.056463400757628061 0.35727759522785268 0 -0.044695383777792037 0.37024021359972242 0 -0.067941245742806952 0.36865488901359428 0 -0.057497415587261173 0.38098818342640128 0 -0.044695383777792037 0.37024021359972242 0 -0.056463400757628061 0.35727759522785268 0 -0.067941245742806952 0.36865488901359428 0 -0.067941245742806952 0.36865488901359428 0 -0.084854665053951284 0.37332643590103992 0 -0.073558918610971025 0.35350149035398137 0 -0.056463400757628061 0.35727759522785268 0 -0.067941245742806952 0.36865488901359428 0 -0.073558918610971025 0.35350149035398137 0 -0.084854665053951284 0.37332643590103992 0 -0.091120598311152629 0.35593571645810279 0 -0.073558918610971025 0.35350149035398137 0 -0.084854665053951284 0.37332643590103992 0 -0.091120598311152629 0.35593571645810279 0 -0.1034102678904428 0.38052223869145091 0 -0.084854665053951284 0.37332643590103992 0 -0.073558918610971025 0.35350149035398137 0 -0.091120598311152629 0.35593571645810279 0 -0.073558918610971025 0.35350149035398137 0 -0.080441661821876523 0.33835122169684467 0 -0.062263172167990793 0.33367654480692288 0 -0.056463400757628061 0.35727759522785268 0 -0.073558918610971025 0.35350149035398137 0 -0.062263172167990793 0.33367654480692288 0 -0.073558918610971025 0.35350149035398137 0 -0.080441661821876523 0.33835122169684467 0 -0.062263172167990793 0.33367654480692288 0 -0.073638804051914336 0.32480219238827718 0 -0.080441661821876523 0.33835122169684467 0 -0.062263172167990793 0.33367654480692288 0 -0.073558918610971025 0.35350149035398137 0 -0.063978935794063468 0.31953489921195599 0 -0.073638804051914336 0.32480219238827718 0 -0.070991130709945116 0.31269951620100073 0 -0.061331244838200648 0.30994044654740849 0 -0.063978935794063468 0.31953489921195599 0 -0.070991130709945116 0.31269951620100073 0 -0.062263172167990793 0.33367654480692288 0 -0.063978935794063468 0.31953489921195599 0 -0.073638804051914336 0.32480219238827718 0 -0.073638804051914336 0.32480219238827718 0 -0.070991130709945116 0.31269951620100073 0 -0.081993965569784943 0.31554646972961198 0 -0.073638804051914336 0.32480219238827718 0 -0.081993965569784943 0.31554646972961198 0 -0.085859718497884249 0.3276821297767244 0 -0.085859718497884249 0.3276821297767244 0 -0.09180567375670548 0.31603159719875751 0 -0.096038819776373588 0.32399604954594891 0 -0.081993965569784943 0.31554646972961198 0 -0.085859718497884249 0.3276821297767244 0 -0.09180567375670548 0.31603159719875751 0 -0.089862434595422397 0.30692462601128367 0 -0.081993965569784943 0.31554646972961198 0 -0.09180567375670548 0.31603159719875751 0 -0.085859718497884249 0.3276821297767244 0 -0.080441661821876523 0.33835122169684467 0 -0.096923083210146935 0.33653079394254759 0 -0.091120598311152629 0.35593571645810279 0 -0.080441661821876523 0.33835122169684467 0 -0.096923083210146935 0.33653079394254759 0 -0.073638804051914336 0.32480219238827718 0 -0.085859718497884249 0.3276821297767244 0 -0.080441661821876523 0.33835122169684467 0 -0.085859718497884249 0.3276821297767244 0 -0.096923083210146935 0.33653079394254759 0 -0.096038819776373588 0.32399604954594891 0 -0.096923083210146935 0.33653079394254759 0 -0.10666682320771199 0.32421233386673398 0 -0.1153554895531235 0.33341852707467518 0 -0.096923083210146935 0.33653079394254759 0 -0.1153554895531235 0.33341852707467518 0 -0.1075349932795273 0.35338211816275239 0 -0.096923083210146935 0.33653079394254759 0 -0.096038819776373588 0.32399604954594891 0 -0.10666682320771199 0.32421233386673398 0 -0.09821594042089446 0.30742808618454182 0 -0.09180567375670548 0.31603159719875751 0 -0.1015331773231577 0.31522748639903581 0 -0.09180567375670548 0.31603159719875751 0 -0.1015331773231577 0.31522748639903581 0 -0.096038819776373588 0.32399604954594891 0 -0.1015331773231577 0.31522748639903581 0 -0.096038819776373588 0.32399604954594891 0 -0.10666682320771199 0.32421233386673398 0 -0.1015331773231577 0.31522748639903581 0 -0.10666682320771199 0.32421233386673398 0 -0.1099135300256537 0.31508926990324743 0 -0.1073914028025677 0.30803998656041859 0 -0.1015331773231577 0.31522748639903581 0 -0.1099135300256537 0.31508926990324743 0 -0.10666682320771199 0.32421233386673398 0 -0.1161756412168065 0.31972190532748967 0 -0.1099135300256537 0.31508926990324743 0 -0.11644998687793651 0.30944706845895081 0 -0.1161756412168065 0.31972190532748967 0 -0.1099135300256537 0.31508926990324743 0 -0.10666682320771199 0.32421233386673398 0 -0.1161756412168065 0.31972190532748967 0 -0.1153554895531235 0.33341852707467518 0 -0.12528313429078211 0.32332367707512782 0 -0.1161756412168065 0.31972190532748967 0 -0.1153554895531235 0.33341852707467518 0 -0.11644998687793651 0.30944706845895081 0 -0.1161756412168065 0.31972190532748967 0 -0.1228749423493791 0.31455105057782518 0 -0.12528313429078211 0.32332367707512782 0 -0.1161756412168065 0.31972190532748967 0 -0.1228749423493791 0.31455105057782518 0 -0.12973982913763571 0.3326518941281702 0 -0.12528313429078211 0.32332367707512782 0 -0.1153554895531235 0.33341852707467518 0 -0.12973982913763571 0.3326518941281702 0 -0.1153554895531235 0.33341852707467518 0 -0.1217248257463549 0.34768517176175162 0 -0.1153554895531235 0.33341852707467518 0 -0.1217248257463549 0.34768517176175162 0 -0.1075349932795273 0.35338211816275239 0 -0.1217248257463549 0.34768517176175162 0 -0.1158066980745274 0.36831713361082929 0 -0.1075349932795273 0.35338211816275239 0 -0.13457205993024629 0.36158271735969538 0 -0.1217248257463549 0.34768517176175162 0 -0.1158066980745274 0.36831713361082929 0 -0.13457205993024629 0.36158271735969538 0 -0.1158066980745274 0.36831713361082929 0 -0.12297553859164539 0.38416780542555168 0 -0.1158066980745274 0.36831713361082929 0 -0.1075349932795273 0.35338211816275239 0 -0.1034102678904428 0.38052223869145091 0 -0.091120598311152629 0.35593571645810279 0 -0.1075349932795273 0.35338211816275239 0 -0.1034102678904428 0.38052223869145091 0 -0.091120598311152629 0.35593571645810279 0 -0.096923083210146935 0.33653079394254759 0 -0.1075349932795273 0.35338211816275239 0 -0.098708887962082922 0.39986098221819838 0 -0.1034102678904428 0.38052223869145091 0 -0.11137901725304231 0.40675289349140681 0 -0.098708887962082922 0.39986098221819838 0 -0.11137901725304231 0.40675289349140681 0 -0.1007544095422125 0.4086611966171026 0 -0.098708887962082922 0.39986098221819838 0 -0.11137901725304231 0.40675289349140681 0 -0.098708887962082922 0.39986098221819838 0 -0.1007544095422125 0.4086611966171026 0 -0.08867137629894202 0.40741000098880242 0 -0.098708887962082922 0.39986098221819838 0 -0.1034102678904428 0.38052223869145091 0 -0.08974591862970413 0.39106375000141869 0 -0.1034102678904428 0.38052223869145091 0 -0.12297553859164539 0.38416780542555168 0 -0.11137901725304231 0.40675289349140681 0 -0.1158066980745274 0.36831713361082929 0 -0.1034102678904428 0.38052223869145091 0 -0.12297553859164539 0.38416780542555168 0 -0.12297553859164539 0.38416780542555168 0 -0.11137901725304231 0.40675289349140681 0 -0.1341877693597987 0.39968310393545842 0 -0.12297553859164539 0.38416780542555168 0 -0.11137901725304231 0.40675289349140681 0 -0.1341932617948107 0.4191626918080934 0 -0.11850695917484071 0.42042171970169168 0 -0.11137901725304231 0.40675289349140681 0 -0.1341932617948107 0.4191626918080934 0 -0.11137901725304231 0.40675289349140681 0 -0.11850695917484071 0.42042171970169168 0 -0.11137901725304231 0.40675289349140681 0 -0.1042583566547826 0.42062090977000283 0 -0.1230748447028855 0.43656902168847961 0 -0.1042583566547826 0.42062090977000283 0 -0.1230748447028855 0.43656902168847961 0 -0.1042583566547826 0.42062090977000283 0 -0.1085758585246641 0.43822428887535497 0 -0.11850695917484071 0.42042171970169168 0 -0.1230748447028855 0.43656902168847961 0 -0.1042583566547826 0.42062090977000283 0 -0.1042583566547826 0.42062090977000283 0 -0.094261534986829126 0.44009046371269028 0 -0.1042583566547826 0.42062090977000283 0 -0.094261534986829126 0.44009046371269028 0 -0.1085758585246641 0.43822428887535497 0 -0.1042583566547826 0.42062090977000283 0 -0.092713465321352467 0.43115161465391039 0 -0.094261534986829126 0.44009046371269028 0 -0.1042583566547826 0.42062090977000283 0 -0.094128101521241625 0.42127754203860079 0 -0.092713465321352467 0.43115161465391039 0 -0.11137901725304231 0.40675289349140681 0 -0.1042583566547826 0.42062090977000283 0 -0.11137901725304231 0.40675289349140681 0 -0.1042583566547826 0.42062090977000283 0 -0.1007544095422125 0.4086611966171026 0 -0.1042583566547826 0.42062090977000283 0 -0.094128101521241625 0.42127754203860079 0 -0.08867137629894202 0.40741000098880242 0 -0.1042583566547826 0.42062090977000283 0 -0.1007544095422125 0.4086611966171026 0 -0.08867137629894202 0.40741000098880242 0 -0.1042583566547826 0.42062090977000283 0 -0.08867137629894202 0.40741000098880242 0 -0.08867137629894202 0.40741000098880242 0 -0.078490716215907627 0.41597202441697861 0 -0.07036642574932106 0.40707264454252962 0 -0.094128101521241625 0.42127754203860079 0 -0.08867137629894202 0.40741000098880242 0 -0.086924344357155764 0.4218729059672105 0 -0.086924344357155764 0.4218729059672105 0 -0.078490716215907627 0.41597202441697861 0 -0.080479551696223575 0.42337999652364378 0 -0.08867137629894202 0.40741000098880242 0 -0.086924344357155764 0.4218729059672105 0 -0.078490716215907627 0.41597202441697861 0 -0.092713465321352467 0.43115161465391039 0 -0.088217766522075983 0.43903122343169892 0 -0.094261534986829126 0.44009046371269028 0 -0.092713465321352467 0.43115161465391039 0 -0.084200018635916973 0.42818694595749618 0 -0.088217766522075983 0.43903122343169892 0 -0.094128101521241625 0.42127754203860079 0 -0.086924344357155764 0.4218729059672105 0 -0.092713465321352467 0.43115161465391039 0 -0.086924344357155764 0.4218729059672105 0 -0.092713465321352467 0.43115161465391039 0 -0.084200018635916973 0.42818694595749618 0 -0.080479551696223575 0.42337999652364378 0 -0.084200018635916973 0.42818694595749618 0 -0.072664965282777147 0.42549898921101692 0 -0.086924344357155764 0.4218729059672105 0 -0.080479551696223575 0.42337999652364378 0 -0.084200018635916973 0.42818694595749618 0 -0.084200018635916973 0.42818694595749618 0 -0.072664965282777147 0.42549898921101692 0 -0.088217766522075983 0.43903122343169892 0 -0.072664965282777147 0.42549898921101692 0 -0.088217766522075983 0.43903122343169892 0 -0.072664965282777147 0.42549898921101692 0 -0.073240151666132403 0.43967538161642927 0 -0.088217766522075983 0.43903122343169892 0 -0.072664965282777147 0.42549898921101692 0 -0.062832036705807781 0.43035294065016289 0 -0.058039131291216427 0.42293720162830511 0 -0.072664965282777147 0.42549898921101692 0 -0.062832036705807781 0.43035294065016289 0 -0.073240151666132403 0.43967538161642927 0 -0.062832036705807781 0.43035294065016289 0 -0.061820580637249267 0.44031984514488598 0 -0.073240151666132403 0.43967538161642927 0 -0.078490716215907627 0.41597202441697861 0 -0.07036642574932106 0.40707264454252962 0 -0.06965856782287104 0.41512760329021492 0 -0.078490716215907627 0.41597202441697861 0 -0.072664965282777147 0.42549898921101692 0 -0.06965856782287104 0.41512760329021492 0 -0.078490716215907627 0.41597202441697861 0 -0.080479551696223575 0.42337999652364378 0 -0.072664965282777147 0.42549898921101692 0 -0.072664965282777147 0.42549898921101692 0 -0.057112164043478297 0.41196675499033492 0 -0.058039131291216427 0.42293720162830511 0 -0.072664965282777147 0.42549898921101692 0 -0.06965856782287104 0.41512760329021492 0 -0.057112164043478297 0.41196675499033492 0 -0.072664965282777147 0.42549898921101692 0 -0.057112164043478297 0.41196675499033492 0 -0.07036642574932106 0.40707264454252962 0 -0.06965856782287104 0.41512760329021492 0 -0.057112164043478297 0.41196675499033492 0 -0.073084395943101593 0.39419909220760191 0 -0.057497415587261173 0.38098818342640128 0 -0.058328294990476932 0.39748362309739438 0 -0.08867137629894202 0.40741000098880242 0 -0.07036642574932106 0.40707264454252962 0 -0.073084395943101593 0.39419909220760191 0 -0.07036642574932106 0.40707264454252962 0 -0.073084395943101593 0.39419909220760191 0 -0.058328294990476932 0.39748362309739438 0 -0.08867137629894202 0.40741000098880242 0 -0.073084395943101593 0.39419909220760191 0 -0.08974591862970413 0.39106375000141869 0 -0.08867137629894202 0.40741000098880242 0 -0.073084395943101593 0.39419909220760191 0 -0.098708887962082922 0.39986098221819838 0 -0.08867137629894202 0.40741000098880242 0 -0.08974591862970413 0.39106375000141869 0 -0.084854665053951284 0.37332643590103992 0 -0.073084395943101593 0.39419909220760191 0 -0.08974591862970413 0.39106375000141869 0 -0.084854665053951284 0.37332643590103992 0 -0.1034102678904428 0.38052223869145091 0 -0.08974591862970413 0.39106375000141869 0 -0.067941245742806952 0.36865488901359428 0 -0.073084395943101593 0.39419909220760191 0 -0.057497415587261173 0.38098818342640128 0 -0.067941245742806952 0.36865488901359428 0 -0.084854665053951284 0.37332643590103992 0 -0.073084395943101593 0.39419909220760191 0 -0.073084395943101593 0.39419909220760191 0 -0.057497415587261173 0.38098818342640128 0 -0.044695383777792037 0.37024021359972242 0 -0.057497415587261173 0.38098818342640128 0 -0.041559362804180822 0.39843452076965119 0 -0.057497415587261173 0.38098818342640128 0 -0.058328294990476932 0.39748362309739438 0 -0.041559362804180822 0.39843452076965119 0 -0.058328294990476932 0.39748362309739438 0 -0.041559362804180822 0.39843452076965119 0 -0.057112164043478297 0.41196675499033492 0 -0.07036642574932106 0.40707264454252962 0 -0.058328294990476932 0.39748362309739438 0 -0.057112164043478297 0.41196675499033492 0 -0.046422174887027913 0.40600928712675988 0 -0.041559362804180822 0.39843452076965119 0 -0.057112164043478297 0.41196675499033492 0 -0.041559362804180822 0.39843452076965119 0 -0.057112164043478297 0.41196675499033492 0 -0.040885167125728331 0.40449585779862041 0 -0.041559362804180822 0.39843452076965119 0 -0.0120711747758128 0.3966201344904503 0 -0.040885167125728331 0.40449585779862041 0 -0.046422174887027913 0.40600928712675988 0 -0.041559362804180822 0.39843452076965119 0 -0.040885167125728331 0.40449585779862041 0 -0.046422174887027913 0.40600928712675988 0 -0.040885167125728331 0.40449585779862041 0 -0.041559362804180822 0.39843452076965119 0 -0.044695383777792037 0.37024021359972242 0 -0.041559362804180822 0.39843452076965119 0 -0.033714731473214153 0.37898408184456328 0 -0.044695383777792037 0.37024021359972242 0 -0.041559362804180822 0.39843452076965119 0 -0.041559362804180822 0.39843452076965119 0 -0.033714731473214153 0.37898408184456328 0 -0.01968419749053664 0.37940130250332732 0 -0.041559362804180822 0.39843452076965119 0 -0.01968419749053664 0.37940130250332732 0 -0.040885167125728331 0.40449585779862041 0 -0.0120711747758128 0.3966201344904503 0 -0.022343350239806159 0.41424690373501127 0 -0.040885167125728331 0.40449585779862041 0 -0.0120711747758128 0.3966201344904503 0 -0.041559362804180822 0.39843452076965119 0 -0.01968419749053664 0.37940130250332732 0 -0.0120711747758128 0.3966201344904503 0 -0.01968419749053664 0.37940130250332732 0 -0.0120711747758128 0.3966201344904503 0 -0.00076713742650450097 0.38132983848006419 0 -0.014058909616371049 0.42750473308921311 0 -0.01528620791686573 0.44517300472753812 0 0.0042338275760578263 0.43188572305673312 0 -0.014058909616371049 0.42750473308921311 0 -0.0076115207183707241 0.41452343541042241 0 0.0042338275760578263 0.43188572305673312 0 -0.0120711747758128 0.3966201344904503 0 -0.0076115207183707241 0.41452343541042241 0 -0.022343350239806159 0.41424690373501127 0 -0.0120711747758128 0.3966201344904503 0 -0.0076115207183707241 0.41452343541042241 0 0.0070223592399350446 0.40923483965026269 0 -0.014058909616371049 0.42750473308921311 0 -0.0076115207183707241 0.41452343541042241 0 -0.022343350239806159 0.41424690373501127 0 -0.014058909616371049 0.42750473308921311 0 -0.022343350239806159 0.41424690373501127 0 -0.038158352049221689 0.42901121101518902 0 -0.014058909616371049 0.42750473308921311 0 -0.038158352049221689 0.42901121101518902 0 -0.01528620791686573 0.44517300472753812 0 -0.038158352049221689 0.42901121101518902 0 -0.046795543476761403 0.41849329513273509 0 -0.050790946947257547 0.42837402815727571 0 -0.038158352049221689 0.42901121101518902 0 -0.050790946947257547 0.42837402815727571 0 -0.049131786839261282 0.44193975244096029 0 -0.040885167125728331 0.40449585779862041 0 -0.038158352049221689 0.42901121101518902 0 -0.040885167125728331 0.40449585779862041 0 -0.022343350239806159 0.41424690373501127 0 -0.038158352049221689 0.42901121101518902 0 -0.040885167125728331 0.40449585779862041 0 -0.038158352049221689 0.42901121101518902 0 -0.046795543476761403 0.41849329513273509 0 -0.040885167125728331 0.40449585779862041 0 -0.046422174887027913 0.40600928712675988 0 -0.046795543476761403 0.41849329513273509 0 -0.046422174887027913 0.40600928712675988 0 -0.046795543476761403 0.41849329513273509 0 -0.057112164043478297 0.41196675499033492 0 -0.046795543476761403 0.41849329513273509 0 -0.057112164043478297 0.41196675499033492 0 -0.058039131291216427 0.42293720162830511 0 -0.062832036705807781 0.43035294065016289 0 -0.050790946947257547 0.42837402815727571 0 -0.049131786839261282 0.44193975244096029 0 -0.046795543476761403 0.41849329513273509 0 -0.050790946947257547 0.42837402815727571 0 -0.058039131291216427 0.42293720162830511 0 -0.062832036705807781 0.43035294065016289 0 -0.050790946947257547 0.42837402815727571 0 -0.058039131291216427 0.42293720162830511 0 -0.062832036705807781 0.43035294065016289 0 -0.049131786839261282 0.44193975244096029 0 -0.061820580637249267 0.44031984514488598 0 -0.062078347337795617 0.44931130587199142 0 -0.049131786839261282 0.44193975244096029 0 -0.062832036705807781 0.43035294065016289 0 -0.061820580637249267 0.44031984514488598 0 -0.049131786839261282 0.44193975244096029 0 -0.062078347337795617 0.44931130587199142 0 -0.049131786839261282 0.44193975244096029 0 -0.055281206381127893 0.46219550301966678 0 -0.049131786839261282 0.44193975244096029 0 -0.055281206381127893 0.46219550301966678 0 -0.043543467231177649 0.46088451715425349 0 -0.055281206381127893 0.46219550301966678 0 -0.043543467231177649 0.46088451715425349 0 -0.049220969708809098 0.47899825345291008 0 -0.043543467231177649 0.46088451715425349 0 -0.034012973009263633 0.46628012310853539 0 -0.049220969708809098 0.47899825345291008 0 -0.043543467231177649 0.46088451715425349 0 -0.035431536972715012 0.45352656423175769 0 -0.034012973009263633 0.46628012310853539 0 -0.035431536972715012 0.45352656423175769 0 -0.034012973009263633 0.46628012310853539 0 -0.038158352049221689 0.42901121101518902 0 -0.035431536972715012 0.45352656423175769 0 -0.049131786839261282 0.44193975244096029 0 -0.043543467231177649 0.46088451715425349 0 -0.035431536972715012 0.45352656423175769 0 -0.038158352049221689 0.42901121101518902 0 -0.049131786839261282 0.44193975244096029 0 -0.035431536972715012 0.45352656423175769 0 -0.049131786839261282 0.44193975244096029 0 -0.035431536972715012 0.45352656423175769 0 -0.038158352049221689 0.42901121101518902 0 -0.035431536972715012 0.45352656423175769 0 -0.01528620791686573 0.44517300472753812 0 -0.035431536972715012 0.45352656423175769 0 -0.01711480200202704 0.46901770948783839 0 -0.035431536972715012 0.45352656423175769 0 -0.034012973009263633 0.46628012310853539 0 -0.01711480200202704 0.46901770948783839 0 -0.035431536972715012 0.45352656423175769 0 -0.01528620791686573 0.44517300472753812 0 -0.01711480200202704 0.46901770948783839 0 -0.01528620791686573 0.44517300472753812 0 -0.01711480200202704 0.46901770948783839 0 0.0068768519892745527 0.45881688623742412 0 -0.01528620791686573 0.44517300472753812 0 0.0068768519892745527 0.45881688623742412 0 0.0042338275760578263 0.43188572305673312 0 -0.01358442587106027 0.48453115588040208 0 -0.010115102855063229 0.5 0 0.0012019329686607969 0.48450885474391941 0 -0.01358442587106027 0.48453115588040208 0 -0.01711480200202704 0.46901770948783839 0 0.0012019329686607969 0.48450885474391941 0 -0.01711480200202704 0.46901770948783839 0 0.0012019329686607969 0.48450885474391941 0 -0.01711480200202704 0.46901770948783839 0 0.0012019329686607969 0.48450885474391941 0 0.0068768519892745527 0.45881688623742412 0 -0.034012973009263633 0.46628012310853539 0 -0.01711480200202704 0.46901770948783839 0 -0.02830973159581163 0.4845980592898505 0 -0.01358442587106027 0.48453115588040208 0 -0.01711480200202704 0.46901770948783839 0 -0.02830973159581163 0.4845980592898505 0 -0.010115102855063229 0.5 0 -0.02830973159581163 0.4845980592898505 0 -0.039748873649475318 0.5 0 -0.01358442587106027 0.48453115588040208 0 -0.010115102855063229 0.5 0 -0.02830973159581163 0.4845980592898505 0 -0.02830973159581163 0.4845980592898505 0 -0.039748873649475318 0.5 0 -0.049220969708809098 0.47899825345291008 0 -0.034012973009263633 0.46628012310853539 0 -0.02830973159581163 0.4845980592898505 0 -0.049220969708809098 0.47899825345291008 0 -0.055281206381127893 0.46219550301966678 0 -0.049220969708809098 0.47899825345291008 0 -0.074267891650920251 0.47902957159806431 0 -0.039748873649475318 0.5 0 -0.049220969708809098 0.47899825345291008 0 -0.06938264444388742 0.5 0 -0.049220969708809098 0.47899825345291008 0 -0.06938264444388742 0.5 0 -0.074267891650920251 0.47902957159806431 0 -0.06938264444388742 0.5 0 -0.074267891650920251 0.47902957159806431 0 -0.099016415238299516 0.5 0 -0.092933639981111135 0.47519266288314338 0 -0.074267891650920251 0.47902957159806431 0 -0.099016415238299516 0.5 0 -0.092933639981111135 0.47519266288314338 0 -0.074267891650920251 0.47902957159806431 0 -0.084264713318874682 0.4595600176553773 0 -0.074267891650920251 0.47902957159806431 0 -0.084264713318874682 0.4595600176553773 0 -0.055281206381127893 0.46219550301966678 0 -0.074267891650920251 0.47902957159806431 0 -0.070916258987160419 0.46047652506786541 0 -0.074267891650920251 0.47902957159806431 0 -0.070916258987160419 0.46047652506786541 0 -0.084264713318874682 0.4595600176553773 0 -0.062078347337795617 0.44931130587199142 0 -0.055281206381127893 0.46219550301966678 0 -0.070916258987160419 0.46047652506786541 0 -0.062078347337795617 0.44931130587199142 0 -0.073240151666132403 0.43967538161642927 0 -0.081557676763969661 0.44839374709999902 0 -0.062078347337795617 0.44931130587199142 0 -0.070916258987160419 0.46047652506786541 0 -0.081557676763969661 0.44839374709999902 0 -0.061820580637249267 0.44031984514488598 0 -0.062078347337795617 0.44931130587199142 0 -0.073240151666132403 0.43967538161642927 0 -0.084264713318874682 0.4595600176553773 0 -0.094261534986829126 0.44009046371269028 0 -0.084264713318874682 0.4595600176553773 0 -0.094261534986829126 0.44009046371269028 0 -0.096404228806256043 0.4515843102814972 0 -0.081557676763969661 0.44839374709999902 0 -0.084264713318874682 0.4595600176553773 0 -0.094261534986829126 0.44009046371269028 0 -0.073240151666132403 0.43967538161642927 0 -0.081557676763969661 0.44839374709999902 0 -0.088217766522075983 0.43903122343169892 0 -0.081557676763969661 0.44839374709999902 0 -0.088217766522075983 0.43903122343169892 0 -0.094261534986829126 0.44009046371269028 0 -0.092933639981111135 0.47519266288314338 0 -0.084264713318874682 0.4595600176553773 0 -0.1034318111045783 0.45939461854532948 0 -0.070916258987160419 0.46047652506786541 0 -0.081557676763969661 0.44839374709999902 0 -0.084264713318874682 0.4595600176553773 0 -0.084264713318874682 0.4595600176553773 0 -0.1034318111045783 0.45939461854532948 0 -0.096404228806256043 0.4515843102814972 0 -0.1034318111045783 0.45939461854532948 0 -0.096404228806256043 0.4515843102814972 0 -0.103658855814742 0.44729214121259181 0 -0.094261534986829126 0.44009046371269028 0 -0.096404228806256043 0.4515843102814972 0 -0.103658855814742 0.44729214121259181 0 -0.1034318111045783 0.45939461854532948 0 -0.103658855814742 0.44729214121259181 0 -0.1153881091605355 0.44884856462111228 0 -0.103658855814742 0.44729214121259181 0 -0.1085758585246641 0.43822428887535497 0 -0.1153881091605355 0.44884856462111228 0 -0.094261534986829126 0.44009046371269028 0 -0.103658855814742 0.44729214121259181 0 -0.1085758585246641 0.43822428887535497 0 -0.13151621260537741 0.45130749443337231 0 -0.1230748447028855 0.43656902168847961 0 -0.1153881091605355 0.44884856462111228 0 -0.1230748447028855 0.43656902168847961 0 -0.1085758585246641 0.43822428887535497 0 -0.1153881091605355 0.44884856462111228 0 -0.1034318111045783 0.45939461854532948 0 -0.12207107221096559 0.46030382297154571 0 -0.1091276203536839 0.47539764447995958 0 -0.1034318111045783 0.45939461854532948 0 -0.1153881091605355 0.44884856462111228 0 -0.12207107221096559 0.46030382297154571 0 -0.13151621260537741 0.45130749443337231 0 -0.1153881091605355 0.44884856462111228 0 -0.12207107221096559 0.46030382297154571 0 -0.12207107221096559 0.46030382297154571 0 -0.12221861502250531 0.47409019779979861 0 -0.1091276203536839 0.47539764447995958 0 -0.12221861502250531 0.47409019779979861 0 -0.1192378480720349 0.48607531274691851 0 -0.1091276203536839 0.47539764447995958 0 -0.12855834520577511 0.47911743097432391 0 -0.12221861502250531 0.47409019779979861 0 -0.1192378480720349 0.48607531274691851 0 -0.1286501860327115 0.5 0 -0.1192378480720349 0.48607531274691851 0 -0.099016415238299516 0.5 0 -0.1192378480720349 0.48607531274691851 0 -0.099016415238299516 0.5 0 -0.1091276203536839 0.47539764447995958 0 -0.092933639981111135 0.47519266288314338 0 -0.1034318111045783 0.45939461854532948 0 -0.1091276203536839 0.47539764447995958 0 -0.092933639981111135 0.47519266288314338 0 -0.099016415238299516 0.5 0 -0.1091276203536839 0.47539764447995958 0 -0.17086290049092731 0.07631598037216536 0 -0.16176861906580581 0.094478850267764009 0 -0.1467249807245074 0.082293255353060771 0 -0.17086290049092731 0.07631598037216536 0 -0.17976944526372049 0.10047038374283 0 -0.16176861906580581 0.094478850267764009 0 -0.17086290049092731 0.07631598037216536 0 -0.1749289852649169 0.065055000877699262 0 -0.1619563557181341 0.052161577001500772 0 -0.16718476999039841 0.070923387767738405 0 -0.17086290049092731 0.07631598037216536 0 -0.1619563557181341 0.052161577001500772 0 -0.16718476999039841 0.070923387767738405 0 -0.17086290049092731 0.07631598037216536 0 -0.1467249807245074 0.082293255353060771 0 -0.16718476999039841 0.070923387767738405 0 -0.1467249807245074 0.082293255353060771 0 -0.17086290049092731 0.07631598037216536 0 -0.1619563557181341 0.052161577001500772 0 -0.17086290049092731 0.07631598037216536 0 -0.1749289852649169 0.065055000877699262 0 -0.18483775190683019 0.072622461990295206 0 -0.1749289852649169 0.065055000877699262 0 -0.18483775190683019 0.072622461990295206 0 -0.1820589329437762 0.059119984146835738 0 -0.17086290049092731 0.07631598037216536 0 -0.18483775190683019 0.072622461990295206 0 -0.18632821269617131 0.085360377972123744 0 -0.17086290049092731 0.07631598037216536 0 -0.17976944526372049 0.10047038374283 0 -0.17086290049092731 0.07631598037216536 0 -0.18632821269617131 0.085360377972123744 0 -0.17976944526372049 0.10047038374283 0 -0.18632821269617131 0.085360377972123744 0 -0.17976944526372049 0.10047038374283 0 -0.19457679026531599 0.096398856154369217 0 -0.17976944526372049 0.10047038374283 0 -0.17152063033143741 0.1161496992875002 0 -0.18867599003651381 0.1246247871134946 0 -0.17976944526372049 0.10047038374283 0 -0.18867599003651381 0.1246247871134946 0 -0.17152063033143741 0.1161496992875002 0 -0.15090647453143949 0.1140177417078663 0 -0.1682215141628047 0.13483586624200131 0 -0.17976944526372049 0.10047038374283 0 -0.17152063033143741 0.1161496992875002 0 -0.16176861906580581 0.094478850267764009 0 -0.17152063033143741 0.1161496992875002 0 -0.16176861906580581 0.094478850267764009 0 -0.15090647453143949 0.1140177417078663 0 -0.16176861906580581 0.094478850267764009 0 -0.14223207208919511 0.098301750405526425 0 -0.15090647453143949 0.1140177417078663 0 -0.1259337058060187 0.11373502102312109 0 -0.1361595137953851 0.12618350962877031 0 -0.11924324404439229 0.13485302494681981 0 -0.15090647453143949 0.1140177417078663 0 -0.1259337058060187 0.11373502102312109 0 -0.1361595137953851 0.12618350962877031 0 -0.14223207208919511 0.098301750405526425 0 -0.15090647453143949 0.1140177417078663 0 -0.1259337058060187 0.11373502102312109 0 -0.14223207208919511 0.098301750405526425 0 -0.1259337058060187 0.11373502102312109 0 -0.12626519145861639 0.093663122938383137 0 -0.12626519145861639 0.093663122938383137 0 -0.1467249807245074 0.082293255353060771 0 -0.12626519145861639 0.093663122938383137 0 -0.1467249807245074 0.082293255353060771 0 -0.1248795464847885 0.076642808073523291 0 -0.14223207208919511 0.098301750405526425 0 -0.12626519145861639 0.093663122938383137 0 -0.1467249807245074 0.082293255353060771 0 -0.16176861906580581 0.094478850267764009 0 -0.14223207208919511 0.098301750405526425 0 -0.1467249807245074 0.082293255353060771 0 -0.16718476999039841 0.070923387767738405 0 -0.1467249807245074 0.082293255353060771 0 -0.1505883120146175 0.06380215626982888 0 -0.1467249807245074 0.082293255353060771 0 -0.1505883120146175 0.06380215626982888 0 -0.13467000948670629 0.062987634126830144 0 -0.1467249807245074 0.082293255353060771 0 -0.13467000948670629 0.062987634126830144 0 -0.1248795464847885 0.076642808073523291 0 -0.13467000948670629 0.062987634126830144 0 -0.1248795464847885 0.076642808073523291 0 -0.1217211956351644 0.062982749220049289 0 -0.13467000948670629 0.062987634126830144 0 -0.12715373759283541 0.049252229664520877 0 -0.1217211956351644 0.062982749220049289 0 -0.13467000948670629 0.062987634126830144 0 -0.12715373759283541 0.049252229664520877 0 -0.14174229328236199 0.042973065401043571 0 -0.13015806471855809 0.035505849361701092 0 -0.14174229328236199 0.042973065401043571 0 -0.13880670707321641 0.023171460683251651 0 -0.12715373759283541 0.049252229664520877 0 -0.13015806471855809 0.035505849361701092 0 -0.1202041553021015 0.040496319341702287 0 -0.12715373759283541 0.049252229664520877 0 -0.13015806471855809 0.035505849361701092 0 -0.14174229328236199 0.042973065401043571 0 -0.14174229328236199 0.042973065401043571 0 -0.1619980611669658 0.026668022949746632 0 -0.1619563557181341 0.052161577001500772 0 -0.1505883120146175 0.06380215626982888 0 -0.13467000948670629 0.062987634126830144 0 -0.14174229328236199 0.042973065401043571 0 -0.1505883120146175 0.06380215626982888 0 -0.14174229328236199 0.042973065401043571 0 -0.1619563557181341 0.052161577001500772 0 -0.13880670707321641 0.023171460683251651 0 -0.1421878168547 0.0070158401725336529 0 -0.1247012173081732 0.01309277264215865 0 -0.13058747053558109 -0.00038793411768107971 0 -0.1421878168547 0.0070158401725336529 0 -0.1247012173081732 0.01309277264215865 0 -0.1445788586201906 -0.0061992583406401142 0 -0.13058747053558109 -0.00038793411768107971 0 -0.1421878168547 0.0070158401725336529 0 -0.13880670707321641 0.023171460683251651 0 -0.1247012173081732 0.01309277264215865 0 -0.1213790430939523 0.02673367147438387 0 -0.13015806471855809 0.035505849361701092 0 -0.13880670707321641 0.023171460683251651 0 -0.1213790430939523 0.02673367147438387 0 -0.13880670707321641 0.023171460683251651 0 -0.15400417577024389 0.011852776455239619 0 -0.1619980611669658 0.026668022949746632 0 -0.14174229328236199 0.042973065401043571 0 -0.13880670707321641 0.023171460683251651 0 -0.1619980611669658 0.026668022949746632 0 -0.13880670707321641 0.023171460683251651 0 -0.15400417577024389 0.011852776455239619 0 -0.1421878168547 0.0070158401725336529 0 -0.15400417577024389 0.011852776455239619 0 -0.1543432639347562 0.00011314664630232489 0 -0.1421878168547 0.0070158401725336529 0 -0.1445788586201906 -0.0061992583406401142 0 -0.1543432639347562 0.00011314664630232489 0 -0.1421878168547 0.0070158401725336529 0 -0.15400417577024389 0.011852776455239619 0 -0.1671822861204908 0.0027737184899516401 0 -0.1619980611669658 0.026668022949746632 0 -0.1671822861204908 0.0027737184899516401 0 -0.1619980611669658 0.026668022949746632 0 -0.18047125014562829 0.0067741249090084738 0 -0.15400417577024389 0.011852776455239619 0 -0.1543432639347562 0.00011314664630232489 0 -0.1671822861204908 0.0027737184899516401 0 -0.1619980611669658 0.026668022949746632 0 -0.17888169610023871 0.040688919602428833 0 -0.1888600634094382 0.022322928349693221 0 -0.1619980611669658 0.026668022949746632 0 -0.18047125014562829 0.0067741249090084738 0 -0.1888600634094382 0.022322928349693221 0 -0.1619980611669658 0.026668022949746632 0 -0.1888600634094382 0.022322928349693221 0 -0.17208565998729891 -0.0091669591445696051 0 -0.1671822861204908 0.0027737184899516401 0 -0.18047125014562829 0.0067741249090084738 0 -0.16718476999039841 0.070923387767738405 0 -0.1505883120146175 0.06380215626982888 0 -0.1619563557181341 0.052161577001500772 0 -0.1619980611669658 0.026668022949746632 0 -0.1619563557181341 0.052161577001500772 0 -0.17888169610023871 0.040688919602428833 0 -0.17888169610023871 0.040688919602428833 0 -0.19287945315542401 0.039867473912469982 0 -0.1888600634094382 0.022322928349693221 0 -0.1749289852649169 0.065055000877699262 0 -0.1619563557181341 0.052161577001500772 0 -0.1820589329437762 0.059119984146835738 0 -0.1619563557181341 0.052161577001500772 0 -0.17888169610023871 0.040688919602428833 0 -0.1820589329437762 0.059119984146835738 0 -0.17888169610023871 0.040688919602428833 0 -0.1820589329437762 0.059119984146835738 0 -0.1940471741258909 0.054047881512848922 0 -0.1940471741258909 0.054047881512848922 0 -0.21012120577744581 0.061522041867216958 0 -0.1963094874958724 0.066688559955737456 0 -0.1820589329437762 0.059119984146835738 0 -0.1940471741258909 0.054047881512848922 0 -0.1963094874958724 0.066688559955737456 0 -0.1940471741258909 0.054047881512848922 0 -0.20440927908445641 0.046640178149032291 0 -0.21012120577744581 0.061522041867216958 0 -0.19287945315542401 0.039867473912469982 0 -0.2044151223862907 0.033281613423759078 0 -0.1888600634094382 0.022322928349693221 0 -0.17888169610023871 0.040688919602428833 0 -0.1940471741258909 0.054047881512848922 0 -0.19287945315542401 0.039867473912469982 0 -0.1940471741258909 0.054047881512848922 0 -0.19287945315542401 0.039867473912469982 0 -0.20440927908445641 0.046640178149032291 0 -0.19287945315542401 0.039867473912469982 0 -0.20440927908445641 0.046640178149032291 0 -0.2044151223862907 0.033281613423759078 0 -0.20440927908445641 0.046640178149032291 0 -0.2044151223862907 0.033281613423759078 0 -0.21828460900918739 0.043488378568651773 0 -0.2044151223862907 0.033281613423759078 0 -0.215680178170855 0.031382843457507081 0 -0.21828460900918739 0.043488378568651773 0 -0.20440927908445641 0.046640178149032291 0 -0.21828460900918739 0.043488378568651773 0 -0.21012120577744581 0.061522041867216958 0 -0.19402091285923451 -5.1295700694124131e-05 0 -0.18047125014562829 0.0067741249090084738 0 -0.19745174822998099 0.0096351370415420842 0 -0.18047125014562829 0.0067741249090084738 0 -0.19745174822998099 0.0096351370415420842 0 -0.1888600634094382 0.022322928349693221 0 -0.19402091285923451 -5.1295700694124131e-05 0 -0.19745174822998099 0.0096351370415420842 0 -0.20406773536918671 0.003097220457531749 0 -0.19745174822998099 0.0096351370415420842 0 -0.2075999214426229 0.0093167460414762711 0 -0.20406773536918671 0.003097220457531749 0 -0.2044151223862907 0.033281613423759078 0 -0.1888600634094382 0.022322928349693221 0 -0.2157220656519106 0.01797783374964048 0 -0.1888600634094382 0.022322928349693221 0 -0.2157220656519106 0.01797783374964048 0 -0.19745174822998099 0.0096351370415420842 0 -0.1888600634094382 0.022322928349693221 0 -0.20880072132552879 0.015703259845290321 0 -0.1888600634094382 0.022322928349693221 0 -0.2157220656519106 0.01797783374964048 0 -0.20880072132552879 0.015703259845290321 0 -0.2044151223862907 0.033281613423759078 0 -0.215680178170855 0.031382843457507081 0 -0.2157220656519106 0.01797783374964048 0 -0.215680178170855 0.031382843457507081 0 -0.2157220656519106 0.01797783374964048 0 -0.22429891563603119 0.030783548087977008 0 -0.2157220656519106 0.01797783374964048 0 -0.20880072132552879 0.015703259845290321 0 -0.19745174822998099 0.0096351370415420842 0 -0.20880072132552879 0.015703259845290321 0 -0.2075999214426229 0.0093167460414762711 0 -0.20880072132552879 0.015703259845290321 0 -0.2075999214426229 0.0093167460414762711 0 -0.21366912952673481 0.011975143026128079 0 -0.2157220656519106 0.01797783374964048 0 -0.21366912952673481 0.011975143026128079 0 -0.22132278162368221 0.01005706731039761 0 -0.2157220656519106 0.01797783374964048 0 -0.20880072132552879 0.015703259845290321 0 -0.21366912952673481 0.011975143026128079 0 -0.21366912952673481 0.011975143026128079 0 -0.21401027276168319 0.0061729698368891096 0 -0.22132278162368221 0.01005706731039761 0 -0.2075999214426229 0.0093167460414762711 0 -0.21366912952673481 0.011975143026128079 0 -0.21401027276168319 0.0061729698368891096 0 -0.21093763637969601 -0.00292938522658396 0 -0.21401027276168319 0.0061729698368891096 0 -0.21842811924960989 0.0008331812346521457 0 -0.21401027276168319 0.0061729698368891096 0 -0.21842811924960989 0.0008331812346521457 0 -0.2207732824221956 0.0047672317238003333 0 -0.21401027276168319 0.0061729698368891096 0 -0.2207732824221956 0.0047672317238003333 0 -0.22132278162368221 0.01005706731039761 0 -0.2075999214426229 0.0093167460414762711 0 -0.21401027276168319 0.0061729698368891096 0 -0.20406773536918671 0.003097220457531749 0 -0.21093763637969601 -0.00292938522658396 0 -0.21401027276168319 0.0061729698368891096 0 -0.20406773536918671 0.003097220457531749 0 -0.2157220656519106 0.01797783374964048 0 -0.22132278162368221 0.01005706731039761 0 -0.23225793863888719 0.009450191017563208 0 -0.2157220656519106 0.01797783374964048 0 -0.23225793863888719 0.009450191017563208 0 -0.24159572494232279 0.013792609720113201 0 -0.23297797338857351 0.0018627685263449081 0 -0.23230075075903611 0.0053566664348216782 0 -0.22875763755143461 0.003295870599056238 0 -0.23297797338857351 0.0018627685263449081 0 -0.23230075075903611 0.0053566664348216782 0 -0.23691312954540439 0.0039512785311553202 0 -0.2298398395681007 -0.00022888140942733151 0 -0.23297797338857351 0.0018627685263449081 0 -0.22875763755143461 0.003295870599056238 0 -0.23308759639957219 -0.00068054635179085759 0 -0.2298398395681007 -0.00022888140942733151 0 -0.23297797338857351 0.0018627685263449081 0 -0.23308759639957219 -0.00068054635179085759 0 -0.23574278336364171 -0.00071358323771446644 0 -0.23297797338857351 0.0018627685263449081 0 -0.23230075075903611 0.0053566664348216782 0 -0.2271163719813169 0.0065995407352930583 0 -0.23225793863888719 0.009450191017563208 0 -0.23230075075903611 0.0053566664348216782 0 -0.23225793863888719 0.009450191017563208 0 -0.23691312954540439 0.0039512785311553202 0 -0.23230075075903611 0.0053566664348216782 0 -0.2271163719813169 0.0065995407352930583 0 -0.22875763755143461 0.003295870599056238 0 -0.2298398395681007 -0.00022888140942733151 0 -0.22875763755143461 0.003295870599056238 0 -0.22415008105314049 0.0013088099856923201 0 -0.2271163719813169 0.0065995407352930583 0 -0.22875763755143461 0.003295870599056238 0 -0.22415008105314049 0.0013088099856923201 0 -0.21842811924960989 0.0008331812346521457 0 -0.22415008105314049 0.0013088099856923201 0 -0.2207732824221956 0.0047672317238003333 0 -0.2271163719813169 0.0065995407352930583 0 -0.2207732824221956 0.0047672317238003333 0 -0.22132278162368221 0.01005706731039761 0 -0.2271163719813169 0.0065995407352930583 0 -0.22415008105314049 0.0013088099856923201 0 -0.2207732824221956 0.0047672317238003333 0 -0.2271163719813169 0.0065995407352930583 0 -0.22132278162368221 0.01005706731039761 0 -0.23225793863888719 0.009450191017563208 0 -0.2157220656519106 0.01797783374964048 0 -0.22429891563603119 0.030783548087977008 0 -0.23854435386754211 0.02547796360374777 0 -0.2157220656519106 0.01797783374964048 0 -0.24159572494232279 0.013792609720113201 0 -0.2157220656519106 0.01797783374964048 0 -0.23854435386754211 0.02547796360374777 0 -0.24159572494232279 0.013792609720113201 0 -0.2157220656519106 0.01797783374964048 0 -0.23854435386754211 0.02547796360374777 0 -0.2559234215204515 0.020417559765030149 0 -0.23854435386754211 0.02547796360374777 0 -0.24159572494232279 0.013792609720113201 0 -0.26136664208317378 0.032978093457854497 0 -0.23854435386754211 0.02547796360374777 0 -0.23225793863888719 0.009450191017563208 0 -0.24159572494232279 0.013792609720113201 0 -0.24152134508212189 0.004579756093969373 0 -0.24159572494232279 0.013792609720113201 0 -0.24898136322109801 0.0008124272531647704 0 -0.24152134508212189 0.004579756093969373 0 -0.24185388084259871 -0.0016477510648864699 0 -0.24898136322109801 0.0008124272531647704 0 -0.24152134508212189 0.004579756093969373 0 -0.23889873637516279 0.00055847664986828367 0 -0.24152134508212189 0.004579756093969373 0 -0.23691312954540439 0.0039512785311553202 0 -0.23225793863888719 0.009450191017563208 0 -0.24152134508212189 0.004579756093969373 0 -0.23691312954540439 0.0039512785311553202 0 -0.24185388084259871 -0.0016477510648864699 0 -0.23889873637516279 0.00055847664986828367 0 -0.24152134508212189 0.004579756093969373 0 -0.23574278336364171 -0.00071358323771446644 0 -0.23297797338857351 0.0018627685263449081 0 -0.23691312954540439 0.0039512785311553202 0 -0.23574278336364171 -0.00071358323771446644 0 -0.23889873637516279 0.00055847664986828367 0 -0.23691312954540439 0.0039512785311553202 0 -0.21828460900918739 0.043488378568651773 0 -0.23160690516193971 0.058307685769109649 0 -0.2369151186687343 0.040777884928760548 0 -0.21828460900918739 0.043488378568651773 0 -0.21012120577744581 0.061522041867216958 0 -0.23160690516193971 0.058307685769109649 0 -0.21828460900918739 0.043488378568651773 0 -0.22429891563603119 0.030783548087977008 0 -0.2369151186687343 0.040777884928760548 0 -0.215680178170855 0.031382843457507081 0 -0.21828460900918739 0.043488378568651773 0 -0.22429891563603119 0.030783548087977008 0 -0.22429891563603119 0.030783548087977008 0 -0.23854435386754211 0.02547796360374777 0 -0.2369151186687343 0.040777884928760548 0 -0.26136664208317378 0.032978093457854497 0 -0.2369151186687343 0.040777884928760548 0 -0.24987615818431921 0.052252513707734358 0 -0.26136664208317378 0.032978093457854497 0 -0.23854435386754211 0.02547796360374777 0 -0.2369151186687343 0.040777884928760548 0 -0.23160690516193971 0.058307685769109649 0 -0.2369151186687343 0.040777884928760548 0 -0.24987615818431921 0.052252513707734358 0 -0.23160690516193971 0.058307685769109649 0 -0.24987615818431921 0.052252513707734358 0 -0.24949207580967209 0.073420190236084246 0 -0.23160690516193971 0.058307685769109649 0 -0.24949207580967209 0.073420190236084246 0 -0.22495226352227971 0.078385105306210026 0 -0.24949207580967209 0.073420190236084246 0 -0.22495226352227971 0.078385105306210026 0 -0.24636491872908509 0.096554757406472846 0 -0.22495226352227971 0.078385105306210026 0 -0.22844373515804911 0.098189706179378278 0 -0.24636491872908509 0.096554757406472846 0 -0.22495226352227971 0.078385105306210026 0 -0.2110608531578004 0.1028455940047265 0 -0.22844373515804911 0.098189706179378278 0 -0.21012120577744581 0.061522041867216958 0 -0.23160690516193971 0.058307685769109649 0 -0.22495226352227971 0.078385105306210026 0 -0.21012120577744581 0.061522041867216958 0 -0.22495226352227971 0.078385105306210026 0 -0.20159417555406259 0.080994207600958906 0 -0.22495226352227971 0.078385105306210026 0 -0.20159417555406259 0.080994207600958906 0 -0.2110608531578004 0.1028455940047265 0 -0.22495226352227971 0.078385105306210026 0 -0.2110608531578004 0.1028455940047265 0 -0.20159417555406259 0.080994207600958906 0 -0.19457679026531599 0.096398856154369217 0 -0.2110608531578004 0.1028455940047265 0 -0.18483775190683019 0.072622461990295206 0 -0.18632821269617131 0.085360377972123744 0 -0.20159417555406259 0.080994207600958906 0 -0.18632821269617131 0.085360377972123744 0 -0.20159417555406259 0.080994207600958906 0 -0.19457679026531599 0.096398856154369217 0 -0.18483775190683019 0.072622461990295206 0 -0.20159417555406259 0.080994207600958906 0 -0.1963094874958724 0.066688559955737456 0 -0.21012120577744581 0.061522041867216958 0 -0.20159417555406259 0.080994207600958906 0 -0.1963094874958724 0.066688559955737456 0 -0.18483775190683019 0.072622461990295206 0 -0.1820589329437762 0.059119984146835738 0 -0.1963094874958724 0.066688559955737456 0 -0.18867599003651381 0.1246247871134946 0 -0.196133067394065 0.1107695219851085 0 -0.19716944279332069 0.12730608270324281 0 -0.196133067394065 0.1107695219851085 0 -0.2110608531578004 0.1028455940047265 0 -0.19716944279332069 0.12730608270324281 0 -0.17976944526372049 0.10047038374283 0 -0.18867599003651381 0.1246247871134946 0 -0.196133067394065 0.1107695219851085 0 -0.17976944526372049 0.10047038374283 0 -0.196133067394065 0.1107695219851085 0 -0.19457679026531599 0.096398856154369217 0 -0.196133067394065 0.1107695219851085 0 -0.19457679026531599 0.096398856154369217 0 -0.2110608531578004 0.1028455940047265 0 -0.2110608531578004 0.1028455940047265 0 -0.20874600046403241 0.1242948491708878 0 -0.22184984205997621 0.12469457250077021 0 -0.2110608531578004 0.1028455940047265 0 -0.19716944279332069 0.12730608270324281 0 -0.2110608531578004 0.1028455940047265 0 -0.20874600046403241 0.1242948491708878 0 -0.19716944279332069 0.12730608270324281 0 -0.2333341692877505 0.11312276955157841 0 -0.22184984205997621 0.12469457250077021 0 -0.23764060896304751 0.13022596271559669 0 -0.2110608531578004 0.1028455940047265 0 -0.2333341692877505 0.11312276955157841 0 -0.22184984205997621 0.12469457250077021 0 -0.2110608531578004 0.1028455940047265 0 -0.2333341692877505 0.11312276955157841 0 -0.22844373515804911 0.098189706179378278 0 -0.2333341692877505 0.11312276955157841 0 -0.22844373515804911 0.098189706179378278 0 -0.24636491872908509 0.096554757406472846 0 -0.25885248836733549 0.1195373367531132 0 -0.2333341692877505 0.11312276955157841 0 -0.23764060896304751 0.13022596271559669 0 -0.25885248836733549 0.1195373367531132 0 -0.2333341692877505 0.11312276955157841 0 -0.24636491872908509 0.096554757406472846 0 -0.25885248836733549 0.1195373367531132 0 -0.23764060896304751 0.13022596271559669 0 -0.2469851836315565 0.1426497956307389 0 -0.23764060896304751 0.13022596271559669 0 -0.2340130023254999 0.14764759607273589 0 -0.2469851836315565 0.1426497956307389 0 -0.22184984205997621 0.12469457250077021 0 -0.22473243825090189 0.14092574426019891 0 -0.2138709809664385 0.13509689046178569 0 -0.23764060896304751 0.13022596271559669 0 -0.22473243825090189 0.14092574426019891 0 -0.2340130023254999 0.14764759607273589 0 -0.22184984205997621 0.12469457250077021 0 -0.23764060896304751 0.13022596271559669 0 -0.22473243825090189 0.14092574426019891 0 -0.224511049577473 0.15523292326453439 0 -0.2340130023254999 0.14764759607273589 0 -0.2351178788957764 0.1657622545083641 0 -0.224511049577473 0.15523292326453439 0 -0.22473243825090189 0.14092574426019891 0 -0.21108833321392151 0.1500914637002064 0 -0.224511049577473 0.15523292326453439 0 -0.22473243825090189 0.14092574426019891 0 -0.2340130023254999 0.14764759607273589 0 -0.2340130023254999 0.14764759607273589 0 -0.2469851836315565 0.1426497956307389 0 -0.2351178788957764 0.1657622545083641 0 -0.2469851836315565 0.1426497956307389 0 -0.24984691479657839 0.1574097777255466 0 -0.2351178788957764 0.1657622545083641 0 -0.2469851836315565 0.1426497956307389 0 -0.2351178788957764 0.1657622545083641 0 -0.25941085950780191 0.1668827910683322 0 -0.2351178788957764 0.1657622545083641 0 -0.25941085950780191 0.1668827910683322 0 -0.24984691479657839 0.1574097777255466 0 -0.2351178788957764 0.1657622545083641 0 -0.25941085950780191 0.1668827910683322 0 -0.2351178788957764 0.1657622545083641 0 -0.24444842484294479 0.17268946326672441 0 -0.23503433136296711 0.16955737542537999 0 -0.2351178788957764 0.1657622545083641 0 -0.24444842484294479 0.17268946326672441 0 -0.23503433136296711 0.16955737542537999 0 -0.23781797004153651 0.1736322572303835 0 -0.23269165267021649 0.17048751058922579 0 -0.25532905878588918 0.1758407175801833 0 -0.2482425409515801 0.1822592470644058 0 -0.24444842484294479 0.17268946326672441 0 -0.2482425409515801 0.1822592470644058 0 -0.24444842484294479 0.17268946326672441 0 -0.23767464007332739 0.18083553598808569 0 -0.23503433136296711 0.16955737542537999 0 -0.24444842484294479 0.17268946326672441 0 -0.23781797004153651 0.1736322572303835 0 -0.23781797004153651 0.1736322572303835 0 -0.23767464007332739 0.18083553598808569 0 -0.23269165267021649 0.17048751058922579 0 -0.24444842484294479 0.17268946326672441 0 -0.23781797004153651 0.1736322572303835 0 -0.23767464007332739 0.18083553598808569 0 -0.2482425409515801 0.1822592470644058 0 -0.23767464007332739 0.18083553598808569 0 -0.2400150006188779 0.19066978557601949 0 -0.23269165267021649 0.17048751058922579 0 -0.2170255247428188 0.1649277276708358 0 -0.20684952559347841 0.1807478468346948 0 -0.23269165267021649 0.17048751058922579 0 -0.20684952559347841 0.1807478468346948 0 -0.23269165267021649 0.17048751058922579 0 -0.21998443850663779 0.1952357555651342 0 -0.23269165267021649 0.17048751058922579 0 -0.20684952559347841 0.1807478468346948 0 -0.21998443850663779 0.1952357555651342 0 -0.23767464007332739 0.18083553598808569 0 -0.23269165267021649 0.17048751058922579 0 -0.21998443850663779 0.1952357555651342 0 -0.2351178788957764 0.1657622545083641 0 -0.2170255247428188 0.1649277276708358 0 -0.224511049577473 0.15523292326453439 0 -0.2351178788957764 0.1657622545083641 0 -0.2170255247428188 0.1649277276708358 0 -0.2351178788957764 0.1657622545083641 0 -0.23269165267021649 0.17048751058922579 0 -0.2170255247428188 0.1649277276708358 0 -0.23503433136296711 0.16955737542537999 0 -0.2351178788957764 0.1657622545083641 0 -0.23269165267021649 0.17048751058922579 0 -0.2351178788957764 0.1657622545083641 0 -0.23269165267021649 0.17048751058922579 0 -0.23503433136296711 0.16955737542537999 0 -0.23269165267021649 0.17048751058922579 0 -0.224511049577473 0.15523292326453439 0 -0.2170255247428188 0.1649277276708358 0 -0.21544789058377689 0.16485495781267409 0 -0.21544789058377689 0.16485495781267409 0 -0.19615190200834851 0.16396491220629769 0 -0.2021562734785517 0.17185666206128011 0 -0.2170255247428188 0.1649277276708358 0 -0.21544789058377689 0.16485495781267409 0 -0.20684952559347841 0.1807478468346948 0 -0.21544789058377689 0.16485495781267409 0 -0.19761066386483031 0.16139627252407099 0 -0.21544789058377689 0.16485495781267409 0 -0.19615190200834851 0.16396491220629769 0 -0.21544789058377689 0.16485495781267409 0 -0.19761066386483031 0.16139627252407099 0 -0.21108833321392151 0.1500914637002064 0 -0.224511049577473 0.15523292326453439 0 -0.21544789058377689 0.16485495781267409 0 -0.21108833321392151 0.1500914637002064 0 -0.2170255247428188 0.1649277276708358 0 -0.21544789058377689 0.16485495781267409 0 -0.21544789058377689 0.16485495781267409 0 -0.20684952559347841 0.1807478468346948 0 -0.2021562734785517 0.17185666206128011 0 -0.20684952559347841 0.1807478468346948 0 -0.19017577572860289 0.17785893139145459 0 -0.1810073985167393 0.1910081830801616 0 -0.20684952559347841 0.1807478468346948 0 -0.1810073985167393 0.1910081830801616 0 -0.20684952559347841 0.1807478468346948 0 -0.19017577572860289 0.17785893139145459 0 -0.2021562734785517 0.17185666206128011 0 -0.19761066386483031 0.16139627252407099 0 -0.19615190200834851 0.16396491220629769 0 -0.17977343714588451 0.15793758723546381 0 -0.19761066386483031 0.16139627252407099 0 -0.17977343714588451 0.15793758723546381 0 -0.19761066386483031 0.16139627252407099 0 -0.1975001787849904 0.1499189388979057 0 -0.17977343714588451 0.15793758723546381 0 -0.19017577572860289 0.17785893139145459 0 -0.19615190200834851 0.16396491220629769 0 -0.1768559134329202 0.16307486659991899 0 -0.21544789058377689 0.16485495781267409 0 -0.19761066386483031 0.16139627252407099 0 -0.19615190200834851 0.16396491220629769 0 -0.19017577572860289 0.17785893139145459 0 -0.19615190200834851 0.16396491220629769 0 -0.2021562734785517 0.17185666206128011 0 -0.20286727816029501 0.13977321869602841 0 -0.18717869246924171 0.14489815067761669 0 -0.1975001787849904 0.1499189388979057 0 -0.20286727816029501 0.13977321869602841 0 -0.18717869246924171 0.14489815067761669 0 -0.1975001787849904 0.1499189388979057 0 -0.18717869246924171 0.14489815067761669 0 -0.17977343714588451 0.15793758723546381 0 -0.19761066386483031 0.16139627252407099 0 -0.1975001787849904 0.1499189388979057 0 -0.21108833321392151 0.1500914637002064 0 -0.19716944279332069 0.12730608270324281 0 -0.18717869246924171 0.14489815067761669 0 -0.19716944279332069 0.12730608270324281 0 -0.20286727816029501 0.13977321869602841 0 -0.18717869246924171 0.14489815067761669 0 -0.20874600046403241 0.1242948491708878 0 -0.19716944279332069 0.12730608270324281 0 -0.20874600046403241 0.1242948491708878 0 -0.19716944279332069 0.12730608270324281 0 -0.20286727816029501 0.13977321869602841 0 -0.20874600046403241 0.1242948491708878 0 -0.20286727816029501 0.13977321869602841 0 -0.2138709809664385 0.13509689046178569 0 -0.20874600046403241 0.1242948491708878 0 -0.22184984205997621 0.12469457250077021 0 -0.2138709809664385 0.13509689046178569 0 -0.22473243825090189 0.14092574426019891 0 -0.2138709809664385 0.13509689046178569 0 -0.21108833321392151 0.1500914637002064 0 -0.20286727816029501 0.13977321869602841 0 -0.2138709809664385 0.13509689046178569 0 -0.21108833321392151 0.1500914637002064 0 -0.1975001787849904 0.1499189388979057 0 -0.20286727816029501 0.13977321869602841 0 -0.21108833321392151 0.1500914637002064 0 -0.2262332628990571 0.25687017961323549 0 -0.22025070387936699 0.24154630293955059 0 -0.23695383633925579 0.24826950418610361 0 -0.22025070387936699 0.24154630293955059 0 -0.23045149733232251 0.2346658419781617 0 -0.23695383633925579 0.24826950418610361 0 -0.22025070387936699 0.24154630293955059 0 -0.23045149733232251 0.2346658419781617 0 -0.22390348797321871 0.22932866583040881 0 -0.25006108478002698 0.24413400530429169 0 -0.23695383633925579 0.24826950418610361 0 -0.24252382760413349 0.23305630000082311 0 -0.25714777800571209 0.22925707836421971 0 -0.25006108478002698 0.24413400530429169 0 -0.24252382760413349 0.23305630000082311 0 -0.23045149733232251 0.2346658419781617 0 -0.23695383633925579 0.24826950418610361 0 -0.24252382760413349 0.23305630000082311 0 -0.23410119192453591 0.22595491443829341 0 -0.2258514444440704 0.21551098227430501 0 -0.247775702268934 0.21721278210776851 0 -0.24252382760413349 0.23305630000082311 0 -0.23410119192453591 0.22595491443829341 0 -0.247775702268934 0.21721278210776851 0 -0.23045149733232251 0.2346658419781617 0 -0.24252382760413349 0.23305630000082311 0 -0.23410119192453591 0.22595491443829341 0 -0.25714777800571209 0.22925707836421971 0 -0.24252382760413349 0.23305630000082311 0 -0.247775702268934 0.21721278210776851 0 -0.22390348797321871 0.22932866583040881 0 -0.2258514444440704 0.21551098227430501 0 -0.21021072731178331 0.2301216138956331 0 -0.23410119192453591 0.22595491443829341 0 -0.22390348797321871 0.22932866583040881 0 -0.2258514444440704 0.21551098227430501 0 -0.23045149733232251 0.2346658419781617 0 -0.23410119192453591 0.22595491443829341 0 -0.22390348797321871 0.22932866583040881 0 -0.2258514444440704 0.21551098227430501 0 -0.24149216157635761 0.20090035065297679 0 -0.2258514444440704 0.21551098227430501 0 -0.24149216157635761 0.20090035065297679 0 -0.21998443850663779 0.1952357555651342 0 -0.2258514444440704 0.21551098227430501 0 -0.247775702268934 0.21721278210776851 0 -0.24149216157635761 0.20090035065297679 0 -0.2556610845585473 0.20626407668457891 0 -0.247775702268934 0.21721278210776851 0 -0.24149216157635761 0.20090035065297679 0 -0.25268122198648679 0.1941180386094952 0 -0.2556610845585473 0.20626407668457891 0 -0.24149216157635761 0.20090035065297679 0 -0.25268122198648679 0.1941180386094952 0 -0.24149216157635761 0.20090035065297679 0 -0.2400150006188779 0.19066978557601949 0 -0.25268122198648679 0.1941180386094952 0 -0.2482425409515801 0.1822592470644058 0 -0.2400150006188779 0.19066978557601949 0 -0.23767464007332739 0.18083553598808569 0 -0.2400150006188779 0.19066978557601949 0 -0.21998443850663779 0.1952357555651342 0 -0.24149216157635761 0.20090035065297679 0 -0.2400150006188779 0.19066978557601949 0 -0.21998443850663779 0.1952357555651342 0 -0.20684952559347841 0.1807478468346948 0 -0.21998443850663779 0.1952357555651342 0 -0.20051363032701369 0.1996968768955156 0 -0.20684952559347841 0.1807478468346948 0 -0.20051363032701369 0.1996968768955156 0 -0.1810073985167393 0.1910081830801616 0 -0.20051363032701369 0.1996968768955156 0 -0.18744956467515131 0.21150859845654349 0 -0.1810073985167393 0.1910081830801616 0 -0.20051363032701369 0.1996968768955156 0 -0.20727722434306189 0.21998400054104389 0 -0.18744956467515131 0.21150859845654349 0 -0.2258514444440704 0.21551098227430501 0 -0.21998443850663779 0.1952357555651342 0 -0.20727722434306189 0.21998400054104389 0 -0.21998443850663779 0.1952357555651342 0 -0.20727722434306189 0.21998400054104389 0 -0.21998443850663779 0.1952357555651342 0 -0.20051363032701369 0.1996968768955156 0 -0.20727722434306189 0.21998400054104389 0 -0.2258514444440704 0.21551098227430501 0 -0.21021072731178331 0.2301216138956331 0 -0.20727722434306189 0.21998400054104389 0 -0.21021072731178331 0.2301216138956331 0 -0.19457001017949149 0.2447322455169563 0 -0.2258514444440704 0.21551098227430501 0 -0.20727722434306189 0.21998400054104389 0 -0.21021072731178331 0.2301216138956331 0 -0.22025070387936699 0.24154630293955059 0 -0.22390348797321871 0.22932866583040881 0 -0.21021072731178331 0.2301216138956331 0 -0.20727722434306189 0.21998400054104389 0 -0.18953601921705701 0.2271783485665779 0 -0.19457001017949149 0.2447322455169563 0 -0.20727722434306189 0.21998400054104389 0 -0.18953601921705701 0.2271783485665779 0 -0.18744956467515131 0.21150859845654349 0 -0.20727722434306189 0.21998400054104389 0 -0.19457001017949149 0.2447322455169563 0 -0.18953601921705701 0.2271783485665779 0 -0.19457001017949149 0.2447322455169563 0 -0.18060365626472669 0.23582726597931791 0 -0.21021072731178331 0.2301216138956331 0 -0.19457001017949149 0.2447322455169563 0 -0.20905810505216499 0.25073725147777459 0 -0.19457001017949149 0.2447322455169563 0 -0.2085223866057003 0.24178435345747801 0 -0.2262332628990571 0.25687017961323549 0 -0.20905810505216499 0.25073725147777459 0 -0.22025070387936699 0.24154630293955059 0 -0.21021072731178331 0.2301216138956331 0 -0.19457001017949149 0.2447322455169563 0 -0.2085223866057003 0.24178435345747801 0 -0.22025070387936699 0.24154630293955059 0 -0.21021072731178331 0.2301216138956331 0 -0.2085223866057003 0.24178435345747801 0 -0.20905810505216499 0.25073725147777459 0 -0.22025070387936699 0.24154630293955059 0 -0.2085223866057003 0.24178435345747801 0 -0.15267587363866891 0.25418822484469139 0 -0.16796854263570771 0.24545478053275971 0 -0.16202589739122689 0.23179095121854529 0 -0.16796854263570771 0.24545478053275971 0 -0.18060365626472669 0.23582726597931791 0 -0.16202589739122689 0.23179095121854529 0 -0.17707981406228859 0.26107055087035103 0 -0.16796854263570771 0.24545478053275971 0 -0.18060365626472669 0.23582726597931791 0 -0.17707981406228859 0.26107055087035103 0 -0.19457001017949149 0.2447322455169563 0 -0.18060365626472669 0.23582726597931791 0 -0.18953601921705701 0.2271783485665779 0 -0.17417284176101119 0.22332227339444061 0 -0.18744956467515131 0.21150859845654349 0 -0.18060365626472669 0.23582726597931791 0 -0.17417284176101119 0.22332227339444061 0 -0.16202589739122689 0.23179095121854529 0 -0.18953601921705701 0.2271783485665779 0 -0.18060365626472669 0.23582726597931791 0 -0.17417284176101119 0.22332227339444061 0 -0.17417284176101119 0.22332227339444061 0 -0.16202589739122689 0.23179095121854529 0 -0.1596858936667323 0.21902184277693479 0 -0.1596858936667323 0.21902184277693479 0 -0.15781178560571901 0.20884797108358169 0 -0.1685455391402291 0.20927934689897409 0 -0.15781178560571901 0.20884797108358169 0 -0.1685455391402291 0.20927934689897409 0 -0.155165271440001 0.20126851932563 0 -0.17417284176101119 0.22332227339444061 0 -0.1596858936667323 0.21902184277693479 0 -0.1685455391402291 0.20927934689897409 0 -0.17417284176101119 0.22332227339444061 0 -0.1685455391402291 0.20927934689897409 0 -0.18744956467515131 0.21150859845654349 0 -0.1685455391402291 0.20927934689897409 0 -0.18744956467515131 0.21150859845654349 0 -0.1810073985167393 0.1910081830801616 0 -0.1810073985167393 0.1910081830801616 0 -0.16277549646300821 0.1878681648415135 0 -0.155165271440001 0.20126851932563 0 -0.1810073985167393 0.1910081830801616 0 -0.155165271440001 0.20126851932563 0 -0.1685455391402291 0.20927934689897409 0 -0.1810073985167393 0.1910081830801616 0 -0.155165271440001 0.20126851932563 0 -0.16277549646300821 0.1878681648415135 0 -0.155165271440001 0.20126851932563 0 -0.155165271440001 0.20126851932563 0 -0.13585736638644 0.19770127075126909 0 -0.13884838502585201 0.20774696208659349 0 -0.16277549646300821 0.1878681648415135 0 -0.13585736638644 0.19770127075126909 0 -0.16277549646300821 0.1878681648415135 0 -0.155165271440001 0.20126851932563 0 -0.13585736638644 0.19770127075126909 0 -0.16277549646300821 0.1878681648415135 0 -0.13585736638644 0.19770127075126909 0 -0.14285817276318791 0.18359235556864209 0 -0.13585736638644 0.19770127075126909 0 -0.13070912972551221 0.18041030648395179 0 -0.13585736638644 0.19770127075126909 0 -0.13070912972551221 0.18041030648395179 0 -0.12346321599477129 0.19095731774844921 0 -0.13585736638644 0.19770127075126909 0 -0.13884838502585201 0.20774696208659349 0 -0.13585736638644 0.19770127075126909 0 -0.13884838502585201 0.20774696208659349 0 -0.122401011987299 0.21427721314638681 0 -0.13884838502585201 0.20774696208659349 0 -0.122401011987299 0.21427721314638681 0 -0.13884838502585201 0.20774696208659349 0 -0.13147137290810271 0.2244418866308466 0 -0.122401011987299 0.21427721314638681 0 -0.13884838502585201 0.20774696208659349 0 -0.15085079923974021 0.2127785609063049 0 -0.1457621293322586 0.23096759346564311 0 -0.155165271440001 0.20126851932563 0 -0.13884838502585201 0.20774696208659349 0 -0.155165271440001 0.20126851932563 0 -0.13884838502585201 0.20774696208659349 0 -0.15085079923974021 0.2127785609063049 0 -0.15781178560571901 0.20884797108358169 0 -0.155165271440001 0.20126851932563 0 -0.15085079923974021 0.2127785609063049 0 -0.1596858936667323 0.21902184277693479 0 -0.15781178560571901 0.20884797108358169 0 -0.15085079923974021 0.2127785609063049 0 -0.16202589739122689 0.23179095121854529 0 -0.1596858936667323 0.21902184277693479 0 -0.1457621293322586 0.23096759346564311 0 -0.1596858936667323 0.21902184277693479 0 -0.15085079923974021 0.2127785609063049 0 -0.1457621293322586 0.23096759346564311 0 -0.13884838502585201 0.20774696208659349 0 -0.1457621293322586 0.23096759346564311 0 -0.1457621293322586 0.23096759346564311 0 -0.13147137290810271 0.2244418866308466 0 -0.1330808940887391 0.2402923867290355 0 -0.13884838502585201 0.20774696208659349 0 -0.1457621293322586 0.23096759346564311 0 -0.13147137290810271 0.2244418866308466 0 -0.13147137290810271 0.2244418866308466 0 -0.1330808940887391 0.2402923867290355 0 -0.1187380372045829 0.2270097686950808 0 -0.1357337309717726 0.26000689719628828 0 -0.1330808940887391 0.2402923867290355 0 -0.1152752904441029 0.23943124491355111 0 -0.1357337309717726 0.26000689719628828 0 -0.1152752904441029 0.23943124491355111 0 -0.15267587363866891 0.25418822484469139 0 -0.16202589739122689 0.23179095121854529 0 -0.1457621293322586 0.23096759346564311 0 -0.15267587363866891 0.25418822484469139 0 -0.1457621293322586 0.23096759346564311 0 -0.1330808940887391 0.2402923867290355 0 -0.15267587363866891 0.25418822484469139 0 -0.1457621293322586 0.23096759346564311 0 -0.1651831551439876 0.15208335110997129 0 -0.1682215141628047 0.13483586624200131 0 -0.1392735855322885 0.14236564978075911 0 -0.17007873576482291 0.1539194985651117 0 -0.15937193234200239 0.15398168166548151 0 -0.17977343714588451 0.15793758723546381 0 -0.15937193234200239 0.15398168166548151 0 -0.17977343714588451 0.15793758723546381 0 -0.17007873576482291 0.1539194985651117 0 -0.1651831551439876 0.15208335110997129 0 -0.15937193234200239 0.15398168166548151 0 -0.17007873576482291 0.1539194985651117 0 -0.1651831551439876 0.15208335110997129 0 -0.1651831551439876 0.15208335110997129 0 -0.15937193234200239 0.15398168166548151 0 -0.15937193234200239 0.15398168166548151 0 -0.15671251982482159 0.1554842993429672 0 -0.15515467913252501 0.15535931609813869 0 -0.15937193234200239 0.15398168166548151 0 -0.15515467913252501 0.15535931609813869 0 -0.19716944279332069 0.12730608270324281 0 -0.1682215141628047 0.13483586624200131 0 -0.18717869246924171 0.14489815067761669 0 -0.17152063033143741 0.1161496992875002 0 -0.18867599003651381 0.1246247871134946 0 -0.1682215141628047 0.13483586624200131 0 -0.19716944279332069 0.12730608270324281 0 -0.1682215141628047 0.13483586624200131 0 -0.18867599003651381 0.1246247871134946 0 -0.19716944279332069 0.12730608270324281 0 -0.1682215141628047 0.13483586624200131 0 -0.1651831551439876 0.15208335110997129 0 -0.18717869246924171 0.14489815067761669 0 -0.17007873576482291 0.1539194985651117 0 -0.1651831551439876 0.15208335110997129 0 -0.18717869246924171 0.14489815067761669 0 -0.1651831551439876 0.15208335110997129 0 -0.1682215141628047 0.13483586624200131 0 -0.18717869246924171 0.14489815067761669 0 -0.17007873576482291 0.1539194985651117 0 -0.18717869246924171 0.14489815067761669 0 -0.17977343714588451 0.15793758723546381 0 -0.18717869246924171 0.14489815067761669 0 -0.17977343714588451 0.15793758723546381 0 -0.19615190200834851 0.16396491220629769 0 -0.1768559134329202 0.16307486659991899 0 -0.19615190200834851 0.16396491220629769 0 -0.17977343714588451 0.15793758723546381 0 -0.1768559134329202 0.16307486659991899 0 -0.17977343714588451 0.15793758723546381 0 -0.1768559134329202 0.16307486659991899 0 -0.16395985489830681 0.15991881741874001 0 -0.17977343714588451 0.15793758723546381 0 -0.1768559134329202 0.16307486659991899 0 -0.19017577572860289 0.17785893139145459 0 -0.16277549646300821 0.1878681648415135 0 -0.19017577572860289 0.17785893139145459 0 -0.1810073985167393 0.1910081830801616 0 -0.16277549646300821 0.1878681648415135 0 -0.19017577572860289 0.17785893139145459 0 -0.16277549646300821 0.1878681648415135 0 -0.1768559134329202 0.16307486659991899 0 -0.16277549646300821 0.1878681648415135 0 -0.1768559134329202 0.16307486659991899 0 -0.16277549646300821 0.1878681648415135 0 -0.1768559134329202 0.16307486659991899 0 -0.15845796099747289 0.17405152527336409 0 -0.16277549646300821 0.1878681648415135 0 -0.15845796099747289 0.17405152527336409 0 -0.14801704486114969 0.1743006571072743 0 -0.15937193234200239 0.15398168166548151 0 -0.17977343714588451 0.15793758723546381 0 -0.16395985489830681 0.15991881741874001 0 -0.1768559134329202 0.16307486659991899 0 -0.15845796099747289 0.17405152527336409 0 -0.163932118916741 0.1651572354472276 0 -0.1768559134329202 0.16307486659991899 0 -0.163932118916741 0.1651572354472276 0 -0.16395985489830681 0.15991881741874001 0 -0.15845796099747289 0.17405152527336409 0 -0.163932118916741 0.1651572354472276 0 -0.15540581492851521 0.16406578109714359 0 -0.15671251982482159 0.1554842993429672 0 -0.16395985489830681 0.15991881741874001 0 -0.15540581492851521 0.16406578109714359 0 -0.163932118916741 0.1651572354472276 0 -0.16395985489830681 0.15991881741874001 0 -0.15540581492851521 0.16406578109714359 0 -0.15937193234200239 0.15398168166548151 0 -0.15671251982482159 0.1554842993429672 0 -0.16395985489830681 0.15991881741874001 0 -0.15540581492851521 0.16406578109714359 0 -0.14607965831918671 0.16563617181983259 0 -0.15515467913252501 0.15535931609813869 0 -0.13421704128337911 0.1621989364402831 0 -0.15515467913252501 0.15535931609813869 0 -0.15671251982482159 0.1554842993429672 0 -0.15540581492851521 0.16406578109714359 0 -0.15515467913252501 0.15535931609813869 0 -0.14607965831918671 0.16563617181983259 0 -0.13421704128337911 0.1621989364402831 0 -0.15515467913252501 0.15535931609813869 0 -0.15845796099747289 0.17405152527336409 0 -0.15540581492851521 0.16406578109714359 0 -0.14801704486114969 0.1743006571072743 0 -0.15540581492851521 0.16406578109714359 0 -0.14607965831918671 0.16563617181983259 0 -0.14801704486114969 0.1743006571072743 0 -0.14607965831918671 0.16563617181983259 0 -0.14801704486114969 0.1743006571072743 0 -0.13760371139036401 0.1722561683563229 0 -0.16277549646300821 0.1878681648415135 0 -0.14801704486114969 0.1743006571072743 0 -0.14285817276318791 0.18359235556864209 0 -0.14801704486114969 0.1743006571072743 0 -0.14285817276318791 0.18359235556864209 0 -0.13760371139036401 0.1722561683563229 0 -0.13585736638644 0.19770127075126909 0 -0.14285817276318791 0.18359235556864209 0 -0.13070912972551221 0.18041030648395179 0 -0.14285817276318791 0.18359235556864209 0 -0.13760371139036401 0.1722561683563229 0 -0.13070912972551221 0.18041030648395179 0 -0.13760371139036401 0.1722561683563229 0 -0.12684858010830319 0.1730115638776063 0 -0.13070912972551221 0.18041030648395179 0 -0.12684858010830319 0.1730115638776063 0 -0.13070912972551221 0.18041030648395179 0 -0.1184336147080278 0.18115385132504641 0 -0.13421704128337911 0.1621989364402831 0 -0.1272618616259274 0.15312151677974101 0 -0.15515467913252501 0.15535931609813869 0 -0.13421704128337911 0.1621989364402831 0 -0.1272618616259274 0.15312151677974101 0 -0.1158364836951397 0.1588350133149059 0 -0.14607965831918671 0.16563617181983259 0 -0.13760371139036401 0.1722561683563229 0 -0.13421704128337911 0.1621989364402831 0 -0.13760371139036401 0.1722561683563229 0 -0.12684858010830319 0.1730115638776063 0 -0.13421704128337911 0.1621989364402831 0 -0.1392735855322885 0.14236564978075911 0 -0.11176428579102859 0.14952122470974361 0 -0.15090647453143949 0.1140177417078663 0 -0.1682215141628047 0.13483586624200131 0 -0.1361595137953851 0.12618350962877031 0 -0.1392735855322885 0.14236564978075911 0 -0.1311242613257011 0.14850438378051339 0 -0.11176428579102859 0.14952122470974361 0 -0.1682215141628047 0.13483586624200131 0 -0.1392735855322885 0.14236564978075911 0 -0.1361595137953851 0.12618350962877031 0 -0.1272618616259274 0.15312151677974101 0 -0.1311242613257011 0.14850438378051339 0 -0.15515467913252501 0.15535931609813869 0 -0.1651831551439876 0.15208335110997129 0 -0.15937193234200239 0.15398168166548151 0 -0.1392735855322885 0.14236564978075911 0 -0.1272618616259274 0.15312151677974101 0 -0.15515467913252501 0.15535931609813869 0 -0.15937193234200239 0.15398168166548151 0 -0.1392735855322885 0.14236564978075911 0 -0.1311242613257011 0.14850438378051339 0 -0.15937193234200239 0.15398168166548151 0 -0.1311242613257011 0.14850438378051339 0 -0.15515467913252501 0.15535931609813869 0 -0.15937193234200239 0.15398168166548151 0 -0.1311242613257011 0.14850438378051339 0 -0.1651831551439876 0.15208335110997129 0 -0.1392735855322885 0.14236564978075911 0 -0.15671251982482159 0.1554842993429672 0 -0.15515467913252501 0.15535931609813869 0 -0.1682215141628047 0.13483586624200131 0 -0.1392735855322885 0.14236564978075911 0 -0.1392735855322885 0.14236564978075911 0 -0.1361595137953851 0.12618350962877031 0 -0.11924324404439229 0.13485302494681981 0 -0.1392735855322885 0.14236564978075911 0 -0.11924324404439229 0.13485302494681981 0 -0.11924324404439229 0.13485302494681981 0 -0.099212902556495619 0.1273404001128817 0 -0.112548813649908 0.120240359151632 0 -0.11924324404439229 0.13485302494681981 0 -0.1036471555412516 0.1396607877374979 0 -0.099212902556495619 0.1273404001128817 0 -0.11924324404439229 0.13485302494681981 0 -0.099212902556495619 0.1273404001128817 0 -0.1036471555412516 0.1396607877374979 0 -0.099212902556495619 0.1273404001128817 0 -0.08864630119501192 0.13570557145670081 0 -0.099369044119329425 0.15088371746134491 0 -0.1158364836951397 0.1588350133149059 0 -0.10505506801282941 0.15893233911073451 0 -0.099369044119329425 0.15088371746134491 0 -0.08864630119501192 0.13570557145670081 0 -0.1036471555412516 0.1396607877374979 0 -0.099369044119329425 0.15088371746134491 0 -0.08864630119501192 0.13570557145670081 0 -0.1036471555412516 0.1396607877374979 0 -0.099369044119329425 0.15088371746134491 0 -0.11176428579102859 0.14952122470974361 0 -0.099369044119329425 0.15088371746134491 0 -0.10505506801282941 0.15893233911073451 0 -0.1392735855322885 0.14236564978075911 0 -0.11924324404439229 0.13485302494681981 0 -0.11176428579102859 0.14952122470974361 0 -0.1272618616259274 0.15312151677974101 0 -0.099369044119329425 0.15088371746134491 0 -0.1158364836951397 0.1588350133149059 0 -0.1272618616259274 0.15312151677974101 0 -0.1311242613257011 0.14850438378051339 0 -0.11176428579102859 0.14952122470974361 0 -0.1272618616259274 0.15312151677974101 0 -0.099369044119329425 0.15088371746134491 0 -0.1272618616259274 0.15312151677974101 0 -0.099369044119329425 0.15088371746134491 0 -0.11176428579102859 0.14952122470974361 0 -0.11924324404439229 0.13485302494681981 0 -0.1036471555412516 0.1396607877374979 0 -0.11176428579102859 0.14952122470974361 0 -0.12684858010830319 0.1730115638776063 0 -0.13421704128337911 0.1621989364402831 0 -0.11327940343423309 0.1690385567824273 0 -0.13421704128337911 0.1621989364402831 0 -0.11327940343423309 0.1690385567824273 0 -0.1158364836951397 0.1588350133149059 0 -0.13421704128337911 0.1621989364402831 0 -0.11327940343423309 0.1690385567824273 0 -0.11327940343423309 0.1690385567824273 0 -0.1158364836951397 0.1588350133149059 0 -0.10505506801282941 0.15893233911073451 0 -0.11327940343423309 0.1690385567824273 0 -0.1184336147080278 0.18115385132504641 0 -0.1027312821066112 0.18427916847339121 0 -0.1184336147080278 0.18115385132504641 0 -0.1027312821066112 0.18427916847339121 0 -0.1132426364468139 0.19195154232862949 0 -0.13070912972551221 0.18041030648395179 0 -0.1184336147080278 0.18115385132504641 0 -0.12346321599477129 0.19095731774844921 0 -0.12684858010830319 0.1730115638776063 0 -0.11327940343423309 0.1690385567824273 0 -0.1184336147080278 0.18115385132504641 0 -0.11327940343423309 0.1690385567824273 0 -0.1027312821066112 0.18427916847339121 0 -0.092341765585087027 0.17587817712457149 0 -0.11327940343423309 0.1690385567824273 0 -0.092341765585087027 0.17587817712457149 0 -0.10505506801282941 0.15893233911073451 0 -0.086724950762150824 0.16081388863678089 0 -0.092341765585087027 0.17587817712457149 0 -0.099369044119329425 0.15088371746134491 0 -0.10505506801282941 0.15893233911073451 0 -0.086724950762150824 0.16081388863678089 0 -0.11327940343423309 0.1690385567824273 0 -0.10505506801282941 0.15893233911073451 0 -0.092341765585087027 0.17587817712457149 0 -0.086724950762150824 0.16081388863678089 0 -0.092341765585087027 0.17587817712457149 0 -0.07268255265623963 0.17313391319111099 0 -0.086724950762150824 0.16081388863678089 0 -0.074428945523627582 0.1607656623846471 0 -0.075825762203832567 0.148994874922906 0 -0.092341765585087027 0.17587817712457149 0 -0.07268255265623963 0.17313391319111099 0 -0.085325504638500249 0.18762037783136201 0 -0.1027312821066112 0.18427916847339121 0 -0.092341765585087027 0.17587817712457149 0 -0.085325504638500249 0.18762037783136201 0 -0.07268255265623963 0.17313391319111099 0 -0.054189891955257703 0.17129549705326569 0 -0.060745163961926273 0.18699680179507969 0 -0.072851749495024404 0.18591105040507161 0 -0.07268255265623963 0.17313391319111099 0 -0.085325504638500249 0.18762037783136201 0 -0.072851749495024404 0.18591105040507161 0 -0.07268255265623963 0.17313391319111099 0 -0.060745163961926273 0.18699680179507969 0 -0.07268255265623963 0.17313391319111099 0 -0.062482516472287343 0.16011997278779061 0 -0.054189891955257703 0.17129549705326569 0 -0.074428945523627582 0.1607656623846471 0 -0.075825762203832567 0.148994874922906 0 -0.062482516472287343 0.16011997278779061 0 -0.086724950762150824 0.16081388863678089 0 -0.07268255265623963 0.17313391319111099 0 -0.074428945523627582 0.1607656623846471 0 -0.07268255265623963 0.17313391319111099 0 -0.062482516472287343 0.16011997278779061 0 -0.07268255265623963 0.17313391319111099 0 -0.074428945523627582 0.1607656623846471 0 -0.062482516472287343 0.16011997278779061 0 -0.075825762203832567 0.148994874922906 0 -0.06393286309935628 0.13586655233475969 0 -0.052282480288335639 0.14710603238446959 0 -0.075825762203832567 0.148994874922906 0 -0.052282480288335639 0.14710603238446959 0 -0.075825762203832567 0.148994874922906 0 -0.052282480288335639 0.14710603238446959 0 -0.062482516472287343 0.16011997278779061 0 -0.06393286309935628 0.13586655233475969 0 -0.06924419713596075 0.12796564369919339 0 -0.074831595363692743 0.13543881148224271 0 -0.06393286309935628 0.13586655233475969 0 -0.06924419713596075 0.12796564369919339 0 -0.061526314442407443 0.12438195450412939 0 -0.06924419713596075 0.12796564369919339 0 -0.076398939557521084 0.12758254843051961 0 -0.074831595363692743 0.13543881148224271 0 -0.06924419713596075 0.12796564369919339 0 -0.076398939557521084 0.12758254843051961 0 -0.072562478606246955 0.12457121092752679 0 -0.075825762203832567 0.148994874922906 0 -0.06393286309935628 0.13586655233475969 0 -0.074831595363692743 0.13543881148224271 0 -0.076398939557521084 0.12758254843051961 0 -0.08864630119501192 0.13570557145670081 0 -0.079182561068598958 0.1198277752789437 0 -0.08864630119501192 0.13570557145670081 0 -0.079182561068598958 0.1198277752789437 0 -0.075825762203832567 0.148994874922906 0 -0.074831595363692743 0.13543881148224271 0 -0.08864630119501192 0.13570557145670081 0 -0.099212902556495619 0.1273404001128817 0 -0.08864630119501192 0.13570557145670081 0 -0.079182561068598958 0.1198277752789437 0 -0.076398939557521084 0.12758254843051961 0 -0.074831595363692743 0.13543881148224271 0 -0.08864630119501192 0.13570557145670081 0 -0.099369044119329425 0.15088371746134491 0 -0.086724950762150824 0.16081388863678089 0 -0.075825762203832567 0.148994874922906 0 -0.099369044119329425 0.15088371746134491 0 -0.075825762203832567 0.148994874922906 0 -0.099369044119329425 0.15088371746134491 0 -0.075825762203832567 0.148994874922906 0 -0.08864630119501192 0.13570557145670081 0 -0.1152752904441029 0.23943124491355111 0 -0.092335731154345291 0.22996466022221251 0 -0.090939200216336349 0.2439314318156699 0 -0.1035038409983251 0.25360306606961891 0 -0.1152752904441029 0.23943124491355111 0 -0.090939200216336349 0.2439314318156699 0 -0.1330808940887391 0.2402923867290355 0 -0.1152752904441029 0.23943124491355111 0 -0.1187380372045829 0.2270097686950808 0 -0.1152752904441029 0.23943124491355111 0 -0.1187380372045829 0.2270097686950808 0 -0.105953638948746 0.2208074642061798 0 -0.1187380372045829 0.2270097686950808 0 -0.105953638948746 0.2208074642061798 0 -0.122401011987299 0.21427721314638681 0 -0.13147137290810271 0.2244418866308466 0 -0.1187380372045829 0.2270097686950808 0 -0.122401011987299 0.21427721314638681 0 -0.1152752904441029 0.23943124491355111 0 -0.094816849916433077 0.21885559263081369 0 -0.1152752904441029 0.23943124491355111 0 -0.105953638948746 0.2208074642061798 0 -0.094816849916433077 0.21885559263081369 0 -0.1152752904441029 0.23943124491355111 0 -0.094816849916433077 0.21885559263081369 0 -0.092335731154345291 0.22996466022221251 0 -0.1137269586800382 0.20578543715451111 0 -0.091596550973636476 0.21386960355775331 0 -0.096852291255375353 0.20438629244954981 0 -0.1137269586800382 0.20578543715451111 0 -0.091596550973636476 0.21386960355775331 0 -0.105953638948746 0.2208074642061798 0 -0.1137269586800382 0.20578543715451111 0 -0.091596550973636476 0.21386960355775331 0 -0.105953638948746 0.2208074642061798 0 -0.094816849916433077 0.21885559263081369 0 -0.091596550973636476 0.21386960355775331 0 -0.105953638948746 0.2208074642061798 0 -0.122401011987299 0.21427721314638681 0 -0.13585736638644 0.19770127075126909 0 -0.122401011987299 0.21427721314638681 0 -0.1137269586800382 0.20578543715451111 0 -0.105953638948746 0.2208074642061798 0 -0.122401011987299 0.21427721314638681 0 -0.1137269586800382 0.20578543715451111 0 -0.1137269586800382 0.20578543715451111 0 -0.12346321599477129 0.19095731774844921 0 -0.1132426364468139 0.19195154232862949 0 -0.13585736638644 0.19770127075126909 0 -0.1137269586800382 0.20578543715451111 0 -0.1137269586800382 0.20578543715451111 0 -0.1132426364468139 0.19195154232862949 0 -0.10418848850887689 0.19632998632326071 0 -0.13585736638644 0.19770127075126909 0 -0.1137269586800382 0.20578543715451111 0 -0.12346321599477129 0.19095731774844921 0 -0.1184336147080278 0.18115385132504641 0 -0.12346321599477129 0.19095731774844921 0 -0.1132426364468139 0.19195154232862949 0 -0.1027312821066112 0.18427916847339121 0 -0.1132426364468139 0.19195154232862949 0 -0.10418848850887689 0.19632998632326071 0 -0.096852291255375353 0.20438629244954981 0 -0.1137269586800382 0.20578543715451111 0 -0.10418848850887689 0.19632998632326071 0 -0.1027312821066112 0.18427916847339121 0 -0.094993389970201167 0.19597968918281039 0 -0.085325504638500249 0.18762037783136201 0 -0.096852291255375353 0.20438629244954981 0 -0.10418848850887689 0.19632998632326071 0 -0.094993389970201167 0.19597968918281039 0 -0.1027312821066112 0.18427916847339121 0 -0.10418848850887689 0.19632998632326071 0 -0.094993389970201167 0.19597968918281039 0 -0.094993389970201167 0.19597968918281039 0 -0.08759418567509214 0.2009521216570968 0 -0.085325504638500249 0.18762037783136201 0 -0.096852291255375353 0.20438629244954981 0 -0.094993389970201167 0.19597968918281039 0 -0.08759418567509214 0.2009521216570968 0 -0.08759418567509214 0.2009521216570968 0 -0.085325504638500249 0.18762037783136201 0 -0.075403901125644809 0.1986617135874143 0 -0.075403901125644809 0.1986617135874143 0 -0.064347163679187067 0.20570255093185799 0 -0.060745163961926273 0.18699680179507969 0 -0.072851749495024404 0.18591105040507161 0 -0.085325504638500249 0.18762037783136201 0 -0.075403901125644809 0.1986617135874143 0 -0.072851749495024404 0.18591105040507161 0 -0.075403901125644809 0.1986617135874143 0 -0.060745163961926273 0.18699680179507969 0 -0.075403901125644809 0.1986617135874143 0 -0.074123625378211599 0.2145441115511211 0 -0.084457494695378429 0.2109699806148006 0 -0.075403901125644809 0.1986617135874143 0 -0.064347163679187067 0.20570255093185799 0 -0.074123625378211599 0.2145441115511211 0 -0.064347163679187067 0.20570255093185799 0 -0.074123625378211599 0.2145441115511211 0 -0.061220935052361258 0.21924288083388679 0 -0.084457494695378429 0.2109699806148006 0 -0.08896839576338797 0.21917766775659131 0 -0.083610573988385187 0.22205640589728509 0 -0.074123625378211599 0.2145441115511211 0 -0.084457494695378429 0.2109699806148006 0 -0.083610573988385187 0.22205640589728509 0 -0.08759418567509214 0.2009521216570968 0 -0.075403901125644809 0.1986617135874143 0 -0.084457494695378429 0.2109699806148006 0 -0.096852291255375353 0.20438629244954981 0 -0.08759418567509214 0.2009521216570968 0 -0.090044251775737189 0.20751612769357719 0 -0.096852291255375353 0.20438629244954981 0 -0.090044251775737189 0.20751612769357719 0 -0.091596550973636476 0.21386960355775331 0 -0.084457494695378429 0.2109699806148006 0 -0.090044251775737189 0.20751612769357719 0 -0.091596550973636476 0.21386960355775331 0 -0.08759418567509214 0.2009521216570968 0 -0.084457494695378429 0.2109699806148006 0 -0.090044251775737189 0.20751612769357719 0 -0.084457494695378429 0.2109699806148006 0 -0.091596550973636476 0.21386960355775331 0 -0.08896839576338797 0.21917766775659131 0 -0.094816849916433077 0.21885559263081369 0 -0.091596550973636476 0.21386960355775331 0 -0.08896839576338797 0.21917766775659131 0 -0.092335731154345291 0.22996466022221251 0 -0.083610573988385187 0.22205640589728509 0 -0.076344399997561652 0.23087449187292891 0 -0.094816849916433077 0.21885559263081369 0 -0.08896839576338797 0.21917766775659131 0 -0.092335731154345291 0.22996466022221251 0 -0.08896839576338797 0.21917766775659131 0 -0.092335731154345291 0.22996466022221251 0 -0.083610573988385187 0.22205640589728509 0 -0.074123625378211599 0.2145441115511211 0 -0.083610573988385187 0.22205640589728509 0 -0.076344399997561652 0.23087449187292891 0 -0.076344399997561652 0.23087449187292891 0 -0.056679248879158359 0.23793658381277391 0 -0.061220935052361258 0.21924288083388679 0 -0.074123625378211599 0.2145441115511211 0 -0.076344399997561652 0.23087449187292891 0 -0.061220935052361258 0.21924288083388679 0 -0.071638134720231256 0.25160056824951232 0 -0.076344399997561652 0.23087449187292891 0 -0.056679248879158359 0.23793658381277391 0 -0.071638134720231256 0.25160056824951232 0 -0.076344399997561652 0.23087449187292891 0 -0.090939200216336349 0.2439314318156699 0 -0.092335731154345291 0.22996466022221251 0 -0.076344399997561652 0.23087449187292891 0 -0.090939200216336349 0.2439314318156699 0 -0.047582303092072953 0.25568351472948869 0 -0.056679248879158359 0.23793658381277391 0 -0.029944724650433258 0.23787687703822741 0 -0.071638134720231256 0.25160056824951232 0 -0.047582303092072953 0.25568351472948869 0 -0.056679248879158359 0.23793658381277391 0 -0.056679248879158359 0.23793658381277391 0 -0.061220935052361258 0.21924288083388679 0 -0.045277370134739973 0.22256334159047311 0 -0.056679248879158359 0.23793658381277391 0 -0.045277370134739973 0.22256334159047311 0 -0.029944724650433258 0.23787687703822741 0 -0.045277370134739973 0.22256334159047311 0 -0.028616632515775401 0.21882142623488959 0 -0.029944724650433258 0.23787687703822741 0 -0.045277370134739973 0.22256334159047311 0 -0.029944724650433258 0.23787687703822741 0 -0.045277370134739973 0.22256334159047311 0 -0.03945446353356314 0.20937906701105169 0 -0.028616632515775401 0.21882142623488959 0 -0.045277370134739973 0.22256334159047311 0 -0.03945446353356314 0.20937906701105169 0 -0.051289239372288742 0.20252517773943299 0 -0.03945446353356314 0.20937906701105169 0 -0.025872255210923779 0.20777865007133969 0 -0.028616632515775401 0.21882142623488959 0 -0.03945446353356314 0.20937906701105169 0 -0.032605469795445451 0.1992359878133754 0 -0.025872255210923779 0.20777865007133969 0 -0.061220935052361258 0.21924288083388679 0 -0.045277370134739973 0.22256334159047311 0 -0.051289239372288742 0.20252517773943299 0 -0.064347163679187067 0.20570255093185799 0 -0.061220935052361258 0.21924288083388679 0 -0.051289239372288742 0.20252517773943299 0 -0.051289239372288742 0.20252517773943299 0 -0.060745163961926273 0.18699680179507969 0 -0.0426937988389181 0.18120244728351129 0 -0.064347163679187067 0.20570255093185799 0 -0.051289239372288742 0.20252517773943299 0 -0.060745163961926273 0.18699680179507969 0 -0.051289239372288742 0.20252517773943299 0 -0.0426937988389181 0.18120244728351129 0 -0.051289239372288742 0.20252517773943299 0 -0.038628630183204032 0.19609758404121561 0 -0.0426937988389181 0.18120244728351129 0 -0.03945446353356314 0.20937906701105169 0 -0.051289239372288742 0.20252517773943299 0 -0.038628630183204032 0.19609758404121561 0 -0.03945446353356314 0.20937906701105169 0 -0.032605469795445451 0.1992359878133754 0 -0.038628630183204032 0.19609758404121561 0 -0.032605469795445451 0.1992359878133754 0 -0.038628630183204032 0.19609758404121561 0 -0.026466530254090868 0.18368865012989441 0 -0.0061981848681682619 0.19193411792754611 0 -0.018834702202629949 0.20749758343219929 0 -0.026466530254090868 0.18368865012989441 0 -0.018834702202629949 0.20749758343219929 0 -0.026466530254090868 0.18368865012989441 0 -0.018834702202629949 0.20749758343219929 0 -0.025872255210923779 0.20777865007133969 0 -0.026466530254090868 0.18368865012989441 0 -0.032605469795445451 0.1992359878133754 0 -0.025872255210923779 0.20777865007133969 0 -0.026466530254090868 0.18368865012989441 0 -0.0061981848681682619 0.19193411792754611 0 -0.001602706809603015 0.20680936992601021 0 -0.018834702202629949 0.20749758343219929 0 -0.018834702202629949 0.20749758343219929 0 -0.012316279362362129 0.2278330382660462 0 -0.001602706809603015 0.20680936992601021 0 -0.018834702202629949 0.20749758343219929 0 -0.001602706809603015 0.20680936992601021 0 -0.01199624464277468 0.21346602965314421 0 -0.018834702202629949 0.20749758343219929 0 -0.01199624464277468 0.21346602965314421 0 -0.018834702202629949 0.20749758343219929 0 -0.012316279362362129 0.2278330382660462 0 -0.001602706809603015 0.20680936992601021 0 -0.01199624464277468 0.21346602965314421 0 -0.001602706809603015 0.20680936992601021 0 -0.01199624464277468 0.21346602965314421 0 -0.003139704241699457 0.22136150160240811 0 -0.018834702202629949 0.20749758343219929 0 -0.028616632515775401 0.21882142623488959 0 -0.012316279362362129 0.2278330382660462 0 -0.018834702202629949 0.20749758343219929 0 -0.025872255210923779 0.20777865007133969 0 -0.018834702202629949 0.20749758343219929 0 -0.025872255210923779 0.20777865007133969 0 -0.028616632515775401 0.21882142623488959 0 -0.028616632515775401 0.21882142623488959 0 -0.012316279362362129 0.2278330382660462 0 -0.029944724650433258 0.23787687703822741 0 -0.01199624464277468 0.21346602965314421 0 -0.003139704241699457 0.22136150160240811 0 -0.012316279362362129 0.2278330382660462 0 -0.003139704241699457 0.22136150160240811 0 -0.00082449247007008162 0.2337027100525623 0 -0.012316279362362129 0.2278330382660462 0 -0.00082449247007008162 0.2337027100525623 0 -0.012316279362362129 0.2278330382660462 0 -0.0057978565220940534 0.248168493099893 0 -0.012316279362362129 0.2278330382660462 0 -0.0057978565220940534 0.248168493099893 0 -0.012316279362362129 0.2278330382660462 0 -0.0057978565220940534 0.248168493099893 0 -0.01613586543567146 0.24026983690069759 0 -0.01461207916612659 0.25319041248598168 0 -0.0057978565220940534 0.248168493099893 0 -0.01613586543567146 0.24026983690069759 0 -0.029749535491655169 0.25695285520579519 0 -0.01461207916612659 0.25319041248598168 0 -0.029944724650433258 0.23787687703822741 0 -0.012316279362362129 0.2278330382660462 0 -0.01613586543567146 0.24026983690069759 0 -0.029944724650433258 0.23787687703822741 0 -0.01461207916612659 0.25319041248598168 0 -0.01613586543567146 0.24026983690069759 0 -0.029944724650433258 0.23787687703822741 0 -0.01461207916612659 0.25319041248598168 0 -0.029944724650433258 0.23787687703822741 0 -0.032853147483055657 0.1412821973789391 0 -0.042282590727364483 0.13434745345010909 0 -0.034098358305549782 0.1598797168275887 0 -0.042282590727364483 0.13434745345010909 0 -0.050687933374639879 0.14697810425401781 0 -0.034098358305549782 0.1598797168275887 0 -0.042282590727364483 0.13434745345010909 0 -0.034098358305549782 0.1598797168275887 0 -0.050687933374639879 0.14697810425401781 0 -0.050804904717382388 0.1573901017679061 0 -0.034098358305549782 0.1598797168275887 0 -0.032853147483055657 0.1412821973789391 0 -0.036460949130396658 0.12691978403540641 0 -0.032853147483055657 0.1412821973789391 0 -0.036460949130396658 0.12691978403540641 0 -0.030362425397725192 0.13278716539391011 0 -0.032853147483055657 0.1412821973789391 0 -0.036460949130396658 0.12691978403540641 0 -0.042282590727364483 0.13434745345010909 0 -0.036460949130396658 0.12691978403540641 0 -0.04184079065887053 0.12812381219083741 0 -0.037738991333908588 0.12183198481815879 0 -0.036460949130396658 0.12691978403540641 0 -0.04184079065887053 0.12812381219083741 0 -0.042282590727364483 0.13434745345010909 0 -0.036460949130396658 0.12691978403540641 0 -0.042282590727364483 0.13434745345010909 0 -0.042282590727364483 0.13434745345010909 0 -0.0534190006399917 0.13270632150912459 0 -0.052282480288335639 0.14710603238446959 0 -0.042282590727364483 0.13434745345010909 0 -0.0534190006399917 0.13270632150912459 0 -0.052160993875678213 0.1229397652683734 0 -0.0534190006399917 0.13270632150912459 0 -0.052160993875678213 0.1229397652683734 0 -0.061526314442407443 0.12438195450412939 0 -0.06393286309935628 0.13586655233475969 0 -0.0534190006399917 0.13270632150912459 0 -0.061526314442407443 0.12438195450412939 0 -0.06393286309935628 0.13586655233475969 0 -0.0534190006399917 0.13270632150912459 0 -0.052282480288335639 0.14710603238446959 0 -0.042282590727364483 0.13434745345010909 0 -0.052282480288335639 0.14710603238446959 0 -0.050687933374639879 0.14697810425401781 0 -0.042282590727364483 0.13434745345010909 0 -0.052282480288335639 0.14710603238446959 0 -0.052282480288335639 0.14710603238446959 0 -0.050687933374639879 0.14697810425401781 0 -0.052282480288335639 0.14710603238446959 0 -0.050687933374639879 0.14697810425401781 0 -0.050804904717382388 0.1573901017679061 0 -0.052282480288335639 0.14710603238446959 0 -0.062482516472287343 0.16011997278779061 0 -0.052282480288335639 0.14710603238446959 0 -0.062482516472287343 0.16011997278779061 0 -0.050804904717382388 0.1573901017679061 0 -0.062482516472287343 0.16011997278779061 0 -0.054189891955257703 0.17129549705326569 0 -0.050804904717382388 0.1573901017679061 0 -0.054189891955257703 0.17129549705326569 0 -0.060745163961926273 0.18699680179507969 0 -0.0426937988389181 0.18120244728351129 0 -0.038628630183204032 0.19609758404121561 0 -0.0426937988389181 0.18120244728351129 0 -0.026466530254090868 0.18368865012989441 0 -0.0426937988389181 0.18120244728351129 0 -0.034098358305549782 0.1598797168275887 0 -0.026466530254090868 0.18368865012989441 0 -0.054189891955257703 0.17129549705326569 0 -0.050804904717382388 0.1573901017679061 0 -0.034098358305549782 0.1598797168275887 0 -0.054189891955257703 0.17129549705326569 0 -0.0426937988389181 0.18120244728351129 0 -0.034098358305549782 0.1598797168275887 0 -0.0426937988389181 0.18120244728351129 0 -0.034098358305549782 0.1598797168275887 0 -0.034098358305549782 0.1598797168275887 0 -0.016579249133915449 0.16126908342990551 0 -0.026466530254090868 0.18368865012989441 0 -0.034098358305549782 0.1598797168275887 0 -0.026466530254090868 0.18368865012989441 0 -0.0061981848681682619 0.19193411792754611 0 -0.026466530254090868 0.18368865012989441 0 -0.002701260771012464 0.1728142388753324 0 -0.016579249133915449 0.16126908342990551 0 -0.026466530254090868 0.18368865012989441 0 -0.002701260771012464 0.1728142388753324 0 -0.016579249133915449 0.16126908342990551 0 -0.002701260771012464 0.1728142388753324 0 -0.00024712202030362072 0.1473968854258208 0 -0.016579249133915449 0.16126908342990551 0 -0.00024712202030362072 0.1473968854258208 0 -0.025336698312534128 0.13814464534961909 0 -0.034098358305549782 0.1598797168275887 0 -0.016579249133915449 0.16126908342990551 0 -0.025336698312534128 0.13814464534961909 0 -0.034098358305549782 0.1598797168275887 0 -0.025336698312534128 0.13814464534961909 0 -0.032853147483055657 0.1412821973789391 0 -0.034098358305549782 0.1598797168275887 0 -0.025336698312534128 0.13814464534961909 0 -0.025336698312534128 0.13814464534961909 0 -0.0067714202443985112 0.13048780818951489 0 -0.016575038319520782 0.11640957387164851 0 -0.025336698312534128 0.13814464534961909 0 -0.026798906664914721 0.12480203481167559 0 -0.016575038319520782 0.11640957387164851 0 -0.025336698312534128 0.13814464534961909 0 -0.016575038319520782 0.11640957387164851 0 -0.036460949130396658 0.12691978403540641 0 -0.030362425397725192 0.13278716539391011 0 -0.026798906664914721 0.12480203481167559 0 -0.030362425397725192 0.13278716539391011 0 -0.025336698312534128 0.13814464534961909 0 -0.026798906664914721 0.12480203481167559 0 -0.032853147483055657 0.1412821973789391 0 -0.030362425397725192 0.13278716539391011 0 -0.025336698312534128 0.13814464534961909 0 -0.00024712202030362072 0.1473968854258208 0 -0.025336698312534128 0.13814464534961909 0 -0.0067714202443985112 0.13048780818951489 0 -0.0067714202443985112 0.13048780818951489 0 -0.016575038319520782 0.11640957387164851 0 0.00092319635324896745 0.109521186301824 0 -0.0074522598989649946 0.093778675022956726 0 -0.016575038319520782 0.11640957387164851 0 -0.0074522598989649946 0.093778675022956726 0 -0.016575038319520782 0.11640957387164851 0 0.00092319635324896745 0.109521186301824 0 -0.0074522598989649946 0.093778675022956726 0 -0.017640966908812849 0.1029078959787179 0 -0.016575038319520782 0.11640957387164851 0 -0.010436192715117219 0.09416015081718862 0 -0.020541228441783421 0.09545201184997075 0 -0.0074522598989649946 0.093778675022956726 0 -0.010436192715117219 0.09416015081718862 0 -0.017640966908812849 0.1029078959787179 0 -0.0074522598989649946 0.093778675022956726 0 -0.010436192715117219 0.09416015081718862 0 -0.017640966908812849 0.1029078959787179 0 -0.027050958019604551 0.1149138400070623 0 -0.017640966908812849 0.1029078959787179 0 -0.020541228441783421 0.09545201184997075 0 -0.02914010988784407 0.108641998334066 0 -0.020541228441783421 0.09545201184997075 0 -0.02914010988784407 0.108641998334066 0 -0.043624286126579717 0.09840302593314551 0 -0.010436192715117219 0.09416015081718862 0 -0.017640966908812849 0.1029078959787179 0 -0.020541228441783421 0.09545201184997075 0 -0.010436192715117219 0.09416015081718862 0 -0.020541228441783421 0.09545201184997075 0 -0.018649044519934769 0.092549555232668168 0 -0.020541228441783421 0.09545201184997075 0 -0.018649044519934769 0.092549555232668168 0 -0.020541228441783421 0.09545201184997075 0 -0.02914010988784407 0.108641998334066 0 -0.017640966908812849 0.1029078959787179 0 -0.02914010988784407 0.108641998334066 0 -0.027050958019604551 0.1149138400070623 0 -0.027050958019604551 0.1149138400070623 0 -0.026798906664914721 0.12480203481167559 0 -0.016575038319520782 0.11640957387164851 0 -0.036460949130396658 0.12691978403540641 0 -0.027050958019604551 0.1149138400070623 0 -0.026798906664914721 0.12480203481167559 0 -0.017640966908812849 0.1029078959787179 0 -0.027050958019604551 0.1149138400070623 0 -0.016575038319520782 0.11640957387164851 0 -0.0062269771088821323 0.073495111665313584 0 -0.022463663334822071 0.073937901731159966 0 -0.0093948772962137248 0.063904729251021919 0 -0.0062269771088821323 0.073495111665313584 0 -0.022463663334822071 0.073937901731159966 0 -0.0093948772962137248 0.063904729251021919 0 -0.0062269771088821323 0.073495111665313584 0 0.00095884702937116054 0.062472640445640243 0 -0.0062269771088821323 0.073495111665313584 0 0.00095884702937116054 0.062472640445640243 0 -0.0074522598989649946 0.093778675022956726 0 0.0002423273491216037 0.074690693525847993 0 -0.0074522598989649946 0.093778675022956726 0 0.002874008234509705 0.085690997834103805 0 0.0002423273491216037 0.074690693525847993 0 -0.0074522598989649946 0.093778675022956726 0 -0.0062269771088821323 0.073495111665313584 0 0.0002423273491216037 0.074690693525847993 0 -0.010436192715117219 0.09416015081718862 0 -0.0062269771088821323 0.073495111665313584 0 -0.018649044519934769 0.092549555232668168 0 -0.0062269771088821323 0.073495111665313584 0 -0.018649044519934769 0.092549555232668168 0 -0.0074522598989649946 0.093778675022956726 0 -0.010436192715117219 0.09416015081718862 0 -0.0062269771088821323 0.073495111665313584 0 -0.010436192715117219 0.09416015081718862 0 -0.018649044519934769 0.092549555232668168 0 -0.020541228441783421 0.09545201184997075 0 -0.018649044519934769 0.092549555232668168 0 -0.046464914925729683 0.087094675597700649 0 -0.018649044519934769 0.092549555232668168 0 -0.022463663334822071 0.073937901731159966 0 -0.038700349560762008 0.074380691797007528 0 -0.0062269771088821323 0.073495111665313584 0 -0.018649044519934769 0.092549555232668168 0 -0.022463663334822071 0.073937901731159966 0 -0.022463663334822071 0.073937901731159966 0 -0.038700349560762008 0.074380691797007528 0 -0.031060739928320251 0.059870729118280487 0 -0.0093948772962137248 0.063904729251021919 0 -0.022463663334822071 0.073937901731159966 0 -0.017885502097283089 0.058171534956541551 0 -0.022463663334822071 0.073937901731159966 0 -0.038700349560762008 0.074380691797007528 0 -0.022463663334822071 0.073937901731159966 0 -0.017885502097283089 0.058171534956541551 0 -0.031060739928320251 0.059870729118280487 0 -0.046415806099562598 0.069611315650668401 0 -0.038700349560762008 0.074380691797007528 0 -0.042057471719909083 0.061345079424629953 0 -0.038700349560762008 0.074380691797007528 0 -0.042057471719909083 0.061345079424629953 0 -0.031060739928320251 0.059870729118280487 0 -0.046415806099562598 0.069611315650668401 0 -0.038700349560762008 0.074380691797007528 0 -0.048521318700447118 0.078908271825909482 0 -0.018649044519934769 0.092549555232668168 0 -0.038700349560762008 0.074380691797007528 0 -0.046464914925729683 0.087094675597700649 0 -0.020541228441783421 0.09545201184997075 0 -0.046464914925729683 0.087094675597700649 0 -0.043624286126579717 0.09840302593314551 0 -0.018649044519934769 0.092549555232668168 0 -0.046464914925729683 0.087094675597700649 0 -0.038700349560762008 0.074380691797007528 0 -0.046464914925729683 0.087094675597700649 0 -0.048521318700447118 0.078908271825909482 0 -0.046464914925729683 0.087094675597700649 0 -0.043624286126579717 0.09840302593314551 0 -0.046464914925729683 0.087094675597700649 0 -0.05335071186307834 0.085744324415584522 0 -0.043624286126579717 0.09840302593314551 0 -0.046464914925729683 0.087094675597700649 0 -0.05335071186307834 0.085744324415584522 0 -0.05335071186307834 0.085744324415584522 0 -0.064147110942606667 0.10102673141817101 0 -0.046464914925729683 0.087094675597700649 0 -0.048521318700447118 0.078908271825909482 0 -0.046464914925729683 0.087094675597700649 0 -0.05335071186307834 0.085744324415584522 0 -0.048521318700447118 0.078908271825909482 0 -0.05335071186307834 0.085744324415584522 0 -0.048521318700447118 0.078908271825909482 0 -0.060847773397546753 0.077660404788921666 0 -0.05335071186307834 0.085744324415584522 0 -0.048521318700447118 0.078908271825909482 0 -0.048521318700447118 0.078908271825909482 0 -0.05455185833627909 0.054901103084188628 0 -0.048521318700447118 0.078908271825909482 0 -0.05841350924332548 0.069316192116131325 0 -0.05455185833627909 0.054901103084188628 0 -0.046415806099562598 0.069611315650668401 0 -0.048521318700447118 0.078908271825909482 0 -0.05455185833627909 0.054901103084188628 0 -0.060847773397546753 0.077660404788921666 0 -0.05841350924332548 0.069316192116131325 0 -0.065001301614403484 0.072560410939637526 0 -0.048521318700447118 0.078908271825909482 0 -0.060847773397546753 0.077660404788921666 0 -0.05841350924332548 0.069316192116131325 0 -0.05841350924332548 0.069316192116131325 0 -0.063145294167952198 0.062550769941999651 0 -0.065001301614403484 0.072560410939637526 0 -0.037738991333908588 0.12183198481815879 0 -0.043624286126579717 0.09840302593314551 0 -0.05017780829227611 0.1097168266667712 0 -0.04184079065887053 0.12812381219083741 0 -0.037738991333908588 0.12183198481815879 0 -0.05017780829227611 0.1097168266667712 0 -0.02914010988784407 0.108641998334066 0 -0.037738991333908588 0.12183198481815879 0 -0.043624286126579717 0.09840302593314551 0 -0.042282590727364483 0.13434745345010909 0 -0.05017780829227611 0.1097168266667712 0 -0.04184079065887053 0.12812381219083741 0 -0.042282590727364483 0.13434745345010909 0 -0.05017780829227611 0.1097168266667712 0 -0.037738991333908588 0.12183198481815879 0 -0.043624286126579717 0.09840302593314551 0 -0.04184079065887053 0.12812381219083741 0 -0.037738991333908588 0.12183198481815879 0 -0.036460949130396658 0.12691978403540641 0 -0.027050958019604551 0.1149138400070623 0 -0.037738991333908588 0.12183198481815879 0 -0.036460949130396658 0.12691978403540641 0 -0.027050958019604551 0.1149138400070623 0 -0.036460949130396658 0.12691978403540641 0 -0.037738991333908588 0.12183198481815879 0 -0.02914010988784407 0.108641998334066 0 -0.027050958019604551 0.1149138400070623 0 -0.037738991333908588 0.12183198481815879 0 -0.02914010988784407 0.108641998334066 0 -0.037738991333908588 0.12183198481815879 0 -0.020541228441783421 0.09545201184997075 0 -0.043624286126579717 0.09840302593314551 0 -0.043624286126579717 0.09840302593314551 0 -0.05017780829227611 0.1097168266667712 0 -0.064147110942606667 0.10102673141817101 0 -0.043624286126579717 0.09840302593314551 0 -0.064147110942606667 0.10102673141817101 0 -0.05335071186307834 0.085744324415584522 0 -0.043624286126579717 0.09840302593314551 0 -0.064147110942606667 0.10102673141817101 0 -0.057319309826329837 0.1147930991755559 0 -0.05017780829227611 0.1097168266667712 0 -0.064147110942606667 0.10102673141817101 0 -0.057319309826329837 0.1147930991755559 0 -0.065280919419429845 0.11461379436158579 0 -0.064147110942606667 0.10102673141817101 0 -0.042282590727364483 0.13434745345010909 0 -0.05017780829227611 0.1097168266667712 0 -0.052160993875678213 0.1229397652683734 0 -0.057319309826329837 0.1147930991755559 0 -0.05017780829227611 0.1097168266667712 0 -0.052160993875678213 0.1229397652683734 0 -0.057319309826329837 0.1147930991755559 0 -0.061526314442407443 0.12438195450412939 0 -0.065280919419429845 0.11461379436158579 0 -0.057319309826329837 0.1147930991755559 0 -0.052160993875678213 0.1229397652683734 0 -0.061526314442407443 0.12438195450412939 0 -0.061526314442407443 0.12438195450412939 0 -0.069798242961644552 0.12169796297460141 0 -0.065280919419429845 0.11461379436158579 0 -0.065280919419429845 0.11461379436158579 0 -0.076797259535997614 0.11893313873262711 0 -0.064147110942606667 0.10102673141817101 0 -0.06924419713596075 0.12796564369919339 0 -0.061526314442407443 0.12438195450412939 0 -0.069798242961644552 0.12169796297460141 0 -0.076797259535997614 0.11893313873262711 0 -0.064147110942606667 0.10102673141817101 0 -0.076797259535997614 0.11893313873262711 0 -0.078236338174484887 0.1115379065805726 0 -0.064147110942606667 0.10102673141817101 0 -0.076797259535997614 0.11893313873262711 0 -0.079182561068598958 0.1198277752789437 0 -0.078236338174484887 0.1115379065805726 0 -0.065280919419429845 0.11461379436158579 0 -0.076797259535997614 0.11893313873262711 0 -0.069798242961644552 0.12169796297460141 0 -0.065280919419429845 0.11461379436158579 0 -0.076797259535997614 0.11893313873262711 0 -0.06924419713596075 0.12796564369919339 0 -0.069798242961644552 0.12169796297460141 0 -0.072562478606246955 0.12457121092752679 0 -0.069798242961644552 0.12169796297460141 0 -0.072562478606246955 0.12457121092752679 0 -0.075813793446278727 0.12169985916474201 0 -0.069798242961644552 0.12169796297460141 0 -0.076797259535997614 0.11893313873262711 0 -0.075813793446278727 0.12169985916474201 0 -0.076797259535997614 0.11893313873262711 0 -0.079182561068598958 0.1198277752789437 0 -0.076797259535997614 0.11893313873262711 0 -0.075813793446278727 0.12169985916474201 0 -0.079182561068598958 0.1198277752789437 0 -0.075813793446278727 0.12169985916474201 0 -0.079182561068598958 0.1198277752789437 0 -0.076398939557521084 0.12758254843051961 0 -0.072562478606246955 0.12457121092752679 0 -0.075813793446278727 0.12169985916474201 0 -0.076398939557521084 0.12758254843051961 0 -0.075813793446278727 0.12169985916474201 0 -0.079182561068598958 0.1198277752789437 0 -0.099212902556495619 0.1273404001128817 0 -0.0855149281789465 0.11845677674353459 0 -0.079182561068598958 0.1198277752789437 0 -0.099212902556495619 0.1273404001128817 0 -0.079182561068598958 0.1198277752789437 0 -0.0855149281789465 0.11845677674353459 0 -0.079182561068598958 0.1198277752789437 0 -0.085345612926834583 0.1164028581090279 0 -0.079182561068598958 0.1198277752789437 0 -0.085345612926834583 0.1164028581090279 0 -0.0855149281789465 0.11845677674353459 0 -0.085345612926834583 0.1164028581090279 0 -0.085345612926834583 0.1164028581090279 0 -0.084290363941790986 0.1036019111925843 0 -0.079182561068598958 0.1198277752789437 0 -0.078236338174484887 0.1115379065805726 0 -0.085345612926834583 0.1164028581090279 0 -0.078236338174484887 0.1115379065805726 0 -0.085345612926834583 0.1164028581090279 0 -0.084290363941790986 0.1036019111925843 0 -0.099212902556495619 0.1273404001128817 0 -0.0855149281789465 0.11845677674353459 0 -0.085345612926834583 0.1164028581090279 0 -0.089356039477571786 0.095893892693738103 0 -0.084290363941790986 0.1036019111925843 0 -0.082820596102923513 0.085772545467996147 0 -0.085345612926834583 0.1164028581090279 0 -0.089209516068022118 0.1042307917941086 0 -0.1058054021927254 0.1050329905237055 0 -0.084290363941790986 0.1036019111925843 0 -0.077139418910096208 0.094130339345066039 0 -0.082820596102923513 0.085772545467996147 0 -0.084290363941790986 0.1036019111925843 0 -0.082820596102923513 0.085772545467996147 0 -0.089356039477571786 0.095893892693738103 0 -0.092682371670519029 0.089520231820337054 0 -0.097777349604602964 0.096343983193664384 0 -0.089356039477571786 0.095893892693738103 0 -0.089209516068022118 0.1042307917941086 0 -0.097777349604602964 0.096343983193664384 0 -0.089356039477571786 0.095893892693738103 0 -0.089209516068022118 0.1042307917941086 0 -0.084290363941790986 0.1036019111925843 0 -0.085345612926834583 0.1164028581090279 0 -0.089209516068022118 0.1042307917941086 0 -0.084290363941790986 0.1036019111925843 0 -0.089209516068022118 0.1042307917941086 0 -0.084290363941790986 0.1036019111925843 0 -0.078236338174484887 0.1115379065805726 0 -0.084290363941790986 0.1036019111925843 0 -0.064147110942606667 0.10102673141817101 0 -0.077139418910096208 0.094130339345066039 0 -0.064147110942606667 0.10102673141817101 0 -0.07032230859060852 0.089529417995586988 0 -0.084290363941790986 0.1036019111925843 0 -0.077139418910096208 0.094130339345066039 0 -0.064147110942606667 0.10102673141817101 0 -0.084290363941790986 0.1036019111925843 0 -0.064147110942606667 0.10102673141817101 0 -0.05335071186307834 0.085744324415584522 0 -0.064147110942606667 0.10102673141817101 0 -0.07032230859060852 0.089529417995586988 0 -0.05335071186307834 0.085744324415584522 0 -0.07032230859060852 0.089529417995586988 0 -0.07979992312045929 0.080557455849399703 0 -0.05335071186307834 0.085744324415584522 0 -0.07979992312045929 0.080557455849399703 0 -0.05335071186307834 0.085744324415584522 0 -0.060847773397546753 0.077660404788921666 0 -0.07979992312045929 0.080557455849399703 0 -0.077520561681021879 0.087497439664512205 0 -0.07032230859060852 0.089529417995586988 0 -0.07979992312045929 0.080557455849399703 0 -0.077139418910096208 0.094130339345066039 0 -0.077520561681021879 0.087497439664512205 0 -0.07032230859060852 0.089529417995586988 0 -0.060847773397546753 0.077660404788921666 0 -0.065001301614403484 0.072560410939637526 0 -0.07979992312045929 0.080557455849399703 0 -0.063145294167952198 0.062550769941999651 0 -0.069759358484908482 0.066954580053977544 0 -0.06859587237295843 0.058729091286448078 0 -0.063145294167952198 0.062550769941999651 0 -0.069759358484908482 0.066954580053977544 0 -0.065001301614403484 0.072560410939637526 0 -0.069759358484908482 0.066954580053977544 0 -0.065001301614403484 0.072560410939637526 0 -0.073951958761971887 0.071927607459767812 0 -0.065001301614403484 0.072560410939637526 0 -0.073951958761971887 0.071927607459767812 0 -0.07979992312045929 0.080557455849399703 0 -0.069759358484908482 0.066954580053977544 0 -0.073951958761971887 0.071927607459767812 0 -0.081350828264057123 0.067943179743407939 0 -0.069759358484908482 0.066954580053977544 0 -0.081350828264057123 0.067943179743407939 0 -0.06859587237295843 0.058729091286448078 0 -0.081350828264057123 0.067943179743407939 0 -0.07979992312045929 0.080557455849399703 0 -0.082820596102923513 0.085772545467996147 0 -0.081350828264057123 0.067943179743407939 0 -0.092682371670519029 0.089520231820337054 0 -0.095857445511998277 0.074088790490083156 0 -0.081350828264057123 0.067943179743407939 0 -0.082820596102923513 0.085772545467996147 0 -0.073951958761971887 0.071927607459767812 0 -0.081350828264057123 0.067943179743407939 0 -0.07979992312045929 0.080557455849399703 0 -0.081350828264057123 0.067943179743407939 0 -0.091362601322149545 0.065077504728851376 0 -0.095857445511998277 0.074088790490083156 0 -0.081350828264057123 0.067943179743407939 0 -0.091362601322149545 0.065077504728851376 0 -0.089988997293370024 0.055387267108976269 0 -0.081350828264057123 0.067943179743407939 0 -0.092682371670519029 0.089520231820337054 0 -0.081350828264057123 0.067943179743407939 0 -0.082820596102923513 0.085772545467996147 0 -0.092682371670519029 0.089520231820337054 0 -0.077139418910096208 0.094130339345066039 0 -0.077520561681021879 0.087497439664512205 0 -0.082820596102923513 0.085772545467996147 0 -0.077520561681021879 0.087497439664512205 0 -0.07979992312045929 0.080557455849399703 0 -0.082820596102923513 0.085772545467996147 0 -0.089356039477571786 0.095893892693738103 0 -0.082820596102923513 0.085772545467996147 0 -0.092682371670519029 0.089520231820337054 0 -0.10041260693029069 0.08306839314749824 0 -0.10955095956857749 0.07039255997224958 0 -0.1106533834276561 0.087703814174159705 0 -0.092682371670519029 0.089520231820337054 0 -0.10041260693029069 0.08306839314749824 0 -0.097777349604602964 0.096343983193664384 0 -0.092682371670519029 0.089520231820337054 0 -0.10041260693029069 0.08306839314749824 0 -0.095857445511998277 0.074088790490083156 0 -0.10041260693029069 0.08306839314749824 0 -0.1106533834276561 0.087703814174159705 0 -0.097777349604602964 0.096343983193664384 0 -0.091362601322149545 0.065077504728851376 0 -0.095857445511998277 0.074088790490083156 0 -0.10008888381863421 0.060757196194679133 0 -0.10041260693029069 0.08306839314749824 0 -0.095857445511998277 0.074088790490083156 0 -0.10955095956857749 0.07039255997224958 0 -0.095857445511998277 0.074088790490083156 0 -0.10955095956857749 0.07039255997224958 0 -0.10008888381863421 0.060757196194679133 0 -0.10955095956857749 0.07039255997224958 0 -0.1248795464847885 0.076642808073523291 0 -0.1217211956351644 0.062982749220049289 0 -0.12626519145861639 0.093663122938383137 0 -0.1248795464847885 0.076642808073523291 0 -0.1106533834276561 0.087703814174159705 0 -0.10955095956857749 0.07039255997224958 0 -0.1248795464847885 0.076642808073523291 0 -0.1106533834276561 0.087703814174159705 0 -0.12626519145861639 0.093663122938383137 0 -0.1058054021927254 0.1050329905237055 0 -0.12626519145861639 0.093663122938383137 0 -0.1106533834276561 0.087703814174159705 0 -0.1058054021927254 0.1050329905237055 0 -0.1259337058060187 0.11373502102312109 0 -0.12626519145861639 0.093663122938383137 0 -0.1058054021927254 0.1050329905237055 0 -0.1259337058060187 0.11373502102312109 0 -0.112548813649908 0.120240359151632 0 -0.1058054021927254 0.1050329905237055 0 -0.1259337058060187 0.11373502102312109 0 -0.11924324404439229 0.13485302494681981 0 -0.112548813649908 0.120240359151632 0 -0.099212902556495619 0.1273404001128817 0 -0.112548813649908 0.120240359151632 0 -0.1058054021927254 0.1050329905237055 0 -0.085345612926834583 0.1164028581090279 0 -0.1058054021927254 0.1050329905237055 0 -0.099212902556495619 0.1273404001128817 0 -0.085345612926834583 0.1164028581090279 0 -0.1058054021927254 0.1050329905237055 0 -0.089209516068022118 0.1042307917941086 0 -0.1058054021927254 0.1050329905237055 0 -0.097777349604602964 0.096343983193664384 0 -0.1106533834276561 0.087703814174159705 0 -0.1058054021927254 0.1050329905237055 0 -0.097777349604602964 0.096343983193664384 0 -0.1058512762519167 0.01720926832498457 0 -0.091309803581657953 0.033095901966790478 0 -0.089012447313476503 0.013586995425288059 0 -0.1058512762519167 0.01720926832498457 0 -0.1078006442855864 0.033475108370703423 0 -0.091309803581657953 0.033095901966790478 0 -0.1142584850649991 -0.0002901362221794076 0 -0.096491488995410254 -0.0010129761140146209 0 -0.1058512762519167 0.01720926832498457 0 -0.096491488995410254 -0.0010129761140146209 0 -0.1058512762519167 0.01720926832498457 0 -0.089012447313476503 0.013586995425288059 0 -0.1142584850649991 -0.0002901362221794076 0 -0.13058747053558109 -0.00038793411768107971 0 -0.1247012173081732 0.01309277264215865 0 -0.1142584850649991 -0.0002901362221794076 0 -0.1058512762519167 0.01720926832498457 0 -0.1247012173081732 0.01309277264215865 0 -0.1058512762519167 0.01720926832498457 0 -0.1247012173081732 0.01309277264215865 0 -0.1213790430939523 0.02673367147438387 0 -0.1058512762519167 0.01720926832498457 0 -0.1213790430939523 0.02673367147438387 0 -0.1078006442855864 0.033475108370703423 0 -0.13015806471855809 0.035505849361701092 0 -0.1213790430939523 0.02673367147438387 0 -0.1202041553021015 0.040496319341702287 0 -0.1202041553021015 0.040496319341702287 0 -0.1106151500017877 0.043105551815486559 0 -0.1136745135079586 0.053116510413997287 0 -0.1213790430939523 0.02673367147438387 0 -0.1202041553021015 0.040496319341702287 0 -0.1078006442855864 0.033475108370703423 0 -0.1202041553021015 0.040496319341702287 0 -0.1106151500017877 0.043105551815486559 0 -0.1078006442855864 0.033475108370703423 0 -0.10955095956857749 0.07039255997224958 0 -0.1217211956351644 0.062982749220049289 0 -0.1136745135079586 0.053116510413997287 0 -0.12715373759283541 0.049252229664520877 0 -0.1217211956351644 0.062982749220049289 0 -0.1136745135079586 0.053116510413997287 0 -0.12715373759283541 0.049252229664520877 0 -0.1202041553021015 0.040496319341702287 0 -0.1136745135079586 0.053116510413997287 0 -0.10955095956857749 0.07039255997224958 0 -0.1136745135079586 0.053116510413997287 0 -0.10008888381863421 0.060757196194679133 0 -0.1136745135079586 0.053116510413997287 0 -0.10008888381863421 0.060757196194679133 0 -0.1005768454992778 0.045924923261662157 0 -0.1106151500017877 0.043105551815486559 0 -0.1136745135079586 0.053116510413997287 0 -0.1005768454992778 0.045924923261662157 0 -0.10008888381863421 0.060757196194679133 0 -0.1005768454992778 0.045924923261662157 0 -0.089988997293370024 0.055387267108976269 0 -0.091362601322149545 0.065077504728851376 0 -0.10008888381863421 0.060757196194679133 0 -0.089988997293370024 0.055387267108976269 0 -0.1078006442855864 0.033475108370703423 0 -0.1005768454992778 0.045924923261662157 0 -0.091309803581657953 0.033095901966790478 0 -0.1106151500017877 0.043105551815486559 0 -0.1078006442855864 0.033475108370703423 0 -0.1005768454992778 0.045924923261662157 0 -0.1005768454992778 0.045924923261662157 0 -0.091309803581657953 0.033095901966790478 0 -0.09034227970177558 0.044955044680011602 0 -0.091309803581657953 0.033095901966790478 0 -0.07949347243279653 0.045412086382617539 0 -0.077636116601537311 0.022880993021827091 0 -0.07949347243279653 0.045412086382617539 0 -0.077636116601537311 0.022880993021827091 0 -0.091309803581657953 0.033095901966790478 0 -0.09034227970177558 0.044955044680011602 0 -0.07949347243279653 0.045412086382617539 0 -0.081350828264057123 0.067943179743407939 0 -0.07949347243279653 0.045412086382617539 0 -0.081350828264057123 0.067943179743407939 0 -0.07949347243279653 0.045412086382617539 0 -0.089988997293370024 0.055387267108976269 0 -0.1005768454992778 0.045924923261662157 0 -0.09034227970177558 0.044955044680011602 0 -0.089988997293370024 0.055387267108976269 0 -0.09034227970177558 0.044955044680011602 0 -0.07949347243279653 0.045412086382617539 0 -0.089988997293370024 0.055387267108976269 0 -0.081350828264057123 0.067943179743407939 0 -0.06859587237295843 0.058729091286448078 0 -0.068678157630799958 0.043812409167910342 0 -0.081350828264057123 0.067943179743407939 0 -0.068678157630799958 0.043812409167910342 0 -0.081350828264057123 0.067943179743407939 0 -0.07949347243279653 0.045412086382617539 0 -0.068678157630799958 0.043812409167910342 0 -0.063397762509815811 0.051627873373669669 0 -0.06859587237295843 0.058729091286448078 0 -0.068678157630799958 0.043812409167910342 0 -0.063145294167952198 0.062550769941999651 0 -0.063397762509815811 0.051627873373669669 0 -0.06859587237295843 0.058729091286448078 0 -0.07949347243279653 0.045412086382617539 0 -0.068678157630799958 0.043812409167910342 0 -0.077636116601537311 0.022880993021827091 0 -0.077636116601537311 0.022880993021827091 0 -0.070307602616786896 0.01040304942514938 0 -0.056005486997541779 0.019681638592413491 0 -0.068678157630799958 0.043812409167910342 0 -0.077636116601537311 0.022880993021827091 0 -0.056005486997541779 0.019681638592413491 0 -0.091309803581657953 0.033095901966790478 0 -0.077636116601537311 0.022880993021827091 0 -0.089012447313476503 0.013586995425288059 0 -0.077636116601537311 0.022880993021827091 0 -0.089012447313476503 0.013586995425288059 0 -0.070307602616786896 0.01040304942514938 0 -0.077912580661624001 -0.003284153508062593 0 -0.089012447313476503 0.013586995425288059 0 -0.070307602616786896 0.01040304942514938 0 -0.096491488995410254 -0.0010129761140146209 0 -0.077912580661624001 -0.003284153508062593 0 -0.089012447313476503 0.013586995425288059 0 -0.070307602616786896 0.01040304942514938 0 -0.061449402821678538 0.00025584916866763259 0 -0.056005486997541779 0.019681638592413491 0 -0.077912580661624001 -0.003284153508062593 0 -0.070307602616786896 0.01040304942514938 0 -0.061449402821678538 0.00025584916866763259 0 -0.043332816364281983 -0.0044491319830825219 0 -0.061449402821678538 0.00025584916866763259 0 -0.056005486997541779 0.019681638592413491 0 -0.043332816364281983 -0.0044491319830825219 0 -0.056005486997541779 0.019681638592413491 0 -0.056005486997541779 0.019681638592413491 0 -0.033464049738240978 0.019388764910607582 0 -0.052358161902864082 0.038314774312366677 0 -0.043332816364281983 -0.0044491319830825219 0 -0.024908960302026259 -0.0020286333171264212 0 -0.033464049738240978 0.019388764910607582 0 -0.043332816364281983 -0.0044491319830825219 0 -0.033464049738240978 0.019388764910607582 0 -0.043332816364281983 -0.0044491319830825219 0 -0.056005486997541779 0.019681638592413491 0 -0.033464049738240978 0.019388764910607582 0 -0.063397762509815811 0.051627873373669669 0 -0.05455185833627909 0.054901103084188628 0 -0.052358161902864082 0.038314774312366677 0 -0.046415806099562598 0.069611315650668401 0 -0.05455185833627909 0.054901103084188628 0 -0.042057471719909083 0.061345079424629953 0 -0.05841350924332548 0.069316192116131325 0 -0.063145294167952198 0.062550769941999651 0 -0.05455185833627909 0.054901103084188628 0 -0.063145294167952198 0.062550769941999651 0 -0.063397762509815811 0.051627873373669669 0 -0.05455185833627909 0.054901103084188628 0 -0.05455185833627909 0.054901103084188628 0 -0.052358161902864082 0.038314774312366677 0 -0.039514594122969073 0.04617451877572859 0 -0.063397762509815811 0.051627873373669669 0 -0.068678157630799958 0.043812409167910342 0 -0.052358161902864082 0.038314774312366677 0 -0.068678157630799958 0.043812409167910342 0 -0.056005486997541779 0.019681638592413491 0 -0.052358161902864082 0.038314774312366677 0 -0.068678157630799958 0.043812409167910342 0 -0.056005486997541779 0.019681638592413491 0 -0.033464049738240978 0.019388764910607582 0 -0.052358161902864082 0.038314774312366677 0 -0.039514594122969073 0.04617451877572859 0 -0.033464049738240978 0.019388764910607582 0 -0.039514594122969073 0.04617451877572859 0 -0.023595283112200969 0.04322666180429828 0 -0.039514594122969073 0.04617451877572859 0 -0.031060739928320251 0.059870729118280487 0 -0.023595283112200969 0.04322666180429828 0 -0.05455185833627909 0.054901103084188628 0 -0.039514594122969073 0.04617451877572859 0 -0.042057471719909083 0.061345079424629953 0 -0.039514594122969073 0.04617451877572859 0 -0.042057471719909083 0.061345079424629953 0 -0.031060739928320251 0.059870729118280487 0 -0.017885502097283089 0.058171534956541551 0 -0.031060739928320251 0.059870729118280487 0 -0.023595283112200969 0.04322666180429828 0 -0.023595283112200969 0.04322666180429828 0 -0.011807685580072639 0.036439881245952821 0 -0.018421825003624961 0.02677588890489789 0 -0.033464049738240978 0.019388764910607582 0 -0.023595283112200969 0.04322666180429828 0 -0.023595283112200969 0.04322666180429828 0 -0.011807685580072639 0.036439881245952821 0 -0.00531019917674499 0.049526118482756711 0 -0.011807685580072639 0.036439881245952821 0 -0.00066434723839820799 0.034628748379597153 0 -0.00531019917674499 0.049526118482756711 0 -0.017885502097283089 0.058171534956541551 0 -0.023595283112200969 0.04322666180429828 0 -0.00531019917674499 0.049526118482756711 0 -0.0093948772962137248 0.063904729251021919 0 -0.00531019917674499 0.049526118482756711 0 0.00095884702937116054 0.062472640445640243 0 -0.0093948772962137248 0.063904729251021919 0 -0.017885502097283089 0.058171534956541551 0 -0.00531019917674499 0.049526118482756711 0 -0.024908960302026259 -0.0020286333171264212 0 -0.033464049738240978 0.019388764910607582 0 -0.01803254723175652 0.01307585429595744 0 -0.024908960302026259 -0.0020286333171264212 0 -0.01803254723175652 0.01307585429595744 0 -0.0064648095591495029 0.0049702259743342123 0 -0.033464049738240978 0.019388764910607582 0 -0.023595283112200969 0.04322666180429828 0 -0.018421825003624961 0.02677588890489789 0 -0.033464049738240978 0.019388764910607582 0 -0.01803254723175652 0.01307585429595744 0 -0.018421825003624961 0.02677588890489789 0 -0.01803254723175652 0.01307585429595744 0 -0.018421825003624961 0.02677588890489789 0 -0.005209559355853724 0.021748282267673329 0 -0.011807685580072639 0.036439881245952821 0 -0.018421825003624961 0.02677588890489789 0 -0.005209559355853724 0.021748282267673329 0 -0.011807685580072639 0.036439881245952821 0 -0.00066434723839820799 0.034628748379597153 0 -0.005209559355853724 0.021748282267673329 0 -0.01803254723175652 0.01307585429595744 0 -0.005209559355853724 0.021748282267673329 0 -0.0064648095591495029 0.0049702259743342123 0 -0.005209559355853724 0.021748282267673329 0 -0.0064648095591495029 0.0049702259743342123 0 0.0043563027594384256 0.012466519520267229 0 -0.0064648095591495029 0.0049702259743342123 0 0.0043563027594384256 0.012466519520267229 0 0.0080183541192206075 -0.0001163402675899565 0 0.015545763045171501 0.0097129227461654893 0 0.019688870728818302 0.0090970298504534329 0 0.0080183541192206075 -0.0001163402675899565 0 0.015545763045171501 0.0097129227461654893 0 0.0043563027594384256 0.012466519520267229 0 0.0080183541192206075 -0.0001163402675899565 0 0.015545763045171501 0.0097129227461654893 0 0.009864497424082741 0.023264380255295598 0 0.019688870728818302 0.0090970298504534329 0 0.015545763045171501 0.0097129227461654893 0 0.0043563027594384256 0.012466519520267229 0 0.009864497424082741 0.023264380255295598 0 -0.005209559355853724 0.021748282267673329 0 0.0043563027594384256 0.012466519520267229 0 0.009864497424082741 0.023264380255295598 0 -0.00066434723839820799 0.034628748379597153 0 -0.005209559355853724 0.021748282267673329 0 0.009864497424082741 0.023264380255295598 0 0.009864497424082741 0.023264380255295598 0 0.019688870728818302 0.0090970298504534329 0 0.02385036395400655 0.03171451260201253 0 0.019688870728818302 0.0090970298504534329 0 0.02385036395400655 0.03171451260201253 0 0.040688742501495873 0.021773755600826662 0 0.019688870728818302 0.0090970298504534329 0 0.02385036395400655 0.03171451260201253 0 0.015545763045171501 0.0097129227461654893 0 0.019688870728818302 0.0090970298504534329 0 0.0056348202089001086 0.05418211316936964 0 0.01532303028958743 0.050248666389308763 0 0.006145525202140692 0.0641464905903876 0 0.00095884702937116054 0.062472640445640243 0 0.0056348202089001086 0.05418211316936964 0 0.006145525202140692 0.0641464905903876 0 -0.00531019917674499 0.049526118482756711 0 0.00095884702937116054 0.062472640445640243 0 0.0056348202089001086 0.05418211316936964 0 -0.00531019917674499 0.049526118482756711 0 0.0056348202089001086 0.05418211316936964 0 0.0091412104965975689 0.04216507964630728 0 0.0056348202089001086 0.05418211316936964 0 0.01532303028958743 0.050248666389308763 0 0.0091412104965975689 0.04216507964630728 0 -0.00066434723839820799 0.034628748379597153 0 0.009864497424082741 0.023264380255295598 0 0.0091412104965975689 0.04216507964630728 0 0.009864497424082741 0.023264380255295598 0 0.0091412104965975689 0.04216507964630728 0 0.02385036395400655 0.03171451260201253 0 -0.00066434723839820799 0.034628748379597153 0 -0.00531019917674499 0.049526118482756711 0 0.0091412104965975689 0.04216507964630728 0 0.02385036395400655 0.03171451260201253 0 0.028011857179194799 0.054331995353571569 0 0.01532303028958743 0.050248666389308763 0 0.0091412104965975689 0.04216507964630728 0 0.02385036395400655 0.03171451260201253 0 0.01532303028958743 0.050248666389308763 0 0.02385036395400655 0.03171451260201253 0 0.028011857179194799 0.054331995353571569 0 0.01532303028958743 0.050248666389308763 0 0.028011857179194799 0.054331995353571569 0 0.006145525202140692 0.0641464905903876 0 0.028011857179194799 0.054331995353571569 0 0.020152292888630099 0.065662663314151562 0 0.006145525202140692 0.0641464905903876 0 0.028011857179194799 0.054331995353571569 0 0.006145525202140692 0.0641464905903876 0 0.028011857179194799 0.054331995353571569 0 0.053331231075667923 0.042967635077377733 0 0.028011857179194799 0.054331995353571569 0 0.043803033363087648 0.060342899763770837 0 0.053331231075667923 0.042967635077377733 0 0.028011857179194799 0.054331995353571569 0 0.043803033363087648 0.060342899763770837 0 0.03134921947030659 0.072470372606734057 0 0.02385036395400655 0.03171451260201253 0 0.028011857179194799 0.054331995353571569 0 0.053331231075667923 0.042967635077377733 0 0.02385036395400655 0.03171451260201253 0 0.053331231075667923 0.042967635077377733 0 0.040688742501495873 0.021773755600826662 0 0.053331231075667923 0.042967635077377733 0 0.057395176664267987 0.059953504783549577 0 0.070475151620352575 0.053275363215161242 0 0.043803033363087648 0.060342899763770837 0 0.053331231075667923 0.042967635077377733 0 0.057395176664267987 0.059953504783549577 0 0.019688870728818302 0.0090970298504534329 0 0.045584796001883178 0.0052474759354978126 0 0.032442908370354039 -0.0053087707591589614 0 0.019688870728818302 0.0090970298504534329 0 0.045584796001883178 0.0052474759354978126 0 0.040688742501495873 0.021773755600826662 0 0.019688870728818302 0.0090970298504534329 0 0.045584796001883178 0.0052474759354978126 0 0.053331231075667923 0.042967635077377733 0 0.040688742501495873 0.021773755600826662 0 0.060988450747103469 0.01984212453879176 0 0.045584796001883178 0.0052474759354978126 0 0.071480721274948589 0.001397922020545256 0 0.045584796001883178 0.0052474759354978126 0 0.060988450747103469 0.01984212453879176 0 0.071480721274948589 0.001397922020545256 0 0.045584796001883178 0.0052474759354978126 0 0.040688742501495873 0.021773755600826662 0 0.060988450747103469 0.01984212453879176 0 0.074734016899205058 0.015084398068572299 0 0.071480721274948589 0.001397922020545256 0 0.087816290602627231 0.0074942709137682459 0 0.060988450747103469 0.01984212453879176 0 0.074734016899205058 0.015084398068572299 0 0.071480721274948589 0.001397922020545256 0 0.071480721274948589 0.001397922020545256 0 0.087816290602627231 0.0074942709137682459 0 0.097376646548013979 -0.0024516318944073031 0 0.087816290602627231 0.0074942709137682459 0 0.078650604972140978 0.031603274801183939 0 0.098983416546952363 0.034954937917021763 0 0.074734016899205058 0.015084398068572299 0 0.087816290602627231 0.0074942709137682459 0 0.078650604972140978 0.031603274801183939 0 0.060988450747103469 0.01984212453879176 0 0.074734016899205058 0.015084398068572299 0 0.078650604972140978 0.031603274801183939 0 0.053331231075667923 0.042967635077377733 0 0.078650604972140978 0.031603274801183939 0 0.053331231075667923 0.042967635077377733 0 0.070475151620352575 0.053275363215161242 0 0.078650604972140978 0.031603274801183939 0 0.053331231075667923 0.042967635077377733 0 0.060988450747103469 0.01984212453879176 0 0.078650604972140978 0.031603274801183939 0 0.057395176664267987 0.059953504783549577 0 0.070475151620352575 0.053275363215161242 0 0.066506145381693027 0.071511609388508687 0 0.070475151620352575 0.053275363215161242 0 0.090362736265297741 0.053244442446397512 0 0.082040715357098379 0.068013874254988504 0 0.090362736265297741 0.053244442446397512 0 0.078650604972140978 0.031603274801183939 0 0.098983416546952363 0.034954937917021763 0 0.070475151620352575 0.053275363215161242 0 0.090362736265297741 0.053244442446397512 0 0.078650604972140978 0.031603274801183939 0 0.098983416546952363 0.034954937917021763 0 0.11038999859496371 0.053608233340910992 0 0.1184308143433758 0.038234439276423553 0 0.090362736265297741 0.053244442446397512 0 0.11038999859496371 0.053608233340910992 0 0.1047602078102134 0.07943306375083907 0 0.090362736265297741 0.053244442446397512 0 0.098983416546952363 0.034954937917021763 0 0.11038999859496371 0.053608233340910992 0 0.11038999859496371 0.053608233340910992 0 0.1227214987533382 0.068344593130330075 0 0.12926597309908339 0.048276409142152248 0 0.098983416546952363 0.034954937917021763 0 0.1184308143433758 0.038234439276423553 0 0.1137769913595023 0.02060896229860032 0 0.11038999859496371 0.053608233340910992 0 0.1184308143433758 0.038234439276423553 0 0.12926597309908339 0.048276409142152248 0 0.1184308143433758 0.038234439276423553 0 0.1137769913595023 0.02060896229860032 0 0.1397376921163774 0.033723653683432449 0 0.1137769913595023 0.02060896229860032 0 0.1232725718210794 -0.0063011858093598647 0 0.097376646548013979 -0.0024516318944073031 0 0.1137769913595023 0.02060896229860032 0 0.13283658907589069 0.015132359472021861 0 0.1232725718210794 -0.0063011858093598647 0 0.087816290602627231 0.0074942709137682459 0 0.1137769913595023 0.02060896229860032 0 0.097376646548013979 -0.0024516318944073031 0 0.087816290602627231 0.0074942709137682459 0 0.1137769913595023 0.02060896229860032 0 0.087816290602627231 0.0074942709137682459 0 0.098983416546952363 0.034954937917021763 0 0.1137769913595023 0.02060896229860032 0 0.1041193653089021 0.10780301357351341 0 0.097507188465228434 0.096144646897568659 0 0.1183561765279403 0.09497510958715738 0 0.1041193653089021 0.10780301357351341 0 0.097507188465228434 0.096144646897568659 0 0.091807682666940463 0.10676347596867131 0 0.094482049112866714 0.12108984202853761 0 0.11920008586274571 0.1171076273804771 0 0.094482049112866714 0.12108984202853761 0 0.11920008586274571 0.1171076273804771 0 0.1136410374691329 0.13370659840635191 0 0.1041193653089021 0.10780301357351341 0 0.094482049112866714 0.12108984202853761 0 0.091807682666940463 0.10676347596867131 0 0.1041193653089021 0.10780301357351341 0 0.094482049112866714 0.12108984202853761 0 0.11920008586274571 0.1171076273804771 0 0.1041193653089021 0.10780301357351341 0 0.11920008586274571 0.1171076273804771 0 0.1183561765279403 0.09497510958715738 0 0.11920008586274571 0.1171076273804771 0 0.1183561765279403 0.09497510958715738 0 0.13461983742932079 0.098320778198792952 0 0.1183561765279403 0.09497510958715738 0 0.1227214987533382 0.068344593130330075 0 0.1047602078102134 0.07943306375083907 0 0.11038999859496371 0.053608233340910992 0 0.1227214987533382 0.068344593130330075 0 0.1047602078102134 0.07943306375083907 0 0.097507188465228434 0.096144646897568659 0 0.1047602078102134 0.07943306375083907 0 0.081269470824464896 0.082436196897918451 0 0.097507188465228434 0.096144646897568659 0 0.1183561765279403 0.09497510958715738 0 0.1047602078102134 0.07943306375083907 0 0.1047602078102134 0.07943306375083907 0 0.081269470824464896 0.082436196897918451 0 0.097507188465228434 0.096144646897568659 0 0.081269470824464896 0.082436196897918451 0 0.081059267612722044 0.098175735394775948 0 0.090362736265297741 0.053244442446397512 0 0.1047602078102134 0.07943306375083907 0 0.082040715357098379 0.068013874254988504 0 0.1047602078102134 0.07943306375083907 0 0.081269470824464896 0.082436196897918451 0 0.082040715357098379 0.068013874254988504 0 0.070475151620352575 0.053275363215161242 0 0.082040715357098379 0.068013874254988504 0 0.066506145381693027 0.071511609388508687 0 0.081269470824464896 0.082436196897918451 0 0.082040715357098379 0.068013874254988504 0 0.066506145381693027 0.071511609388508687 0 0.081269470824464896 0.082436196897918451 0 0.071021665711474419 0.091763519098103444 0 0.081059267612722044 0.098175735394775948 0 0.081269470824464896 0.082436196897918451 0 0.066506145381693027 0.071511609388508687 0 0.057778733838716442 0.085439330044997833 0 0.081269470824464896 0.082436196897918451 0 0.057778733838716442 0.085439330044997833 0 0.081269470824464896 0.082436196897918451 0 0.071021665711474419 0.091763519098103444 0 0.057778733838716442 0.085439330044997833 0 0.071021665711474419 0.091763519098103444 0 0.063979190569994321 0.1010028140547216 0 0.057778733838716442 0.085439330044997833 0 0.063979190569994321 0.1010028140547216 0 0.081059267612722044 0.098175735394775948 0 0.079230619841430427 0.1110463280416297 0 0.071021665711474419 0.091763519098103444 0 0.063979190569994321 0.1010028140547216 0 0.081059267612722044 0.098175735394775948 0 0.063979190569994321 0.1010028140547216 0 0.079230619841430427 0.1110463280416297 0 0.066913672468306776 0.11319000803269839 0 0.063979190569994321 0.1010028140547216 0 0.079230619841430427 0.1110463280416297 0 0.097507188465228434 0.096144646897568659 0 0.081059267612722044 0.098175735394775948 0 0.091807682666940463 0.10676347596867131 0 0.081059267612722044 0.098175735394775948 0 0.091807682666940463 0.10676347596867131 0 0.079230619841430427 0.1110463280416297 0 0.094482049112866714 0.12108984202853761 0 0.086259760314377737 0.1224144989673244 0 0.079230619841430427 0.1110463280416297 0 0.094482049112866714 0.12108984202853761 0 0.086259760314377737 0.1224144989673244 0 0.094482049112866714 0.12108984202853761 0 0.091807682666940463 0.10676347596867131 0 0.079230619841430427 0.1110463280416297 0 0.094482049112866714 0.12108984202853761 0 0.079230619841430427 0.1110463280416297 0 0.086259760314377737 0.1224144989673244 0 0.079230619841430427 0.1110463280416297 0 0.076442950666667758 0.1209793101142973 0 0.076442950666667758 0.1209793101142973 0 0.066913672468306776 0.11319000803269839 0 0.0678969323831949 0.12738375345680919 0 0.079230619841430427 0.1110463280416297 0 0.076442950666667758 0.1209793101142973 0 0.066913672468306776 0.11319000803269839 0 0.066913672468306776 0.11319000803269839 0 0.054992307239356497 0.11663433503162671 0 0.0678969323831949 0.12738375345680919 0 0.066913672468306776 0.11319000803269839 0 0.054992307239356497 0.11663433503162671 0 0.05586384742124148 0.106665526086492 0 0.063979190569994321 0.1010028140547216 0 0.05586384742124148 0.106665526086492 0 0.051481996904778983 0.098450867445433396 0 0.063979190569994321 0.1010028140547216 0 0.066913672468306776 0.11319000803269839 0 0.05586384742124148 0.106665526086492 0 0.063979190569994321 0.1010028140547216 0 0.051481996904778983 0.098450867445433396 0 0.057778733838716442 0.085439330044997833 0 0.054992307239356497 0.11663433503162671 0 0.05586384742124148 0.106665526086492 0 0.041752260720853522 0.1043946582287941 0 0.05586384742124148 0.106665526086492 0 0.051481996904778983 0.098450867445433396 0 0.041752260720853522 0.1043946582287941 0 0.041752260720853522 0.1043946582287941 0 0.037053572837088662 0.10347321387079481 0 0.041752260720853522 0.1043946582287941 0 0.04384059613784938 0.095580765998868375 0 0.037053572837088662 0.10347321387079481 0 0.051481996904778983 0.098450867445433396 0 0.041752260720853522 0.1043946582287941 0 0.04384059613784938 0.095580765998868375 0 0.04384059613784938 0.095580765998868375 0 0.037053572837088662 0.10347321387079481 0 0.034287996852967323 0.08844246319207294 0 0.037053572837088662 0.10347321387079481 0 0.034287996852967323 0.08844246319207294 0 0.037053572837088662 0.10347321387079481 0 0.041720928695059348 0.12884003171735059 0 0.041752260720853522 0.1043946582287941 0 0.037053572837088662 0.10347321387079481 0 0.041720928695059348 0.12884003171735059 0 0.037053572837088662 0.10347321387079481 0 0.030651739543312639 0.1175527283689435 0 0.041720928695059348 0.12884003171735059 0 0.054992307239356497 0.11663433503162671 0 0.041752260720853522 0.1043946582287941 0 0.041720928695059348 0.12884003171735059 0 0.057395176664267987 0.059953504783549577 0 0.066506145381693027 0.071511609388508687 0 0.048927682425999798 0.071990990997621448 0 0.066506145381693027 0.071511609388508687 0 0.048927682425999798 0.071990990997621448 0 0.066506145381693027 0.071511609388508687 0 0.048927682425999798 0.071990990997621448 0 0.057778733838716442 0.085439330044997833 0 0.043803033363087648 0.060342899763770837 0 0.057395176664267987 0.059953504783549577 0 0.048927682425999798 0.071990990997621448 0 0.048927682425999798 0.071990990997621448 0 0.057778733838716442 0.085439330044997833 0 0.034287996852967323 0.08844246319207294 0 0.051481996904778983 0.098450867445433396 0 0.04384059613784938 0.095580765998868375 0 0.057778733838716442 0.085439330044997833 0 0.04384059613784938 0.095580765998868375 0 0.057778733838716442 0.085439330044997833 0 0.034287996852967323 0.08844246319207294 0 0.034287996852967323 0.08844246319207294 0 0.03134921947030659 0.072470372606734057 0 0.057778733838716442 0.085439330044997833 0 0.034287996852967323 0.08844246319207294 0 0.048927682425999798 0.071990990997621448 0 0.03134921947030659 0.072470372606734057 0 0.043803033363087648 0.060342899763770837 0 0.048927682425999798 0.071990990997621448 0 0.03134921947030659 0.072470372606734057 0 0.048927682425999798 0.071990990997621448 0 0.034287996852967323 0.08844246319207294 0 0.03134921947030659 0.072470372606734057 0 0.03134921947030659 0.072470372606734057 0 0.020152292888630099 0.065662663314151562 0 0.012561121180712219 0.072982742136023321 0 0.03134921947030659 0.072470372606734057 0 0.012561121180712219 0.072982742136023321 0 0.028011857179194799 0.054331995353571569 0 0.03134921947030659 0.072470372606734057 0 0.020152292888630099 0.065662663314151562 0 0.03134921947030659 0.072470372606734057 0 0.022904051495246869 0.081251536760586357 0 0.012561121180712219 0.072982742136023321 0 0.028011857179194799 0.054331995353571569 0 0.03134921947030659 0.072470372606734057 0 0.034287996852967323 0.08844246319207294 0 0.013417868477001139 0.091110569107514972 0 0.034287996852967323 0.08844246319207294 0 0.022904051495246869 0.081251536760586357 0 0.013417868477001139 0.091110569107514972 0 0.034287996852967323 0.08844246319207294 0 0.013417868477001139 0.091110569107514972 0 0.01462009725529044 0.099073858132238179 0 0.034287996852967323 0.08844246319207294 0 0.03134921947030659 0.072470372606734057 0 0.022904051495246869 0.081251536760586357 0 0.022904051495246869 0.081251536760586357 0 0.013417868477001139 0.091110569107514972 0 0.012561121180712219 0.072982742136023321 0 0.013417868477001139 0.091110569107514972 0 0.002874008234509705 0.085690997834103805 0 0.012561121180712219 0.072982742136023321 0 -0.0074522598989649946 0.093778675022956726 0 0.013417868477001139 0.091110569107514972 0 0.002874008234509705 0.085690997834103805 0 -0.0074522598989649946 0.093778675022956726 0 0.013417868477001139 0.091110569107514972 0 -0.0062269771088821323 0.073495111665313584 0 0.012561121180712219 0.072982742136023321 0 0.006145525202140692 0.0641464905903876 0 -0.0062269771088821323 0.073495111665313584 0 0.012561121180712219 0.072982742136023321 0 -0.0062269771088821323 0.073495111665313584 0 0.012561121180712219 0.072982742136023321 0 0.0002423273491216037 0.074690693525847993 0 0.002874008234509705 0.085690997834103805 0 0.012561121180712219 0.072982742136023321 0 0.0002423273491216037 0.074690693525847993 0 -0.0062269771088821323 0.073495111665313584 0 0.00095884702937116054 0.062472640445640243 0 0.006145525202140692 0.0641464905903876 0 0.020152292888630099 0.065662663314151562 0 0.012561121180712219 0.072982742136023321 0 0.006145525202140692 0.0641464905903876 0 0.018149634946402121 0.1095608549253258 0 0.030651739543312639 0.1175527283689435 0 0.020560114129507961 0.13621633695760449 0 0.018149634946402121 0.1095608549253258 0 0.020560114129507961 0.13621633695760449 0 0.037053572837088662 0.10347321387079481 0 0.030651739543312639 0.1175527283689435 0 0.025118761145523579 0.1074151638243255 0 0.018149634946402121 0.1095608549253258 0 0.030651739543312639 0.1175527283689435 0 0.025118761145523579 0.1074151638243255 0 0.037053572837088662 0.10347321387079481 0 0.01462009725529044 0.099073858132238179 0 0.037053572837088662 0.10347321387079481 0 0.034287996852967323 0.08844246319207294 0 0.01462009725529044 0.099073858132238179 0 0.037053572837088662 0.10347321387079481 0 0.025118761145523579 0.1074151638243255 0 0.01462009725529044 0.099073858132238179 0 0.018149634946402121 0.1095608549253258 0 0.025118761145523579 0.1074151638243255 0 0.01462009725529044 0.099073858132238179 0 -0.0074522598989649946 0.093778675022956726 0 0.013417868477001139 0.091110569107514972 0 0.01462009725529044 0.099073858132238179 0 -0.0074522598989649946 0.093778675022956726 0 0.01462009725529044 0.099073858132238179 0 0.00092319635324896745 0.109521186301824 0 -0.0074522598989649946 0.093778675022956726 0 0.01462009725529044 0.099073858132238179 0 0.018149634946402121 0.1095608549253258 0 0.01462009725529044 0.099073858132238179 0 0.00092319635324896745 0.109521186301824 0 -0.0067714202443985112 0.13048780818951489 0 0.00092319635324896745 0.109521186301824 0 0.0073745628626735778 0.12597105968465219 0 0.018149634946402121 0.1095608549253258 0 0.0073745628626735778 0.12597105968465219 0 0.020560114129507961 0.13621633695760449 0 0.018149634946402121 0.1095608549253258 0 0.00092319635324896745 0.109521186301824 0 0.0073745628626735778 0.12597105968465219 0 -0.00024712202030362072 0.1473968854258208 0 -0.0067714202443985112 0.13048780818951489 0 0.0073745628626735778 0.12597105968465219 0 -0.00024712202030362072 0.1473968854258208 0 0.0073745628626735778 0.12597105968465219 0 0.020560114129507961 0.13621633695760449 0 0.030651739543312639 0.1175527283689435 0 0.020560114129507961 0.13621633695760449 0 0.041720928695059348 0.12884003171735059 0 0.020560114129507961 0.13621633695760449 0 0.0229705933126138 0.1628718189898832 0 0.020560114129507961 0.13621633695760449 0 0.0229705933126138 0.1628718189898832 0 0.034356449964263257 0.14381799223612579 0 -0.00024712202030362072 0.1473968854258208 0 0.020560114129507961 0.13621633695760449 0 0.0229705933126138 0.1628718189898832 0 -0.002701260771012464 0.1728142388753324 0 -0.00024712202030362072 0.1473968854258208 0 0.0229705933126138 0.1628718189898832 0 -0.002701260771012464 0.1728142388753324 0 0.010268280602441841 0.18306316245780169 0 0.0229705933126138 0.1628718189898832 0 -0.0061981848681682619 0.19193411792754611 0 -0.002701260771012464 0.1728142388753324 0 0.010268280602441841 0.18306316245780169 0 0.0229705933126138 0.1628718189898832 0 0.04042656599263849 0.17989124328673181 0 0.025381072495718769 0.18952730102216181 0 0.010268280602441841 0.18306316245780169 0 0.0229705933126138 0.1628718189898832 0 0.025381072495718769 0.18952730102216181 0 0.0229705933126138 0.1628718189898832 0 0.025381072495718769 0.18952730102216181 0 0.0229705933126138 0.1628718189898832 0 0.041711938711808137 0.16682911016988461 0 0.046388284553029582 0.15420684956390671 0 0.0229705933126138 0.1628718189898832 0 0.041711938711808137 0.16682911016988461 0 0.04042656599263849 0.17989124328673181 0 0.04042656599263849 0.17989124328673181 0 0.025381072495718769 0.18952730102216181 0 0.039562601553737489 0.19305248572065251 0 0.04042656599263849 0.17989124328673181 0 0.025381072495718769 0.18952730102216181 0 0.041711938711808137 0.16682911016988461 0 0.04042656599263849 0.17989124328673181 0 0.05547205948955844 0.17025518555130231 0 0.04042656599263849 0.17989124328673181 0 0.049114795801461338 0.18389462606603099 0 0.039562601553737489 0.19305248572065251 0 0.049114795801461338 0.18389462606603099 0 0.05713648523421358 0.18243947755408571 0 0.052976266737158738 0.19383473821738251 0 0.04042656599263849 0.17989124328673181 0 0.05547205948955844 0.17025518555130231 0 0.049114795801461338 0.18389462606603099 0 0.05713648523421358 0.18243947755408571 0 0.05547205948955844 0.17025518555130231 0 0.04042656599263849 0.17989124328673181 0 0.049114795801461338 0.18389462606603099 0 0.05547205948955844 0.17025518555130231 0 0.05713648523421358 0.18243947755408571 0 0.05547205948955844 0.17025518555130231 0 0.067522995296525293 0.1719525327723217 0 0.05713648523421358 0.18243947755408571 0 0.060302236215538672 0.1866851268003564 0 0.067522995296525293 0.1719525327723217 0 0.041711938711808137 0.16682911016988461 0 0.05547205948955844 0.17025518555130231 0 0.046388284553029582 0.15420684956390671 0 0.05547205948955844 0.17025518555130231 0 0.046388284553029582 0.15420684956390671 0 0.071472792998793541 0.1453913068870076 0 0.056900779697945637 0.1358381873446152 0 0.046388284553029582 0.15420684956390671 0 0.071472792998793541 0.1453913068870076 0 0.054992307239356497 0.11663433503162671 0 0.056900779697945637 0.1358381873446152 0 0.041720928695059348 0.12884003171735059 0 0.056900779697945637 0.1358381873446152 0 0.041720928695059348 0.12884003171735059 0 0.046388284553029582 0.15420684956390671 0 0.054992307239356497 0.11663433503162671 0 0.056900779697945637 0.1358381873446152 0 0.0678969323831949 0.12738375345680919 0 0.020560114129507961 0.13621633695760449 0 0.041720928695059348 0.12884003171735059 0 0.034356449964263257 0.14381799223612579 0 0.041720928695059348 0.12884003171735059 0 0.046388284553029582 0.15420684956390671 0 0.034356449964263257 0.14381799223612579 0 0.0229705933126138 0.1628718189898832 0 0.046388284553029582 0.15420684956390671 0 0.034356449964263257 0.14381799223612579 0 0.041720928695059348 0.12884003171735059 0 0.046388284553029582 0.15420684956390671 0 0.01468722147498679 0.24962389663122819 0 0.0110412020763126 0.22499636011427671 0 0.02933923662314946 0.23329734206585701 0 0.01468722147498679 0.24962389663122819 0 0.02933923662314946 0.23329734206585701 0 0.031837296805529693 0.26092130943868941 0 0.02933923662314946 0.23329734206585701 0 0.031837296805529693 0.26092130943868941 0 -0.00082449247007008162 0.2337027100525623 0 0.01468722147498679 0.24962389663122819 0 0.0110412020763126 0.22499636011427671 0 -0.00082449247007008162 0.2337027100525623 0 -0.0057978565220940534 0.248168493099893 0 0.01468722147498679 0.24962389663122819 0 -0.003139704241699457 0.22136150160240811 0 -0.00082449247007008162 0.2337027100525623 0 0.0110412020763126 0.22499636011427671 0 0.02933923662314946 0.23329734206585701 0 0.026841176440768479 0.20567337469302471 0 0.0110412020763126 0.22499636011427671 0 0.02933923662314946 0.23329734206585701 0 0.026841176440768479 0.20567337469302471 0 -0.001602706809603015 0.20680936992601021 0 0.026841176440768479 0.20567337469302471 0 -0.001602706809603015 0.20680936992601021 0 -0.003139704241699457 0.22136150160240811 0 0.0110412020763126 0.22499636011427671 0 -0.001602706809603015 0.20680936992601021 0 0.0110412020763126 0.22499636011427671 0 0.026841176440768479 0.20567337469302471 0 -0.001602706809603015 0.20680936992601021 0 0.026841176440768479 0.20567337469302471 0 0.01188918284305757 0.19816833547408561 0 -0.0061981848681682619 0.19193411792754611 0 0.010268280602441841 0.18306316245780169 0 0.01188918284305757 0.19816833547408561 0 -0.0061981848681682619 0.19193411792754611 0 -0.001602706809603015 0.20680936992601021 0 0.01188918284305757 0.19816833547408561 0 -0.001602706809603015 0.20680936992601021 0 0.01188918284305757 0.19816833547408561 0 0.026841176440768479 0.20567337469302471 0 0.025381072495718769 0.18952730102216181 0 0.026841176440768479 0.20567337469302471 0 0.025381072495718769 0.18952730102216181 0 0.039562601553737489 0.19305248572065251 0 0.010268280602441841 0.18306316245780169 0 0.01188918284305757 0.19816833547408561 0 0.025381072495718769 0.18952730102216181 0 0.026841176440768479 0.20567337469302471 0 0.01188918284305757 0.19816833547408561 0 0.025381072495718769 0.18952730102216181 0 0.01188918284305757 0.19816833547408561 0 0.025381072495718769 0.18952730102216181 0 0.026841176440768479 0.20567337469302471 0 0.039562601553737489 0.19305248572065251 0 0.042234423641798753 0.20505859733345541 0 0.039562601553737489 0.19305248572065251 0 0.052976266737158738 0.19383473821738251 0 0.042234423641798753 0.20505859733345541 0 0.049114795801461338 0.18389462606603099 0 0.039562601553737489 0.19305248572065251 0 0.052976266737158738 0.19383473821738251 0 0.05713648523421358 0.18243947755408571 0 0.060302236215538672 0.1866851268003564 0 0.052976266737158738 0.19383473821738251 0 0.060302236215538672 0.1866851268003564 0 0.052976266737158738 0.19383473821738251 0 0.06357319759425703 0.19851375865763579 0 0.052976266737158738 0.19383473821738251 0 0.057627670842829097 0.20444381997388639 0 0.06357319759425703 0.19851375865763579 0 0.052976266737158738 0.19383473821738251 0 0.057627670842829097 0.20444381997388639 0 0.042234423641798753 0.20505859733345541 0 0.057627670842829097 0.20444381997388639 0 0.042234423641798753 0.20505859733345541 0 0.047069274314689463 0.2209151434345141 0 0.057627670842829097 0.20444381997388639 0 0.047069274314689463 0.2209151434345141 0 0.059623399891988803 0.2250749845429498 0 0.057627670842829097 0.20444381997388639 0 0.042234423641798753 0.20505859733345541 0 0.059623399891988803 0.2250749845429498 0 0.06357319759425703 0.19851375865763579 0 0.057627670842829097 0.20444381997388639 0 0.059623399891988803 0.2250749845429498 0 0.06357319759425703 0.19851375865763579 0 0.02933923662314946 0.23329734206585701 0 0.026841176440768479 0.20567337469302471 0 0.042234423641798753 0.20505859733345541 0 0.026841176440768479 0.20567337469302471 0 0.042234423641798753 0.20505859733345541 0 0.02933923662314946 0.23329734206585701 0 0.042234423641798753 0.20505859733345541 0 0.047069274314689463 0.2209151434345141 0 0.02933923662314946 0.23329734206585701 0 0.047069274314689463 0.2209151434345141 0 0.046521640573681203 0.2367009732564217 0 0.047069274314689463 0.2209151434345141 0 0.059623399891988803 0.2250749845429498 0 0.046521640573681203 0.2367009732564217 0 0.059623399891988803 0.2250749845429498 0 0.055673602189719687 0.25163621042826362 0 0.059623399891988803 0.2250749845429498 0 0.046521640573681203 0.2367009732564217 0 0.055673602189719687 0.25163621042826362 0 0.046521640573681203 0.2367009732564217 0 0.031837296805529693 0.26092130943868941 0 0.055673602189719687 0.25163621042826362 0 0.02933923662314946 0.23329734206585701 0 0.046521640573681203 0.2367009732564217 0 0.031837296805529693 0.26092130943868941 0 0.092620144309882024 0.23724420226468829 0 0.07414687324980096 0.24444020634647609 0 0.092620144309882024 0.23724420226468829 0 0.07414687324980096 0.24444020634647609 0 0.081667817462732439 0.22366526185044541 0 0.092620144309882024 0.23724420226468829 0 0.07414687324980096 0.24444020634647609 0 0.089071591847657561 0.25534052219728248 0 0.059623399891988803 0.2250749845429498 0 0.07414687324980096 0.24444020634647609 0 0.055673602189719687 0.25163621042826362 0 0.07414687324980096 0.24444020634647609 0 0.055673602189719687 0.25163621042826362 0 0.07414687324980096 0.24444020634647609 0 0.071011127184973821 0.22370103855320911 0 0.081667817462732439 0.22366526185044541 0 0.059623399891988803 0.2250749845429498 0 0.07414687324980096 0.24444020634647609 0 0.071011127184973821 0.22370103855320911 0 0.059623399891988803 0.2250749845429498 0 0.071011127184973821 0.22370103855320911 0 0.070715490615582313 0.21008632143620279 0 0.071011127184973821 0.22370103855320911 0 0.081667817462732439 0.22366526185044541 0 0.070715490615582313 0.21008632143620279 0 0.092620144309882024 0.23724420226468829 0 0.081667817462732439 0.22366526185044541 0 0.09368667947970577 0.22076255854678861 0 0.092620144309882024 0.23724420226468829 0 0.081667817462732439 0.22366526185044541 0 0.081667817462732439 0.22366526185044541 0 0.09368667947970577 0.22076255854678861 0 0.084454199666645108 0.21598711350931071 0 0.089638156667012872 0.20871290546058621 0 0.072824145057129336 0.2108077281794227 0 0.089925573702153261 0.1917713394146574 0 0.089638156667012872 0.20871290546058621 0 0.084454199666645108 0.21598711350931071 0 0.072824145057129336 0.2108077281794227 0 0.09368667947970577 0.22076255854678861 0 0.089638156667012872 0.20871290546058621 0 0.084454199666645108 0.21598711350931071 0 0.081667817462732439 0.22366526185044541 0 0.084454199666645108 0.21598711350931071 0 0.072824145057129336 0.2108077281794227 0 0.059623399891988803 0.2250749845429498 0 0.070715490615582313 0.21008632143620279 0 0.06357319759425703 0.19851375865763579 0 0.081667817462732439 0.22366526185044541 0 0.070715490615582313 0.21008632143620279 0 0.072824145057129336 0.2108077281794227 0 0.081667817462732439 0.22366526185044541 0 0.070715490615582313 0.21008632143620279 0 0.070253026126129672 0.2044221509583945 0 0.070715490615582313 0.21008632143620279 0 0.06357319759425703 0.19851375865763579 0 0.070253026126129672 0.2044221509583945 0 0.072824145057129336 0.2108077281794227 0 0.07389927123755001 0.19828079556031661 0 0.070253026126129672 0.2044221509583945 0 0.070715490615582313 0.21008632143620279 0 0.072824145057129336 0.2108077281794227 0 0.070253026126129672 0.2044221509583945 0 0.07389927123755001 0.19828079556031661 0 0.06357319759425703 0.19851375865763579 0 0.07389927123755001 0.19828079556031661 0 0.06357319759425703 0.19851375865763579 0 0.075216765232422156 0.18742306780043219 0 0.072824145057129336 0.2108077281794227 0 0.089925573702153261 0.1917713394146574 0 0.07389927123755001 0.19828079556031661 0 0.089925573702153261 0.1917713394146574 0 0.075216765232422156 0.18742306780043219 0 0.072824145057129336 0.2108077281794227 0 0.07389927123755001 0.19828079556031661 0 0.089925573702153261 0.1917713394146574 0 0.089638156667012872 0.20871290546058621 0 0.089925573702153261 0.1917713394146574 0 0.1049814950476496 0.19525477544829681 0 0.1196782420184454 0.1904776714470604 0 0.1225978399031858 0.2124572803832194 0 0.1317496302565721 0.20428453547317871 0 0.1049814950476496 0.19525477544829681 0 0.1196782420184454 0.1904776714470604 0 0.107131081020602 0.21007997514732371 0 0.1196782420184454 0.1904776714470604 0 0.1225978399031858 0.2124572803832194 0 0.107131081020602 0.21007997514732371 0 0.1225978399031858 0.2124572803832194 0 0.107131081020602 0.21007997514732371 0 0.10928835437232901 0.2307513344203696 0 0.089638156667012872 0.20871290546058621 0 0.1049814950476496 0.19525477544829681 0 0.107131081020602 0.21007997514732371 0 0.09368667947970577 0.22076255854678861 0 0.089638156667012872 0.20871290546058621 0 0.107131081020602 0.21007997514732371 0 0.092620144309882024 0.23724420226468829 0 0.09368667947970577 0.22076255854678861 0 0.10928835437232901 0.2307513344203696 0 0.092620144309882024 0.23724420226468829 0 0.10928835437232901 0.2307513344203696 0 0.09368667947970577 0.22076255854678861 0 0.107131081020602 0.21007997514732371 0 0.10928835437232901 0.2307513344203696 0 0.1225978399031858 0.2124572803832194 0 0.10928835437232901 0.2307513344203696 0 0.12595656443477521 0.22425846657604889 0 0.10928835437232901 0.2307513344203696 0 0.12595656443477521 0.22425846657604889 0 0.10928835437232901 0.2307513344203696 0 0.1262678113513149 0.23758265245906429 0 0.12595656443477521 0.22425846657604889 0 0.1262678113513149 0.23758265245906429 0 0.1086556819246203 0.25712542137179822 0 0.12564271282936409 0.25472680154472599 0 0.10928835437232901 0.2307513344203696 0 0.1262678113513149 0.23758265245906429 0 0.1086556819246203 0.25712542137179822 0 0.1262678113513149 0.23758265245906429 0 0.1086556819246203 0.25712542137179822 0 0.092620144309882024 0.23724420226468829 0 0.089071591847657561 0.25534052219728248 0 0.1086556819246203 0.25712542137179822 0 0.092620144309882024 0.23724420226468829 0 0.10928835437232901 0.2307513344203696 0 0.1086556819246203 0.25712542137179822 0 0.092620144309882024 0.23724420226468829 0 0.1086556819246203 0.25712542137179822 0 0.079943001948771214 0.13278474344468191 0 0.071472792998793541 0.1453913068870076 0 0.095019680880370869 0.14412099806485709 0 0.071472792998793541 0.1453913068870076 0 0.087934256502955721 0.16174216153141141 0 0.095019680880370869 0.14412099806485709 0 0.092017714827021993 0.13197409887211639 0 0.079943001948771214 0.13278474344468191 0 0.095019680880370869 0.14412099806485709 0 0.086259760314377737 0.1224144989673244 0 0.092017714827021993 0.13197409887211639 0 0.079943001948771214 0.13278474344468191 0 0.094482049112866714 0.12108984202853761 0 0.086259760314377737 0.1224144989673244 0 0.092017714827021993 0.13197409887211639 0 0.086259760314377737 0.1224144989673244 0 0.076442950666667758 0.1209793101142973 0 0.079943001948771214 0.13278474344468191 0 0.079943001948771214 0.13278474344468191 0 0.0678969323831949 0.12738375345680919 0 0.071472792998793541 0.1453913068870076 0 0.056900779697945637 0.1358381873446152 0 0.0678969323831949 0.12738375345680919 0 0.071472792998793541 0.1453913068870076 0 0.076442950666667758 0.1209793101142973 0 0.079943001948771214 0.13278474344468191 0 0.0678969323831949 0.12738375345680919 0 0.05547205948955844 0.17025518555130231 0 0.071472792998793541 0.1453913068870076 0 0.067522995296525293 0.1719525327723217 0 0.071472792998793541 0.1453913068870076 0 0.067522995296525293 0.1719525327723217 0 0.071472792998793541 0.1453913068870076 0 0.067522995296525293 0.1719525327723217 0 0.087934256502955721 0.16174216153141141 0 0.060302236215538672 0.1866851268003564 0 0.06357319759425703 0.19851375865763579 0 0.067522995296525293 0.1719525327723217 0 0.06357319759425703 0.19851375865763579 0 0.067522995296525293 0.1719525327723217 0 0.06357319759425703 0.19851375865763579 0 0.067522995296525293 0.1719525327723217 0 0.075216765232422156 0.18742306780043219 0 0.067522995296525293 0.1719525327723217 0 0.075216765232422156 0.18742306780043219 0 0.082298390758900705 0.17673432873543041 0 0.089925573702153261 0.1917713394146574 0 0.082298390758900705 0.17673432873543041 0 0.1070270023471772 0.17273495064989211 0 0.089925573702153261 0.1917713394146574 0 0.075216765232422156 0.18742306780043219 0 0.082298390758900705 0.17673432873543041 0 0.082298390758900705 0.17673432873543041 0 0.087934256502955721 0.16174216153141141 0 0.1070270023471772 0.17273495064989211 0 0.067522995296525293 0.1719525327723217 0 0.082298390758900705 0.17673432873543041 0 0.087934256502955721 0.16174216153141141 0 0.087934256502955721 0.16174216153141141 0 0.1070270023471772 0.17273495064989211 0 0.1057537704243493 0.15564314747549809 0 0.089925573702153261 0.1917713394146574 0 0.1049814950476496 0.19525477544829681 0 0.1070270023471772 0.17273495064989211 0 0.089925573702153261 0.1917713394146574 0 0.1070270023471772 0.17273495064989211 0 0.1049814950476496 0.19525477544829681 0 0.1196782420184454 0.1904776714470604 0 0.1070270023471772 0.17273495064989211 0 0.1196782420184454 0.1904776714470604 0 0.1070270023471772 0.17273495064989211 0 0.1232682151345515 0.16961081196606281 0 0.1070270023471772 0.17273495064989211 0 0.1241284309922011 0.15369856188512679 0 0.1070270023471772 0.17273495064989211 0 0.1232682151345515 0.16961081196606281 0 0.1241284309922011 0.15369856188512679 0 0.1070270023471772 0.17273495064989211 0 0.1241284309922011 0.15369856188512679 0 0.1057537704243493 0.15564314747549809 0 0.1241284309922011 0.15369856188512679 0 0.1142685891182907 0.1466985321232 0 0.13280002582539929 0.14632335478416589 0 0.1142685891182907 0.1466985321232 0 0.1136410374691329 0.13370659840635191 0 0.13280002582539929 0.14632335478416589 0 0.1241284309922011 0.15369856188512679 0 0.1142685891182907 0.1466985321232 0 0.1057537704243493 0.15564314747549809 0 0.1142685891182907 0.1466985321232 0 0.1057537704243493 0.15564314747549809 0 0.095019680880370869 0.14412099806485709 0 0.087934256502955721 0.16174216153141141 0 0.1057537704243493 0.15564314747549809 0 0.095019680880370869 0.14412099806485709 0 0.1142685891182907 0.1466985321232 0 0.095019680880370869 0.14412099806485709 0 0.1136410374691329 0.13370659840635191 0 0.094482049112866714 0.12108984202853761 0 0.1136410374691329 0.13370659840635191 0 0.092017714827021993 0.13197409887211639 0 0.095019680880370869 0.14412099806485709 0 0.1136410374691329 0.13370659840635191 0 0.094482049112866714 0.12108984202853761 0 0.092017714827021993 0.13197409887211639 0 0.1136410374691329 0.13370659840635191 0 0.1136410374691329 0.13370659840635191 0 0.13280002582539929 0.14632335478416589 0 0.11920008586274571 0.1171076273804771 0 0.1136410374691329 0.13370659840635191 0 0.13013570221642351 0.12932725896565961 0 0.13013570221642351 0.12932725896565961 0 0.14155285522335631 0.13636376866695449 0 0.13280002582539929 0.14632335478416589 0 0.13013570221642351 0.12932725896565961 0 0.14155285522335631 0.13636376866695449 0 0.14391812261262471 0.113125412732417 0 0.1136410374691329 0.13370659840635191 0 0.13013570221642351 0.12932725896565961 0 0.13280002582539929 0.14632335478416589 0 0.15511222614616271 0.1339672628450575 0 0.14155285522335631 0.13636376866695449 0 0.14391812261262471 0.113125412732417 0 0.14155285522335631 0.13636376866695449 0 0.13280002582539929 0.14632335478416589 0 0.1519590141816656 0.1589401111619799 0 0.13280002582539929 0.14632335478416589 0 0.1519590141816656 0.1589401111619799 0 0.15511222614616271 0.1339672628450575 0 0.14155285522335631 0.13636376866695449 0 0.1519590141816656 0.1589401111619799 0 0.13280002582539929 0.14632335478416589 0 0.13331034831647209 0.1601960768636104 0 0.1519590141816656 0.1589401111619799 0 0.1241284309922011 0.15369856188512679 0 0.13280002582539929 0.14632335478416589 0 0.13331034831647209 0.1601960768636104 0 0.1232682151345515 0.16961081196606281 0 0.1241284309922011 0.15369856188512679 0 0.13331034831647209 0.1601960768636104 0 0.13331034831647209 0.1601960768636104 0 0.13659505889862439 0.17386829005680851 0 0.1519590141816656 0.1589401111619799 0 0.1232682151345515 0.16961081196606281 0 0.13331034831647209 0.1601960768636104 0 0.13659505889862439 0.17386829005680851 0 0.1196782420184454 0.1904776714470604 0 0.1232682151345515 0.16961081196606281 0 0.13659505889862439 0.17386829005680851 0 0.1196782420184454 0.1904776714470604 0 0.13659505889862439 0.17386829005680851 0 0.14084070594021339 0.1906833183899953 0 0.15400023221180029 0.1772917123932157 0 0.14084070594021339 0.1906833183899953 0 0.1569474707633913 0.19429862248544691 0 0.13659505889862439 0.17386829005680851 0 0.15400023221180029 0.1772917123932157 0 0.14084070594021339 0.1906833183899953 0 0.13659505889862439 0.17386829005680851 0 0.15400023221180029 0.1772917123932157 0 0.1519590141816656 0.1589401111619799 0 0.1519590141816656 0.1589401111619799 0 0.17111800253793191 0.17155686753979391 0 0.16893394969384459 0.1578951377663658 0 0.1519590141816656 0.1589401111619799 0 0.17111800253793191 0.17155686753979391 0 0.15400023221180029 0.1772917123932157 0 0.1519590141816656 0.1589401111619799 0 0.17111800253793191 0.17155686753979391 0 0.15400023221180029 0.1772917123932157 0 0.17111800253793191 0.17155686753979391 0 0.1685500895444445 0.18487046032825341 0 0.15400023221180029 0.1772917123932157 0 0.1685500895444445 0.18487046032825341 0 0.1569474707633913 0.19429862248544691 0 0.17111800253793191 0.17155686753979391 0 0.1685500895444445 0.18487046032825341 0 0.1869809363257349 0.18204074461975081 0 0.17111800253793191 0.17155686753979391 0 0.1869809363257349 0.18204074461975081 0 0.18691029861543279 0.16323122294972869 0 0.16893394969384459 0.1578951377663658 0 0.18691029861543279 0.16323122294972869 0 0.17681638469735511 0.14966875413406561 0 0.17111800253793191 0.17155686753979391 0 0.16893394969384459 0.1578951377663658 0 0.18691029861543279 0.16323122294972869 0 0.18691029861543279 0.16323122294972869 0 0.17681638469735511 0.14966875413406561 0 0.19627954594038161 0.14585783059745039 0 0.17681638469735511 0.14966875413406561 0 0.17274194808246571 0.13095217179949481 0 0.1908639339281393 0.12474692264859701 0 0.17681638469735511 0.14966875413406561 0 0.1908639339281393 0.12474692264859701 0 0.15511222614616271 0.1339672628450575 0 0.17274194808246571 0.13095217179949481 0 0.1651127045602987 0.14628468754139271 0 0.1519590141816656 0.1589401111619799 0 0.16893394969384459 0.1578951377663658 0 0.1651127045602987 0.14628468754139271 0 0.15511222614616271 0.1339672628450575 0 0.1519590141816656 0.1589401111619799 0 0.1651127045602987 0.14628468754139271 0 0.17681638469735511 0.14966875413406561 0 0.17274194808246571 0.13095217179949481 0 0.1651127045602987 0.14628468754139271 0 0.16893394969384459 0.1578951377663658 0 0.17681638469735511 0.14966875413406561 0 0.1651127045602987 0.14628468754139271 0 0.14241378444278291 0.2395608496532754 0 0.16168739960774151 0.2385263892287689 0 0.15010896408996399 0.25228823828904617 0 0.16168739960774151 0.2385263892287689 0 0.15010896408996399 0.25228823828904617 0 0.14241378444278291 0.2395608496532754 0 0.15010896408996399 0.25228823828904617 0 0.1379019604624489 0.25376960353603029 0 0.1262678113513149 0.23758265245906429 0 0.13251332073818201 0.2463912188068034 0 0.12564271282936409 0.25472680154472599 0 0.14241378444278291 0.2395608496532754 0 0.1262678113513149 0.23758265245906429 0 0.13251332073818201 0.2463912188068034 0 0.14241378444278291 0.2395608496532754 0 0.13251332073818201 0.2463912188068034 0 0.1379019604624489 0.25376960353603029 0 0.1262678113513149 0.23758265245906429 0 0.14387994077801211 0.2180398835463328 0 0.14241378444278291 0.2395608496532754 0 0.1262678113513149 0.23758265245906429 0 0.14387994077801211 0.2180398835463328 0 0.1262678113513149 0.23758265245906429 0 0.12595656443477521 0.22425846657604889 0 0.14387994077801211 0.2180398835463328 0 0.14387994077801211 0.2180398835463328 0 0.1609813871793328 0.21204049961507529 0 0.16168739960774151 0.2385263892287689 0 0.14387994077801211 0.2180398835463328 0 0.16168739960774151 0.2385263892287689 0 0.14241378444278291 0.2395608496532754 0 0.14387994077801211 0.2180398835463328 0 0.16168739960774151 0.2385263892287689 0 0.14628346860278069 0.20387655178125871 0 0.1569474707633913 0.19429862248544691 0 0.1609813871793328 0.21204049961507529 0 0.14628346860278069 0.20387655178125871 0 0.14387994077801211 0.2180398835463328 0 0.1609813871793328 0.21204049961507529 0 0.14628346860278069 0.20387655178125871 0 0.14387994077801211 0.2180398835463328 0 0.1317496302565721 0.20428453547317871 0 0.14387994077801211 0.2180398835463328 0 0.1317496302565721 0.20428453547317871 0 0.1225978399031858 0.2124572803832194 0 0.14387994077801211 0.2180398835463328 0 0.1317496302565721 0.20428453547317871 0 0.1225978399031858 0.2124572803832194 0 0.12595656443477521 0.22425846657604889 0 0.14387994077801211 0.2180398835463328 0 0.1196782420184454 0.1904776714470604 0 0.1317496302565721 0.20428453547317871 0 0.14084070594021339 0.1906833183899953 0 0.14628346860278069 0.20387655178125871 0 0.1317496302565721 0.20428453547317871 0 0.14084070594021339 0.1906833183899953 0 0.1196782420184454 0.1904776714470604 0 0.1317496302565721 0.20428453547317871 0 0.14628346860278069 0.20387655178125871 0 0.14084070594021339 0.1906833183899953 0 0.1569474707633913 0.19429862248544691 0 0.1685500895444445 0.18487046032825341 0 0.1569474707633913 0.19429862248544691 0 0.17370380588336409 0.19916435460305931 0 0.1569474707633913 0.19429862248544691 0 0.17370380588336409 0.19916435460305931 0 0.1609813871793328 0.21204049961507529 0 0.1869809363257349 0.18204074461975081 0 0.17370380588336409 0.19916435460305931 0 0.19280776327052271 0.2015374759364191 0 0.1685500895444445 0.18487046032825341 0 0.1869809363257349 0.18204074461975081 0 0.17370380588336409 0.19916435460305931 0 0.17370380588336409 0.19916435460305931 0 0.17724758143913211 0.22003193258259399 0 0.19280776327052271 0.2015374759364191 0 0.17724758143913211 0.22003193258259399 0 0.19280776327052271 0.2015374759364191 0 0.17370380588336409 0.19916435460305931 0 0.1609813871793328 0.21204049961507529 0 0.17724758143913211 0.22003193258259399 0 0.17724758143913211 0.22003193258259399 0 0.16168739960774151 0.2385263892287689 0 0.1609813871793328 0.21204049961507529 0 0.17724758143913211 0.22003193258259399 0 0.16168739960774151 0.2385263892287689 0 0.17724758143913211 0.22003193258259399 0 0.17864812090750179 0.23842837533483149 0 0.197157040785123 0.23879332182161689 0 0.17724758143913211 0.22003193258259399 0 0.17864812090750179 0.23842837533483149 0 0.16168739960774151 0.2385263892287689 0 0.17864812090750179 0.23842837533483149 0 0.17278643425494239 0.25122110661935609 0 0.1902551856126366 0.25536793712348538 0 0.16168739960774151 0.2385263892287689 0 0.17278643425494239 0.25122110661935609 0 0.16168739960774151 0.2385263892287689 0 0.15010896408996399 0.25228823828904617 0 0.16024010556641441 0.25654761817813448 0 0.16168739960774151 0.2385263892287689 0 0.16024010556641441 0.25654761817813448 0 0.17278643425494239 0.25122110661935609 0 0.17864812090750179 0.23842837533483149 0 0.16168739960774151 0.2385263892287689 0 0.17278643425494239 0.25122110661935609 0 0.197157040785123 0.23879332182161689 0 0.2242741003040693 0.222297183491769 0 0.22247623007545669 0.24915261481428991 0 0.197157040785123 0.23879332182161689 0 0.22247623007545669 0.24915261481428991 0 0.20623878145948221 0.26066286121671089 0 0.17864812090750179 0.23842837533483149 0 0.197157040785123 0.23879332182161689 0 0.1902551856126366 0.25536793712348538 0 0.17724758143913211 0.22003193258259399 0 0.197157040785123 0.23879332182161689 0 0.20125001102892401 0.2172718242282336 0 0.197157040785123 0.23879332182161689 0 0.20125001102892401 0.2172718242282336 0 0.2242741003040693 0.222297183491769 0 0.21055435804762221 0.2039182510231827 0 0.20125001102892401 0.2172718242282336 0 0.2242741003040693 0.222297183491769 0 0.17724758143913211 0.22003193258259399 0 0.20125001102892401 0.2172718242282336 0 0.19280776327052271 0.2015374759364191 0 0.21055435804762221 0.2039182510231827 0 0.20125001102892401 0.2172718242282336 0 0.19280776327052271 0.2015374759364191 0 0.1869809363257349 0.18204074461975081 0 0.19280776327052271 0.2015374759364191 0 0.20836794510191331 0.18304301929024411 0 0.19280776327052271 0.2015374759364191 0 0.20836794510191331 0.18304301929024411 0 0.21055435804762221 0.2039182510231827 0 0.19280776327052271 0.2015374759364191 0 0.20836794510191331 0.18304301929024411 0 0.21055435804762221 0.2039182510231827 0 0.2260719705326818 0.19544175216924811 0 0.20836794510191331 0.18304301929024411 0 0.2260719705326818 0.19544175216924811 0 0.23919178672826791 0.18104522727717551 0 0.25283126365441949 0.20611963352291701 0 0.23733734524249969 0.21333093687622959 0 0.24617204647882801 0.22946517832098451 0 0.25283126365441949 0.20611963352291701 0 0.2260719705326818 0.19544175216924811 0 0.23733734524249969 0.21333093687622959 0 0.25283126365441949 0.20611963352291701 0 0.21055435804762221 0.2039182510231827 0 0.2260719705326818 0.19544175216924811 0 0.2242741003040693 0.222297183491769 0 0.2260719705326818 0.19544175216924811 0 0.23733734524249969 0.21333093687622959 0 0.2242741003040693 0.222297183491769 0 0.2260719705326818 0.19544175216924811 0 0.2242741003040693 0.222297183491769 0 0.2242741003040693 0.222297183491769 0 0.24617204647882801 0.22946517832098451 0 0.22247623007545669 0.24915261481428991 0 0.23733734524249969 0.21333093687622959 0 0.2242741003040693 0.222297183491769 0 0.24617204647882801 0.22946517832098451 0 0.24617204647882801 0.22946517832098451 0 0.22247623007545669 0.24915261481428991 0 0.24688333128324669 0.25666515192319922 0 0.2242741003040693 0.222297183491769 0 0.22247623007545669 0.24915261481428991 0 0.2112783346287366 0.14549742408744079 0 0.20541921277436881 0.16388989279690039 0 0.22490414959455471 0.15044257264357061 0 0.2112783346287366 0.14549742408744079 0 0.19627954594038161 0.14585783059745039 0 0.20541921277436881 0.16388989279690039 0 0.2112783346287366 0.14549742408744079 0 0.22490414959455471 0.15044257264357061 0 0.21982479908194849 0.13732119237621421 0 0.2067117174040084 0.12843860650757649 0 0.21982479908194849 0.13732119237621421 0 0.22048796111570659 0.12079276311507239 0 0.2112783346287366 0.14549742408744079 0 0.2067117174040084 0.12843860650757649 0 0.19627954594038161 0.14585783059745039 0 0.2112783346287366 0.14549742408744079 0 0.2067117174040084 0.12843860650757649 0 0.21982479908194849 0.13732119237621421 0 0.2067117174040084 0.12843860650757649 0 0.19627954594038161 0.14585783059745039 0 0.1908639339281393 0.12474692264859701 0 0.17681638469735511 0.14966875413406561 0 0.19627954594038161 0.14585783059745039 0 0.1908639339281393 0.12474692264859701 0 0.1869809363257349 0.18204074461975081 0 0.18691029861543279 0.16323122294972869 0 0.20541921277436881 0.16388989279690039 0 0.18691029861543279 0.16323122294972869 0 0.19627954594038161 0.14585783059745039 0 0.20541921277436881 0.16388989279690039 0 0.18691029861543279 0.16323122294972869 0 0.20541921277436881 0.16388989279690039 0 0.1869809363257349 0.18204074461975081 0 0.20836794510191331 0.18304301929024411 0 0.20541921277436881 0.16388989279690039 0 0.20836794510191331 0.18304301929024411 0 0.2239281269333048 0.16454856264407 0 0.20541921277436881 0.16388989279690039 0 0.2239281269333048 0.16454856264407 0 0.22490414959455471 0.15044257264357061 0 0.20541921277436881 0.16388989279690039 0 0.2239281269333048 0.16454856264407 0 0.20836794510191331 0.18304301929024411 0 0.20541921277436881 0.16388989279690039 0 0.2239281269333048 0.16454856264407 0 0.2239281269333048 0.16454856264407 0 0.22438995732404199 0.18101964034518439 0 0.23919178672826791 0.18104522727717551 0 0.20836794510191331 0.18304301929024411 0 0.2239281269333048 0.16454856264407 0 0.22438995732404199 0.18101964034518439 0 0.2260719705326818 0.19544175216924811 0 0.20836794510191331 0.18304301929024411 0 0.22438995732404199 0.18101964034518439 0 0.2260719705326818 0.19544175216924811 0 0.22438995732404199 0.18101964034518439 0 0.23919178672826791 0.18104522727717551 0 0.2239281269333048 0.16454856264407 0 0.25134304543336577 0.152415405909056 0 0.25222260863724011 0.165555467845517 0 0.2239281269333048 0.16454856264407 0 0.25222260863724011 0.165555467845517 0 0.2239281269333048 0.16454856264407 0 0.23919178672826791 0.18104522727717551 0 0.25222260863724011 0.165555467845517 0 0.2239281269333048 0.16454856264407 0 0.2410909650899398 0.14414922736298191 0 0.25134304543336577 0.152415405909056 0 0.2410909650899398 0.14414922736298191 0 0.25601580375863692 0.1399983494406204 0 0.25134304543336577 0.152415405909056 0 0.2239281269333048 0.16454856264407 0 0.2410909650899398 0.14414922736298191 0 0.2410909650899398 0.14414922736298191 0 0.2360644390724877 0.14176043506701719 0 0.22490414959455471 0.15044257264357061 0 0.2360644390724877 0.14176043506701719 0 0.22490414959455471 0.15044257264357061 0 0.21982479908194849 0.13732119237621421 0 0.2239281269333048 0.16454856264407 0 0.2410909650899398 0.14414922736298191 0 0.22490414959455471 0.15044257264357061 0 0.2360644390724877 0.14176043506701719 0 0.23558296646408269 0.1298212383174191 0 0.22048796111570659 0.12079276311507239 0 0.2360644390724877 0.14176043506701719 0 0.21982479908194849 0.13732119237621421 0 0.22048796111570659 0.12079276311507239 0 0.2360644390724877 0.14176043506701719 0 0.22048796111570659 0.12079276311507239 0 0.24516903153295019 0.1343129479727645 0 0.24061043413518629 0.1224188071148222 0 0.26163168605571718 0.12610444381511579 0 0.23558296646408269 0.1298212383174191 0 0.24516903153295019 0.1343129479727645 0 0.24061043413518629 0.1224188071148222 0 0.2410909650899398 0.14414922736298191 0 0.2360644390724877 0.14176043506701719 0 0.24516903153295019 0.1343129479727645 0 0.2360644390724877 0.14176043506701719 0 0.23558296646408269 0.1298212383174191 0 0.24516903153295019 0.1343129479727645 0 0.2410909650899398 0.14414922736298191 0 0.24516903153295019 0.1343129479727645 0 0.25601580375863692 0.1399983494406204 0 0.24061043413518629 0.1224188071148222 0 0.22993852471223011 0.11011604713023659 0 0.25055334196904733 0.10768139855647089 0 0.23830739509166921 0.096931767639745203 0 0.22993852471223011 0.11011604713023659 0 0.25055334196904733 0.10768139855647089 0 0.23830739509166921 0.096931767639745203 0 0.25055334196904733 0.10768139855647089 0 0.25096636296192559 0.093789335329092491 0 0.2251198911593712 0.096514933986716261 0 0.22993852471223011 0.11011604713023659 0 0.20491148315892421 0.099825091163128613 0 0.23830739509166921 0.096931767639745203 0 0.2251198911593712 0.096514933986716261 0 0.23056401049847269 0.088400472108069006 0 0.23830739509166921 0.096931767639745203 0 0.2251198911593712 0.096514933986716261 0 0.22993852471223011 0.11011604713023659 0 0.24061043413518629 0.1224188071148222 0 0.22048796111570659 0.12079276311507239 0 0.22993852471223011 0.11011604713023659 0 0.23558296646408269 0.1298212383174191 0 0.24061043413518629 0.1224188071148222 0 0.22048796111570659 0.12079276311507239 0 0.22048796111570659 0.12079276311507239 0 0.20491148315892421 0.099825091163128613 0 0.2067117174040084 0.12843860650757649 0 0.22048796111570659 0.12079276311507239 0 0.20491148315892421 0.099825091163128613 0 0.22048796111570659 0.12079276311507239 0 0.22993852471223011 0.11011604713023659 0 0.20491148315892421 0.099825091163128613 0 0.2251198911593712 0.096514933986716261 0 0.20491148315892421 0.099825091163128613 0 0.2204029207009662 0.087796430444155665 0 0.20491148315892421 0.099825091163128613 0 0.19266293058552231 0.083337176953134168 0 0.18569786710801661 0.099168848404141335 0 0.20491148315892421 0.099825091163128613 0 0.1908639339281393 0.12474692264859701 0 0.18569786710801661 0.099168848404141335 0 0.20491148315892421 0.099825091163128613 0 0.1908639339281393 0.12474692264859701 0 0.2067117174040084 0.12843860650757649 0 0.20491148315892421 0.099825091163128613 0 0.1908639339281393 0.12474692264859701 0 0.193024731085984 0.071160114849970438 0 0.19266293058552231 0.083337176953134168 0 0.1788185697937302 0.064701127374268808 0 0.1967563219008607 0.062528027641306536 0 0.193024731085984 0.071160114849970438 0 0.1788185697937302 0.064701127374268808 0 0.193024731085984 0.071160114849970438 0 0.19266293058552231 0.083337176953134168 0 0.20386110206382241 0.074074127431172518 0 0.1967563219008607 0.062528027641306536 0 0.193024731085984 0.071160114849970438 0 0.20386110206382241 0.074074127431172518 0 0.20491148315892421 0.099825091163128613 0 0.19266293058552231 0.083337176953134168 0 0.20491148315892421 0.099825091163128613 0 0.19266293058552231 0.083337176953134168 0 0.21728068511428009 0.077880824467443127 0 0.20491148315892421 0.099825091163128613 0 0.21728068511428009 0.077880824467443127 0 0.2204029207009662 0.087796430444155665 0 0.19266293058552231 0.083337176953134168 0 0.21728068511428009 0.077880824467443127 0 0.20491148315892421 0.099825091163128613 0 0.21728068511428009 0.077880824467443127 0 0.19266293058552231 0.083337176953134168 0 0.21728068511428009 0.077880824467443127 0 0.20386110206382241 0.074074127431172518 0 0.21728068511428009 0.077880824467443127 0 0.20386110206382241 0.074074127431172518 0 0.21946751863590119 0.074001151535367279 0 0.1967563219008607 0.062528027641306536 0 0.21946751863590119 0.074001151535367279 0 0.1967563219008607 0.062528027641306536 0 0.20386110206382241 0.074074127431172518 0 0.21946751863590119 0.074001151535367279 0 0.1967563219008607 0.062528027641306536 0 0.20715695573526291 0.063578311822111641 0 0.21946751863590119 0.074001151535367279 0 0.21728068511428009 0.077880824467443127 0 0.21946751863590119 0.074001151535367279 0 0.20715695573526291 0.063578311822111641 0 0.21759043442083981 0.067527595443374985 0 0.21946751863590119 0.074001151535367279 0 0.20715695573526291 0.063578311822111641 0 0.21759043442083981 0.067527595443374985 0 0.2170281827050746 0.059774526418984057 0 0.21759043442083981 0.067527595443374985 0 0.22117888006791231 0.06486201156120161 0 0.2170281827050746 0.059774526418984057 0 0.22413853357378491 0.07636083049542107 0 0.2317700857665928 0.068646890311212461 0 0.24140750211027501 0.07253328483972965 0 0.22117888006791231 0.06486201156120161 0 0.22548888354068611 0.067800669359921559 0 0.22948364935761939 0.060226322048572541 0 0.22413853357378491 0.07636083049542107 0 0.24140750211027501 0.07253328483972965 0 0.22548888354068611 0.067800669359921559 0 0.22102526078459089 0.069335689162006858 0 0.22517445004001321 0.071194215808671468 0 0.22117888006791231 0.06486201156120161 0 0.22548888354068611 0.067800669359921559 0 0.22102526078459089 0.069335689162006858 0 0.21759043442083981 0.067527595443374985 0 0.22117888006791231 0.06486201156120161 0 0.22102526078459089 0.069335689162006858 0 0.21759043442083981 0.067527595443374985 0 0.22102526078459089 0.069335689162006858 0 0.21946751863590119 0.074001151535367279 0 0.22102526078459089 0.069335689162006858 0 0.22250601324867139 0.072626154406669724 0 0.21946751863590119 0.074001151535367279 0 0.21728068511428009 0.077880824467443127 0 0.22413853357378491 0.07636083049542107 0 0.21728068511428009 0.077880824467443127 0 0.21946751863590119 0.074001151535367279 0 0.22413853357378491 0.07636083049542107 0 0.22250601324867139 0.072626154406669724 0 0.21946751863590119 0.074001151535367279 0 0.22413853357378491 0.07636083049542107 0 0.21946751863590119 0.074001151535367279 0 0.22413853357378491 0.07636083049542107 0 0.22250601324867139 0.072626154406669724 0 0.22413853357378491 0.07636083049542107 0 0.22517445004001321 0.071194215808671468 0 0.22102526078459089 0.069335689162006858 0 0.22250601324867139 0.072626154406669724 0 0.22517445004001321 0.071194215808671468 0 0.22413853357378491 0.07636083049542107 0 0.22517445004001321 0.071194215808671468 0 0.2317700857665928 0.068646890311212461 0 0.22548888354068611 0.067800669359921559 0 0.2317700857665928 0.068646890311212461 0 0.22948364935761939 0.060226322048572541 0 0.2317700857665928 0.068646890311212461 0 0.239548044474241 0.062861942910226939 0 0.22948364935761939 0.060226322048572541 0 0.22548888354068611 0.067800669359921559 0 0.22517445004001321 0.071194215808671468 0 0.2317700857665928 0.068646890311212461 0 0.22413853357378491 0.07636083049542107 0 0.24258154228412299 0.085677773428089521 0 0.22413853357378491 0.07636083049542107 0 0.23056401049847269 0.088400472108069006 0 0.24258154228412299 0.085677773428089521 0 0.2251198911593712 0.096514933986716261 0 0.2204029207009662 0.087796430444155665 0 0.23056401049847269 0.088400472108069006 0 0.21728068511428009 0.077880824467443127 0 0.22413853357378491 0.07636083049542107 0 0.2204029207009662 0.087796430444155665 0 0.22413853357378491 0.07636083049542107 0 0.2204029207009662 0.087796430444155665 0 0.23056401049847269 0.088400472108069006 0 0.22413853357378491 0.07636083049542107 0 0.24258154228412299 0.085677773428089521 0 0.24140750211027501 0.07253328483972965 0 0.23830739509166921 0.096931767639745203 0 0.23056401049847269 0.088400472108069006 0 0.24258154228412299 0.085677773428089521 0 0.24258154228412299 0.085677773428089521 0 0.24140750211027501 0.07253328483972965 0 0.25217555895265148 0.077238726720953471 0 0.23830739509166921 0.096931767639745203 0 0.24258154228412299 0.085677773428089521 0 0.25096636296192559 0.093789335329092491 0 0.2317700857665928 0.068646890311212461 0 0.239548044474241 0.062861942910226939 0 0.24140750211027501 0.07253328483972965 0 0.239548044474241 0.062861942910226939 0 0.24140750211027501 0.07253328483972965 0 0.2505945676633865 0.067826177117441308 0 0.239548044474241 0.062861942910226939 0 0.24224297934710731 0.044700341732207709 0 0.22948364935761939 0.060226322048572541 0 0.24224297934710731 0.044700341732207709 0 0.2505945676633865 0.067826177117441308 0 0.24224297934710731 0.044700341732207709 0 0.25674102969738999 0.055262631395743923 0 0.2505945676633865 0.067826177117441308 0 0.239548044474241 0.062861942910226939 0 0.24224297934710731 0.044700341732207709 0 0.2505945676633865 0.067826177117441308 0 0.24224297934710731 0.044700341732207709 0 0.23389139103082829 0.021574506346974269 0 0.22309470983237681 0.045374408710906589 0 0.23389139103082829 0.021574506346974269 0 0.2103321904895751 0.033057027632526513 0 0.24224297934710731 0.044700341732207709 0 0.22309470983237681 0.045374408710906589 0 0.23389139103082829 0.021574506346974269 0 0.24224297934710731 0.044700341732207709 0 0.22309470983237681 0.045374408710906589 0 0.22948364935761939 0.060226322048572541 0 0.22117888006791231 0.06486201156120161 0 0.22948364935761939 0.060226322048572541 0 0.2170281827050746 0.059774526418984057 0 0.22309470983237681 0.045374408710906589 0 0.22948364935761939 0.060226322048572541 0 0.2170281827050746 0.059774526418984057 0 0.24677494993703919 0.0050456544542734818 0 0.23389139103082829 0.021574506346974269 0 0.22553980271454849 -0.0015513290382589259 0 0.24224297934710731 0.044700341732207709 0 0.23389139103082829 0.021574506346974269 0 0.25493798974210391 0.024749663925340181 0 0.24677494993703919 0.0050456544542734818 0 0.23389139103082829 0.021574506346974269 0 0.25493798974210391 0.024749663925340181 0 0.23389139103082829 0.021574506346974269 0 0.2077619726605299 0.011365115381922459 0 0.22553980271454849 -0.0015513290382589259 0 0.23389139103082829 0.021574506346974269 0 0.22553980271454849 -0.0015513290382589259 0 0.2077619726605299 0.011365115381922459 0 0.22553980271454849 -0.0015513290382589259 0 0.2077619726605299 0.011365115381922459 0 0.21253901026711791 -0.001749705729047527 0 0.22553980271454849 -0.0015513290382589259 0 0.2077619726605299 0.011365115381922459 0 0.20129024074025251 0.0047714246717411278 0 0.21253901026711791 -0.001749705729047527 0 0.23389139103082829 0.021574506346974269 0 0.2077619726605299 0.011365115381922459 0 0.2103321904895751 0.033057027632526513 0 0.2077619726605299 0.011365115381922459 0 0.18998414260651289 0.02428155980210598 0 0.2077619726605299 0.011365115381922459 0 0.18998414260651289 0.02428155980210598 0 0.2103321904895751 0.033057027632526513 0 0.18998414260651289 0.02428155980210598 0 0.20129024074025251 0.0047714246717411278 0 0.1850979255494089 0.010011540669534569 0 0.20129024074025251 0.0047714246717411278 0 0.1850979255494089 0.010011540669534569 0 0.19255080382135159 -0.0061389146127854687 0 0.2077619726605299 0.011365115381922459 0 0.18998414260651289 0.02428155980210598 0 0.20129024074025251 0.0047714246717411278 0 0.18998414260651289 0.02428155980210598 0 0.20129024074025251 0.0047714246717411278 0 0.20715695573526291 0.063578311822111641 0 0.20748898513120281 0.053130056585087973 0 0.2170281827050746 0.059774526418984057 0 0.1967563219008607 0.062528027641306536 0 0.20715695573526291 0.063578311822111641 0 0.20748898513120281 0.053130056585087973 0 0.22309470983237681 0.045374408710906589 0 0.20748898513120281 0.053130056585087973 0 0.2170281827050746 0.059774526418984057 0 0.22309470983237681 0.045374408710906589 0 0.20748898513120281 0.053130056585087973 0 0.2103321904895751 0.033057027632526513 0 0.20748898513120281 0.053130056585087973 0 0.2103321904895751 0.033057027632526513 0 0.19964882744287399 0.040643594956762133 0 0.18998414260651289 0.02428155980210598 0 0.19964882744287399 0.040643594956762133 0 0.19076705514851131 0.052092480166167729 0 0.18998414260651289 0.02428155980210598 0 0.2103321904895751 0.033057027632526513 0 0.19964882744287399 0.040643594956762133 0 0.1967563219008607 0.062528027641306536 0 0.20748898513120281 0.053130056585087973 0 0.19076705514851131 0.052092480166167729 0 0.20748898513120281 0.053130056585087973 0 0.19964882744287399 0.040643594956762133 0 0.19076705514851131 0.052092480166167729 0 0.20748898513120281 0.053130056585087973 0 0.19076705514851131 0.052092480166167729 0 0.1967563219008607 0.062528027641306536 0 0.17744322250005179 0.059120766873462349 0 0.17404512516581969 0.051054903747246562 0 0.1967563219008607 0.062528027641306536 0 0.17404512516581969 0.051054903747246562 0 0.1967563219008607 0.062528027641306536 0 0.19076705514851131 0.052092480166167729 0 0.17404512516581969 0.051054903747246562 0 0.1967563219008607 0.062528027641306536 0 0.17744322250005179 0.059120766873462349 0 0.1788185697937302 0.064701127374268808 0 0.19076705514851131 0.052092480166167729 0 0.17404512516581969 0.051054903747246562 0 0.19076705514851131 0.052092480166167729 0 0.17538210046851641 0.049600592101206202 0 0.17404512516581969 0.051054903747246562 0 0.17744322250005179 0.059120766873462349 0 0.17404512516581969 0.051054903747246562 0 0.16988665472660711 0.056398512469372143 0 0.17744322250005179 0.059120766873462349 0 0.1788185697937302 0.064701127374268808 0 0.1703385175089894 0.063194672926880219 0 0.17744322250005179 0.059120766873462349 0 0.16988665472660711 0.056398512469372143 0 0.1703385175089894 0.063194672926880219 0 0.17538210046851641 0.049600592101206202 0 0.17404512516581969 0.051054903747246562 0 0.1709308345765635 0.046850170682072957 0 0.18998414260651289 0.02428155980210598 0 0.17538210046851641 0.049600592101206202 0 0.18998414260651289 0.02428155980210598 0 0.19076705514851131 0.052092480166167729 0 0.17538210046851641 0.049600592101206202 0 0.18998414260651289 0.02428155980210598 0 0.17538210046851641 0.049600592101206202 0 0.1738163868631987 0.036734187476594703 0 0.17538210046851641 0.049600592101206202 0 0.1738163868631987 0.036734187476594703 0 0.1709308345765635 0.046850170682072957 0 0.1738163868631987 0.036734187476594703 0 0.1709308345765635 0.046850170682072957 0 0.16569839287325289 0.046838345068263877 0 0.16569839287325289 0.046838345068263877 0 0.16911329901882971 0.024656240971238339 0 0.15563266990931729 0.03219351469236624 0 0.1738163868631987 0.036734187476594703 0 0.16569839287325289 0.046838345068263877 0 0.16911329901882971 0.024656240971238339 0 0.16569839287325289 0.046838345068263877 0 0.16911329901882971 0.024656240971238339 0 0.16569839287325289 0.046838345068263877 0 0.16513437761649941 0.0505020021658069 0 0.14720017535779131 0.049389205653980847 0 0.1637865691395492 0.059256921529346251 0 0.1536570063750913 0.058688839229053519 0 0.16017725463827151 0.067163104587422404 0 0.1637865691395492 0.059256921529346251 0 0.16513437761649941 0.0505020021658069 0 0.1536570063750913 0.058688839229053519 0 0.1637865691395492 0.059256921529346251 0 0.16513437761649941 0.0505020021658069 0 0.1637865691395492 0.059256921529346251 0 0.16988665472660711 0.056398512469372143 0 0.16513437761649941 0.0505020021658069 0 0.1637865691395492 0.059256921529346251 0 0.16988665472660711 0.056398512469372143 0 0.1703385175089894 0.063194672926880219 0 0.17404512516581969 0.051054903747246562 0 0.16569839287325289 0.046838345068263877 0 0.17404512516581969 0.051054903747246562 0 0.16569839287325289 0.046838345068263877 0 0.16513437761649941 0.0505020021658069 0 0.17404512516581969 0.051054903747246562 0 0.16513437761649941 0.0505020021658069 0 0.17404512516581969 0.051054903747246562 0 0.1709308345765635 0.046850170682072957 0 0.16569839287325289 0.046838345068263877 0 0.17404512516581969 0.051054903747246562 0 0.16988665472660711 0.056398512469372143 0 0.16513437761649941 0.0505020021658069 0 0.16569839287325289 0.046838345068263877 0 0.16513437761649941 0.0505020021658069 0 0.1850979255494089 0.010011540669534569 0 0.1725282051644047 0.0024741368742126481 0 0.19255080382135159 -0.0061389146127854687 0 0.1850979255494089 0.010011540669534569 0 0.1725282051644047 0.0024741368742126481 0 0.16911329901882971 0.024656240971238339 0 0.18998414260651289 0.02428155980210598 0 0.1850979255494089 0.010011540669534569 0 0.16911329901882971 0.024656240971238339 0 0.18998414260651289 0.02428155980210598 0 0.1738163868631987 0.036734187476594703 0 0.16911329901882971 0.024656240971238339 0 0.16911329901882971 0.024656240971238339 0 0.14991832954876369 0.023378964505320291 0 0.15563266990931729 0.03219351469236624 0 0.16911329901882971 0.024656240971238339 0 0.1522713976234033 0.01118905370754255 0 0.14991832954876369 0.023378964505320291 0 0.1725282051644047 0.0024741368742126481 0 0.16911329901882971 0.024656240971238339 0 0.16331796657310171 0.0095828336309534395 0 0.16911329901882971 0.024656240971238339 0 0.16331796657310171 0.0095828336309534395 0 0.1522713976234033 0.01118905370754255 0 0.1725282051644047 0.0024741368742126481 0 0.16911329901882971 0.024656240971238339 0 0.16331796657310171 0.0095828336309534395 0 0.1522713976234033 0.01118905370754255 0 0.16067891809127829 -0.00040143054621440111 0 0.1725282051644047 0.0024741368742126481 0 0.16331796657310171 0.0095828336309534395 0 0.16067891809127829 -0.00040143054621440111 0 0.1522713976234033 0.01118905370754255 0 0.13283658907589069 0.015132359472021861 0 0.1491684970941449 -0.010150739724312441 0 0.1522713976234033 0.01118905370754255 0 0.1491684970941449 -0.010150739724312441 0 0.16067891809127829 -0.00040143054621440111 0 0.14991832954876369 0.023378964505320291 0 0.13283658907589069 0.015132359472021861 0 0.1397376921163774 0.033723653683432449 0 0.1522713976234033 0.01118905370754255 0 0.14991832954876369 0.023378964505320291 0 0.13283658907589069 0.015132359472021861 0 0.14991832954876369 0.023378964505320291 0 0.15563266990931729 0.03219351469236624 0 0.1397376921163774 0.033723653683432449 0 0.1137769913595023 0.02060896229860032 0 0.13283658907589069 0.015132359472021861 0 0.1397376921163774 0.033723653683432449 0 0.1137769913595023 0.02060896229860032 0 0.1397376921163774 0.033723653683432449 0 0.16513437761649941 0.0505020021658069 0 0.14720017535779131 0.049389205653980847 0 0.1536570063750913 0.058688839229053519 0 0.16513437761649941 0.0505020021658069 0 0.14720017535779131 0.049389205653980847 0 0.14720017535779131 0.049389205653980847 0 0.1536570063750913 0.058688839229053519 0 0.13890129424195061 0.061051737570859313 0 0.16569839287325289 0.046838345068263877 0 0.14720017535779131 0.049389205653980847 0 0.1397376921163774 0.033723653683432449 0 0.16569839287325289 0.046838345068263877 0 0.15563266990931729 0.03219351469236624 0 0.1397376921163774 0.033723653683432449 0 0.16569839287325289 0.046838345068263877 0 0.1397376921163774 0.033723653683432449 0 0.14720017535779131 0.049389205653980847 0 0.1397376921163774 0.033723653683432449 0 0.12926597309908339 0.048276409142152248 0 0.1184308143433758 0.038234439276423553 0 0.1397376921163774 0.033723653683432449 0 0.12926597309908339 0.048276409142152248 0 0.14720017535779131 0.049389205653980847 0 0.12926597309908339 0.048276409142152248 0 0.13890129424195061 0.061051737570859313 0 0.14720017535779131 0.049389205653980847 0 0.12926597309908339 0.048276409142152248 0 0.1227214987533382 0.068344593130330075 0 0.12926597309908339 0.048276409142152248 0 0.13890129424195061 0.061051737570859313 0 0.1227214987533382 0.068344593130330075 0 0.13890129424195061 0.061051737570859313 0 0.13920289978811609 0.080502806386929512 0 0.1493953678040511 0.069121996161060947 0 0.13920289978811609 0.080502806386929512 0 0.15778093315236519 0.079830474737671381 0 0.1536570063750913 0.058688839229053519 0 0.13890129424195061 0.061051737570859313 0 0.1493953678040511 0.069121996161060947 0 0.13890129424195061 0.061051737570859313 0 0.1493953678040511 0.069121996161060947 0 0.13920289978811609 0.080502806386929512 0 0.1493953678040511 0.069121996161060947 0 0.16017725463827151 0.067163104587422404 0 0.15778093315236519 0.079830474737671381 0 0.1536570063750913 0.058688839229053519 0 0.1493953678040511 0.069121996161060947 0 0.16017725463827151 0.067163104587422404 0 0.13920289978811609 0.080502806386929512 0 0.15190927330269011 0.095454739976828476 0 0.15778093315236519 0.079830474737671381 0 0.13920289978811609 0.080502806386929512 0 0.13461983742932079 0.098320778198792952 0 0.15190927330269011 0.095454739976828476 0 0.1183561765279403 0.09497510958715738 0 0.13920289978811609 0.080502806386929512 0 0.13461983742932079 0.098320778198792952 0 0.1183561765279403 0.09497510958715738 0 0.1227214987533382 0.068344593130330075 0 0.13920289978811609 0.080502806386929512 0 0.11920008586274571 0.1171076273804771 0 0.14391812261262471 0.113125412732417 0 0.11920008586274571 0.1171076273804771 0 0.13013570221642351 0.12932725896565961 0 0.14391812261262471 0.113125412732417 0 0.11920008586274571 0.1171076273804771 0 0.13461983742932079 0.098320778198792952 0 0.14391812261262471 0.113125412732417 0 0.15511222614616271 0.1339672628450575 0 0.14391812261262471 0.113125412732417 0 0.1686361593625037 0.10914319808435689 0 0.14391812261262471 0.113125412732417 0 0.15190927330269011 0.095454739976828476 0 0.1686361593625037 0.10914319808435689 0 0.13461983742932079 0.098320778198792952 0 0.14391812261262471 0.113125412732417 0 0.15190927330269011 0.095454739976828476 0 0.15190927330269011 0.095454739976828476 0 0.1686361593625037 0.10914319808435689 0 0.1671908897519418 0.093797812443687539 0 0.15511222614616271 0.1339672628450575 0 0.17274194808246571 0.13095217179949481 0 0.1686361593625037 0.10914319808435689 0 0.14391812261262471 0.113125412732417 0 0.1686361593625037 0.10914319808435689 0 0.17274194808246571 0.13095217179949481 0 0.1908639339281393 0.12474692264859701 0 0.1686361593625037 0.10914319808435689 0 0.1908639339281393 0.12474692264859701 0 0.1686361593625037 0.10914319808435689 0 0.18569786710801661 0.099168848404141335 0 0.1686361593625037 0.10914319808435689 0 0.1671908897519418 0.093797812443687539 0 0.18569786710801661 0.099168848404141335 0 0.1671908897519418 0.093797812443687539 0 0.18569786710801661 0.099168848404141335 0 0.1805048233871947 0.086031936069178444 0 0.19266293058552231 0.083337176953134168 0 0.18569786710801661 0.099168848404141335 0 0.1805048233871947 0.086031936069178444 0 0.1671908897519418 0.093797812443687539 0 0.1805048233871947 0.086031936069178444 0 0.17051095163878771 0.081844372815888966 0 0.1805048233871947 0.086031936069178444 0 0.17826363567858949 0.07776480702415034 0 0.17051095163878771 0.081844372815888966 0 0.19266293058552231 0.083337176953134168 0 0.1805048233871947 0.086031936069178444 0 0.19266293058552231 0.083337176953134168 0 0.1805048233871947 0.086031936069178444 0 0.17826363567858949 0.07776480702415034 0 0.19266293058552231 0.083337176953134168 0 0.1788185697937302 0.064701127374268808 0 0.17826363567858949 0.07776480702415034 0 0.19266293058552231 0.083337176953134168 0 0.1788185697937302 0.064701127374268808 0 0.1788185697937302 0.064701127374268808 0 0.16881447622384699 0.071796833804757154 0 0.1703385175089894 0.063194672926880219 0 0.17826363567858949 0.07776480702415034 0 0.16881447622384699 0.071796833804757154 0 0.17051095163878771 0.081844372815888966 0 0.1788185697937302 0.064701127374268808 0 0.17826363567858949 0.07776480702415034 0 0.16881447622384699 0.071796833804757154 0 0.16881447622384699 0.071796833804757154 0 0.15778093315236519 0.079830474737671381 0 0.17051095163878771 0.081844372815888966 0 0.1637865691395492 0.059256921529346251 0 0.1703385175089894 0.063194672926880219 0 0.16017725463827151 0.067163104587422404 0 0.16881447622384699 0.071796833804757154 0 0.1703385175089894 0.063194672926880219 0 0.16017725463827151 0.067163104587422404 0 0.16881447622384699 0.071796833804757154 0 0.16017725463827151 0.067163104587422404 0 0.15778093315236519 0.079830474737671381 0 0.15190927330269011 0.095454739976828476 0 0.1671908897519418 0.093797812443687539 0 0.15778093315236519 0.079830474737671381 0 0.1671908897519418 0.093797812443687539 0 0.15778093315236519 0.079830474737671381 0 0.17051095163878771 0.081844372815888966 0 0.1067724168845353 0.48144098181691503 0 0.091434238922942362 0.47208746167137072 0 0.085351731168842981 0.48899163694601577 0 0.1067724168845353 0.48144098181691503 0 0.1147982116301102 0.47004977716376561 0 0.1041569771177121 0.46786120074045329 0 0.1067724168845353 0.48144098181691503 0 0.1041569771177121 0.46786120074045329 0 0.091434238922942362 0.47208746167137072 0 0.1067724168845353 0.48144098181691503 0 0.10006026653528489 0.49108222212950298 0 0.085351731168842981 0.48899163694601577 0 0.1067724168845353 0.48144098181691503 0 0.085351731168842981 0.48899163694601577 0 0.10006026653528489 0.49108222212950298 0 0.097019276609724314 0.49999999999999861 0 0.085351731168842981 0.48899163694601577 0 0.10006026653528489 0.49108222212950298 0 0.097019276609724314 0.49999999999999861 0 0.1110976414780374 0.49389626975508399 0 0.097019276609724314 0.49999999999999861 0 0.1110976414780374 0.49389626975508399 0 0.1067724168845353 0.48144098181691503 0 0.10006026653528489 0.49108222212950298 0 0.1110976414780374 0.49389626975508399 0 0.097019276609724314 0.49999999999999861 0 0.1110976414780374 0.49389626975508399 0 0.1261865759745526 0.5 0 0.1067724168845353 0.48144098181691503 0 0.1110976414780374 0.49389626975508399 0 0.1178097918272879 0.48425502944249638 0 0.1110976414780374 0.49389626975508399 0 0.1245117257645024 0.49085341965634172 0 0.1261865759745526 0.5 0 0.1110976414780374 0.49389626975508399 0 0.12517600634635029 0.48779253951016921 0 0.1110976414780374 0.49389626975508399 0 0.1178097918272879 0.48425502944249638 0 0.12517600634635029 0.48779253951016921 0 0.1110976414780374 0.49389626975508399 0 0.1245117257645024 0.49085341965634172 0 0.12517600634635029 0.48779253951016921 0 0.1245117257645024 0.49085341965634172 0 0.12517600634635029 0.48779253951016921 0 0.1067724168845353 0.48144098181691503 0 0.1178097918272879 0.48425502944249638 0 0.12819310260022829 0.47389032668781628 0 0.1067724168845353 0.48144098181691503 0 0.12819310260022829 0.47389032668781628 0 0.1178097918272879 0.48425502944249638 0 0.12819310260022829 0.47389032668781628 0 0.12517600634635029 0.48779253951016921 0 0.1067724168845353 0.48144098181691503 0 0.1147982116301102 0.47004977716376561 0 0.12819310260022829 0.47389032668781628 0 0.1147982116301102 0.47004977716376561 0 0.11016572884150259 0.45690774429357067 0 0.13396119348987379 0.44731204731625551 0 0.1147982116301102 0.47004977716376561 0 0.11016572884150259 0.45690774429357067 0 0.1041569771177121 0.46786120074045329 0 0.11016572884150259 0.45690774429357067 0 0.1162055382505036 0.44233286403195698 0 0.13396119348987379 0.44731204731625551 0 0.1162055382505036 0.44233286403195698 0 0.1020490271267106 0.44659403807733722 0 0.1103339621552718 0.42845863837233172 0 0.1162055382505036 0.44233286403195698 0 0.1245177796391589 0.43239185210029008 0 0.13396119348987379 0.44731204731625551 0 0.11016572884150259 0.45690774429357067 0 0.1162055382505036 0.44233286403195698 0 0.1020490271267106 0.44659403807733722 0 0.1020490271267106 0.44659403807733722 0 0.098222723296363001 0.45921659707581441 0 0.086228127610033983 0.45453602052835351 0 0.11016572884150259 0.45690774429357067 0 0.1041569771177121 0.46786120074045329 0 0.098222723296363001 0.45921659707581441 0 0.11016572884150259 0.45690774429357067 0 0.1020490271267106 0.44659403807733722 0 0.098222723296363001 0.45921659707581441 0 0.1041569771177121 0.46786120074045329 0 0.098222723296363001 0.45921659707581441 0 0.091434238922942362 0.47208746167137072 0 0.098222723296363001 0.45921659707581441 0 0.086228127610033983 0.45453602052835351 0 0.091434238922942362 0.47208746167137072 0 0.086228127610033983 0.45453602052835351 0 0.07631581299928375 0.47176877993343252 0 0.091434238922942362 0.47208746167137072 0 0.086228127610033983 0.45453602052835351 0 0.074559757244095928 0.44174054968635751 0 0.090756079845470475 0.43523223782285159 0 0.1020490271267106 0.44659403807733722 0 0.086228127610033983 0.45453602052835351 0 0.090756079845470475 0.43523223782285159 0 0.074559757244095928 0.44174054968635751 0 0.067174580004570827 0.45645986843210729 0 0.052725697646332323 0.44133330214435051 0 0.086228127610033983 0.45453602052835351 0 0.074559757244095928 0.44174054968635751 0 0.067174580004570827 0.45645986843210729 0 0.086228127610033983 0.45453602052835351 0 0.067174580004570827 0.45645986843210729 0 0.07631581299928375 0.47176877993343252 0 0.067174580004570827 0.45645986843210729 0 0.07631581299928375 0.47176877993343252 0 0.060969369441049533 0.47152778852492921 0 0.07631581299928375 0.47176877993343252 0 0.063625341192355009 0.48541415390687798 0 0.060969369441049533 0.47152778852492921 0 0.07631581299928375 0.47176877993343252 0 0.085351731168842981 0.48899163694601577 0 0.063625341192355009 0.48541415390687798 0 0.07631581299928375 0.47176877993343252 0 0.091434238922942362 0.47208746167137072 0 0.085351731168842981 0.48899163694601577 0 0.097019276609724314 0.49999999999999861 0 0.085351731168842981 0.48899163694601577 0 0.071185740386265794 0.5 0 0.085351731168842981 0.48899163694601577 0 0.071185740386265794 0.5 0 0.063625341192355009 0.48541415390687798 0 0.063625341192355009 0.48541415390687798 0 0.042577188995880783 0.48019671803689051 0 0.045352204162807268 0.5 0 0.071185740386265794 0.5 0 0.063625341192355009 0.48541415390687798 0 0.045352204162807268 0.5 0 0.063625341192355009 0.48541415390687798 0 0.060969369441049533 0.47152778852492921 0 0.042577188995880783 0.48019671803689051 0 0.060969369441049533 0.47152778852492921 0 0.042577188995880783 0.48019671803689051 0 0.052248715086629517 0.45785276977522138 0 0.042577188995880783 0.48019671803689051 0 0.020903428144370351 0.47633978079336231 0 0.03434249882868691 0.45817644494857668 0 0.042577188995880783 0.48019671803689051 0 0.045352204162807268 0.5 0 0.0195186679393488 0.50000000000000022 0 0.042577188995880783 0.48019671803689051 0 0.0195186679393488 0.50000000000000022 0 0.020903428144370351 0.47633978079336231 0 0.020903428144370351 0.47633978079336231 0 0.0012019329686607969 0.48450885474391941 0 0.0068768519892745527 0.45881688623742412 0 -0.010115102855063229 0.5 0 0.0195186679393488 0.50000000000000022 0 0.0012019329686607969 0.48450885474391941 0 0.0195186679393488 0.50000000000000022 0 0.020903428144370351 0.47633978079336231 0 0.0012019329686607969 0.48450885474391941 0 0.0195186679393488 0.50000000000000022 0 0.0012019329686607969 0.48450885474391941 0 0.0068768519892745527 0.45881688623742412 0 0.016819806611924591 0.44349236080497029 0 0.0042338275760578263 0.43188572305673312 0 0.020903428144370351 0.47633978079336231 0 0.0068768519892745527 0.45881688623742412 0 0.03434249882868691 0.45817644494857668 0 0.0068768519892745527 0.45881688623742412 0 0.016819806611924591 0.44349236080497029 0 0.03434249882868691 0.45817644494857668 0 0.016819806611924591 0.44349236080497029 0 0.03434249882868691 0.45817644494857668 0 0.029341503137608499 0.43413202961663327 0 0.03434249882868691 0.45817644494857668 0 0.052725697646332323 0.44133330214435051 0 0.029341503137608499 0.43413202961663327 0 0.03434249882868691 0.45817644494857668 0 0.052725697646332323 0.44133330214435051 0 0.03434249882868691 0.45817644494857668 0 0.052248715086629517 0.45785276977522138 0 0.052725697646332323 0.44133330214435051 0 0.042577188995880783 0.48019671803689051 0 0.03434249882868691 0.45817644494857668 0 0.052248715086629517 0.45785276977522138 0 0.067174580004570827 0.45645986843210729 0 0.060969369441049533 0.47152778852492921 0 0.052248715086629517 0.45785276977522138 0 0.067174580004570827 0.45645986843210729 0 0.052248715086629517 0.45785276977522138 0 0.052725697646332323 0.44133330214435051 0 0.052725697646332323 0.44133330214435051 0 0.055289926878550479 0.41663958271222329 0 0.07110889646397775 0.42449015934012441 0 0.052725697646332323 0.44133330214435051 0 0.07110889646397775 0.42449015934012441 0 0.052725697646332323 0.44133330214435051 0 0.055289926878550479 0.41663958271222329 0 0.043013780823726387 0.42642132210353401 0 0.055289926878550479 0.41663958271222329 0 0.036622402090808102 0.41390816527765067 0 0.051694471554084277 0.3987375744211098 0 0.055289926878550479 0.41663958271222329 0 0.051694471554084277 0.3987375744211098 0 0.069295596772900814 0.40588260530471232 0 0.055289926878550479 0.41663958271222329 0 0.036622402090808102 0.41390816527765067 0 0.043013780823726387 0.42642132210353401 0 0.052725697646332323 0.44133330214435051 0 0.043013780823726387 0.42642132210353401 0 0.029341503137608499 0.43413202961663327 0 0.036622402090808102 0.41390816527765067 0 0.043013780823726387 0.42642132210353401 0 0.029341503137608499 0.43413202961663327 0 0.016819806611924591 0.44349236080497029 0 0.029341503137608499 0.43413202961663327 0 0.01828546236778068 0.42156886218211997 0 0.036622402090808102 0.41390816527765067 0 0.029341503137608499 0.43413202961663327 0 0.01828546236778068 0.42156886218211997 0 0.01828546236778068 0.42156886218211997 0 0.0070223592399350446 0.40923483965026269 0 0.022763024052792399 0.40600242231213041 0 0.036622402090808102 0.41390816527765067 0 0.01828546236778068 0.42156886218211997 0 0.022763024052792399 0.40600242231213041 0 -0.0076115207183707241 0.41452343541042241 0 0.0070223592399350446 0.40923483965026269 0 0.0042338275760578263 0.43188572305673312 0 0.01828546236778068 0.42156886218211997 0 0.0070223592399350446 0.40923483965026269 0 0.0042338275760578263 0.43188572305673312 0 0.016819806611924591 0.44349236080497029 0 0.01828546236778068 0.42156886218211997 0 0.0042338275760578263 0.43188572305673312 0 -0.00076713742650450097 0.38132983848006419 0 0.016742817574102991 0.38874441118228131 0 0.01663773989627514 0.37119094802062158 0 -0.0120711747758128 0.3966201344904503 0 -0.00076713742650450097 0.38132983848006419 0 0.016742817574102991 0.38874441118228131 0 -0.0120711747758128 0.3966201344904503 0 0.016742817574102991 0.38874441118228131 0 -0.0120711747758128 0.3966201344904503 0 0.0070223592399350446 0.40923483965026269 0 0.016742817574102991 0.38874441118228131 0 0.0070223592399350446 0.40923483965026269 0 0.022763024052792399 0.40600242231213041 0 0.016742817574102991 0.38874441118228131 0 0.022763024052792399 0.40600242231213041 0 0.016742817574102991 0.38874441118228131 0 0.03471828448935891 0.39755257776390052 0 0.016742817574102991 0.38874441118228131 0 0.045556809924018643 0.38086868787411221 0 0.016742817574102991 0.38874441118228131 0 0.035731389139767228 0.37772684181937838 0 0.01663773989627514 0.37119094802062158 0 0.016742817574102991 0.38874441118228131 0 0.045556809924018643 0.38086868787411221 0 0.03471828448935891 0.39755257776390052 0 0.016742817574102991 0.38874441118228131 0 0.035731389139767228 0.37772684181937838 0 0.045556809924018643 0.38086868787411221 0 0.035731389139767228 0.37772684181937838 0 0.045556809924018643 0.38086868787411221 0 0.043979366562932921 0.37304796139287988 0 0.045556809924018643 0.38086868787411221 0 0.03471828448935891 0.39755257776390052 0 0.051694471554084277 0.3987375744211098 0 0.036622402090808102 0.41390816527765067 0 0.03471828448935891 0.39755257776390052 0 0.051694471554084277 0.3987375744211098 0 0.036622402090808102 0.41390816527765067 0 0.022763024052792399 0.40600242231213041 0 0.03471828448935891 0.39755257776390052 0 0.051694471554084277 0.3987375744211098 0 0.063012755431034781 0.38855486989882371 0 0.069295596772900814 0.40588260530471232 0 0.045556809924018643 0.38086868787411221 0 0.051694471554084277 0.3987375744211098 0 0.063012755431034781 0.38855486989882371 0 0.045556809924018643 0.38086868787411221 0 0.063012755431034781 0.38855486989882371 0 0.074370802273934389 0.37299296456594311 0 0.045556809924018643 0.38086868787411221 0 0.074370802273934389 0.37299296456594311 0 0.063012755431034781 0.38855486989882371 0 0.074522582747459556 0.38942051424889318 0 0.074370802273934389 0.37299296456594311 0 0.074522582747459556 0.38942051424889318 0 0.091411176511968228 0.39025161722609381 0 0.074370802273934389 0.37299296456594311 0 0.091411176511968228 0.39025161722609381 0 0.10318479462385011 0.36511724125777412 0 0.074370802273934389 0.37299296456594311 0 0.074522582747459556 0.38942051424889318 0 0.091411176511968228 0.39025161722609381 0 0.069295596772900814 0.40588260530471232 0 0.091411176511968228 0.39025161722609381 0 0.069295596772900814 0.40588260530471232 0 0.091411176511968228 0.39025161722609381 0 0.069295596772900814 0.40588260530471232 0 0.089492095281623121 0.40764701653589819 0 0.063012755431034781 0.38855486989882371 0 0.074522582747459556 0.38942051424889318 0 0.069295596772900814 0.40588260530471232 0 0.069295596772900814 0.40588260530471232 0 0.07110889646397775 0.42449015934012441 0 0.089492095281623121 0.40764701653589819 0 0.055289926878550479 0.41663958271222329 0 0.069295596772900814 0.40588260530471232 0 0.07110889646397775 0.42449015934012441 0 0.074559757244095928 0.44174054968635751 0 0.052725697646332323 0.44133330214435051 0 0.07110889646397775 0.42449015934012441 0 0.07110889646397775 0.42449015934012441 0 0.090756079845470475 0.43523223782285159 0 0.093944311952750895 0.42102541681605121 0 0.074559757244095928 0.44174054968635751 0 0.07110889646397775 0.42449015934012441 0 0.090756079845470475 0.43523223782285159 0 0.07110889646397775 0.42449015934012441 0 0.089492095281623121 0.40764701653589819 0 0.07110889646397775 0.42449015934012441 0 0.089492095281623121 0.40764701653589819 0 0.093944311952750895 0.42102541681605121 0 0.089492095281623121 0.40764701653589819 0 0.093944311952750895 0.42102541681605121 0 0.1080305260174113 0.40929903200904999 0 0.093944311952750895 0.42102541681605121 0 0.1080305260174113 0.40929903200904999 0 0.1103339621552718 0.42845863837233172 0 0.090756079845470475 0.43523223782285159 0 0.093944311952750895 0.42102541681605121 0 0.1103339621552718 0.42845863837233172 0 0.1020490271267106 0.44659403807733722 0 0.090756079845470475 0.43523223782285159 0 0.1103339621552718 0.42845863837233172 0 0.1162055382505036 0.44233286403195698 0 0.1103339621552718 0.42845863837233172 0 0.1245177796391589 0.43239185210029008 0 0.1103339621552718 0.42845863837233172 0 0.1245177796391589 0.43239185210029008 0 0.1213684831726156 0.41984525817789697 0 0.1080305260174113 0.40929903200904999 0 0.1213684831726156 0.41984525817789697 0 0.1238762683418782 0.40599482402868131 0 0.1080305260174113 0.40929903200904999 0 0.1103339621552718 0.42845863837233172 0 0.1213684831726156 0.41984525817789697 0 0.1080305260174113 0.40929903200904999 0 0.11587710291303931 0.39956901647268439 0 0.1078752940992684 0.39080387373167208 0 0.1080305260174113 0.40929903200904999 0 0.1238762683418782 0.40599482402868131 0 0.11587710291303931 0.39956901647268439 0 0.1238762683418782 0.40599482402868131 0 0.11587710291303931 0.39956901647268439 0 0.12372632319359921 0.39217833612133429 0 0.11587710291303931 0.39956901647268439 0 0.12372632319359921 0.39217833612133429 0 0.1078752940992684 0.39080387373167208 0 0.12372632319359921 0.39217833612133429 0 0.1078752940992684 0.39080387373167208 0 0.12625849291691371 0.37396073092744597 0 0.1078752940992684 0.39080387373167208 0 0.1135267562510356 0.37462062914747529 0 0.12625849291691371 0.37396073092744597 0 0.1078752940992684 0.39080387373167208 0 0.12625849291691371 0.37396073092744597 0 0.091411176511968228 0.39025161722609381 0 0.10318479462385011 0.36511724125777412 0 0.1135267562510356 0.37462062914747529 0 0.091411176511968228 0.39025161722609381 0 0.1135267562510356 0.37462062914747529 0 0.091411176511968228 0.39025161722609381 0 0.1078752940992684 0.39080387373167208 0 0.1135267562510356 0.37462062914747529 0 0.089492095281623121 0.40764701653589819 0 0.1080305260174113 0.40929903200904999 0 0.1078752940992684 0.39080387373167208 0 0.091411176511968228 0.39025161722609381 0 0.089492095281623121 0.40764701653589819 0 0.1078752940992684 0.39080387373167208 0 0.089492095281623121 0.40764701653589819 0 0.1078752940992684 0.39080387373167208 0 0.10369264183700019 0.35279658551827631 0 0.1008834330267353 0.34174688529350528 0 0.087326645585158028 0.35488035968372122 0 0.10369264183700019 0.35279658551827631 0 0.10318479462385011 0.36511724125777412 0 0.087326645585158028 0.35488035968372122 0 0.10369264183700019 0.35279658551827631 0 0.10318479462385011 0.36511724125777412 0 0.1125618619464636 0.35349694073968752 0 0.10369264183700019 0.35279658551827631 0 0.1113173150936116 0.34493834248078648 0 0.1008834330267353 0.34174688529350528 0 0.10369264183700019 0.35279658551827631 0 0.1125618619464636 0.35349694073968752 0 0.1113173150936116 0.34493834248078648 0 0.1135267562510356 0.37462062914747529 0 0.13564233599010311 0.35898964106885678 0 0.10318479462385011 0.36511724125777412 0 0.13199878697376571 0.35724151794960501 0 0.10318479462385011 0.36511724125777412 0 0.1135267562510356 0.37462062914747529 0 0.13199878697376571 0.35724151794960501 0 0.1231521769254733 0.35502656030205521 0 0.1125618619464636 0.35349694073968752 0 0.11889579760578679 0.34815826979673992 0 0.10318479462385011 0.36511724125777412 0 0.1231521769254733 0.35502656030205521 0 0.13199878697376571 0.35724151794960501 0 0.10318479462385011 0.36511724125777412 0 0.1231521769254733 0.35502656030205521 0 0.1125618619464636 0.35349694073968752 0 0.1113173150936116 0.34493834248078648 0 0.11889579760578679 0.34815826979673992 0 0.120241251302017 0.33972419534779152 0 0.1125618619464636 0.35349694073968752 0 0.1113173150936116 0.34493834248078648 0 0.11889579760578679 0.34815826979673992 0 0.11889579760578679 0.34815826979673992 0 0.120241251302017 0.33972419534779152 0 0.12720638276136839 0.34760531011337908 0 0.1231521769254733 0.35502656030205521 0 0.11889579760578679 0.34815826979673992 0 0.12720638276136839 0.34760531011337908 0 0.120241251302017 0.33972419534779152 0 0.11078958507378631 0.33358931514809231 0 0.1212896946230136 0.32518569692851912 0 0.120241251302017 0.33972419534779152 0 0.1212896946230136 0.32518569692851912 0 0.13152628618132831 0.33742037386640461 0 0.1113173150936116 0.34493834248078648 0 0.120241251302017 0.33972419534779152 0 0.11078958507378631 0.33358931514809231 0 0.1212896946230136 0.32518569692851912 0 0.1142683619475604 0.3097749079638204 0 0.12891256720412439 0.31003188246321089 0 0.11078958507378631 0.33358931514809231 0 0.1212896946230136 0.32518569692851912 0 0.1065564608900387 0.32297829003120582 0 0.1212896946230136 0.32518569692851912 0 0.1065564608900387 0.32297829003120582 0 0.1142683619475604 0.3097749079638204 0 0.1065564608900387 0.32297829003120582 0 0.097654372222842803 0.31126270239019499 0 0.1142683619475604 0.3097749079638204 0 0.1065564608900387 0.32297829003120582 0 0.1003405410631764 0.33161023038635651 0 0.091615274678278194 0.32499127103887071 0 0.1065564608900387 0.32297829003120582 0 0.091615274678278194 0.32499127103887071 0 0.097654372222842803 0.31126270239019499 0 0.1113173150936116 0.34493834248078648 0 0.11078958507378631 0.33358931514809231 0 0.1008834330267353 0.34174688529350528 0 0.11078958507378631 0.33358931514809231 0 0.1003405410631764 0.33161023038635651 0 0.1008834330267353 0.34174688529350528 0 0.11078958507378631 0.33358931514809231 0 0.1065564608900387 0.32297829003120582 0 0.1003405410631764 0.33161023038635651 0 0.1003405410631764 0.33161023038635651 0 0.1008834330267353 0.34174688529350528 0 0.088406573899406649 0.33930865704551261 0 0.088406573899406649 0.33930865704551261 0 0.091615274678278194 0.32499127103887071 0 0.079639953686250986 0.32661862115488249 0 0.1003405410631764 0.33161023038635651 0 0.088406573899406649 0.33930865704551261 0 0.091615274678278194 0.32499127103887071 0 0.088406573899406649 0.33930865704551261 0 0.079639953686250986 0.32661862115488249 0 0.073229314568926035 0.33983792212063307 0 0.091615274678278194 0.32499127103887071 0 0.079736948897354679 0.31375338258186458 0 0.097654372222842803 0.31126270239019499 0 0.091615274678278194 0.32499127103887071 0 0.079639953686250986 0.32661862115488249 0 0.079736948897354679 0.31375338258186458 0 0.079736948897354679 0.31375338258186458 0 0.066288604455960562 0.32345088269627631 0 0.064043619806246413 0.31014117917525702 0 0.079639953686250986 0.32661862115488249 0 0.079736948897354679 0.31375338258186458 0 0.066288604455960562 0.32345088269627631 0 0.066288604455960562 0.32345088269627631 0 0.073229314568926035 0.33983792212063307 0 0.05909861378591625 0.3340847161636411 0 0.079639953686250986 0.32661862115488249 0 0.066288604455960562 0.32345088269627631 0 0.073229314568926035 0.33983792212063307 0 0.073229314568926035 0.33983792212063307 0 0.059437595627828008 0.34744193079237728 0 0.05909861378591625 0.3340847161636411 0 0.073229314568926035 0.33983792212063307 0 0.072599902595748833 0.3545600296666519 0 0.059437595627828008 0.34744193079237728 0 0.072599902595748833 0.3545600296666519 0 0.062838692900066176 0.3597892559707993 0 0.059437595627828008 0.34744193079237728 0 0.073229314568926035 0.33983792212063307 0 0.072599902595748833 0.3545600296666519 0 0.087326645585158028 0.35488035968372122 0 0.088406573899406649 0.33930865704551261 0 0.073229314568926035 0.33983792212063307 0 0.087326645585158028 0.35488035968372122 0 0.1008834330267353 0.34174688529350528 0 0.088406573899406649 0.33930865704551261 0 0.087326645585158028 0.35488035968372122 0 0.10318479462385011 0.36511724125777412 0 0.087326645585158028 0.35488035968372122 0 0.074370802273934389 0.37299296456594311 0 0.10318479462385011 0.36511724125777412 0 0.074370802273934389 0.37299296456594311 0 0.072599902595748833 0.3545600296666519 0 0.087326645585158028 0.35488035968372122 0 0.074370802273934389 0.37299296456594311 0 0.074370802273934389 0.37299296456594311 0 0.062838692900066176 0.3597892559707993 0 0.053031990149653957 0.36821796602580681 0 0.072599902595748833 0.3545600296666519 0 0.074370802273934389 0.37299296456594311 0 0.062838692900066176 0.3597892559707993 0 0.045556809924018643 0.38086868787411221 0 0.074370802273934389 0.37299296456594311 0 0.053031990149653957 0.36821796602580681 0 0.062838692900066176 0.3597892559707993 0 0.053031990149653957 0.36821796602580681 0 0.050989389361171152 0.35722093036851682 0 0.053031990149653957 0.36821796602580681 0 0.050989389361171152 0.35722093036851682 0 0.041597277038291858 0.36537834985222217 0 0.045556809924018643 0.38086868787411221 0 0.053031990149653957 0.36821796602580681 0 0.043979366562932921 0.37304796139287988 0 0.062838692900066176 0.3597892559707993 0 0.059437595627828008 0.34744193079237728 0 0.050989389361171152 0.35722093036851682 0 0.059437595627828008 0.34744193079237728 0 0.050989389361171152 0.35722093036851682 0 0.048708800308124398 0.34762673366796148 0 0.059437595627828008 0.34744193079237728 0 0.048708800308124398 0.34762673366796148 0 0.05157066929529143 0.33983827038517073 0 0.048708800308124398 0.34762673366796148 0 0.0403219801430625 0.35487134590193348 0 0.042685960488772157 0.3389742745367903 0 0.0403219801430625 0.35487134590193348 0 0.038948346873270277 0.33955649062579452 0 0.042685960488772157 0.3389742745367903 0 0.0403219801430625 0.35487134590193348 0 0.042685960488772157 0.3389742745367903 0 0.050989389361171152 0.35722093036851682 0 0.0403219801430625 0.35487134590193348 0 0.041597277038291858 0.36537834985222217 0 0.050989389361171152 0.35722093036851682 0 0.048708800308124398 0.34762673366796148 0 0.0403219801430625 0.35487134590193348 0 0.0403219801430625 0.35487134590193348 0 0.033047328657922807 0.34854911550872092 0 0.029898761138257311 0.35953085389502693 0 0.0403219801430625 0.35487134590193348 0 0.033047328657922807 0.34854911550872092 0 0.038948346873270277 0.33955649062579452 0 0.035731389139767228 0.37772684181937838 0 0.029898761138257311 0.35953085389502693 0 0.035731389139767228 0.37772684181937838 0 0.041597277038291858 0.36537834985222217 0 0.029898761138257311 0.35953085389502693 0 0.053031990149653957 0.36821796602580681 0 0.043979366562932921 0.37304796139287988 0 0.041597277038291858 0.36537834985222217 0 0.035731389139767228 0.37772684181937838 0 0.043979366562932921 0.37304796139287988 0 0.041597277038291858 0.36537834985222217 0 0.0403219801430625 0.35487134590193348 0 0.041597277038291858 0.36537834985222217 0 0.029898761138257311 0.35953085389502693 0 0.035731389139767228 0.37772684181937838 0 0.01663773989627514 0.37119094802062158 0 0.029898761138257311 0.35953085389502693 0 0.01663773989627514 0.37119094802062158 0 0.029898761138257311 0.35953085389502693 0 0.018198400498596889 0.35810618803083161 0 0.029898761138257311 0.35953085389502693 0 0.024066133136747939 0.34133486597067508 0 0.029898761138257311 0.35953085389502693 0 0.018198400498596889 0.35810618803083161 0 0.024066133136747939 0.34133486597067508 0 0.033047328657922807 0.34854911550872092 0 0.029898761138257311 0.35953085389502693 0 0.024066133136747939 0.34133486597067508 0 0.0021909678231061551 0.36036808423700167 0 0.0073159642976379849 0.34264390380503168 0 0.024066133136747939 0.34133486597067508 0 0.0021909678231061551 0.36036808423700167 0 0.024066133136747939 0.34133486597067508 0 0.018198400498596889 0.35810618803083161 0 0.0021909678231061551 0.36036808423700167 0 0.024066133136747939 0.34133486597067508 0 -0.005421896929821363 0.3497730111300042 0 0.0021909678231061551 0.36036808423700167 0 0.0073159642976379849 0.34264390380503168 0 -0.00076713742650450097 0.38132983848006419 0 0.01663773989627514 0.37119094802062158 0 0.0021909678231061551 0.36036808423700167 0 0.01663773989627514 0.37119094802062158 0 0.018198400498596889 0.35810618803083161 0 0.0021909678231061551 0.36036808423700167 0 -0.002081473568400747 0.33367879441109771 0 0.01775370235220582 0.32164204237569871 0 -0.002081473568400747 0.33367879441109771 0 -0.0027699588784619888 0.31251482367200029 0 0.01775370235220582 0.32164204237569871 0 -0.002081473568400747 0.33367879441109771 0 0.0073159642976379849 0.34264390380503168 0 0.01775370235220582 0.32164204237569871 0 0.024066133136747939 0.34133486597067508 0 0.02818664294760697 0.32460713394214857 0 0.01775370235220582 0.32164204237569871 0 0.024066133136747939 0.34133486597067508 0 0.01775370235220582 0.32164204237569871 0 0.0073159642976379849 0.34264390380503168 0 0.024066133136747939 0.34133486597067508 0 0.01775370235220582 0.32164204237569871 0 0.024066133136747939 0.34133486597067508 0 0.02818664294760697 0.32460713394214857 0 0.038011881659984592 0.32920090164518268 0 0.024066133136747939 0.34133486597067508 0 0.038011881659984592 0.32920090164518268 0 0.01775370235220582 0.32164204237569871 0 0.03037360108686778 0.31398379964628143 0 0.02179550171596429 0.30421131614352642 0 0.02818664294760697 0.32460713394214857 0 0.01775370235220582 0.32164204237569871 0 0.03037360108686778 0.31398379964628143 0 0.01775370235220582 0.32164204237569871 0 0.03037360108686778 0.31398379964628143 0 0.03037360108686778 0.31398379964628143 0 0.038011881659984592 0.32920090164518268 0 0.035953686708500507 0.30644103757635149 0 0.045049940834481092 0.32307720317164701 0 0.038011881659984592 0.32920090164518268 0 0.035953686708500507 0.30644103757635149 0 0.038011881659984592 0.32920090164518268 0 0.035953686708500507 0.30644103757635149 0 0.02818664294760697 0.32460713394214857 0 0.03037360108686778 0.31398379964628143 0 0.038011881659984592 0.32920090164518268 0 0.045049940834481092 0.32307720317164701 0 0.038011881659984592 0.32920090164518268 0 0.045049940834481092 0.32307720317164701 0 0.042685960488772157 0.3389742745367903 0 0.045049940834481092 0.32307720317164701 0 0.038011881659984592 0.32920090164518268 0 0.042685960488772157 0.3389742745367903 0 0.045049940834481092 0.32307720317164701 0 0.042685960488772157 0.3389742745367903 0 0.050539938490487268 0.33210056999531212 0 0.024066133136747939 0.34133486597067508 0 0.038948346873270277 0.33955649062579452 0 0.038011881659984592 0.32920090164518268 0 0.033047328657922807 0.34854911550872092 0 0.024066133136747939 0.34133486597067508 0 0.038948346873270277 0.33955649062579452 0 0.038948346873270277 0.33955649062579452 0 0.038011881659984592 0.32920090164518268 0 0.038948346873270277 0.33955649062579452 0 0.038011881659984592 0.32920090164518268 0 0.042685960488772157 0.3389742745367903 0 0.048708800308124398 0.34762673366796148 0 0.042685960488772157 0.3389742745367903 0 0.05157066929529143 0.33983827038517073 0 0.042685960488772157 0.3389742745367903 0 0.05157066929529143 0.33983827038517073 0 0.050539938490487268 0.33210056999531212 0 0.05157066929529143 0.33983827038517073 0 0.050539938490487268 0.33210056999531212 0 0.05909861378591625 0.3340847161636411 0 0.050539938490487268 0.33210056999531212 0 0.05909861378591625 0.3340847161636411 0 0.055022530585245463 0.3255770665597803 0 0.059437595627828008 0.34744193079237728 0 0.05157066929529143 0.33983827038517073 0 0.05909861378591625 0.3340847161636411 0 0.045049940834481092 0.32307720317164701 0 0.054135555359381367 0.31517196077202492 0 0.048591161286228063 0.29926353892385271 0 0.045049940834481092 0.32307720317164701 0 0.054135555359381367 0.31517196077202492 0 0.045049940834481092 0.32307720317164701 0 0.054135555359381367 0.31517196077202492 0 0.055022530585245463 0.3255770665597803 0 0.045049940834481092 0.32307720317164701 0 0.050539938490487268 0.33210056999531212 0 0.055022530585245463 0.3255770665597803 0 0.066288604455960562 0.32345088269627631 0 0.054135555359381367 0.31517196077202492 0 0.055022530585245463 0.3255770665597803 0 0.066288604455960562 0.32345088269627631 0 0.05909861378591625 0.3340847161636411 0 0.055022530585245463 0.3255770665597803 0 0.066288604455960562 0.32345088269627631 0 0.054135555359381367 0.31517196077202492 0 0.064043619806246413 0.31014117917525702 0 0.054135555359381367 0.31517196077202492 0 0.048591161286228063 0.29926353892385271 0 0.064043619806246413 0.31014117917525702 0 0.048591161286228063 0.29926353892385271 0 0.07146582903230736 0.29906613090226619 0 0.064043619806246413 0.31014117917525702 0 0.048591161286228063 0.29926353892385271 0 0.052132381737974298 0.27544987467605819 0 0.048591161286228063 0.29926353892385271 0 0.052132381737974298 0.27544987467605819 0 0.065898574440564281 0.28513775541308189 0 0.048591161286228063 0.29926353892385271 0 0.065898574440564281 0.28513775541308189 0 0.07146582903230736 0.29906613090226619 0 0.033895491757015478 0.28368117350752048 0 0.035953686708500507 0.30644103757635149 0 0.02850649319461409 0.29949568540263422 0 0.048591161286228063 0.29926353892385271 0 0.033895491757015478 0.28368117350752048 0 0.035953686708500507 0.30644103757635149 0 0.033895491757015478 0.28368117350752048 0 0.035953686708500507 0.30644103757635149 0 0.048591161286228063 0.29926353892385271 0 0.033895491757015478 0.28368117350752048 0 0.052132381737974298 0.27544987467605819 0 0.045049940834481092 0.32307720317164701 0 0.048591161286228063 0.29926353892385271 0 0.035953686708500507 0.30644103757635149 0 0.045049940834481092 0.32307720317164701 0 0.048591161286228063 0.29926353892385271 0 0.03037360108686778 0.31398379964628143 0 0.035953686708500507 0.30644103757635149 0 0.02850649319461409 0.29949568540263422 0 0.03037360108686778 0.31398379964628143 0 0.02179550171596429 0.30421131614352642 0 0.02850649319461409 0.29949568540263422 0 0.01775370235220582 0.32164204237569871 0 0.02179550171596429 0.30421131614352642 0 0.0092371343351891171 0.29507299515471958 0 0.02179550171596429 0.30421131614352642 0 0.02850649319461409 0.29949568540263422 0 0.023106577610946241 0.29086205813829769 0 0.033895491757015478 0.28368117350752048 0 0.02850649319461409 0.29949568540263422 0 0.023106577610946241 0.29086205813829769 0 0.033895491757015478 0.28368117350752048 0 0.022921731261469531 0.28181270562277527 0 0.023106577610946241 0.29086205813829769 0 0.022921731261469531 0.28181270562277527 0 0.023106577610946241 0.29086205813829769 0 0.01191357196456316 0.2796830030360169 0 0.023106577610946241 0.29086205813829769 0 0.01191357196456316 0.2796830030360169 0 0.02179550171596429 0.30421131614352642 0 0.023106577610946241 0.29086205813829769 0 0.0092371343351891171 0.29507299515471958 0 0.0092371343351891171 0.29507299515471958 0 0.00072056631817731583 0.26850394793373877 0 0.023106577610946241 0.29086205813829769 0 0.0092371343351891171 0.29507299515471958 0 0.01191357196456316 0.2796830030360169 0 -0.0027699588784619888 0.31251482367200029 0 0.01775370235220582 0.32164204237569871 0 0.0092371343351891171 0.29507299515471958 0 0.01775370235220582 0.32164204237569871 0 0.0092371343351891171 0.29507299515471958 0 -0.0057978565220940534 0.248168493099893 0 0.01468722147498679 0.24962389663122819 0 0.0058716135112197622 0.25844634870253541 0 0.01468722147498679 0.24962389663122819 0 0.0058716135112197622 0.25844634870253541 0 0.0096980201594757051 0.26954535466568991 0 -0.0057978565220940534 0.248168493099893 0 0.0058716135112197622 0.25844634870253541 0 0.00072056631817731583 0.26850394793373877 0 0.0058716135112197622 0.25844634870253541 0 0.00072056631817731583 0.26850394793373877 0 0.0096980201594757051 0.26954535466568991 0 0.00072056631817731583 0.26850394793373877 0 0.01191357196456316 0.2796830030360169 0 0.0096980201594757051 0.26954535466568991 0 0.0092371343351891171 0.29507299515471958 0 0.00072056631817731583 0.26850394793373877 0 0.01191357196456316 0.2796830030360169 0 0.00072056631817731583 0.26850394793373877 0 0.01191357196456316 0.2796830030360169 0 0.01191357196456316 0.2796830030360169 0 0.0096980201594757051 0.26954535466568991 0 0.02277128371335322 0.27302458780926619 0 0.0096980201594757051 0.26954535466568991 0 0.02277128371335322 0.27302458780926619 0 0.031837296805529693 0.26092130943868941 0 0.033895491757015478 0.28368117350752048 0 0.02277128371335322 0.27302458780926619 0 0.031837296805529693 0.26092130943868941 0 0.022921731261469531 0.28181270562277527 0 0.01191357196456316 0.2796830030360169 0 0.02277128371335322 0.27302458780926619 0 0.033895491757015478 0.28368117350752048 0 0.022921731261469531 0.28181270562277527 0 0.02277128371335322 0.27302458780926619 0 0.0096980201594757051 0.26954535466568991 0 0.031837296805529693 0.26092130943868941 0 0.01468722147498679 0.24962389663122819 0 0.0096980201594757051 0.26954535466568991 0 0.031837296805529693 0.26092130943868941 0 0.031837296805529693 0.26092130943868941 0 0.055673602189719687 0.25163621042826362 0 0.031837296805529693 0.26092130943868941 0 0.052132381737974298 0.27544987467605819 0 0.055673602189719687 0.25163621042826362 0 0.033895491757015478 0.28368117350752048 0 0.031837296805529693 0.26092130943868941 0 0.033895491757015478 0.28368117350752048 0 0.031837296805529693 0.26092130943868941 0 0.052132381737974298 0.27544987467605819 0 0.052132381737974298 0.27544987467605819 0 0.055673602189719687 0.25163621042826362 0 0.052132381737974298 0.27544987467605819 0 0.055673602189719687 0.25163621042826362 0 0.073911337437039662 0.26675090807187102 0 0.07414687324980096 0.24444020634647609 0 0.055673602189719687 0.25163621042826362 0 0.073911337437039662 0.26675090807187102 0 0.07414687324980096 0.24444020634647609 0 0.089071591847657561 0.25534052219728248 0 0.073911337437039662 0.26675090807187102 0 0.089071591847657561 0.25534052219728248 0 0.073911337437039662 0.26675090807187102 0 0.096023922316944843 0.27114187293157849 0 0.073911337437039662 0.26675090807187102 0 0.083392162709272064 0.28515832449136119 0 0.096023922316944843 0.27114187293157849 0 0.083392162709272064 0.28515832449136119 0 0.096023922316944843 0.27114187293157849 0 0.083392162709272064 0.28515832449136119 0 0.096963564893469467 0.28645834482834309 0 0.096023922316944843 0.27114187293157849 0 0.073911337437039662 0.26675090807187102 0 0.065898574440564281 0.28513775541308189 0 0.083392162709272064 0.28515832449136119 0 0.052132381737974298 0.27544987467605819 0 0.073911337437039662 0.26675090807187102 0 0.065898574440564281 0.28513775541308189 0 0.065898574440564281 0.28513775541308189 0 0.07146582903230736 0.29906613090226619 0 0.083392162709272064 0.28515832449136119 0 0.079736948897354679 0.31375338258186458 0 0.07146582903230736 0.29906613090226619 0 0.064043619806246413 0.31014117917525702 0 0.079736948897354679 0.31375338258186458 0 0.07146582903230736 0.29906613090226619 0 0.089388384042049879 0.29885490263453968 0 0.079736948897354679 0.31375338258186458 0 0.089388384042049879 0.29885490263453968 0 0.097654372222842803 0.31126270239019499 0 0.07146582903230736 0.29906613090226619 0 0.089388384042049879 0.29885490263453968 0 0.083392162709272064 0.28515832449136119 0 0.089388384042049879 0.29885490263453968 0 0.083392162709272064 0.28515832449136119 0 0.096963564893469467 0.28645834482834309 0 0.096963564893469467 0.28645834482834309 0 0.10716068711402001 0.29650263825843748 0 0.1088526682850605 0.28063398582579852 0 0.089388384042049879 0.29885490263453968 0 0.096963564893469467 0.28645834482834309 0 0.10716068711402001 0.29650263825843748 0 0.089388384042049879 0.29885490263453968 0 0.10716068711402001 0.29650263825843748 0 0.097654372222842803 0.31126270239019499 0 0.10716068711402001 0.29650263825843748 0 0.097654372222842803 0.31126270239019499 0 0.1142683619475604 0.3097749079638204 0 0.10716068711402001 0.29650263825843748 0 0.1142683619475604 0.3097749079638204 0 0.12159667262059171 0.29444047867556378 0 0.1142683619475604 0.3097749079638204 0 0.12159667262059171 0.29444047867556378 0 0.12891256720412439 0.31003188246321089 0 0.12159667262059171 0.29444047867556378 0 0.1242584858355861 0.27647012752958011 0 0.1088526682850605 0.28063398582579852 0 0.10716068711402001 0.29650263825843748 0 0.12159667262059171 0.29444047867556378 0 0.1088526682850605 0.28063398582579852 0 0.1242584858355861 0.27647012752958011 0 0.1086556819246203 0.25712542137179822 0 0.1242584858355861 0.27647012752958011 0 0.1086556819246203 0.25712542137179822 0 0.1088526682850605 0.28063398582579852 0 0.1242584858355861 0.27647012752958011 0 0.1086556819246203 0.25712542137179822 0 0.12814097506799019 0.26480024641782879 0 0.1086556819246203 0.25712542137179822 0 0.12564271282936409 0.25472680154472599 0 0.12814097506799019 0.26480024641782879 0 0.1086556819246203 0.25712542137179822 0 0.096023922316944843 0.27114187293157849 0 0.089071591847657561 0.25534052219728248 0 0.1086556819246203 0.25712542137179822 0 0.096023922316944843 0.27114187293157849 0 0.1086556819246203 0.25712542137179822 0 0.096023922316944843 0.27114187293157849 0 0.1088526682850605 0.28063398582579852 0 0.096963564893469467 0.28645834482834309 0 0.096023922316944843 0.27114187293157849 0 0.1088526682850605 0.28063398582579852 0 0.1382768405196573 0.27517321875104911 0 0.16574401362871899 0.27545149454630291 0 0.150873716250705 0.26525086220719862 0 0.1382768405196573 0.27517321875104911 0 0.16574401362871899 0.27545149454630291 0 0.1382768405196573 0.27517321875104911 0 0.15067547651451249 0.28580891980784862 0 0.16574401362871899 0.27545149454630291 0 0.150873716250705 0.26525086220719862 0 0.13853052857218651 0.26605008734932362 0 0.1382768405196573 0.27517321875104911 0 0.150873716250705 0.26525086220719862 0 0.15010896408996399 0.25228823828904617 0 0.16024010556641441 0.25654761817813448 0 0.15010896408996399 0.25228823828904617 0 0.1379019604624489 0.25376960353603029 0 0.13853052857218651 0.26605008734932362 0 0.150873716250705 0.26525086220719862 0 0.15010896408996399 0.25228823828904617 0 0.13853052857218651 0.26605008734932362 0 0.15010896408996399 0.25228823828904617 0 0.13853052857218651 0.26605008734932362 0 0.1379019604624489 0.25376960353603029 0 0.12814097506799019 0.26480024641782879 0 0.13853052857218651 0.26605008734932362 0 0.1379019604624489 0.25376960353603029 0 0.12564271282936409 0.25472680154472599 0 0.12814097506799019 0.26480024641782879 0 0.13251332073818201 0.2463912188068034 0 0.1379019604624489 0.25376960353603029 0 0.12564271282936409 0.25472680154472599 0 0.1242584858355861 0.27647012752958011 0 0.12814097506799019 0.26480024641782879 0 0.1382768405196573 0.27517321875104911 0 0.12814097506799019 0.26480024641782879 0 0.13853052857218651 0.26605008734932362 0 0.1382768405196573 0.27517321875104911 0 0.1242584858355861 0.27647012752958011 0 0.1398612897465514 0.29581483368736239 0 0.1242584858355861 0.27647012752958011 0 0.1382768405196573 0.27517321875104911 0 0.1398612897465514 0.29581483368736239 0 0.12159667262059171 0.29444047867556378 0 0.1242584858355861 0.27647012752958011 0 0.1398612897465514 0.29581483368736239 0 0.1398612897465514 0.29581483368736239 0 0.12891256720412439 0.31003188246321089 0 0.1415525722017143 0.31285057542466549 0 0.12159667262059171 0.29444047867556378 0 0.1398612897465514 0.29581483368736239 0 0.12891256720412439 0.31003188246321089 0 0.1398612897465514 0.29581483368736239 0 0.15546409365751679 0.31515953984514461 0 0.1398612897465514 0.29581483368736239 0 0.1588197621631221 0.29679613224668011 0 0.15546409365751679 0.31515953984514461 0 0.1398612897465514 0.29581483368736239 0 0.15546409365751679 0.31515953984514461 0 0.1415525722017143 0.31285057542466549 0 0.1398612897465514 0.29581483368736239 0 0.15067547651451249 0.28580891980784862 0 0.1588197621631221 0.29679613224668011 0 0.1382768405196573 0.27517321875104911 0 0.1398612897465514 0.29581483368736239 0 0.15067547651451249 0.28580891980784862 0 0.1588197621631221 0.29679613224668011 0 0.1735025223157097 0.30086714960312277 0 0.17572976323139891 0.28871134808786769 0 0.1588197621631221 0.29679613224668011 0 0.17572976323139891 0.28871134808786769 0 0.16574401362871899 0.27545149454630291 0 0.15067547651451249 0.28580891980784862 0 0.1588197621631221 0.29679613224668011 0 0.16574401362871899 0.27545149454630291 0 0.1588197621631221 0.29679613224668011 0 0.16612145872144379 0.30977298515100909 0 0.15546409365751679 0.31515953984514461 0 0.1588197621631221 0.29679613224668011 0 0.16612145872144379 0.30977298515100909 0 0.1735025223157097 0.30086714960312277 0 0.16612145872144379 0.30977298515100909 0 0.1746246780639395 0.31236833145609699 0 0.1735025223157097 0.30086714960312277 0 0.1746246780639395 0.31236833145609699 0 0.1735025223157097 0.30086714960312277 0 0.18341544437109669 0.30932765284052027 0 0.1735025223157097 0.30086714960312277 0 0.18341544437109669 0.30932765284052027 0 0.18737133131166259 0.2947121937016759 0 0.17572976323139891 0.28871134808786769 0 0.18737133131166259 0.2947121937016759 0 0.1932111867377807 0.27572977034155671 0 0.1735025223157097 0.30086714960312277 0 0.17572976323139891 0.28871134808786769 0 0.18737133131166259 0.2947121937016759 0 0.16574401362871899 0.27545149454630291 0 0.1932111867377807 0.27572977034155671 0 0.17572976323139891 0.28871134808786769 0 0.16574401362871899 0.27545149454630291 0 0.1932111867377807 0.27572977034155671 0 0.16574401362871899 0.27545149454630291 0 0.1902551856126366 0.25536793712348538 0 0.1932111867377807 0.27572977034155671 0 0.150873716250705 0.26525086220719862 0 0.16574401362871899 0.27545149454630291 0 0.16024010556641441 0.25654761817813448 0 0.16574401362871899 0.27545149454630291 0 0.16024010556641441 0.25654761817813448 0 0.17278643425494239 0.25122110661935609 0 0.16574401362871899 0.27545149454630291 0 0.17278643425494239 0.25122110661935609 0 0.1902551856126366 0.25536793712348538 0 0.1902551856126366 0.25536793712348538 0 0.1932111867377807 0.27572977034155671 0 0.20623878145948221 0.26066286121671089 0 0.197157040785123 0.23879332182161689 0 0.1902551856126366 0.25536793712348538 0 0.20623878145948221 0.26066286121671089 0 0.1932111867377807 0.27572977034155671 0 0.22067835984684239 0.27600804613681063 0 0.1932111867377807 0.27572977034155671 0 0.20623878145948221 0.26066286121671089 0 0.22067835984684239 0.27600804613681063 0 0.1932111867377807 0.27572977034155671 0 0.22067835984684239 0.27600804613681063 0 0.2201866606814272 0.28335273262085292 0 0.22247623007545669 0.24915261481428991 0 0.20623878145948221 0.26066286121671089 0 0.22067835984684239 0.27600804613681063 0 0.22247623007545669 0.24915261481428991 0 0.232279559452788 0.26450507329100359 0 0.22067835984684239 0.27600804613681063 0 0.22247623007545669 0.24915261481428991 0 0.22067835984684239 0.27600804613681063 0 0.22247623007545669 0.24915261481428991 0 0.232279559452788 0.26450507329100359 0 0.24688333128324669 0.25666515192319922 0 0.232279559452788 0.26450507329100359 0 0.22067835984684239 0.27600804613681063 0 0.23908031660560619 0.27619448028971499 0 0.22067835984684239 0.27600804613681063 0 0.23908031660560619 0.27619448028971499 0 0.22067835984684239 0.27600804613681063 0 0.23908031660560619 0.27619448028971499 0 0.23383023346368609 0.28383541070795482 0 0.22067835984684239 0.27600804613681063 0 0.23383023346368609 0.28383541070795482 0 0.2201866606814272 0.28335273262085292 0 0.22067835984684239 0.27600804613681063 0 0.2201866606814272 0.28335273262085292 0 0.23908031660560619 0.27619448028971499 0 0.25748227336437018 0.27638091444261959 0 0.232279559452788 0.26450507329100359 0 0.23908031660560619 0.27619448028971499 0 0.24688333128324669 0.25666515192319922 0 0.23908031660560619 0.27619448028971499 0 0.24688333128324669 0.25666515192319922 0 0.25748227336437018 0.27638091444261959 0 0.23908031660560619 0.27619448028971499 0 0.24747911162443681 0.28602223421101558 0 0.25748227336437018 0.27638091444261959 0 0.2417267185601176 0.29759956028137968 0 0.2373308122764842 0.31013495176928552 0 0.24788609833900291 0.31820008064590988 0 0.2417267185601176 0.29759956028137968 0 0.2373308122764842 0.31013495176928552 0 0.22823114683753579 0.30350517108618219 0 0.2417267185601176 0.29759956028137968 0 0.24747911162443681 0.28602223421101558 0 0.25966549783237858 0.29246930722803799 0 0.23908031660560619 0.27619448028971499 0 0.24747911162443681 0.28602223421101558 0 0.23383023346368609 0.28383541070795482 0 0.2417267185601176 0.29759956028137968 0 0.24747911162443681 0.28602223421101558 0 0.23383023346368609 0.28383541070795482 0 0.2417267185601176 0.29759956028137968 0 0.23383023346368609 0.28383541070795482 0 0.2201866606814272 0.28335273262085292 0 0.2417267185601176 0.29759956028137968 0 0.22729892496982521 0.29619284267720758 0 0.2201866606814272 0.28335273262085292 0 0.2417267185601176 0.29759956028137968 0 0.2201866606814272 0.28335273262085292 0 0.22729892496982521 0.29619284267720758 0 0.2201866606814272 0.28335273262085292 0 0.21905117380022041 0.30031390672041569 0 0.2201866606814272 0.28335273262085292 0 0.21905117380022041 0.30031390672041569 0 0.2373308122764842 0.31013495176928552 0 0.22823114683753579 0.30350517108618219 0 0.21791568691901181 0.31727508081997852 0 0.21905117380022041 0.30031390672041569 0 0.22823114683753579 0.30350517108618219 0 0.21791568691901181 0.31727508081997852 0 0.22729892496982521 0.29619284267720758 0 0.21905117380022041 0.30031390672041569 0 0.22823114683753579 0.30350517108618219 0 0.2417267185601176 0.29759956028137968 0 0.22729892496982521 0.29619284267720758 0 0.22823114683753579 0.30350517108618219 0 0.21905117380022041 0.30031390672041569 0 0.20428883441040019 0.31192558199865272 0 0.21791568691901181 0.31727508081997852 0 0.21905117380022041 0.30031390672041569 0 0.21791568691901181 0.31727508081997852 0 0.21905117380022041 0.30031390672041569 0 0.20728907582380379 0.30111901611202552 0 0.2140498488236624 0.2914604914636299 0 0.21905117380022041 0.30031390672041569 0 0.20728907582380379 0.30111901611202552 0 0.20428883441040019 0.31192558199865272 0 0.2201866606814272 0.28335273262085292 0 0.2140498488236624 0.2914604914636299 0 0.20258842684423839 0.29193339637787319 0 0.1932111867377807 0.27572977034155671 0 0.2201866606814272 0.28335273262085292 0 0.20258842684423839 0.29193339637787319 0 0.2201866606814272 0.28335273262085292 0 0.21905117380022041 0.30031390672041569 0 0.2140498488236624 0.2914604914636299 0 0.20728907582380379 0.30111901611202552 0 0.2140498488236624 0.2914604914636299 0 0.20258842684423839 0.29193339637787319 0 0.18737133131166259 0.2947121937016759 0 0.1932111867377807 0.27572977034155671 0 0.20258842684423839 0.29193339637787319 0 0.20428883441040019 0.31192558199865272 0 0.19567894761993471 0.30445869236814171 0 0.19075942203934729 0.31515926684052592 0 0.20728907582380379 0.30111901611202552 0 0.20428883441040019 0.31192558199865272 0 0.19567894761993471 0.30445869236814171 0 0.20728907582380379 0.30111901611202552 0 0.20258842684423839 0.29193339637787319 0 0.19567894761993471 0.30445869236814171 0 0.18737133131166259 0.2947121937016759 0 0.20258842684423839 0.29193339637787319 0 0.19567894761993471 0.30445869236814171 0 0.18341544437109669 0.30932765284052027 0 0.18737133131166259 0.2947121937016759 0 0.19567894761993471 0.30445869236814171 0 0.18341544437109669 0.30932765284052027 0 0.19567894761993471 0.30445869236814171 0 0.19075942203934729 0.31515926684052592 0 0.20428883441040019 0.31192558199865272 0 0.19075942203934729 0.31515926684052592 0 0.18983814534591339 0.32760091011888381 0 0.18983814534591339 0.32760091011888381 0 0.20038661016473069 0.34832707061664708 0 0.1862876352870097 0.35337525792807589 0 0.18983814534591339 0.32760091011888381 0 0.21624759666654489 0.3421919421717774 0 0.18983814534591339 0.32760091011888381 0 0.21624759666654489 0.3421919421717774 0 0.20038661016473069 0.34832707061664708 0 0.18983814534591339 0.32760091011888381 0 0.21624759666654489 0.3421919421717774 0 0.21791568691901181 0.31727508081997852 0 0.21624759666654489 0.3421919421717774 0 0.21791568691901181 0.31727508081997852 0 0.20428883441040019 0.31192558199865272 0 0.18983814534591339 0.32760091011888381 0 0.21791568691901181 0.31727508081997852 0 0.18983814534591339 0.32760091011888381 0 0.21791568691901181 0.31727508081997852 0 0.2373308122764842 0.31013495176928552 0 0.21791568691901181 0.31727508081997852 0 0.2373308122764842 0.31013495176928552 0 0.21791568691901181 0.31727508081997852 0 0.23124082459080161 0.32354176735074619 0 0.21624759666654489 0.3421919421717774 0 0.21791568691901181 0.31727508081997852 0 0.23124082459080161 0.32354176735074619 0 0.21624759666654489 0.3421919421717774 0 0.23124082459080161 0.32354176735074619 0 0.23125390175060209 0.33817565369124902 0 0.23124082459080161 0.32354176735074619 0 0.23125390175060209 0.33817565369124902 0 0.2431483281585621 0.3347595717197499 0 0.23125390175060209 0.33817565369124902 0 0.2431483281585621 0.3347595717197499 0 0.23437885758650029 0.35220933352272199 0 0.23124082459080161 0.32354176735074619 0 0.2431483281585621 0.3347595717197499 0 0.24788609833900291 0.31820008064590988 0 0.2373308122764842 0.31013495176928552 0 0.23124082459080161 0.32354176735074619 0 0.24788609833900291 0.31820008064590988 0 0.23320393922589219 0.37320674460601838 0 0.2518844926135439 0.37943510000903602 0 0.2525101185064561 0.36222672487366619 0 0.23437885758650029 0.35220933352272199 0 0.23320393922589219 0.37320674460601838 0 0.2525101185064561 0.36222672487366619 0 0.23437885758650029 0.35220933352272199 0 0.2525101185064561 0.36222672487366619 0 0.23437885758650029 0.35220933352272199 0 0.25410105345684347 0.34656526864089932 0 0.2525101185064561 0.36222672487366619 0 0.2431483281585621 0.3347595717197499 0 0.23437885758650029 0.35220933352272199 0 0.25410105345684347 0.34656526864089932 0 0.21624759666654489 0.3421919421717774 0 0.23125390175060209 0.33817565369124902 0 0.23437885758650029 0.35220933352272199 0 0.21624759666654489 0.3421919421717774 0 0.23437885758650029 0.35220933352272199 0 0.21624759666654489 0.3421919421717774 0 0.23437885758650029 0.35220933352272199 0 0.21494017611934579 0.3617213510001801 0 0.23437885758650029 0.35220933352272199 0 0.23320393922589219 0.37320674460601838 0 0.21494017611934579 0.3617213510001801 0 0.21494017611934579 0.3617213510001801 0 0.19716761047736581 0.36937960251278118 0 0.2164662953168634 0.39028821700418459 0 0.21494017611934579 0.3617213510001801 0 0.20038661016473069 0.34832707061664708 0 0.19716761047736581 0.36937960251278118 0 0.21624759666654489 0.3421919421717774 0 0.21494017611934579 0.3617213510001801 0 0.20038661016473069 0.34832707061664708 0 0.21624759666654489 0.3421919421717774 0 0.21494017611934579 0.3617213510001801 0 0.20038661016473069 0.34832707061664708 0 0.19716761047736581 0.36937960251278118 0 0.1862876352870097 0.35337525792807589 0 0.19716761047736581 0.36937960251278118 0 0.1731220106989434 0.37127579133161631 0 0.1862876352870097 0.35337525792807589 0 0.1731220106989434 0.37127579133161631 0 0.16965699589404171 0.35081407833261857 0 0.15462816152247499 0.35719774129961268 0 0.1731220106989434 0.37127579133161631 0 0.15462816152247499 0.35719774129961268 0 0.15522871433822469 0.38678779699644378 0 0.16965699589404171 0.35081407833261857 0 0.15950508410294101 0.33875623195120191 0 0.15462816152247499 0.35719774129961268 0 0.1731220106989434 0.37127579133161631 0 0.16965699589404171 0.35081407833261857 0 0.1862876352870097 0.35337525792807589 0 0.1862876352870097 0.35337525792807589 0 0.1710668975684824 0.3345042460029265 0 0.16965699589404171 0.35081407833261857 0 0.1862876352870097 0.35337525792807589 0 0.1710668975684824 0.3345042460029265 0 0.18983814534591339 0.32760091011888381 0 0.1862876352870097 0.35337525792807589 0 0.1710668975684824 0.3345042460029265 0 0.18983814534591339 0.32760091011888381 0 0.1710668975684824 0.3345042460029265 0 0.18983814534591339 0.32760091011888381 0 0.18057573844939151 0.32248349687643052 0 0.1710668975684824 0.3345042460029265 0 0.18341544437109669 0.30932765284052027 0 0.19075942203934729 0.31515926684052592 0 0.18057573844939151 0.32248349687643052 0 0.18983814534591339 0.32760091011888381 0 0.18057573844939151 0.32248349687643052 0 0.19075942203934729 0.31515926684052592 0 0.18983814534591339 0.32760091011888381 0 0.18057573844939151 0.32248349687643052 0 0.18057573844939151 0.32248349687643052 0 0.16950822646205579 0.3193903728094023 0 0.1710668975684824 0.3345042460029265 0 0.1746246780639395 0.31236833145609699 0 0.18341544437109669 0.30932765284052027 0 0.18057573844939151 0.32248349687643052 0 0.1746246780639395 0.31236833145609699 0 0.18057573844939151 0.32248349687643052 0 0.16950822646205579 0.3193903728094023 0 0.1710668975684824 0.3345042460029265 0 0.15546409365751679 0.31515953984514461 0 0.1540276087067253 0.32760768560278158 0 0.16950822646205579 0.3193903728094023 0 0.1710668975684824 0.3345042460029265 0 0.15546409365751679 0.31515953984514461 0 0.1710668975684824 0.3345042460029265 0 0.15546409365751679 0.31515953984514461 0 0.16612145872144379 0.30977298515100909 0 0.1746246780639395 0.31236833145609699 0 0.16950822646205579 0.3193903728094023 0 0.16612145872144379 0.30977298515100909 0 0.16950822646205579 0.3193903728094023 0 0.15546409365751679 0.31515953984514461 0 0.16965699589404171 0.35081407833261857 0 0.1710668975684824 0.3345042460029265 0 0.15950508410294101 0.33875623195120191 0 0.1710668975684824 0.3345042460029265 0 0.15950508410294101 0.33875623195120191 0 0.1540276087067253 0.32760768560278158 0 0.1710668975684824 0.3345042460029265 0 0.15950508410294101 0.33875623195120191 0 0.1540276087067253 0.32760768560278158 0 0.15462816152247499 0.35719774129961268 0 0.15950508410294101 0.33875623195120191 0 0.1540276087067253 0.32760768560278158 0 0.15462816152247499 0.35719774129961268 0 0.14074866150913509 0.33952421537475069 0 0.1540276087067253 0.32760768560278158 0 0.1460550830447179 0.34594587757014178 0 0.1540276087067253 0.32760768560278158 0 0.15462816152247499 0.35719774129961268 0 0.1460550830447179 0.34594587757014178 0 0.14160018582412839 0.32942855687835437 0 0.14074866150913509 0.33952421537475069 0 0.1540276087067253 0.32760768560278158 0 0.15546409365751679 0.31515953984514461 0 0.1540276087067253 0.32760768560278158 0 0.1455102544950799 0.32143423197005611 0 0.14160018582412839 0.32942855687835437 0 0.1455102544950799 0.32143423197005611 0 0.13490681208531491 0.32212480209933397 0 0.14160018582412839 0.32942855687835437 0 0.1540276087067253 0.32760768560278158 0 0.1455102544950799 0.32143423197005611 0 0.15546409365751679 0.31515953984514461 0 0.1455102544950799 0.32143423197005611 0 0.1415525722017143 0.31285057542466549 0 0.1455102544950799 0.32143423197005611 0 0.1415525722017143 0.31285057542466549 0 0.13490681208531491 0.32212480209933397 0 0.12891256720412439 0.31003188246321089 0 0.1415525722017143 0.31285057542466549 0 0.13490681208531491 0.32212480209933397 0 0.1212896946230136 0.32518569692851912 0 0.12891256720412439 0.31003188246321089 0 0.13490681208531491 0.32212480209933397 0 0.14074866150913509 0.33952421537475069 0 0.13152628618132831 0.33742037386640461 0 0.1336802146710537 0.3445122400557401 0 0.14160018582412839 0.32942855687835437 0 0.13490681208531491 0.32212480209933397 0 0.13152628618132831 0.33742037386640461 0 0.14160018582412839 0.32942855687835437 0 0.14074866150913509 0.33952421537475069 0 0.13152628618132831 0.33742037386640461 0 0.1212896946230136 0.32518569692851912 0 0.13490681208531491 0.32212480209933397 0 0.13152628618132831 0.33742037386640461 0 0.13152628618132831 0.33742037386640461 0 0.12720638276136839 0.34760531011337908 0 0.1336802146710537 0.3445122400557401 0 0.120241251302017 0.33972419534779152 0 0.13152628618132831 0.33742037386640461 0 0.12720638276136839 0.34760531011337908 0 0.12720638276136839 0.34760531011337908 0 0.13198809117628901 0.35146003613610172 0 0.1336802146710537 0.3445122400557401 0 0.12720638276136839 0.34760531011337908 0 0.13198809117628901 0.35146003613610172 0 0.12858635945922409 0.35283335612528532 0 0.14074866150913509 0.33952421537475069 0 0.1336802146710537 0.3445122400557401 0 0.1382936698188264 0.34906393472363811 0 0.13198809117628901 0.35146003613610172 0 0.1336802146710537 0.3445122400557401 0 0.1382936698188264 0.34906393472363811 0 0.1356909711092868 0.35421715320112768 0 0.13564233599010311 0.35898964106885678 0 0.14257731366642781 0.35633581084992588 0 0.1382936698188264 0.34906393472363811 0 0.1356909711092868 0.35421715320112768 0 0.14257731366642781 0.35633581084992588 0 0.13198809117628901 0.35146003613610172 0 0.1382936698188264 0.34906393472363811 0 0.1356909711092868 0.35421715320112768 0 0.13198809117628901 0.35146003613610172 0 0.1356909711092868 0.35421715320112768 0 0.13199878697376571 0.35724151794960501 0 0.1356909711092868 0.35421715320112768 0 0.13564233599010311 0.35898964106885678 0 0.13199878697376571 0.35724151794960501 0 0.1231521769254733 0.35502656030205521 0 0.13199878697376571 0.35724151794960501 0 0.12858635945922409 0.35283335612528532 0 0.13198809117628901 0.35146003613610172 0 0.13199878697376571 0.35724151794960501 0 0.12858635945922409 0.35283335612528532 0 0.1231521769254733 0.35502656030205521 0 0.12720638276136839 0.34760531011337908 0 0.12858635945922409 0.35283335612528532 0 0.1135267562510356 0.37462062914747529 0 0.13564233599010311 0.35898964106885678 0 0.12625849291691371 0.37396073092744597 0 0.1135267562510356 0.37462062914747529 0 0.13564233599010311 0.35898964106885678 0 0.13199878697376571 0.35724151794960501 0 0.12625849291691371 0.37396073092744597 0 0.1349474712839667 0.36898053159462668 0 0.13714979604278721 0.37720221517349362 0 0.13564233599010311 0.35898964106885678 0 0.12625849291691371 0.37396073092744597 0 0.1349474712839667 0.36898053159462668 0 0.1349474712839667 0.36898053159462668 0 0.14495440019228301 0.37312992249630073 0 0.13714979604278721 0.37720221517349362 0 0.1349474712839667 0.36898053159462668 0 0.13826531309332149 0.3636317374979004 0 0.14333805150961471 0.36409598512914138 0 0.13564233599010311 0.35898964106885678 0 0.1349474712839667 0.36898053159462668 0 0.13826531309332149 0.3636317374979004 0 0.13564233599010311 0.35898964106885678 0 0.13826531309332149 0.3636317374979004 0 0.14257731366642781 0.35633581084992588 0 0.14333805150961471 0.36409598512914138 0 0.14495440019228301 0.37312992249630073 0 0.15462816152247499 0.35719774129961268 0 0.13826531309332149 0.3636317374979004 0 0.14333805150961471 0.36409598512914138 0 0.14257731366642781 0.35633581084992588 0 0.14495440019228301 0.37312992249630073 0 0.15462816152247499 0.35719774129961268 0 0.15522871433822469 0.38678779699644378 0 0.15462816152247499 0.35719774129961268 0 0.15522871433822469 0.38678779699644378 0 0.1349474712839667 0.36898053159462668 0 0.14333805150961471 0.36409598512914138 0 0.14495440019228301 0.37312992249630073 0 0.1382936698188264 0.34906393472363811 0 0.1460550830447179 0.34594587757014178 0 0.14257731366642781 0.35633581084992588 0 0.14074866150913509 0.33952421537475069 0 0.1382936698188264 0.34906393472363811 0 0.1460550830447179 0.34594587757014178 0 0.14333805150961471 0.36409598512914138 0 0.15462816152247499 0.35719774129961268 0 0.14257731366642781 0.35633581084992588 0 0.15462816152247499 0.35719774129961268 0 0.1460550830447179 0.34594587757014178 0 0.14257731366642781 0.35633581084992588 0 0.1454973752691627 0.39415548857313393 0 0.15522871433822469 0.38678779699644378 0 0.15582926715397441 0.41637785269327499 0 0.15522871433822469 0.38678779699644378 0 0.15582926715397441 0.41637785269327499 0 0.1454973752691627 0.39415548857313393 0 0.15522871433822469 0.38678779699644378 0 0.1447155539637279 0.3838741587593274 0 0.14495440019228301 0.37312992249630073 0 0.15522871433822469 0.38678779699644378 0 0.1447155539637279 0.3838741587593274 0 0.14495440019228301 0.37312992249630073 0 0.1447155539637279 0.3838741587593274 0 0.13714979604278721 0.37720221517349362 0 0.1454973752691627 0.39415548857313393 0 0.1447155539637279 0.3838741587593274 0 0.13487306185704459 0.38606573208976708 0 0.12372632319359921 0.39217833612133429 0 0.12625849291691371 0.37396073092744597 0 0.13487306185704459 0.38606573208976708 0 0.1447155539637279 0.3838741587593274 0 0.13487306185704459 0.38606573208976708 0 0.13714979604278721 0.37720221517349362 0 0.12625849291691371 0.37396073092744597 0 0.13487306185704459 0.38606573208976708 0 0.13714979604278721 0.37720221517349362 0 0.1454973752691627 0.39415548857313393 0 0.1335404626082406 0.3998256297515223 0 0.13972928437951829 0.42073376794469469 0 0.12372632319359921 0.39217833612133429 0 0.13487306185704459 0.38606573208976708 0 0.1335404626082406 0.3998256297515223 0 0.1454973752691627 0.39415548857313393 0 0.13487306185704459 0.38606573208976708 0 0.1335404626082406 0.3998256297515223 0 0.1238762683418782 0.40599482402868131 0 0.12372632319359921 0.39217833612133429 0 0.1335404626082406 0.3998256297515223 0 0.1213684831726156 0.41984525817789697 0 0.1238762683418782 0.40599482402868131 0 0.13972928437951829 0.42073376794469469 0 0.1238762683418782 0.40599482402868131 0 0.1335404626082406 0.3998256297515223 0 0.13972928437951829 0.42073376794469469 0 0.13972928437951829 0.42073376794469469 0 0.14454062539994431 0.43569298145060309 0 0.13396119348987379 0.44731204731625551 0 0.13972928437951829 0.42073376794469469 0 0.13396119348987379 0.44731204731625551 0 0.1245177796391589 0.43239185210029008 0 0.13972928437951829 0.42073376794469469 0 0.13396119348987379 0.44731204731625551 0 0.1245177796391589 0.43239185210029008 0 0.1213684831726156 0.41984525817789697 0 0.13972928437951829 0.42073376794469469 0 0.13972928437951829 0.42073376794469469 0 0.14454062539994431 0.43569298145060309 0 0.15582926715397441 0.41637785269327499 0 0.15582926715397441 0.41637785269327499 0 0.15642981996972419 0.44596790839010608 0 0.14454062539994431 0.43569298145060309 0 0.15582926715397441 0.41637785269327499 0 0.15642981996972419 0.44596790839010608 0 0.1454973752691627 0.39415548857313393 0 0.13972928437951829 0.42073376794469469 0 0.1454973752691627 0.39415548857313393 0 0.13972928437951829 0.42073376794469469 0 0.15582926715397441 0.41637785269327499 0 0.15582926715397441 0.41637785269327499 0 0.17670967070568161 0.41832016188371712 0 0.1729898345324706 0.40122844366326582 0 0.15582926715397441 0.41637785269327499 0 0.17245449340376931 0.43560499256775359 0 0.17670967070568161 0.41832016188371712 0 0.15582926715397441 0.41637785269327499 0 0.17245449340376931 0.43560499256775359 0 0.15642981996972419 0.44596790839010608 0 0.17245449340376931 0.43560499256775359 0 0.18395507730180519 0.42921013511689698 0 0.17670967070568161 0.41832016188371712 0 0.18395507730180519 0.42921013511689698 0 0.17670967070568161 0.41832016188371712 0 0.1929740759477617 0.41961907113827968 0 0.17245449340376931 0.43560499256775359 0 0.18395507730180519 0.42921013511689698 0 0.18762596638714149 0.44029609685904042 0 0.17670967070568161 0.41832016188371712 0 0.1887568671126319 0.4046384761705244 0 0.1929740759477617 0.41961907113827968 0 0.17670967070568161 0.41832016188371712 0 0.1729898345324706 0.40122844366326582 0 0.1887568671126319 0.4046384761705244 0 0.1729898345324706 0.40122844366326582 0 0.1916126634415298 0.38791754924799993 0 0.1887568671126319 0.4046384761705244 0 0.1729898345324706 0.40122844366326582 0 0.17323830575279209 0.38680239530983151 0 0.1916126634415298 0.38791754924799993 0 0.15522871433822469 0.38678779699644378 0 0.15582926715397441 0.41637785269327499 0 0.1729898345324706 0.40122844366326582 0 0.15522871433822469 0.38678779699644378 0 0.1729898345324706 0.40122844366326582 0 0.17323830575279209 0.38680239530983151 0 0.1731220106989434 0.37127579133161631 0 0.15522871433822469 0.38678779699644378 0 0.17323830575279209 0.38680239530983151 0 0.1731220106989434 0.37127579133161631 0 0.17323830575279209 0.38680239530983151 0 0.1916126634415298 0.38791754924799993 0 0.19716761047736581 0.36937960251278118 0 0.1731220106989434 0.37127579133161631 0 0.1916126634415298 0.38791754924799993 0 0.19716761047736581 0.36937960251278118 0 0.1916126634415298 0.38791754924799993 0 0.2164662953168634 0.39028821700418459 0 0.1916126634415298 0.38791754924799993 0 0.1887568671126319 0.4046384761705244 0 0.20639100170923569 0.40644607950925171 0 0.1916126634415298 0.38791754924799993 0 0.2164662953168634 0.39028821700418459 0 0.20639100170923569 0.40644607950925171 0 0.2164662953168634 0.39028821700418459 0 0.22664504711339101 0.40405935618486483 0 0.20639100170923569 0.40644607950925171 0 0.1916126634415298 0.38791754924799993 0 0.2164662953168634 0.39028821700418459 0 0.23320393922589219 0.37320674460601838 0 0.21494017611934579 0.3617213510001801 0 0.2164662953168634 0.39028821700418459 0 0.23320393922589219 0.37320674460601838 0 0.2164662953168634 0.39028821700418459 0 0.241319927192197 0.39265888476036942 0 0.2164662953168634 0.39028821700418459 0 0.22664504711339101 0.40405935618486483 0 0.241319927192197 0.39265888476036942 0 0.2164662953168634 0.39028821700418459 0 0.241319927192197 0.39265888476036942 0 0.22664504711339101 0.40405935618486483 0 0.241319927192197 0.39265888476036942 0 0.24309156917541291 0.41375616496957512 0 0.23320393922589219 0.37320674460601838 0 0.241319927192197 0.39265888476036942 0 0.2518844926135439 0.37943510000903602 0 0.23167909492880051 0.44161770819716012 0 0.25830486707441302 0.43007400036890753 0 0.23584231192100791 0.42732688279052561 0 0.24309156917541291 0.41375616496957512 0 0.25830486707441302 0.43007400036890753 0 0.23584231192100791 0.42732688279052561 0 0.23167909492880051 0.44161770819716012 0 0.25830486707441302 0.43007400036890753 0 0.23584231192100791 0.42732688279052561 0 0.24309156917541291 0.41375616496957512 0 0.2236548974291451 0.4193114470112338 0 0.22664504711339101 0.40405935618486483 0 0.24309156917541291 0.41375616496957512 0 0.2236548974291451 0.4193114470112338 0 0.22664504711339101 0.40405935618486483 0 0.2236548974291451 0.4193114470112338 0 0.20639100170923569 0.40644607950925171 0 0.23584231192100791 0.42732688279052561 0 0.2236548974291451 0.4193114470112338 0 0.22248113099726799 0.43187509340575098 0 0.23584231192100791 0.42732688279052561 0 0.22248113099726799 0.43187509340575098 0 0.23167909492880051 0.44161770819716012 0 0.2099033516247614 0.42745720179115282 0 0.19814834864778541 0.43562365901544647 0 0.21349300555411821 0.44382265479817151 0 0.22248113099726799 0.43187509340575098 0 0.2099033516247614 0.42745720179115282 0 0.21349300555411821 0.44382265479817151 0 0.2236548974291451 0.4193114470112338 0 0.22248113099726799 0.43187509340575098 0 0.2099033516247614 0.42745720179115282 0 0.2236548974291451 0.4193114470112338 0 0.2099033516247614 0.42745720179115282 0 0.20639100170923569 0.40644607950925171 0 0.2099033516247614 0.42745720179115282 0 0.20639100170923569 0.40644607950925171 0 0.1929740759477617 0.41961907113827968 0 0.1887568671126319 0.4046384761705244 0 0.20639100170923569 0.40644607950925171 0 0.1929740759477617 0.41961907113827968 0 0.2099033516247614 0.42745720179115282 0 0.1929740759477617 0.41961907113827968 0 0.19814834864778541 0.43562365901544647 0 0.18395507730180519 0.42921013511689698 0 0.1929740759477617 0.41961907113827968 0 0.19814834864778541 0.43562365901544647 0 0.18395507730180519 0.42921013511689698 0 0.19814834864778541 0.43562365901544647 0 0.18762596638714149 0.44029609685904042 0 0.19216802981564551 0.45133957277058212 0 0.21349300555411821 0.44382265479817151 0 0.19814834864778541 0.43562365901544647 0 0.18762596638714149 0.44029609685904042 0 0.19216802981564551 0.45133957277058212 0 0.19814834864778541 0.43562365901544647 0 0.19216802981564551 0.45133957277058212 0 0.21349300555411821 0.44382265479817151 0 0.19216802981564551 0.45133957277058212 0 0.20505332278318811 0.45316141602541271 0 0.1784275506375757 0.46470512385366541 0 0.20505332278318811 0.45316141602541271 0 0.1784275506375757 0.46470512385366541 0 0.20505332278318811 0.45316141602541271 0 0.19975460635192371 0.47996118373477992 0 0.1784275506375757 0.46470512385366541 0 0.20505332278318811 0.45316141602541271 0 0.23167909492880051 0.44161770819716012 0 0.2183820734962113 0.46917034249869038 0 0.20505332278318811 0.45316141602541271 0 0.2183820734962113 0.46917034249869038 0 0.19975460635192371 0.47996118373477992 0 0.20505332278318811 0.45316141602541271 0 0.21349300555411821 0.44382265479817151 0 0.23167909492880051 0.44161770819716012 0 0.19216802981564551 0.45133957277058212 0 0.20505332278318811 0.45316141602541271 0 0.21349300555411821 0.44382265479817151 0 0.20505332278318811 0.45316141602541271 0 0.23167909492880051 0.44161770819716012 0 0.22248113099726799 0.43187509340575098 0 0.21349300555411821 0.44382265479817151 0 0.23167909492880051 0.44161770819716012 0 0.23167909492880051 0.44161770819716012 0 0.23967775028756541 0.47071376427955081 0 0.2183820734962113 0.46917034249869038 0 0.23167909492880051 0.44161770819716012 0 0.23967775028756541 0.47071376427955081 0 0.25216957373508508 0.44992291194592859 0 0.23167909492880051 0.44161770819716012 0 0.25216957373508508 0.44992291194592859 0 0.25830486707441302 0.43007400036890753 0 0.24285577343386561 0.49999999999999811 0 0.23967775028756541 0.47071376427955081 0 0.26274482409354583 0.48811305366704782 0 0.24285577343386561 0.49999999999999811 0 0.23967775028756541 0.47071376427955081 0 0.2282721237514497 0.48701365628601911 0 0.23967775028756541 0.47071376427955081 0 0.2282721237514497 0.48701365628601911 0 0.2183820734962113 0.46917034249869038 0 0.24285577343386561 0.49999999999999811 0 0.2282721237514497 0.48701365628601911 0 0.21368847406903729 0.5 0 0.2282721237514497 0.48701365628601911 0 0.21368847406903729 0.5 0 0.19975460635192371 0.47996118373477992 0 0.2282721237514497 0.48701365628601911 0 0.2183820734962113 0.46917034249869038 0 0.19975460635192371 0.47996118373477992 0 0.21368847406903729 0.5 0 0.19975460635192371 0.47996118373477992 0 0.18452117470420909 0.5 0 0.19975460635192371 0.47996118373477992 0 0.18452117470420909 0.5 0 0.17140774079556151 0.48513302458404528 0 0.18452117470420909 0.5 0 0.17140774079556151 0.48513302458404528 0 0.1553538753393808 0.5 0 0.17140774079556151 0.48513302458404528 0 0.1553538753393808 0.5 0 0.1518017784919633 0.47624883168191801 0 0.1784275506375757 0.46470512385366541 0 0.1518017784919633 0.47624883168191801 0 0.17140774079556151 0.48513302458404528 0 0.1784275506375757 0.46470512385366541 0 0.1518017784919633 0.47624883168191801 0 0.19975460635192371 0.47996118373477992 0 0.17140774079556151 0.48513302458404528 0 0.1784275506375757 0.46470512385366541 0 0.19216802981564551 0.45133957277058212 0 0.1784275506375757 0.46470512385366541 0 0.17084305407717279 0.45885649074299278 0 0.19216802981564551 0.45133957277058212 0 0.17084305407717279 0.45885649074299278 0 0.19216802981564551 0.45133957277058212 0 0.17853943979165871 0.44680650453417919 0 0.17084305407717279 0.45885649074299278 0 0.18762596638714149 0.44029609685904042 0 0.19216802981564551 0.45133957277058212 0 0.17853943979165871 0.44680650453417919 0 0.17853943979165871 0.44680650453417919 0 0.16890844916450759 0.44818942309998089 0 0.17084305407717279 0.45885649074299278 0 0.17245449340376931 0.43560499256775359 0 0.17853943979165871 0.44680650453417919 0 0.16890844916450759 0.44818942309998089 0 0.17245449340376931 0.43560499256775359 0 0.18762596638714149 0.44029609685904042 0 0.17853943979165871 0.44680650453417919 0 0.17245449340376931 0.43560499256775359 0 0.16890844916450759 0.44818942309998089 0 0.15642981996972419 0.44596790839010608 0 0.16890844916450759 0.44818942309998089 0 0.15642981996972419 0.44596790839010608 0 0.1582631955184208 0.45461316069680752 0 0.1784275506375757 0.46470512385366541 0 0.17084305407717279 0.45885649074299278 0 0.1518017784919633 0.47624883168191801 0 0.17084305407717279 0.45885649074299278 0 0.14951807833870009 0.46637340871540361 0 0.1518017784919633 0.47624883168191801 0 0.17084305407717279 0.45885649074299278 0 0.14951807833870009 0.46637340871540361 0 0.17084305407717279 0.45885649074299278 0 0.1582631955184208 0.45461316069680752 0 0.14951807833870009 0.46637340871540361 0 0.16890844916450759 0.44818942309998089 0 0.17084305407717279 0.45885649074299278 0 0.1582631955184208 0.45461316069680752 0 0.14951807833870009 0.46637340871540361 0 0.14561657604199929 0.45367857253555438 0 0.12819310260022829 0.47389032668781628 0 0.1582631955184208 0.45461316069680752 0 0.14951807833870009 0.46637340871540361 0 0.14561657604199929 0.45367857253555438 0 0.14454062539994431 0.43569298145060309 0 0.15642981996972419 0.44596790839010608 0 0.14561657604199929 0.45367857253555438 0 0.14454062539994431 0.43569298145060309 0 0.14561657604199929 0.45367857253555438 0 0.13396119348987379 0.44731204731625551 0 0.15642981996972419 0.44596790839010608 0 0.1582631955184208 0.45461316069680752 0 0.14561657604199929 0.45367857253555438 0 0.13396119348987379 0.44731204731625551 0 0.12819310260022829 0.47389032668781628 0 0.1147982116301102 0.47004977716376561 0 0.13396119348987379 0.44731204731625551 0 0.12819310260022829 0.47389032668781628 0 0.14561657604199929 0.45367857253555438 0 0.13396119348987379 0.44731204731625551 0 0.12819310260022829 0.47389032668781628 0 0.12819310260022829 0.47389032668781628 0 0.12517600634635029 0.48779253951016921 0 0.1518017784919633 0.47624883168191801 0 0.12517600634635029 0.48779253951016921 0 0.1518017784919633 0.47624883168191801 0 0.14951807833870009 0.46637340871540361 0 0.12819310260022829 0.47389032668781628 0 0.12819310260022829 0.47389032668781628 0 0.12517600634635029 0.48779253951016921 0 0.12517600634635029 0.48779253951016921 0 0.13660599238335 0.49097895816968612 0 0.1518017784919633 0.47624883168191801 0 0.1261865759745526 0.5 0 0.13660599238335 0.49097895816968612 0 0.1553538753393808 0.5 0 0.1245117257645024 0.49085341965634172 0 0.12517600634635029 0.48779253951016921 0 0.13660599238335 0.49097895816968612 0 0.1245117257645024 0.49085341965634172 0 0.1261865759745526 0.5 0 0.13660599238335 0.49097895816968612 0 0.13660599238335 0.49097895816968612 0 0.1553538753393808 0.5 0 0.1518017784919633 0.47624883168191801 0 0.14951807833870009 0.46637340871540361 0 0.12819310260022829 0.47389032668781628 0 0.1518017784919633 0.47624883168191801 0 0.34790477907582062 0.48072540281173182 0 0.36759339889606318 0.48059581203744478 0 0.35683419763482288 0.46844503215914263 0 0.34790477907582062 0.48072540281173182 0 0.35683419763482288 0.46844503215914263 0 0.34242980165317211 0.46474188894283458 0 0.34790477907582062 0.48072540281173182 0 0.36268591517834131 0.5 0 0.3330558830542964 0.49703137283992038 0 0.34790477907582062 0.48072540281173182 0 0.36268591517834131 0.5 0 0.36759339889606318 0.48059581203744478 0 0.36268591517834131 0.5 0 0.36759339889606318 0.48059581203744478 0 0.37718110076165379 0.48955940750559679 0 0.36759339889606318 0.48059581203744478 0 0.37345626908234758 0.46792956738565611 0 0.35683419763482288 0.46844503215914263 0 0.37345626908234758 0.46792956738565611 0 0.36507321686994743 0.45719272962359259 0 0.38235281267232618 0.45383092472508302 0 0.37345626908234758 0.46792956738565611 0 0.36507321686994743 0.45719272962359259 0 0.35683419763482288 0.46844503215914263 0 0.36920715579352498 0.44448948745936989 0 0.35784667043248408 0.44784942425450341 0 0.35754689103978238 0.43184836438745772 0 0.36507321686994743 0.45719272962359259 0 0.36920715579352498 0.44448948745936989 0 0.38235281267232618 0.45383092472508302 0 0.36507321686994743 0.45719272962359259 0 0.36920715579352498 0.44448948745936989 0 0.35784667043248408 0.44784942425450341 0 0.35784667043248408 0.44784942425450341 0 0.34790735698743008 0.44521447229719469 0 0.35754689103978238 0.43184836438745772 0 0.35784667043248408 0.44784942425450341 0 0.34790735698743008 0.44521447229719469 0 0.35176321574300368 0.45687313364831089 0 0.34790735698743008 0.44521447229719469 0 0.34244528441511651 0.45324771772561118 0 0.341734718952522 0.44572290856773328 0 0.34790735698743008 0.44521447229719469 0 0.35176321574300368 0.45687313364831089 0 0.34244528441511651 0.45324771772561118 0 0.36507321686994743 0.45719272962359259 0 0.35784667043248408 0.44784942425450341 0 0.35176321574300368 0.45687313364831089 0 0.36507321686994743 0.45719272962359259 0 0.35683419763482288 0.46844503215914263 0 0.35176321574300368 0.45687313364831089 0 0.35176321574300368 0.45687313364831089 0 0.34242980165317211 0.46474188894283458 0 0.34244528441511651 0.45324771772561118 0 0.35683419763482288 0.46844503215914263 0 0.35176321574300368 0.45687313364831089 0 0.34242980165317211 0.46474188894283458 0 0.33428495096134181 0.45852047457134548 0 0.32241197607258831 0.45245221466820001 0 0.32773392956344122 0.47474179375406039 0 0.34242980165317211 0.46474188894283458 0 0.33428495096134181 0.45852047457134548 0 0.32773392956344122 0.47474179375406039 0 0.34242980165317211 0.46474188894283458 0 0.34244528441511651 0.45324771772561118 0 0.33428495096134181 0.45852047457134548 0 0.33822935482116939 0.44299875529854538 0 0.341734718952522 0.44572290856773328 0 0.33788628837830331 0.4329503416872918 0 0.33822935482116939 0.44299875529854538 0 0.33643316018122638 0.44407227407296462 0 0.33788628837830331 0.4329503416872918 0 0.34790735698743008 0.44521447229719469 0 0.341734718952522 0.44572290856773328 0 0.33788628837830331 0.4329503416872918 0 0.33822935482116939 0.44299875529854538 0 0.33736717616612549 0.44651862129000491 0 0.341734718952522 0.44572290856773328 0 0.33822935482116939 0.44299875529854538 0 0.33643316018122638 0.44407227407296462 0 0.33736717616612549 0.44651862129000491 0 0.33643316018122638 0.44407227407296462 0 0.33736717616612549 0.44651862129000491 0 0.33822935482116939 0.44299875529854538 0 0.33643316018122638 0.44407227407296462 0 0.34244528441511651 0.45324771772561118 0 0.33428495096134181 0.45852047457134548 0 0.33736717616612549 0.44651862129000491 0 0.34244528441511651 0.45324771772561118 0 0.33736717616612549 0.44651862129000491 0 0.341734718952522 0.44572290856773328 0 0.33643316018122638 0.44407227407296462 0 0.32241197607258831 0.45245221466820001 0 0.33428495096134181 0.45852047457134548 0 0.33736717616612549 0.44651862129000491 0 0.32241197607258831 0.45245221466820001 0 0.33643316018122638 0.44407227407296462 0 0.33736717616612549 0.44651862129000491 0 0.32241197607258831 0.45245221466820001 0 0.33643316018122638 0.44407227407296462 0 0.32241197607258831 0.45245221466820001 0 0.31698419371911191 0.42971939969030121 0 0.32241197607258831 0.45245221466820001 0 0.30022968874264472 0.44305099609201087 0 0.31698419371911191 0.42971939969030121 0 0.32241197607258831 0.45245221466820001 0 0.31698419371911191 0.42971939969030121 0 0.32241197607258831 0.45245221466820001 0 0.32773392956344122 0.47474179375406039 0 0.30252292541290771 0.46433916100114969 0 0.32241197607258831 0.45245221466820001 0 0.32773392956344122 0.47474179375406039 0 0.32773392956344122 0.47474179375406039 0 0.3169891749702255 0.48908739199868639 0 0.30252292541290771 0.46433916100114969 0 0.34790477907582062 0.48072540281173182 0 0.32773392956344122 0.47474179375406039 0 0.3330558830542964 0.49703137283992038 0 0.34790477907582062 0.48072540281173182 0 0.34242980165317211 0.46474188894283458 0 0.32773392956344122 0.47474179375406039 0 0.32773392956344122 0.47474179375406039 0 0.3330558830542964 0.49703137283992038 0 0.36268591517834131 0.5 0 0.3330558830542964 0.49703137283992038 0 0.33272837974222241 0.5 0 0.32773392956344122 0.47474179375406039 0 0.3330558830542964 0.49703137283992038 0 0.3169891749702255 0.48908739199868639 0 0.33272837974222241 0.5 0 0.3169891749702255 0.48908739199868639 0 0.30277084430610351 0.5 0 0.3330558830542964 0.49703137283992038 0 0.33272837974222241 0.5 0 0.3169891749702255 0.48908739199868639 0 0.3169891749702255 0.48908739199868639 0 0.30277084430610351 0.5 0 0.299695051048539 0.48219010204162233 0 0.3169891749702255 0.48908739199868639 0 0.299695051048539 0.48219010204162233 0 0.30252292541290771 0.46433916100114969 0 0.299695051048539 0.48219010204162233 0 0.28263387475322671 0.47622610733409881 0 0.30252292541290771 0.46433916100114969 0 0.28263387475322671 0.47622610733409881 0 0.30252292541290771 0.46433916100114969 0 0.30277084430610351 0.5 0 0.299695051048539 0.48219010204162233 0 0.27281330886998473 0.5 0 0.299695051048539 0.48219010204162233 0 0.28263387475322671 0.47622610733409881 0 0.27281330886998473 0.5 0 0.28263387475322671 0.47622610733409881 0 0.27281330886998473 0.5 0 0.26274482409354583 0.48811305366704782 0 0.28263387475322671 0.47622610733409881 0 0.26274482409354583 0.48811305366704782 0 0.26233052838310478 0.46551337545432181 0 0.28263387475322671 0.47622610733409881 0 0.26274482409354583 0.48811305366704782 0 0.23967775028756541 0.47071376427955081 0 0.26274482409354583 0.48811305366704782 0 0.26233052838310478 0.46551337545432181 0 0.24285577343386561 0.49999999999999811 0 0.27281330886998473 0.5 0 0.26274482409354583 0.48811305366704782 0 0.24285577343386561 0.49999999999999811 0 0.26274482409354583 0.48811305366704782 0 0.25216957373508508 0.44992291194592859 0 0.27730416929663498 0.44928711089234119 0 0.25830486707441302 0.43007400036890753 0 0.23967775028756541 0.47071376427955081 0 0.25216957373508508 0.44992291194592859 0 0.26233052838310478 0.46551337545432181 0 0.25216957373508508 0.44992291194592859 0 0.26233052838310478 0.46551337545432181 0 0.27730416929663498 0.44928711089234119 0 0.28263387475322671 0.47622610733409881 0 0.26233052838310478 0.46551337545432181 0 0.27730416929663498 0.44928711089234119 0 0.27730416929663498 0.44928711089234119 0 0.30252292541290771 0.46433916100114969 0 0.30022968874264472 0.44305099609201087 0 0.28263387475322671 0.47622610733409881 0 0.27730416929663498 0.44928711089234119 0 0.30252292541290771 0.46433916100114969 0 0.32241197607258831 0.45245221466820001 0 0.30252292541290771 0.46433916100114969 0 0.32241197607258831 0.45245221466820001 0 0.30252292541290771 0.46433916100114969 0 0.30022968874264472 0.44305099609201087 0 0.30022968874264472 0.44305099609201087 0 0.28493063922002537 0.41853029254065488 0 0.31698419371911191 0.42971939969030121 0 0.31155641136563789 0.40698658471240201 0 0.28493063922002537 0.41853029254065488 0 0.31698419371911191 0.42971939969030121 0 0.31155641136563789 0.40698658471240201 0 0.28493063922002537 0.41853029254065488 0 0.30215505250622388 0.40272314181508501 0 0.31155641136563789 0.40698658471240201 0 0.28493063922002537 0.41853029254065488 0 0.27730416929663498 0.44928711089234119 0 0.30022968874264472 0.44305099609201087 0 0.28493063922002537 0.41853029254065488 0 0.27730416929663498 0.44928711089234119 0 0.28493063922002537 0.41853029254065488 0 0.25830486707441302 0.43007400036890753 0 0.28493063922002537 0.41853029254065488 0 0.25830486707441302 0.43007400036890753 0 0.28493063922002537 0.41853029254065488 0 0.26698536163066372 0.41361745113468562 0 0.29102719094286461 0.3974002202727388 0 0.28493063922002537 0.41853029254065488 0 0.26698536163066372 0.41361745113468562 0 0.25830486707441302 0.43007400036890753 0 0.24309156917541291 0.41375616496957512 0 0.26698536163066372 0.41361745113468562 0 0.26617355906753082 0.39502955251655408 0 0.24309156917541291 0.41375616496957512 0 0.26698536163066372 0.41361745113468562 0 0.25830486707441302 0.43007400036890753 0 0.2518844926135439 0.37943510000903602 0 0.26617355906753082 0.39502955251655408 0 0.26621491907564332 0.37405359328857168 0 0.241319927192197 0.39265888476036942 0 0.2518844926135439 0.37943510000903602 0 0.26617355906753082 0.39502955251655408 0 0.241319927192197 0.39265888476036942 0 0.24309156917541291 0.41375616496957512 0 0.26617355906753082 0.39502955251655408 0 0.241319927192197 0.39265888476036942 0 0.26617355906753082 0.39502955251655408 0 0.26617355906753082 0.39502955251655408 0 0.29102719094286461 0.3974002202727388 0 0.26698536163066372 0.41361745113468562 0 0.26617355906753082 0.39502955251655408 0 0.29102719094286461 0.3974002202727388 0 0.26617355906753082 0.39502955251655408 0 0.28773685714925151 0.38012158058539008 0 0.26621491907564332 0.37405359328857168 0 0.28773685714925151 0.38012158058539008 0 0.29102719094286461 0.3974002202727388 0 0.30538541739926239 0.39044948285900932 0 0.26617355906753082 0.39502955251655408 0 0.28773685714925151 0.38012158058539008 0 0.29102719094286461 0.3974002202727388 0 0.28493063922002537 0.41853029254065488 0 0.29102719094286461 0.3974002202727388 0 0.30215505250622388 0.40272314181508501 0 0.29102719094286461 0.3974002202727388 0 0.30215505250622388 0.40272314181508501 0 0.30538541739926239 0.39044948285900932 0 0.30215505250622388 0.40272314181508501 0 0.30986269119060122 0.40037321906396578 0 0.30538541739926239 0.39044948285900932 0 0.30986269119060122 0.40037321906396578 0 0.30538541739926239 0.39044948285900932 0 0.32075172517666162 0.40299992038420579 0 0.31155641136563789 0.40698658471240201 0 0.30215505250622388 0.40272314181508501 0 0.31115856968025712 0.40532033119756311 0 0.30215505250622388 0.40272314181508501 0 0.30986269119060122 0.40037321906396578 0 0.31115856968025712 0.40532033119756311 0 0.31155641136563789 0.40698658471240201 0 0.31115856968025712 0.40532033119756311 0 0.31014709044548933 0.37522457276506638 0 0.30538541739926239 0.39044948285900932 0 0.32075172517666162 0.40299992038420579 0 0.28773685714925151 0.38012158058539008 0 0.31014709044548933 0.37522457276506638 0 0.30538541739926239 0.39044948285900932 0 0.31014709044548933 0.37522457276506638 0 0.32738630571446298 0.38273822089744491 0 0.32075172517666162 0.40299992038420579 0 0.31014709044548933 0.37522457276506638 0 0.32075172517666162 0.40299992038420579 0 0.31014709044548933 0.37522457276506638 0 0.32738630571446298 0.38273822089744491 0 0.32612386423855289 0.36846670815518051 0 0.32738630571446298 0.38273822089744491 0 0.33894414054339772 0.37608566727874332 0 0.32612386423855289 0.36846670815518051 0 0.32738630571446298 0.38273822089744491 0 0.33894414054339772 0.37608566727874332 0 0.34210557214687182 0.39374187637011332 0 0.34210557214687182 0.39374187637011332 0 0.32075172517666162 0.40299992038420579 0 0.33424513823666369 0.41050687966566007 0 0.32738630571446298 0.38273822089744491 0 0.34210557214687182 0.39374187637011332 0 0.32075172517666162 0.40299992038420579 0 0.34210557214687182 0.39374187637011332 0 0.32075172517666162 0.40299992038420579 0 0.34210557214687182 0.39374187637011332 0 0.33424513823666369 0.41050687966566007 0 0.34931300434129597 0.40771654831822168 0 0.31155641136563789 0.40698658471240201 0 0.31115856968025712 0.40532033119756311 0 0.32075172517666162 0.40299992038420579 0 0.30986269119060122 0.40037321906396578 0 0.31115856968025712 0.40532033119756311 0 0.32075172517666162 0.40299992038420579 0 0.31155641136563789 0.40698658471240201 0 0.32075172517666162 0.40299992038420579 0 0.32075172517666162 0.40299992038420579 0 0.32859244267894522 0.42353609722858482 0 0.31155641136563789 0.40698658471240201 0 0.31698419371911191 0.42971939969030121 0 0.31155641136563789 0.40698658471240201 0 0.31698419371911191 0.42971939969030121 0 0.32859244267894522 0.42353609722858482 0 0.32075172517666162 0.40299992038420579 0 0.32859244267894522 0.42353609722858482 0 0.33424513823666369 0.41050687966566007 0 0.31155641136563789 0.40698658471240201 0 0.32075172517666162 0.40299992038420579 0 0.32859244267894522 0.42353609722858482 0 0.33643316018122638 0.44407227407296462 0 0.31698419371911191 0.42971939969030121 0 0.32859244267894522 0.42353609722858482 0 0.33643316018122638 0.44407227407296462 0 0.32859244267894522 0.42353609722858482 0 0.33643316018122638 0.44407227407296462 0 0.32859244267894522 0.42353609722858482 0 0.33788628837830331 0.4329503416872918 0 0.32859244267894522 0.42353609722858482 0 0.33863873828162022 0.42356851116658012 0 0.33788628837830331 0.4329503416872918 0 0.32859244267894522 0.42353609722858482 0 0.33863873828162022 0.42356851116658012 0 0.33424513823666369 0.41050687966566007 0 0.33863873828162022 0.42356851116658012 0 0.33424513823666369 0.41050687966566007 0 0.34581472424710769 0.41756330856597729 0 0.33424513823666369 0.41050687966566007 0 0.34931300434129597 0.40771654831822168 0 0.34581472424710769 0.41756330856597729 0 0.34581472424710769 0.41756330856597729 0 0.35596895571752929 0.4161694702795109 0 0.35754689103978238 0.43184836438745772 0 0.34931300434129597 0.40771654831822168 0 0.34581472424710769 0.41756330856597729 0 0.35596895571752929 0.4161694702795109 0 0.34931300434129597 0.40771654831822168 0 0.35596895571752929 0.4161694702795109 0 0.36057123196553648 0.40864860276668807 0 0.34790735698743008 0.44521447229719469 0 0.33788628837830331 0.4329503416872918 0 0.35754689103978238 0.43184836438745772 0 0.33788628837830331 0.4329503416872918 0 0.35754689103978238 0.43184836438745772 0 0.33863873828162022 0.42356851116658012 0 0.34581472424710769 0.41756330856597729 0 0.35754689103978238 0.43184836438745772 0 0.33863873828162022 0.42356851116658012 0 0.33788628837830331 0.4329503416872918 0 0.35754689103978238 0.43184836438745772 0 0.35596895571752929 0.4161694702795109 0 0.35754689103978238 0.43184836438745772 0 0.36721102786386511 0.41891568701996729 0 0.35754689103978238 0.43184836438745772 0 0.37720749370126139 0.43074638708762381 0 0.35754689103978238 0.43184836438745772 0 0.36721102786386511 0.41891568701996729 0 0.37603147723887931 0.42547017458442682 0 0.36920715579352498 0.44448948745936989 0 0.35754689103978238 0.43184836438745772 0 0.37720749370126139 0.43074638708762381 0 0.35754689103978238 0.43184836438745772 0 0.37720749370126139 0.43074638708762381 0 0.37603147723887931 0.42547017458442682 0 0.36057123196553648 0.40864860276668807 0 0.3707464537817482 0.40915146474554182 0 0.36469252668196178 0.40304955535405262 0 0.36057123196553648 0.40864860276668807 0 0.36721102786386511 0.41891568701996729 0 0.3707464537817482 0.40915146474554182 0 0.35596895571752929 0.4161694702795109 0 0.36057123196553648 0.40864860276668807 0 0.36721102786386511 0.41891568701996729 0 0.36721102786386511 0.41891568701996729 0 0.37534127504860493 0.42021529366902299 0 0.37603147723887931 0.42547017458442682 0 0.36721102786386511 0.41891568701996729 0 0.37399510350094201 0.4163798931856002 0 0.3707464537817482 0.40915146474554182 0 0.36721102786386511 0.41891568701996729 0 0.37399510350094201 0.4163798931856002 0 0.37534127504860493 0.42021529366902299 0 0.37399510350094201 0.4163798931856002 0 0.3707464537817482 0.40915146474554182 0 0.37655196532603552 0.41286137517985472 0 0.3707464537817482 0.40915146474554182 0 0.37467669437875339 0.40380768032186659 0 0.37711618547063519 0.40810870867507082 0 0.3707464537817482 0.40915146474554182 0 0.37711618547063519 0.40810870867507082 0 0.37655196532603552 0.41286137517985472 0 0.3707464537817482 0.40915146474554182 0 0.37012506897706871 0.40100584999109501 0 0.36469252668196178 0.40304955535405262 0 0.36204192362230769 0.38641664879507293 0 0.38139485263072509 0.40234669061352918 0 0.36938190404626597 0.38935418061548382 0 0.36204192362230769 0.38641664879507293 0 0.38139485263072509 0.40234669061352918 0 0.37045398062151108 0.39591776037882292 0 0.36204192362230769 0.38641664879507293 0 0.38139485263072509 0.40234669061352918 0 0.3707464537817482 0.40915146474554182 0 0.37467669437875339 0.40380768032186659 0 0.37012506897706871 0.40100584999109501 0 0.37416264915201458 0.40076949532632838 0 0.37012506897706871 0.40100584999109501 0 0.37045398062151108 0.39591776037882292 0 0.37467669437875339 0.40380768032186659 0 0.37416264915201458 0.40076949532632838 0 0.37012506897706871 0.40100584999109501 0 0.36057123196553648 0.40864860276668807 0 0.36469252668196178 0.40304955535405262 0 0.35717240373406728 0.39966915226138061 0 0.37012506897706871 0.40100584999109501 0 0.36469252668196178 0.40304955535405262 0 0.36476602767942362 0.39793337858331268 0 0.36469252668196178 0.40304955535405262 0 0.36476602767942362 0.39793337858331268 0 0.35717240373406728 0.39966915226138061 0 0.35988037382571331 0.39401288836142961 0 0.36476602767942362 0.39793337858331268 0 0.37045398062151108 0.39591776037882292 0 0.35988037382571331 0.39401288836142961 0 0.37045398062151108 0.39591776037882292 0 0.36204192362230769 0.38641664879507293 0 0.35988037382571331 0.39401288836142961 0 0.36476602767942362 0.39793337858331268 0 0.35717240373406728 0.39966915226138061 0 0.37012506897706871 0.40100584999109501 0 0.36476602767942362 0.39793337858331268 0 0.37045398062151108 0.39591776037882292 0 0.37171752313452089 0.37912638454794018 0 0.35975962269443001 0.3762569100645361 0 0.38025370216678589 0.3972668212482614 0 0.35975962269443001 0.3762569100645361 0 0.38025370216678589 0.3972668212482614 0 0.36938190404626597 0.38935418061548382 0 0.35975962269443001 0.3762569100645361 0 0.38025370216678589 0.3972668212482614 0 0.36938190404626597 0.38935418061548382 0 0.35975962269443001 0.3762569100645361 0 0.36345941911708141 0.38448383235601941 0 0.36938190404626597 0.38935418061548382 0 0.36345941911708141 0.38448383235601941 0 0.36204192362230769 0.38641664879507293 0 0.33894414054339772 0.37608566727874332 0 0.34210557214687182 0.39374187637011332 0 0.35091406465361302 0.38085569696879601 0 0.34210557214687182 0.39374187637011332 0 0.36345941911708141 0.38448383235601941 0 0.34210557214687182 0.39374187637011332 0 0.36345941911708141 0.38448383235601941 0 0.36204192362230769 0.38641664879507293 0 0.34210557214687182 0.39374187637011332 0 0.36345941911708141 0.38448383235601941 0 0.35091406465361302 0.38085569696879601 0 0.35975962269443001 0.3762569100645361 0 0.35091406465361302 0.38085569696879601 0 0.34859266415708939 0.37477760166423718 0 0.35975962269443001 0.3762569100645361 0 0.36345941911708141 0.38448383235601941 0 0.35091406465361302 0.38085569696879601 0 0.33894414054339772 0.37608566727874332 0 0.35091406465361302 0.38085569696879601 0 0.34859266415708939 0.37477760166423718 0 0.34210557214687182 0.39374187637011332 0 0.35988037382571331 0.39401288836142961 0 0.36204192362230769 0.38641664879507293 0 0.34210557214687182 0.39374187637011332 0 0.35988037382571331 0.39401288836142961 0 0.35717240373406728 0.39966915226138061 0 0.34210557214687182 0.39374187637011332 0 0.34931300434129597 0.40771654831822168 0 0.35717240373406728 0.39966915226138061 0 0.34931300434129597 0.40771654831822168 0 0.36057123196553648 0.40864860276668807 0 0.35717240373406728 0.39966915226138061 0 0.35098595020658407 0.35224258486069632 0 0.36616207143961987 0.34962995332913399 0 0.35504261891790567 0.33549905089867499 0 0.35098595020658407 0.35224258486069632 0 0.3587919472729279 0.36414147387171408 0 0.33926554322207442 0.35524699888081079 0 0.35098595020658407 0.35224258486069632 0 0.3587919472729279 0.36414147387171408 0 0.36616207143961987 0.34962995332913399 0 0.35098595020658407 0.35224258486069632 0 0.34463450706715199 0.34311541899958181 0 0.34070249708554712 0.3487124535525129 0 0.35975962269443001 0.3762569100645361 0 0.34449736631295969 0.36843110947067798 0 0.33926554322207442 0.35524699888081079 0 0.35975962269443001 0.3762569100645361 0 0.3587919472729279 0.36414147387171408 0 0.33926554322207442 0.35524699888081079 0 0.35975962269443001 0.3762569100645361 0 0.33926554322207442 0.35524699888081079 0 0.3587919472729279 0.36414147387171408 0 0.33926554322207442 0.35524699888081079 0 0.33894414054339772 0.37608566727874332 0 0.34449736631295969 0.36843110947067798 0 0.34859266415708939 0.37477760166423718 0 0.35975962269443001 0.3762569100645361 0 0.34449736631295969 0.36843110947067798 0 0.34859266415708939 0.37477760166423718 0 0.37171752313452089 0.37912638454794018 0 0.3587919472729279 0.36414147387171408 0 0.37831835132378128 0.37303594886261748 0 0.3587919472729279 0.36414147387171408 0 0.37082186490094499 0.36106429188981781 0 0.37831835132378128 0.37303594886261748 0 0.3587919472729279 0.36414147387171408 0 0.37831835132378128 0.37303594886261748 0 0.37171752313452089 0.37912638454794018 0 0.35975962269443001 0.3762569100645361 0 0.3587919472729279 0.36414147387171408 0 0.37082186490094499 0.36106429188981781 0 0.36616207143961987 0.34962995332913399 0 0.38001508956745078 0.35744979149580558 0 0.3587919472729279 0.36414147387171408 0 0.37082186490094499 0.36106429188981781 0 0.36616207143961987 0.34962995332913399 0 0.36616207143961987 0.34962995332913399 0 0.36836392016235531 0.32856529019943281 0 0.35504261891790567 0.33549905089867499 0 0.36616207143961987 0.34962995332913399 0 0.36836392016235531 0.32856529019943281 0 0.38175724266187999 0.33700255076728292 0 0.3523756200356255 0.31036372348924879 0 0.37947155781545983 0.31660891461289781 0 0.36836392016235531 0.32856529019943281 0 0.3523756200356255 0.31036372348924879 0 0.37947155781545983 0.31660891461289781 0 0.36836392016235531 0.32856529019943281 0 0.35504261891790567 0.33549905089867499 0 0.3523756200356255 0.31036372348924879 0 0.35504261891790567 0.33549905089867499 0 0.33811783191671829 0.33000332129987892 0 0.3523756200356255 0.31036372348924879 0 0.35504261891790567 0.33549905089867499 0 0.34463450706715199 0.34311541899958181 0 0.33811783191671829 0.33000332129987892 0 0.35098595020658407 0.35224258486069632 0 0.35504261891790567 0.33549905089867499 0 0.34463450706715199 0.34311541899958181 0 0.34463450706715199 0.34311541899958181 0 0.33811783191671829 0.33000332129987892 0 0.33371782383525722 0.34217681008162198 0 0.33811783191671829 0.33000332129987892 0 0.33371782383525722 0.34217681008162198 0 0.31997203423532872 0.33214102924692152 0 0.33811783191671829 0.33000332129987892 0 0.32453699150274029 0.31831304965396012 0 0.3523756200356255 0.31036372348924879 0 0.33811783191671829 0.33000332129987892 0 0.32453699150274029 0.31831304965396012 0 0.31997203423532872 0.33214102924692152 0 0.31997203423532872 0.33214102924692152 0 0.30973808657726343 0.33093833315324178 0 0.30917861783721229 0.32083644855813032 0 0.32453699150274029 0.31831304965396012 0 0.31997203423532872 0.33214102924692152 0 0.30917861783721229 0.32083644855813032 0 0.32453699150274029 0.31831304965396012 0 0.30917861783721229 0.32083644855813032 0 0.31395280064081388 0.31056200752820751 0 0.33371782383525722 0.34217681008162198 0 0.31997203423532872 0.33214102924692152 0 0.3234495044258664 0.34804263287662163 0 0.31997203423532872 0.33214102924692152 0 0.3234495044258664 0.34804263287662163 0 0.30763346562965838 0.34083826687243252 0 0.31582392638285028 0.35560022227213972 0 0.3234495044258664 0.34804263287662163 0 0.30763346562965838 0.34083826687243252 0 0.3234495044258664 0.34804263287662163 0 0.30763346562965838 0.34083826687243252 0 0.31582392638285028 0.35560022227213972 0 0.32798330375851698 0.35842011192374928 0 0.3234495044258664 0.34804263287662163 0 0.3234495044258664 0.34804263287662163 0 0.33490866109666789 0.35078045493985371 0 0.33926554322207442 0.35524699888081079 0 0.33371782383525722 0.34217681008162198 0 0.3234495044258664 0.34804263287662163 0 0.33490866109666789 0.35078045493985371 0 0.3234495044258664 0.34804263287662163 0 0.33926554322207442 0.35524699888081079 0 0.32798330375851698 0.35842011192374928 0 0.3234495044258664 0.34804263287662163 0 0.33926554322207442 0.35524699888081079 0 0.33490866109666789 0.35078045493985371 0 0.33926554322207442 0.35524699888081079 0 0.34070249708554712 0.3487124535525129 0 0.35098595020658407 0.35224258486069632 0 0.33926554322207442 0.35524699888081079 0 0.34070249708554712 0.3487124535525129 0 0.33490866109666789 0.35078045493985371 0 0.33926554322207442 0.35524699888081079 0 0.33371782383525722 0.34217681008162198 0 0.33490866109666789 0.35078045493985371 0 0.34070249708554712 0.3487124535525129 0 0.34463450706715199 0.34311541899958181 0 0.33371782383525722 0.34217681008162198 0 0.34070249708554712 0.3487124535525129 0 0.33894414054339772 0.37608566727874332 0 0.34449736631295969 0.36843110947067798 0 0.33541393609989179 0.36482632371667162 0 0.34449736631295969 0.36843110947067798 0 0.33926554322207442 0.35524699888081079 0 0.33541393609989179 0.36482632371667162 0 0.32798330375851698 0.35842011192374928 0 0.33541393609989179 0.36482632371667162 0 0.32612386423855289 0.36846670815518051 0 0.32798330375851698 0.35842011192374928 0 0.33926554322207442 0.35524699888081079 0 0.33541393609989179 0.36482632371667162 0 0.33894414054339772 0.37608566727874332 0 0.33541393609989179 0.36482632371667162 0 0.32612386423855289 0.36846670815518051 0 0.31014709044548933 0.37522457276506638 0 0.31582392638285028 0.35560022227213972 0 0.32612386423855289 0.36846670815518051 0 0.31582392638285028 0.35560022227213972 0 0.32798330375851698 0.35842011192374928 0 0.32612386423855289 0.36846670815518051 0 0.31014709044548933 0.37522457276506638 0 0.29954245571431692 0.3474492251459268 0 0.31014709044548933 0.37522457276506638 0 0.31582392638285028 0.35560022227213972 0 0.29954245571431692 0.3474492251459268 0 0.31014709044548933 0.37522457276506638 0 0.29954245571431692 0.3474492251459268 0 0.29256626466702562 0.36347750217166003 0 0.31582392638285028 0.35560022227213972 0 0.29954245571431692 0.3474492251459268 0 0.30763346562965838 0.34083826687243252 0 0.29954245571431692 0.3474492251459268 0 0.28621426108525561 0.35157214135785592 0 0.29256626466702562 0.36347750217166003 0 0.29954245571431692 0.3474492251459268 0 0.28621426108525561 0.35157214135785592 0 0.29015971987454808 0.34047306960056323 0 0.28621426108525561 0.35157214135785592 0 0.29256626466702562 0.36347750217166003 0 0.27919065894081491 0.36301999100406063 0 0.28773685714925151 0.38012158058539008 0 0.31014709044548933 0.37522457276506638 0 0.29256626466702562 0.36347750217166003 0 0.28773685714925151 0.38012158058539008 0 0.29256626466702562 0.36347750217166003 0 0.27919065894081491 0.36301999100406063 0 0.28773685714925151 0.38012158058539008 0 0.26621491907564332 0.37405359328857168 0 0.27919065894081491 0.36301999100406063 0 0.26621491907564332 0.37405359328857168 0 0.27919065894081491 0.36301999100406063 0 0.26546926294604228 0.35993729398374102 0 0.27919065894081491 0.36301999100406063 0 0.27210597180933133 0.34583867188474893 0 0.26546926294604228 0.35993729398374102 0 0.28621426108525561 0.35157214135785592 0 0.27919065894081491 0.36301999100406063 0 0.27210597180933133 0.34583867188474893 0 0.28621426108525561 0.35157214135785592 0 0.27210597180933133 0.34583867188474893 0 0.28438012747664709 0.33774191489309818 0 0.27210597180933133 0.34583867188474893 0 0.25410105345684347 0.34656526864089932 0 0.26546926294604228 0.35993729398374102 0 0.25410105345684347 0.34656526864089932 0 0.2525101185064561 0.36222672487366619 0 0.26546926294604228 0.35993729398374102 0 0.2518844926135439 0.37943510000903602 0 0.26621491907564332 0.37405359328857168 0 0.2525101185064561 0.36222672487366619 0 0.26621491907564332 0.37405359328857168 0 0.2525101185064561 0.36222672487366619 0 0.26546926294604228 0.35993729398374102 0 0.24788609833900291 0.31820008064590988 0 0.25945894587610902 0.33112493942345761 0 0.26326677643880853 0.31184638794190578 0 0.2431483281585621 0.3347595717197499 0 0.24788609833900291 0.31820008064590988 0 0.25945894587610902 0.33112493942345761 0 0.25945894587610902 0.33112493942345761 0 0.27280373118367901 0.33052902594912847 0 0.26326677643880853 0.31184638794190578 0 0.2431483281585621 0.3347595717197499 0 0.25410105345684347 0.34656526864089932 0 0.25945894587610902 0.33112493942345761 0 0.27210597180933133 0.34583867188474893 0 0.25410105345684347 0.34656526864089932 0 0.25945894587610902 0.33112493942345761 0 0.27210597180933133 0.34583867188474893 0 0.25945894587610902 0.33112493942345761 0 0.27280373118367901 0.33052902594912847 0 0.27210597180933133 0.34583867188474893 0 0.27280373118367901 0.33052902594912847 0 0.28438012747664709 0.33774191489309818 0 0.27280373118367901 0.33052902594912847 0 0.28480683431749931 0.32609321560243187 0 0.28438012747664709 0.33774191489309818 0 0.27280373118367901 0.33052902594912847 0 0.28480683431749931 0.32609321560243187 0 0.26326677643880853 0.31184638794190578 0 0.28480683431749931 0.32609321560243187 0 0.26326677643880853 0.31184638794190578 0 0.28480683431749931 0.32609321560243187 0 0.28462361724015067 0.3083742418769887 0 0.26326677643880853 0.31184638794190578 0 0.28893782098314702 0.31967387752678639 0 0.28480683431749931 0.32609321560243187 0 0.28438012747664709 0.33774191489309818 0 0.28893782098314702 0.31967387752678639 0 0.28480683431749931 0.32609321560243187 0 0.28462361724015067 0.3083742418769887 0 0.28893782098314702 0.31967387752678639 0 0.28462361724015067 0.3083742418769887 0 0.28893782098314702 0.31967387752678639 0 0.30216822860685411 0.32993758793548328 0 0.29924687647576792 0.32003173465133311 0 0.28893782098314702 0.31967387752678639 0 0.29924687647576792 0.32003173465133311 0 0.30043549090417171 0.31068603473202949 0 0.28893782098314702 0.31967387752678639 0 0.28438012747664709 0.33774191489309818 0 0.28893782098314702 0.31967387752678639 0 0.28438012747664709 0.33774191489309818 0 0.29015971987454808 0.34047306960056323 0 0.29954245571431692 0.3474492251459268 0 0.28893782098314702 0.31967387752678639 0 0.29954245571431692 0.3474492251459268 0 0.28893782098314702 0.31967387752678639 0 0.29015971987454808 0.34047306960056323 0 0.28621426108525561 0.35157214135785592 0 0.28438012747664709 0.33774191489309818 0 0.29015971987454808 0.34047306960056323 0 0.29954245571431692 0.3474492251459268 0 0.28893782098314702 0.31967387752678639 0 0.30216822860685411 0.32993758793548328 0 0.29954245571431692 0.3474492251459268 0 0.30216822860685411 0.32993758793548328 0 0.30763346562965838 0.34083826687243252 0 0.31997203423532872 0.33214102924692152 0 0.30973808657726343 0.33093833315324178 0 0.30763346562965838 0.34083826687243252 0 0.30216822860685411 0.32993758793548328 0 0.30973808657726343 0.33093833315324178 0 0.30763346562965838 0.34083826687243252 0 0.29924687647576792 0.32003173465133311 0 0.30917861783721229 0.32083644855813032 0 0.30043549090417171 0.31068603473202949 0 0.30216822860685411 0.32993758793548328 0 0.29924687647576792 0.32003173465133311 0 0.30917861783721229 0.32083644855813032 0 0.30216822860685411 0.32993758793548328 0 0.30973808657726343 0.33093833315324178 0 0.30917861783721229 0.32083644855813032 0 0.30917861783721229 0.32083644855813032 0 0.30043549090417171 0.31068603473202949 0 0.31395280064081388 0.31056200752820751 0 0.31033322070415398 0.2988559723313175 0 0.30043549090417171 0.31068603473202949 0 0.31395280064081388 0.31056200752820751 0 0.31033322070415398 0.2988559723313175 0 0.30043549090417171 0.31068603473202949 0 0.29455321813055302 0.29741279188309649 0 0.31033322070415398 0.2988559723313175 0 0.29455321813055302 0.29741279188309649 0 0.30016861527795591 0.27515170623940588 0 0.31033322070415398 0.2988559723313175 0 0.30016861527795591 0.27515170623940588 0 0.31853587387863641 0.28582180925745271 0 0.29455321813055302 0.29741279188309649 0 0.30016861527795591 0.27515170623940588 0 0.28517893674808442 0.2840916112532636 0 0.29455321813055302 0.29741279188309649 0 0.30016861527795591 0.27515170623940588 0 0.28259167318316247 0.29642765946927152 0 0.28517893674808442 0.2840916112532636 0 0.29455321813055302 0.29741279188309649 0 0.28893782098314702 0.31967387752678639 0 0.29455321813055302 0.29741279188309649 0 0.28462361724015067 0.3083742418769887 0 0.28893782098314702 0.31967387752678639 0 0.30043549090417171 0.31068603473202949 0 0.29455321813055302 0.29741279188309649 0 0.28893782098314702 0.31967387752678639 0 0.29455321813055302 0.29741279188309649 0 0.28259167318316247 0.29642765946927152 0 0.29455321813055302 0.29741279188309649 0 0.28462361724015067 0.3083742418769887 0 0.28462361724015067 0.3083742418769887 0 0.27295525770450713 0.30072027117149269 0 0.26326677643880853 0.31184638794190578 0 0.28259167318316247 0.29642765946927152 0 0.28462361724015067 0.3083742418769887 0 0.27295525770450713 0.30072027117149269 0 0.28259167318316247 0.29642765946927152 0 0.28517893674808442 0.2840916112532636 0 0.27460426736611049 0.29033900706541399 0 0.28259167318316247 0.29642765946927152 0 0.27295525770450713 0.30072027117149269 0 0.27460426736611049 0.29033900706541399 0 0.28517893674808442 0.2840916112532636 0 0.27460426736611049 0.29033900706541399 0 0.27044944464835102 0.27779267606141339 0 0.27460426736611049 0.29033900706541399 0 0.25966549783237858 0.29246930722803799 0 0.27044944464835102 0.27779267606141339 0 0.27295525770450713 0.30072027117149269 0 0.27460426736611049 0.29033900706541399 0 0.25966549783237858 0.29246930722803799 0 0.25966549783237858 0.29246930722803799 0 0.25748227336437018 0.27638091444261959 0 0.27044944464835102 0.27779267606141339 0 0.24747911162443681 0.28602223421101558 0 0.25966549783237858 0.29246930722803799 0 0.25748227336437018 0.27638091444261959 0 0.2417267185601176 0.29759956028137968 0 0.25966549783237858 0.29246930722803799 0 0.26326677643880853 0.31184638794190578 0 0.2417267185601176 0.29759956028137968 0 0.26326677643880853 0.31184638794190578 0 0.2417267185601176 0.29759956028137968 0 0.24788609833900291 0.31820008064590988 0 0.26326677643880853 0.31184638794190578 0 0.27295525770450713 0.30072027117149269 0 0.25966549783237858 0.29246930722803799 0 0.26326677643880853 0.31184638794190578 0 0.24688333128324669 0.25666515192319922 0 0.26443759257932609 0.26110823188892568 0 0.26741400189277359 0.24141526490187359 0 0.24688333128324669 0.25666515192319922 0 0.26443759257932609 0.26110823188892568 0 0.25748227336437018 0.27638091444261959 0 0.26443759257932609 0.26110823188892568 0 0.25748227336437018 0.27638091444261959 0 0.27044944464835102 0.27779267606141339 0 0.26443759257932609 0.26110823188892568 0 0.28032048346886002 0.26797750079454269 0 0.27044944464835102 0.27779267606141339 0 0.28517893674808442 0.2840916112532636 0 0.28032048346886002 0.26797750079454269 0 0.27044944464835102 0.27779267606141339 0 0.26443759257932609 0.26110823188892568 0 0.28787576495381328 0.25091067348488288 0 0.26741400189277359 0.24141526490187359 0 0.26443759257932609 0.26110823188892568 0 0.28032048346886002 0.26797750079454269 0 0.28787576495381328 0.25091067348488288 0 0.28032048346886002 0.26797750079454269 0 0.28787576495381328 0.25091067348488288 0 0.30016861527795591 0.27515170623940588 0 0.28517893674808442 0.2840916112532636 0 0.28032048346886002 0.26797750079454269 0 0.30016861527795591 0.27515170623940588 0 0.30016861527795591 0.27515170623940588 0 0.30578401242535891 0.25289062059571521 0 0.32135400661846009 0.26999856332956162 0 0.28787576495381328 0.25091067348488288 0 0.30016861527795591 0.27515170623940588 0 0.30578401242535891 0.25289062059571521 0 0.30016861527795591 0.27515170623940588 0 0.30578401242535891 0.25289062059571521 0 0.30578401242535891 0.25289062059571521 0 0.32135400661846009 0.26999856332956162 0 0.32722664513857841 0.24813538988682701 0 0.34245101557708307 0.2654376520290736 0 0.32722664513857841 0.24813538988682701 0 0.35121300245048759 0.24230489061215671 0 0.34245101557708307 0.2654376520290736 0 0.32135400661846009 0.26999856332956162 0 0.32722664513857841 0.24813538988682701 0 0.34245101557708307 0.2654376520290736 0 0.32135400661846009 0.26999856332956162 0 0.3336890287036785 0.2885704134459906 0 0.34245101557708307 0.2654376520290736 0 0.3336890287036785 0.2885704134459906 0 0.30016861527795591 0.27515170623940588 0 0.32135400661846009 0.26999856332956162 0 0.31853587387863641 0.28582180925745271 0 0.32135400661846009 0.26999856332956162 0 0.31853587387863641 0.28582180925745271 0 0.3336890287036785 0.2885704134459906 0 0.31033322070415398 0.2988559723313175 0 0.31853587387863641 0.28582180925745271 0 0.32527968225579118 0.30411853236559971 0 0.31853587387863641 0.28582180925745271 0 0.32527968225579118 0.30411853236559971 0 0.3336890287036785 0.2885704134459906 0 0.31033322070415398 0.2988559723313175 0 0.31395280064081388 0.31056200752820751 0 0.32527968225579118 0.30411853236559971 0 0.32453699150274029 0.31831304965396012 0 0.31395280064081388 0.31056200752820751 0 0.32527968225579118 0.30411853236559971 0 0.32527968225579118 0.30411853236559971 0 0.3523756200356255 0.31036372348924879 0 0.32453699150274029 0.31831304965396012 0 0.32527968225579118 0.30411853236559971 0 0.3523756200356255 0.31036372348924879 0 0.32527968225579118 0.30411853236559971 0 0.3336890287036785 0.2885704134459906 0 0.3523756200356255 0.31036372348924879 0 0.3336890287036785 0.2885704134459906 0 0.35803897952282221 0.28456766681074619 0 0.3523756200356255 0.31036372348924879 0 0.3523756200356255 0.31036372348924879 0 0.3801908372363868 0.29544136376066532 0 0.37947155781545983 0.31660891461289781 0 0.35803897952282221 0.28456766681074619 0 0.37486492638679769 0.27653320908203199 0 0.3801908372363868 0.29544136376066532 0 0.35803897952282221 0.28456766681074619 0 0.3523756200356255 0.31036372348924879 0 0.3801908372363868 0.29544136376066532 0 0.35803897952282221 0.28456766681074619 0 0.37486492638679769 0.27653320908203199 0 0.36299413305147399 0.26461411206094732 0 0.37486492638679769 0.27653320908203199 0 0.36299413305147399 0.26461411206094732 0 0.38290530478916868 0.25949130680622962 0 0.36299413305147399 0.26461411206094732 0 0.36784091691968618 0.2451034414068832 0 0.35121300245048759 0.24230489061215671 0 0.36299413305147399 0.26461411206094732 0 0.38290530478916868 0.25949130680622962 0 0.36784091691968618 0.2451034414068832 0 0.34245101557708307 0.2654376520290736 0 0.36299413305147399 0.26461411206094732 0 0.35121300245048759 0.24230489061215671 0 0.34245101557708307 0.2654376520290736 0 0.35121300245048759 0.24230489061215671 0 0.34245101557708307 0.2654376520290736 0 0.35803897952282221 0.28456766681074619 0 0.36299413305147399 0.26461411206094732 0 0.34245101557708307 0.2654376520290736 0 0.3336890287036785 0.2885704134459906 0 0.35803897952282221 0.28456766681074619 0 0.3901953773341364 0.27855159597157159 0 0.40629720781130479 0.29659939619302672 0 0.40793063414460412 0.26711682385983798 0 0.38290530478916868 0.25949130680622962 0 0.3901953773341364 0.27855159597157159 0 0.40793063414460412 0.26711682385983798 0 0.39860249608122122 0.25000563432505679 0 0.38290530478916868 0.25949130680622962 0 0.40793063414460412 0.26711682385983798 0 0.37486492638679769 0.27653320908203199 0 0.38290530478916868 0.25949130680622962 0 0.3901953773341364 0.27855159597157159 0 0.37486492638679769 0.27653320908203199 0 0.3901953773341364 0.27855159597157159 0 0.3801908372363868 0.29544136376066532 0 0.3801908372363868 0.29544136376066532 0 0.39278071022756778 0.30646516732524448 0 0.37947155781545983 0.31660891461289781 0 0.3801908372363868 0.29544136376066532 0 0.39278071022756778 0.30646516732524448 0 0.40629720781130479 0.29659939619302672 0 0.39278071022756778 0.30646516732524448 0 0.40629720781130479 0.29659939619302672 0 0.40656749559529398 0.32285410573654683 0 0.3901953773341364 0.27855159597157159 0 0.3801908372363868 0.29544136376066532 0 0.40629720781130479 0.29659939619302672 0 0.3801908372363868 0.29544136376066532 0 0.40629720781130479 0.29659939619302672 0 0.40629720781130479 0.29659939619302672 0 0.4324035783862229 0.29775742862538812 0 0.42611246516341139 0.27987444908937498 0 0.40629720781130479 0.29659939619302672 0 0.4324035783862229 0.29775742862538812 0 0.40629720781130479 0.29659939619302672 0 0.4324035783862229 0.29775742862538812 0 0.42291390450600952 0.31383514226793369 0 0.40629720781130479 0.29659939619302672 0 0.42291390450600952 0.31383514226793369 0 0.40656749559529398 0.32285410573654683 0 0.4324035783862229 0.29775742862538812 0 0.44421003265346298 0.30725171760637848 0 0.42291390450600952 0.31383514226793369 0 0.4324035783862229 0.29775742862538812 0 0.42611246516341139 0.27987444908937498 0 0.4432485266859868 0.28668417227234178 0 0.42611246516341139 0.27987444908937498 0 0.40793063414460412 0.26711682385983798 0 0.43376010535896392 0.2549118686055763 0 0.42611246516341139 0.27987444908937498 0 0.43376010535896392 0.2549118686055763 0 0.44707981473555403 0.27123949473741382 0 0.40629720781130479 0.29659939619302672 0 0.42611246516341139 0.27987444908937498 0 0.40793063414460412 0.26711682385983798 0 0.39860249608122122 0.25000563432505679 0 0.40793063414460412 0.26711682385983798 0 0.41617003837266009 0.24330062356832541 0 0.40793063414460412 0.26711682385983798 0 0.43376010535896392 0.2549118686055763 0 0.41617003837266009 0.24330062356832541 0 0.43376010535896392 0.2549118686055763 0 0.44707981473555403 0.27123949473741382 0 0.46183443009462138 0.25389996412374422 0 0.42611246516341139 0.27987444908937498 0 0.44707981473555403 0.27123949473741382 0 0.4432485266859868 0.28668417227234178 0 0.44707981473555403 0.27123949473741382 0 0.45704555173946931 0.28414854453264748 0 0.4432485266859868 0.28668417227234178 0 0.46646049637183368 0.27116740899788738 0 0.46769620061985762 0.2872802243851954 0 0.45704555173946931 0.28414854453264748 0 0.44707981473555403 0.27123949473741382 0 0.46646049637183368 0.27116740899788738 0 0.45704555173946931 0.28414854453264748 0 0.44707981473555403 0.27123949473741382 0 0.46646049637183368 0.27116740899788738 0 0.46183443009462138 0.25389996412374422 0 0.46646049637183368 0.27116740899788738 0 0.46183443009462138 0.25389996412374422 0 0.48036342386364628 0.26336793523650281 0 0.46183443009462138 0.25389996412374422 0 0.48036342386364628 0.26336793523650281 0 0.47976512383307701 0.2489070956160494 0 0.46646049637183368 0.27116740899788738 0 0.48036342386364628 0.26336793523650281 0 0.48816380747671623 0.27727035226686442 0 0.46646049637183368 0.27116740899788738 0 0.48816380747671623 0.27727035226686442 0 0.48323024818591731 0.29460341773769078 0 0.48816380747671623 0.27727035226686442 0 0.5 0.26368066086332081 0 0.5 0.29086004367040758 0 0.48036342386364628 0.26336793523650281 0 0.48816380747671623 0.27727035226686442 0 0.5 0.26368066086332081 0 0.48036342386364628 0.26336793523650281 0 0.5 0.26368066086332081 0 0.47976512383307701 0.2489070956160494 0 0.48323024818591731 0.29460341773769078 0 0.50000000000000056 0.31803942647749461 0 0.5 0.29086004367040758 0 0.48323024818591731 0.29460341773769078 0 0.50000000000000056 0.31803942647749461 0 0.48323024818591731 0.29460341773769078 0 0.48221692541873901 0.31013219501774109 0 0.50000000000000056 0.31803942647749461 0 0.48816380747671623 0.27727035226686442 0 0.5 0.29086004367040758 0 0.48323024818591731 0.29460341773769078 0 0.46646049637183368 0.27116740899788738 0 0.48323024818591731 0.29460341773769078 0 0.46769620061985762 0.2872802243851954 0 0.46646049637183368 0.27116740899788738 0 0.48323024818591731 0.29460341773769078 0 0.48323024818591731 0.29460341773769078 0 0.47895538160283441 0.29982238429416019 0 0.4683454618530255 0.2944835007045733 0 0.48323024818591731 0.29460341773769078 0 0.46769620061985762 0.2872802243851954 0 0.4683454618530255 0.2944835007045733 0 0.47895538160283441 0.29982238429416019 0 0.47300555548920248 0.30671636249108508 0 0.45850994896114078 0.29891546105774952 0 0.48323024818591731 0.29460341773769078 0 0.47895538160283441 0.29982238429416019 0 0.48221692541873901 0.31013219501774109 0 0.47895538160283441 0.29982238429416019 0 0.48221692541873901 0.31013219501774109 0 0.47300555548920248 0.30671636249108508 0 0.48221692541873901 0.31013219501774109 0 0.47300555548920248 0.30671636249108508 0 0.47233996597409578 0.31799540959468958 0 0.47895538160283441 0.29982238429416019 0 0.45850994896114078 0.29891546105774952 0 0.4683454618530255 0.2944835007045733 0 0.47300555548920248 0.30671636249108508 0 0.45850994896114078 0.29891546105774952 0 0.47233996597409578 0.31799540959468958 0 0.45850994896114078 0.29891546105774952 0 0.4570883542158225 0.31080921232547493 0 0.47233996597409578 0.31799540959468958 0 0.45850994896114078 0.29891546105774952 0 0.47233996597409578 0.31799540959468958 0 0.47895538160283441 0.29982238429416019 0 0.45850994896114078 0.29891546105774952 0 0.45850994896114078 0.29891546105774952 0 0.45587835496830892 0.2952849031266695 0 0.45850994896114078 0.29891546105774952 0 0.4570883542158225 0.31080921232547493 0 0.44421003265346298 0.30725171760637848 0 0.46769620061985762 0.2872802243851954 0 0.46182929219945018 0.29110564637094549 0 0.45704555173946931 0.28414854453264748 0 0.45850994896114078 0.29891546105774952 0 0.4683454618530255 0.2944835007045733 0 0.4611407644954813 0.29494737781498442 0 0.46769620061985762 0.2872802243851954 0 0.46182929219945018 0.29110564637094549 0 0.4683454618530255 0.2944835007045733 0 0.46182929219945018 0.29110564637094549 0 0.4683454618530255 0.2944835007045733 0 0.4611407644954813 0.29494737781498442 0 0.46182929219945018 0.29110564637094549 0 0.45587835496830892 0.2952849031266695 0 0.45704555173946931 0.28414854453264748 0 0.45850994896114078 0.29891546105774952 0 0.4611407644954813 0.29494737781498442 0 0.45587835496830892 0.2952849031266695 0 0.46182929219945018 0.29110564637094549 0 0.4611407644954813 0.29494737781498442 0 0.45587835496830892 0.2952849031266695 0 0.4324035783862229 0.29775742862538812 0 0.45587835496830892 0.2952849031266695 0 0.4432485266859868 0.28668417227234178 0 0.45587835496830892 0.2952849031266695 0 0.45704555173946931 0.28414854453264748 0 0.4432485266859868 0.28668417227234178 0 0.4324035783862229 0.29775742862538812 0 0.45850994896114078 0.29891546105774952 0 0.45587835496830892 0.2952849031266695 0 0.4324035783862229 0.29775742862538812 0 0.45850994896114078 0.29891546105774952 0 0.4324035783862229 0.29775742862538812 0 0.45850994896114078 0.29891546105774952 0 0.44421003265346298 0.30725171760637848 0 0.4570883542158225 0.31080921232547493 0 0.44421003265346298 0.30725171760637848 0 0.45329346927459052 0.31907426104308212 0 0.44421003265346298 0.30725171760637848 0 0.45329346927459052 0.31907426104308212 0 0.43366343337512842 0.32909929686019579 0 0.46075937115496263 0.33534448798384492 0 0.45329346927459052 0.31907426104308212 0 0.43366343337512842 0.32909929686019579 0 0.46075937115496263 0.33534448798384492 0 0.43366343337512842 0.32909929686019579 0 0.46075937115496263 0.33534448798384492 0 0.44663390428899991 0.35022950529701691 0 0.43366343337512842 0.32909929686019579 0 0.4570883542158225 0.31080921232547493 0 0.45329346927459052 0.31907426104308212 0 0.47233996597409578 0.31799540959468958 0 0.46075937115496263 0.33534448798384492 0 0.45329346927459052 0.31907426104308212 0 0.47233996597409578 0.31799540959468958 0 0.47233996597409578 0.31799540959468958 0 0.48616998298705072 0.33707535813162981 0 0.48616280462293859 0.32252827348198909 0 0.47233996597409578 0.31799540959468958 0 0.48616998298705072 0.33707535813162981 0 0.48221692541873901 0.31013219501774109 0 0.47233996597409578 0.31799540959468958 0 0.48616280462293859 0.32252827348198909 0 0.47233996597409578 0.31799540959468958 0 0.47678115726272652 0.33300123370441459 0 0.48616998298705072 0.33707535813162981 0 0.46075937115496263 0.33534448798384492 0 0.47678115726272652 0.33300123370441459 0 0.48785530893479678 0.34158967910749388 0 0.46075937115496263 0.33534448798384492 0 0.47233996597409578 0.31799540959468958 0 0.47678115726272652 0.33300123370441459 0 0.46075937115496263 0.33534448798384492 0 0.48785530893479678 0.34158967910749388 0 0.47678115726272652 0.33300123370441459 0 0.48785530893479678 0.34158967910749388 0 0.48616998298705072 0.33707535813162981 0 0.48616998298705072 0.33707535813162981 0 0.49308319690249741 0.32868510616603669 0 0.48616280462293859 0.32252827348198909 0 0.48616998298705072 0.33707535813162981 0 0.5 0.33709736657303307 0 0.50000000000000355 0.35615530666857159 0 0.48616998298705072 0.33707535813162981 0 0.5 0.33709736657303307 0 0.49308319690249741 0.32868510616603669 0 0.5 0.33709736657303307 0 0.49308319690249741 0.32868510616603669 0 0.50000000000000056 0.31803942647749461 0 0.49308319690249741 0.32868510616603669 0 0.50000000000000056 0.31803942647749461 0 0.48616280462293859 0.32252827348198909 0 0.48221692541873901 0.31013219501774109 0 0.50000000000000056 0.31803942647749461 0 0.48616280462293859 0.32252827348198909 0 0.50000000000000355 0.35615530666857159 0 0.48101763962666361 0.36429441514398259 0 0.4789266431494093 0.39164319237088069 0 0.48616998298705072 0.33707535813162981 0 0.50000000000000355 0.35615530666857159 0 0.48785530893479678 0.34158967910749388 0 0.48616998298705072 0.33707535813162981 0 0.50000000000000355 0.35615530666857159 0 0.48785530893479678 0.34158967910749388 0 0.50000000000000355 0.35615530666857159 0 0.48101763962666361 0.36429441514398259 0 0.46075937115496263 0.33534448798384492 0 0.48785530893479678 0.34158967910749388 0 0.46934179061824549 0.35443599476650273 0 0.48785530893479678 0.34158967910749388 0 0.46934179061824549 0.35443599476650273 0 0.48101763962666361 0.36429441514398259 0 0.46934179061824549 0.35443599476650273 0 0.48101763962666361 0.36429441514398259 0 0.46374763197029351 0.37289187833222448 0 0.46934179061824549 0.35443599476650273 0 0.46374763197029351 0.37289187833222448 0 0.44663390428899991 0.35022950529701691 0 0.46075937115496263 0.33534448798384492 0 0.46934179061824549 0.35443599476650273 0 0.44663390428899991 0.35022950529701691 0 0.46374763197029351 0.37289187833222448 0 0.44663390428899991 0.35022950529701691 0 0.43583678450267921 0.36774451605341818 0 0.46374763197029351 0.37289187833222448 0 0.43583678450267921 0.36774451605341818 0 0.43583678450267921 0.36774451605341818 0 0.40792593703506502 0.36259715377461188 0 0.43583678450267921 0.36774451605341818 0 0.40792593703506502 0.36259715377461188 0 0.42042814548648338 0.37726250055503591 0 0.43583678450267921 0.36774451605341818 0 0.40792593703506502 0.36259715377461188 0 0.4215285984319404 0.34614624493897028 0 0.40792593703506502 0.36259715377461188 0 0.4215285984319404 0.34614624493897028 0 0.39854403579447611 0.34435289191203261 0 0.44663390428899991 0.35022950529701691 0 0.43583678450267921 0.36774451605341818 0 0.4215285984319404 0.34614624493897028 0 0.44663390428899991 0.35022950529701691 0 0.4215285984319404 0.34614624493897028 0 0.43366343337512842 0.32909929686019579 0 0.44421003265346298 0.30725171760637848 0 0.43366343337512842 0.32909929686019579 0 0.42291390450600952 0.31383514226793369 0 0.43366343337512842 0.32909929686019579 0 0.42291390450600952 0.31383514226793369 0 0.40656749559529398 0.32285410573654683 0 0.43366343337512842 0.32909929686019579 0 0.40656749559529398 0.32285410573654683 0 0.4215285984319404 0.34614624493897028 0 0.40656749559529398 0.32285410573654683 0 0.39854403579447611 0.34435289191203261 0 0.4215285984319404 0.34614624493897028 0 0.43366343337512842 0.32909929686019579 0 0.40656749559529398 0.32285410573654683 0 0.40656749559529398 0.32285410573654683 0 0.38175724266187999 0.33700255076728292 0 0.39854403579447611 0.34435289191203261 0 0.40656749559529398 0.32285410573654683 0 0.37947155781545983 0.31660891461289781 0 0.39278071022756778 0.30646516732524448 0 0.40656749559529398 0.32285410573654683 0 0.37947155781545983 0.31660891461289781 0 0.40656749559529398 0.32285410573654683 0 0.37947155781545983 0.31660891461289781 0 0.38175724266187999 0.33700255076728292 0 0.36836392016235531 0.32856529019943281 0 0.37947155781545983 0.31660891461289781 0 0.38175724266187999 0.33700255076728292 0 0.36616207143961987 0.34962995332913399 0 0.38175724266187999 0.33700255076728292 0 0.38001508956745078 0.35744979149580558 0 0.38175724266187999 0.33700255076728292 0 0.38001508956745078 0.35744979149580558 0 0.39854403579447611 0.34435289191203261 0 0.37082186490094499 0.36106429188981781 0 0.38001508956745078 0.35744979149580558 0 0.37831835132378128 0.37303594886261748 0 0.40792593703506502 0.36259715377461188 0 0.38001508956745078 0.35744979149580558 0 0.37831835132378128 0.37303594886261748 0 0.40792593703506502 0.36259715377461188 0 0.38001508956745078 0.35744979149580558 0 0.40792593703506502 0.36259715377461188 0 0.37831835132378128 0.37303594886261748 0 0.39259822600182859 0.38343689885713089 0 0.40792593703506502 0.36259715377461188 0 0.38001508956745078 0.35744979149580558 0 0.39854403579447611 0.34435289191203261 0 0.39098320045800311 0.40108365467533658 0 0.38025370216678589 0.3972668212482614 0 0.40074778163914221 0.41827673243198621 0 0.39675770987691977 0.39792268109089851 0 0.39098320045800311 0.40108365467533658 0 0.40074778163914221 0.41827673243198621 0 0.39675770987691977 0.39792268109089851 0 0.39259822600182859 0.38343689885713089 0 0.3861736081491644 0.39086838393020068 0 0.39675770987691977 0.39792268109089851 0 0.39098320045800311 0.40108365467533658 0 0.3861736081491644 0.39086838393020068 0 0.39675770987691977 0.39792268109089851 0 0.4086451624560537 0.40438850378764718 0 0.40845415690029158 0.39030725792633192 0 0.39675770987691977 0.39792268109089851 0 0.39259822600182859 0.38343689885713089 0 0.40845415690029158 0.39030725792633192 0 0.40792593703506502 0.36259715377461188 0 0.39259822600182859 0.38343689885713089 0 0.40845415690029158 0.39030725792633192 0 0.37171752313452089 0.37912638454794018 0 0.38146399221467941 0.38493076869257181 0 0.38025370216678589 0.3972668212482614 0 0.39259822600182859 0.38343689885713089 0 0.38146399221467941 0.38493076869257181 0 0.3861736081491644 0.39086838393020068 0 0.37831835132378128 0.37303594886261748 0 0.39259822600182859 0.38343689885713089 0 0.38146399221467941 0.38493076869257181 0 0.37171752313452089 0.37912638454794018 0 0.37831835132378128 0.37303594886261748 0 0.38146399221467941 0.38493076869257181 0 0.38146399221467941 0.38493076869257181 0 0.38025370216678589 0.3972668212482614 0 0.3861736081491644 0.39086838393020068 0 0.36938190404626597 0.38935418061548382 0 0.38025370216678589 0.3972668212482614 0 0.38139485263072509 0.40234669061352918 0 0.38025370216678589 0.3972668212482614 0 0.38139485263072509 0.40234669061352918 0 0.40074778163914221 0.41827673243198621 0 0.39098320045800311 0.40108365467533658 0 0.38025370216678589 0.3972668212482614 0 0.3861736081491644 0.39086838393020068 0 0.37416264915201458 0.40076949532632838 0 0.37045398062151108 0.39591776037882292 0 0.38139485263072509 0.40234669061352918 0 0.37467669437875339 0.40380768032186659 0 0.37416264915201458 0.40076949532632838 0 0.38139485263072509 0.40234669061352918 0 0.37467669437875339 0.40380768032186659 0 0.38139485263072509 0.40234669061352918 0 0.37711618547063519 0.40810870867507082 0 0.38025370216678589 0.3972668212482614 0 0.40074778163914221 0.41827673243198621 0 0.38139485263072509 0.40234669061352918 0 0.37711618547063519 0.40810870867507082 0 0.38195293604534242 0.41296852821040497 0 0.37711618547063519 0.40810870867507082 0 0.38195293604534242 0.41296852821040497 0 0.37655196532603552 0.41286137517985472 0 0.37399510350094201 0.4163798931856002 0 0.37655196532603552 0.41286137517985472 0 0.37894914783150929 0.41769828108265561 0 0.37534127504860493 0.42021529366902299 0 0.37894914783150929 0.41769828108265561 0 0.38051961880782859 0.42261243247246549 0 0.37399510350094201 0.4163798931856002 0 0.37534127504860493 0.42021529366902299 0 0.37894914783150929 0.41769828108265561 0 0.37894914783150929 0.41769828108265561 0 0.38461658511835101 0.41995273467866651 0 0.38051961880782859 0.42261243247246549 0 0.38195293604534242 0.41296852821040497 0 0.37894914783150929 0.41769828108265561 0 0.38461658511835101 0.41995273467866651 0 0.38195293604534242 0.41296852821040497 0 0.37655196532603552 0.41286137517985472 0 0.37894914783150929 0.41769828108265561 0 0.38195293604534242 0.41296852821040497 0 0.38461658511835101 0.41995273467866651 0 0.38984667936748801 0.4167159448171035 0 0.38461658511835101 0.41995273467866651 0 0.38984667936748801 0.4167159448171035 0 0.39099186854337892 0.42357878266030191 0 0.38139485263072509 0.40234669061352918 0 0.38195293604534242 0.41296852821040497 0 0.38984667936748801 0.4167159448171035 0 0.37720749370126139 0.43074638708762381 0 0.39413395311402921 0.42979765858928609 0 0.37720749370126139 0.43074638708762381 0 0.38516109508351482 0.43315550994028251 0 0.39413395311402921 0.42979765858928609 0 0.37720749370126139 0.43074638708762381 0 0.38543926011455892 0.42614243882906783 0 0.39413395311402921 0.42979765858928609 0 0.37720749370126139 0.43074638708762381 0 0.38516109508351482 0.43315550994028251 0 0.38509924509808319 0.44064262516329411 0 0.37720749370126139 0.43074638708762381 0 0.37979946246563212 0.42624285824339597 0 0.38543926011455892 0.42614243882906783 0 0.37720749370126139 0.43074638708762381 0 0.37603147723887931 0.42547017458442682 0 0.37720749370126139 0.43074638708762381 0 0.37979946246563212 0.42624285824339597 0 0.37603147723887931 0.42547017458442682 0 0.37979946246563212 0.42624285824339597 0 0.37603147723887931 0.42547017458442682 0 0.38051961880782859 0.42261243247246549 0 0.37534127504860493 0.42021529366902299 0 0.37603147723887931 0.42547017458442682 0 0.38051961880782859 0.42261243247246549 0 0.37979946246563212 0.42624285824339597 0 0.38051961880782859 0.42261243247246549 0 0.38543926011455892 0.42614243882906783 0 0.38543926011455892 0.42614243882906783 0 0.39413395311402921 0.42979765858928609 0 0.39099186854337892 0.42357878266030191 0 0.38461658511835101 0.41995273467866651 0 0.38051961880782859 0.42261243247246549 0 0.38543926011455892 0.42614243882906783 0 0.38461658511835101 0.41995273467866651 0 0.38543926011455892 0.42614243882906783 0 0.39099186854337892 0.42357878266030191 0 0.38516109508351482 0.43315550994028251 0 0.39041898377417122 0.43346426872125349 0 0.39413395311402921 0.42979765858928609 0 0.38516109508351482 0.43315550994028251 0 0.39041898377417122 0.43346426872125349 0 0.38890976439017633 0.43766418207394397 0 0.38516109508351482 0.43315550994028251 0 0.38509924509808319 0.44064262516329411 0 0.38890976439017633 0.43766418207394397 0 0.39413395311402921 0.42979765858928609 0 0.39735613903816708 0.42344360971792522 0 0.41106041252679698 0.42884893009094788 0 0.39413395311402921 0.42979765858928609 0 0.41106041252679698 0.42884893009094788 0 0.39413395311402921 0.42979765858928609 0 0.39961604439326909 0.43273396276156811 0 0.41106041252679698 0.42884893009094788 0 0.39347112250896438 0.4332397242815017 0 0.39856464961710197 0.43530368395610353 0 0.39813469562057768 0.4392645081501666 0 0.39347112250896438 0.4332397242815017 0 0.39961604439326909 0.43273396276156811 0 0.39856464961710197 0.43530368395610353 0 0.39041898377417122 0.43346426872125349 0 0.39347112250896438 0.4332397242815017 0 0.38890976439017633 0.43766418207394397 0 0.39041898377417122 0.43346426872125349 0 0.39347112250896438 0.4332397242815017 0 0.39413395311402921 0.42979765858928609 0 0.39347112250896438 0.4332397242815017 0 0.39413395311402921 0.42979765858928609 0 0.39961604439326909 0.43273396276156811 0 0.39413395311402921 0.42979765858928609 0 0.39099186854337892 0.42357878266030191 0 0.39735613903816708 0.42344360971792522 0 0.39735613903816708 0.42344360971792522 0 0.40074778163914221 0.41827673243198621 0 0.41106041252679698 0.42884893009094788 0 0.40074778163914221 0.41827673243198621 0 0.41106041252679698 0.42884893009094788 0 0.39961604439326909 0.43273396276156811 0 0.40303673594559691 0.43597654063117769 0 0.41106041252679698 0.42884893009094788 0 0.39961604439326909 0.43273396276156811 0 0.40303673594559691 0.43597654063117769 0 0.39856464961710197 0.43530368395610353 0 0.40303673594559691 0.43597654063117769 0 0.39856464961710197 0.43530368395610353 0 0.39813469562057768 0.4392645081501666 0 0.39675770987691977 0.39792268109089851 0 0.40074778163914221 0.41827673243198621 0 0.4086451624560537 0.40438850378764718 0 0.38139485263072509 0.40234669061352918 0 0.38984667936748801 0.4167159448171035 0 0.40074778163914221 0.41827673243198621 0 0.38139485263072509 0.40234669061352918 0 0.40074778163914221 0.41827673243198621 0 0.38984667936748801 0.4167159448171035 0 0.39735613903816708 0.42344360971792522 0 0.40074778163914221 0.41827673243198621 0 0.38984667936748801 0.4167159448171035 0 0.39099186854337892 0.42357878266030191 0 0.39735613903816708 0.42344360971792522 0 0.40074778163914221 0.41827673243198621 0 0.41503383290664297 0.41384450046696558 0 0.4086451624560537 0.40438850378764718 0 0.40074778163914221 0.41827673243198621 0 0.41503383290664297 0.41384450046696558 0 0.41343025590253529 0.42871610030697521 0 0.42078388401899858 0.42144456395290347 0 0.41503383290664297 0.41384450046696558 0 0.41343025590253529 0.42871610030697521 0 0.41503383290664297 0.41384450046696558 0 0.42184356843885629 0.40212540599705732 0 0.4086451624560537 0.40438850378764718 0 0.41343025590253529 0.42871610030697521 0 0.41875627255986342 0.4367384933179852 0 0.43299480675851187 0.44482033513155328 0 0.41106041252679698 0.42884893009094788 0 0.41875627255986342 0.4367384933179852 0 0.4103166669115102 0.43750668648660601 0 0.40303673594559691 0.43597654063117769 0 0.41106041252679698 0.42884893009094788 0 0.4103166669115102 0.43750668648660601 0 0.40074778163914221 0.41827673243198621 0 0.41343025590253529 0.42871610030697521 0 0.41106041252679698 0.42884893009094788 0 0.40074778163914221 0.41827673243198621 0 0.41343025590253529 0.42871610030697521 0 0.41343025590253529 0.42871610030697521 0 0.41106041252679698 0.42884893009094788 0 0.41343025590253529 0.42871610030697521 0 0.42742750785981543 0.42793155396409438 0 0.42078388401899858 0.42144456395290347 0 0.41343025590253529 0.42871610030697521 0 0.42742750785981543 0.42793155396409438 0 0.41343025590253529 0.42871610030697521 0 0.41106041252679698 0.42884893009094788 0 0.41875627255986342 0.4367384933179852 0 0.41106041252679698 0.42884893009094788 0 0.41875627255986342 0.4367384933179852 0 0.41343025590253529 0.42871610030697521 0 0.42742750785981543 0.42793155396409438 0 0.43299480675851187 0.44482033513155328 0 0.42742750785981543 0.42793155396409438 0 0.43791274879321651 0.4327736893837667 0 0.43299480675851187 0.44482033513155328 0 0.42742750785981543 0.42793155396409438 0 0.42998766753956191 0.41349986909764552 0 0.43791274879321651 0.4327736893837667 0 0.41343025590253529 0.42871610030697521 0 0.43299480675851187 0.44482033513155328 0 0.41503383290664297 0.41384450046696558 0 0.42998766753956191 0.41349986909764552 0 0.42184356843885629 0.40212540599705732 0 0.42078388401899858 0.42144456395290347 0 0.42742750785981543 0.42793155396409438 0 0.42998766753956191 0.41349986909764552 0 0.42078388401899858 0.42144456395290347 0 0.41503383290664297 0.41384450046696558 0 0.42998766753956191 0.41349986909764552 0 0.42184356843885629 0.40212540599705732 0 0.42949570350789779 0.38840107446578148 0 0.43968060529747338 0.40145669923115268 0 0.42998766753956191 0.41349986909764552 0 0.42184356843885629 0.40212540599705732 0 0.43968060529747338 0.40145669923115268 0 0.42184356843885629 0.40212540599705732 0 0.40845415690029158 0.39030725792633192 0 0.42949570350789779 0.38840107446578148 0 0.42184356843885629 0.40212540599705732 0 0.4086451624560537 0.40438850378764718 0 0.40845415690029158 0.39030725792633192 0 0.42042814548648338 0.37726250055503591 0 0.40845415690029158 0.39030725792633192 0 0.42949570350789779 0.38840107446578148 0 0.40792593703506502 0.36259715377461188 0 0.42042814548648338 0.37726250055503591 0 0.40845415690029158 0.39030725792633192 0 0.43583678450267921 0.36774451605341818 0 0.42949570350789779 0.38840107446578148 0 0.44572159936524669 0.38596442181353052 0 0.43583678450267921 0.36774451605341818 0 0.42042814548648338 0.37726250055503591 0 0.42949570350789779 0.38840107446578148 0 0.50000000000000355 0.35615530666857159 0 0.4789266431494093 0.39164319237088069 0 0.5 0.43599733160695658 0 0.46374763197029351 0.37289187833222448 0 0.43583678450267921 0.36774451605341818 0 0.44572159936524669 0.38596442181353052 0 0.43968060529747338 0.40145669923115268 0 0.45984727154788912 0.39932794098507518 0 0.44984015193274057 0.41352791515290382 0 0.42949570350789779 0.38840107446578148 0 0.44572159936524669 0.38596442181353052 0 0.43968060529747338 0.40145669923115268 0 0.44572159936524669 0.38596442181353052 0 0.43968060529747338 0.40145669923115268 0 0.45984727154788912 0.39932794098507518 0 0.46374763197029351 0.37289187833222448 0 0.44572159936524669 0.38596442181353052 0 0.45984727154788912 0.39932794098507518 0 0.46374763197029351 0.37289187833222448 0 0.45984727154788912 0.39932794098507518 0 0.4789266431494093 0.39164319237088069 0 0.48101763962666361 0.36429441514398259 0 0.46374763197029351 0.37289187833222448 0 0.4789266431494093 0.39164319237088069 0 0.45984727154788912 0.39932794098507518 0 0.4789266431494093 0.39164319237088069 0 0.46894731575160947 0.42119228148847437 0 0.4789266431494093 0.39164319237088069 0 0.5 0.43599733160695658 0 0.46894731575160947 0.42119228148847437 0 0.5 0.43599733160695658 0 0.46894731575160947 0.42119228148847437 0 0.47195956746434359 0.44911663881305808 0 0.46894731575160947 0.42119228148847437 0 0.44984015193274057 0.41352791515290382 0 0.45097361750195281 0.43130825395535177 0 0.46894731575160947 0.42119228148847437 0 0.45097361750195281 0.43130825395535177 0 0.47195956746434359 0.44911663881305808 0 0.45984727154788912 0.39932794098507518 0 0.46894731575160947 0.42119228148847437 0 0.44984015193274057 0.41352791515290382 0 0.42998766753956191 0.41349986909764552 0 0.44984015193274057 0.41352791515290382 0 0.45097361750195281 0.43130825395535177 0 0.42998766753956191 0.41349986909764552 0 0.43968060529747338 0.40145669923115268 0 0.44984015193274057 0.41352791515290382 0 0.42998766753956191 0.41349986909764552 0 0.45097361750195281 0.43130825395535177 0 0.42998766753956191 0.41349986909764552 0 0.45097361750195281 0.43130825395535177 0 0.43791274879321651 0.4327736893837667 0 0.45097361750195281 0.43130825395535177 0 0.43791274879321651 0.4327736893837667 0 0.44818014430624031 0.44630843477018828 0 0.43791274879321651 0.4327736893837667 0 0.44818014430624031 0.44630843477018828 0 0.43299480675851187 0.44482033513155328 0 0.5 0.43599733160695658 0 0.49294551742673443 0.46692502367076433 0 0.5 0.5 0 0.45255935761448651 0.4609245699561339 0 0.43299480675851187 0.44482033513155328 0 0.44818014430624031 0.44630843477018828 0 0.45255935761448651 0.4609245699561339 0 0.43299480675851187 0.44482033513155328 0 0.45255935761448651 0.4609245699561339 0 0.43571544371098192 0.46145142488159691 0 0.43299480675851187 0.44482033513155328 0 0.45255935761448651 0.4609245699561339 0 0.45435411714642221 0.47868048035601152 0 0.43571544371098192 0.46145142488159691 0 0.45255935761448651 0.4609245699561339 0 0.47195956746434359 0.44911663881305808 0 0.47212390847046098 0.47702880478071452 0 0.45097361750195281 0.43130825395535177 0 0.44818014430624031 0.44630843477018828 0 0.47195956746434359 0.44911663881305808 0 0.45097361750195281 0.43130825395535177 0 0.47195956746434359 0.44911663881305808 0 0.44818014430624031 0.44630843477018828 0 0.45255935761448651 0.4609245699561339 0 0.47195956746434359 0.44911663881305808 0 0.47195956746434359 0.44911663881305808 0 0.49294551742673443 0.46692502367076433 0 0.47212390847046098 0.47702880478071452 0 0.47195956746434359 0.44911663881305808 0 0.49294551742673443 0.46692502367076433 0 0.5 0.43599733160695658 0 0.47195956746434359 0.44911663881305808 0 0.49294551742673443 0.46692502367076433 0 0.49294551742673443 0.46692502367076433 0 0.5 0.5 0 0.49168845932643562 0.49313303960529509 0 0.49168845932643562 0.49313303960529509 0 0.47212390847046098 0.47702880478071452 0 0.46005342520232251 0.5 0 0.5 0.5 0 0.49168845932643562 0.49313303960529509 0 0.46005342520232251 0.5 0 0.49294551742673443 0.46692502367076433 0 0.49168845932643562 0.49313303960529509 0 0.47212390847046098 0.47702880478071452 0 0.49168845932643562 0.49313303960529509 0 0.47212390847046098 0.47702880478071452 0 0.47212390847046098 0.47702880478071452 0 0.46005342520232251 0.5 0 0.45435411714642221 0.47868048035601152 0 0.45255935761448651 0.4609245699561339 0 0.47212390847046098 0.47702880478071452 0 0.45255935761448651 0.4609245699561339 0 0.47212390847046098 0.47702880478071452 0 0.45435411714642221 0.47868048035601152 0 0.45435411714642221 0.47868048035601152 0 0.43734983814701839 0.48409786086843498 0 0.43571544371098192 0.46145142488159691 0 0.46005342520232251 0.5 0 0.45435411714642221 0.47868048035601152 0 0.43734983814701839 0.48409786086843498 0 0.46005342520232251 0.5 0 0.43734983814701839 0.48409786086843498 0 0.4043606636322043 0.49999999999999889 0 0.41596325361313252 0.47723210601985738 0 0.43734983814701839 0.48409786086843498 0 0.4043606636322043 0.49999999999999889 0 0.41596325361313252 0.47723210601985738 0 0.4043606636322043 0.49999999999999889 0 0.40073081659112447 0.47774657476049981 0 0.41596325361313252 0.47723210601985738 0 0.40785793851372698 0.46521121784615121 0 0.40073081659112447 0.47774657476049981 0 0.41596325361313252 0.47723210601985738 0 0.42811781788309589 0.47240479570448812 0 0.41897043197848571 0.46334868442623528 0 0.42811781788309589 0.47240479570448812 0 0.43734983814701839 0.48409786086843498 0 0.43571544371098192 0.46145142488159691 0 0.41596325361313252 0.47723210601985738 0 0.42811781788309589 0.47240479570448812 0 0.43734983814701839 0.48409786086843498 0 0.42811781788309589 0.47240479570448812 0 0.43571544371098192 0.46145142488159691 0 0.41897043197848571 0.46334868442623528 0 0.43571544371098192 0.46145142488159691 0 0.4268260778271854 0.45468758115437291 0 0.43299480675851187 0.44482033513155328 0 0.43571544371098192 0.46145142488159691 0 0.4268260778271854 0.45468758115437291 0 0.41897043197848571 0.46334868442623528 0 0.4268260778271854 0.45468758115437291 0 0.43299480675851187 0.44482033513155328 0 0.4196236288607621 0.44912988017810629 0 0.41875627255986342 0.4367384933179852 0 0.43299480675851187 0.44482033513155328 0 0.4196236288607621 0.44912988017810629 0 0.41875627255986342 0.4367384933179852 0 0.4196236288607621 0.44912988017810629 0 0.41295842518616799 0.44357251893686972 0 0.4196236288607621 0.44912988017810629 0 0.40927869195646999 0.45291878323476209 0 0.41295842518616799 0.44357251893686972 0 0.40927869195646999 0.45291878323476209 0 0.41295842518616799 0.44357251893686972 0 0.40472611103601702 0.44322514744520808 0 0.41875627255986342 0.4367384933179852 0 0.41295842518616799 0.44357251893686972 0 0.4103166669115102 0.43750668648660601 0 0.41295842518616799 0.44357251893686972 0 0.4103166669115102 0.43750668648660601 0 0.40472611103601702 0.44322514744520808 0 0.41596325361313252 0.47723210601985738 0 0.41897043197848571 0.46334868442623528 0 0.40785793851372698 0.46521121784615121 0 0.4268260778271854 0.45468758115437291 0 0.4196236288607621 0.44912988017810629 0 0.41897043197848571 0.46334868442623528 0 0.4196236288607621 0.44912988017810629 0 0.40927869195646999 0.45291878323476209 0 0.41897043197848571 0.46334868442623528 0 0.40927869195646999 0.45291878323476209 0 0.41897043197848571 0.46334868442623528 0 0.40785793851372698 0.46521121784615121 0 0.40785793851372698 0.46521121784615121 0 0.39710096955004448 0.45549314952100067 0 0.40073081659112447 0.47774657476049981 0 0.39710096955004448 0.45549314952100067 0 0.40073081659112447 0.47774657476049981 0 0.40927869195646999 0.45291878323476209 0 0.40785793851372698 0.46521121784615121 0 0.39710096955004448 0.45549314952100067 0 0.39347112250896438 0.4332397242815017 0 0.39710096955004448 0.45549314952100067 0 0.39347112250896438 0.4332397242815017 0 0.39710096955004448 0.45549314952100067 0 0.38999263624367952 0.44512193477937451 0 0.39347112250896438 0.4332397242815017 0 0.39710096955004448 0.45549314952100067 0 0.39813469562057768 0.4392645081501666 0 0.39710096955004448 0.45549314952100067 0 0.40472611103601702 0.44322514744520808 0 0.39813469562057768 0.4392645081501666 0 0.40303673594559691 0.43597654063117769 0 0.40472611103601702 0.44322514744520808 0 0.39813469562057768 0.4392645081501666 0 0.40303673594559691 0.43597654063117769 0 0.4103166669115102 0.43750668648660601 0 0.40472611103601702 0.44322514744520808 0 0.40927869195646999 0.45291878323476209 0 0.39710096955004448 0.45549314952100067 0 0.40472611103601702 0.44322514744520808 0 0.39347112250896438 0.4332397242815017 0 0.38890976439017633 0.43766418207394397 0 0.38999263624367952 0.44512193477937451 0 0.36920715579352498 0.44448948745936989 0 0.37720749370126139 0.43074638708762381 0 0.38235281267232618 0.45383092472508302 0 0.37720749370126139 0.43074638708762381 0 0.38235281267232618 0.45383092472508302 0 0.37720749370126139 0.43074638708762381 0 0.38509924509808319 0.44064262516329411 0 0.38235281267232618 0.45383092472508302 0 0.38509924509808319 0.44064262516329411 0 0.38890976439017633 0.43766418207394397 0 0.38999263624367952 0.44512193477937451 0 0.39710096955004448 0.45549314952100067 0 0.38999263624367952 0.44512193477937451 0 0.38235281267232618 0.45383092472508302 0 0.38509924509808319 0.44064262516329411 0 0.38999263624367952 0.44512193477937451 0 0.38235281267232618 0.45383092472508302 0 0.38235281267232618 0.45383092472508302 0 0.3874981316433932 0.47691546236254179 0 0.39710096955004448 0.45549314952100067 0 0.38235281267232618 0.45383092472508302 0 0.3874981316433932 0.47691546236254179 0 0.37345626908234758 0.46792956738565611 0 0.38235281267232618 0.45383092472508302 0 0.3874981316433932 0.47691546236254179 0 0.36759339889606318 0.48059581203744478 0 0.3874981316433932 0.47691546236254179 0 0.37718110076165379 0.48955940750559679 0 0.36759339889606318 0.48059581203744478 0 0.37345626908234758 0.46792956738565611 0 0.3874981316433932 0.47691546236254179 0 0.3874981316433932 0.47691546236254179 0 0.37718110076165379 0.48955940750559679 0 0.39264345061446021 0.50000000000000044 0 0.3874981316433932 0.47691546236254179 0 0.39264345061446021 0.50000000000000044 0 0.36268591517834131 0.5 0 0.37718110076165379 0.48955940750559679 0 0.39264345061446021 0.50000000000000044 0 0.4043606636322043 0.49999999999999889 0 0.40073081659112447 0.47774657476049981 0 0.39264345061446021 0.50000000000000044 0 0.4043606636322043 0.49999999999999889 0 0.40073081659112447 0.47774657476049981 0 0.3874981316433932 0.47691546236254179 0 0.39264345061446021 0.50000000000000044 0 0.40073081659112447 0.47774657476049981 0 0.39710096955004448 0.45549314952100067 0 0.3874981316433932 0.47691546236254179 0 0.40073081659112447 0.47774657476049981 0 0.33280916477938788 0.083836398480328672 0 0.35428409570827191 0.092214576872309093 0 0.33280916477938788 0.083836398480328672 0 0.33097955097119919 0.091347817413475557 0 0.32960654893790048 0.069083877800495797 0 0.33097955097119919 0.091347817413475557 0 0.32960654893790048 0.069083877800495797 0 0.33280916477938788 0.083836398480328672 0 0.34246508432051143 0.096264305914669071 0 0.35428409570827191 0.092214576872309093 0 0.33280916477938788 0.083836398480328672 0 0.33097955097119919 0.091347817413475557 0 0.34246508432051143 0.096264305914669071 0 0.33280916477938788 0.083836398480328672 0 0.33959047354719712 0.074476637395763906 0 0.3468484634289517 0.078516613580557018 0 0.32960654893790048 0.069083877800495797 0 0.34909771704254827 0.066469659721674179 0 0.33959047354719712 0.074476637395763906 0 0.32960654893790048 0.069083877800495797 0 0.34909771704254827 0.066469659721674179 0 0.32960654893790048 0.069083877800495797 0 0.34909771704254827 0.066469659721674179 0 0.33780490130678609 0.059603832668760938 0 0.33280916477938788 0.083836398480328672 0 0.33959047354719712 0.074476637395763906 0 0.32960654893790048 0.069083877800495797 0 0.32960654893790048 0.069083877800495797 0 0.31507948485677417 0.071032294301203502 0 0.32099023453946268 0.082211852277378872 0 0.32960654893790048 0.069083877800495797 0 0.31507948485677417 0.071032294301203502 0 0.32850384514011183 0.05120296417505623 0 0.32960654893790048 0.069083877800495797 0 0.31507948485677417 0.071032294301203502 0 0.33097955097119919 0.091347817413475557 0 0.32960654893790048 0.069083877800495797 0 0.32099023453946268 0.082211852277378872 0 0.31507948485677417 0.071032294301203502 0 0.32099023453946268 0.082211852277378872 0 0.30552609636307532 0.090641709201720613 0 0.33097955097119919 0.091347817413475557 0 0.32099023453946268 0.082211852277378872 0 0.31934230893262378 0.09363444750953466 0 0.32099023453946268 0.082211852277378872 0 0.31934230893262378 0.09363444750953466 0 0.30552609636307532 0.090641709201720613 0 0.31934230893262378 0.09363444750953466 0 0.31325124643026703 0.10308362571952311 0 0.32344651113013312 0.102643991273395 0 0.31934230893262378 0.09363444750953466 0 0.31325124643026703 0.10308362571952311 0 0.30552609636307532 0.090641709201720613 0 0.31325124643026703 0.10308362571952311 0 0.32344651113013312 0.102643991273395 0 0.32130689631207748 0.1115423086979864 0 0.32344651113013312 0.102643991273395 0 0.32130689631207748 0.1115423086979864 0 0.33235255300449801 0.1136117570264553 0 0.33097955097119919 0.091347817413475557 0 0.31934230893262378 0.09363444750953466 0 0.32344651113013312 0.102643991273395 0 0.31783912372393291 0.11895363841950821 0 0.31105417229626631 0.1229312646556419 0 0.31914659582239829 0.1272357722197433 0 0.31783912372393291 0.11895363841950821 0 0.31105417229626631 0.1229312646556419 0 0.31015818561136388 0.11478585250171749 0 0.31783912372393291 0.11895363841950821 0 0.32130689631207748 0.1115423086979864 0 0.31015818561136388 0.11478585250171749 0 0.31325124643026703 0.10308362571952311 0 0.32130689631207748 0.1115423086979864 0 0.31015818561136388 0.11478585250171749 0 0.31783912372393291 0.11895363841950821 0 0.32130689631207748 0.1115423086979864 0 0.3271835084456986 0.1198117244234662 0 0.32130689631207748 0.1115423086979864 0 0.3271835084456986 0.1198117244234662 0 0.33235255300449801 0.1136117570264553 0 0.31783912372393291 0.11895363841950821 0 0.3271835084456986 0.1198117244234662 0 0.31914659582239829 0.1272357722197433 0 0.3271835084456986 0.1198117244234662 0 0.33235255300449801 0.1136117570264553 0 0.33372555503779672 0.13587569663943519 0 0.33235255300449801 0.1136117570264553 0 0.33372555503779672 0.13587569663943519 0 0.33235255300449801 0.1136117570264553 0 0.34112877737063158 0.1242448390888736 0 0.33372555503779672 0.13587569663943519 0 0.33235255300449801 0.1136117570264553 0 0.34112877737063158 0.1242448390888736 0 0.3430093508124904 0.1087460169146182 0 0.33097955097119919 0.091347817413475557 0 0.33235255300449801 0.1136117570264553 0 0.34246508432051143 0.096264305914669071 0 0.33097955097119919 0.091347817413475557 0 0.32344651113013312 0.102643991273395 0 0.33235255300449801 0.1136117570264553 0 0.33235255300449801 0.1136117570264553 0 0.3430093508124904 0.1087460169146182 0 0.34246508432051143 0.096264305914669071 0 0.33097955097119919 0.091347817413475557 0 0.33235255300449801 0.1136117570264553 0 0.34246508432051143 0.096264305914669071 0 0.35487540136081969 0.1047283694413273 0 0.35428409570827191 0.092214576872309093 0 0.3430093508124904 0.1087460169146182 0 0.34246508432051143 0.096264305914669071 0 0.35487540136081969 0.1047283694413273 0 0.3430093508124904 0.1087460169146182 0 0.35487540136081969 0.1047283694413273 0 0.36217727876563671 0.11554136507787249 0 0.34112877737063158 0.1242448390888736 0 0.3430093508124904 0.1087460169146182 0 0.35218772686981847 0.1324779541885957 0 0.3430093508124904 0.1087460169146182 0 0.35218772686981847 0.1324779541885957 0 0.3430093508124904 0.1087460169146182 0 0.36217727876563671 0.11554136507787249 0 0.35218772686981847 0.1324779541885957 0 0.36217727876563671 0.11554136507787249 0 0.37021985781467592 0.13190595418029841 0 0.37781978938194838 0.1160261753724959 0 0.36217727876563671 0.11554136507787249 0 0.37575902663715582 0.1005927552642895 0 0.37781978938194838 0.1160261753724959 0 0.35487540136081969 0.1047283694413273 0 0.36217727876563671 0.11554136507787249 0 0.37575902663715582 0.1005927552642895 0 0.35487540136081969 0.1047283694413273 0 0.35428409570827191 0.092214576872309093 0 0.37575902663715582 0.1005927552642895 0 0.35428409570827191 0.092214576872309093 0 0.37575902663715582 0.1005927552642895 0 0.37279066968860092 0.083910954052101097 0 0.35428409570827191 0.092214576872309093 0 0.36016958862908932 0.075051126350041006 0 0.37279066968860092 0.083910954052101097 0 0.35428409570827191 0.092214576872309093 0 0.37575902663715582 0.1005927552642895 0 0.35428409570827191 0.092214576872309093 0 0.3468484634289517 0.078516613580557018 0 0.36016958862908932 0.075051126350041006 0 0.33280916477938788 0.083836398480328672 0 0.35428409570827191 0.092214576872309093 0 0.3468484634289517 0.078516613580557018 0 0.34909771704254827 0.066469659721674179 0 0.36016958862908932 0.075051126350041006 0 0.36858888514719579 0.063855441642851063 0 0.34909771704254827 0.066469659721674179 0 0.36858888514719579 0.063855441642851063 0 0.33959047354719712 0.074476637395763906 0 0.3468484634289517 0.078516613580557018 0 0.34909771704254827 0.066469659721674179 0 0.3468484634289517 0.078516613580557018 0 0.34909771704254827 0.066469659721674179 0 0.36016958862908932 0.075051126350041006 0 0.37279066968860092 0.083910954052101097 0 0.36016958862908932 0.075051126350041006 0 0.37404144029593672 0.072318918783800062 0 0.36016958862908932 0.075051126350041006 0 0.37404144029593672 0.072318918783800062 0 0.36858888514719579 0.063855441642851063 0 0.37404144029593672 0.072318918783800062 0 0.36858888514719579 0.063855441642851063 0 0.3800907177111949 0.064271121214360613 0 0.36300923496963572 0.055298936457553731 0 0.37005139848142882 0.047561744325768131 0 0.37982279627176202 0.052764898552741607 0 0.36858888514719579 0.063855441642851063 0 0.36300923496963572 0.055298936457553731 0 0.37982279627176202 0.052764898552741607 0 0.34909771704254827 0.066469659721674179 0 0.36858888514719579 0.063855441642851063 0 0.36300923496963572 0.055298936457553731 0 0.36300923496963572 0.055298936457553731 0 0.37982279627176202 0.052764898552741607 0 0.36300923496963572 0.055298936457553731 0 0.37005139848142882 0.047561744325768131 0 0.35941486273406359 0.042482038189586957 0 0.37005139848142882 0.047561744325768131 0 0.35941486273406359 0.042482038189586957 0 0.37795869995025388 0.039701104103190242 0 0.35928104232661939 0.029171347558450859 0 0.37795869995025388 0.039701104103190242 0 0.35941486273406359 0.042482038189586957 0 0.35928104232661939 0.029171347558450859 0 0.37795869995025388 0.039701104103190242 0 0.37325463628876809 0.02621509020664459 0 0.35928104232661939 0.029171347558450859 0 0.37795869995025388 0.039701104103190242 0 0.35941486273406359 0.042482038189586957 0 0.35071982222321052 0.036187818389478703 0 0.34716352956658669 0.045878273937058817 0 0.35941486273406359 0.042482038189586957 0 0.35071982222321052 0.036187818389478703 0 0.35928104232661939 0.029171347558450859 0 0.35071982222321052 0.036187818389478703 0 0.34716352956658669 0.045878273937058817 0 0.33960904278424447 0.042791700327433499 0 0.34716352956658669 0.045878273937058817 0 0.35224365601912638 0.052639106820460871 0 0.34346219334904721 0.054370220587144642 0 0.34909771704254827 0.066469659721674179 0 0.35224365601912638 0.052639106820460871 0 0.34346219334904721 0.054370220587144642 0 0.34909771704254827 0.066469659721674179 0 0.36300923496963572 0.055298936457553731 0 0.35224365601912638 0.052639106820460871 0 0.36300923496963572 0.055298936457553731 0 0.35941486273406359 0.042482038189586957 0 0.35224365601912638 0.052639106820460871 0 0.35941486273406359 0.042482038189586957 0 0.34716352956658669 0.045878273937058817 0 0.35224365601912638 0.052639106820460871 0 0.36084137434628072 0.01255507389122066 0 0.38151996442694902 0.01456669389997103 0 0.36877126978949459 -0.0014702072886081359 0 0.36084137434628072 0.01255507389122066 0 0.36877126978949459 -0.0014702072886081359 0 0.35713076445736319 -0.0015691490024301879 0 0.36084137434628072 0.01255507389122066 0 0.37325463628876809 0.02621509020664459 0 0.38151996442694902 0.01456669389997103 0 0.36084137434628072 0.01255507389122066 0 0.37325463628876809 0.02621509020664459 0 0.35928104232661939 0.029171347558450859 0 0.35928104232661939 0.029171347558450859 0 0.34060338470298368 0.01864159101371354 0 0.35071982222321052 0.036187818389478703 0 0.35928104232661939 0.029171347558450859 0 0.34060338470298368 0.01864159101371354 0 0.36084137434628072 0.01255507389122066 0 0.35928104232661939 0.029171347558450859 0 0.34060338470298368 0.01864159101371354 0 0.35071982222321052 0.036187818389478703 0 0.34060338470298368 0.01864159101371354 0 0.34027289335167149 0.034091902586762278 0 0.36084137434628072 0.01255507389122066 0 0.3489195106838277 0.0015717979417698149 0 0.34060338470298368 0.01864159101371354 0 0.3489195106838277 0.0015717979417698149 0 0.34194331489433061 0.0025165274070233501 0 0.34060338470298368 0.01864159101371354 0 0.3489195106838277 0.0015717979417698149 0 0.34060338470298368 0.01864159101371354 0 0.3489195106838277 0.0015717979417698149 0 0.34194331489433061 0.0025165274070233501 0 0.34506981605456588 -0.0013076145751016799 0 0.36084137434628072 0.01255507389122066 0 0.3489195106838277 0.0015717979417698149 0 0.35713076445736319 -0.0015691490024301879 0 0.34060338470298368 0.01864159101371354 0 0.31609093299333962 0.0048223983709125874 0 0.33623819504553393 0.0044202072283758744 0 0.34194331489433061 0.0025165274070233501 0 0.34060338470298368 0.01864159101371354 0 0.32876681223330539 3.481757102791964e-05 0 0.33623819504553393 0.0044202072283758744 0 0.34060338470298368 0.01864159101371354 0 0.32876681223330539 3.481757102791964e-05 0 0.34060338470298368 0.01864159101371354 0 0.31609093299333962 0.0048223983709125874 0 0.32876681223330539 3.481757102791964e-05 0 0.33623819504553393 0.0044202072283758744 0 0.33363926835151608 -0.0035121070782613028 0 0.33623819504553393 0.0044202072283758744 0 0.34194331489433061 0.0025165274070233501 0 0.33363926835151608 -0.0035121070782613028 0 0.34060338470298368 0.01864159101371354 0 0.32699853230571763 0.028165622169945718 0 0.32784143477987931 0.044836942657458613 0 0.34060338470298368 0.01864159101371354 0 0.32699853230571763 0.028165622169945718 0 0.31609093299333962 0.0048223983709125874 0 0.32699853230571763 0.028165622169945718 0 0.31609093299333962 0.0048223983709125874 0 0.31240864295844012 0.027898614118478219 0 0.32699853230571763 0.028165622169945718 0 0.32117842901285681 0.037510688909261673 0 0.31240864295844012 0.027898614118478219 0 0.32960654893790048 0.069083877800495797 0 0.32850384514011183 0.05120296417505623 0 0.33780490130678609 0.059603832668760938 0 0.32960654893790048 0.069083877800495797 0 0.32850384514011183 0.05120296417505623 0 0.32850384514011183 0.05120296417505623 0 0.33780490130678609 0.059603832668760938 0 0.33628550331601281 0.05218645636496088 0 0.33436391956459172 0.047831923741744289 0 0.32850384514011183 0.05120296417505623 0 0.33628550331601281 0.05218645636496088 0 0.33436391956459172 0.047831923741744289 0 0.32850384514011183 0.05120296417505623 0 0.32784143477987931 0.044836942657458613 0 0.34909771704254827 0.066469659721674179 0 0.33780490130678609 0.059603832668760938 0 0.34346219334904721 0.054370220587144642 0 0.33780490130678609 0.059603832668760938 0 0.34346219334904721 0.054370220587144642 0 0.33628550331601281 0.05218645636496088 0 0.34716352956658669 0.045878273937058817 0 0.34346219334904721 0.054370220587144642 0 0.33957977180270982 0.04814155518381219 0 0.34346219334904721 0.054370220587144642 0 0.33628550331601281 0.05218645636496088 0 0.33957977180270982 0.04814155518381219 0 0.33436391956459172 0.047831923741744289 0 0.33628550331601281 0.05218645636496088 0 0.33957977180270982 0.04814155518381219 0 0.34716352956658669 0.045878273937058817 0 0.33957977180270982 0.04814155518381219 0 0.33960904278424447 0.042791700327433499 0 0.34060338470298368 0.01864159101371354 0 0.32784143477987931 0.044836942657458613 0 0.34060338470298368 0.01864159101371354 0 0.34027289335167149 0.034091902586762278 0 0.32784143477987931 0.044836942657458613 0 0.33436391956459172 0.047831923741744289 0 0.33957977180270982 0.04814155518381219 0 0.33960904278424447 0.042791700327433499 0 0.35071982222321052 0.036187818389478703 0 0.33960904278424447 0.042791700327433499 0 0.34027289335167149 0.034091902586762278 0 0.33436391956459172 0.047831923741744289 0 0.33960904278424447 0.042791700327433499 0 0.32784143477987931 0.044836942657458613 0 0.33960904278424447 0.042791700327433499 0 0.34027289335167149 0.034091902586762278 0 0.32784143477987931 0.044836942657458613 0 0.32784143477987931 0.044836942657458613 0 0.32117842901285681 0.037510688909261673 0 0.31978592698232611 0.044354408975953212 0 0.32699853230571763 0.028165622169945718 0 0.32784143477987931 0.044836942657458613 0 0.32117842901285681 0.037510688909261673 0 0.32117842901285681 0.037510688909261673 0 0.31375067504507392 0.042140706132847323 0 0.31240864295844012 0.027898614118478219 0 0.31978592698232611 0.044354408975953212 0 0.31375067504507392 0.042140706132847323 0 0.31637316909149432 0.052929298204245238 0 0.32117842901285681 0.037510688909261673 0 0.31978592698232611 0.044354408975953212 0 0.31375067504507392 0.042140706132847323 0 0.31507948485677417 0.071032294301203502 0 0.31637316909149432 0.052929298204245238 0 0.30977103311794468 0.059621963686840911 0 0.31507948485677417 0.071032294301203502 0 0.32784143477987931 0.044836942657458613 0 0.31507948485677417 0.071032294301203502 0 0.32784143477987931 0.044836942657458613 0 0.31637316909149432 0.052929298204245238 0 0.31507948485677417 0.071032294301203502 0 0.32850384514011183 0.05120296417505623 0 0.32784143477987931 0.044836942657458613 0 0.32784143477987931 0.044836942657458613 0 0.31978592698232611 0.044354408975953212 0 0.31637316909149432 0.052929298204245238 0 0.30977103311794468 0.059621963686840911 0 0.30592958781652402 0.051565300680201577 0 0.30170189070698622 0.062960961561713352 0 0.30592958781652402 0.051565300680201577 0 0.2890183630141121 0.052639569616971853 0 0.30170189070698622 0.062960961561713352 0 0.31637316909149432 0.052929298204245238 0 0.30977103311794468 0.059621963686840911 0 0.30592958781652402 0.051565300680201577 0 0.30592958781652402 0.051565300680201577 0 0.30219106491320658 0.037331760843623052 0 0.2890183630141121 0.052639569616971853 0 0.31375067504507392 0.042140706132847323 0 0.31637316909149432 0.052929298204245238 0 0.30592958781652402 0.051565300680201577 0 0.31375067504507392 0.042140706132847323 0 0.30592958781652402 0.051565300680201577 0 0.30219106491320658 0.037331760843623052 0 0.31375067504507392 0.042140706132847323 0 0.30219106491320658 0.037331760843623052 0 0.31240864295844012 0.027898614118478219 0 0.28794982901427968 0.035059623904526847 0 0.2890183630141121 0.052639569616971853 0 0.26813492542280348 0.04281606269834811 0 0.30219106491320658 0.037331760843623052 0 0.28794982901427968 0.035059623904526847 0 0.2890183630141121 0.052639569616971853 0 0.31609093299333962 0.0048223983709125874 0 0.29727565790312388 0.0062143001705096436 0 0.29157848128369401 -0.0089967942718864099 0 0.31609093299333962 0.0048223983709125874 0 0.29727565790312388 0.0062143001705096436 0 0.29761196302949389 0.021148382961864949 0 0.31609093299333962 0.0048223983709125874 0 0.29761196302949389 0.021148382961864949 0 0.31240864295844012 0.027898614118478219 0 0.30219106491320658 0.037331760843623052 0 0.29761196302949389 0.021148382961864949 0 0.31240864295844012 0.027898614118478219 0 0.29761196302949389 0.021148382961864949 0 0.28382125430596827 0.0078832136211474477 0 0.2753663177468636 0.024005652822879361 0 0.30219106491320658 0.037331760843623052 0 0.28794982901427968 0.035059623904526847 0 0.29761196302949389 0.021148382961864949 0 0.28794982901427968 0.035059623904526847 0 0.29761196302949389 0.021148382961864949 0 0.2753663177468636 0.024005652822879361 0 0.29727565790312388 0.0062143001705096436 0 0.28382125430596827 0.0078832136211474477 0 0.29157848128369401 -0.0089967942718864099 0 0.29727565790312388 0.0062143001705096436 0 0.29761196302949389 0.021148382961864949 0 0.28382125430596827 0.0078832136211474477 0 0.28382125430596827 0.0078832136211474477 0 0.2753663177468636 0.024005652822879361 0 0.26532444101188613 0.0090957432853925047 0 0.28382125430596827 0.0078832136211474477 0 0.26532444101188613 0.0090957432853925047 0 0.27355511092208018 -0.0042748797083180124 0 0.2753663177468636 0.024005652822879361 0 0.25493798974210391 0.024749663925340181 0 0.26813492542280348 0.04281606269834811 0 0.2753663177468636 0.024005652822879361 0 0.25493798974210391 0.024749663925340181 0 0.26532444101188613 0.0090957432853925047 0 0.24677494993703919 0.0050456544542734818 0 0.25493798974210391 0.024749663925340181 0 0.26532444101188613 0.0090957432853925047 0 0.24677494993703919 0.0050456544542734818 0 0.26532444101188613 0.0090957432853925047 0 0.2581532400794046 -0.0095009095219926679 0 0.2890183630141121 0.052639569616971853 0 0.26813492542280348 0.04281606269834811 0 0.27127260163842659 0.064104985965393962 0 0.28794982901427968 0.035059623904526847 0 0.2753663177468636 0.024005652822879361 0 0.26813492542280348 0.04281606269834811 0 0.24224297934710731 0.044700341732207709 0 0.25493798974210391 0.024749663925340181 0 0.26813492542280348 0.04281606269834811 0 0.26813492542280348 0.04281606269834811 0 0.25674102969738999 0.055262631395743923 0 0.27127260163842659 0.064104985965393962 0 0.24224297934710731 0.044700341732207709 0 0.26813492542280348 0.04281606269834811 0 0.25674102969738999 0.055262631395743923 0 0.25674102969738999 0.055262631395743923 0 0.2505945676633865 0.067826177117441308 0 0.25867647064676519 0.068705739184039688 0 0.24140750211027501 0.07253328483972965 0 0.25217555895265148 0.077238726720953471 0 0.25867647064676519 0.068705739184039688 0 0.24140750211027501 0.07253328483972965 0 0.25867647064676519 0.068705739184039688 0 0.24140750211027501 0.07253328483972965 0 0.2505945676633865 0.067826177117441308 0 0.25867647064676519 0.068705739184039688 0 0.25217555895265148 0.077238726720953471 0 0.26348191557864592 0.076675130865709332 0 0.25867647064676519 0.068705739184039688 0 0.26348191557864592 0.076675130865709332 0 0.25867647064676519 0.068705739184039688 0 0.27127260163842659 0.064104985965393962 0 0.25674102969738999 0.055262631395743923 0 0.25867647064676519 0.068705739184039688 0 0.27127260163842659 0.064104985965393962 0 0.25652802454763002 0.084698411475075314 0 0.26686151091715832 0.093957325546081508 0 0.25096636296192559 0.093789335329092491 0 0.26348191557864592 0.076675130865709332 0 0.25652802454763002 0.084698411475075314 0 0.26686151091715832 0.093957325546081508 0 0.24258154228412299 0.085677773428089521 0 0.25652802454763002 0.084698411475075314 0 0.25096636296192559 0.093789335329092491 0 0.25217555895265148 0.077238726720953471 0 0.26348191557864592 0.076675130865709332 0 0.25652802454763002 0.084698411475075314 0 0.24258154228412299 0.085677773428089521 0 0.25217555895265148 0.077238726720953471 0 0.25652802454763002 0.084698411475075314 0 0.27470097228718748 0.078754586167880059 0 0.28416944521299198 0.087951543313571121 0 0.26686151091715832 0.093957325546081508 0 0.26348191557864592 0.076675130865709332 0 0.27470097228718748 0.078754586167880059 0 0.26686151091715832 0.093957325546081508 0 0.27470097228718748 0.078754586167880059 0 0.27127260163842659 0.064104985965393962 0 0.28897204540940558 0.074533907946349065 0 0.26348191557864592 0.076675130865709332 0 0.27470097228718748 0.078754586167880059 0 0.27127260163842659 0.064104985965393962 0 0.2890183630141121 0.052639569616971853 0 0.28897204540940558 0.074533907946349065 0 0.30170189070698622 0.062960961561713352 0 0.2890183630141121 0.052639569616971853 0 0.27127260163842659 0.064104985965393962 0 0.28897204540940558 0.074533907946349065 0 0.27470097228718748 0.078754586167880059 0 0.28897204540940558 0.074533907946349065 0 0.28416944521299198 0.087951543313571121 0 0.28897204540940558 0.074533907946349065 0 0.28416944521299198 0.087951543313571121 0 0.30552609636307532 0.090641709201720613 0 0.28416944521299198 0.087951543313571121 0 0.30552609636307532 0.090641709201720613 0 0.28478660108813331 0.1018701877058244 0 0.31507948485677417 0.071032294301203502 0 0.30552609636307532 0.090641709201720613 0 0.31507948485677417 0.071032294301203502 0 0.28897204540940558 0.074533907946349065 0 0.30552609636307532 0.090641709201720613 0 0.31507948485677417 0.071032294301203502 0 0.28897204540940558 0.074533907946349065 0 0.31507948485677417 0.071032294301203502 0 0.28897204540940558 0.074533907946349065 0 0.30170189070698622 0.062960961561713352 0 0.31507948485677417 0.071032294301203502 0 0.30977103311794468 0.059621963686840911 0 0.30170189070698622 0.062960961561713352 0 0.30152496703626408 0.1219531534154079 0 0.31015818561136388 0.11478585250171749 0 0.29597270786937568 0.11025112410223741 0 0.30152496703626408 0.1219531534154079 0 0.31105417229626631 0.1229312646556419 0 0.31015818561136388 0.11478585250171749 0 0.31325124643026703 0.10308362571952311 0 0.30552609636307532 0.090641709201720613 0 0.29597270786937568 0.11025112410223741 0 0.31325124643026703 0.10308362571952311 0 0.31015818561136388 0.11478585250171749 0 0.29597270786937568 0.11025112410223741 0 0.30552609636307532 0.090641709201720613 0 0.29597270786937568 0.11025112410223741 0 0.30552609636307532 0.090641709201720613 0 0.28478660108813331 0.1018701877058244 0 0.29597270786937568 0.11025112410223741 0 0.29597270786937568 0.11025112410223741 0 0.28341560138488731 0.1172540156708123 0 0.28641931937567611 0.12986053900275421 0 0.30152496703626408 0.1219531534154079 0 0.29597270786937568 0.11025112410223741 0 0.28641931937567611 0.12986053900275421 0 0.29597270786937568 0.11025112410223741 0 0.28641931937567611 0.12986053900275421 0 0.28478660108813331 0.1018701877058244 0 0.29597270786937568 0.11025112410223741 0 0.28341560138488731 0.1172540156708123 0 0.28341560138488731 0.1172540156708123 0 0.27357853466746612 0.1195375622988908 0 0.28265293797624808 0.12979008051540941 0 0.27357853466746612 0.1195375622988908 0 0.26514455817398402 0.10918369349223669 0 0.26163168605571718 0.12610444381511579 0 0.28341560138488731 0.1172540156708123 0 0.27357853466746612 0.1195375622988908 0 0.27475736124632583 0.1083605569427691 0 0.27357853466746612 0.1195375622988908 0 0.27475736124632583 0.1083605569427691 0 0.26514455817398402 0.10918369349223669 0 0.28416944521299198 0.087951543313571121 0 0.28478660108813331 0.1018701877058244 0 0.26686151091715832 0.093957325546081508 0 0.28478660108813331 0.1018701877058244 0 0.27475736124632583 0.1083605569427691 0 0.26686151091715832 0.093957325546081508 0 0.28478660108813331 0.1018701877058244 0 0.28341560138488731 0.1172540156708123 0 0.27475736124632583 0.1083605569427691 0 0.27475736124632583 0.1083605569427691 0 0.26686151091715832 0.093957325546081508 0 0.26514455817398402 0.10918369349223669 0 0.26686151091715832 0.093957325546081508 0 0.25055334196904733 0.10768139855647089 0 0.25096636296192559 0.093789335329092491 0 0.26686151091715832 0.093957325546081508 0 0.26514455817398402 0.10918369349223669 0 0.25055334196904733 0.10768139855647089 0 0.24061043413518629 0.1224188071148222 0 0.25055334196904733 0.10768139855647089 0 0.26163168605571718 0.12610444381511579 0 0.24061043413518629 0.1224188071148222 0 0.26163168605571718 0.12610444381511579 0 0.26514455817398402 0.10918369349223669 0 0.25055334196904733 0.10768139855647089 0 0.26163168605571718 0.12610444381511579 0 0.24516903153295019 0.1343129479727645 0 0.25601580375863692 0.1399983494406204 0 0.26163168605571718 0.12610444381511579 0 0.25601580375863692 0.1399983494406204 0 0.26163168605571718 0.12610444381511579 0 0.26913423292343308 0.1381830546286838 0 0.27357853466746612 0.1195375622988908 0 0.26163168605571718 0.12610444381511579 0 0.28265293797624808 0.12979008051540941 0 0.26163168605571718 0.12610444381511579 0 0.28265293797624808 0.12979008051540941 0 0.26163168605571718 0.12610444381511579 0 0.26913423292343308 0.1381830546286838 0 0.28265293797624808 0.12979008051540941 0 0.26913423292343308 0.1381830546286838 0 0.28019823118335457 0.14489932101153971 0 0.28265293797624808 0.12979008051540941 0 0.28019823118335457 0.14489932101153971 0 0.26517250564320882 0.1501230783607338 0 0.28051709034117561 0.1665623730469615 0 0.26913423292343308 0.1381830546286838 0 0.28019823118335457 0.14489932101153971 0 0.26517250564320882 0.1501230783607338 0 0.25601580375863692 0.1399983494406204 0 0.26913423292343308 0.1381830546286838 0 0.26517250564320882 0.1501230783607338 0 0.25601580375863692 0.1399983494406204 0 0.26517250564320882 0.1501230783607338 0 0.25134304543336577 0.152415405909056 0 0.26517250564320882 0.1501230783607338 0 0.25134304543336577 0.152415405909056 0 0.25222260863724011 0.165555467845517 0 0.23919178672826791 0.18104522727717551 0 0.25222260863724011 0.165555467845517 0 0.26667417699779739 0.18634100328493919 0 0.26667417699779739 0.18634100328493919 0 0.28051709034117561 0.1665623730469615 0 0.26667417699779739 0.18634100328493919 0 0.28051709034117561 0.1665623730469615 0 0.29372312187158478 0.19039255989020609 0 0.25222260863724011 0.165555467845517 0 0.26667417699779739 0.18634100328493919 0 0.28051709034117561 0.1665623730469615 0 0.25222260863724011 0.165555467845517 0 0.28051709034117561 0.1665623730469615 0 0.26517250564320882 0.1501230783607338 0 0.25222260863724011 0.165555467845517 0 0.28051709034117561 0.1665623730469615 0 0.28051709034117561 0.1665623730469615 0 0.30051761479523892 0.16727412427517491 0 0.28051709034117561 0.1665623730469615 0 0.2920956401189766 0.15001904513133149 0 0.28051709034117561 0.1665623730469615 0 0.30051761479523892 0.16727412427517491 0 0.2920956401189766 0.15001904513133149 0 0.28051709034117561 0.1665623730469615 0 0.30051761479523892 0.16727412427517491 0 0.29372312187158478 0.19039255989020609 0 0.31018935359852889 0.1768616534640684 0 0.29372312187158478 0.19039255989020609 0 0.31772014238445789 0.18820847979078559 0 0.31018935359852889 0.1768616534640684 0 0.30051761479523892 0.16727412427517491 0 0.29372312187158478 0.19039255989020609 0 0.31018935359852889 0.1768616534640684 0 0.30051761479523892 0.16727412427517491 0 0.32051813924930228 0.1679858755033862 0 0.30051761479523892 0.16727412427517491 0 0.32051813924930228 0.1679858755033862 0 0.30051761479523892 0.16727412427517491 0 0.30720250310196179 0.15332845269170561 0 0.32051813924930228 0.1679858755033862 0 0.30051761479523892 0.16727412427517491 0 0.30720250310196179 0.15332845269170561 0 0.2920956401189766 0.15001904513133149 0 0.30720250310196179 0.15332845269170561 0 0.30367418989677902 0.13347571721570239 0 0.31457679386487419 0.14414040612663809 0 0.30367418989677902 0.13347571721570239 0 0.2920956401189766 0.15001904513133149 0 0.30720250310196179 0.15332845269170561 0 0.30367418989677902 0.13347571721570239 0 0.2920956401189766 0.15001904513133149 0 0.30152496703626408 0.1219531534154079 0 0.30367418989677902 0.13347571721570239 0 0.28641931937567611 0.12986053900275421 0 0.31105417229626631 0.1229312646556419 0 0.30367418989677902 0.13347571721570239 0 0.30152496703626408 0.1219531534154079 0 0.31105417229626631 0.1229312646556419 0 0.30367418989677902 0.13347571721570239 0 0.31105417229626631 0.1229312646556419 0 0.30367418989677902 0.13347571721570239 0 0.31914659582239829 0.1272357722197433 0 0.30367418989677902 0.13347571721570239 0 0.28265293797624808 0.12979008051540941 0 0.30367418989677902 0.13347571721570239 0 0.28265293797624808 0.12979008051540941 0 0.28641931937567611 0.12986053900275421 0 0.30367418989677902 0.13347571721570239 0 0.28967413995379171 0.1388784320499023 0 0.28265293797624808 0.12979008051540941 0 0.28341560138488731 0.1172540156708123 0 0.28265293797624808 0.12979008051540941 0 0.28641931937567611 0.12986053900275421 0 0.28019823118335457 0.14489932101153971 0 0.28967413995379171 0.1388784320499023 0 0.28265293797624808 0.12979008051540941 0 0.28019823118335457 0.14489932101153971 0 0.28967413995379171 0.1388784320499023 0 0.2920956401189766 0.15001904513133149 0 0.30367418989677902 0.13347571721570239 0 0.28967413995379171 0.1388784320499023 0 0.2920956401189766 0.15001904513133149 0 0.28019823118335457 0.14489932101153971 0 0.28051709034117561 0.1665623730469615 0 0.2920956401189766 0.15001904513133149 0 0.24617204647882801 0.22946517832098451 0 0.24688333128324669 0.25666515192319922 0 0.26741400189277359 0.24141526490187359 0 0.24617204647882801 0.22946517832098451 0 0.26741400189277359 0.24141526490187359 0 0.26634301196036858 0.22101397800928119 0 0.24617204647882801 0.22946517832098451 0 0.26634301196036858 0.22101397800928119 0 0.25283126365441949 0.20611963352291701 0 0.26634301196036858 0.22101397800928119 0 0.28392168971340648 0.2124052636547272 0 0.29002989990841499 0.23302254276473319 0 0.26741400189277359 0.24141526490187359 0 0.26634301196036858 0.22101397800928119 0 0.29002989990841499 0.23302254276473319 0 0.26634301196036858 0.22101397800928119 0 0.2704181618383048 0.20316483877336169 0 0.28392168971340648 0.2124052636547272 0 0.26634301196036858 0.22101397800928119 0 0.2704181618383048 0.20316483877336169 0 0.25283126365441949 0.20611963352291701 0 0.23919178672826791 0.18104522727717551 0 0.26667417699779739 0.18634100328493919 0 0.25283126365441949 0.20611963352291701 0 0.26667417699779739 0.18634100328493919 0 0.2704181618383048 0.20316483877336169 0 0.25283126365441949 0.20611963352291701 0 0.26667417699779739 0.18634100328493919 0 0.25283126365441949 0.20611963352291701 0 0.26667417699779739 0.18634100328493919 0 0.2704181618383048 0.20316483877336169 0 0.29372312187158478 0.19039255989020609 0 0.2704181618383048 0.20316483877336169 0 0.29372312187158478 0.19039255989020609 0 0.28392168971340648 0.2124052636547272 0 0.29372312187158478 0.19039255989020609 0 0.31492214551961373 0.20843108407818511 0 0.31772014238445789 0.18820847979078559 0 0.29372312187158478 0.19039255989020609 0 0.29954852712514041 0.21620940723094839 0 0.31492214551961373 0.20843108407818511 0 0.29954852712514041 0.21620940723094839 0 0.31139940957276191 0.23062953495202451 0 0.31492214551961373 0.20843108407818511 0 0.29372312187158478 0.19039255989020609 0 0.29954852712514041 0.21620940723094839 0 0.28392168971340648 0.2124052636547272 0 0.29954852712514041 0.21620940723094839 0 0.28392168971340648 0.2124052636547272 0 0.29002989990841499 0.23302254276473319 0 0.29954852712514041 0.21620940723094839 0 0.29002989990841499 0.23302254276473319 0 0.31139940957276191 0.23062953495202451 0 0.30578401242535891 0.25289062059571521 0 0.31139940957276191 0.23062953495202451 0 0.30578401242535891 0.25289062059571521 0 0.29002989990841499 0.23302254276473319 0 0.31139940957276191 0.23062953495202451 0 0.28787576495381328 0.25091067348488288 0 0.26741400189277359 0.24141526490187359 0 0.29002989990841499 0.23302254276473319 0 0.28787576495381328 0.25091067348488288 0 0.30578401242535891 0.25289062059571521 0 0.29002989990841499 0.23302254276473319 0 0.32722664513857841 0.24813538988682701 0 0.3339159081597583 0.22616283424439071 0 0.35121300245048759 0.24230489061215671 0 0.30578401242535891 0.25289062059571521 0 0.31139940957276191 0.23062953495202451 0 0.32722664513857841 0.24813538988682701 0 0.31139940957276191 0.23062953495202451 0 0.32722664513857841 0.24813538988682701 0 0.3339159081597583 0.22616283424439071 0 0.31139940957276191 0.23062953495202451 0 0.3339159081597583 0.22616283424439071 0 0.31492214551961373 0.20843108407818511 0 0.33875925695321629 0.20830397674191131 0 0.31492214551961373 0.20843108407818511 0 0.33178771524933459 0.1926684450515532 0 0.3339159081597583 0.22616283424439071 0 0.33875925695321629 0.20830397674191131 0 0.31492214551961373 0.20843108407818511 0 0.31492214551961373 0.20843108407818511 0 0.31772014238445789 0.18820847979078559 0 0.33178771524933459 0.1926684450515532 0 0.31492214551961373 0.20843108407818511 0 0.31772014238445789 0.18820847979078559 0 0.31772014238445789 0.18820847979078559 0 0.33178771524933459 0.1926684450515532 0 0.32585082176771318 0.1817035316369992 0 0.33178771524933459 0.1926684450515532 0 0.3520408752601204 0.1990978791850638 0 0.3454660343705882 0.18475716515899629 0 0.33875925695321629 0.20830397674191131 0 0.33178771524933459 0.1926684450515532 0 0.3520408752601204 0.1990978791850638 0 0.3520408752601204 0.1990978791850638 0 0.3454660343705882 0.18475716515899629 0 0.35825894860859919 0.18694688321519401 0 0.36873697619729667 0.1960393677783229 0 0.35825894860859919 0.18694688321519401 0 0.37054447898447462 0.17994182873655079 0 0.3520408752601204 0.1990978791850638 0 0.36873697619729667 0.1960393677783229 0 0.35825894860859919 0.18694688321519401 0 0.36873697619729667 0.1960393677783229 0 0.37054447898447462 0.17994182873655079 0 0.379847668381668 0.19022496771038119 0 0.36873697619729667 0.1960393677783229 0 0.35997498932389221 0.21917212919523979 0 0.38001403767290981 0.20790054198890179 0 0.3520408752601204 0.1990978791850638 0 0.36873697619729667 0.1960393677783229 0 0.35997498932389221 0.21917212919523979 0 0.36873697619729667 0.1960393677783229 0 0.35997498932389221 0.21917212919523979 0 0.33875925695321629 0.20830397674191131 0 0.3520408752601204 0.1990978791850638 0 0.35997498932389221 0.21917212919523979 0 0.3339159081597583 0.22616283424439071 0 0.33875925695321629 0.20830397674191131 0 0.35997498932389221 0.21917212919523979 0 0.35997498932389221 0.21917212919523979 0 0.35121300245048759 0.24230489061215671 0 0.3339159081597583 0.22616283424439071 0 0.35997498932389221 0.21917212919523979 0 0.35121300245048759 0.24230489061215671 0 0.35997498932389221 0.21917212919523979 0 0.38209518499981487 0.23457468324350009 0 0.38001403767290981 0.20790054198890179 0 0.35997498932389221 0.21917212919523979 0 0.36784091691968618 0.2451034414068832 0 0.38209518499981487 0.23457468324350009 0 0.35997498932389221 0.21917212919523979 0 0.36784091691968618 0.2451034414068832 0 0.35121300245048759 0.24230489061215671 0 0.33448062121466421 0.14352714900143421 0 0.33947978934765782 0.15325703622999359 0 0.32264954057001949 0.15258111003417671 0 0.33947978934765782 0.15325703622999359 0 0.32264954057001949 0.15258111003417671 0 0.33240841195899862 0.16170236943050501 0 0.33448062121466421 0.14352714900143421 0 0.32918898903862698 0.13794920340355321 0 0.32264954057001949 0.15258111003417671 0 0.33448062121466421 0.14352714900143421 0 0.33947978934765782 0.15325703622999359 0 0.34372809546128591 0.1409320944351509 0 0.3271835084456986 0.1198117244234662 0 0.33372555503779672 0.13587569663943519 0 0.32478094189073692 0.13717634456496719 0 0.33448062121466421 0.14352714900143421 0 0.34372809546128591 0.1409320944351509 0 0.33372555503779672 0.13587569663943519 0 0.34112877737063158 0.1242448390888736 0 0.34372809546128591 0.1409320944351509 0 0.33372555503779672 0.13587569663943519 0 0.33372555503779672 0.13587569663943519 0 0.32918898903862698 0.13794920340355321 0 0.32478094189073692 0.13717634456496719 0 0.33448062121466421 0.14352714900143421 0 0.33372555503779672 0.13587569663943519 0 0.32918898903862698 0.13794920340355321 0 0.3271835084456986 0.1198117244234662 0 0.32478094189073692 0.13717634456496719 0 0.30367418989677902 0.13347571721570239 0 0.32478094189073692 0.13717634456496719 0 0.31914659582239829 0.1272357722197433 0 0.30367418989677902 0.13347571721570239 0 0.32478094189073692 0.13717634456496719 0 0.31457679386487419 0.14414040612663809 0 0.3271835084456986 0.1198117244234662 0 0.32478094189073692 0.13717634456496719 0 0.31914659582239829 0.1272357722197433 0 0.30367418989677902 0.13347571721570239 0 0.32478094189073692 0.13717634456496719 0 0.32918898903862698 0.13794920340355321 0 0.32478094189073692 0.13717634456496719 0 0.32478094189073692 0.13717634456496719 0 0.31457679386487419 0.14414040612663809 0 0.32264954057001949 0.15258111003417671 0 0.32918898903862698 0.13794920340355321 0 0.32478094189073692 0.13717634456496719 0 0.32264954057001949 0.15258111003417671 0 0.32478094189073692 0.13717634456496719 0 0.32264954057001949 0.15258111003417671 0 0.30720250310196179 0.15332845269170561 0 0.31457679386487419 0.14414040612663809 0 0.32264954057001949 0.15258111003417671 0 0.30720250310196179 0.15332845269170561 0 0.32264954057001949 0.15258111003417671 0 0.32051813924930228 0.1679858755033862 0 0.32051813924930228 0.1679858755033862 0 0.32412576394213038 0.16811425870213589 0 0.3274274581337599 0.17378111786632841 0 0.32051813924930228 0.1679858755033862 0 0.32412576394213038 0.16811425870213589 0 0.32264954057001949 0.15258111003417671 0 0.32051813924930228 0.1679858755033862 0 0.32264954057001949 0.15258111003417671 0 0.32412576394213038 0.16811425870213589 0 0.33240841195899862 0.16170236943050501 0 0.32264954057001949 0.15258111003417671 0 0.32051813924930228 0.1679858755033862 0 0.32412576394213038 0.16811425870213589 0 0.31772014238445789 0.18820847979078559 0 0.32051813924930228 0.1679858755033862 0 0.32585082176771318 0.1817035316369992 0 0.31772014238445789 0.18820847979078559 0 0.32051813924930228 0.1679858755033862 0 0.31018935359852889 0.1768616534640684 0 0.31772014238445789 0.18820847979078559 0 0.32051813924930228 0.1679858755033862 0 0.32051813924930228 0.1679858755033862 0 0.3274274581337599 0.17378111786632841 0 0.32585082176771318 0.1817035316369992 0 0.33178771524933459 0.1926684450515532 0 0.32585082176771318 0.1817035316369992 0 0.3338776082870013 0.1794793866129003 0 0.3274274581337599 0.17378111786632841 0 0.32585082176771318 0.1817035316369992 0 0.3338776082870013 0.1794793866129003 0 0.3274274581337599 0.17378111786632841 0 0.3338776082870013 0.1794793866129003 0 0.33319765626958781 0.17029037992621149 0 0.3338776082870013 0.1794793866129003 0 0.34199818999241949 0.17661364232060761 0 0.33319765626958781 0.17029037992621149 0 0.33178771524933459 0.1926684450515532 0 0.3338776082870013 0.1794793866129003 0 0.3454660343705882 0.18475716515899629 0 0.3338776082870013 0.1794793866129003 0 0.34199818999241949 0.17661364232060761 0 0.3454660343705882 0.18475716515899629 0 0.32412576394213038 0.16811425870213589 0 0.3274274581337599 0.17378111786632841 0 0.33319765626958781 0.17029037992621149 0 0.32412576394213038 0.16811425870213589 0 0.33240841195899862 0.16170236943050501 0 0.33319765626958781 0.17029037992621149 0 0.33240841195899862 0.16170236943050501 0 0.33319765626958781 0.17029037992621149 0 0.34237425535369309 0.16703113940825781 0 0.34199818999241949 0.17661364232060761 0 0.33319765626958781 0.17029037992621149 0 0.34237425535369309 0.16703113940825781 0 0.33947978934765782 0.15325703622999359 0 0.33240841195899862 0.16170236943050501 0 0.34237425535369309 0.16703113940825781 0 0.33947978934765782 0.15325703622999359 0 0.34237425535369309 0.16703113940825781 0 0.36136610292714649 0.15620989146257319 0 0.34237425535369309 0.16703113940825781 0 0.35450637823051567 0.17489817521703621 0 0.36136610292714649 0.15620989146257319 0 0.34199818999241949 0.17661364232060761 0 0.34237425535369309 0.16703113940825781 0 0.35450637823051567 0.17489817521703621 0 0.34199818999241949 0.17661364232060761 0 0.3454660343705882 0.18475716515899629 0 0.35450637823051567 0.17489817521703621 0 0.3454660343705882 0.18475716515899629 0 0.35450637823051567 0.17489817521703621 0 0.35825894860859919 0.18694688321519401 0 0.35450637823051567 0.17489817521703621 0 0.35825894860859919 0.18694688321519401 0 0.37054447898447462 0.17994182873655079 0 0.35450637823051567 0.17489817521703621 0 0.37054447898447462 0.17994182873655079 0 0.36136610292714649 0.15620989146257319 0 0.37054447898447462 0.17994182873655079 0 0.36136610292714649 0.15620989146257319 0 0.37054447898447462 0.17994182873655079 0 0.36136610292714649 0.15620989146257319 0 0.37799237937979802 0.1639577282321352 0 0.36136610292714649 0.15620989146257319 0 0.37021985781467592 0.13190595418029841 0 0.38066848470117631 0.14610665695755781 0 0.36136610292714649 0.15620989146257319 0 0.38066848470117631 0.14610665695755781 0 0.37799237937979802 0.1639577282321352 0 0.33947978934765782 0.15325703622999359 0 0.34372809546128591 0.1409320944351509 0 0.36136610292714649 0.15620989146257319 0 0.36136610292714649 0.15620989146257319 0 0.35218772686981847 0.1324779541885957 0 0.34372809546128591 0.1409320944351509 0 0.36136610292714649 0.15620989146257319 0 0.35218772686981847 0.1324779541885957 0 0.34112877737063158 0.1242448390888736 0 0.34372809546128591 0.1409320944351509 0 0.35218772686981847 0.1324779541885957 0 0.36217727876563671 0.11554136507787249 0 0.35218772686981847 0.1324779541885957 0 0.37021985781467592 0.13190595418029841 0 0.36136610292714649 0.15620989146257319 0 0.35218772686981847 0.1324779541885957 0 0.37021985781467592 0.13190595418029841 0 0.37021985781467592 0.13190595418029841 0 0.38799211637814413 0.12558784342768101 0 0.38066848470117631 0.14610665695755781 0 0.38799211637814413 0.12558784342768101 0 0.40759640850277112 0.1377546683643569 0 0.40308148677893402 0.1231016353934784 0 0.38799211637814413 0.12558784342768101 0 0.38066848470117631 0.14610665695755781 0 0.40759640850277112 0.1377546683643569 0 0.38066848470117631 0.14610665695755781 0 0.39831797438020378 0.15887978514464021 0 0.40759640850277112 0.1377546683643569 0 0.38066848470117631 0.14610665695755781 0 0.37799237937979802 0.1639577282321352 0 0.39831797438020378 0.15887978514464021 0 0.37799237937979802 0.1639577282321352 0 0.38677452081184038 0.17674322412471211 0 0.39831797438020378 0.15887978514464021 0 0.37054447898447462 0.17994182873655079 0 0.38677452081184038 0.17674322412471211 0 0.379847668381668 0.19022496771038119 0 0.38677452081184038 0.17674322412471211 0 0.379847668381668 0.19022496771038119 0 0.39410435125349719 0.1927815548344855 0 0.37054447898447462 0.17994182873655079 0 0.37799237937979802 0.1639577282321352 0 0.38677452081184038 0.17674322412471211 0 0.40368665888545618 0.17558651391704411 0 0.39410435125349719 0.1927815548344855 0 0.41589223827214278 0.1889816451439926 0 0.38677452081184038 0.17674322412471211 0 0.40368665888545618 0.17558651391704411 0 0.39410435125349719 0.1927815548344855 0 0.38677452081184038 0.17674322412471211 0 0.40368665888545618 0.17558651391704411 0 0.39831797438020378 0.15887978514464021 0 0.39831797438020378 0.15887978514464021 0 0.41918949974533071 0.1668755258993041 0 0.41867964723434969 0.14953261281862701 0 0.40368665888545618 0.17558651391704411 0 0.39831797438020378 0.15887978514464021 0 0.41918949974533071 0.1668755258993041 0 0.40368665888545618 0.17558651391704411 0 0.41918949974533071 0.1668755258993041 0 0.41589223827214278 0.1889816451439926 0 0.43702436364773811 0.17505667578420811 0 0.41589223827214278 0.1889816451439926 0 0.43902560875539881 0.19457611742262881 0 0.41918949974533071 0.1668755258993041 0 0.43702436364773811 0.17505667578420811 0 0.41589223827214278 0.1889816451439926 0 0.41918949974533071 0.1668755258993041 0 0.43702436364773811 0.17505667578420811 0 0.44042345162022539 0.15129851430965699 0 0.42787090192321792 0.13285457037517689 0 0.41867964723434969 0.14953261281862701 0 0.44042345162022539 0.15129851430965699 0 0.41918949974533071 0.1668755258993041 0 0.41867964723434969 0.14953261281862701 0 0.44042345162022539 0.15129851430965699 0 0.42787090192321792 0.13285457037517689 0 0.44299649627448029 0.12991098793329259 0 0.43739601526882788 0.11464891606557651 0 0.42787090192321792 0.13285457037517689 0 0.44299649627448029 0.12991098793329259 0 0.44042345162022539 0.15129851430965699 0 0.40759640850277112 0.1377546683643569 0 0.41695340722737517 0.1166642327686845 0 0.40308148677893402 0.1231016353934784 0 0.42787090192321792 0.13285457037517689 0 0.40759640850277112 0.1377546683643569 0 0.41867964723434969 0.14953261281862701 0 0.42787090192321792 0.13285457037517689 0 0.40759640850277112 0.1377546683643569 0 0.41695340722737517 0.1166642327686845 0 0.39831797438020378 0.15887978514464021 0 0.40759640850277112 0.1377546683643569 0 0.41867964723434969 0.14953261281862701 0 0.39860249608122122 0.25000563432505679 0 0.38209518499981487 0.23457468324350009 0 0.39940792594177699 0.2338810062707993 0 0.39860249608122122 0.25000563432505679 0 0.39940792594177699 0.2338810062707993 0 0.41617003837266009 0.24330062356832541 0 0.39860249608122122 0.25000563432505679 0 0.38290530478916868 0.25949130680622962 0 0.38209518499981487 0.23457468324350009 0 0.38290530478916868 0.25949130680622962 0 0.36784091691968618 0.2451034414068832 0 0.38209518499981487 0.23457468324350009 0 0.38209518499981487 0.23457468324350009 0 0.39579306738712899 0.21575138862701471 0 0.38001403767290981 0.20790054198890179 0 0.38209518499981487 0.23457468324350009 0 0.39940792594177699 0.2338810062707993 0 0.39579306738712899 0.21575138862701471 0 0.39940792594177699 0.2338810062707993 0 0.39579306738712899 0.21575138862701471 0 0.41834401204813348 0.21590636164258689 0 0.39579306738712899 0.21575138862701471 0 0.40603341724022568 0.20335523756202001 0 0.39410435125349719 0.1927815548344855 0 0.39579306738712899 0.21575138862701471 0 0.38001403767290981 0.20790054198890179 0 0.39410435125349719 0.1927815548344855 0 0.38001403767290981 0.20790054198890179 0 0.379847668381668 0.19022496771038119 0 0.39410435125349719 0.1927815548344855 0 0.36873697619729667 0.1960393677783229 0 0.38001403767290981 0.20790054198890179 0 0.379847668381668 0.19022496771038119 0 0.40603341724022568 0.20335523756202001 0 0.39410435125349719 0.1927815548344855 0 0.41589223827214278 0.1889816451439926 0 0.40603341724022568 0.20335523756202001 0 0.41589223827214278 0.1889816451439926 0 0.41834401204813348 0.21590636164258689 0 0.41589223827214278 0.1889816451439926 0 0.41834401204813348 0.21590636164258689 0 0.43902560875539881 0.19457611742262881 0 0.41589223827214278 0.1889816451439926 0 0.43902560875539881 0.19457611742262881 0 0.41834401204813348 0.21590636164258689 0 0.44470818965539177 0.21663307787690569 0 0.43902560875539881 0.19457611742262881 0 0.39579306738712899 0.21575138862701471 0 0.40603341724022568 0.20335523756202001 0 0.41834401204813348 0.21590636164258689 0 0.39940792594177699 0.2338810062707993 0 0.41834401204813348 0.21590636164258689 0 0.41617003837266009 0.24330062356832541 0 0.41834401204813348 0.21590636164258689 0 0.43259133480117529 0.23334207797482251 0 0.41617003837266009 0.24330062356832541 0 0.41834401204813348 0.21590636164258689 0 0.43259133480117529 0.23334207797482251 0 0.44470818965539177 0.21663307787690569 0 0.43376010535896392 0.2549118686055763 0 0.43259133480117529 0.23334207797482251 0 0.41617003837266009 0.24330062356832541 0 0.46183443009462138 0.25389996412374422 0 0.45165313826070291 0.234685712195421 0 0.47385842480043339 0.23423542612991291 0 0.43376010535896392 0.2549118686055763 0 0.43259133480117529 0.23334207797482251 0 0.45165313826070291 0.234685712195421 0 0.43376010535896392 0.2549118686055763 0 0.46183443009462138 0.25389996412374422 0 0.45165313826070291 0.234685712195421 0 0.43259133480117529 0.23334207797482251 0 0.45165313826070291 0.234685712195421 0 0.44470818965539177 0.21663307787690569 0 0.45165313826070291 0.234685712195421 0 0.4653154696732732 0.22048123533206179 0 0.44470818965539177 0.21663307787690569 0 0.45165313826070291 0.234685712195421 0 0.4653154696732732 0.22048123533206179 0 0.47385842480043339 0.23423542612991291 0 0.4653154696732732 0.22048123533206179 0 0.44470818965539177 0.21663307787690569 0 0.46215897923865501 0.20017058970126489 0 0.44470818965539177 0.21663307787690569 0 0.43902560875539881 0.19457611742262881 0 0.46215897923865501 0.20017058970126489 0 0.43902560875539881 0.19457611742262881 0 0.46215897923865501 0.20017058970126489 0 0.45652205246650768 0.17285356103842819 0 0.43902560875539881 0.19457611742262881 0 0.46215897923865501 0.20017058970126489 0 0.46215897923865501 0.20017058970126489 0 0.48529234972191088 0.20576506197990141 0 0.46215897923865501 0.20017058970126489 0 0.48529234972191088 0.20576506197990141 0 0.48477445179881329 0.17780866209607671 0 0.48529234972191088 0.20576506197990141 0 0.49999999999999978 0.20932189524914721 0 0.5 0.1845404750835502 0 0.48529234972191088 0.20576506197990141 0 0.48477445179881329 0.17780866209607671 0 0.48529234972191088 0.20576506197990141 0 0.5 0.1845404750835502 0 0.48477445179881329 0.17780866209607671 0 0.48529234972191088 0.20576506197990141 0 0.49999999999999978 0.20932189524914721 0 0.48562372824423661 0.22365304737229089 0 0.48529234972191088 0.20576506197990141 0 0.48562372824423661 0.22365304737229089 0 0.48529234972191088 0.20576506197990141 0 0.49999999999999978 0.20932189524914721 0 0.4653154696732732 0.22048123533206179 0 0.46215897923865501 0.20017058970126489 0 0.48529234972191088 0.20576506197990141 0 0.4653154696732732 0.22048123533206179 0 0.48529234972191088 0.20576506197990141 0 0.48562372824423661 0.22365304737229089 0 0.4653154696732732 0.22048123533206179 0 0.47385842480043339 0.23423542612991291 0 0.48562372824423661 0.22365304737229089 0 0.47385842480043339 0.23423542612991291 0 0.48562372824423661 0.22365304737229089 0 0.5 0.236501278056234 0 0.49999999999999978 0.20932189524914721 0 0.48562372824423661 0.22365304737229089 0 0.5 0.236501278056234 0 0.47385842480043339 0.23423542612991291 0 0.5 0.236501278056234 0 0.47976512383307701 0.2489070956160494 0 0.5 0.26368066086332081 0 0.5 0.236501278056234 0 0.47976512383307701 0.2489070956160494 0 0.46183443009462138 0.25389996412374422 0 0.47385842480043339 0.23423542612991291 0 0.47976512383307701 0.2489070956160494 0 0.4574862254322416 0.15266311032646951 0 0.47146837168699268 0.1618924779113719 0 0.47025125448245758 0.14057965244839599 0 0.4574862254322416 0.15266311032646951 0 0.45756601608175052 0.13344039185444101 0 0.47025125448245758 0.14057965244839599 0 0.45756601608175052 0.13344039185444101 0 0.47025125448245758 0.14057965244839599 0 0.4667065602576444 0.122628436927121 0 0.45756601608175052 0.13344039185444101 0 0.44299649627448029 0.12991098793329259 0 0.44042345162022539 0.15129851430965699 0 0.45756601608175052 0.13344039185444101 0 0.44299649627448029 0.12991098793329259 0 0.45172609647837991 0.1173125470616113 0 0.4574862254322416 0.15266311032646951 0 0.45756601608175052 0.13344039185444101 0 0.44042345162022539 0.15129851430965699 0 0.43702436364773811 0.17505667578420811 0 0.44042345162022539 0.15129851430965699 0 0.45652205246650768 0.17285356103842819 0 0.4574862254322416 0.15266311032646951 0 0.44042345162022539 0.15129851430965699 0 0.45652205246650768 0.17285356103842819 0 0.43702436364773811 0.17505667578420811 0 0.43902560875539881 0.19457611742262881 0 0.45652205246650768 0.17285356103842819 0 0.46215897923865501 0.20017058970126489 0 0.45652205246650768 0.17285356103842819 0 0.48477445179881329 0.17780866209607671 0 0.4574862254322416 0.15266311032646951 0 0.45652205246650768 0.17285356103842819 0 0.47146837168699268 0.1618924779113719 0 0.45652205246650768 0.17285356103842819 0 0.47146837168699268 0.1618924779113719 0 0.48477445179881329 0.17780866209607671 0 0.47146837168699268 0.1618924779113719 0 0.48477445179881329 0.17780866209607671 0 0.48425655387571731 0.14985226221225209 0 0.5 0.1845404750835502 0 0.48477445179881329 0.17780866209607671 0 0.5 0.15975905491795339 0 0.48477445179881329 0.17780866209607671 0 0.5 0.15975905491795339 0 0.48425655387571731 0.14985226221225209 0 0.48477445179881329 0.17780866209607671 0 0.48425655387571731 0.14985226221225209 0 0.5 0.15975905491795339 0 0.48425655387571731 0.14985226221225209 0 0.49999999999999861 0.1349776347523565 0 0.47146837168699268 0.1618924779113719 0 0.48425655387571731 0.14985226221225209 0 0.47025125448245758 0.14057965244839599 0 0.48425655387571731 0.14985226221225209 0 0.48373865595262572 0.12189586232842731 0 0.47025125448245758 0.14057965244839599 0 0.48373865595262572 0.12189586232842731 0 0.4667065602576444 0.122628436927121 0 0.48425655387571731 0.14985226221225209 0 0.47025125448245758 0.14057965244839599 0 0.48373865595262572 0.12189586232842731 0 0.48425655387571731 0.14985226221225209 0 0.49999999999999861 0.1349776347523565 0 0.48373865595262572 0.12189586232842731 0 0.49999999999999861 0.1349776347523565 0 0.48373865595262572 0.12189586232842731 0 0.49999999999999861 0.1349776347523565 0 0.49159627347520052 0.11464189422002979 0 0.5 0.1072588659547303 0 0.49999999999999861 0.1349776347523565 0 0.49159627347520052 0.11464189422002979 0 0.48373865595262572 0.12189586232842731 0 0.49159627347520052 0.11464189422002979 0 0.48350429506464088 0.1092449394161691 0 0.48373865595262572 0.12189586232842731 0 0.5 0.1072588659547303 0 0.48873046971055079 0.099912838723601793 0 0.5 0.079540097157104306 0 0.49159627347520052 0.11464189422002979 0 0.5 0.1072588659547303 0 0.48873046971055079 0.099912838723601793 0 0.49159627347520052 0.11464189422002979 0 0.48873046971055079 0.099912838723601793 0 0.48350429506464088 0.1092449394161691 0 0.48350429506464088 0.1092449394161691 0 0.47486477322310428 0.09944109987546966 0 0.46323636849430072 0.10540237581718941 0 0.48873046971055079 0.099912838723601793 0 0.48350429506464088 0.1092449394161691 0 0.47486477322310428 0.09944109987546966 0 0.48873046971055079 0.099912838723601793 0 0.47486477322310428 0.09944109987546966 0 0.48241747650035932 0.089350135718107626 0 0.48350429506464088 0.1092449394161691 0 0.48373865595262572 0.12189586232842731 0 0.46323636849430072 0.10540237581718941 0 0.48373865595262572 0.12189586232842731 0 0.46323636849430072 0.10540237581718941 0 0.48373865595262572 0.12189586232842731 0 0.4667065602576444 0.122628436927121 0 0.46323636849430072 0.10540237581718941 0 0.48350429506464088 0.1092449394161691 0 0.48373865595262572 0.12189586232842731 0 0.5 0.079540097157104306 0 0.47539423609367271 0.075088587353118866 0 0.48371773900247078 0.060173521401023992 0 0.5 0.079540097157104306 0 0.48371773900247078 0.060173521401023992 0 0.5 0.05182132835947828 0 0.5 0.079540097157104306 0 0.48241747650035932 0.089350135718107626 0 0.47539423609367271 0.075088587353118866 0 0.48873046971055079 0.099912838723601793 0 0.5 0.079540097157104306 0 0.48241747650035932 0.089350135718107626 0 0.47486477322310428 0.09944109987546966 0 0.48241747650035932 0.089350135718107626 0 0.46485064785908731 0.088687496059557641 0 0.48241747650035932 0.089350135718107626 0 0.47539423609367271 0.075088587353118866 0 0.46485064785908731 0.088687496059557641 0 0.47539423609367271 0.075088587353118866 0 0.46494081123085762 0.058744868362830598 0 0.48371773900247078 0.060173521401023992 0 0.47539423609367271 0.075088587353118866 0 0.45942530403209719 0.072394150773329516 0 0.46494081123085762 0.058744868362830598 0 0.45942530403209719 0.072394150773329516 0 0.44977864750122742 0.062167804812846249 0 0.46494081123085762 0.058744868362830598 0 0.46485064785908731 0.088687496059557641 0 0.44340657833515651 0.076598141175477794 0 0.45942530403209719 0.072394150773329516 0 0.46485064785908731 0.088687496059557641 0 0.44340657833515651 0.076598141175477794 0 0.47539423609367271 0.075088587353118866 0 0.45942530403209719 0.072394150773329516 0 0.46485064785908731 0.088687496059557641 0 0.46485064785908731 0.088687496059557641 0 0.442734081035974 0.088908889305953767 0 0.44340657833515651 0.076598141175477794 0 0.45942530403209719 0.072394150773329516 0 0.44340657833515651 0.076598141175477794 0 0.44977864750122742 0.062167804812846249 0 0.44340657833515651 0.076598141175477794 0 0.43473547554711889 0.066915525376968474 0 0.44977864750122742 0.062167804812846249 0 0.45756601608175052 0.13344039185444101 0 0.4667065602576444 0.122628436927121 0 0.45172609647837991 0.1173125470616113 0 0.4667065602576444 0.122628436927121 0 0.46323636849430072 0.10540237581718941 0 0.45172609647837991 0.1173125470616113 0 0.46485064785908731 0.088687496059557641 0 0.442734081035974 0.088908889305953767 0 0.46323636849430072 0.10540237581718941 0 0.47486477322310428 0.09944109987546966 0 0.46485064785908731 0.088687496059557641 0 0.46323636849430072 0.10540237581718941 0 0.442734081035974 0.088908889305953767 0 0.46323636849430072 0.10540237581718941 0 0.44258183233292031 0.1033072915032658 0 0.46323636849430072 0.10540237581718941 0 0.44258183233292031 0.1033072915032658 0 0.45172609647837991 0.1173125470616113 0 0.442734081035974 0.088908889305953767 0 0.46323636849430072 0.10540237581718941 0 0.442734081035974 0.088908889305953767 0 0.44258183233292031 0.1033072915032658 0 0.43282899513871181 0.092863107121238742 0 0.44258183233292031 0.1033072915032658 0 0.45172609647837991 0.1173125470616113 0 0.43739601526882788 0.11464891606557651 0 0.44299649627448029 0.12991098793329259 0 0.45172609647837991 0.1173125470616113 0 0.43739601526882788 0.11464891606557651 0 0.42787090192321792 0.13285457037517689 0 0.43739601526882788 0.11464891606557651 0 0.41695340722737517 0.1166642327686845 0 0.43739601526882788 0.11464891606557651 0 0.41695340722737517 0.1166642327686845 0 0.42732272546435562 0.10277509279191149 0 0.41695340722737517 0.1166642327686845 0 0.41498927873200853 0.1025485104847212 0 0.39723395756603957 0.10897093365627041 0 0.41695340722737517 0.1166642327686845 0 0.39723395756603957 0.10897093365627041 0 0.41498927873200853 0.1025485104847212 0 0.40812079870373669 0.089396299857354519 0 0.39723395756603957 0.10897093365627041 0 0.41695340722737517 0.1166642327686845 0 0.41498927873200853 0.1025485104847212 0 0.42732272546435562 0.10277509279191149 0 0.41498927873200853 0.1025485104847212 0 0.42211592151873178 0.091572430267925567 0 0.40812079870373669 0.089396299857354519 0 0.41498927873200853 0.1025485104847212 0 0.42732272546435562 0.10277509279191149 0 0.42211592151873178 0.091572430267925567 0 0.42732272546435562 0.10277509279191149 0 0.43282899513871181 0.092863107121238742 0 0.42211592151873178 0.091572430267925567 0 0.44258183233292031 0.1033072915032658 0 0.43739601526882788 0.11464891606557651 0 0.42732272546435562 0.10277509279191149 0 0.44258183233292031 0.1033072915032658 0 0.42732272546435562 0.10277509279191149 0 0.43282899513871181 0.092863107121238742 0 0.442734081035974 0.088908889305953767 0 0.44340657833515651 0.076598141175477794 0 0.42223179357764717 0.072415402794718309 0 0.442734081035974 0.088908889305953767 0 0.42889699110763357 0.081886190024910238 0 0.42223179357764717 0.072415402794718309 0 0.442734081035974 0.088908889305953767 0 0.42223179357764717 0.072415402794718309 0 0.442734081035974 0.088908889305953767 0 0.43282899513871181 0.092863107121238742 0 0.42889699110763357 0.081886190024910238 0 0.42889699110763357 0.081886190024910238 0 0.42223179357764717 0.072415402794718309 0 0.42007462894983649 0.081018397800669481 0 0.42889699110763357 0.081886190024910238 0 0.42211592151873178 0.091572430267925567 0 0.42007462894983649 0.081018397800669481 0 0.43282899513871181 0.092863107121238742 0 0.42889699110763357 0.081886190024910238 0 0.42211592151873178 0.091572430267925567 0 0.44340657833515651 0.076598141175477794 0 0.43473547554711889 0.066915525376968474 0 0.42196250881122599 0.064508786291397308 0 0.44340657833515651 0.076598141175477794 0 0.42196250881122599 0.064508786291397308 0 0.44340657833515651 0.076598141175477794 0 0.42223179357764717 0.072415402794718309 0 0.42196250881122599 0.064508786291397308 0 0.42889699110763357 0.081886190024910238 0 0.42223179357764717 0.072415402794718309 0 0.43473547554711889 0.066915525376968474 0 0.42196250881122599 0.064508786291397308 0 0.4296056815783299 0.061276413792430817 0 0.41962509902889739 0.068711469140202666 0 0.40363754903464122 0.071672055482288166 0 0.40215269126287628 0.056262356269565869 0 0.41962509902889739 0.068711469140202666 0 0.40812079870373669 0.089396299857354519 0 0.40363754903464122 0.071672055482288166 0 0.42223179357764717 0.072415402794718309 0 0.42196250881122599 0.064508786291397308 0 0.41962509902889739 0.068711469140202666 0 0.41962509902889739 0.068711469140202666 0 0.41318479886853843 0.059560245602877281 0 0.42196250881122599 0.064508786291397308 0 0.41962509902889739 0.068711469140202666 0 0.41318479886853843 0.059560245602877281 0 0.42196250881122599 0.064508786291397308 0 0.41962509902889739 0.068711469140202666 0 0.42223179357764717 0.072415402794718309 0 0.41962509902889739 0.068711469140202666 0 0.42007462894983649 0.081018397800669481 0 0.42223179357764717 0.072415402794718309 0 0.41962509902889739 0.068711469140202666 0 0.41962509902889739 0.068711469140202666 0 0.40812079870373669 0.089396299857354519 0 0.41962509902889739 0.068711469140202666 0 0.42007462894983649 0.081018397800669481 0 0.40812079870373669 0.089396299857354519 0 0.42211592151873178 0.091572430267925567 0 0.42007462894983649 0.081018397800669481 0 0.40812079870373669 0.089396299857354519 0 0.40812079870373669 0.089396299857354519 0 0.396393604598476 0.080496770872917844 0 0.40363754903464122 0.071672055482288166 0 0.40812079870373669 0.089396299857354519 0 0.396393604598476 0.080496770872917844 0 0.38925767950583068 0.089745659238924205 0 0.40363754903464122 0.071672055482288166 0 0.39818821095859569 0.065055390887779868 0 0.40215269126287628 0.056262356269565869 0 0.40363754903464122 0.071672055482288166 0 0.39491538877428611 0.070502277150493509 0 0.39818821095859569 0.065055390887779868 0 0.396393604598476 0.080496770872917844 0 0.40363754903464122 0.071672055482288166 0 0.39491538877428611 0.070502277150493509 0 0.396393604598476 0.080496770872917844 0 0.39491538877428611 0.070502277150493509 0 0.38527020260748202 0.074442942171829993 0 0.39491538877428611 0.070502277150493509 0 0.39818821095859569 0.065055390887779868 0 0.39108737667223542 0.060844226337651672 0 0.39491538877428611 0.070502277150493509 0 0.38527020260748202 0.074442942171829993 0 0.39108737667223542 0.060844226337651672 0 0.38527020260748202 0.074442942171829993 0 0.3800907177111949 0.064271121214360613 0 0.39108737667223542 0.060844226337651672 0 0.37279066968860092 0.083910954052101097 0 0.37404144029593672 0.072318918783800062 0 0.38527020260748202 0.074442942171829993 0 0.37404144029593672 0.072318918783800062 0 0.38527020260748202 0.074442942171829993 0 0.3800907177111949 0.064271121214360613 0 0.37279066968860092 0.083910954052101097 0 0.38527020260748202 0.074442942171829993 0 0.38925767950583068 0.089745659238924205 0 0.37279066968860092 0.083910954052101097 0 0.38925767950583068 0.089745659238924205 0 0.37575902663715582 0.1005927552642895 0 0.396393604598476 0.080496770872917844 0 0.38527020260748202 0.074442942171829993 0 0.38925767950583068 0.089745659238924205 0 0.37575902663715582 0.1005927552642895 0 0.37781978938194838 0.1160261753724959 0 0.39723395756603957 0.10897093365627041 0 0.37575902663715582 0.1005927552642895 0 0.39723395756603957 0.10897093365627041 0 0.38925767950583068 0.089745659238924205 0 0.37575902663715582 0.1005927552642895 0 0.39723395756603957 0.10897093365627041 0 0.37021985781467592 0.13190595418029841 0 0.38799211637814413 0.12558784342768101 0 0.37781978938194838 0.1160261753724959 0 0.38799211637814413 0.12558784342768101 0 0.37781978938194838 0.1160261753724959 0 0.39723395756603957 0.10897093365627041 0 0.38799211637814413 0.12558784342768101 0 0.39723395756603957 0.10897093365627041 0 0.38799211637814413 0.12558784342768101 0 0.40308148677893402 0.1231016353934784 0 0.39723395756603957 0.10897093365627041 0 0.41695340722737517 0.1166642327686845 0 0.40308148677893402 0.1231016353934784 0 0.39723395756603957 0.10897093365627041 0 0.40812079870373669 0.089396299857354519 0 0.39723395756603957 0.10897093365627041 0 0.40812079870373669 0.089396299857354519 0 0.38925767950583068 0.089745659238924205 0 0.39723395756603957 0.10897093365627041 0 0.40132542378657737 0.012900689171933811 0 0.38151996442694902 0.01456669389997103 0 0.3935908882816998 0.031718646409384862 0 0.40132542378657737 0.012900689171933811 0 0.3935908882816998 0.031718646409384862 0 0.41118718034090318 0.028353500056093339 0 0.40132542378657737 0.012900689171933811 0 0.41024226016500731 -0.007115264795746104 0 0.3904402498127692 -0.0033376681990540768 0 0.40132542378657737 0.012900689171933811 0 0.38151996442694902 0.01456669389997103 0 0.3904402498127692 -0.0033376681990540768 0 0.38151996442694902 0.01456669389997103 0 0.3904402498127692 -0.0033376681990540768 0 0.36877126978949459 -0.0014702072886081359 0 0.37325463628876809 0.02621509020664459 0 0.38151996442694902 0.01456669389997103 0 0.3935908882816998 0.031718646409384862 0 0.38151996442694902 0.01456669389997103 0 0.3935908882816998 0.031718646409384862 0 0.37795869995025388 0.039701104103190242 0 0.39663635757388838 0.050230860647929552 0 0.3935908882816998 0.031718646409384862 0 0.37795869995025388 0.039701104103190242 0 0.39663635757388838 0.050230860647929552 0 0.37325463628876809 0.02621509020664459 0 0.37795869995025388 0.039701104103190242 0 0.3935908882816998 0.031718646409384862 0 0.37005139848142882 0.047561744325768131 0 0.37795869995025388 0.039701104103190242 0 0.37982279627176202 0.052764898552741607 0 0.37795869995025388 0.039701104103190242 0 0.37982279627176202 0.052764898552741607 0 0.39663635757388838 0.050230860647929552 0 0.37982279627176202 0.052764898552741607 0 0.39108737667223542 0.060844226337651672 0 0.39663635757388838 0.050230860647929552 0 0.37982279627176202 0.052764898552741607 0 0.39663635757388838 0.050230860647929552 0 0.36858888514719579 0.063855441642851063 0 0.3800907177111949 0.064271121214360613 0 0.37982279627176202 0.052764898552741607 0 0.3800907177111949 0.064271121214360613 0 0.37982279627176202 0.052764898552741607 0 0.39108737667223542 0.060844226337651672 0 0.39663635757388838 0.050230860647929552 0 0.40215269126287628 0.056262356269565869 0 0.41318479886853843 0.059560245602877281 0 0.39663635757388838 0.050230860647929552 0 0.41318479886853843 0.059560245602877281 0 0.39663635757388838 0.050230860647929552 0 0.40566181213645092 0.048870598918798511 0 0.41318479886853843 0.059560245602877281 0 0.39108737667223542 0.060844226337651672 0 0.39663635757388838 0.050230860647929552 0 0.40215269126287628 0.056262356269565869 0 0.39818821095859569 0.065055390887779868 0 0.39108737667223542 0.060844226337651672 0 0.40215269126287628 0.056262356269565869 0 0.39663635757388838 0.050230860647929552 0 0.40566181213645092 0.048870598918798511 0 0.40566181213645092 0.048870598918798511 0 0.3935908882816998 0.031718646409384862 0 0.40566181213645092 0.048870598918798511 0 0.3935908882816998 0.031718646409384862 0 0.40654594670764432 0.03693052209902508 0 0.39663635757388838 0.050230860647929552 0 0.40566181213645092 0.048870598918798511 0 0.3935908882816998 0.031718646409384862 0 0.3935908882816998 0.031718646409384862 0 0.40654594670764432 0.03693052209902508 0 0.41118718034090318 0.028353500056093339 0 0.40654594670764432 0.03693052209902508 0 0.41574390607152328 0.038779343011823439 0 0.41118718034090318 0.028353500056093339 0 0.41574390607152328 0.038779343011823439 0 0.42774666459489991 0.03257538850150396 0 0.41118718034090318 0.028353500056093339 0 0.40566181213645092 0.048870598918798511 0 0.41574390607152328 0.038779343011823439 0 0.42702510419344653 0.045650853210483539 0 0.40566181213645092 0.048870598918798511 0 0.40654594670764432 0.03693052209902508 0 0.41574390607152328 0.038779343011823439 0 0.41962509902889739 0.068711469140202666 0 0.40215269126287628 0.056262356269565869 0 0.41318479886853843 0.059560245602877281 0 0.41962509902889739 0.068711469140202666 0 0.40215269126287628 0.056262356269565869 0 0.40566181213645092 0.048870598918798511 0 0.41843444479308017 0.053926446738407248 0 0.42702510419344653 0.045650853210483539 0 0.40566181213645092 0.048870598918798511 0 0.42702510419344653 0.045650853210483539 0 0.40566181213645092 0.048870598918798511 0 0.41318479886853843 0.059560245602877281 0 0.40566181213645092 0.048870598918798511 0 0.41318479886853843 0.059560245602877281 0 0.41843444479308017 0.053926446738407248 0 0.42196250881122599 0.064508786291397308 0 0.41318479886853843 0.059560245602877281 0 0.42196250881122599 0.064508786291397308 0 0.41318479886853843 0.059560245602877281 0 0.42034746903228942 0.058216758516483898 0 0.41318479886853843 0.059560245602877281 0 0.41843444479308017 0.053926446738407248 0 0.42034746903228942 0.058216758516483898 0 0.41843444479308017 0.053926446738407248 0 0.42034746903228942 0.058216758516483898 0 0.42595303973467702 0.057333777443392332 0 0.43577170222029787 0.056347566057965148 0 0.42702510419344653 0.045650853210483539 0 0.44838839625044219 0.042431107502169343 0 0.42196250881122599 0.064508786291397308 0 0.4296056815783299 0.061276413792430817 0 0.42595303973467702 0.057333777443392332 0 0.42196250881122599 0.064508786291397308 0 0.42595303973467702 0.057333777443392332 0 0.42196250881122599 0.064508786291397308 0 0.42034746903228942 0.058216758516483898 0 0.42595303973467702 0.057333777443392332 0 0.41843444479308017 0.053926446738407248 0 0.42595303973467702 0.057333777443392332 0 0.42702510419344653 0.045650853210483539 0 0.42595303973467702 0.057333777443392332 0 0.43577170222029787 0.056347566057965148 0 0.42702510419344653 0.045650853210483539 0 0.4296056815783299 0.061276413792430817 0 0.42595303973467702 0.057333777443392332 0 0.43577170222029787 0.056347566057965148 0 0.43473547554711889 0.066915525376968474 0 0.4296056815783299 0.061276413792430817 0 0.43577170222029787 0.056347566057965148 0 0.42774666459489991 0.03257538850150396 0 0.42702510419344653 0.045650853210483539 0 0.44838839625044219 0.042431107502169343 0 0.41574390607152328 0.038779343011823439 0 0.42774666459489991 0.03257538850150396 0 0.42702510419344653 0.045650853210483539 0 0.42437891268024741 0.01386752911425736 0 0.44639668215125122 0.0097816569988495097 0 0.43809829246054838 0.024565060999539111 0 0.42774666459489991 0.03257538850150396 0 0.42437891268024741 0.01386752911425736 0 0.43809829246054838 0.024565060999539111 0 0.42774666459489991 0.03257538850150396 0 0.41118718034090318 0.028353500056093339 0 0.42437891268024741 0.01386752911425736 0 0.40132542378657737 0.012900689171933811 0 0.41118718034090318 0.028353500056093339 0 0.42437891268024741 0.01386752911425736 0 0.40132542378657737 0.012900689171933811 0 0.42437891268024741 0.01386752911425736 0 0.41024226016500731 -0.007115264795746104 0 0.42437891268024741 0.01386752911425736 0 0.44639668215125122 0.0097816569988495097 0 0.44016150677667149 -0.0059489129424220126 0 0.42437891268024741 0.01386752911425736 0 0.44016150677667149 -0.0059489129424220126 0 0.41024226016500731 -0.007115264795746104 0 0.43809829246054838 0.024565060999539111 0 0.45926394545045301 0.021207168911971011 0 0.44838839625044219 0.042431107502169343 0 0.44639668215125122 0.0097816569988495097 0 0.43809829246054838 0.024565060999539111 0 0.45926394545045301 0.021207168911971011 0 0.44639668215125122 0.0097816569988495097 0 0.45926394545045301 0.021207168911971011 0 0.47008075338833549 -0.0047825610890979246 0 0.43577170222029787 0.056347566057965148 0 0.44977864750122742 0.062167804812846249 0 0.44838839625044219 0.042431107502169343 0 0.43473547554711889 0.066915525376968474 0 0.43577170222029787 0.056347566057965148 0 0.44977864750122742 0.062167804812846249 0 0.42702510419344653 0.045650853210483539 0 0.44838839625044219 0.042431107502169343 0 0.42774666459489991 0.03257538850150396 0 0.43809829246054838 0.024565060999539111 0 0.44838839625044219 0.042431107502169343 0 0.45926394545045301 0.021207168911971011 0 0.44838839625044219 0.042431107502169343 0 0.47624169732322541 0.039064397169055083 0 0.44838839625044219 0.042431107502169343 0 0.46494081123085762 0.058744868362830598 0 0.47624169732322541 0.039064397169055083 0 0.44977864750122742 0.062167804812846249 0 0.44838839625044219 0.042431107502169343 0 0.46494081123085762 0.058744868362830598 0 0.46494081123085762 0.058744868362830598 0 0.48371773900247078 0.060173521401023992 0 0.47624169732322541 0.039064397169055083 0 0.47624169732322541 0.039064397169055083 0 0.5 0.05182132835947828 0 0.5 0.024102559561852251 0 0.48371773900247078 0.060173521401023992 0 0.47624169732322541 0.039064397169055083 0 0.5 0.05182132835947828 0 0.45926394545045301 0.021207168911971011 0 0.4804466024205804 0.015174681227931549 0 0.47008075338833549 -0.0047825610890979246 0 0.4804466024205804 0.015174681227931549 0 0.49999999999999989 -0.0036162092357738302 0 0.47008075338833549 -0.0047825610890979246 0 0.45926394545045301 0.021207168911971011 0 0.47624169732322541 0.039064397169055083 0 0.4804466024205804 0.015174681227931549 0 0.47624169732322541 0.039064397169055083 0 0.4804466024205804 0.015174681227931549 0 0.5 0.024102559561852251 0 0.4804466024205804 0.015174681227931549 0 0.5 0.024102559561852251 0 0.49999999999999989 -0.0036162092357738302 0 0.49999999999999989 -0.0036162092357738302 0 0.47008075338833549 -0.0047825610890979246 0 0.49999999999999989 -0.0036162092357738302 0 0.47008075338833549 -0.0047825610890979246 0 0.484959860220053 -0.01926459048983158 0 0.47008075338833549 -0.0047825610890979246 0 0.484959860220053 -0.01926459048983158 0 0.46734778911122909 -0.02799044036899365 0 0.484959860220053 -0.01926459048983158 0 0.48277514364767021 -0.039420539608905618 0 0.46734778911122909 -0.02799044036899365 0 0.484959860220053 -0.01926459048983158 0 0.5 -0.032074041739417802 0 0.48277514364767021 -0.039420539608905618 0 0.49999999999999989 -0.0036162092357738302 0 0.484959860220053 -0.01926459048983158 0 0.5 -0.032074041739417802 0 0.5 -0.032074041739417802 0 0.5 -0.060531874243061827 0 0.48277514364767021 -0.039420539608905618 0 0.5 -0.060531874243061827 0 0.47809159445484212 -0.05607490566772453 0 0.48277514364767021 -0.039420539608905618 0 0.47809159445484212 -0.05607490566772453 0 0.48277514364767021 -0.039420539608905618 0 0.46596473322779669 -0.045317808006110537 0 0.47809159445484212 -0.05607490566772453 0 0.46596473322779669 -0.045317808006110537 0 0.46512380752109839 -0.06065277974765635 0 0.48277514364767021 -0.039420539608905618 0 0.46596473322779669 -0.045317808006110537 0 0.46734778911122909 -0.02799044036899365 0 0.46596473322779669 -0.045317808006110537 0 0.45193729783855602 -0.037407659806858777 0 0.46734778911122909 -0.02799044036899365 0 0.46596473322779669 -0.045317808006110537 0 0.45061282312310208 -0.051779122213485677 0 0.45193729783855602 -0.037407659806858777 0 0.46512380752109839 -0.06065277974765635 0 0.45061282312310208 -0.051779122213485677 0 0.45937666792507709 -0.074087163313180437 0 0.46596473322779669 -0.045317808006110537 0 0.46512380752109839 -0.06065277974765635 0 0.45061282312310208 -0.051779122213485677 0 0.44259506783432617 -0.056110429949808638 0 0.45061282312310208 -0.051779122213485677 0 0.45193729783855602 -0.037407659806858777 0 0.44259506783432617 -0.056110429949808638 0 0.45061282312310208 -0.051779122213485677 0 0.45937666792507709 -0.074087163313180437 0 0.44259506783432617 -0.056110429949808638 0 0.45193729783855602 -0.037407659806858777 0 0.43990480240616547 -0.02943820445241575 0 0.44259506783432617 -0.056110429949808638 0 0.43990480240616547 -0.02943820445241575 0 0.45193729783855602 -0.037407659806858777 0 0.43990480240616547 -0.02943820445241575 0 0.45377499581912678 -0.020178452047253579 0 0.43990480240616547 -0.02943820445241575 0 0.44016150677667149 -0.0059489129424220126 0 0.45377499581912678 -0.020178452047253579 0 0.44639668215125122 0.0097816569988495097 0 0.47008075338833549 -0.0047825610890979246 0 0.44016150677667149 -0.0059489129424220126 0 0.47008075338833549 -0.0047825610890979246 0 0.44016150677667149 -0.0059489129424220126 0 0.45377499581912678 -0.020178452047253579 0 0.47008075338833549 -0.0047825610890979246 0 0.44016150677667149 -0.0059489129424220126 0 0.47008075338833549 -0.0047825610890979246 0 0.46734778911122909 -0.02799044036899365 0 0.45377499581912678 -0.020178452047253579 0 0.45193729783855602 -0.037407659806858777 0 0.46734778911122909 -0.02799044036899365 0 0.45377499581912678 -0.020178452047253579 0 0.47690435752902721 -0.1187032455125703 0 0.48555500976951199 -0.104240894105615 0 0.48892950182558659 -0.12685458150663359 0 0.47690435752902721 -0.1187032455125703 0 0.46814051272705209 -0.096395204412875315 0 0.46225055849634189 -0.1150879117847277 0 0.5 -0.1174475392503498 0 0.48555500976951199 -0.104240894105615 0 0.48892950182558659 -0.12685458150663359 0 0.5 -0.1174475392503498 0 0.48555500976951199 -0.104240894105615 0 0.5 -0.08898970674670581 0 0.47690435752902721 -0.1187032455125703 0 0.46814051272705209 -0.096395204412875315 0 0.47690435752902721 -0.1187032455125703 0 0.48555500976951199 -0.104240894105615 0 0.46814051272705209 -0.096395204412875315 0 0.47935568653540622 -0.077055087204555464 0 0.45937666792507709 -0.074087163313180437 0 0.46814051272705209 -0.096395204412875315 0 0.48555500976951199 -0.104240894105615 0 0.47935568653540622 -0.077055087204555464 0 0.46814051272705209 -0.096395204412875315 0 0.48555500976951199 -0.104240894105615 0 0.5 -0.08898970674670581 0 0.47935568653540622 -0.077055087204555464 0 0.5 -0.060531874243061827 0 0.47809159445484212 -0.05607490566772453 0 0.47935568653540622 -0.077055087204555464 0 0.5 -0.060531874243061827 0 0.5 -0.08898970674670581 0 0.47935568653540622 -0.077055087204555464 0 0.47809159445484212 -0.05607490566772453 0 0.46512380752109839 -0.06065277974765635 0 0.47935568653540622 -0.077055087204555464 0 0.45061282312310208 -0.051779122213485677 0 0.45937666792507709 -0.074087163313180437 0 0.46512380752109839 -0.06065277974765635 0 0.47935568653540622 -0.077055087204555464 0 0.45937666792507709 -0.074087163313180437 0 0.44259506783432617 -0.056110429949808638 0 0.45937666792507709 -0.074087163313180437 0 0.44528533326248693 -0.082782655447201564 0 0.44259506783432617 -0.056110429949808638 0 0.44528533326248693 -0.082782655447201564 0 0.43538510439064559 -0.074156890791681168 0 0.44259506783432617 -0.056110429949808638 0 0.44528533326248693 -0.082782655447201564 0 0.45937666792507709 -0.074087163313180437 0 0.44528533326248693 -0.082782655447201564 0 0.46814051272705209 -0.096395204412875315 0 0.45937666792507709 -0.074087163313180437 0 0.46814051272705209 -0.096395204412875315 0 0.46814051272705209 -0.096395204412875315 0 0.44797559869064763 -0.1094548809445946 0 0.46225055849634189 -0.1150879117847277 0 0.44528533326248693 -0.082782655447201564 0 0.46814051272705209 -0.096395204412875315 0 0.44797559869064763 -0.1094548809445946 0 0.44528533326248693 -0.082782655447201564 0 0.44797559869064763 -0.1094548809445946 0 0.44528533326248693 -0.082782655447201564 0 0.44797559869064763 -0.1094548809445946 0 0.42825575467252702 -0.089332355813812034 0 0.44797559869064763 -0.1094548809445946 0 0.45066586411880749 -0.13612710644198761 0 0.44797559869064763 -0.1094548809445946 0 0.42513114799617963 -0.10730850542829071 0 0.44333673999536988 -0.12944123666321861 0 0.44797559869064763 -0.1094548809445946 0 0.46225055849634189 -0.1150879117847277 0 0.45066586411880749 -0.13612710644198761 0 0.47690435752902721 -0.1187032455125703 0 0.46225055849634189 -0.1150879117847277 0 0.46488298216008689 -0.1290684541993716 0 0.41417305393739501 -0.1165429682473501 0 0.42631958268096598 -0.1229633067732319 0 0.42513114799617963 -0.10730850542829071 0 0.40147275231877289 -0.1191351678209463 0 0.41571652637784612 -0.12919997797797961 0 0.41417305393739501 -0.1165429682473501 0 0.40147275231877289 -0.1191351678209463 0 0.41571652637784612 -0.12919997797797961 0 0.41417305393739501 -0.1165429682473501 0 0.42631958268096598 -0.1229633067732319 0 0.41571652637784612 -0.12919997797797961 0 0.42631958268096598 -0.1229633067732319 0 0.42513114799617963 -0.10730850542829071 0 0.44333673999536988 -0.12944123666321861 0 0.42513114799617963 -0.10730850542829071 0 0.44333673999536988 -0.12944123666321861 0 0.44797559869064763 -0.1094548809445946 0 0.42513114799617963 -0.10730850542829071 0 0.42825575467252702 -0.089332355813812034 0 0.42513114799617963 -0.10730850542829071 0 0.40692555599698921 -0.085175774193362794 0 0.42825575467252702 -0.089332355813812034 0 0.42513114799617963 -0.10730850542829071 0 0.40692555599698921 -0.085175774193362794 0 0.41417305393739501 -0.1165429682473501 0 0.42513114799617963 -0.10730850542829071 0 0.4022252603132106 -0.1041078832363011 0 0.42513114799617963 -0.10730850542829071 0 0.40692555599698921 -0.085175774193362794 0 0.4022252603132106 -0.1041078832363011 0 0.40692555599698921 -0.085175774193362794 0 0.42825575467252702 -0.089332355813812034 0 0.42429504954122887 -0.071738594946279252 0 0.42825575467252702 -0.089332355813812034 0 0.42429504954122887 -0.071738594946279252 0 0.43538510439064559 -0.074156890791681168 0 0.44528533326248693 -0.082782655447201564 0 0.42825575467252702 -0.089332355813812034 0 0.43538510439064559 -0.074156890791681168 0 0.42429504954122887 -0.071738594946279252 0 0.43247833677097641 -0.064620796710806783 0 0.42680146284443748 -0.055185683428271022 0 0.44259506783432617 -0.056110429949808638 0 0.43538510439064559 -0.074156890791681168 0 0.43247833677097641 -0.064620796710806783 0 0.42429504954122887 -0.071738594946279252 0 0.43538510439064559 -0.074156890791681168 0 0.43247833677097641 -0.064620796710806783 0 0.40692555599698921 -0.085175774193362794 0 0.42429504954122887 -0.071738594946279252 0 0.41188083501046441 -0.064085245574397473 0 0.42429504954122887 -0.071738594946279252 0 0.41188083501046441 -0.064085245574397473 0 0.42680146284443748 -0.055185683428271022 0 0.40692555599698921 -0.085175774193362794 0 0.41188083501046441 -0.064085245574397473 0 0.3887199639977989 -0.063043042958434881 0 0.40692555599698921 -0.085175774193362794 0 0.3887199639977989 -0.063043042958434881 0 0.38587970084679779 -0.082418473216421706 0 0.40692555599698921 -0.085175774193362794 0 0.3887199639977989 -0.063043042958434881 0 0.3887199639977989 -0.063043042958434881 0 0.38587970084679779 -0.082418473216421706 0 0.37033809363776521 -0.072278687172348824 0 0.3887199639977989 -0.063043042958434881 0 0.37108982302566451 -0.054636332574902163 0 0.37033809363776521 -0.072278687172348824 0 0.38587970084679779 -0.082418473216421706 0 0.37033809363776521 -0.072278687172348824 0 0.37496601387502321 -0.087838392557389511 0 0.38587970084679779 -0.082418473216421706 0 0.38256690800271459 -0.09349685279228398 0 0.37496601387502321 -0.087838392557389511 0 0.38587970084679779 -0.082418473216421706 0 0.38256690800271459 -0.09349685279228398 0 0.39458847728762902 -0.092774880133279058 0 0.40692555599698921 -0.085175774193362794 0 0.38587970084679779 -0.082418473216421706 0 0.39458847728762902 -0.092774880133279058 0 0.40692555599698921 -0.085175774193362794 0 0.39458847728762902 -0.092774880133279058 0 0.4022252603132106 -0.1041078832363011 0 0.4022252603132106 -0.1041078832363011 0 0.38605694106219429 -0.10223462736329 0 0.38722897825969899 -0.1090703576639141 0 0.39458847728762902 -0.092774880133279058 0 0.4022252603132106 -0.1041078832363011 0 0.38605694106219429 -0.10223462736329 0 0.38256690800271459 -0.09349685279228398 0 0.39458847728762902 -0.092774880133279058 0 0.38605694106219429 -0.10223462736329 0 0.38256690800271459 -0.09349685279228398 0 0.37496601387502321 -0.087838392557389511 0 0.37442478171584642 -0.1000227690899351 0 0.38256690800271459 -0.09349685279228398 0 0.38605694106219429 -0.10223462736329 0 0.37442478171584642 -0.1000227690899351 0 0.38605694106219429 -0.10223462736329 0 0.38722897825969899 -0.1090703576639141 0 0.37442478171584642 -0.1000227690899351 0 0.38722897825969899 -0.1090703576639141 0 0.37442478171584642 -0.1000227690899351 0 0.38722897825969899 -0.1090703576639141 0 0.37485100721886422 -0.1074756541552815 0 0.37442478171584642 -0.1000227690899351 0 0.38605694106219429 -0.10223462736329 0 0.38722897825969899 -0.1090703576639141 0 0.38979959925446123 -0.12406311716228099 0 0.37419074920783912 -0.1243923194379741 0 0.36398568324058211 -0.1189466736487408 0 0.38722897825969899 -0.1090703576639141 0 0.37633558136051559 -0.11365645718891849 0 0.38979959925446123 -0.12406311716228099 0 0.37633558136051559 -0.11365645718891849 0 0.38979959925446123 -0.12406311716228099 0 0.36398568324058211 -0.1189466736487408 0 0.38722897825969899 -0.1090703576639141 0 0.38979959925446123 -0.12406311716228099 0 0.38979959925446123 -0.12406311716228099 0 0.36398568324058211 -0.1189466736487408 0 0.38722897825969899 -0.1090703576639141 0 0.37633558136051559 -0.11365645718891849 0 0.37485100721886422 -0.1074756541552815 0 0.38722897825969899 -0.1090703576639141 0 0.38979959925446123 -0.12406311716228099 0 0.40147275231877289 -0.1191351678209463 0 0.38979959925446123 -0.12406311716228099 0 0.40147275231877289 -0.1191351678209463 0 0.41571652637784612 -0.12919997797797961 0 0.38722897825969899 -0.1090703576639141 0 0.40147275231877289 -0.1191351678209463 0 0.4022252603132106 -0.1041078832363011 0 0.38722897825969899 -0.1090703576639141 0 0.40147275231877289 -0.1191351678209463 0 0.41417305393739501 -0.1165429682473501 0 0.4022252603132106 -0.1041078832363011 0 0.40147275231877289 -0.1191351678209463 0 0.41699454966483429 -0.024697269222593979 0 0.41024226016500731 -0.007115264795746104 0 0.39716135654757451 -0.017538589386522509 0 0.44016150677667149 -0.0059489129424220126 0 0.41024226016500731 -0.007115264795746104 0 0.44016150677667149 -0.0059489129424220126 0 0.41699454966483429 -0.024697269222593979 0 0.41024226016500731 -0.007115264795746104 0 0.43990480240616547 -0.02943820445241575 0 0.44016150677667149 -0.0059489129424220126 0 0.41699454966483429 -0.024697269222593979 0 0.43990480240616547 -0.02943820445241575 0 0.42680146284443748 -0.055185683428271022 0 0.41266214267186718 -0.04528313234563941 0 0.43990480240616547 -0.02943820445241575 0 0.41699454966483429 -0.024697269222593979 0 0.41266214267186718 -0.04528313234563941 0 0.44259506783432617 -0.056110429949808638 0 0.43247833677097641 -0.064620796710806783 0 0.42680146284443748 -0.055185683428271022 0 0.44259506783432617 -0.056110429949808638 0 0.43990480240616547 -0.02943820445241575 0 0.42680146284443748 -0.055185683428271022 0 0.41188083501046441 -0.064085245574397473 0 0.42680146284443748 -0.055185683428271022 0 0.41266214267186718 -0.04528313234563941 0 0.41699454966483429 -0.024697269222593979 0 0.41266214267186718 -0.04528313234563941 0 0.39375924906958221 -0.035349158110588003 0 0.3887199639977989 -0.063043042958434881 0 0.41266214267186718 -0.04528313234563941 0 0.39375924906958221 -0.035349158110588003 0 0.41188083501046441 -0.064085245574397473 0 0.3887199639977989 -0.063043042958434881 0 0.41266214267186718 -0.04528313234563941 0 0.3887199639977989 -0.063043042958434881 0 0.37671384732458207 -0.041231908273486197 0 0.37108982302566451 -0.054636332574902163 0 0.39375924906958221 -0.035349158110588003 0 0.37671384732458207 -0.041231908273486197 0 0.37437047402567958 -0.01719358660463037 0 0.3887199639977989 -0.063043042958434881 0 0.39375924906958221 -0.035349158110588003 0 0.37671384732458207 -0.041231908273486197 0 0.39375924906958221 -0.035349158110588003 0 0.39716135654757451 -0.017538589386522509 0 0.37437047402567958 -0.01719358660463037 0 0.41699454966483429 -0.024697269222593979 0 0.39375924906958221 -0.035349158110588003 0 0.39716135654757451 -0.017538589386522509 0 0.41024226016500731 -0.007115264795746104 0 0.39716135654757451 -0.017538589386522509 0 0.3904402498127692 -0.0033376681990540768 0 0.39716135654757451 -0.017538589386522509 0 0.3904402498127692 -0.0033376681990540768 0 0.37437047402567958 -0.01719358660463037 0 0.3904402498127692 -0.0033376681990540768 0 0.36877126978949459 -0.0014702072886081359 0 0.37437047402567958 -0.01719358660463037 0 0.36877126978949459 -0.0014702072886081359 0 0.37437047402567958 -0.01719358660463037 0 0.35795493863405359 -0.01299543671418699 0 0.36877126978949459 -0.0014702072886081359 0 0.35713076445736319 -0.0015691490024301879 0 0.35795493863405359 -0.01299543671418699 0 0.37437047402567958 -0.01719358660463037 0 0.35731065910372811 -0.024105257365643621 0 0.35795493863405359 -0.01299543671418699 0 0.37437047402567958 -0.01719358660463037 0 0.35731065910372811 -0.024105257365643621 0 0.36449415650433892 -0.033272735537301382 0 0.37671384732458207 -0.041231908273486197 0 0.37437047402567958 -0.01719358660463037 0 0.36449415650433892 -0.033272735537301382 0 0.35731065910372811 -0.024105257365643621 0 0.35538874900267459 -0.034986707536083968 0 0.36449415650433892 -0.033272735537301382 0 0.35731065910372811 -0.024105257365643621 0 0.3454509616527377 -0.025937332351341689 0 0.35538874900267459 -0.034986707536083968 0 0.35731065910372811 -0.024105257365643621 0 0.3454509616527377 -0.025937332351341689 0 0.35795493863405359 -0.01299543671418699 0 0.3454509616527377 -0.025937332351341689 0 0.34916672883315969 -0.0075069728423462854 0 0.34103363560664901 -0.0037706877705088598 0 0.3454509616527377 -0.025937332351341689 0 0.35795493863405359 -0.01299543671418699 0 0.34916672883315969 -0.0075069728423462854 0 0.3489195106838277 0.0015717979417698149 0 0.35713076445736319 -0.0015691490024301879 0 0.34916672883315969 -0.0075069728423462854 0 0.35713076445736319 -0.0015691490024301879 0 0.35795493863405359 -0.01299543671418699 0 0.34916672883315969 -0.0075069728423462854 0 0.3489195106838277 0.0015717979417698149 0 0.34916672883315969 -0.0075069728423462854 0 0.34506981605456588 -0.0013076145751016799 0 0.34916672883315969 -0.0075069728423462854 0 0.34506981605456588 -0.0013076145751016799 0 0.34103363560664901 -0.0037706877705088598 0 0.3454509616527377 -0.025937332351341689 0 0.34103363560664901 -0.0037706877705088598 0 0.34194331489433061 0.0025165274070233501 0 0.3338615330312375 -0.012619192544059649 0 0.33447918448659147 -0.01436264868804692 0 0.34194331489433061 0.0025165274070233501 0 0.34506981605456588 -0.0013076145751016799 0 0.34103363560664901 -0.0037706877705088598 0 0.34194331489433061 0.0025165274070233501 0 0.34103363560664901 -0.0037706877705088598 0 0.33447918448659147 -0.01436264868804692 0 0.3454509616527377 -0.025937332351341689 0 0.34103363560664901 -0.0037706877705088598 0 0.33447918448659147 -0.01436264868804692 0 0.34194331489433061 0.0025165274070233501 0 0.33363926835151608 -0.0035121070782613028 0 0.3338615330312375 -0.012619192544059649 0 0.34194331489433061 0.0025165274070233501 0 0.33447918448659147 -0.01436264868804692 0 0.32876681223330539 3.481757102791964e-05 0 0.33363926835151608 -0.0035121070782613028 0 0.32834137695332283 -0.0088265722449741412 0 0.3338615330312375 -0.012619192544059649 0 0.33447918448659147 -0.01436264868804692 0 0.3265855834293494 -0.016177966996328431 0 0.33363926835151608 -0.0035121070782613028 0 0.32834137695332283 -0.0088265722449741412 0 0.3338615330312375 -0.012619192544059649 0 0.32834137695332283 -0.0088265722449741412 0 0.3338615330312375 -0.012619192544059649 0 0.3265855834293494 -0.016177966996328431 0 0.3338615330312375 -0.012619192544059649 0 0.33447918448659147 -0.01436264868804692 0 0.33447918448659147 -0.01436264868804692 0 0.3265855834293494 -0.016177966996328431 0 0.3247965470836558 -0.036258694558257067 0 0.3454509616527377 -0.025937332351341689 0 0.33447918448659147 -0.01436264868804692 0 0.34438239911575058 -0.042316635100528133 0 0.33447918448659147 -0.01436264868804692 0 0.3247965470836558 -0.036258694558257067 0 0.33447918448659147 -0.01436264868804692 0 0.32663837358606312 -0.036532490931564812 0 0.34438239911575058 -0.042316635100528133 0 0.33447918448659147 -0.01436264868804692 0 0.34438239911575058 -0.042316635100528133 0 0.33447918448659147 -0.01436264868804692 0 0.32663837358606312 -0.036532490931564812 0 0.3247965470836558 -0.036258694558257067 0 0.3265855834293494 -0.016177966996328431 0 0.3247965470836558 -0.036258694558257067 0 0.31217956224344823 -0.023440649287690511 0 0.3265855834293494 -0.016177966996328431 0 0.31860214496056849 -0.0100850877957698 0 0.31217956224344823 -0.023440649287690511 0 0.31609093299333962 0.0048223983709125874 0 0.31860214496056849 -0.0100850877957698 0 0.30591258341268829 -0.01269603844956785 0 0.32876681223330539 3.481757102791964e-05 0 0.31609093299333962 0.0048223983709125874 0 0.31860214496056849 -0.0100850877957698 0 0.32876681223330539 3.481757102791964e-05 0 0.32834137695332283 -0.0088265722449741412 0 0.31860214496056849 -0.0100850877957698 0 0.32834137695332283 -0.0088265722449741412 0 0.3265855834293494 -0.016177966996328431 0 0.31860214496056849 -0.0100850877957698 0 0.31436327247316692 -0.059852210450764137 0 0.3247965470836558 -0.036258694558257067 0 0.3029586082017125 -0.048532089344381177 0 0.32804684123359912 -0.054507140462160521 0 0.31681341485871911 -0.062209337401471568 0 0.32965787495208249 -0.040680532919238392 0 0.31436327247316692 -0.059852210450764137 0 0.31681341485871911 -0.062209337401471568 0 0.32965787495208249 -0.040680532919238392 0 0.31681341485871911 -0.062209337401471568 0 0.32965787495208249 -0.040680532919238392 0 0.31436327247316692 -0.059852210450764137 0 0.3247965470836558 -0.036258694558257067 0 0.32804684123359912 -0.054507140462160521 0 0.32513135483269229 -0.061547701673000069 0 0.31681341485871911 -0.062209337401471568 0 0.31436327247316692 -0.059852210450764137 0 0.3247965470836558 -0.036258694558257067 0 0.32965787495208249 -0.040680532919238392 0 0.32663837358606312 -0.036532490931564812 0 0.3247965470836558 -0.036258694558257067 0 0.32965787495208249 -0.040680532919238392 0 0.32663837358606312 -0.036532490931564812 0 0.3247965470836558 -0.036258694558257067 0 0.32663837358606312 -0.036532490931564812 0 0.32965787495208249 -0.040680532919238392 0 0.34438239911575058 -0.042316635100528133 0 0.32965787495208249 -0.040680532919238392 0 0.33539709614326618 -0.050149081596279038 0 0.34438239911575058 -0.042316635100528133 0 0.33539709614326618 -0.050149081596279038 0 0.34111946624927242 -0.061458618275080229 0 0.34438239911575058 -0.042316635100528133 0 0.32804684123359912 -0.054507140462160521 0 0.32965787495208249 -0.040680532919238392 0 0.33539709614326618 -0.050149081596279038 0 0.32804684123359912 -0.054507140462160521 0 0.33539709614326618 -0.050149081596279038 0 0.3332344653812353 -0.057949048720813592 0 0.32804684123359912 -0.054507140462160521 0 0.32513135483269229 -0.061547701673000069 0 0.3332344653812353 -0.057949048720813592 0 0.33539709614326618 -0.050149081596279038 0 0.3332344653812353 -0.057949048720813592 0 0.34111946624927242 -0.061458618275080229 0 0.3498682876988265 -0.048103976932174483 0 0.35428561374491518 -0.070270621513007364 0 0.34438239911575058 -0.042316635100528133 0 0.35428561374491518 -0.070270621513007364 0 0.3498682876988265 -0.048103976932174483 0 0.34438239911575058 -0.042316635100528133 0 0.35428561374491518 -0.070270621513007364 0 0.34111946624927242 -0.061458618275080229 0 0.34438239911575058 -0.042316635100528133 0 0.35428561374491518 -0.070270621513007364 0 0.3498682876988265 -0.048103976932174483 0 0.36030371417629897 -0.056297006786248542 0 0.35428561374491518 -0.070270621513007364 0 0.3498682876988265 -0.048103976932174483 0 0.36274019885536157 -0.044467551020528663 0 0.36030371417629897 -0.056297006786248542 0 0.3454509616527377 -0.025937332351341689 0 0.3498682876988265 -0.048103976932174483 0 0.3454509616527377 -0.025937332351341689 0 0.3498682876988265 -0.048103976932174483 0 0.34438239911575058 -0.042316635100528133 0 0.3454509616527377 -0.025937332351341689 0 0.3498682876988265 -0.048103976932174483 0 0.35538874900267459 -0.034986707536083968 0 0.3498682876988265 -0.048103976932174483 0 0.35538874900267459 -0.034986707536083968 0 0.36274019885536157 -0.044467551020528663 0 0.35538874900267459 -0.034986707536083968 0 0.36449415650433892 -0.033272735537301382 0 0.36274019885536157 -0.044467551020528663 0 0.37671384732458207 -0.041231908273486197 0 0.36274019885536157 -0.044467551020528663 0 0.37108982302566451 -0.054636332574902163 0 0.37671384732458207 -0.041231908273486197 0 0.36449415650433892 -0.033272735537301382 0 0.36274019885536157 -0.044467551020528663 0 0.36030371417629897 -0.056297006786248542 0 0.37108982302566451 -0.054636332574902163 0 0.37033809363776521 -0.072278687172348824 0 0.36274019885536157 -0.044467551020528663 0 0.36030371417629897 -0.056297006786248542 0 0.37108982302566451 -0.054636332574902163 0 0.36030371417629897 -0.056297006786248542 0 0.37033809363776521 -0.072278687172348824 0 0.35428561374491518 -0.070270621513007364 0 0.37033809363776521 -0.072278687172348824 0 0.3616205851719928 -0.090975180515957627 0 0.35428561374491518 -0.070270621513007364 0 0.37033809363776521 -0.072278687172348824 0 0.37496601387502321 -0.087838392557389511 0 0.3616205851719928 -0.090975180515957627 0 0.37496601387502321 -0.087838392557389511 0 0.3616205851719928 -0.090975180515957627 0 0.37442478171584642 -0.1000227690899351 0 0.3616205851719928 -0.090975180515957627 0 0.35788565477110268 -0.088336036895818426 0 0.3616205851719928 -0.090975180515957627 0 0.35428561374491518 -0.070270621513007364 0 0.3616205851719928 -0.090975180515957627 0 0.35788565477110268 -0.088336036895818426 0 0.35428561374491518 -0.070270621513007364 0 0.35788565477110268 -0.088336036895818426 0 0.34546287676509091 -0.079557962929261677 0 0.35428561374491518 -0.070270621513007364 0 0.35788565477110268 -0.088336036895818426 0 0.34546287676509091 -0.079557962929261677 0 0.34179815331684449 -0.089109911663506097 0 0.35788565477110268 -0.088336036895818426 0 0.35428561374491518 -0.070270621513007364 0 0.35788565477110268 -0.088336036895818426 0 0.34470384028216799 -0.098919443040350885 0 0.34179815331684449 -0.089109911663506097 0 0.35788565477110268 -0.088336036895818426 0 0.34546287676509091 -0.079557962929261677 0 0.34111946624927242 -0.061458618275080229 0 0.34546287676509091 -0.079557962929261677 0 0.35428561374491518 -0.070270621513007364 0 0.37633558136051559 -0.11365645718891849 0 0.36398568324058211 -0.1189466736487408 0 0.3669658168380488 -0.10606326443211141 0 0.36398568324058211 -0.1189466736487408 0 0.36093566900584512 -0.10364135527227911 0 0.3669658168380488 -0.10606326443211141 0 0.36398568324058211 -0.1189466736487408 0 0.36093566900584512 -0.10364135527227911 0 0.37633558136051559 -0.11365645718891849 0 0.3669658168380488 -0.10606326443211141 0 0.37485100721886422 -0.1074756541552815 0 0.3669658168380488 -0.10606326443211141 0 0.37485100721886422 -0.1074756541552815 0 0.37442478171584642 -0.1000227690899351 0 0.3616205851719928 -0.090975180515957627 0 0.37442478171584642 -0.1000227690899351 0 0.3616205851719928 -0.090975180515957627 0 0.3669658168380488 -0.10606326443211141 0 0.37442478171584642 -0.1000227690899351 0 0.3616205851719928 -0.090975180515957627 0 0.35788565477110268 -0.088336036895818426 0 0.36093566900584512 -0.10364135527227911 0 0.35788565477110268 -0.088336036895818426 0 0.36093566900584512 -0.10364135527227911 0 0.3616205851719928 -0.090975180515957627 0 0.3669658168380488 -0.10606326443211141 0 0.3616205851719928 -0.090975180515957627 0 0.36093566900584512 -0.10364135527227911 0 0.3669658168380488 -0.10606326443211141 0 0.35788565477110268 -0.088336036895818426 0 0.36093566900584512 -0.10364135527227911 0 0.34470384028216799 -0.098919443040350885 0 0.36093566900584512 -0.10364135527227911 0 0.34470384028216799 -0.098919443040350885 0 0.3348568581563266 -0.1131731990593282 0 0.36398568324058211 -0.1189466736487408 0 0.3348568581563266 -0.1131731990593282 0 0.34576752214088452 -0.1378210766311303 0 0.36398568324058211 -0.1189466736487408 0 0.36093566900584512 -0.10364135527227911 0 0.3348568581563266 -0.1131731990593282 0 0.36398568324058211 -0.1189466736487408 0 0.3348568581563266 -0.1131731990593282 0 0.34470384028216799 -0.098919443040350885 0 0.3348568581563266 -0.1131731990593282 0 0.33048569485604379 -0.097432478354655572 0 0.3348568581563266 -0.1131731990593282 0 0.33048569485604379 -0.097432478354655572 0 0.32221734436137911 -0.10930866192341961 0 0.34470384028216799 -0.098919443040350885 0 0.33048569485604379 -0.097432478354655572 0 0.34179815331684449 -0.089109911663506097 0 0.33048569485604379 -0.097432478354655572 0 0.31633037311010292 -0.09618865871139104 0 0.32221734436137911 -0.10930866192341961 0 0.31633037311010292 -0.09618865871139104 0 0.32221734436137911 -0.10930866192341961 0 0.30765321557058251 -0.11139267908551061 0 0.32221734436137911 -0.10930866192341961 0 0.30765321557058251 -0.11139267908551061 0 0.32367360648566063 -0.12601740163876429 0 0.3348568581563266 -0.1131731990593282 0 0.32221734436137911 -0.10930866192341961 0 0.32367360648566063 -0.12601740163876429 0 0.34546287676509091 -0.079557962929261677 0 0.33304009875907892 -0.070779888962705123 0 0.32812288555896951 -0.078679381610185298 0 0.34111946624927242 -0.061458618275080229 0 0.34546287676509091 -0.079557962929261677 0 0.33304009875907892 -0.070779888962705123 0 0.33304009875907892 -0.070779888962705123 0 0.32812288555896951 -0.078679381610185298 0 0.32397887017978999 -0.069126240711213052 0 0.32513135483269229 -0.061547701673000069 0 0.3332344653812353 -0.057949048720813592 0 0.33304009875907892 -0.070779888962705123 0 0.3332344653812353 -0.057949048720813592 0 0.34111946624927242 -0.061458618275080229 0 0.33304009875907892 -0.070779888962705123 0 0.34546287676509091 -0.079557962929261677 0 0.33304009875907892 -0.070779888962705123 0 0.34546287676509091 -0.079557962929261677 0 0.34179815331684449 -0.089109911663506097 0 0.33160491921710639 -0.08823361196494503 0 0.34546287676509091 -0.079557962929261677 0 0.33160491921710639 -0.08823361196494503 0 0.32812288555896951 -0.078679381610185298 0 0.33048569485604379 -0.097432478354655572 0 0.34179815331684449 -0.089109911663506097 0 0.33160491921710639 -0.08823361196494503 0 0.33160491921710639 -0.08823361196494503 0 0.32812288555896951 -0.078679381610185298 0 0.32188837554837879 -0.087093862119648077 0 0.32812288555896951 -0.078679381610185298 0 0.32188837554837879 -0.087093862119648077 0 0.31979728333377228 -0.078961566069315037 0 0.33048569485604379 -0.097432478354655572 0 0.33160491921710639 -0.08823361196494503 0 0.32188837554837879 -0.087093862119648077 0 0.33048569485604379 -0.097432478354655572 0 0.31633037311010292 -0.09618865871139104 0 0.32188837554837879 -0.087093862119648077 0 0.31633037311010292 -0.09618865871139104 0 0.32188837554837879 -0.087093862119648077 0 0.31367216537425419 -0.086170527369641925 0 0.32188837554837879 -0.087093862119648077 0 0.31367216537425419 -0.086170527369641925 0 0.31562839358434441 -0.081682823477573691 0 0.32188837554837879 -0.087093862119648077 0 0.31979728333377228 -0.078961566069315037 0 0.31562839358434441 -0.081682823477573691 0 0.31979728333377228 -0.078961566069315037 0 0.31562839358434441 -0.081682823477573691 0 0.31577972432920498 -0.07719335828295304 0 0.31367216537425419 -0.086170527369641925 0 0.31562839358434441 -0.081682823477573691 0 0.31145214100244972 -0.079264299398352889 0 0.31562839358434441 -0.081682823477573691 0 0.31577972432920498 -0.07719335828295304 0 0.31145214100244972 -0.079264299398352889 0 0.31577972432920498 -0.07719335828295304 0 0.31392772061172169 -0.073483054528621722 0 0.31145214100244972 -0.079264299398352889 0 0.31577972432920498 -0.07719335828295304 0 0.31392772061172169 -0.073483054528621722 0 0.31860314293785807 -0.072605953428521455 0 0.31392772061172169 -0.073483054528621722 0 0.31860314293785807 -0.072605953428521455 0 0.31886787138879918 -0.068255971434233245 0 0.31979728333377228 -0.078961566069315037 0 0.31577972432920498 -0.07719335828295304 0 0.31860314293785807 -0.072605953428521455 0 0.32812288555896951 -0.078679381610185298 0 0.31979728333377228 -0.078961566069315037 0 0.31860314293785807 -0.072605953428521455 0 0.32812288555896951 -0.078679381610185298 0 0.31860314293785807 -0.072605953428521455 0 0.32397887017978999 -0.069126240711213052 0 0.32513135483269229 -0.061547701673000069 0 0.33304009875907892 -0.070779888962705123 0 0.32397887017978999 -0.069126240711213052 0 0.32513135483269229 -0.061547701673000069 0 0.31681341485871911 -0.062209337401471568 0 0.32119787781500009 -0.065284812804979483 0 0.32397887017978999 -0.069126240711213052 0 0.32119787781500009 -0.065284812804979483 0 0.31886787138879918 -0.068255971434233245 0 0.31860314293785807 -0.072605953428521455 0 0.32397887017978999 -0.069126240711213052 0 0.31886787138879918 -0.068255971434233245 0 0.32513135483269229 -0.061547701673000069 0 0.32397887017978999 -0.069126240711213052 0 0.32119787781500009 -0.065284812804979483 0 0.31681341485871911 -0.062209337401471568 0 0.32119787781500009 -0.065284812804979483 0 0.31886787138879918 -0.068255971434233245 0 0.31681341485871911 -0.062209337401471568 0 0.31392772061172169 -0.073483054528621722 0 0.31886787138879918 -0.068255971434233245 0 0.31436327247316692 -0.059852210450764137 0 0.29941521848688468 -0.065950836928503842 0 0.30346314480047371 -0.07994146699276139 0 0.31436327247316692 -0.059852210450764137 0 0.30331879225295322 -0.084827889643393939 0 0.31681341485871911 -0.062209337401471568 0 0.30331879225295322 -0.084827889643393939 0 0.31681341485871911 -0.062209337401471568 0 0.31392772061172169 -0.073483054528621722 0 0.30331879225295322 -0.084827889643393939 0 0.31436327247316692 -0.059852210450764137 0 0.30346314480047371 -0.07994146699276139 0 0.30331879225295322 -0.084827889643393939 0 0.31436327247316692 -0.059852210450764137 0 0.31681341485871911 -0.062209337401471568 0 0.30331879225295322 -0.084827889643393939 0 0.29941521848688468 -0.065950836928503842 0 0.29915606159160379 -0.075275198291856749 0 0.30346314480047371 -0.07994146699276139 0 0.29941521848688468 -0.065950836928503842 0 0.29915606159160379 -0.075275198291856749 0 0.29555803589136159 -0.073777232528337039 0 0.29915606159160379 -0.075275198291856749 0 0.29818784718769531 -0.081431256717824724 0 0.29555803589136159 -0.073777232528337039 0 0.30331879225295322 -0.084827889643393939 0 0.29342120063071869 -0.10141740086700721 0 0.31392772061172169 -0.073483054528621722 0 0.31145214100244972 -0.079264299398352889 0 0.30331879225295322 -0.084827889643393939 0 0.31367216537425419 -0.086170527369641925 0 0.31145214100244972 -0.079264299398352889 0 0.30331879225295322 -0.084827889643393939 0 0.31633037311010292 -0.09618865871139104 0 0.31367216537425419 -0.086170527369641925 0 0.30331879225295322 -0.084827889643393939 0 0.30331879225295322 -0.084827889643393939 0 0.29818784718769531 -0.081431256717824724 0 0.29258589063464763 -0.09007026608467035 0 0.30346314480047371 -0.07994146699276139 0 0.30331879225295322 -0.084827889643393939 0 0.29818784718769531 -0.081431256717824724 0 0.30346314480047371 -0.07994146699276139 0 0.30331879225295322 -0.084827889643393939 0 0.29915606159160379 -0.075275198291856749 0 0.30346314480047371 -0.07994146699276139 0 0.29818784718769531 -0.081431256717824724 0 0.29258589063464763 -0.09007026608467035 0 0.28869479628946593 -0.080563092343006348 0 0.27980963523880842 -0.098137421274805375 0 0.29818784718769531 -0.081431256717824724 0 0.29258589063464763 -0.09007026608467035 0 0.28869479628946593 -0.080563092343006348 0 0.29818784718769531 -0.081431256717824724 0 0.28869479628946593 -0.080563092343006348 0 0.29555803589136159 -0.073777232528337039 0 0.28869479628946593 -0.080563092343006348 0 0.27980963523880842 -0.098137421274805375 0 0.27609566146913128 -0.078267930458990276 0 0.30331879225295322 -0.084827889643393939 0 0.29258589063464763 -0.09007026608467035 0 0.29342120063071869 -0.10141740086700721 0 0.28621189335858072 -0.072583747877803306 0 0.28413269030995558 -0.066225368698734882 0 0.27609566146913128 -0.078267930458990276 0 0.28869479628946593 -0.080563092343006348 0 0.28621189335858072 -0.072583747877803306 0 0.29102902817763632 -0.071991311995376783 0 0.28869479628946593 -0.080563092343006348 0 0.28621189335858072 -0.072583747877803306 0 0.27609566146913128 -0.078267930458990276 0 0.28413269030995558 -0.066225368698734882 0 0.29110729054671408 -0.065871035892908256 0 0.2883160216138187 -0.061544052143501879 0 0.28621189335858072 -0.072583747877803306 0 0.28413269030995558 -0.066225368698734882 0 0.29110729054671408 -0.065871035892908256 0 0.29941521848688468 -0.065950836928503842 0 0.29110729054671408 -0.065871035892908256 0 0.2926706307066963 -0.057007148351208722 0 0.29110729054671408 -0.065871035892908256 0 0.29488198494586931 -0.068791893893508205 0 0.29102902817763632 -0.071991311995376783 0 0.28621189335858072 -0.072583747877803306 0 0.29110729054671408 -0.065871035892908256 0 0.29102902817763632 -0.071991311995376783 0 0.29941521848688468 -0.065950836928503842 0 0.29488198494586931 -0.068791893893508205 0 0.29555803589136159 -0.073777232528337039 0 0.29941521848688468 -0.065950836928503842 0 0.29110729054671408 -0.065871035892908256 0 0.29488198494586931 -0.068791893893508205 0 0.29488198494586931 -0.068791893893508205 0 0.29555803589136159 -0.073777232528337039 0 0.29102902817763632 -0.071991311995376783 0 0.28869479628946593 -0.080563092343006348 0 0.29555803589136159 -0.073777232528337039 0 0.29102902817763632 -0.071991311995376783 0 0.30765321557058251 -0.11139267908551061 0 0.29418225673844639 -0.1054889959510221 0 0.29991007975369721 -0.12632691379984931 0 0.31633037311010292 -0.09618865871139104 0 0.30331879225295322 -0.084827889643393939 0 0.30765321557058251 -0.11139267908551061 0 0.30331879225295322 -0.084827889643393939 0 0.30765321557058251 -0.11139267908551061 0 0.30331879225295322 -0.084827889643393939 0 0.30765321557058251 -0.11139267908551061 0 0.29418225673844639 -0.1054889959510221 0 0.30331879225295322 -0.084827889643393939 0 0.29418225673844639 -0.1054889959510221 0 0.30331879225295322 -0.084827889643393939 0 0.29418225673844639 -0.1054889959510221 0 0.29342120063071869 -0.10141740086700721 0 0.29418225673844639 -0.1054889959510221 0 0.29342120063071869 -0.10141740086700721 0 0.2835236090084845 -0.1180069120906207 0 0.2835236090084845 -0.1180069120906207 0 0.27980963523880842 -0.098137421274805375 0 0.29342120063071869 -0.10141740086700721 0 0.2835236090084845 -0.1180069120906207 0 0.27980963523880842 -0.098137421274805375 0 0.29258589063464763 -0.09007026608467035 0 0.29342120063071869 -0.10141740086700721 0 0.27980963523880842 -0.098137421274805375 0 0.29418225673844639 -0.1054889959510221 0 0.28504572122393917 -0.12615010225865009 0 0.29418225673844639 -0.1054889959510221 0 0.28504572122393917 -0.12615010225865009 0 0.29991007975369721 -0.12632691379984931 0 0.29342120063071869 -0.10141740086700721 0 0.2835236090084845 -0.1180069120906207 0 0.29418225673844639 -0.1054889959510221 0 0.2835236090084845 -0.1180069120906207 0 0.28504572122393917 -0.12615010225865009 0 0.2835236090084845 -0.1180069120906207 0 0.28504572122393917 -0.12615010225865009 0 0.2835236090084845 -0.1180069120906207 0 0.27460570728132577 -0.1151285014322711 0 0.2725846947791985 -0.1363418007491061 0 0.2835236090084845 -0.1180069120906207 0 0.27460570728132577 -0.1151285014322711 0 0.27980963523880842 -0.098137421274805375 0 0.26637828110832562 -0.1181643237434457 0 0.27460570728132577 -0.1151285014322711 0 0.2778397464268369 -0.09733150368540619 0 0.26749827712629898 -0.1227890470502432 0 0.27460570728132577 -0.1151285014322711 0 0.2725846947791985 -0.1363418007491061 0 0.26749827712629898 -0.1227890470502432 0 0.26637828110832562 -0.1181643237434457 0 0.27460570728132577 -0.1151285014322711 0 0.26749827712629898 -0.1227890470502432 0 0.26637828110832562 -0.1181643237434457 0 0.27460570728132577 -0.1151285014322711 0 0.27980963523880842 -0.098137421274805375 0 0.2778397464268369 -0.09733150368540619 0 0.26637828110832562 -0.1181643237434457 0 0.2778397464268369 -0.09733150368540619 0 0.26879996450990978 -0.099136661927648501 0 0.26637828110832562 -0.1181643237434457 0 0.2778397464268369 -0.09733150368540619 0 0.2778397464268369 -0.09733150368540619 0 0.26879996450990978 -0.099136661927648501 0 0.27077415340560901 -0.0883663515749461 0 0.26637828110832562 -0.1181643237434457 0 0.26020767709886711 -0.092684468706796252 0 0.26637828110832562 -0.1181643237434457 0 0.26879996450990978 -0.099136661927648501 0 0.26020767709886711 -0.092684468706796252 0 0.26637828110832562 -0.1181643237434457 0 0.26020767709886711 -0.092684468706796252 0 0.2407550083839565 -0.11493204396159749 0 0.26637828110832562 -0.1181643237434457 0 0.25414326762960338 -0.1404031760303571 0 0.2407550083839565 -0.11493204396159749 0 0.27609566146913128 -0.078267930458990276 0 0.27238168769945292 -0.058398439643175468 0 0.27855534537971172 -0.061697581788972139 0 0.27609566146913128 -0.078267930458990276 0 0.27077415340560901 -0.0883663515749461 0 0.25403707308940587 -0.067204613670147656 0 0.28413269030995558 -0.066225368698734882 0 0.27609566146913128 -0.078267930458990276 0 0.27855534537971172 -0.061697581788972139 0 0.27609566146913128 -0.078267930458990276 0 0.25403707308940587 -0.067204613670147656 0 0.27238168769945292 -0.058398439643175468 0 0.27609566146913128 -0.078267930458990276 0 0.27238168769945292 -0.058398439643175468 0 0.2778397464268369 -0.09733150368540619 0 0.27609566146913128 -0.078267930458990276 0 0.27077415340560901 -0.0883663515749461 0 0.27980963523880842 -0.098137421274805375 0 0.2778397464268369 -0.09733150368540619 0 0.27609566146913128 -0.078267930458990276 0 0.27980963523880842 -0.098137421274805375 0 0.27609566146913128 -0.078267930458990276 0 0.26879996450990978 -0.099136661927648501 0 0.27077415340560901 -0.0883663515749461 0 0.26020767709886711 -0.092684468706796252 0 0.27077415340560901 -0.0883663515749461 0 0.26020767709886711 -0.092684468706796252 0 0.25403707308940587 -0.067204613670147656 0 0.26020767709886711 -0.092684468706796252 0 0.25403707308940587 -0.067204613670147656 0 0.25403707308940587 -0.067204613670147656 0 0.27238168769945292 -0.058398439643175468 0 0.25403707308940587 -0.067204613670147656 0 0.26145214049352572 -0.050393865958795372 0 0.24943564751753791 -0.048204260324924073 0 0.25403707308940587 -0.067204613670147656 0 0.26145214049352572 -0.050393865958795372 0 0.27238168769945292 -0.058398439643175468 0 0.25403707308940587 -0.067204613670147656 0 0.24943564751753791 -0.048204260324924073 0 0.27763833909603591 -0.047643211986021138 0 0.27380726323172849 -0.05771410440405067 0 0.26916771802442269 -0.041203934538768583 0 0.26145214049352572 -0.050393865958795372 0 0.27238168769945292 -0.058398439643175468 0 0.26916771802442269 -0.041203934538768583 0 0.27238168769945292 -0.058398439643175468 0 0.27380726323172849 -0.05771410440405067 0 0.26916771802442269 -0.041203934538768583 0 0.27238168769945292 -0.058398439643175468 0 0.26916771802442269 -0.041203934538768583 0 0.27238168769945292 -0.058398439643175468 0 0.27380726323172849 -0.05771410440405067 0 0.27763833909603591 -0.047643211986021138 0 0.27969950934703569 -0.053960310406946058 0 0.27380726323172849 -0.05771410440405067 0 0.27969950934703569 -0.053960310406946058 0 0.27855534537971172 -0.061697581788972139 0 0.28545403640958938 -0.057300600898742178 0 0.27969950934703569 -0.053960310406946058 0 0.27855534537971172 -0.061697581788972139 0 0.27380726323172849 -0.05771410440405067 0 0.27238168769945292 -0.058398439643175468 0 0.27855534537971172 -0.061697581788972139 0 0.27380726323172849 -0.05771410440405067 0 0.27763833909603591 -0.047643211986021138 0 0.27824285083624611 -0.037935629811762961 0 0.26916771802442269 -0.041203934538768583 0 0.26916771802442269 -0.041203934538768583 0 0.26963295669041548 -0.03358711579679239 0 0.25854506567659918 -0.038983986322598932 0 0.27824285083624611 -0.037935629811762961 0 0.26916771802442269 -0.041203934538768583 0 0.26963295669041548 -0.03358711579679239 0 0.27824285083624611 -0.037935629811762961 0 0.26963295669041548 -0.03358711579679239 0 0.27004402892133389 -0.028119469239118851 0 0.26963295669041548 -0.03358711579679239 0 0.25854506567659918 -0.038983986322598932 0 0.26315962227034478 -0.028883928512629071 0 0.25854506567659918 -0.038983986322598932 0 0.26315962227034478 -0.028883928512629071 0 0.2384223090633483 -0.031630812803683038 0 0.26145214049352572 -0.050393865958795372 0 0.26916771802442269 -0.041203934538768583 0 0.25854506567659918 -0.038983986322598932 0 0.26145214049352572 -0.050393865958795372 0 0.25854506567659918 -0.038983986322598932 0 0.24943564751753791 -0.048204260324924073 0 0.26315962227034478 -0.028883928512629071 0 0.2384223090633483 -0.031630812803683038 0 0.2600658673723853 -0.026636167505362251 0 0.2448880494862031 -0.024379911833934301 0 0.2600658673723853 -0.026636167505362251 0 0.2581532400794046 -0.0095009095219926679 0 0.26706602957404862 -0.022815986914685359 0 0.2600658673723853 -0.026636167505362251 0 0.24280283504346559 -0.01409374827181234 0 0.2600658673723853 -0.026636167505362251 0 0.24514111334575969 -0.02876150478760282 0 0.2448880494862031 -0.024379911833934301 0 0.2600658673723853 -0.026636167505362251 0 0.2581532400794046 -0.0095009095219926679 0 0.24280283504346559 -0.01409374827181234 0 0.26315962227034478 -0.028883928512629071 0 0.2600658673723853 -0.026636167505362251 0 0.24514111334575969 -0.02876150478760282 0 0.26315962227034478 -0.028883928512629071 0 0.2600658673723853 -0.026636167505362251 0 0.27004402892133389 -0.028119469239118851 0 0.2600658673723853 -0.026636167505362251 0 0.27004402892133389 -0.028119469239118851 0 0.26315962227034478 -0.028883928512629071 0 0.2600658673723853 -0.026636167505362251 0 0.26532444101188613 0.0090957432853925047 0 0.2581532400794046 -0.0095009095219926679 0 0.27355511092208018 -0.0042748797083180124 0 0.27355511092208018 -0.0042748797083180124 0 0.26706602957404862 -0.022815986914685359 0 0.29157848128369401 -0.0089967942718864099 0 0.2581532400794046 -0.0095009095219926679 0 0.27355511092208018 -0.0042748797083180124 0 0.26706602957404862 -0.022815986914685359 0 0.27004402892133389 -0.028119469239118851 0 0.29111179558239109 -0.025780059263405122 0 0.27004402892133389 -0.028119469239118851 0 0.26706602957404862 -0.022815986914685359 0 0.29111179558239109 -0.025780059263405122 0 0.26706602957404862 -0.022815986914685359 0 0.29157848128369401 -0.0089967942718864099 0 0.2600658673723853 -0.026636167505362251 0 0.27004402892133389 -0.028119469239118851 0 0.26706602957404862 -0.022815986914685359 0 0.26963295669041548 -0.03358711579679239 0 0.26315962227034478 -0.028883928512629071 0 0.26963295669041548 -0.03358711579679239 0 0.26315962227034478 -0.028883928512629071 0 0.27004402892133389 -0.028119469239118851 0 0.26315962227034478 -0.028883928512629071 0 0.27004402892133389 -0.028119469239118851 0 0.29111179558239109 -0.025780059263405122 0 0.29157848128369401 -0.0089967942718864099 0 0.30591258341268829 -0.01269603844956785 0 0.26706602957404862 -0.022815986914685359 0 0.29111179558239109 -0.025780059263405122 0 0.29157848128369401 -0.0089967942718864099 0 0.27004402892133389 -0.028119469239118851 0 0.29111179558239109 -0.025780059263405122 0 0.29742028800249432 -0.032189081898691442 0 0.27004402892133389 -0.028119469239118851 0 0.29742028800249432 -0.032189081898691442 0 0.28382125430596827 0.0078832136211474477 0 0.27355511092208018 -0.0042748797083180124 0 0.29157848128369401 -0.0089967942718864099 0 0.31609093299333962 0.0048223983709125874 0 0.29157848128369401 -0.0089967942718864099 0 0.30591258341268829 -0.01269603844956785 0 0.31609093299333962 0.0048223983709125874 0 0.29157848128369401 -0.0089967942718864099 0 0.31860214496056849 -0.0100850877957698 0 0.30591258341268829 -0.01269603844956785 0 0.31217956224344823 -0.023440649287690511 0 0.29111179558239109 -0.025780059263405122 0 0.31217956224344823 -0.023440649287690511 0 0.29111179558239109 -0.025780059263405122 0 0.30591258341268829 -0.01269603844956785 0 0.31217956224344823 -0.023440649287690511 0 0.29111179558239109 -0.025780059263405122 0 0.31217956224344823 -0.023440649287690511 0 0.29742028800249432 -0.032189081898691442 0 0.3247965470836558 -0.036258694558257067 0 0.31217956224344823 -0.023440649287690511 0 0.29742028800249432 -0.032189081898691442 0 0.3247965470836558 -0.036258694558257067 0 0.29742028800249432 -0.032189081898691442 0 0.3247965470836558 -0.036258694558257067 0 0.29742028800249432 -0.032189081898691442 0 0.3029586082017125 -0.048532089344381177 0 0.29941521848688468 -0.065950836928503842 0 0.3029586082017125 -0.048532089344381177 0 0.2926706307066963 -0.057007148351208722 0 0.31436327247316692 -0.059852210450764137 0 0.29941521848688468 -0.065950836928503842 0 0.3029586082017125 -0.048532089344381177 0 0.3029586082017125 -0.048532089344381177 0 0.2926706307066963 -0.057007148351208722 0 0.28789326425765382 -0.047383540491791207 0 0.29110729054671408 -0.065871035892908256 0 0.2926706307066963 -0.057007148351208722 0 0.2883160216138187 -0.061544052143501879 0 0.28413269030995558 -0.066225368698734882 0 0.2883160216138187 -0.061544052143501879 0 0.28545403640958938 -0.057300600898742178 0 0.28413269030995558 -0.066225368698734882 0 0.27855534537971172 -0.061697581788972139 0 0.28545403640958938 -0.057300600898742178 0 0.2926706307066963 -0.057007148351208722 0 0.2883160216138187 -0.061544052143501879 0 0.28545403640958938 -0.057300600898742178 0 0.27763833909603591 -0.047643211986021138 0 0.27969950934703569 -0.053960310406946058 0 0.28789326425765382 -0.047383540491791207 0 0.27969950934703569 -0.053960310406946058 0 0.28545403640958938 -0.057300600898742178 0 0.28789326425765382 -0.047383540491791207 0 0.2926706307066963 -0.057007148351208722 0 0.28545403640958938 -0.057300600898742178 0 0.28789326425765382 -0.047383540491791207 0 0.27824285083624611 -0.037935629811762961 0 0.27004402892133389 -0.028119469239118851 0 0.29742028800249432 -0.032189081898691442 0 0.27824285083624611 -0.037935629811762961 0 0.29742028800249432 -0.032189081898691442 0 0.28789326425765382 -0.047383540491791207 0 0.27763833909603591 -0.047643211986021138 0 0.27824285083624611 -0.037935629811762961 0 0.28789326425765382 -0.047383540491791207 0 0.29742028800249432 -0.032189081898691442 0 0.3029586082017125 -0.048532089344381177 0 0.28789326425765382 -0.047383540491791207 0 0.29164871895274469 -0.2117572099209534 0 0.28313730656159619 -0.21673115236240309 0 0.26997435283932347 -0.21267830999099691 0 0.29164871895274469 -0.2117572099209534 0 0.28841740050171361 -0.2056096340851192 0 0.26997435283932347 -0.21267830999099691 0 0.28841740050171361 -0.2056096340851192 0 0.2998843713082846 -0.20553580605042621 0 0.29164871895274469 -0.2117572099209534 0 0.28841740050171361 -0.2056096340851192 0 0.2998843713082846 -0.20553580605042621 0 0.29164871895274469 -0.2117572099209534 0 0.28841740050171361 -0.2056096340851192 0 0.29164871895274469 -0.2117572099209534 0 0.30097319717530763 -0.21136094561966079 0 0.29164871895274469 -0.2117572099209534 0 0.28313730656159619 -0.21673115236240309 0 0.28848131862547738 -0.22112924597907679 0 0.28841740050171361 -0.2056096340851192 0 0.27955493438826312 -0.1887488129216825 0 0.28841740050171361 -0.2056096340851192 0 0.29281626566860341 -0.19242195621365321 0 0.27955493438826312 -0.1887488129216825 0 0.29281626566860341 -0.19242195621365321 0 0.29822748731562959 -0.19667159663039169 0 0.28841740050171361 -0.2056096340851192 0 0.29822748731562959 -0.19667159663039169 0 0.2998843713082846 -0.20553580605042621 0 0.28841740050171361 -0.2056096340851192 0 0.29281626566860341 -0.19242195621365321 0 0.29822748731562959 -0.19667159663039169 0 0.29822748731562959 -0.19667159663039169 0 0.2998843713082846 -0.20553580605042621 0 0.29822748731562959 -0.19667159663039169 0 0.30943629932960087 -0.20547430767520031 0 0.29822748731562959 -0.19667159663039169 0 0.30943629932960087 -0.20547430767520031 0 0.2998843713082846 -0.20553580605042621 0 0.29822748731562959 -0.19667159663039169 0 0.3091368369162375 -0.19431797460293351 0 0.30765624152450421 -0.1827449539490312 0 0.29822748731562959 -0.19667159663039169 0 0.3091368369162375 -0.19431797460293351 0 0.30943629932960087 -0.20547430767520031 0 0.30943629932960087 -0.20547430767520031 0 0.30097319717530763 -0.21136094561966079 0 0.31611272074983149 -0.21071755811979459 0 0.29164871895274469 -0.2117572099209534 0 0.30097319717530763 -0.21136094561966079 0 0.30464671897225237 -0.2310140213096509 0 0.30943629932960087 -0.20547430767520031 0 0.2998843713082846 -0.20553580605042621 0 0.30097319717530763 -0.21136094561966079 0 0.30943629932960087 -0.20547430767520031 0 0.2998843713082846 -0.20553580605042621 0 0.29164871895274469 -0.2117572099209534 0 0.2998843713082846 -0.20553580605042621 0 0.30097319717530763 -0.21136094561966079 0 0.2998843713082846 -0.20553580605042621 0 0.30097319717530763 -0.21136094561966079 0 0.30097319717530763 -0.21136094561966079 0 0.30802931067252159 -0.2200063357049182 0 0.31611272074983149 -0.21071755811979459 0 0.30097319717530763 -0.21136094561966079 0 0.31611272074983149 -0.21071755811979459 0 0.30097319717530763 -0.21136094561966079 0 0.30464671897225237 -0.2310140213096509 0 0.30802931067252159 -0.2200063357049182 0 0.31221786754196001 -0.22583276532139809 0 0.31611272074983149 -0.21071755811979459 0 0.30097319717530763 -0.21136094561966079 0 0.30802931067252159 -0.2200063357049182 0 0.30464671897225237 -0.2310140213096509 0 0.29164871895274469 -0.2117572099209534 0 0.30481024926903522 -0.23679699072906371 0 0.29164871895274469 -0.2117572099209534 0 0.30464671897225237 -0.2310140213096509 0 0.30481024926903522 -0.23679699072906371 0 0.30802931067252159 -0.2200063357049182 0 0.31221786754196001 -0.22583276532139809 0 0.30464671897225237 -0.2310140213096509 0 0.31221786754196001 -0.22583276532139809 0 0.31106567155014297 -0.23398717286458809 0 0.30464671897225237 -0.2310140213096509 0 0.31106567155014297 -0.23398717286458809 0 0.30464671897225237 -0.2310140213096509 0 0.30481024926903522 -0.23679699072906371 0 0.30481024926903522 -0.23679699072906371 0 0.29550409363443991 -0.23481172573318759 0 0.29355456629598081 -0.2267637197472937 0 0.30656811669035422 -0.24282376329671629 0 0.3142518679516812 -0.24175329590561981 0 0.30596458333229848 -0.25011871757841392 0 0.31106567155014297 -0.23398717286458809 0 0.30481024926903522 -0.23679699072906371 0 0.3142518679516812 -0.24175329590561981 0 0.30656811669035422 -0.24282376329671629 0 0.30481024926903522 -0.23679699072906371 0 0.3142518679516812 -0.24175329590561981 0 0.30481024926903522 -0.23679699072906371 0 0.29976010694281718 -0.23948837896333211 0 0.29550409363443991 -0.23481172573318759 0 0.30656811669035422 -0.24282376329671629 0 0.30481024926903522 -0.23679699072906371 0 0.29976010694281718 -0.23948837896333211 0 0.30021026772284309 -0.2446312496852466 0 0.30596458333229848 -0.25011871757841392 0 0.29674191249025211 -0.25001051837835092 0 0.30656811669035422 -0.24282376329671629 0 0.29976010694281718 -0.23948837896333211 0 0.30021026772284309 -0.2446312496852466 0 0.30656811669035422 -0.24282376329671629 0 0.30021026772284309 -0.2446312496852466 0 0.30596458333229848 -0.25011871757841392 0 0.29976010694281718 -0.23948837896333211 0 0.30021026772284309 -0.2446312496852466 0 0.2924548711073785 -0.24362535032968161 0 0.2924548711073785 -0.24362535032968161 0 0.29674191249025211 -0.25001051837835092 0 0.2874747334709627 -0.25357418150246319 0 0.30021026772284309 -0.2446312496852466 0 0.2924548711073785 -0.24362535032968161 0 0.29674191249025211 -0.25001051837835092 0 0.2924548711073785 -0.24362535032968161 0 0.29550409363443991 -0.23481172573318759 0 0.28571851530735931 -0.23749736811558561 0 0.29976010694281718 -0.23948837896333211 0 0.2924548711073785 -0.24362535032968161 0 0.29550409363443991 -0.23481172573318759 0 0.28571851530735931 -0.23749736811558561 0 0.28427468326170707 -0.24534951353512419 0 0.27715999231719401 -0.24105564948440861 0 0.2924548711073785 -0.24362535032968161 0 0.28571851530735931 -0.23749736811558561 0 0.28427468326170707 -0.24534951353512419 0 0.28427468326170707 -0.24534951353512419 0 0.2874747334709627 -0.25357418150246319 0 0.27856530410564118 -0.25099501824348169 0 0.2924548711073785 -0.24362535032968161 0 0.28427468326170707 -0.24534951353512419 0 0.2874747334709627 -0.25357418150246319 0 0.29164871895274469 -0.2117572099209534 0 0.30481024926903522 -0.23679699072906371 0 0.29355456629598081 -0.2267637197472937 0 0.29355456629598081 -0.2267637197472937 0 0.2873284509982062 -0.2293234263741874 0 0.28848131862547738 -0.22112924597907679 0 0.29164871895274469 -0.2117572099209534 0 0.29355456629598081 -0.2267637197472937 0 0.28848131862547738 -0.22112924597907679 0 0.29550409363443991 -0.23481172573318759 0 0.29355456629598081 -0.2267637197472937 0 0.2873284509982062 -0.2293234263741874 0 0.29550409363443991 -0.23481172573318759 0 0.28571851530735931 -0.23749736811558561 0 0.2873284509982062 -0.2293234263741874 0 0.28571851530735931 -0.23749736811558561 0 0.2873284509982062 -0.2293234263741874 0 0.27796343897373099 -0.22791491534153871 0 0.2873284509982062 -0.2293234263741874 0 0.28244483582883922 -0.2213598435585856 0 0.27796343897373099 -0.22791491534153871 0 0.2873284509982062 -0.2293234263741874 0 0.28848131862547738 -0.22112924597907679 0 0.28244483582883922 -0.2213598435585856 0 0.28313730656159619 -0.21673115236240309 0 0.28848131862547738 -0.22112924597907679 0 0.28244483582883922 -0.2213598435585856 0 0.28244483582883922 -0.2213598435585856 0 0.27796343897373099 -0.22791491534153871 0 0.26997435283932347 -0.21267830999099691 0 0.27796343897373099 -0.22791491534153871 0 0.26849883750948761 -0.22918196712913061 0 0.26997435283932347 -0.21267830999099691 0 0.27796343897373099 -0.22791491534153871 0 0.26849883750948761 -0.22918196712913061 0 0.27715999231719401 -0.24105564948440861 0 0.26849883750948761 -0.22918196712913061 0 0.27715999231719401 -0.24105564948440861 0 0.26760100559634659 -0.25263183860786131 0 0.26849883750948761 -0.22918196712913061 0 0.26760100559634659 -0.25263183860786131 0 0.27715999231719401 -0.24105564948440861 0 0.27856530410564118 -0.25099501824348169 0 0.26760100559634659 -0.25263183860786131 0 0.28427468326170707 -0.24534951353512419 0 0.27715999231719401 -0.24105564948440861 0 0.27856530410564118 -0.25099501824348169 0 0.28571851530735931 -0.23749736811558561 0 0.27796343897373099 -0.22791491534153871 0 0.27715999231719401 -0.24105564948440861 0 0.26849883750948761 -0.22918196712913061 0 0.25385053846730632 -0.24215592545976461 0 0.26760100559634659 -0.25263183860786131 0 0.26849883750948761 -0.22918196712913061 0 0.25237873260421839 -0.2289608231683557 0 0.25980368832771239 -0.21684914344379419 0 0.26849883750948761 -0.22918196712913061 0 0.25385053846730632 -0.24215592545976461 0 0.25237873260421839 -0.2289608231683557 0 0.25237873260421839 -0.2289608231683557 0 0.25980368832771239 -0.21684914344379419 0 0.24539687245749331 -0.21581090180767801 0 0.25645001865589412 -0.19081562561394491 0 0.24539687245749331 -0.21581090180767801 0 0.26543075141552741 -0.20575762950211879 0 0.25645001865589412 -0.19081562561394491 0 0.24539687245749331 -0.21581090180767801 0 0.26543075141552741 -0.20575762950211879 0 0.25980368832771239 -0.21684914344379419 0 0.24539687245749331 -0.21581090180767801 0 0.26543075141552741 -0.20575762950211879 0 0.25980368832771239 -0.21684914344379419 0 0.26939666942262869 -0.20573209565039979 0 0.28841740050171361 -0.2056096340851192 0 0.26997435283932347 -0.21267830999099691 0 0.26939666942262869 -0.20573209565039979 0 0.26849883750948761 -0.22918196712913061 0 0.26939666942262869 -0.20573209565039979 0 0.29164871895274469 -0.2117572099209534 0 0.26997435283932347 -0.21267830999099691 0 0.28841740050171361 -0.2056096340851192 0 0.26939666942262869 -0.20573209565039979 0 0.26849883750948761 -0.22918196712913061 0 0.25980368832771239 -0.21684914344379419 0 0.26939666942262869 -0.20573209565039979 0 0.26849883750948761 -0.22918196712913061 0 0.26997435283932347 -0.21267830999099691 0 0.26939666942262869 -0.20573209565039979 0 0.26543075141552741 -0.20575762950211879 0 0.26939666942262869 -0.20573209565039979 0 0.28313730656159619 -0.21673115236240309 0 0.28244483582883922 -0.2213598435585856 0 0.26997435283932347 -0.21267830999099691 0 0.26939666942262869 -0.20573209565039979 0 0.27955493438826312 -0.1887488129216825 0 0.27004456884872141 -0.18881004370432269 0 0.26939666942262869 -0.20573209565039979 0 0.27004456884872141 -0.18881004370432269 0 0.26939666942262869 -0.20573209565039979 0 0.27004456884872141 -0.18881004370432269 0 0.2644999777546001 -0.19670185101116791 0 0.28841740050171361 -0.2056096340851192 0 0.26939666942262869 -0.20573209565039979 0 0.27955493438826312 -0.1887488129216825 0 0.26543075141552741 -0.20575762950211879 0 0.26939666942262869 -0.20573209565039979 0 0.2644999777546001 -0.19670185101116791 0 0.27004456884872141 -0.18881004370432269 0 0.2644999777546001 -0.19670185101116791 0 0.25645001865589412 -0.19081562561394491 0 0.26543075141552741 -0.20575762950211879 0 0.2644999777546001 -0.19670185101116791 0 0.25645001865589412 -0.19081562561394491 0 0.25645001865589412 -0.19081562561394491 0 0.26750316485429149 -0.16582034942021021 0 0.25645001865589412 -0.19081562561394491 0 0.26750316485429149 -0.16582034942021021 0 0.27069246827481308 -0.1718879917582456 0 0.25645001865589412 -0.19081562561394491 0 0.26750316485429149 -0.16582034942021021 0 0.24902230615813939 -0.1758350962297997 0 0.26164578054991139 -0.1546766894075908 0 0.24902230615813939 -0.1758350962297997 0 0.26164578054991139 -0.1546766894075908 0 0.24426321252287869 -0.15836156132245191 0 0.24902230615813939 -0.1758350962297997 0 0.26750316485429149 -0.16582034942021021 0 0.26164578054991139 -0.1546766894075908 0 0.24902230615813939 -0.1758350962297997 0 0.26750316485429149 -0.16582034942021021 0 0.26164578054991139 -0.1546766894075908 0 0.26750316485429149 -0.16582034942021021 0 0.2800248953411501 -0.15797521552331581 0 0.27627444303911791 -0.1459852258394313 0 0.26750316485429149 -0.16582034942021021 0 0.27069246827481308 -0.1718879917582456 0 0.27089475498815158 -0.16660460033476149 0 0.27760790769064497 -0.1645626417774749 0 0.27069246827481308 -0.1718879917582456 0 0.27089475498815158 -0.16660460033476149 0 0.27069246827481308 -0.1718879917582456 0 0.26750316485429149 -0.16582034942021021 0 0.27089475498815158 -0.16660460033476149 0 0.27069246827481308 -0.1718879917582456 0 0.26750316485429149 -0.16582034942021021 0 0.27089475498815158 -0.16660460033476149 0 0.2800248953411501 -0.15797521552331581 0 0.27089475498815158 -0.16660460033476149 0 0.2800248953411501 -0.15797521552331581 0 0.27760790769064497 -0.1645626417774749 0 0.2800248953411501 -0.15797521552331581 0 0.27760790769064497 -0.1645626417774749 0 0.28219598818050162 -0.16961884407565239 0 0.27760790769064497 -0.1645626417774749 0 0.27069246827481308 -0.1718879917582456 0 0.28219598818050162 -0.16961884407565239 0 0.27955493438826312 -0.1887488129216825 0 0.27069246827481308 -0.1718879917582456 0 0.28508326796674432 -0.17970095726038801 0 0.27955493438826312 -0.1887488129216825 0 0.27004456884872141 -0.18881004370432269 0 0.27069246827481308 -0.1718879917582456 0 0.27069246827481308 -0.1718879917582456 0 0.28508326796674432 -0.17970095726038801 0 0.28219598818050162 -0.16961884407565239 0 0.27004456884872141 -0.18881004370432269 0 0.27069246827481308 -0.1718879917582456 0 0.27955493438826312 -0.1887488129216825 0 0.27069246827481308 -0.1718879917582456 0 0.27004456884872141 -0.18881004370432269 0 0.25645001865589412 -0.19081562561394491 0 0.27069246827481308 -0.1718879917582456 0 0.26749827712629898 -0.1227890470502432 0 0.26637828110832562 -0.1181643237434457 0 0.25414326762960338 -0.1404031760303571 0 0.26637828110832562 -0.1181643237434457 0 0.25414326762960338 -0.1404031760303571 0 0.26749827712629898 -0.1227890470502432 0 0.25414326762960338 -0.1404031760303571 0 0.2725846947791985 -0.1363418007491061 0 0.25414326762960338 -0.1404031760303571 0 0.26164578054991139 -0.1546766894075908 0 0.2725846947791985 -0.1363418007491061 0 0.25414326762960338 -0.1404031760303571 0 0.26164578054991139 -0.1546766894075908 0 0.24426321252287869 -0.15836156132245191 0 0.25414326762960338 -0.1404031760303571 0 0.26164578054991139 -0.1546766894075908 0 0.26164578054991139 -0.1546766894075908 0 0.27627444303911791 -0.1459852258394313 0 0.2725846947791985 -0.1363418007491061 0 0.26164578054991139 -0.1546766894075908 0 0.2725846947791985 -0.1363418007491061 0 0.26750316485429149 -0.16582034942021021 0 0.27627444303911791 -0.1459852258394313 0 0.26750316485429149 -0.16582034942021021 0 0.26164578054991139 -0.1546766894075908 0 0.27627444303911791 -0.1459852258394313 0 0.27627444303911791 -0.1459852258394313 0 0.28504572122393917 -0.12615010225865009 0 0.27627444303911791 -0.1459852258394313 0 0.2725846947791985 -0.1363418007491061 0 0.28504572122393917 -0.12615010225865009 0 0.2835236090084845 -0.1180069120906207 0 0.2725846947791985 -0.1363418007491061 0 0.2835236090084845 -0.1180069120906207 0 0.2725846947791985 -0.1363418007491061 0 0.28504572122393917 -0.12615010225865009 0 0.27627444303911791 -0.1459852258394313 0 0.28504572122393917 -0.12615010225865009 0 0.28943964325450089 -0.14965726704923099 0 0.28504572122393917 -0.12615010225865009 0 0.28943964325450089 -0.14965726704923099 0 0.29991007975369721 -0.12632691379984931 0 0.28504572122393917 -0.12615010225865009 0 0.28943964325450089 -0.14965726704923099 0 0.2800248953411501 -0.15797521552331581 0 0.27627444303911791 -0.1459852258394313 0 0.28943964325450089 -0.14965726704923099 0 0.28943964325450089 -0.14965726704923099 0 0.31133747637580872 -0.1390472162873162 0 0.31502173718103482 -0.16670175348912181 0 0.30765321557058251 -0.11139267908551061 0 0.29991007975369721 -0.12632691379984931 0 0.31133747637580872 -0.1390472162873162 0 0.28943964325450089 -0.14965726704923099 0 0.29991007975369721 -0.12632691379984931 0 0.31133747637580872 -0.1390472162873162 0 0.30765321557058251 -0.11139267908551061 0 0.31133747637580872 -0.1390472162873162 0 0.29281626566860341 -0.19242195621365321 0 0.29383356528506471 -0.17316443183981151 0 0.28508326796674432 -0.17970095726038801 0 0.29822748731562959 -0.19667159663039169 0 0.29383356528506471 -0.17316443183981151 0 0.29281626566860341 -0.19242195621365321 0 0.29822748731562959 -0.19667159663039169 0 0.29383356528506471 -0.17316443183981151 0 0.29281626566860341 -0.19242195621365321 0 0.27955493438826312 -0.1887488129216825 0 0.28508326796674432 -0.17970095726038801 0 0.29383356528506471 -0.17316443183981151 0 0.28508326796674432 -0.17970095726038801 0 0.28219598818050162 -0.16961884407565239 0 0.2800248953411501 -0.15797521552331581 0 0.28943964325450089 -0.14965726704923099 0 0.29383356528506471 -0.17316443183981151 0 0.28943964325450089 -0.14965726704923099 0 0.29383356528506471 -0.17316443183981151 0 0.2800248953411501 -0.15797521552331581 0 0.29383356528506471 -0.17316443183981151 0 0.28219598818050162 -0.16961884407565239 0 0.28943964325450089 -0.14965726704923099 0 0.29383356528506471 -0.17316443183981151 0 0.31502173718103482 -0.16670175348912181 0 0.29383356528506471 -0.17316443183981151 0 0.30765624152450421 -0.1827449539490312 0 0.31502173718103482 -0.16670175348912181 0 0.29822748731562959 -0.19667159663039169 0 0.29383356528506471 -0.17316443183981151 0 0.30765624152450421 -0.1827449539490312 0 0.32419190369824041 -0.1858149146624096 0 0.31502173718103482 -0.16670175348912181 0 0.33152824761601302 -0.17022055291656971 0 0.30765624152450421 -0.1827449539490312 0 0.32419190369824041 -0.1858149146624096 0 0.31502173718103482 -0.16670175348912181 0 0.31502173718103482 -0.16670175348912181 0 0.33152824761601302 -0.17022055291656971 0 0.32858524879120771 -0.1507646114596852 0 0.33152824761601302 -0.17022055291656971 0 0.32858524879120771 -0.1507646114596852 0 0.34503279624064193 -0.16321301730709911 0 0.33152824761601302 -0.17022055291656971 0 0.3448095521689406 -0.18460846766453251 0 0.34503279624064193 -0.16321301730709911 0 0.32419190369824041 -0.1858149146624096 0 0.33152824761601302 -0.17022055291656971 0 0.3448095521689406 -0.18460846766453251 0 0.30765321557058251 -0.11139267908551061 0 0.31133747637580872 -0.1390472162873162 0 0.32367360648566063 -0.12601740163876429 0 0.31133747637580872 -0.1390472162873162 0 0.32367360648566063 -0.12601740163876429 0 0.32858524879120771 -0.1507646114596852 0 0.31133747637580872 -0.1390472162873162 0 0.31502173718103482 -0.16670175348912181 0 0.32858524879120771 -0.1507646114596852 0 0.31133747637580872 -0.1390472162873162 0 0.31502173718103482 -0.16670175348912181 0 0.32858524879120771 -0.1507646114596852 0 0.34576752214088452 -0.1378210766311303 0 0.34503279624064193 -0.16321301730709911 0 0.3348568581563266 -0.1131731990593282 0 0.32367360648566063 -0.12601740163876429 0 0.34576752214088452 -0.1378210766311303 0 0.32367360648566063 -0.12601740163876429 0 0.32858524879120771 -0.1507646114596852 0 0.34576752214088452 -0.1378210766311303 0 0.34576752214088452 -0.1378210766311303 0 0.3692620041497095 -0.14542385216502299 0 0.36048106725318202 -0.15887805678387179 0 0.34576752214088452 -0.1378210766311303 0 0.34503279624064193 -0.16321301730709911 0 0.36048106725318202 -0.15887805678387179 0 0.3692620041497095 -0.14542385216502299 0 0.36048106725318202 -0.15887805678387179 0 0.37710971538885152 -0.16327254263403121 0 0.36398568324058211 -0.1189466736487408 0 0.3692620041497095 -0.14542385216502299 0 0.37419074920783912 -0.1243923194379741 0 0.3692620041497095 -0.14542385216502299 0 0.37880767810669119 -0.13656759059703269 0 0.37419074920783912 -0.1243923194379741 0 0.36398568324058211 -0.1189466736487408 0 0.3692620041497095 -0.14542385216502299 0 0.36398568324058211 -0.1189466736487408 0 0.34576752214088452 -0.1378210766311303 0 0.3692620041497095 -0.14542385216502299 0 0.35686049610614162 -0.17453091400790199 0 0.3448095521689406 -0.18460846766453251 0 0.34503279624064193 -0.16321301730709911 0 0.35686049610614162 -0.17453091400790199 0 0.3448095521689406 -0.18460846766453251 0 0.35421019690002681 -0.1945232637970119 0 0.35686049610614162 -0.17453091400790199 0 0.34503279624064193 -0.16321301730709911 0 0.36048106725318202 -0.15887805678387179 0 0.35686049610614162 -0.17453091400790199 0 0.36048106725318202 -0.15887805678387179 0 0.37710971538885152 -0.16327254263403121 0 0.35686049610614162 -0.17453091400790199 0 0.37082357516048398 -0.18172916107243231 0 0.37710971538885152 -0.16327254263403121 0 0.35686049610614162 -0.17453091400790199 0 0.37082357516048398 -0.18172916107243231 0 0.35421019690002681 -0.1945232637970119 0 0.37082357516048398 -0.18172916107243231 0 0.36548349661101848 -0.2028344423058954 0 0.35421019690002681 -0.1945232637970119 0 0.37082357516048398 -0.18172916107243231 0 0.36548349661101848 -0.2028344423058954 0 0.38319681139956019 -0.20881456008042959 0 0.36548349661101848 -0.2028344423058954 0 0.36946321937152632 -0.2150943603065181 0 0.38319681139956019 -0.20881456008042959 0 0.36548349661101848 -0.2028344423058954 0 0.36946321937152632 -0.2150943603065181 0 0.36159363328387789 -0.21065898489603879 0 0.36548349661101848 -0.2028344423058954 0 0.36159363328387789 -0.21065898489603879 0 0.35667439542545798 -0.20517675760383991 0 0.36946321937152632 -0.2150943603065181 0 0.36159363328387789 -0.21065898489603879 0 0.35899905985565372 -0.22345974408473379 0 0.36159363328387789 -0.21065898489603879 0 0.35484719429142658 -0.21572893020123571 0 0.35289063178884961 -0.21036556065874859 0 0.36159363328387789 -0.21065898489603879 0 0.35484719429142658 -0.21572893020123571 0 0.35899905985565372 -0.22345974408473379 0 0.35484719429142658 -0.21572893020123571 0 0.35289063178884961 -0.21036556065874859 0 0.34747427673158432 -0.2172790467931025 0 0.36159363328387789 -0.21065898489603879 0 0.35289063178884961 -0.21036556065874859 0 0.35667439542545798 -0.20517675760383991 0 0.35289063178884961 -0.21036556065874859 0 0.35667439542545798 -0.20517675760383991 0 0.35007146662228811 -0.2039312304263031 0 0.35007146662228811 -0.2039312304263031 0 0.34573588142051959 -0.20524059932700811 0 0.34668282437846248 -0.20941841403197209 0 0.35289063178884961 -0.21036556065874859 0 0.35007146662228811 -0.2039312304263031 0 0.34668282437846248 -0.20941841403197209 0 0.35289063178884961 -0.21036556065874859 0 0.34668282437846248 -0.20941841403197209 0 0.34747427673158432 -0.2172790467931025 0 0.34668282437846248 -0.20941841403197209 0 0.34747427673158432 -0.2172790467931025 0 0.33941951412029608 -0.21683831471265591 0 0.36548349661101848 -0.2028344423058954 0 0.35667439542545798 -0.20517675760383991 0 0.35421019690002681 -0.1945232637970119 0 0.35667439542545798 -0.20517675760383991 0 0.35007146662228811 -0.2039312304263031 0 0.35421019690002681 -0.1945232637970119 0 0.35007146662228811 -0.2039312304263031 0 0.35421019690002681 -0.1945232637970119 0 0.34561223231608418 -0.19770206070522811 0 0.35007146662228811 -0.2039312304263031 0 0.34573588142051959 -0.20524059932700811 0 0.34561223231608418 -0.19770206070522811 0 0.3448095521689406 -0.18460846766453251 0 0.35421019690002681 -0.1945232637970119 0 0.34561223231608418 -0.19770206070522811 0 0.32419190369824041 -0.1858149146624096 0 0.33726531814235788 -0.19468372783631979 0 0.3301198593266918 -0.20534114028419451 0 0.3448095521689406 -0.18460846766453251 0 0.34561223231608418 -0.19770206070522811 0 0.33726531814235788 -0.19468372783631979 0 0.32419190369824041 -0.1858149146624096 0 0.3448095521689406 -0.18460846766453251 0 0.33726531814235788 -0.19468372783631979 0 0.33726531814235788 -0.19468372783631979 0 0.33968332280141339 -0.2007418820381876 0 0.3301198593266918 -0.20534114028419451 0 0.34561223231608418 -0.19770206070522811 0 0.33726531814235788 -0.19468372783631979 0 0.33968332280141339 -0.2007418820381876 0 0.34573588142051959 -0.20524059932700811 0 0.34561223231608418 -0.19770206070522811 0 0.33968332280141339 -0.2007418820381876 0 0.33941951412029608 -0.21683831471265591 0 0.3315528785953793 -0.21006139450243511 0 0.33664814894159351 -0.22684481945026891 0 0.3315528785953793 -0.21006139450243511 0 0.33664814894159351 -0.22684481945026891 0 0.34573588142051959 -0.20524059932700811 0 0.33968332280141339 -0.2007418820381876 0 0.3301198593266918 -0.20534114028419451 0 0.34573588142051959 -0.20524059932700811 0 0.34668282437846248 -0.20941841403197209 0 0.3315528785953793 -0.21006139450243511 0 0.34668282437846248 -0.20941841403197209 0 0.3315528785953793 -0.21006139450243511 0 0.34573588142051959 -0.20524059932700811 0 0.3301198593266918 -0.20534114028419451 0 0.34668282437846248 -0.20941841403197209 0 0.33941951412029608 -0.21683831471265591 0 0.3315528785953793 -0.21006139450243511 0 0.34573588142051959 -0.20524059932700811 0 0.3315528785953793 -0.21006139450243511 0 0.3301198593266918 -0.20534114028419451 0 0.3315528785953793 -0.21006139450243511 0 0.3301198593266918 -0.20534114028419451 0 0.30943629932960087 -0.20547430767520031 0 0.3301198593266918 -0.20534114028419451 0 0.3315528785953793 -0.21006139450243511 0 0.3301198593266918 -0.20534114028419451 0 0.31611272074983149 -0.21071755811979459 0 0.30943629932960087 -0.20547430767520031 0 0.3301198593266918 -0.20534114028419451 0 0.31611272074983149 -0.21071755811979459 0 0.3315528785953793 -0.21006139450243511 0 0.31611272074983149 -0.21071755811979459 0 0.3315528785953793 -0.21006139450243511 0 0.31611272074983149 -0.21071755811979459 0 0.33664814894159351 -0.22684481945026891 0 0.30943629932960087 -0.20547430767520031 0 0.31611272074983149 -0.21071755811979459 0 0.3091368369162375 -0.19431797460293351 0 0.30765624152450421 -0.1827449539490312 0 0.32419190369824041 -0.1858149146624096 0 0.32419190369824041 -0.1858149146624096 0 0.3301198593266918 -0.20534114028419451 0 0.31972930861477572 -0.19783265647645429 0 0.3091368369162375 -0.19431797460293351 0 0.30943629932960087 -0.20547430767520031 0 0.31972930861477572 -0.19783265647645429 0 0.30943629932960087 -0.20547430767520031 0 0.3301198593266918 -0.20534114028419451 0 0.31972930861477572 -0.19783265647645429 0 0.32419190369824041 -0.1858149146624096 0 0.3301198593266918 -0.20534114028419451 0 0.3091368369162375 -0.19431797460293351 0 0.32419190369824041 -0.1858149146624096 0 0.31972930861477572 -0.19783265647645429 0 0.3142518679516812 -0.24175329590561981 0 0.32123491576505109 -0.23343873860803921 0 0.3290255816579481 -0.24473351545326591 0 0.3142518679516812 -0.24175329590561981 0 0.3290255816579481 -0.24473351545326591 0 0.31782269805779512 -0.25342902562787689 0 0.3142518679516812 -0.24175329590561981 0 0.31782269805779512 -0.25342902562787689 0 0.30596458333229848 -0.25011871757841392 0 0.31106567155014297 -0.23398717286458809 0 0.3142518679516812 -0.24175329590561981 0 0.32123491576505109 -0.23343873860803921 0 0.31221786754196001 -0.22583276532139809 0 0.31611272074983149 -0.21071755811979459 0 0.32123491576505109 -0.23343873860803921 0 0.31611272074983149 -0.21071755811979459 0 0.33664814894159351 -0.22684481945026891 0 0.31221786754196001 -0.22583276532139809 0 0.31106567155014297 -0.23398717286458809 0 0.32123491576505109 -0.23343873860803921 0 0.31611272074983149 -0.21071755811979459 0 0.32123491576505109 -0.23343873860803921 0 0.33664814894159351 -0.22684481945026891 0 0.34747427673158432 -0.2172790467931025 0 0.33941951412029608 -0.21683831471265591 0 0.33664814894159351 -0.22684481945026891 0 0.33664814894159351 -0.22684481945026891 0 0.3290255816579481 -0.24473351545326591 0 0.34490244815076221 -0.25403384022065989 0 0.32123491576505109 -0.23343873860803921 0 0.33664814894159351 -0.22684481945026891 0 0.3290255816579481 -0.24473351545326591 0 0.33664814894159351 -0.22684481945026891 0 0.34490244815076221 -0.25403384022065989 0 0.33664814894159351 -0.22684481945026891 0 0.35761660521186212 -0.24331215438039511 0 0.34490244815076221 -0.25403384022065989 0 0.33664814894159351 -0.22684481945026891 0 0.35761660521186212 -0.24331215438039511 0 0.33664814894159351 -0.22684481945026891 0 0.35761660521186212 -0.24331215438039511 0 0.35899905985565372 -0.22345974408473379 0 0.34747427673158432 -0.2172790467931025 0 0.33664814894159351 -0.22684481945026891 0 0.35899905985565372 -0.22345974408473379 0 0.35484719429142658 -0.21572893020123571 0 0.34747427673158432 -0.2172790467931025 0 0.35899905985565372 -0.22345974408473379 0 0.35761660521186212 -0.24331215438039511 0 0.35899905985565372 -0.22345974408473379 0 0.37422343889432791 -0.23095573882057999 0 0.36946321937152632 -0.2150943603065181 0 0.35899905985565372 -0.22345974408473379 0 0.37422343889432791 -0.23095573882057999 0 0.35761660521186212 -0.24331215438039511 0 0.37422343889432791 -0.23095573882057999 0 0.37858506148213172 -0.25977948931052042 0 0.37422343889432791 -0.23095573882057999 0 0.39557004763863629 -0.23589995908842681 0 0.37858506148213172 -0.25977948931052042 0 0.39557004763863629 -0.23589995908842681 0 0.414776834649906 -0.24291532221474821 0 0.40794328387771273 -0.26298535809642432 0 0.39557004763863629 -0.23589995908842681 0 0.40794328387771273 -0.26298535809642432 0 0.39557004763863629 -0.23589995908842681 0 0.38319681139956019 -0.20881456008042959 0 0.41266207500010621 -0.22205628901378369 0 0.39557004763863629 -0.23589995908842681 0 0.38319681139956019 -0.20881456008042959 0 0.37422343889432791 -0.23095573882057999 0 0.39557004763863629 -0.23589995908842681 0 0.38319681139956019 -0.20881456008042959 0 0.36946321937152632 -0.2150943603065181 0 0.37422343889432791 -0.23095573882057999 0 0.38319681139956019 -0.20881456008042959 0 0.37082357516048398 -0.18172916107243231 0 0.38319681139956019 -0.20881456008042959 0 0.37082357516048398 -0.18172916107243231 0 0.38319681139956019 -0.20881456008042959 0 0.38963932741466728 -0.1933429652095682 0 0.38319681139956019 -0.20881456008042959 0 0.38963932741466728 -0.1933429652095682 0 0.40333446276051738 -0.20300316853619901 0 0.38963932741466728 -0.1933429652095682 0 0.40333446276051738 -0.20300316853619901 0 0.39933422178325839 -0.17967236596758751 0 0.40333446276051738 -0.20300316853619901 0 0.39933422178325839 -0.17967236596758751 0 0.38319681139956019 -0.20881456008042959 0 0.40333446276051738 -0.20300316853619901 0 0.41266207500010621 -0.22205628901378369 0 0.40333446276051738 -0.20300316853619901 0 0.42371732338369472 -0.2024056798383489 0 0.41266207500010621 -0.22205628901378369 0 0.40333446276051738 -0.20300316853619901 0 0.42371732338369472 -0.2024056798383489 0 0.42074142131179548 -0.18214792846760819 0 0.40333446276051738 -0.20300316853619901 0 0.39933422178325839 -0.17967236596758751 0 0.42074142131179548 -0.18214792846760819 0 0.42371732338369472 -0.2024056798383489 0 0.42074142131179548 -0.18214792846760819 0 0.44316048632206728 -0.18748097844984471 0 0.42371732338369472 -0.2024056798383489 0 0.44316048632206728 -0.18748097844984471 0 0.44135334963413819 -0.21429100603371751 0 0.42371732338369472 -0.2024056798383489 0 0.41266207500010621 -0.22205628901378369 0 0.44135334963413819 -0.21429100603371751 0 0.4311311044159592 -0.2361100845830941 0 0.41266207500010621 -0.22205628901378369 0 0.44135334963413819 -0.21429100603371751 0 0.4311311044159592 -0.2361100845830941 0 0.414776834649906 -0.24291532221474821 0 0.42318824006741967 -0.25536335488238188 0 0.4311311044159592 -0.2361100845830941 0 0.44036069433128772 -0.25770363559651799 0 0.42318824006741967 -0.25536335488238188 0 0.39557004763863629 -0.23589995908842681 0 0.414776834649906 -0.24291532221474821 0 0.41266207500010621 -0.22205628901378369 0 0.4311311044159592 -0.2361100845830941 0 0.414776834649906 -0.24291532221474821 0 0.41266207500010621 -0.22205628901378369 0 0.39133373982874098 -0.13301076083036431 0 0.41153797349407872 -0.14316820695942689 0 0.38979959925446123 -0.12406311716228099 0 0.41571652637784612 -0.12919997797797961 0 0.38979959925446123 -0.12406311716228099 0 0.40260135441629918 -0.1326183540733028 0 0.41571652637784612 -0.12919997797797961 0 0.40260135441629918 -0.1326183540733028 0 0.39133373982874098 -0.13301076083036431 0 0.41153797349407872 -0.14316820695942689 0 0.38979959925446123 -0.12406311716228099 0 0.40260135441629918 -0.1326183540733028 0 0.39133373982874098 -0.13301076083036431 0 0.38979959925446123 -0.12406311716228099 0 0.39133373982874098 -0.13301076083036431 0 0.38979959925446123 -0.12406311716228099 0 0.37419074920783912 -0.1243923194379741 0 0.39133373982874098 -0.13301076083036431 0 0.37419074920783912 -0.1243923194379741 0 0.39133373982874098 -0.13301076083036431 0 0.37419074920783912 -0.1243923194379741 0 0.39133373982874098 -0.13301076083036431 0 0.37880767810669119 -0.13656759059703269 0 0.39133373982874098 -0.13301076083036431 0 0.37880767810669119 -0.13656759059703269 0 0.38236942365599852 -0.1469232619250854 0 0.39133373982874098 -0.13301076083036431 0 0.38236942365599852 -0.1469232619250854 0 0.39533398080599952 -0.15634156339897601 0 0.38236942365599852 -0.1469232619250854 0 0.39533398080599952 -0.15634156339897601 0 0.37710971538885152 -0.16327254263403121 0 0.3692620041497095 -0.14542385216502299 0 0.38236942365599852 -0.1469232619250854 0 0.37710971538885152 -0.16327254263403121 0 0.3692620041497095 -0.14542385216502299 0 0.37880767810669119 -0.13656759059703269 0 0.38236942365599852 -0.1469232619250854 0 0.39133373982874098 -0.13301076083036431 0 0.39533398080599952 -0.15634156339897601 0 0.41153797349407872 -0.14316820695942689 0 0.39133373982874098 -0.13301076083036431 0 0.39533398080599952 -0.15634156339897601 0 0.39533398080599952 -0.15634156339897601 0 0.39933422178325839 -0.17967236596758751 0 0.39533398080599952 -0.15634156339897601 0 0.39933422178325839 -0.17967236596758751 0 0.41241177782619709 -0.1641107052269466 0 0.39533398080599952 -0.15634156339897601 0 0.37710971538885152 -0.16327254263403121 0 0.39933422178325839 -0.17967236596758751 0 0.37082357516048398 -0.18172916107243231 0 0.38963932741466728 -0.1933429652095682 0 0.39933422178325839 -0.17967236596758751 0 0.37082357516048398 -0.18172916107243231 0 0.37710971538885152 -0.16327254263403121 0 0.39933422178325839 -0.17967236596758751 0 0.39933422178325839 -0.17967236596758751 0 0.42074142131179548 -0.18214792846760819 0 0.41241177782619709 -0.1641107052269466 0 0.42074142131179548 -0.18214792846760819 0 0.43490498722564219 -0.17422629805741011 0 0.44316048632206728 -0.18748097844984471 0 0.42074142131179548 -0.18214792846760819 0 0.43490498722564219 -0.17422629805741011 0 0.42668657860256809 -0.1658801890761584 0 0.43490498722564219 -0.17422629805741011 0 0.42668657860256809 -0.1658801890761584 0 0.43845752030134738 -0.16532171493592659 0 0.42668657860256809 -0.1658801890761584 0 0.43174220715941591 -0.1533256530884903 0 0.43845752030134738 -0.16532171493592659 0 0.42668657860256809 -0.1658801890761584 0 0.42059463427056498 -0.15662118858775559 0 0.43174220715941591 -0.1533256530884903 0 0.42074142131179548 -0.18214792846760819 0 0.42668657860256809 -0.1658801890761584 0 0.41241177782619709 -0.1641107052269466 0 0.42668657860256809 -0.1658801890761584 0 0.42059463427056498 -0.15662118858775559 0 0.41241177782619709 -0.1641107052269466 0 0.42059463427056498 -0.15662118858775559 0 0.41241177782619709 -0.1641107052269466 0 0.41153797349407872 -0.14316820695942689 0 0.39533398080599952 -0.15634156339897601 0 0.41241177782619709 -0.1641107052269466 0 0.41153797349407872 -0.14316820695942689 0 0.42059463427056498 -0.15662118858775559 0 0.41153797349407872 -0.14316820695942689 0 0.43174220715941591 -0.1533256530884903 0 0.41153797349407872 -0.14316820695942689 0 0.43174220715941591 -0.1533256530884903 0 0.41153797349407872 -0.14316820695942689 0 0.43415606135164869 -0.14222955975353699 0 0.43174220715941591 -0.1533256530884903 0 0.42631958268096598 -0.1229633067732319 0 0.43319119524832639 -0.1326635422099855 0 0.41571652637784612 -0.12919997797797961 0 0.43415606135164869 -0.14222955975353699 0 0.41571652637784612 -0.12919997797797961 0 0.43319119524832639 -0.1326635422099855 0 0.41571652637784612 -0.12919997797797961 0 0.42631958268096598 -0.1229633067732319 0 0.43319119524832639 -0.1326635422099855 0 0.44333673999536988 -0.12944123666321861 0 0.43415606135164869 -0.14222955975353699 0 0.43319119524832639 -0.1326635422099855 0 0.41571652637784612 -0.12919997797797961 0 0.41153797349407872 -0.14316820695942689 0 0.43415606135164869 -0.14222955975353699 0 0.41571652637784612 -0.12919997797797961 0 0.40260135441629918 -0.1326183540733028 0 0.41153797349407872 -0.14316820695942689 0 0.41571652637784612 -0.12919997797797961 0 0.45066586411880749 -0.13612710644198761 0 0.47533293205940241 -0.1410162390979923 0 0.46488298216008689 -0.1290684541993716 0 0.45066586411880749 -0.13612710644198761 0 0.47533293205940241 -0.1410162390979923 0 0.46225055849634189 -0.1150879117847277 0 0.46488298216008689 -0.1290684541993716 0 0.45066586411880749 -0.13612710644198761 0 0.43319119524832639 -0.1326635422099855 0 0.44333673999536988 -0.12944123666321861 0 0.45066586411880749 -0.13612710644198761 0 0.43415606135164869 -0.14222955975353699 0 0.43319119524832639 -0.1326635422099855 0 0.45066586411880749 -0.13612710644198761 0 0.44797559869064763 -0.1094548809445946 0 0.44333673999536988 -0.12944123666321861 0 0.45066586411880749 -0.13612710644198761 0 0.43319119524832639 -0.1326635422099855 0 0.45066586411880749 -0.13612710644198761 0 0.43415606135164869 -0.14222955975353699 0 0.43174220715941591 -0.1533256530884903 0 0.45259559632545171 -0.15525914152909409 0 0.43415606135164869 -0.14222955975353699 0 0.45066586411880749 -0.13612710644198761 0 0.45259559632545171 -0.15525914152909409 0 0.43415606135164869 -0.14222955975353699 0 0.45259559632545171 -0.15525914152909409 0 0.45066586411880749 -0.13612710644198761 0 0.45259559632545171 -0.15525914152909409 0 0.45066586411880749 -0.13612710644198761 0 0.46798869392230508 -0.15219766921196179 0 0.47533293205940241 -0.1410162390979923 0 0.45066586411880749 -0.13612710644198761 0 0.45259559632545171 -0.15525914152909409 0 0.46798869392230508 -0.15219766921196179 0 0.45259559632545171 -0.15525914152909409 0 0.46798869392230508 -0.15219766921196179 0 0.47629779816272799 -0.17200738260666931 0 0.45259559632545171 -0.15525914152909409 0 0.47629779816272799 -0.17200738260666931 0 0.45259559632545171 -0.15525914152909409 0 0.45467710842322079 -0.17589597515378949 0 0.45259559632545171 -0.15525914152909409 0 0.45467710842322079 -0.17589597515378949 0 0.47629779816272799 -0.17200738260666931 0 0.45259559632545171 -0.15525914152909409 0 0.4519464408247531 -0.16348309921755361 0 0.45467710842322079 -0.17589597515378949 0 0.43174220715941591 -0.1533256530884903 0 0.4519464408247531 -0.16348309921755361 0 0.43845752030134738 -0.16532171493592659 0 0.43174220715941591 -0.1533256530884903 0 0.4519464408247531 -0.16348309921755361 0 0.43174220715941591 -0.1533256530884903 0 0.45259559632545171 -0.15525914152909409 0 0.4519464408247531 -0.16348309921755361 0 0.4519464408247531 -0.16348309921755361 0 0.43845752030134738 -0.16532171493592659 0 0.44484015656121412 -0.17275464400757731 0 0.43490498722564219 -0.17422629805741011 0 0.43845752030134738 -0.16532171493592659 0 0.44484015656121412 -0.17275464400757731 0 0.4519464408247531 -0.16348309921755361 0 0.44484015656121412 -0.17275464400757731 0 0.45467710842322079 -0.17589597515378949 0 0.44484015656121412 -0.17275464400757731 0 0.44316048632206728 -0.18748097844984471 0 0.45467710842322079 -0.17589597515378949 0 0.44316048632206728 -0.18748097844984471 0 0.45467710842322079 -0.17589597515378949 0 0.45675862052098898 -0.19653280877848511 0 0.43490498722564219 -0.17422629805741011 0 0.44484015656121412 -0.17275464400757731 0 0.44316048632206728 -0.18748097844984471 0 0.46650156162035028 -0.18477759567091209 0 0.45467710842322079 -0.17589597515378949 0 0.47629779816272799 -0.17200738260666931 0 0.46650156162035028 -0.18477759567091209 0 0.45467710842322079 -0.17589597515378949 0 0.45675862052098898 -0.19653280877848511 0 0.45467710842322079 -0.17589597515378949 0 0.45675862052098898 -0.19653280877848511 0 0.46650156162035028 -0.18477759567091209 0 0.47629779816272799 -0.17200738260666931 0 0.47827271937446358 -0.1946742161447047 0 0.47629779816272799 -0.17200738260666931 0 0.47827271937446358 -0.1946742161447047 0 0.50000000000000389 -0.18875562368424509 0 0.47629779816272799 -0.17200738260666931 0 0.50000000000000389 -0.18875562368424509 0 0.47629779816272799 -0.17200738260666931 0 0.5 -0.1673304977191194 0 0.50000000000000389 -0.18875562368424509 0 0.485051278945134 -0.1565784763840658 0 0.5 -0.1673304977191194 0 0.499999999999998 -0.14590537175399371 0 0.47629779816272799 -0.17200738260666931 0 0.485051278945134 -0.1565784763840658 0 0.5 -0.1673304977191194 0 0.46798869392230508 -0.15219766921196179 0 0.47629779816272799 -0.17200738260666931 0 0.485051278945134 -0.1565784763840658 0 0.46798869392230508 -0.15219766921196179 0 0.485051278945134 -0.1565784763840658 0 0.47533293205940241 -0.1410162390979923 0 0.485051278945134 -0.1565784763840658 0 0.47533293205940241 -0.1410162390979923 0 0.499999999999998 -0.14590537175399371 0 0.47533293205940241 -0.1410162390979923 0 0.499999999999998 -0.14590537175399371 0 0.47533293205940241 -0.1410162390979923 0 0.499999999999998 -0.14590537175399371 0 0.48566820233100222 -0.14101128661226511 0 0.499999999999998 -0.14590537175399371 0 0.48566820233100222 -0.14101128661226511 0 0.48892950182558659 -0.12685458150663359 0 0.5 -0.1174475392503498 0 0.499999999999998 -0.14590537175399371 0 0.48892950182558659 -0.12685458150663359 0 0.47690435752902721 -0.1187032455125703 0 0.48566820233100222 -0.14101128661226511 0 0.47690435752902721 -0.1187032455125703 0 0.48566820233100222 -0.14101128661226511 0 0.48892950182558659 -0.12685458150663359 0 0.47690435752902721 -0.1187032455125703 0 0.46488298216008689 -0.1290684541993716 0 0.47533293205940241 -0.1410162390979923 0 0.47690435752902721 -0.1187032455125703 0 0.47533293205940241 -0.1410162390979923 0 0.48566820233100222 -0.14101128661226511 0 0.46864892426987892 -0.2326503803949824 0 0.45400344075530252 -0.23762219790368991 0 0.45884013261875711 -0.2171696424031806 0 0.46864892426987892 -0.2326503803949824 0 0.45884013261875711 -0.2171696424031806 0 0.47214596479314752 -0.22119066438241219 0 0.45400344075530252 -0.23762219790368991 0 0.47008022435230368 -0.24495391859561841 0 0.46760965566479279 -0.26047671771871811 0 0.46864892426987892 -0.2326503803949824 0 0.45400344075530252 -0.23762219790368991 0 0.47008022435230368 -0.24495391859561841 0 0.4311311044159592 -0.2361100845830941 0 0.45400344075530252 -0.23762219790368991 0 0.44036069433128772 -0.25770363559651799 0 0.45400344075530252 -0.23762219790368991 0 0.44135334963413819 -0.21429100603371751 0 0.45884013261875711 -0.2171696424031806 0 0.4311311044159592 -0.2361100845830941 0 0.45400344075530252 -0.23762219790368991 0 0.44135334963413819 -0.21429100603371751 0 0.44135334963413819 -0.21429100603371751 0 0.45675862052098898 -0.19653280877848511 0 0.45884013261875711 -0.2171696424031806 0 0.44316048632206728 -0.18748097844984471 0 0.44135334963413819 -0.21429100603371751 0 0.45675862052098898 -0.19653280877848511 0 0.46650156162035028 -0.18477759567091209 0 0.45675862052098898 -0.19653280877848511 0 0.47827271937446358 -0.1946742161447047 0 0.45675862052098898 -0.19653280877848511 0 0.45884013261875711 -0.2171696424031806 0 0.45675862052098898 -0.19653280877848511 0 0.45884013261875711 -0.2171696424031806 0 0.47211028510019909 -0.20910787667179409 0 0.45884013261875711 -0.2171696424031806 0 0.47211028510019909 -0.20910787667179409 0 0.47214596479314752 -0.22119066438241219 0 0.47211028510019909 -0.20910787667179409 0 0.48146475081049311 -0.2174157071207867 0 0.47214596479314752 -0.22119066438241219 0 0.47211028510019909 -0.20910787667179409 0 0.47827271937446358 -0.1946742161447047 0 0.48681967759533062 -0.2068262732931547 0 0.47211028510019909 -0.20910787667179409 0 0.48146475081049311 -0.2174157071207867 0 0.48681967759533062 -0.2068262732931547 0 0.45675862052098898 -0.19653280877848511 0 0.47211028510019909 -0.20910787667179409 0 0.47827271937446358 -0.1946742161447047 0 0.50000000000000389 -0.18875562368424509 0 0.48681967759533062 -0.2068262732931547 0 0.5 -0.21376142577618809 0 0.47827271937446358 -0.1946742161447047 0 0.50000000000000389 -0.18875562368424509 0 0.48681967759533062 -0.2068262732931547 0 0.48146475081049311 -0.2174157071207867 0 0.49100512112719991 -0.21841284416796661 0 0.48681967759533062 -0.2068262732931547 0 0.49100512112719991 -0.21841284416796661 0 0.48681967759533062 -0.2068262732931547 0 0.5 -0.21376142577618809 0 0.49100512112719991 -0.21841284416796661 0 0.5 -0.21376142577618809 0 0.5 -0.22286129106689179 0 0.49100512112719991 -0.21841284416796661 0 0.5 -0.22286129106689179 0 0.48835936017629961 -0.22616083477182011 0 0.5 -0.22286129106689179 0 0.49803813766314992 -0.2431401516463477 0 0.5 -0.22286129106689179 0 0.49277323425454272 -0.23329197034161259 0 0.49803813766314992 -0.2431401516463477 0 0.5 -0.22286129106689179 0 0.49277323425454272 -0.23329197034161259 0 0.48835936017629961 -0.22616083477182011 0 0.49277323425454272 -0.23329197034161259 0 0.48835936017629961 -0.22616083477182011 0 0.48619407221374678 -0.23531494231168679 0 0.48835936017629961 -0.22616083477182011 0 0.47966573116640909 -0.2296097153213171 0 0.48619407221374678 -0.23531494231168679 0 0.48146475081049311 -0.2174157071207867 0 0.49100512112719991 -0.21841284416796661 0 0.48835936017629961 -0.22616083477182011 0 0.48146475081049311 -0.2174157071207867 0 0.48835936017629961 -0.22616083477182011 0 0.47966573116640909 -0.2296097153213171 0 0.48146475081049311 -0.2174157071207867 0 0.47966573116640909 -0.2296097153213171 0 0.47214596479314752 -0.22119066438241219 0 0.46864892426987892 -0.2326503803949824 0 0.47966573116640909 -0.2296097153213171 0 0.47214596479314752 -0.22119066438241219 0 0.46864892426987892 -0.2326503803949824 0 0.47008022435230368 -0.24495391859561841 0 0.48036251949490211 -0.24091101480221411 0 0.46864892426987892 -0.2326503803949824 0 0.47966573116640909 -0.2296097153213171 0 0.48036251949490211 -0.24091101480221411 0 0.48036251949490211 -0.24091101480221411 0 0.48649384948951341 -0.24461805915821211 0 0.48619407221374678 -0.23531494231168679 0 0.47966573116640909 -0.2296097153213171 0 0.48036251949490211 -0.24091101480221411 0 0.48619407221374678 -0.23531494231168679 0 0.47008022435230368 -0.24495391859561841 0 0.48036251949490211 -0.24091101480221411 0 0.48218373680174093 -0.25253225978505922 0 0.48036251949490211 -0.24091101480221411 0 0.48649384948951341 -0.24461805915821211 0 0.48218373680174093 -0.25253225978505922 0 0.49255790044835002 -0.23957483019893411 0 0.49803813766314992 -0.2431401516463477 0 0.49485861699829792 -0.26324979984091768 0 0.48902352593447551 -0.24999373724578081 0 0.48649384948951341 -0.24461805915821211 0 0.48218373680174093 -0.25253225978505922 0 0.5 -0.23876722786813101 0 0.49803813766314992 -0.2431401516463477 0 0.49999999999999922 -0.2637730299600739 0 0.48902352593447551 -0.24999373724578081 0 0.48649384948951341 -0.24461805915821211 0 0.49255790044835002 -0.23957483019893411 0 0.5 -0.22286129106689179 0 0.5 -0.23876722786813101 0 0.49803813766314992 -0.2431401516463477 0 0.48649384948951341 -0.24461805915821211 0 0.48619407221374678 -0.23531494231168679 0 0.49255790044835002 -0.23957483019893411 0 0.49277323425454272 -0.23329197034161259 0 0.48619407221374678 -0.23531494231168679 0 0.49255790044835002 -0.23957483019893411 0 0.49277323425454272 -0.23329197034161259 0 0.49255790044835002 -0.23957483019893411 0 0.49803813766314992 -0.2431401516463477 0 0.49255790044835002 -0.23957483019893411 0 0.49485861699829792 -0.26324979984091768 0 0.49803813766314992 -0.2431401516463477 0 0.49999999999999922 -0.2637730299600739 0 0.49652133794549852 -0.26341901222580338 0 0.48902352593447551 -0.24999373724578081 0 0.49255790044835002 -0.23957483019893411 0 0.49485861699829792 -0.26324979984091768 0 0.49803813766314992 -0.2431401516463477 0 0.49652133794549852 -0.26341901222580338 0 0.49485861699829792 -0.26324979984091768 0 0.49803813766314992 -0.2431401516463477 0 0.49652133794549852 -0.26341901222580338 0 0.49999999999999922 -0.2637730299600739 0 0.49652133794549852 -0.26341901222580338 0 0.49652133794549852 -0.26341901222580338 0 0.49485861699829792 -0.26324979984091768 0 0.48902352593447551 -0.24999373724578081 0 0.49485861699829792 -0.26324979984091768 0 0.48218373680174093 -0.25253225978505922 0 0.49999999999999922 -0.2637730299600739 0 0.49580532837809999 -0.27299170532555761 0 0.5 -0.2899644967644599 0 0.49580532837809999 -0.27299170532555761 0 0.49464341663984718 -0.28852588948413083 0 0.49652133794549852 -0.26341901222580338 0 0.49485861699829792 -0.26324979984091768 0 0.49580532837809999 -0.27299170532555761 0 0.49999999999999922 -0.2637730299600739 0 0.49652133794549852 -0.26341901222580338 0 0.49580532837809999 -0.27299170532555761 0 0.49652133794549852 -0.26341901222580338 0 0.49580532837809999 -0.27299170532555761 0 0.49485861699829792 -0.26324979984091768 0 0.49580532837809999 -0.27299170532555761 0 0.49485861699829792 -0.26324979984091768 0 0.49580532837809999 -0.27299170532555761 0 0.48498584293171809 -0.26954106994549099 0 0.49580532837809999 -0.27299170532555761 0 0.48498584293171809 -0.26954106994549099 0 0.4835742413182183 -0.28256101349574109 0 0.47636415186764869 -0.27107034993231532 0 0.46489802156411397 -0.27163173156823123 0 0.46499933990337389 -0.2928076931937621 0 0.48498584293171809 -0.26954106994549099 0 0.47636415186764869 -0.27107034993231532 0 0.46760965566479279 -0.26047671771871811 0 0.48498584293171809 -0.26954106994549099 0 0.47636415186764869 -0.27107034993231532 0 0.4835742413182183 -0.28256101349574109 0 0.47636415186764869 -0.27107034993231532 0 0.46760965566479279 -0.26047671771871811 0 0.46489802156411397 -0.27163173156823123 0 0.49485861699829792 -0.26324979984091768 0 0.48498584293171809 -0.26954106994549099 0 0.46760965566479279 -0.26047671771871811 0 0.49485861699829792 -0.26324979984091768 0 0.48218373680174093 -0.25253225978505922 0 0.46760965566479279 -0.26047671771871811 0 0.49485861699829792 -0.26324979984091768 0 0.46760965566479279 -0.26047671771871811 0 0.47008022435230368 -0.24495391859561841 0 0.48218373680174093 -0.25253225978505922 0 0.46760965566479279 -0.26047671771871811 0 0.46760965566479279 -0.26047671771871811 0 0.44036069433128772 -0.25770363559651799 0 0.46760965566479279 -0.26047671771871811 0 0.45467741237634102 -0.27468510940965152 0 0.44036069433128772 -0.25770363559651799 0 0.45400344075530252 -0.23762219790368991 0 0.46760965566479279 -0.26047671771871811 0 0.44036069433128772 -0.25770363559651799 0 0.46760965566479279 -0.26047671771871811 0 0.46489802156411397 -0.27163173156823123 0 0.45467741237634102 -0.27468510940965152 0 0.46489802156411397 -0.27163173156823123 0 0.45467741237634102 -0.27468510940965152 0 0.46499933990337389 -0.2928076931937621 0 0.45467741237634102 -0.27468510940965152 0 0.44031290755027208 -0.27598875339886408 0 0.44036069433128772 -0.25770363559651799 0 0.45467741237634102 -0.27468510940965152 0 0.44031290755027208 -0.27598875339886408 0 0.4515726081139424 -0.28750751747022613 0 0.44750619668184649 -0.2987397582837199 0 0.44149043029294022 -0.30918149410089613 0 0.4536345279390992 -0.31454503645520898 0 0.44750619668184649 -0.2987397582837199 0 0.44149043029294022 -0.30918149410089613 0 0.43495564117460411 -0.29639428731704692 0 0.44750619668184649 -0.2987397582837199 0 0.43979753199432808 -0.28928894117093229 0 0.43495564117460411 -0.29639428731704692 0 0.44031290755027208 -0.27598875339886408 0 0.43979753199432808 -0.28928894117093229 0 0.4515726081139424 -0.28750751747022613 0 0.44031290755027208 -0.27598875339886408 0 0.43979753199432808 -0.28928894117093229 0 0.43428447033548317 -0.28303368603699453 0 0.44750619668184649 -0.2987397582837199 0 0.43979753199432808 -0.28928894117093229 0 0.4515726081139424 -0.28750751747022613 0 0.45467741237634102 -0.27468510940965152 0 0.4515726081139424 -0.28750751747022613 0 0.46499933990337389 -0.2928076931937621 0 0.44750619668184649 -0.2987397582837199 0 0.4515726081139424 -0.28750751747022613 0 0.46499933990337389 -0.2928076931937621 0 0.44750619668184649 -0.2987397582837199 0 0.46499933990337389 -0.2928076931937621 0 0.4536345279390992 -0.31454503645520898 0 0.46499933990337389 -0.2928076931937621 0 0.46872234513514599 -0.31017932018327238 0 0.4536345279390992 -0.31454503645520898 0 0.46499933990337389 -0.2928076931937621 0 0.4536345279390992 -0.31454503645520898 0 0.46499933990337389 -0.2928076931937621 0 0.46872234513514599 -0.31017932018327238 0 0.48048736611791693 -0.29527760401516823 0 0.46872234513514599 -0.31017932018327238 0 0.48155687404741471 -0.30796880489633571 0 0.48048736611791693 -0.29527760401516823 0 0.48155687404741471 -0.30796880489633571 0 0.48048736611791693 -0.29527760401516823 0 0.4883764457633516 -0.29639420392110932 0 0.47636415186764869 -0.27107034993231532 0 0.46499933990337389 -0.2928076931937621 0 0.4835742413182183 -0.28256101349574109 0 0.47636415186764869 -0.27107034993231532 0 0.46499933990337389 -0.2928076931937621 0 0.46499933990337389 -0.2928076931937621 0 0.48048736611791693 -0.29527760401516823 0 0.4835742413182183 -0.28256101349574109 0 0.48048736611791693 -0.29527760401516823 0 0.4835742413182183 -0.28256101349574109 0 0.48664592603293438 -0.28999653129097042 0 0.49580532837809999 -0.27299170532555761 0 0.49790266418905033 -0.29457383444720181 0 0.49580532837809999 -0.27299170532555761 0 0.5 -0.2899644967644599 0 0.49790266418905033 -0.29457383444720181 0 0.49580532837809999 -0.27299170532555761 0 0.49790266418905033 -0.29457383444720181 0 0.49464341663984718 -0.28852588948413083 0 0.4835742413182183 -0.28256101349574109 0 0.48664592603293438 -0.28999653129097042 0 0.49464341663984718 -0.28852588948413083 0 0.49580532837809999 -0.27299170532555761 0 0.4835742413182183 -0.28256101349574109 0 0.49464341663984718 -0.28852588948413083 0 0.48048736611791693 -0.29527760401516823 0 0.4883764457633516 -0.29639420392110932 0 0.48664592603293438 -0.28999653129097042 0 0.4883764457633516 -0.29639420392110932 0 0.49464341663984718 -0.28852588948413083 0 0.49348150490159493 -0.30406007364270399 0 0.4883764457633516 -0.29639420392110932 0 0.48664592603293438 -0.28999653129097042 0 0.49464341663984718 -0.28852588948413083 0 0.49790266418905033 -0.29457383444720181 0 0.49464341663984718 -0.28852588948413083 0 0.49348150490159493 -0.30406007364270399 0 0.49464341663984718 -0.28852588948413083 0 0.49348150490159493 -0.30406007364270399 0 0.49790266418905033 -0.29457383444720181 0 0.5 -0.3161559635688459 0 0.5 -0.2899644967644599 0 0.49790266418905033 -0.29457383444720181 0 0.5 -0.3161559635688459 0 0.49790266418905033 -0.29457383444720181 0 0.49348150490159493 -0.30406007364270399 0 0.5 -0.3161559635688459 0 0.48155687404741471 -0.30796880489633571 0 0.49348150490159493 -0.30406007364270399 0 0.48905378773035829 -0.3140712408933285 0 0.48155687404741471 -0.30796880489633571 0 0.4883764457633516 -0.29639420392110932 0 0.49348150490159493 -0.30406007364270399 0 0.49348150490159493 -0.30406007364270399 0 0.5 -0.3161559635688459 0 0.48905378773035829 -0.3140712408933285 0 0.5 -0.3161559635688459 0 0.4871344823205852 -0.32476970502363961 0 0.49268153319357272 -0.33247951968660339 0 0.5 -0.3161559635688459 0 0.48905378773035829 -0.3140712408933285 0 0.4871344823205852 -0.32476970502363961 0 0.48905378773035829 -0.3140712408933285 0 0.4871344823205852 -0.32476970502363961 0 0.47761707753911231 -0.31949367995552341 0 0.5 -0.3161559635688459 0 0.49268153319357272 -0.33247951968660339 0 0.5 -0.34405384657124399 0 0.49268153319357272 -0.33247951968660339 0 0.49139473607915801 -0.34144284046411583 0 0.5 -0.34405384657124399 0 0.49139473607915801 -0.34144284046411583 0 0.48487844756811982 -0.33597524280517171 0 0.48341924255537361 -0.34479561730477482 0 0.49268153319357272 -0.33247951968660339 0 0.49139473607915801 -0.34144284046411583 0 0.48487844756811982 -0.33597524280517171 0 0.4871344823205852 -0.32476970502363961 0 0.49268153319357272 -0.33247951968660339 0 0.48487844756811982 -0.33597524280517171 0 0.48487844756811982 -0.33597524280517171 0 0.47244502291200607 -0.34018290377051319 0 0.47638148646857398 -0.33068750420871068 0 0.4871344823205852 -0.32476970502363961 0 0.48487844756811982 -0.33597524280517171 0 0.47638148646857398 -0.33068750420871068 0 0.48487844756811982 -0.33597524280517171 0 0.47244502291200607 -0.34018290377051319 0 0.48341924255537361 -0.34479561730477482 0 0.47244502291200607 -0.34018290377051319 0 0.47638148646857398 -0.33068750420871068 0 0.46324455541727272 -0.3286473826238332 0 0.46872234513514599 -0.31017932018327238 0 0.47761707753911231 -0.31949367995552341 0 0.46324455541727272 -0.3286473826238332 0 0.47638148646857398 -0.33068750420871068 0 0.47761707753911231 -0.31949367995552341 0 0.46324455541727272 -0.3286473826238332 0 0.46872234513514599 -0.31017932018327238 0 0.48155687404741471 -0.30796880489633571 0 0.47761707753911231 -0.31949367995552341 0 0.48155687404741471 -0.30796880489633571 0 0.48905378773035829 -0.3140712408933285 0 0.47761707753911231 -0.31949367995552341 0 0.4871344823205852 -0.32476970502363961 0 0.47638148646857398 -0.33068750420871068 0 0.47761707753911231 -0.31949367995552341 0 0.50000000000000633 -0.37195172957364231 0 0.49470119676146018 -0.35002653402854411 0 0.4746669935771527 -0.35629942707271939 0 0.50000000000000633 -0.37195172957364231 0 0.4746669935771527 -0.35629942707271939 0 0.50000000000000633 -0.37195172957364231 0 0.4746669935771527 -0.35629942707271939 0 0.4840478708610656 -0.37788196386612638 0 0.50000000000000633 -0.37195172957364231 0 0.49470119676146018 -0.35002653402854411 0 0.5 -0.34405384657124399 0 0.49470119676146018 -0.35002653402854411 0 0.4746669935771527 -0.35629942707271939 0 0.49139473607915801 -0.34144284046411583 0 0.49470119676146018 -0.35002653402854411 0 0.5 -0.34405384657124399 0 0.49139473607915801 -0.34144284046411583 0 0.49470119676146018 -0.35002653402854411 0 0.48341924255537361 -0.34479561730477482 0 0.47244502291200607 -0.34018290377051319 0 0.4746669935771527 -0.35629942707271939 0 0.48341924255537361 -0.34479561730477482 0 0.49470119676146018 -0.35002653402854411 0 0.4746669935771527 -0.35629942707271939 0 0.48341924255537361 -0.34479561730477482 0 0.4746669935771527 -0.35629942707271939 0 0.4840478708610656 -0.37788196386612638 0 0.46881419449760497 -0.37606613814255369 0 0.4746669935771527 -0.35629942707271939 0 0.45861001560358972 -0.37180322451855141 0 0.44823157737413788 -0.36457659871234399 0 0.4746669935771527 -0.35629942707271939 0 0.45861001560358972 -0.37180322451855141 0 0.46881419449760497 -0.37606613814255369 0 0.4746669935771527 -0.35629942707271939 0 0.44823157737413788 -0.36457659871234399 0 0.4746669935771527 -0.35629942707271939 0 0.45846835477599102 -0.34629090339468982 0 0.4746669935771527 -0.35629942707271939 0 0.45660183976754948 -0.35510452281796812 0 0.45846835477599102 -0.34629090339468982 0 0.47244502291200607 -0.34018290377051319 0 0.4746669935771527 -0.35629942707271939 0 0.45846835477599102 -0.34629090339468982 0 0.4746669935771527 -0.35629942707271939 0 0.45660183976754948 -0.35510452281796812 0 0.44823157737413788 -0.36457659871234399 0 0.45660183976754948 -0.35510452281796812 0 0.45846835477599102 -0.34629090339468982 0 0.44504043334291699 -0.35325116209211732 0 0.45846835477599102 -0.34629090339468982 0 0.44339469336088883 -0.34549166748503279 0 0.44504043334291699 -0.35325116209211732 0 0.44339469336088883 -0.34549166748503279 0 0.44504043334291699 -0.35325116209211732 0 0.43504651331043409 -0.34838145640955448 0 0.44339469336088883 -0.34549166748503279 0 0.43999627110234518 -0.34063077120209367 0 0.43504651331043409 -0.34838145640955448 0 0.44504043334291699 -0.35325116209211732 0 0.44823157737413788 -0.36457659871234399 0 0.43305539844514179 -0.35766779743205601 0 0.44504043334291699 -0.35325116209211732 0 0.43305539844514179 -0.35766779743205601 0 0.43504651331043409 -0.34838145640955448 0 0.45660183976754948 -0.35510452281796812 0 0.44504043334291699 -0.35325116209211732 0 0.44823157737413788 -0.36457659871234399 0 0.44823157737413788 -0.36457659871234399 0 0.4217961611711239 -0.37285377035197143 0 0.44514191224301541 -0.37577066415520072 0 0.45861001560358972 -0.37180322451855141 0 0.44823157737413788 -0.36457659871234399 0 0.44514191224301541 -0.37577066415520072 0 0.46872234513514599 -0.31017932018327238 0 0.4536345279390992 -0.31454503645520898 0 0.46324455541727272 -0.3286473826238332 0 0.47244502291200607 -0.34018290377051319 0 0.45846835477599102 -0.34629090339468982 0 0.46324455541727272 -0.3286473826238332 0 0.45846835477599102 -0.34629090339468982 0 0.46324455541727272 -0.3286473826238332 0 0.44226971597483022 -0.33628237971665892 0 0.45846835477599102 -0.34629090339468982 0 0.44339469336088883 -0.34549166748503279 0 0.44226971597483022 -0.33628237971665892 0 0.45846835477599102 -0.34629090339468982 0 0.44226971597483022 -0.33628237971665892 0 0.44339469336088883 -0.34549166748503279 0 0.44226971597483022 -0.33628237971665892 0 0.43999627110234518 -0.34063077120209367 0 0.44226971597483022 -0.33628237971665892 0 0.43999627110234518 -0.34063077120209367 0 0.44149043029294022 -0.30918149410089613 0 0.4536345279390992 -0.31454503645520898 0 0.43672927501629921 -0.31848912195294188 0 0.4536345279390992 -0.31454503645520898 0 0.44226971597483022 -0.33628237971665892 0 0.4536345279390992 -0.31454503645520898 0 0.44226971597483022 -0.33628237971665892 0 0.43672927501629921 -0.31848912195294188 0 0.4536345279390992 -0.31454503645520898 0 0.46324455541727272 -0.3286473826238332 0 0.44226971597483022 -0.33628237971665892 0 0.44226971597483022 -0.33628237971665892 0 0.43672927501629921 -0.31848912195294188 0 0.42073878526521352 -0.32297923539308648 0 0.43672927501629921 -0.31848912195294188 0 0.42073878526521352 -0.32297923539308648 0 0.42551291560941262 -0.30945746409885938 0 0.44226971597483022 -0.33628237971665892 0 0.42686370295549092 -0.33863260114969251 0 0.42073878526521352 -0.32297923539308648 0 0.44226971597483022 -0.33628237971665892 0 0.42073878526521352 -0.32297923539308648 0 0.44226971597483022 -0.33628237971665892 0 0.43999627110234518 -0.34063077120209367 0 0.42686370295549092 -0.33863260114969251 0 0.43999627110234518 -0.34063077120209367 0 0.42686370295549092 -0.33863260114969251 0 0.43504651331043409 -0.34838145640955448 0 0.42686370295549092 -0.33863260114969251 0 0.41935305964022801 -0.35101667384607033 0 0.40575340829076501 -0.334735212620485 0 0.42686370295549092 -0.33863260114969251 0 0.42073878526521352 -0.32297923539308648 0 0.40575340829076501 -0.334735212620485 0 0.42073878526521352 -0.32297923539308648 0 0.39920785455559649 -0.30967609106951449 0 0.42073878526521352 -0.32297923539308648 0 0.40575340829076501 -0.334735212620485 0 0.39920785455559649 -0.30967609106951449 0 0.44823157737413788 -0.36457659871234399 0 0.4217961611711239 -0.37285377035197143 0 0.44823157737413788 -0.36457659871234399 0 0.43305539844514179 -0.35766779743205601 0 0.4217961611711239 -0.37285377035197143 0 0.43305539844514179 -0.35766779743205601 0 0.41935305964022801 -0.35101667384607033 0 0.4217961611711239 -0.37285377035197143 0 0.42686370295549092 -0.33863260114969251 0 0.43504651331043409 -0.34838145640955448 0 0.41935305964022801 -0.35101667384607033 0 0.43305539844514179 -0.35766779743205601 0 0.43504651331043409 -0.34838145640955448 0 0.41935305964022801 -0.35101667384607033 0 0.41935305964022801 -0.35101667384607033 0 0.39776796595869329 -0.35611728534591958 0 0.40575340829076501 -0.334735212620485 0 0.41935305964022801 -0.35101667384607033 0 0.4217961611711239 -0.37285377035197143 0 0.39776796595869329 -0.35611728534591958 0 0.39776796595869329 -0.35611728534591958 0 0.3789119811708585 -0.36393512763217201 0 0.39536074496811008 -0.38113094199159891 0 0.4217961611711239 -0.37285377035197143 0 0.39776796595869329 -0.35611728534591958 0 0.39536074496811008 -0.38113094199159891 0 0.39776796595869329 -0.35611728534591958 0 0.40575340829076501 -0.334735212620485 0 0.38757772275519581 -0.34046307533612657 0 0.39776796595869329 -0.35611728534591958 0 0.3786826519502775 -0.35028831052073528 0 0.3789119811708585 -0.36393512763217201 0 0.39776796595869329 -0.35611728534591958 0 0.3786826519502775 -0.35028831052073528 0 0.38757772275519581 -0.34046307533612657 0 0.3789119811708585 -0.36393512763217201 0 0.39536074496811008 -0.38113094199159891 0 0.37443437444949851 -0.37928020159298098 0 0.40575340829076501 -0.334735212620485 0 0.38732098540092502 -0.32494305253281908 0 0.39920785455559649 -0.30967609106951449 0 0.40575340829076501 -0.334735212620485 0 0.38757772275519581 -0.34046307533612657 0 0.38732098540092502 -0.32494305253281908 0 0.38757772275519581 -0.34046307533612657 0 0.38732098540092502 -0.32494305253281908 0 0.36984751977043773 -0.33703335511666271 0 0.3786826519502775 -0.35028831052073528 0 0.38757772275519581 -0.34046307533612657 0 0.36984751977043773 -0.33703335511666271 0 0.38732098540092502 -0.32494305253281908 0 0.38080147587596169 -0.31194051636623688 0 0.39920785455559649 -0.30967609106951449 0 0.38732098540092502 -0.32494305253281908 0 0.37156282072268432 -0.32068366856010572 0 0.36984751977043773 -0.33703335511666271 0 0.38732098540092502 -0.32494305253281908 0 0.38080147587596169 -0.31194051636623688 0 0.37156282072268432 -0.32068366856010572 0 0.38080147587596169 -0.31194051636623688 0 0.37767692384597951 -0.29637294674594239 0 0.36823879485462357 -0.30802682292280281 0 0.39920785455559649 -0.30967609106951449 0 0.39236501981702038 -0.29103942481969253 0 0.37767692384597951 -0.29637294674594239 0 0.39920785455559649 -0.30967609106951449 0 0.37767692384597951 -0.29637294674594239 0 0.38080147587596169 -0.31194051636623688 0 0.39920785455559649 -0.30967609106951449 0 0.37767692384597951 -0.29637294674594239 0 0.39920785455559649 -0.30967609106951449 0 0.39236501981702038 -0.29103942481969253 0 0.4027760959412276 -0.29438960274480502 0 0.39920785455559649 -0.30967609106951449 0 0.4027760959412276 -0.29438960274480502 0 0.41345475768311629 -0.30405025362024712 0 0.39236501981702038 -0.29103942481969253 0 0.38261070698989752 -0.27851165929755489 0 0.39955351775240122 -0.27624682424064562 0 0.39236501981702038 -0.29103942481969253 0 0.4027760959412276 -0.29438960274480502 0 0.39955351775240122 -0.27624682424064562 0 0.4027760959412276 -0.29438960274480502 0 0.39955351775240122 -0.27624682424064562 0 0.40907658634985389 -0.29185020994411709 0 0.39236501981702038 -0.29103942481969253 0 0.37767692384597951 -0.29637294674594239 0 0.38261070698989752 -0.27851165929755489 0 0.37767692384597951 -0.29637294674594239 0 0.38261070698989752 -0.27851165929755489 0 0.36620967731049953 -0.27317625354803449 0 0.38261070698989752 -0.27851165929755489 0 0.37858506148213172 -0.25977948931052042 0 0.39955351775240122 -0.27624682424064562 0 0.37858506148213172 -0.25977948931052042 0 0.39955351775240122 -0.27624682424064562 0 0.38261070698989752 -0.27851165929755489 0 0.37858506148213172 -0.25977948931052042 0 0.36620967731049953 -0.27317625354803449 0 0.39557004763863629 -0.23589995908842681 0 0.37858506148213172 -0.25977948931052042 0 0.40794328387771273 -0.26298535809642432 0 0.37858506148213172 -0.25977948931052042 0 0.39955351775240122 -0.27624682424064562 0 0.40794328387771273 -0.26298535809642432 0 0.40794328387771273 -0.26298535809642432 0 0.42833080549286839 -0.26962886334786812 0 0.42568968857198208 -0.28148835331164368 0 0.40794328387771273 -0.26298535809642432 0 0.42568968857198208 -0.28148835331164368 0 0.42031652011678888 -0.29007075710442171 0 0.40794328387771273 -0.26298535809642432 0 0.42031652011678888 -0.29007075710442171 0 0.39955351775240122 -0.27624682424064562 0 0.40794328387771273 -0.26298535809642432 0 0.42031652011678888 -0.29007075710442171 0 0.414776834649906 -0.24291532221474821 0 0.40794328387771273 -0.26298535809642432 0 0.42318824006741967 -0.25536335488238188 0 0.40794328387771273 -0.26298535809642432 0 0.42318824006741967 -0.25536335488238188 0 0.42833080549286839 -0.26962886334786812 0 0.44036069433128772 -0.25770363559651799 0 0.42318824006741967 -0.25536335488238188 0 0.42833080549286839 -0.26962886334786812 0 0.44031290755027208 -0.27598875339886408 0 0.44036069433128772 -0.25770363559651799 0 0.42833080549286839 -0.26962886334786812 0 0.42833080549286839 -0.26962886334786812 0 0.43428447033548317 -0.28303368603699453 0 0.42568968857198208 -0.28148835331164368 0 0.44031290755027208 -0.27598875339886408 0 0.42833080549286839 -0.26962886334786812 0 0.43428447033548317 -0.28303368603699453 0 0.43428447033548317 -0.28303368603699453 0 0.43209949490667587 -0.28896847862776642 0 0.42568968857198208 -0.28148835331164368 0 0.43979753199432808 -0.28928894117093229 0 0.43428447033548317 -0.28303368603699453 0 0.43209949490667587 -0.28896847862776642 0 0.43209949490667587 -0.28896847862776642 0 0.42568968857198208 -0.28148835331164368 0 0.42684623493781448 -0.29064924767987538 0 0.42568968857198208 -0.28148835331164368 0 0.42684623493781448 -0.29064924767987538 0 0.42031652011678888 -0.29007075710442171 0 0.42684623493781448 -0.29064924767987538 0 0.43495564117460411 -0.29639428731704692 0 0.42052197402267072 -0.29271415917077082 0 0.42684623493781448 -0.29064924767987538 0 0.42031652011678888 -0.29007075710442171 0 0.42052197402267072 -0.29271415917077082 0 0.43209949490667587 -0.28896847862776642 0 0.42684623493781448 -0.29064924767987538 0 0.43495564117460411 -0.29639428731704692 0 0.43979753199432808 -0.28928894117093229 0 0.43209949490667587 -0.28896847862776642 0 0.43495564117460411 -0.29639428731704692 0 0.44149043029294022 -0.30918149410089613 0 0.43672927501629921 -0.31848912195294188 0 0.42551291560941262 -0.30945746409885938 0 0.44149043029294022 -0.30918149410089613 0 0.42052197402267072 -0.29271415917077082 0 0.44149043029294022 -0.30918149410089613 0 0.43495564117460411 -0.29639428731704692 0 0.42052197402267072 -0.29271415917077082 0 0.44149043029294022 -0.30918149410089613 0 0.42551291560941262 -0.30945746409885938 0 0.42052197402267072 -0.29271415917077082 0 0.42551291560941262 -0.30945746409885938 0 0.41345475768311629 -0.30405025362024712 0 0.42052197402267072 -0.29271415917077082 0 0.42073878526521352 -0.32297923539308648 0 0.39920785455559649 -0.30967609106951449 0 0.41345475768311629 -0.30405025362024712 0 0.42073878526521352 -0.32297923539308648 0 0.42551291560941262 -0.30945746409885938 0 0.41345475768311629 -0.30405025362024712 0 0.4027760959412276 -0.29438960274480502 0 0.41345475768311629 -0.30405025362024712 0 0.40907658634985389 -0.29185020994411709 0 0.39955351775240122 -0.27624682424064562 0 0.42052197402267072 -0.29271415917077082 0 0.39955351775240122 -0.27624682424064562 0 0.40907658634985389 -0.29185020994411709 0 0.42052197402267072 -0.29271415917077082 0 0.39955351775240122 -0.27624682424064562 0 0.42031652011678888 -0.29007075710442171 0 0.42052197402267072 -0.29271415917077082 0 0.41345475768311629 -0.30405025362024712 0 0.40907658634985389 -0.29185020994411709 0 0.42052197402267072 -0.29271415917077082 0 0.44524844219767701 -0.49999999999999439 0 0.43887096783719193 -0.48912804413549321 0 0.45426095467959882 -0.46967099130000289 0 0.44524844219767701 -0.49999999999999439 0 0.43887096783719193 -0.48912804413549321 0 0.43336439809022642 -0.49608981867150392 0 0.44524844219767701 -0.49999999999999439 0 0.43887096783719193 -0.48912804413549321 0 0.43887096783719193 -0.48912804413549321 0 0.45426095467959882 -0.46967099130000289 0 0.43887096783719193 -0.48912804413549321 0 0.45426095467959882 -0.46967099130000289 0 0.440814424084153 -0.46340083191085529 0 0.44524844219767701 -0.49999999999999439 0 0.45426095467959882 -0.46967099130000289 0 0.47566430152671418 -0.47072081378611053 0 0.44524844219767701 -0.49999999999999439 0 0.5 -0.5 0 0.47566430152671418 -0.47072081378611053 0 0.5 -0.5 0 0.47566430152671418 -0.47072081378611053 0 0.49999999999999789 -0.4528886558132641 0 0.47566430152671418 -0.47072081378611053 0 0.48482547076100241 -0.45155129713888931 0 0.46965094152200682 -0.45021393846451357 0 0.47566430152671418 -0.47072081378611053 0 0.49999999999999789 -0.4528886558132641 0 0.48482547076100241 -0.45155129713888931 0 0.49999999999999789 -0.4528886558132641 0 0.49050566641375909 -0.44078556862107388 0 0.5 -0.42645422215516771 0 0.49999999999999789 -0.4528886558132641 0 0.48482547076100241 -0.45155129713888931 0 0.49999999999999789 -0.4528886558132641 0 0.48482547076100241 -0.45155129713888931 0 0.49050566641375909 -0.44078556862107388 0 0.48482547076100241 -0.45155129713888931 0 0.49050566641375909 -0.44078556862107388 0 0.48236109758713203 -0.4435098039704366 0 0.49050566641375909 -0.44078556862107388 0 0.48236109758713203 -0.4435098039704366 0 0.4844623116517599 -0.43148841165726931 0 0.46965094152200682 -0.45021393846451357 0 0.47176128275810442 -0.43891652369036471 0 0.4844623116517599 -0.43148841165726931 0 0.46965094152200682 -0.45021393846451357 0 0.4844623116517599 -0.43148841165726931 0 0.48236109758713203 -0.4435098039704366 0 0.46965094152200682 -0.45021393846451357 0 0.4844623116517599 -0.43148841165726931 0 0.48482547076100241 -0.45155129713888931 0 0.46965094152200682 -0.45021393846451357 0 0.48482547076100241 -0.45155129713888931 0 0.48236109758713203 -0.4435098039704366 0 0.46965094152200682 -0.45021393846451357 0 0.47176128275810442 -0.43891652369036471 0 0.45931404273571569 -0.44930292890103762 0 0.47361783512293548 -0.42466081573863812 0 0.46965094152200682 -0.45021393846451357 0 0.45931404273571569 -0.44930292890103762 0 0.45448176979468491 -0.45762781319891738 0 0.46965094152200682 -0.45021393846451357 0 0.45931404273571569 -0.44930292890103762 0 0.46965094152200682 -0.45021393846451357 0 0.47176128275810442 -0.43891652369036471 0 0.45931404273571569 -0.44930292890103762 0 0.45426095467959882 -0.46967099130000289 0 0.47566430152671418 -0.47072081378611053 0 0.46965094152200682 -0.45021393846451357 0 0.45426095467959882 -0.46967099130000289 0 0.46965094152200682 -0.45021393846451357 0 0.45426095467959882 -0.46967099130000289 0 0.46965094152200682 -0.45021393846451357 0 0.45448176979468491 -0.45762781319891738 0 0.45931404273571569 -0.44930292890103762 0 0.45448176979468491 -0.45762781319891738 0 0.45448176979468491 -0.45762781319891738 0 0.440814424084153 -0.46340083191085529 0 0.44100088065548543 -0.44768895684447468 0 0.440814424084153 -0.46340083191085529 0 0.44100088065548543 -0.44768895684447468 0 0.43118986163921807 -0.45430764381963629 0 0.45426095467959882 -0.46967099130000289 0 0.45448176979468491 -0.45762781319891738 0 0.440814424084153 -0.46340083191085529 0 0.45931404273571569 -0.44930292890103762 0 0.45448176979468491 -0.45762781319891738 0 0.44100088065548543 -0.44768895684447468 0 0.45931404273571569 -0.44930292890103762 0 0.44100088065548543 -0.44768895684447468 0 0.45931404273571569 -0.44930292890103762 0 0.44100088065548543 -0.44768895684447468 0 0.45146317456910151 -0.42692746614043092 0 0.44100088065548543 -0.44768895684447468 0 0.45146317456910151 -0.42692746614043092 0 0.43004330259178503 -0.42304457252770861 0 0.45146317456910151 -0.42692746614043092 0 0.43739888660831627 -0.40001416026750553 0 0.43004330259178503 -0.42304457252770861 0 0.45146317456910151 -0.42692746614043092 0 0.46266025705923569 -0.40001643142187249 0 0.43739888660831627 -0.40001416026750553 0 0.45146317456910151 -0.42692746614043092 0 0.47361783512293548 -0.42466081573863812 0 0.46266025705923569 -0.40001643142187249 0 0.45931404273571569 -0.44930292890103762 0 0.47361783512293548 -0.42466081573863812 0 0.45931404273571569 -0.44930292890103762 0 0.45146317456910151 -0.42692746614043092 0 0.47361783512293548 -0.42466081573863812 0 0.47361783512293548 -0.42466081573863812 0 0.4844623116517599 -0.43148841165726931 0 0.48799236682453451 -0.41820539874272172 0 0.47176128275810442 -0.43891652369036471 0 0.47361783512293548 -0.42466081573863812 0 0.4844623116517599 -0.43148841165726931 0 0.49050566641375909 -0.44078556862107388 0 0.4844623116517599 -0.43148841165726931 0 0.5 -0.42645422215516771 0 0.4844623116517599 -0.43148841165726931 0 0.5 -0.42645422215516771 0 0.48799236682453451 -0.41820539874272172 0 0.49397849858367249 -0.41117452799279969 0 0.48799236682453451 -0.41820539874272172 0 0.487921627510155 -0.40001870257623873 0 0.5 -0.42645422215516771 0 0.49397849858367249 -0.41117452799279969 0 0.50000000000000056 -0.40001978849707109 0 0.5 -0.42645422215516771 0 0.49397849858367249 -0.41117452799279969 0 0.48799236682453451 -0.41820539874272172 0 0.47361783512293548 -0.42466081573863812 0 0.487921627510155 -0.40001870257623873 0 0.46266025705923569 -0.40001643142187249 0 0.47361783512293548 -0.42466081573863812 0 0.487921627510155 -0.40001870257623873 0 0.47361783512293548 -0.42466081573863812 0 0.48799236682453451 -0.41820539874272172 0 0.487921627510155 -0.40001870257623873 0 0.487921627510155 -0.40001870257623873 0 0.46266025705923569 -0.40001643142187249 0 0.487921627510155 -0.40001870257623873 0 0.47471298936756529 -0.38926738700681979 0 0.46266025705923569 -0.40001643142187249 0 0.487921627510155 -0.40001870257623873 0 0.50000000000000056 -0.40001978849707109 0 0.49999999999999878 -0.37921047118871759 0 0.49397849858367249 -0.41117452799279969 0 0.487921627510155 -0.40001870257623873 0 0.50000000000000056 -0.40001978849707109 0 0.487921627510155 -0.40001870257623873 0 0.50000000000000056 -0.40001978849707109 0 0.487921627510155 -0.40001870257623873 0 0.49999999999999878 -0.37921047118871759 0 0.4840478708610656 -0.37788196386612638 0 0.50000000000000633 -0.37195172957364231 0 0.49999999999999878 -0.37921047118871759 0 0.4840478708610656 -0.37788196386612638 0 0.487921627510155 -0.40001870257623873 0 0.49999999999999878 -0.37921047118871759 0 0.487921627510155 -0.40001870257623873 0 0.4840478708610656 -0.37788196386612638 0 0.47471298936756529 -0.38926738700681979 0 0.4840478708610656 -0.37788196386612638 0 0.47471298936756529 -0.38926738700681979 0 0.46881419449760497 -0.37606613814255369 0 0.47471298936756529 -0.38926738700681979 0 0.46881419449760497 -0.37606613814255369 0 0.45619540032603878 -0.38630329450993778 0 0.45861001560358972 -0.37180322451855141 0 0.46881419449760497 -0.37606613814255369 0 0.45619540032603878 -0.38630329450993778 0 0.45861001560358972 -0.37180322451855141 0 0.45619540032603878 -0.38630329450993778 0 0.44514191224301541 -0.37577066415520072 0 0.47471298936756529 -0.38926738700681979 0 0.45619540032603878 -0.38630329450993778 0 0.46266025705923569 -0.40001643142187249 0 0.46266025705923569 -0.40001643142187249 0 0.43739888660831627 -0.40001416026750553 0 0.45619540032603878 -0.38630329450993778 0 0.46266025705923569 -0.40001643142187249 0 0.43739888660831627 -0.40001416026750553 0 0.45619540032603878 -0.38630329450993778 0 0.44514191224301541 -0.37577066415520072 0 0.43739888660831627 -0.40001416026750553 0 0.44514191224301541 -0.37577066415520072 0 0.43739888660831627 -0.40001416026750553 0 0.44514191224301541 -0.37577066415520072 0 0.43213676170417398 -0.38497525906281599 0 0.43739888660831627 -0.40001416026750553 0 0.4217961611711239 -0.37285377035197143 0 0.43213676170417398 -0.38497525906281599 0 0.4119965466622928 -0.4000118764391048 0 0.4217961611711239 -0.37285377035197143 0 0.44514191224301541 -0.37577066415520072 0 0.43213676170417398 -0.38497525906281599 0 0.43739888660831627 -0.40001416026750553 0 0.4119965466622928 -0.4000118764391048 0 0.43213676170417398 -0.38497525906281599 0 0.43739888660831627 -0.40001416026750553 0 0.4119965466622928 -0.4000118764391048 0 0.43739888660831627 -0.40001416026750553 0 0.4119965466622928 -0.4000118764391048 0 0.41504225560298252 -0.41627974130347928 0 0.4217961611711239 -0.37285377035197143 0 0.39536074496811008 -0.38113094199159891 0 0.4217961611711239 -0.37285377035197143 0 0.4119965466622928 -0.4000118764391048 0 0.39536074496811008 -0.38113094199159891 0 0.38659420671626921 -0.40000959261070429 0 0.37443437444949851 -0.37928020159298098 0 0.39536074496811008 -0.38113094199159891 0 0.38659420671626921 -0.40000959261070429 0 0.37443437444949851 -0.37928020159298098 0 0.38659420671626921 -0.40000959261070429 0 0.37836164939097472 -0.40740213436670569 0 0.36465468539833301 -0.40000762011123242 0 0.38659420671626921 -0.40000959261070429 0 0.36465468539833301 -0.40000762011123242 0 0.38659420671626921 -0.40000959261070429 0 0.36465468539833301 -0.40000762011123242 0 0.37443437444949851 -0.37928020159298098 0 0.4119965466622928 -0.4000118764391048 0 0.39536074496811008 -0.38113094199159891 0 0.38659420671626921 -0.40000959261070429 0 0.4119965466622928 -0.4000118764391048 0 0.38659420671626921 -0.40000959261070429 0 0.38659420671626921 -0.40000959261070429 0 0.39206861338361282 -0.41479664862218579 0 0.399855515371628 -0.42261671797993228 0 0.38659420671626921 -0.40000959261070429 0 0.399855515371628 -0.42261671797993228 0 0.4119965466622928 -0.4000118764391048 0 0.38659420671626921 -0.40000959261070429 0 0.399855515371628 -0.42261671797993228 0 0.39206861338361282 -0.41479664862218579 0 0.38210243811395561 -0.4172904030691485 0 0.37836164939097472 -0.40740213436670569 0 0.38659420671626921 -0.40000959261070429 0 0.39206861338361282 -0.41479664862218579 0 0.37836164939097472 -0.40740213436670569 0 0.39206861338361282 -0.41479664862218579 0 0.37836164939097472 -0.40740213436670569 0 0.39206861338361282 -0.41479664862218579 0 0.38210243811395561 -0.4172904030691485 0 0.38825667895691213 -0.42853683580243213 0 0.38210243811395561 -0.4172904030691485 0 0.37691416524153132 -0.42394005064711793 0 0.37330284462081109 -0.41505233377558531 0 0.38210243811395561 -0.4172904030691485 0 0.37836164939097472 -0.40740213436670569 0 0.37330284462081109 -0.41505233377558531 0 0.37691416524153132 -0.42394005064711793 0 0.38825667895691213 -0.42853683580243213 0 0.3718598618083036 -0.43946806677447697 0 0.38210243811395561 -0.4172904030691485 0 0.37691416524153132 -0.42394005064711793 0 0.38825667895691213 -0.42853683580243213 0 0.399855515371628 -0.42261671797993228 0 0.39875142000157848 -0.43728801601938738 0 0.41310549918940692 -0.44523048648331248 0 0.38825667895691213 -0.42853683580243213 0 0.39875142000157848 -0.43728801601938738 0 0.39026928642843561 -0.44482433049029491 0 0.38825667895691213 -0.42853683580243213 0 0.399855515371628 -0.42261671797993228 0 0.39875142000157848 -0.43728801601938738 0 0.39206861338361282 -0.41479664862218579 0 0.38825667895691213 -0.42853683580243213 0 0.399855515371628 -0.42261671797993228 0 0.399855515371628 -0.42261671797993228 0 0.41310549918940692 -0.44523048648331248 0 0.399855515371628 -0.42261671797993228 0 0.41614685826621162 -0.43064930061646889 0 0.41504225560298252 -0.41627974130347928 0 0.399855515371628 -0.42261671797993228 0 0.41614685826621162 -0.43064930061646889 0 0.41310549918940692 -0.44523048648331248 0 0.41614685826621162 -0.43064930061646889 0 0.41504225560298252 -0.41627974130347928 0 0.43004330259178503 -0.42304457252770861 0 0.4119965466622928 -0.4000118764391048 0 0.399855515371628 -0.42261671797993228 0 0.41504225560298252 -0.41627974130347928 0 0.43739888660831627 -0.40001416026750553 0 0.41504225560298252 -0.41627974130347928 0 0.43004330259178503 -0.42304457252770861 0 0.43739888660831627 -0.40001416026750553 0 0.43004330259178503 -0.42304457252770861 0 0.43004330259178503 -0.42304457252770861 0 0.42268771857525511 -0.44607498478791208 0 0.41614685826621162 -0.43064930061646889 0 0.43004330259178503 -0.42304457252770861 0 0.42268771857525511 -0.44607498478791208 0 0.44100088065548543 -0.44768895684447468 0 0.42268771857525511 -0.44607498478791208 0 0.44100088065548543 -0.44768895684447468 0 0.42268771857525511 -0.44607498478791208 0 0.43118986163921807 -0.45430764381963629 0 0.44100088065548543 -0.44768895684447468 0 0.43004330259178503 -0.42304457252770861 0 0.42268771857525511 -0.44607498478791208 0 0.42268771857525511 -0.44607498478791208 0 0.43118986163921807 -0.45430764381963629 0 0.41948971137809721 -0.45608797954074137 0 0.43118986163921807 -0.45430764381963629 0 0.41948971137809721 -0.45608797954074137 0 0.42918033960764312 -0.47260801183811818 0 0.440814424084153 -0.46340083191085529 0 0.43118986163921807 -0.45430764381963629 0 0.42918033960764312 -0.47260801183811818 0 0.41948971137809721 -0.45608797954074137 0 0.42918033960764312 -0.47260801183811818 0 0.41948971137809721 -0.45608797954074137 0 0.40128750673508129 -0.45871933147095417 0 0.41247727599105138 -0.47804398977037138 0 0.41948971137809721 -0.45608797954074137 0 0.41310549918940692 -0.44523048648331248 0 0.40128750673508129 -0.45871933147095417 0 0.41948971137809721 -0.45608797954074137 0 0.41247727599105138 -0.47804398977037138 0 0.42268771857525511 -0.44607498478791208 0 0.41948971137809721 -0.45608797954074137 0 0.42268771857525511 -0.44607498478791208 0 0.41948971137809721 -0.45608797954074137 0 0.41310549918940692 -0.44523048648331248 0 0.41948971137809721 -0.45608797954074137 0 0.41310549918940692 -0.44523048648331248 0 0.42268771857525511 -0.44607498478791208 0 0.41310549918940692 -0.44523048648331248 0 0.41614685826621162 -0.43064930061646889 0 0.42268771857525511 -0.44607498478791208 0 0.41310549918940692 -0.44523048648331248 0 0.39875142000157848 -0.43728801601938738 0 0.41310549918940692 -0.44523048648331248 0 0.4008562592980206 -0.4465138803324491 0 0.41310549918940692 -0.44523048648331248 0 0.4008562592980206 -0.4465138803324491 0 0.40128750673508129 -0.45871933147095417 0 0.4008562592980206 -0.4465138803324491 0 0.39026928642843561 -0.44482433049029491 0 0.40128750673508129 -0.45871933147095417 0 0.39875142000157848 -0.43728801601938738 0 0.4008562592980206 -0.4465138803324491 0 0.39026928642843561 -0.44482433049029491 0 0.39026928642843561 -0.44482433049029491 0 0.37997783940564073 -0.46131556237796351 0 0.3718598618083036 -0.43946806677447697 0 0.38825667895691213 -0.42853683580243213 0 0.39026928642843561 -0.44482433049029491 0 0.3718598618083036 -0.43946806677447697 0 0.39026928642843561 -0.44482433049029491 0 0.37997783940564073 -0.46131556237796351 0 0.40128750673508129 -0.45871933147095417 0 0.37997783940564073 -0.46131556237796351 0 0.40128750673508129 -0.45871933147095417 0 0.39433994719427251 -0.48188763488094821 0 0.40128750673508129 -0.45871933147095417 0 0.39433994719427251 -0.48188763488094821 0 0.41247727599105138 -0.47804398977037138 0 0.37997783940564073 -0.46131556237796351 0 0.39433994719427251 -0.48188763488094821 0 0.37580370408484037 -0.48226710162070652 0 0.37580370408484037 -0.48226710162070652 0 0.39829955997995181 -0.50000000000000355 0 0.37580370408484037 -0.48226710162070652 0 0.39829955997995181 -0.50000000000000355 0 0.37425686999094931 -0.5 0 0.39433994719427251 -0.48188763488094821 0 0.37580370408484037 -0.48226710162070652 0 0.39829955997995181 -0.50000000000000355 0 0.39433994719427251 -0.48188763488094821 0 0.39829955997995181 -0.50000000000000355 0 0.40546484060400051 -0.49999999999999989 0 0.39433994719427251 -0.48188763488094821 0 0.40546484060400051 -0.49999999999999989 0 0.41247727599105138 -0.47804398977037138 0 0.40546484060400051 -0.49999999999999989 0 0.41247727599105138 -0.47804398977037138 0 0.40546484060400051 -0.49999999999999989 0 0.4215383612248732 -0.4874007445601185 0 0.41247727599105138 -0.47804398977037138 0 0.40546484060400051 -0.49999999999999989 0 0.4215383612248732 -0.4874007445601185 0 0.42535664140083868 -0.5 0 0.41948971137809721 -0.45608797954074137 0 0.41247727599105138 -0.47804398977037138 0 0.42918033960764312 -0.47260801183811818 0 0.4215383612248732 -0.4874007445601185 0 0.41247727599105138 -0.47804398977037138 0 0.42918033960764312 -0.47260801183811818 0 0.43887096783719193 -0.48912804413549321 0 0.42918033960764312 -0.47260801183811818 0 0.42966214163215471 -0.48904532384104682 0 0.43887096783719193 -0.48912804413549321 0 0.42918033960764312 -0.47260801183811818 0 0.43887096783719193 -0.48912804413549321 0 0.440814424084153 -0.46340083191085529 0 0.42918033960764312 -0.47260801183811818 0 0.4215383612248732 -0.4874007445601185 0 0.42918033960764312 -0.47260801183811818 0 0.42966214163215471 -0.48904532384104682 0 0.44524844219767701 -0.49999999999999439 0 0.43336439809022642 -0.49608981867150392 0 0.42535664140083868 -0.5 0 0.43887096783719193 -0.48912804413549321 0 0.43336439809022642 -0.49608981867150392 0 0.42966214163215471 -0.48904532384104682 0 0.43887096783719193 -0.48912804413549321 0 0.43336439809022642 -0.49608981867150392 0 0.43336439809022642 -0.49608981867150392 0 0.42535664140083868 -0.5 0 0.42966214163215471 -0.48904532384104682 0 0.4215383612248732 -0.4874007445601185 0 0.42535664140083868 -0.5 0 0.42966214163215471 -0.48904532384104682 0 0.32617149001294438 -0.50000000000000056 0 0.31919252851204072 -0.47695955604664109 0 0.33897291706416921 -0.48147272867000251 0 0.32617149001294438 -0.50000000000000056 0 0.30058649285216271 -0.5 0 0.31175709113683042 -0.48929698495783219 0 0.32617149001294438 -0.50000000000000056 0 0.31919252851204072 -0.47695955604664109 0 0.32617149001294438 -0.50000000000000056 0 0.31919252851204072 -0.47695955604664109 0 0.31175709113683042 -0.48929698495783219 0 0.31919252851204072 -0.47695955604664109 0 0.33897291706416921 -0.48147272867000251 0 0.32723052883001053 -0.46383995166935948 0 0.33897291706416921 -0.48147272867000251 0 0.35330784818973071 -0.46453420324140721 0 0.32723052883001053 -0.46383995166935948 0 0.32617149001294438 -0.50000000000000056 0 0.33897291706416921 -0.48147272867000251 0 0.35021418000194687 -0.5 0 0.33897291706416921 -0.48147272867000251 0 0.35021418000194687 -0.5 0 0.35772092683834139 -0.48350266106260642 0 0.37580370408484037 -0.48226710162070652 0 0.37425686999094931 -0.5 0 0.35772092683834139 -0.48350266106260642 0 0.35021418000194687 -0.5 0 0.37425686999094931 -0.5 0 0.35772092683834139 -0.48350266106260642 0 0.37580370408484037 -0.48226710162070652 0 0.35330784818973071 -0.46453420324140721 0 0.37580370408484037 -0.48226710162070652 0 0.35772092683834139 -0.48350266106260642 0 0.35330784818973071 -0.46453420324140721 0 0.37997783940564073 -0.46131556237796351 0 0.37580370408484037 -0.48226710162070652 0 0.35330784818973071 -0.46453420324140721 0 0.33897291706416921 -0.48147272867000251 0 0.35772092683834139 -0.48350266106260642 0 0.35330784818973071 -0.46453420324140721 0 0.37997783940564073 -0.46131556237796351 0 0.35330784818973071 -0.46453420324140721 0 0.3718598618083036 -0.43946806677447697 0 0.35330784818973071 -0.46453420324140721 0 0.3718598618083036 -0.43946806677447697 0 0.35144132444558462 -0.43361154700990778 0 0.35330784818973071 -0.46453420324140721 0 0.3308119922946211 -0.44680130486210801 0 0.35144132444558462 -0.43361154700990778 0 0.35330784818973071 -0.46453420324140721 0 0.3308119922946211 -0.44680130486210801 0 0.35330784818973071 -0.46453420324140721 0 0.3308119922946211 -0.44680130486210801 0 0.32723052883001053 -0.46383995166935948 0 0.3308119922946211 -0.44680130486210801 0 0.32723052883001053 -0.46383995166935948 0 0.32095752674376132 -0.44890936422071148 0 0.31919252851204072 -0.47695955604664109 0 0.31221356701113762 -0.4539191120932814 0 0.31919252851204072 -0.47695955604664109 0 0.32723052883001053 -0.46383995166935948 0 0.31221356701113762 -0.4539191120932814 0 0.32723052883001053 -0.46383995166935948 0 0.32095752674376132 -0.44890936422071148 0 0.31221356701113762 -0.4539191120932814 0 0.32723052883001053 -0.46383995166935948 0 0.31221356701113762 -0.4539191120932814 0 0.32095752674376132 -0.44890936422071148 0 0.31160616435154792 -0.44515351185913349 0 0.31221356701113762 -0.4539191120932814 0 0.3308119922946211 -0.44680130486210801 0 0.30831613639951261 -0.42906840648280742 0 0.30921274248115532 -0.44047869091679043 0 0.3308119922946211 -0.44680130486210801 0 0.30831613639951261 -0.42906840648280742 0 0.3308119922946211 -0.44680130486210801 0 0.32095752674376132 -0.44890936422071148 0 0.30921274248115532 -0.44047869091679043 0 0.32095752674376132 -0.44890936422071148 0 0.30921274248115532 -0.44047869091679043 0 0.31160616435154792 -0.44515351185913349 0 0.3308119922946211 -0.44680130486210801 0 0.3342391270350219 -0.42170194292866181 0 0.30831613639951261 -0.42906840648280742 0 0.3184175697730231 -0.41442089607039928 0 0.3342391270350219 -0.42170194292866181 0 0.32454012070624327 -0.40000401356228998 0 0.3184175697730231 -0.41442089607039928 0 0.32454012070624327 -0.40000401356228998 0 0.30657489495131851 -0.40690922130785162 0 0.3184175697730231 -0.41442089607039928 0 0.3342391270350219 -0.42170194292866181 0 0.30831613639951261 -0.42906840648280742 0 0.3342391270350219 -0.42170194292866181 0 0.34459740305228809 -0.40000581683677222 0 0.32454012070624327 -0.40000401356228998 0 0.3308119922946211 -0.44680130486210801 0 0.3342391270350219 -0.42170194292866181 0 0.35144132444558462 -0.43361154700990778 0 0.35144132444558462 -0.43361154700990778 0 0.36380388741331432 -0.42009991067946062 0 0.35256955531565359 -0.41336493495895832 0 0.3342391270350219 -0.42170194292866181 0 0.35144132444558462 -0.43361154700990778 0 0.35256955531565359 -0.41336493495895832 0 0.3718598618083036 -0.43946806677447697 0 0.35144132444558462 -0.43361154700990778 0 0.36380388741331432 -0.42009991067946062 0 0.37691416524153132 -0.42394005064711793 0 0.3718598618083036 -0.43946806677447697 0 0.36380388741331432 -0.42009991067946062 0 0.36380388741331432 -0.42009991067946062 0 0.35256955531565359 -0.41336493495895832 0 0.36465468539833301 -0.40000762011123242 0 0.37330284462081109 -0.41505233377558531 0 0.36380388741331432 -0.42009991067946062 0 0.36465468539833301 -0.40000762011123242 0 0.37836164939097472 -0.40740213436670569 0 0.37330284462081109 -0.41505233377558531 0 0.36465468539833301 -0.40000762011123242 0 0.37691416524153132 -0.42394005064711793 0 0.37330284462081109 -0.41505233377558531 0 0.36380388741331432 -0.42009991067946062 0 0.3342391270350219 -0.42170194292866181 0 0.35256955531565359 -0.41336493495895832 0 0.34459740305228809 -0.40000581683677222 0 0.36465468539833301 -0.40000762011123242 0 0.34577734071971339 -0.38982383365007611 0 0.36465468539833301 -0.40000762011123242 0 0.35981890563638402 -0.38663183807986079 0 0.34577734071971339 -0.38982383365007611 0 0.34459740305228809 -0.40000581683677222 0 0.36465468539833301 -0.40000762011123242 0 0.34577734071971339 -0.38982383365007611 0 0.34459740305228809 -0.40000581683677222 0 0.36465468539833301 -0.40000762011123242 0 0.35256955531565359 -0.41336493495895832 0 0.34459740305228809 -0.40000581683677222 0 0.36465468539833301 -0.40000762011123242 0 0.37836164939097472 -0.40740213436670569 0 0.36465468539833301 -0.40000762011123242 0 0.36465468539833301 -0.40000762011123242 0 0.37443437444949851 -0.37928020159298098 0 0.35981890563638402 -0.38663183807986079 0 0.37443437444949851 -0.37928020159298098 0 0.35981890563638402 -0.38663183807986079 0 0.35584696164825219 -0.37514794996712042 0 0.35981890563638402 -0.38663183807986079 0 0.35584696164825219 -0.37514794996712042 0 0.34577734071971339 -0.38982383365007611 0 0.35584696164825219 -0.37514794996712042 0 0.34577734071971339 -0.38982383365007611 0 0.34223250847911763 -0.37772709405185889 0 0.34577734071971339 -0.38982383365007611 0 0.34223250847911763 -0.37772709405185889 0 0.3268999960410901 -0.37964004718892669 0 0.34577734071971339 -0.38982383365007611 0 0.3268999960410901 -0.37964004718892669 0 0.32639810912506922 -0.38990060619010403 0 0.34577734071971339 -0.38982383365007611 0 0.3268999960410901 -0.37964004718892669 0 0.34577734071971339 -0.38982383365007611 0 0.33454483194981971 -0.3961585506377468 0 0.32639810912506922 -0.38990060619010403 0 0.34459740305228809 -0.40000581683677222 0 0.34577734071971339 -0.38982383365007611 0 0.33454483194981971 -0.3961585506377468 0 0.34459740305228809 -0.40000581683677222 0 0.32454012070624327 -0.40000401356228998 0 0.34459740305228809 -0.40000581683677222 0 0.33454483194981971 -0.3961585506377468 0 0.32454012070624327 -0.40000401356228998 0 0.33454483194981971 -0.3961585506377468 0 0.32454012070624327 -0.40000401356228998 0 0.32639810912506922 -0.38990060619010403 0 0.33454483194981971 -0.3961585506377468 0 0.32454012070624327 -0.40000401356228998 0 0.32454012070624327 -0.40000401356228998 0 0.31814340228073862 -0.3936051317674823 0 0.32639810912506922 -0.38990060619010403 0 0.32454012070624327 -0.40000401356228998 0 0.30657489495131851 -0.40690922130785162 0 0.32454012070624327 -0.40000401356228998 0 0.31814340228073862 -0.3936051317674823 0 0.30603216148743217 -0.40000234958162539 0 0.32454012070624327 -0.40000401356228998 0 0.30603216148743217 -0.40000234958162539 0 0.31814340228073862 -0.3936051317674823 0 0.31293747795466448 -0.3862049934748239 0 0.32639810912506922 -0.38990060619010403 0 0.3268999960410901 -0.37964004718892669 0 0.31201515268685759 -0.37738016367957472 0 0.30802265136246693 -0.36945626072777721 0 0.31293747795466448 -0.3862049934748239 0 0.3268999960410901 -0.37964004718892669 0 0.31201515268685759 -0.37738016367957472 0 0.31293747795466448 -0.3862049934748239 0 0.3268999960410901 -0.37964004718892669 0 0.32639810912506922 -0.38990060619010403 0 0.31293747795466448 -0.3862049934748239 0 0.30603216148743217 -0.40000234958162539 0 0.30396186179251927 -0.37365554147243291 0 0.29962014061214631 -0.38586488701894628 0 0.30603216148743217 -0.40000234958162539 0 0.30396186179251927 -0.37365554147243291 0 0.30603216148743217 -0.40000234958162539 0 0.30396186179251927 -0.37365554147243291 0 0.29755194509234451 -0.37805674196903449 0 0.30396186179251927 -0.37365554147243291 0 0.29469898204294193 -0.37357626062704469 0 0.29962014061214631 -0.38586488701894628 0 0.29755194509234451 -0.37805674196903449 0 0.30396186179251927 -0.37365554147243291 0 0.31293747795466448 -0.3862049934748239 0 0.31201515268685759 -0.37738016367957472 0 0.30396186179251927 -0.37365554147243291 0 0.31814340228073862 -0.3936051317674823 0 0.31293747795466448 -0.3862049934748239 0 0.30603216148743217 -0.40000234958162539 0 0.32454012070624327 -0.40000401356228998 0 0.30603216148743217 -0.40000234958162539 0 0.30657489495131851 -0.40690922130785162 0 0.30603216148743217 -0.40000234958162539 0 0.30657489495131851 -0.40690922130785162 0 0.30603216148743217 -0.40000234958162539 0 0.30026182001622992 -0.404154602065252 0 0.29415178814359128 -0.40000128146214481 0 0.30603216148743217 -0.40000234958162539 0 0.29415178814359128 -0.40000128146214481 0 0.30603216148743217 -0.40000234958162539 0 0.30026182001622992 -0.404154602065252 0 0.30657489495131851 -0.40690922130785162 0 0.29962014061214631 -0.38586488701894628 0 0.30603216148743217 -0.40000234958162539 0 0.29843880072073048 -0.39443118001828709 0 0.29962014061214631 -0.38586488701894628 0 0.29843880072073048 -0.39443118001828709 0 0.29320456520043298 -0.39200683118626789 0 0.30603216148743217 -0.40000234958162539 0 0.29843880072073048 -0.39443118001828709 0 0.29415178814359128 -0.40000128146214481 0 0.29320456520043298 -0.39200683118626789 0 0.29415178814359128 -0.40000128146214481 0 0.29843880072073048 -0.39443118001828709 0 0.29320456520043298 -0.39200683118626789 0 0.29415178814359128 -0.40000128146214481 0 0.29320456520043298 -0.39200683118626789 0 0.29415178814359128 -0.40000128146214481 0 0.28667768045374531 -0.40000060949336452 0 0.30026182001622992 -0.404154602065252 0 0.29415178814359128 -0.40000128146214481 0 0.29547574802816468 -0.4111753472307052 0 0.29415178814359128 -0.40000128146214481 0 0.29547574802816468 -0.4111753472307052 0 0.29415178814359128 -0.40000128146214481 0 0.28667768045374531 -0.40000060949336452 0 0.29547574802816468 -0.4111753472307052 0 0.29415178814359128 -0.40000128146214481 0 0.28667768045374531 -0.40000060949336452 0 0.28667768045374531 -0.40000060949336452 0 0.27804729825228258 -0.40015928845193011 0 0.27981992033092118 -0.40824931016815902 0 0.29320456520043298 -0.39200683118626789 0 0.28667768045374531 -0.40000060949336452 0 0.28390082550937501 -0.39168357829638201 0 0.28667768045374531 -0.40000060949336452 0 0.28390082550937501 -0.39168357829638201 0 0.27804729825228258 -0.40015928845193011 0 0.29320456520043298 -0.39200683118626789 0 0.28390082550937501 -0.39168357829638201 0 0.28913568612684348 -0.38584677349284352 0 0.28390082550937501 -0.39168357829638201 0 0.28913568612684348 -0.38584677349284352 0 0.28068496989846581 -0.3806146294860856 0 0.29962014061214631 -0.38586488701894628 0 0.28913568612684348 -0.38584677349284352 0 0.29192679592177062 -0.37913027875771399 0 0.29962014061214631 -0.38586488701894628 0 0.29320456520043298 -0.39200683118626789 0 0.28913568612684348 -0.38584677349284352 0 0.29755194509234451 -0.37805674196903449 0 0.29192679592177062 -0.37913027875771399 0 0.29469898204294193 -0.37357626062704469 0 0.29962014061214631 -0.38586488701894628 0 0.29755194509234451 -0.37805674196903449 0 0.29192679592177062 -0.37913027875771399 0 0.28913568612684348 -0.38584677349284352 0 0.29192679592177062 -0.37913027875771399 0 0.28068496989846581 -0.3806146294860856 0 0.29192679592177062 -0.37913027875771399 0 0.28068496989846581 -0.3806146294860856 0 0.28775779952556269 -0.36833264056884329 0 0.28068496989846581 -0.3806146294860856 0 0.2661052309348545 -0.38349904214221181 0 0.27551049373220132 -0.39076923338478342 0 0.28390082550937501 -0.39168357829638201 0 0.28068496989846581 -0.3806146294860856 0 0.27551049373220132 -0.39076923338478342 0 0.28068496989846581 -0.3806146294860856 0 0.2661052309348545 -0.38349904214221181 0 0.26864447647163592 -0.36834915318572248 0 0.2661052309348545 -0.38349904214221181 0 0.25172371832709822 -0.39048929150378081 0 0.2483547988428961 -0.37703000882996779 0 0.2661052309348545 -0.38349904214221181 0 0.26864447647163592 -0.36834915318572248 0 0.2483547988428961 -0.37703000882996779 0 0.2661052309348545 -0.38349904214221181 0 0.25172371832709822 -0.39048929150378081 0 0.26659661027598552 -0.39778593793291628 0 0.25566600204983891 -0.40074257480563419 0 0.25151765789997838 -0.40613307996476561 0 0.26027449406193109 -0.40798785523529291 0 0.25566600204983891 -0.40074257480563419 0 0.25151765789997838 -0.40613307996476561 0 0.2467980079583264 -0.39970101785759332 0 0.25172371832709822 -0.39048929150378081 0 0.25566600204983891 -0.40074257480563419 0 0.2467980079583264 -0.39970101785759332 0 0.25172371832709822 -0.39048929150378081 0 0.25566600204983891 -0.40074257480563419 0 0.26659661027598552 -0.39778593793291628 0 0.25566600204983891 -0.40074257480563419 0 0.26659661027598552 -0.39778593793291628 0 0.26027449406193109 -0.40798785523529291 0 0.26659661027598552 -0.39778593793291628 0 0.27804729825228258 -0.40015928845193011 0 0.27149070098110328 -0.40794775946338352 0 0.26659661027598552 -0.39778593793291628 0 0.27149070098110328 -0.40794775946338352 0 0.26027449406193109 -0.40798785523529291 0 0.26659661027598552 -0.39778593793291628 0 0.27551049373220132 -0.39076923338478342 0 0.27804729825228258 -0.40015928845193011 0 0.2661052309348545 -0.38349904214221181 0 0.26659661027598552 -0.39778593793291628 0 0.27551049373220132 -0.39076923338478342 0 0.28390082550937501 -0.39168357829638201 0 0.27551049373220132 -0.39076923338478342 0 0.27804729825228258 -0.40015928845193011 0 0.27804729825228258 -0.40015928845193011 0 0.27981992033092118 -0.40824931016815902 0 0.27149070098110328 -0.40794775946338352 0 0.27981992033092118 -0.40824931016815902 0 0.26740817393931121 -0.4219635462014133 0 0.29547574802816468 -0.4111753472307052 0 0.27149070098110328 -0.40794775946338352 0 0.26027449406193109 -0.40798785523529291 0 0.26740817393931121 -0.4219635462014133 0 0.27981992033092118 -0.40824931016815902 0 0.27149070098110328 -0.40794775946338352 0 0.26740817393931121 -0.4219635462014133 0 0.25008502760396267 -0.41287437348443312 0 0.26740817393931121 -0.4219635462014133 0 0.26027449406193109 -0.40798785523529291 0 0.25008502760396267 -0.41287437348443312 0 0.26740817393931121 -0.4219635462014133 0 0.25008502760396267 -0.41287437348443312 0 0.26515438161661942 -0.4228298255577565 0 0.26740817393931121 -0.4219635462014133 0 0.25008502760396267 -0.41287437348443312 0 0.26515438161661942 -0.4228298255577565 0 0.25151765789997838 -0.40613307996476561 0 0.26027449406193109 -0.40798785523529291 0 0.25008502760396267 -0.41287437348443312 0 0.26515438161661942 -0.4228298255577565 0 0.26594341680140737 -0.44723136652224171 0 0.23805961817621951 -0.43324410996060381 0 0.25008502760396267 -0.41287437348443312 0 0.26515438161661942 -0.4228298255577565 0 0.23805961817621951 -0.43324410996060381 0 0.26515438161661942 -0.4228298255577565 0 0.23805961817621951 -0.43324410996060381 0 0.26515438161661942 -0.4228298255577565 0 0.28235164253581918 -0.4341910628562976 0 0.26515438161661942 -0.4228298255577565 0 0.28235164253581918 -0.4341910628562976 0 0.26594341680140737 -0.44723136652224171 0 0.26740817393931121 -0.4219635462014133 0 0.28305372076559782 -0.43017250978129251 0 0.26515438161661942 -0.4228298255577565 0 0.26740817393931121 -0.4219635462014133 0 0.28235164253581918 -0.4341910628562976 0 0.26740817393931121 -0.4219635462014133 0 0.28305372076559782 -0.43017250978129251 0 0.28235164253581918 -0.4341910628562976 0 0.26515438161661942 -0.4228298255577565 0 0.26740817393931121 -0.4219635462014133 0 0.28305372076559782 -0.43017250978129251 0 0.29547574802816468 -0.4111753472307052 0 0.29869926759188542 -0.43838147336116978 0 0.28305372076559782 -0.43017250978129251 0 0.29869926759188542 -0.43838147336116978 0 0.28305372076559782 -0.43017250978129251 0 0.28235164253581918 -0.4341910628562976 0 0.29869926759188542 -0.43838147336116978 0 0.28667768045374531 -0.40000060949336452 0 0.27981992033092118 -0.40824931016815902 0 0.29547574802816468 -0.4111753472307052 0 0.26740817393931121 -0.4219635462014133 0 0.28305372076559782 -0.43017250978129251 0 0.29547574802816468 -0.4111753472307052 0 0.26740817393931121 -0.4219635462014133 0 0.29547574802816468 -0.4111753472307052 0 0.29547574802816468 -0.4111753472307052 0 0.30657489495131851 -0.40690922130785162 0 0.30357868906992619 -0.42541180176884319 0 0.30657489495131851 -0.40690922130785162 0 0.30831613639951261 -0.42906840648280742 0 0.30357868906992619 -0.42541180176884319 0 0.3184175697730231 -0.41442089607039928 0 0.30657489495131851 -0.40690922130785162 0 0.30831613639951261 -0.42906840648280742 0 0.30657489495131851 -0.40690922130785162 0 0.30831613639951261 -0.42906840648280742 0 0.30026182001622992 -0.404154602065252 0 0.29547574802816468 -0.4111753472307052 0 0.30657489495131851 -0.40690922130785162 0 0.29547574802816468 -0.4111753472307052 0 0.30657489495131851 -0.40690922130785162 0 0.29547574802816468 -0.4111753472307052 0 0.30357868906992619 -0.42541180176884319 0 0.29869926759188542 -0.43838147336116978 0 0.30357868906992619 -0.42541180176884319 0 0.30921274248115532 -0.44047869091679043 0 0.30917153416064219 -0.44387610105403069 0 0.30357868906992619 -0.42541180176884319 0 0.29869926759188542 -0.43838147336116978 0 0.30917153416064219 -0.44387610105403069 0 0.29547574802816468 -0.4111753472307052 0 0.29869926759188542 -0.43838147336116978 0 0.30357868906992619 -0.42541180176884319 0 0.30917153416064219 -0.44387610105403069 0 0.30831613639951261 -0.42906840648280742 0 0.30357868906992619 -0.42541180176884319 0 0.30831613639951261 -0.42906840648280742 0 0.30357868906992619 -0.42541180176884319 0 0.30921274248115532 -0.44047869091679043 0 0.30831613639951261 -0.42906840648280742 0 0.30921274248115532 -0.44047869091679043 0 0.30197194108330722 -0.44573760319329148 0 0.29976079858607613 -0.44734067014854739 0 0.31221356701113762 -0.4539191120932814 0 0.30197194108330722 -0.44573760319329148 0 0.29976079858607613 -0.44734067014854739 0 0.30197194108330722 -0.44573760319329148 0 0.29976079858607613 -0.44734067014854739 0 0.29954890345501978 -0.44555230015483771 0 0.29976079858607613 -0.44734067014854739 0 0.29954890345501978 -0.44555230015483771 0 0.30197194108330722 -0.44573760319329148 0 0.29869926759188542 -0.43838147336116978 0 0.30917153416064219 -0.44387610105403069 0 0.30197194108330722 -0.44573760319329148 0 0.29954890345501978 -0.44555230015483771 0 0.29869926759188542 -0.43838147336116978 0 0.29869926759188542 -0.43838147336116978 0 0.30917153416064219 -0.44387610105403069 0 0.29954890345501978 -0.44555230015483771 0 0.29869926759188542 -0.43838147336116978 0 0.30921274248115532 -0.44047869091679043 0 0.30917153416064219 -0.44387610105403069 0 0.31160616435154792 -0.44515351185913349 0 0.30917153416064219 -0.44387610105403069 0 0.31160616435154792 -0.44515351185913349 0 0.30917153416064219 -0.44387610105403069 0 0.31160616435154792 -0.44515351185913349 0 0.31221356701113762 -0.4539191120932814 0 0.30917153416064219 -0.44387610105403069 0 0.31221356701113762 -0.4539191120932814 0 0.29976079858607613 -0.44734067014854739 0 0.31221356701113762 -0.4539191120932814 0 0.30197194108330722 -0.44573760319329148 0 0.30917153416064219 -0.44387610105403069 0 0.31221356701113762 -0.4539191120932814 0 0.29976079858607613 -0.44734067014854739 0 0.31221356701113762 -0.4539191120932814 0 0.30329892205298442 -0.47720201623414849 0 0.29976079858607613 -0.44734067014854739 0 0.29210853849171131 -0.46630081623463721 0 0.30329892205298442 -0.47720201623414849 0 0.29976079858607613 -0.44734067014854739 0 0.30329892205298442 -0.47720201623414849 0 0.29976079858607613 -0.44734067014854739 0 0.28216357687165511 -0.46009856552165879 0 0.29976079858607613 -0.44734067014854739 0 0.28216357687165511 -0.46009856552165879 0 0.29210853849171131 -0.46630081623463721 0 0.28235164253581918 -0.4341910628562976 0 0.29954890345501978 -0.44555230015483771 0 0.28679396744278662 -0.44797030775036312 0 0.29976079858607613 -0.44734067014854739 0 0.28216357687165511 -0.46009856552165879 0 0.28679396744278662 -0.44797030775036312 0 0.28235164253581918 -0.4341910628562976 0 0.29954890345501978 -0.44555230015483771 0 0.28235164253581918 -0.4341910628562976 0 0.29954890345501978 -0.44555230015483771 0 0.29869926759188542 -0.43838147336116978 0 0.29976079858607613 -0.44734067014854739 0 0.29954890345501978 -0.44555230015483771 0 0.28679396744278662 -0.44797030775036312 0 0.28235164253581918 -0.4341910628562976 0 0.28679396744278662 -0.44797030775036312 0 0.26594341680140737 -0.44723136652224171 0 0.28216357687165511 -0.46009856552165879 0 0.28679396744278662 -0.44797030775036312 0 0.26594341680140737 -0.44723136652224171 0 0.26594341680140737 -0.44723136652224171 0 0.2645663551572337 -0.47285646089476968 0 0.2425143758095184 -0.45942923311424289 0 0.28216357687165511 -0.46009856552165879 0 0.2645663551572337 -0.47285646089476968 0 0.28216357687165511 -0.46009856552165879 0 0.26594341680140737 -0.44723136652224171 0 0.2645663551572337 -0.47285646089476968 0 0.28216357687165511 -0.46009856552165879 0 0.2645663551572337 -0.47285646089476968 0 0.28321085645612909 -0.48056201303419371 0 0.2645663551572337 -0.47285646089476968 0 0.26383286785563148 -0.48780656603936978 0 0.28321085645612909 -0.48056201303419371 0 0.2645663551572337 -0.47285646089476968 0 0.26383286785563148 -0.48780656603936978 0 0.24696913344281371 -0.48561435626788269 0 0.2645663551572337 -0.47285646089476968 0 0.24696913344281371 -0.48561435626788269 0 0.2645663551572337 -0.47285646089476968 0 0.24696913344281371 -0.48561435626788269 0 0.2425143758095184 -0.45942923311424289 0 0.26383286785563148 -0.48780656603936978 0 0.2750014956913811 -0.5 0 0.24941649853059941 -0.500000000000003 0 0.26383286785563148 -0.48780656603936978 0 0.24696913344281371 -0.48561435626788269 0 0.24941649853059941 -0.500000000000003 0 0.26383286785563148 -0.48780656603936978 0 0.2750014956913811 -0.5 0 0.28321085645612909 -0.48056201303419371 0 0.2750014956913811 -0.5 0 0.28321085645612909 -0.48056201303419371 0 0.30058649285216271 -0.5 0 0.28321085645612909 -0.48056201303419371 0 0.30329892205298442 -0.47720201623414849 0 0.30058649285216271 -0.5 0 0.29210853849171131 -0.46630081623463721 0 0.28321085645612909 -0.48056201303419371 0 0.30329892205298442 -0.47720201623414849 0 0.28216357687165511 -0.46009856552165879 0 0.29210853849171131 -0.46630081623463721 0 0.28321085645612909 -0.48056201303419371 0 0.31919252851204072 -0.47695955604664109 0 0.30329892205298442 -0.47720201623414849 0 0.31175709113683042 -0.48929698495783219 0 0.31919252851204072 -0.47695955604664109 0 0.31221356701113762 -0.4539191120932814 0 0.30329892205298442 -0.47720201623414849 0 0.30329892205298442 -0.47720201623414849 0 0.30058649285216271 -0.5 0 0.31175709113683042 -0.48929698495783219 0 0.33271642231924409 -0.28448566774919443 0 0.33927859598013232 -0.29965204161633008 0 0.32236417633689052 -0.29282375205128819 0 0.33271642231924409 -0.28448566774919443 0 0.33927859598013232 -0.29965204161633008 0 0.34440660276640278 -0.28380361267713983 0 0.33927859598013232 -0.29965204161633008 0 0.32322894980640299 -0.30534022748919942 0 0.32236417633689052 -0.29282375205128819 0 0.33927859598013232 -0.29965204161633008 0 0.32322894980640299 -0.30534022748919942 0 0.32428152176710939 -0.31439557729682183 0 0.33927859598013232 -0.29965204161633008 0 0.34172510817542051 -0.31539775533562397 0 0.32428152176710939 -0.31439557729682183 0 0.33927859598013232 -0.29965204161633008 0 0.34991915908187071 -0.30520156923891101 0 0.34172510817542051 -0.31539775533562397 0 0.33927859598013232 -0.29965204161633008 0 0.32428152176710939 -0.31439557729682183 0 0.32322894980640299 -0.30534022748919942 0 0.32428152176710939 -0.31439557729682183 0 0.32248760667077758 -0.31276883375151632 0 0.32322894980640299 -0.30534022748919942 0 0.31831130241587968 -0.3090801504630144 0 0.32248760667077758 -0.31276883375151632 0 0.32322894980640299 -0.30534022748919942 0 0.31831130241587968 -0.3090801504630144 0 0.31291236070140849 -0.30427375384119099 0 0.31831130241587968 -0.3090801504630144 0 0.31291236070140849 -0.30427375384119099 0 0.31461629248492978 -0.31393778677015088 0 0.31831130241587968 -0.3090801504630144 0 0.32248760667077758 -0.31276883375151632 0 0.31461629248492978 -0.31393778677015088 0 0.32322894980640299 -0.30534022748919942 0 0.31291236070140849 -0.30427375384119099 0 0.32236417633689052 -0.29282375205128819 0 0.32236417633689052 -0.29282375205128819 0 0.31374132400889382 -0.28481340759494522 0 0.31095995361558942 -0.29323763668992431 0 0.31291236070140849 -0.30427375384119099 0 0.32236417633689052 -0.29282375205128819 0 0.31095995361558942 -0.29323763668992431 0 0.33271642231924409 -0.28448566774919443 0 0.32236417633689052 -0.29282375205128819 0 0.32274790426858868 -0.28069957207641433 0 0.32236417633689052 -0.29282375205128819 0 0.31374132400889382 -0.28481340759494522 0 0.32274790426858868 -0.28069957207641433 0 0.31374132400889382 -0.28481340759494522 0 0.31300436062394271 -0.27354894687108988 0 0.32274790426858868 -0.28069957207641433 0 0.31300436062394271 -0.27354894687108988 0 0.32358593783526302 -0.2721267855886757 0 0.32274790426858868 -0.28069957207641433 0 0.31300436062394271 -0.27354894687108988 0 0.32050365979258499 -0.26436386699009901 0 0.30896098641785691 -0.26167601711580402 0 0.31300436062394271 -0.27354894687108988 0 0.32358593783526302 -0.2721267855886757 0 0.32050365979258499 -0.26436386699009901 0 0.32358593783526302 -0.2721267855886757 0 0.32050365979258499 -0.26436386699009901 0 0.33105112325928682 -0.26760775799571529 0 0.32358593783526302 -0.2721267855886757 0 0.32274790426858868 -0.28069957207641433 0 0.32977808687801602 -0.27568069044619808 0 0.31782269805779512 -0.25342902562787689 0 0.32050365979258499 -0.26436386699009901 0 0.30896098641785691 -0.26167601711580402 0 0.32050365979258499 -0.26436386699009901 0 0.32866110218367539 -0.25683360125752341 0 0.33105112325928682 -0.26760775799571529 0 0.31782269805779512 -0.25342902562787689 0 0.32050365979258499 -0.26436386699009901 0 0.32866110218367539 -0.25683360125752341 0 0.3290255816579481 -0.24473351545326591 0 0.31782269805779512 -0.25342902562787689 0 0.32866110218367539 -0.25683360125752341 0 0.3290255816579481 -0.24473351545326591 0 0.32866110218367539 -0.25683360125752341 0 0.34490244815076221 -0.25403384022065989 0 0.32866110218367539 -0.25683360125752341 0 0.33105112325928682 -0.26760775799571529 0 0.34490244815076221 -0.25403384022065989 0 0.33105112325928682 -0.26760775799571529 0 0.33836676953074918 -0.27411712203906008 0 0.34490244815076221 -0.25403384022065989 0 0.33271642231924409 -0.28448566774919443 0 0.32274790426858868 -0.28069957207641433 0 0.32977808687801602 -0.27568069044619808 0 0.33271642231924409 -0.28448566774919443 0 0.32977808687801602 -0.27568069044619808 0 0.33836676953074918 -0.27411712203906008 0 0.32358593783526302 -0.2721267855886757 0 0.32977808687801602 -0.27568069044619808 0 0.33105112325928682 -0.26760775799571529 0 0.32977808687801602 -0.27568069044619808 0 0.33105112325928682 -0.26760775799571529 0 0.33836676953074918 -0.27411712203906008 0 0.33271642231924409 -0.28448566774919443 0 0.33836676953074918 -0.27411712203906008 0 0.34440660276640278 -0.28380361267713983 0 0.35315674735993091 -0.28122286099105098 0 0.34490244815076221 -0.25403384022065989 0 0.36009410790303709 -0.26230491969013231 0 0.35315674735993091 -0.28122286099105098 0 0.34490244815076221 -0.25403384022065989 0 0.34864541121520681 -0.27843547773136479 0 0.35315674735993091 -0.28122286099105098 0 0.34490244815076221 -0.25403384022065989 0 0.34864541121520681 -0.27843547773136479 0 0.35315674735993091 -0.28122286099105098 0 0.34440660276640278 -0.28380361267713983 0 0.33836676953074918 -0.27411712203906008 0 0.34864541121520681 -0.27843547773136479 0 0.34490244815076221 -0.25403384022065989 0 0.33836676953074918 -0.27411712203906008 0 0.34864541121520681 -0.27843547773136479 0 0.34440660276640278 -0.28380361267713983 0 0.34864541121520681 -0.27843547773136479 0 0.35315674735993091 -0.28122286099105098 0 0.35315674735993091 -0.28122286099105098 0 0.36620967731049953 -0.27317625354803449 0 0.3561459931363623 -0.28306980242237079 0 0.35761660521186212 -0.24331215438039511 0 0.34490244815076221 -0.25403384022065989 0 0.36009410790303709 -0.26230491969013231 0 0.35761660521186212 -0.24331215438039511 0 0.37858506148213172 -0.25977948931052042 0 0.35761660521186212 -0.24331215438039511 0 0.37858506148213172 -0.25977948931052042 0 0.36009410790303709 -0.26230491969013231 0 0.37858506148213172 -0.25977948931052042 0 0.36009410790303709 -0.26230491969013231 0 0.36620967731049953 -0.27317625354803449 0 0.35315674735993091 -0.28122286099105098 0 0.36009410790303709 -0.26230491969013231 0 0.36620967731049953 -0.27317625354803449 0 0.36620967731049953 -0.27317625354803449 0 0.3561459931363623 -0.28306980242237079 0 0.37767692384597951 -0.29637294674594239 0 0.3561459931363623 -0.28306980242237079 0 0.35746163614481091 -0.29540283043731991 0 0.37767692384597951 -0.29637294674594239 0 0.3561459931363623 -0.28306980242237079 0 0.37767692384597951 -0.29637294674594239 0 0.36620967731049953 -0.27317625354803449 0 0.3561459931363623 -0.28306980242237079 0 0.33927859598013232 -0.29965204161633008 0 0.35427567019315509 -0.28490850593583827 0 0.34440660276640278 -0.28380361267713983 0 0.33927859598013232 -0.29965204161633008 0 0.35427567019315509 -0.28490850593583827 0 0.35746163614481091 -0.29540283043731991 0 0.3561459931363623 -0.28306980242237079 0 0.35427567019315509 -0.28490850593583827 0 0.35746163614481091 -0.29540283043731991 0 0.35315674735993091 -0.28122286099105098 0 0.3561459931363623 -0.28306980242237079 0 0.35315674735993091 -0.28122286099105098 0 0.3561459931363623 -0.28306980242237079 0 0.35427567019315509 -0.28490850593583827 0 0.35315674735993091 -0.28122286099105098 0 0.35427567019315509 -0.28490850593583827 0 0.3561459931363623 -0.28306980242237079 0 0.35427567019315509 -0.28490850593583827 0 0.35427567019315509 -0.28490850593583827 0 0.35746163614481091 -0.29540283043731991 0 0.33927859598013232 -0.29965204161633008 0 0.35427567019315509 -0.28490850593583827 0 0.35315674735993091 -0.28122286099105098 0 0.35427567019315509 -0.28490850593583827 0 0.34440660276640278 -0.28380361267713983 0 0.33927859598013232 -0.29965204161633008 0 0.35746163614481091 -0.29540283043731991 0 0.34991915908187071 -0.30520156923891101 0 0.34991915908187071 -0.30520156923891101 0 0.35333333579827148 -0.31471751374589058 0 0.34172510817542051 -0.31539775533562397 0 0.35746163614481091 -0.29540283043731991 0 0.34991915908187071 -0.30520156923891101 0 0.35811211989804331 -0.3072042123779834 0 0.34991915908187071 -0.30520156923891101 0 0.35811211989804331 -0.3072042123779834 0 0.35333333579827148 -0.31471751374589058 0 0.35811211989804331 -0.3072042123779834 0 0.36823879485462357 -0.30802682292280281 0 0.36191014985811032 -0.31670358539124632 0 0.37767692384597951 -0.29637294674594239 0 0.35746163614481091 -0.29540283043731991 0 0.36823879485462357 -0.30802682292280281 0 0.35746163614481091 -0.29540283043731991 0 0.35811211989804331 -0.3072042123779834 0 0.36823879485462357 -0.30802682292280281 0 0.36823879485462357 -0.30802682292280281 0 0.36191014985811032 -0.31670358539124632 0 0.37156282072268432 -0.32068366856010572 0 0.38080147587596169 -0.31194051636623688 0 0.36823879485462357 -0.30802682292280281 0 0.37156282072268432 -0.32068366856010572 0 0.36191014985811032 -0.31670358539124632 0 0.36200984741147862 -0.32666035198184462 0 0.37156282072268432 -0.32068366856010572 0 0.36191014985811032 -0.31670358539124632 0 0.36200984741147862 -0.32666035198184462 0 0.35591405456981812 -0.32202314340340049 0 0.36200984741147862 -0.32666035198184462 0 0.37156282072268432 -0.32068366856010572 0 0.36984751977043773 -0.33703335511666271 0 0.36984751977043773 -0.33703335511666271 0 0.36084822031758412 -0.33994667008172941 0 0.35891730604053179 -0.33405363205786842 0 0.36984751977043773 -0.33703335511666271 0 0.36084822031758412 -0.33994667008172941 0 0.36451334554340842 -0.3508782735948528 0 0.36200984741147862 -0.32666035198184462 0 0.36984751977043773 -0.33703335511666271 0 0.35891730604053179 -0.33405363205786842 0 0.36200984741147862 -0.32666035198184462 0 0.35891730604053179 -0.33405363205786842 0 0.35308550694804458 -0.32968059382483261 0 0.35891730604053179 -0.33405363205786842 0 0.35308550694804458 -0.32968059382483261 0 0.35011470991595811 -0.33782141955753392 0 0.36084822031758412 -0.33994667008172941 0 0.35011470991595811 -0.33782141955753392 0 0.36451334554340842 -0.3508782735948528 0 0.36084822031758412 -0.33994667008172941 0 0.35891730604053179 -0.33405363205786842 0 0.35011470991595811 -0.33782141955753392 0 0.35308550694804458 -0.32968059382483261 0 0.35011470991595811 -0.33782141955753392 0 0.34765952732399452 -0.33363596380023769 0 0.34765952732399452 -0.33363596380023769 0 0.34833174973654529 -0.32757565677166828 0 0.34373543785438387 -0.32473181218775948 0 0.35011470991595811 -0.33782141955753392 0 0.34765952732399452 -0.33363596380023769 0 0.33719811584153409 -0.32610849842717737 0 0.35308550694804458 -0.32968059382483261 0 0.34765952732399452 -0.33363596380023769 0 0.34833174973654529 -0.32757565677166828 0 0.35011470991595811 -0.33782141955753392 0 0.34765952732399452 -0.33363596380023769 0 0.34833174973654529 -0.32757565677166828 0 0.34923143283318492 -0.32235367207318871 0 0.34373543785438387 -0.32473181218775948 0 0.34923143283318492 -0.32235367207318871 0 0.34172510817542051 -0.31539775533562397 0 0.34373543785438387 -0.32473181218775948 0 0.35308550694804458 -0.32968059382483261 0 0.34833174973654529 -0.32757565677166828 0 0.34923143283318492 -0.32235367207318871 0 0.34923143283318492 -0.32235367207318871 0 0.35333333579827148 -0.31471751374589058 0 0.34172510817542051 -0.31539775533562397 0 0.35811211989804331 -0.3072042123779834 0 0.36191014985811032 -0.31670358539124632 0 0.35333333579827148 -0.31471751374589058 0 0.36191014985811032 -0.31670358539124632 0 0.35333333579827148 -0.31471751374589058 0 0.35591405456981812 -0.32202314340340049 0 0.34923143283318492 -0.32235367207318871 0 0.35333333579827148 -0.31471751374589058 0 0.35591405456981812 -0.32202314340340049 0 0.36200984741147862 -0.32666035198184462 0 0.35308550694804458 -0.32968059382483261 0 0.35591405456981812 -0.32202314340340049 0 0.35308550694804458 -0.32968059382483261 0 0.34923143283318492 -0.32235367207318871 0 0.35591405456981812 -0.32202314340340049 0 0.3789119811708585 -0.36393512763217201 0 0.37443437444949851 -0.37928020159298098 0 0.36227454218272798 -0.35855081057525762 0 0.37443437444949851 -0.37928020159298098 0 0.36227454218272798 -0.35855081057525762 0 0.37443437444949851 -0.37928020159298098 0 0.35584696164825219 -0.37514794996712042 0 0.36227454218272798 -0.35855081057525762 0 0.3789119811708585 -0.36393512763217201 0 0.36227454218272798 -0.35855081057525762 0 0.36451334554340842 -0.3508782735948528 0 0.3789119811708585 -0.36393512763217201 0 0.36451334554340842 -0.3508782735948528 0 0.3786826519502775 -0.35028831052073528 0 0.3789119811708585 -0.36393512763217201 0 0.36451334554340842 -0.3508782735948528 0 0.3786826519502775 -0.35028831052073528 0 0.36984751977043773 -0.33703335511666271 0 0.36451334554340842 -0.3508782735948528 0 0.35011470991595811 -0.33782141955753392 0 0.36227454218272798 -0.35855081057525762 0 0.36451334554340842 -0.3508782735948528 0 0.35011470991595811 -0.33782141955753392 0 0.36227454218272798 -0.35855081057525762 0 0.34306930536646713 -0.35131195995342368 0 0.36227454218272798 -0.35855081057525762 0 0.34040573550741449 -0.36629654540131251 0 0.34306930536646713 -0.35131195995342368 0 0.35011470991595811 -0.33782141955753392 0 0.36227454218272798 -0.35855081057525762 0 0.35011470991595811 -0.33782141955753392 0 0.36451334554340842 -0.3508782735948528 0 0.35584696164825219 -0.37514794996712042 0 0.36227454218272798 -0.35855081057525762 0 0.34040573550741449 -0.36629654540131251 0 0.35584696164825219 -0.37514794996712042 0 0.34223250847911763 -0.37772709405185889 0 0.34040573550741449 -0.36629654540131251 0 0.34040573550741449 -0.36629654540131251 0 0.32785697873933861 -0.3524181502782916 0 0.32305562310768221 -0.36539606776622868 0 0.3268999960410901 -0.37964004718892669 0 0.34040573550741449 -0.36629654540131251 0 0.32305562310768221 -0.36539606776622868 0 0.34223250847911763 -0.37772709405185889 0 0.3268999960410901 -0.37964004718892669 0 0.34040573550741449 -0.36629654540131251 0 0.34040573550741449 -0.36629654540131251 0 0.34306930536646713 -0.35131195995342368 0 0.32785697873933861 -0.3524181502782916 0 0.34306930536646713 -0.35131195995342368 0 0.32785697873933861 -0.3524181502782916 0 0.33315294677719842 -0.33998221394207367 0 0.32785697873933861 -0.3524181502782916 0 0.33315294677719842 -0.33998221394207367 0 0.31740526006097808 -0.34172762561187942 0 0.31532335496584052 -0.35561663733906101 0 0.32785697873933861 -0.3524181502782916 0 0.31740526006097808 -0.34172762561187942 0 0.31532335496584052 -0.35561663733906101 0 0.32785697873933861 -0.3524181502782916 0 0.32305562310768221 -0.36539606776622868 0 0.3268999960410901 -0.37964004718892669 0 0.30802265136246693 -0.36945626072777721 0 0.3268999960410901 -0.37964004718892669 0 0.32305562310768221 -0.36539606776622868 0 0.30802265136246693 -0.36945626072777721 0 0.31532335496584052 -0.35561663733906101 0 0.32305562310768221 -0.36539606776622868 0 0.30802265136246693 -0.36945626072777721 0 0.34172510817542051 -0.31539775533562397 0 0.33719811584153409 -0.32610849842717737 0 0.32428152176710939 -0.31439557729682183 0 0.33719811584153409 -0.32610849842717737 0 0.32327331073891441 -0.33050562982413639 0 0.32428152176710939 -0.31439557729682183 0 0.33719811584153409 -0.32610849842717737 0 0.32428152176710939 -0.31439557729682183 0 0.34172510817542051 -0.31539775533562397 0 0.33719811584153409 -0.32610849842717737 0 0.34373543785438387 -0.32473181218775948 0 0.35011470991595811 -0.33782141955753392 0 0.33719811584153409 -0.32610849842717737 0 0.33315294677719842 -0.33998221394207367 0 0.35011470991595811 -0.33782141955753392 0 0.34306930536646713 -0.35131195995342368 0 0.33315294677719842 -0.33998221394207367 0 0.34765952732399452 -0.33363596380023769 0 0.33719811584153409 -0.32610849842717737 0 0.34373543785438387 -0.32473181218775948 0 0.35011470991595811 -0.33782141955753392 0 0.33719811584153409 -0.32610849842717737 0 0.33719811584153409 -0.32610849842717737 0 0.33315294677719842 -0.33998221394207367 0 0.32327331073891441 -0.33050562982413639 0 0.33315294677719842 -0.33998221394207367 0 0.32327331073891441 -0.33050562982413639 0 0.31740526006097808 -0.34172762561187942 0 0.32327331073891441 -0.33050562982413639 0 0.31740526006097808 -0.34172762561187942 0 0.3065717353376729 -0.3318059644435063 0 0.32428152176710939 -0.31439557729682183 0 0.31461629248492978 -0.31393778677015088 0 0.3065717353376729 -0.3318059644435063 0 0.32428152176710939 -0.31439557729682183 0 0.3065717353376729 -0.3318059644435063 0 0.32327331073891441 -0.33050562982413639 0 0.32428152176710939 -0.31439557729682183 0 0.3065717353376729 -0.3318059644435063 0 0.32428152176710939 -0.31439557729682183 0 0.32248760667077758 -0.31276883375151632 0 0.31461629248492978 -0.31393778677015088 0 0.32428152176710939 -0.31439557729682183 0 0.32248760667077758 -0.31276883375151632 0 0.31461629248492978 -0.31393778677015088 0 0.3065717353376729 -0.3318059644435063 0 0.30339509305051038 -0.31225518490982151 0 0.3065717353376729 -0.3318059644435063 0 0.2907662452544012 -0.31954362694961252 0 0.30339509305051038 -0.31225518490982151 0 0.3065717353376729 -0.3318059644435063 0 0.28886194890823641 -0.34921635159019071 0 0.3065717353376729 -0.3318059644435063 0 0.30189156209760648 -0.34730873336324047 0 0.28886194890823641 -0.34921635159019071 0 0.31740526006097808 -0.34172762561187942 0 0.3065717353376729 -0.3318059644435063 0 0.30189156209760648 -0.34730873336324047 0 0.3065717353376729 -0.3318059644435063 0 0.29143249807532517 -0.33326956206068759 0 0.2907662452544012 -0.31954362694961252 0 0.3065717353376729 -0.3318059644435063 0 0.29143249807532517 -0.33326956206068759 0 0.28886194890823641 -0.34921635159019071 0 0.29143249807532517 -0.33326956206068759 0 0.28886194890823641 -0.34921635159019071 0 0.27859691662356512 -0.32986939673335702 0 0.29143249807532517 -0.33326956206068759 0 0.2907662452544012 -0.31954362694961252 0 0.27859691662356512 -0.32986939673335702 0 0.2907662452544012 -0.31954362694961252 0 0.27859691662356512 -0.32986939673335702 0 0.27755288998611483 -0.30449678035699279 0 0.30396186179251927 -0.37365554147243291 0 0.30189156209760648 -0.34730873336324047 0 0.29530804078562889 -0.35748991273253478 0 0.30396186179251927 -0.37365554147243291 0 0.30802265136246693 -0.36945626072777721 0 0.30189156209760648 -0.34730873336324047 0 0.30396186179251927 -0.37365554147243291 0 0.29530804078562889 -0.35748991273253478 0 0.29203498791711668 -0.36414025351785251 0 0.30396186179251927 -0.37365554147243291 0 0.30189156209760648 -0.34730873336324047 0 0.30396186179251927 -0.37365554147243291 0 0.29203498791711668 -0.36414025351785251 0 0.29469898204294193 -0.37357626062704469 0 0.31201515268685759 -0.37738016367957472 0 0.30396186179251927 -0.37365554147243291 0 0.30802265136246693 -0.36945626072777721 0 0.31532335496584052 -0.35561663733906101 0 0.30802265136246693 -0.36945626072777721 0 0.30189156209760648 -0.34730873336324047 0 0.31532335496584052 -0.35561663733906101 0 0.31740526006097808 -0.34172762561187942 0 0.30189156209760648 -0.34730873336324047 0 0.28886194890823641 -0.34921635159019071 0 0.27964094326101541 -0.35524201310972142 0 0.27859691662356512 -0.32986939673335702 0 0.30189156209760648 -0.34730873336324047 0 0.28886194890823641 -0.34921635159019071 0 0.29530804078562889 -0.35748991273253478 0 0.28886194890823641 -0.34921635159019071 0 0.28872074407951198 -0.35888423430382849 0 0.27964094326101541 -0.35524201310972142 0 0.28886194890823641 -0.34921635159019071 0 0.28872074407951198 -0.35888423430382849 0 0.29530804078562889 -0.35748991273253478 0 0.28068496989846581 -0.3806146294860856 0 0.28775779952556269 -0.36833264056884329 0 0.27964094326101541 -0.35524201310972142 0 0.28872074407951198 -0.35888423430382849 0 0.29203498791711668 -0.36414025351785251 0 0.28775779952556269 -0.36833264056884329 0 0.28872074407951198 -0.35888423430382849 0 0.29530804078562889 -0.35748991273253478 0 0.29203498791711668 -0.36414025351785251 0 0.28872074407951198 -0.35888423430382849 0 0.28775779952556269 -0.36833264056884329 0 0.27964094326101541 -0.35524201310972142 0 0.29203498791711668 -0.36414025351785251 0 0.28775779952556269 -0.36833264056884329 0 0.29469898204294193 -0.37357626062704469 0 0.29192679592177062 -0.37913027875771399 0 0.28775779952556269 -0.36833264056884329 0 0.29469898204294193 -0.37357626062704469 0 0.28068496989846581 -0.3806146294860856 0 0.26864447647163592 -0.36834915318572248 0 0.27964094326101541 -0.35524201310972142 0 0.28068496989846581 -0.3806146294860856 0 0.27964094326101541 -0.35524201310972142 0 0.26864447647163592 -0.36834915318572248 0 0.26797043707116769 -0.35603420785987488 0 0.27964094326101541 -0.35524201310972142 0 0.26797043707116769 -0.35603420785987488 0 0.27964094326101541 -0.35524201310972142 0 0.26672640170777451 -0.34363207080625918 0 0.25686992684424542 -0.35691359433779679 0 0.26672640170777451 -0.34363207080625918 0 0.24281930467658669 -0.34165086241549819 0 0.26797043707116769 -0.35603420785987488 0 0.25686992684424542 -0.35691359433779679 0 0.26672640170777451 -0.34363207080625918 0 0.26864447647163592 -0.36834915318572248 0 0.25686992684424542 -0.35691359433779679 0 0.2483547988428961 -0.37703000882996779 0 0.26864447647163592 -0.36834915318572248 0 0.26797043707116769 -0.35603420785987488 0 0.25686992684424542 -0.35691359433779679 0 0.27859691662356512 -0.32986939673335702 0 0.25576682833908881 -0.31439925445285088 0 0.27755288998611483 -0.30449678035699279 0 0.27859691662356512 -0.32986939673335702 0 0.27755288998611483 -0.30449678035699279 0 0.27964094326101541 -0.35524201310972142 0 0.27859691662356512 -0.32986939673335702 0 0.27964094326101541 -0.35524201310972142 0 0.27859691662356512 -0.32986939673335702 0 0.26672640170777451 -0.34363207080625918 0 0.27859691662356512 -0.32986939673335702 0 0.26672640170777451 -0.34363207080625918 0 0.25707704471516579 -0.33129562514379379 0 0.26672640170777451 -0.34363207080625918 0 0.25707704471516579 -0.33129562514379379 0 0.24281930467658669 -0.34165086241549819 0 0.25707704471516579 -0.33129562514379379 0 0.25576682833908881 -0.31439925445285088 0 0.23737886815585921 -0.32102337153602112 0 0.27859691662356512 -0.32986939673335702 0 0.25707704471516579 -0.33129562514379379 0 0.25576682833908881 -0.31439925445285088 0 0.25576682833908881 -0.31439925445285088 0 0.25989070367568529 -0.29716404473347158 0 0.27755288998611483 -0.30449678035699279 0 0.25576682833908881 -0.31439925445285088 0 0.25989070367568529 -0.29716404473347158 0 0.23549558029304959 -0.29785793500950891 0 0.25989070367568529 -0.29716404473347158 0 0.25572344449433188 -0.27970021021303593 0 0.23549558029304959 -0.29785793500950891 0 0.25989070367568529 -0.29716404473347158 0 0.27301299862423251 -0.27861505350174681 0 0.25572344449433188 -0.27970021021303593 0 0.27755288998611483 -0.30449678035699279 0 0.29026952457306321 -0.29113521800273451 0 0.27301299862423251 -0.27861505350174681 0 0.25989070367568529 -0.29716404473347158 0 0.27755288998611483 -0.30449678035699279 0 0.27301299862423251 -0.27861505350174681 0 0.2907662452544012 -0.31954362694961252 0 0.27755288998611483 -0.30449678035699279 0 0.29281224054857891 -0.30497773379927778 0 0.2907662452544012 -0.31954362694961252 0 0.29281224054857891 -0.30497773379927778 0 0.30339509305051038 -0.31225518490982151 0 0.29281224054857891 -0.30497773379927778 0 0.29026952457306321 -0.29113521800273451 0 0.30207744987880469 -0.29745785877722791 0 0.27755288998611483 -0.30449678035699279 0 0.29281224054857891 -0.30497773379927778 0 0.29026952457306321 -0.29113521800273451 0 0.29026952457306321 -0.29113521800273451 0 0.28918189875702471 -0.27640759621998218 0 0.27301299862423251 -0.27861505350174681 0 0.29026952457306321 -0.29113521800273451 0 0.30289574775298339 -0.2838650913638881 0 0.28918189875702471 -0.27640759621998218 0 0.29026952457306321 -0.29113521800273451 0 0.30289574775298339 -0.2838650913638881 0 0.30207744987880469 -0.29745785877722791 0 0.31374132400889382 -0.28481340759494522 0 0.30289574775298339 -0.2838650913638881 0 0.31095995361558942 -0.29323763668992431 0 0.30289574775298339 -0.2838650913638881 0 0.31095995361558942 -0.29323763668992431 0 0.30207744987880469 -0.29745785877722791 0 0.31291236070140849 -0.30427375384119099 0 0.30339509305051038 -0.31225518490982151 0 0.30207744987880469 -0.29745785877722791 0 0.31291236070140849 -0.30427375384119099 0 0.31095995361558942 -0.29323763668992431 0 0.30207744987880469 -0.29745785877722791 0 0.31291236070140849 -0.30427375384119099 0 0.31461629248492978 -0.31393778677015088 0 0.30339509305051038 -0.31225518490982151 0 0.29281224054857891 -0.30497773379927778 0 0.30339509305051038 -0.31225518490982151 0 0.30207744987880469 -0.29745785877722791 0 0.2976051068177773 -0.25810309279594912 0 0.30896098641785691 -0.26167601711580402 0 0.29997637143322181 -0.26978584314754211 0 0.2976051068177773 -0.25810309279594912 0 0.30596458333229848 -0.25011871757841392 0 0.29674191249025211 -0.25001051837835092 0 0.2976051068177773 -0.25810309279594912 0 0.30596458333229848 -0.25011871757841392 0 0.30896098641785691 -0.26167601711580402 0 0.31782269805779512 -0.25342902562787689 0 0.30596458333229848 -0.25011871757841392 0 0.30896098641785691 -0.26167601711580402 0 0.31300436062394271 -0.27354894687108988 0 0.30896098641785691 -0.26167601711580402 0 0.29997637143322181 -0.26978584314754211 0 0.31374132400889382 -0.28481340759494522 0 0.31300436062394271 -0.27354894687108988 0 0.30289574775298339 -0.2838650913638881 0 0.31300436062394271 -0.27354894687108988 0 0.30289574775298339 -0.2838650913638881 0 0.29997637143322181 -0.26978584314754211 0 0.30289574775298339 -0.2838650913638881 0 0.29997637143322181 -0.26978584314754211 0 0.28918189875702471 -0.27640759621998218 0 0.29997637143322181 -0.26978584314754211 0 0.28918189875702471 -0.27640759621998218 0 0.28876257571237779 -0.26512885529460462 0 0.28128916522895953 -0.2706058794819442 0 0.28876257571237779 -0.26512885529460462 0 0.27595130869561418 -0.26154248541656322 0 0.28918189875702471 -0.27640759621998218 0 0.28128916522895953 -0.2706058794819442 0 0.28876257571237779 -0.26512885529460462 0 0.28876257571237779 -0.26512885529460462 0 0.2874747334709627 -0.25357418150246319 0 0.27595130869561418 -0.26154248541656322 0 0.2976051068177773 -0.25810309279594912 0 0.29997637143322181 -0.26978584314754211 0 0.28876257571237779 -0.26512885529460462 0 0.2976051068177773 -0.25810309279594912 0 0.28876257571237779 -0.26512885529460462 0 0.2874747334709627 -0.25357418150246319 0 0.2976051068177773 -0.25810309279594912 0 0.29674191249025211 -0.25001051837835092 0 0.2874747334709627 -0.25357418150246319 0 0.2874747334709627 -0.25357418150246319 0 0.27856530410564118 -0.25099501824348169 0 0.27595130869561418 -0.26154248541656322 0 0.27856530410564118 -0.25099501824348169 0 0.27595130869561418 -0.26154248541656322 0 0.26760100559634659 -0.25263183860786131 0 0.28918189875702471 -0.27640759621998218 0 0.28128916522895953 -0.2706058794819442 0 0.27301299862423251 -0.27861505350174681 0 0.28128916522895953 -0.2706058794819442 0 0.27595130869561418 -0.26154248541656322 0 0.27301299862423251 -0.27861505350174681 0 0.27595130869561418 -0.26154248541656322 0 0.25572344449433188 -0.27970021021303593 0 0.27595130869561418 -0.26154248541656322 0 0.27301299862423251 -0.27861505350174681 0 0.25572344449433188 -0.27970021021303593 0 0.27595130869561418 -0.26154248541656322 0 0.25572344449433188 -0.27970021021303593 0 0.24851381213818 -0.26039652043077638 0 0.25385053846730632 -0.24215592545976461 0 0.26760100559634659 -0.25263183860786131 0 0.24851381213818 -0.26039652043077638 0 0.27595130869561418 -0.26154248541656322 0 0.26760100559634659 -0.25263183860786131 0 0.24851381213818 -0.26039652043077638 0 0.24851381213818 -0.26039652043077638 0 0.22329058006069161 -0.26580145419514428 0 0.2343437262590925 -0.2408061780014111 0 0.24851381213818 -0.26039652043077638 0 0.23505217016970881 -0.27891057004746861 0 0.22329058006069161 -0.26580145419514428 0 0.25572344449433188 -0.27970021021303593 0 0.24851381213818 -0.26039652043077638 0 0.23505217016970881 -0.27891057004746861 0 0.23505217016970881 -0.27891057004746861 0 0.22329058006069161 -0.26580145419514428 0 0.2122374338622908 -0.29079673038887738 0 0.22329058006069161 -0.26580145419514428 0 0.2343437262590925 -0.2408061780014111 0 0.22329058006069161 -0.26580145419514428 0 0.21274621170666599 -0.25460641687182922 0 0.2343437262590925 -0.2408061780014111 0 0.21274621170666599 -0.25460641687182922 0 0.19852840859104109 -0.26046872351862932 0 0.2111518829828157 -0.23931031669642189 0 0.21000905240473569 -0.26327545291582499 0 0.2088587346434915 -0.27265765168227918 0 0.19852840859104109 -0.26046872351862932 0 0.21274621170666599 -0.25460641687182922 0 0.21000905240473569 -0.26327545291582499 0 0.19852840859104109 -0.26046872351862932 0 0.22329058006069161 -0.26580145419514428 0 0.21274621170666599 -0.25460641687182922 0 0.21000905240473569 -0.26327545291582499 0 0.22329058006069161 -0.26580145419514428 0 0.2088587346434915 -0.27265765168227918 0 0.2122374338622908 -0.29079673038887738 0 0.22329058006069161 -0.26580145419514428 0 0.21000905240473569 -0.26327545291582499 0 0.2088587346434915 -0.27265765168227918 0 0.22329058006069161 -0.26580145419514428 0 0.2122374338622908 -0.29079673038887738 0 0.19852840859104109 -0.26046872351862932 0 0.20164800728106719 -0.28691566756925813 0 0.18967514142879521 -0.26208647181682049 0 0.195429714546344 -0.28893923919971559 0 0.1963203179618119 -0.27460252552610592 0 0.18967514142879521 -0.26208647181682049 0 0.195429714546344 -0.28893923919971559 0 0.18967514142879521 -0.26208647181682049 0 0.195429714546344 -0.28893923919971559 0 0.18599676471760071 -0.27797120814763132 0 0.1963203179618119 -0.27460252552610592 0 0.19852840859104109 -0.26046872351862932 0 0.20164800728106719 -0.28691566756925813 0 0.2088587346434915 -0.27265765168227918 0 0.19852840859104109 -0.26046872351862932 0 0.20164800728106719 -0.28691566756925813 0 0.1963203179618119 -0.27460252552610592 0 0.18967514142879521 -0.26208647181682049 0 0.19852840859104109 -0.26046872351862932 0 0.18967514142879521 -0.26208647181682049 0 0.19852840859104109 -0.26046872351862932 0 0.19199732609840839 -0.24872390271269651 0 0.195429714546344 -0.28893923919971559 0 0.20118428766389121 -0.31579200658261108 0 0.1957544736972027 -0.30657571452516302 0 0.195429714546344 -0.28893923919971559 0 0.20118428766389121 -0.31579200658261108 0 0.2026514021705996 -0.30056500227778588 0 0.195429714546344 -0.28893923919971559 0 0.20118428766389121 -0.31579200658261108 0 0.1957544736972027 -0.30657571452516302 0 0.195429714546344 -0.28893923919971559 0 0.1836602479886176 -0.28930575846292372 0 0.195429714546344 -0.28893923919971559 0 0.18599676471760071 -0.27797120814763132 0 0.1836602479886176 -0.28930575846292372 0 0.1963203179618119 -0.27460252552610592 0 0.195429714546344 -0.28893923919971559 0 0.20164800728106719 -0.28691566756925813 0 0.2026514021705996 -0.30056500227778588 0 0.195429714546344 -0.28893923919971559 0 0.20227136233326101 -0.29239261840647612 0 0.195429714546344 -0.28893923919971559 0 0.20164800728106719 -0.28691566756925813 0 0.20227136233326101 -0.29239261840647612 0 0.20164800728106719 -0.28691566756925813 0 0.20227136233326101 -0.29239261840647612 0 0.2122374338622908 -0.29079673038887738 0 0.2088587346434915 -0.27265765168227918 0 0.20164800728106719 -0.28691566756925813 0 0.2122374338622908 -0.29079673038887738 0 0.2026514021705996 -0.30056500227778588 0 0.20227136233326101 -0.29239261840647612 0 0.2122374338622908 -0.29079673038887738 0 0.2122374338622908 -0.29079673038887738 0 0.20118428766389121 -0.31579200658261108 0 0.2122374338622908 -0.29079673038887738 0 0.2152677160917672 -0.31601565980598167 0 0.20118428766389121 -0.31579200658261108 0 0.2026514021705996 -0.30056500227778588 0 0.2122374338622908 -0.29079673038887738 0 0.20118428766389121 -0.31579200658261108 0 0.2122374338622908 -0.29079673038887738 0 0.23549558029304959 -0.29785793500950891 0 0.2152677160917672 -0.31601565980598167 0 0.23549558029304959 -0.29785793500950891 0 0.23737886815585921 -0.32102337153602112 0 0.2152677160917672 -0.31601565980598167 0 0.23549558029304959 -0.29785793500950891 0 0.2152677160917672 -0.31601565980598167 0 0.23505217016970881 -0.27891057004746861 0 0.2122374338622908 -0.29079673038887738 0 0.23549558029304959 -0.29785793500950891 0 0.25572344449433188 -0.27970021021303593 0 0.23505217016970881 -0.27891057004746861 0 0.23549558029304959 -0.29785793500950891 0 0.25572344449433188 -0.27970021021303593 0 0.23549558029304959 -0.29785793500950891 0 0.25576682833908881 -0.31439925445285088 0 0.23549558029304959 -0.29785793500950891 0 0.23737886815585921 -0.32102337153602112 0 0.23737886815585921 -0.32102337153602112 0 0.24281930467658669 -0.34165086241549819 0 0.22423792877982729 -0.33377249718115071 0 0.25707704471516579 -0.33129562514379379 0 0.23737886815585921 -0.32102337153602112 0 0.24281930467658669 -0.34165086241549819 0 0.22423792877982729 -0.33377249718115071 0 0.22705760976805819 -0.34868797537479818 0 0.20725945900811149 -0.34414079277146697 0 0.24281930467658669 -0.34165086241549819 0 0.22423792877982729 -0.33377249718115071 0 0.22705760976805819 -0.34868797537479818 0 0.23737886815585921 -0.32102337153602112 0 0.22423792877982729 -0.33377249718115071 0 0.2152677160917672 -0.31601565980598167 0 0.23760169172256301 -0.36048501815960349 0 0.23164112339152859 -0.3738221690383311 0 0.2483547988428961 -0.37703000882996779 0 0.25686992684424542 -0.35691359433779679 0 0.23760169172256301 -0.36048501815960349 0 0.2483547988428961 -0.37703000882996779 0 0.25686992684424542 -0.35691359433779679 0 0.24281930467658669 -0.34165086241549819 0 0.23760169172256301 -0.36048501815960349 0 0.24281930467658669 -0.34165086241549819 0 0.23760169172256301 -0.36048501815960349 0 0.22705760976805819 -0.34868797537479818 0 0.22705760976805819 -0.34868797537479818 0 0.22337626336414221 -0.36091527814243801 0 0.20725945900811149 -0.34414079277146697 0 0.23760169172256301 -0.36048501815960349 0 0.22705760976805819 -0.34868797537479818 0 0.22337626336414221 -0.36091527814243801 0 0.22337626336414221 -0.36091527814243801 0 0.23164112339152859 -0.3738221690383311 0 0.21333463035233011 -0.37248957896032331 0 0.23760169172256301 -0.36048501815960349 0 0.22337626336414221 -0.36091527814243801 0 0.23164112339152859 -0.3738221690383311 0 0.21333463035233011 -0.37248957896032331 0 0.20725945900811149 -0.34414079277146697 0 0.22337626336414221 -0.36091527814243801 0 0.21333463035233011 -0.37248957896032331 0 0.20725945900811149 -0.34414079277146697 0 0.21333463035233011 -0.37248957896032331 0 0.20725945900811149 -0.34414079277146697 0 0.19980211647323251 -0.36056425877779952 0 0.19980211647323251 -0.36056425877779952 0 0.19148605533431021 -0.3377233183844856 0 0.18178782300473051 -0.35965463018636062 0 0.20725945900811149 -0.34414079277146697 0 0.19980211647323251 -0.36056425877779952 0 0.19148605533431021 -0.3377233183844856 0 0.21333463035233011 -0.37248957896032331 0 0.1929827593274018 -0.37197317886203701 0 0.19980211647323251 -0.36056425877779952 0 0.1929827593274018 -0.37197317886203701 0 0.19980211647323251 -0.36056425877779952 0 0.18178782300473051 -0.35965463018636062 0 0.22423792877982729 -0.33377249718115071 0 0.2152677160917672 -0.31601565980598167 0 0.21198734788589929 -0.32743023908530261 0 0.2152677160917672 -0.31601565980598167 0 0.21198734788589929 -0.32743023908530261 0 0.20118428766389121 -0.31579200658261108 0 0.20725945900811149 -0.34414079277146697 0 0.20118428766389121 -0.31579200658261108 0 0.20725945900811149 -0.34414079277146697 0 0.21198734788589929 -0.32743023908530261 0 0.20118428766389121 -0.31579200658261108 0 0.22423792877982729 -0.33377249718115071 0 0.20725945900811149 -0.34414079277146697 0 0.21198734788589929 -0.32743023908530261 0 0.20725945900811149 -0.34414079277146697 0 0.19148605533431021 -0.3377233183844856 0 0.20118428766389121 -0.31579200658261108 0 0.19148605533431021 -0.3377233183844856 0 0.20118428766389121 -0.31579200658261108 0 0.1864147884381912 -0.31828587000761099 0 0.19148605533431021 -0.3377233183844856 0 0.20118428766389121 -0.31579200658261108 0 0.1957544736972027 -0.30657571452516302 0 0.20118428766389121 -0.31579200658261108 0 0.1864147884381912 -0.31828587000761099 0 0.1864147884381912 -0.31828587000761099 0 0.17167416412884839 -0.32094509115887487 0 0.17786721153275969 -0.31031464984374602 0 0.18063220096290719 -0.32896465539926212 0 0.17237398741361129 -0.33204775558518612 0 0.17167416412884839 -0.32094509115887487 0 0.1864147884381912 -0.31828587000761099 0 0.18063220096290719 -0.32896465539926212 0 0.17167416412884839 -0.32094509115887487 0 0.19148605533431021 -0.3377233183844856 0 0.1786036542641134 -0.33824400010083339 0 0.1753074375146389 -0.35009302342049048 0 0.19148605533431021 -0.3377233183844856 0 0.18063220096290719 -0.32896465539926212 0 0.1786036542641134 -0.33824400010083339 0 0.19148605533431021 -0.3377233183844856 0 0.1864147884381912 -0.31828587000761099 0 0.18063220096290719 -0.32896465539926212 0 0.1786036542641134 -0.33824400010083339 0 0.17102924542195569 -0.34053456745034999 0 0.1753074375146389 -0.35009302342049048 0 0.1786036542641134 -0.33824400010083339 0 0.17237398741361129 -0.33204775558518612 0 0.17102924542195569 -0.34053456745034999 0 0.18063220096290719 -0.32896465539926212 0 0.1786036542641134 -0.33824400010083339 0 0.17237398741361129 -0.33204775558518612 0 0.1669514855396316 -0.33537838484011823 0 0.16535317416421139 -0.32821983456167791 0 0.1599998797281465 -0.33616164057183889 0 0.17237398741361129 -0.33204775558518612 0 0.1669514855396316 -0.33537838484011823 0 0.16535317416421139 -0.32821983456167791 0 0.17237398741361129 -0.33204775558518612 0 0.1669514855396316 -0.33537838484011823 0 0.17102924542195569 -0.34053456745034999 0 0.1669514855396316 -0.33537838484011823 0 0.17102924542195569 -0.34053456745034999 0 0.16420248469665491 -0.34012047389368699 0 0.17102924542195569 -0.34053456745034999 0 0.16420248469665491 -0.34012047389368699 0 0.16594232088088079 -0.34549003343585721 0 0.16420248469665491 -0.34012047389368699 0 0.15901018583268089 -0.34273802285963201 0 0.16594232088088079 -0.34549003343585721 0 0.16420248469665491 -0.34012047389368699 0 0.1599998797281465 -0.33616164057183889 0 0.15901018583268089 -0.34273802285963201 0 0.1669514855396316 -0.33537838484011823 0 0.16420248469665491 -0.34012047389368699 0 0.1599998797281465 -0.33616164057183889 0 0.1599998797281465 -0.33616164057183889 0 0.15901018583268089 -0.34273802285963201 0 0.15260182766598129 -0.33539100803610911 0 0.1599998797281465 -0.33616164057183889 0 0.15757813751447669 -0.32732983718588132 0 0.15260182766598129 -0.33539100803610911 0 0.16535317416421139 -0.32821983456167791 0 0.1599998797281465 -0.33616164057183889 0 0.15757813751447669 -0.32732983718588132 0 0.16535317416421139 -0.32821983456167791 0 0.15757813751447669 -0.32732983718588132 0 0.16187640128435191 -0.31996804483468311 0 0.15757813751447669 -0.32732983718588132 0 0.16187640128435191 -0.31996804483468311 0 0.15329896732340351 -0.31799273022632218 0 0.16187640128435191 -0.31996804483468311 0 0.15329896732340351 -0.31799273022632218 0 0.1628222571374692 -0.31000710889942618 0 0.17167416412884839 -0.32094509115887487 0 0.17786721153275969 -0.31031464984374602 0 0.1628222571374692 -0.31000710889942618 0 0.16187640128435191 -0.31996804483468311 0 0.17167416412884839 -0.32094509115887487 0 0.1628222571374692 -0.31000710889942618 0 0.17237398741361129 -0.33204775558518612 0 0.16535317416421139 -0.32821983456167791 0 0.17167416412884839 -0.32094509115887487 0 0.16535317416421139 -0.32821983456167791 0 0.16187640128435191 -0.31996804483468311 0 0.17167416412884839 -0.32094509115887487 0 0.18178782300473051 -0.35965463018636062 0 0.16101543862700679 -0.36608873242753109 0 0.18054460406762271 -0.37870930550370729 0 0.1929827593274018 -0.37197317886203701 0 0.18178782300473051 -0.35965463018636062 0 0.18054460406762271 -0.37870930550370729 0 0.19148605533431021 -0.3377233183844856 0 0.18178782300473051 -0.35965463018636062 0 0.1753074375146389 -0.35009302342049048 0 0.18178782300473051 -0.35965463018636062 0 0.1753074375146389 -0.35009302342049048 0 0.16101543862700679 -0.36608873242753109 0 0.19148605533431021 -0.3377233183844856 0 0.18178782300473051 -0.35965463018636062 0 0.1753074375146389 -0.35009302342049048 0 0.16594232088088079 -0.34549003343585721 0 0.16101543862700679 -0.36608873242753109 0 0.15927543827653601 -0.34582682682298871 0 0.16101543862700679 -0.36608873242753109 0 0.15927543827653601 -0.34582682682298871 0 0.16101543862700679 -0.36608873242753109 0 0.15205927320515239 -0.3566521827400353 0 0.16594232088088079 -0.34549003343585721 0 0.15927543827653601 -0.34582682682298871 0 0.16101543862700679 -0.36608873242753109 0 0.17102924542195569 -0.34053456745034999 0 0.1753074375146389 -0.35009302342049048 0 0.16594232088088079 -0.34549003343585721 0 0.16594232088088079 -0.34549003343585721 0 0.15927543827653601 -0.34582682682298871 0 0.15901018583268089 -0.34273802285963201 0 0.16594232088088079 -0.34549003343585721 0 0.15927543827653601 -0.34582682682298871 0 0.15901018583268089 -0.34273802285963201 0 0.15927543827653601 -0.34582682682298871 0 0.16101543862700679 -0.36608873242753109 0 0.15205927320515239 -0.3566521827400353 0 0.1403667113435145 -0.36713185186047692 0 0.16101543862700679 -0.36608873242753109 0 0.1403667113435145 -0.36713185186047692 0 0.15243107533573039 -0.38687219774854681 0 0.15205927320515239 -0.3566521827400353 0 0.14378889281391699 -0.34660916639769829 0 0.1403667113435145 -0.36713185186047692 0 0.15901018583268089 -0.34273802285963201 0 0.15927543827653601 -0.34582682682298871 0 0.14378889281391699 -0.34660916639769829 0 0.15927543827653601 -0.34582682682298871 0 0.15205927320515239 -0.3566521827400353 0 0.14378889281391699 -0.34660916639769829 0 0.15927543827653601 -0.34582682682298871 0 0.14378889281391699 -0.34660916639769829 0 0.14378889281391699 -0.34660916639769829 0 0.12830234735129811 -0.34739150597240748 0 0.1403667113435145 -0.36713185186047692 0 0.12830234735129811 -0.34739150597240748 0 0.1403667113435145 -0.36713185186047692 0 0.11920668987201739 -0.35707303978898131 0 0.12830234735129811 -0.34739150597240748 0 0.1403667113435145 -0.36713185186047692 0 0.14378889281391699 -0.34660916639769829 0 0.12830234735129811 -0.34739150597240748 0 0.14378889281391699 -0.34660916639769829 0 0.12830234735129811 -0.34739150597240748 0 0.13637751596875339 -0.33904940312946419 0 0.1403667113435145 -0.36713185186047692 0 0.12513201624011991 -0.38742304361890939 0 0.11593812143109949 -0.36994858025798277 0 0.1403667113435145 -0.36713185186047692 0 0.11593812143109949 -0.36994858025798277 0 0.11920668987201739 -0.35707303978898131 0 0.14249138408317499 -0.32628427886985117 0 0.14477728161947789 -0.31863495153407889 0 0.13649511218925189 -0.32251493583884377 0 0.14249138408317499 -0.32628427886985117 0 0.14477728161947789 -0.31863495153407889 0 0.1491552171567663 -0.32633978516925038 0 0.14477728161947789 -0.31863495153407889 0 0.15329896732340351 -0.31799273022632218 0 0.14926926002102259 -0.30877753979997702 0 0.15757813751447669 -0.32732983718588132 0 0.15329896732340351 -0.31799273022632218 0 0.1491552171567663 -0.32633978516925038 0 0.14477728161947789 -0.31863495153407889 0 0.15329896732340351 -0.31799273022632218 0 0.1491552171567663 -0.32633978516925038 0 0.1491552171567663 -0.32633978516925038 0 0.15260182766598129 -0.33539100803610911 0 0.14395692083013781 -0.33367108905587339 0 0.15757813751447669 -0.32732983718588132 0 0.1491552171567663 -0.32633978516925038 0 0.15260182766598129 -0.33539100803610911 0 0.15901018583268089 -0.34273802285963201 0 0.14378889281391699 -0.34660916639769829 0 0.15260182766598129 -0.33539100803610911 0 0.14378889281391699 -0.34660916639769829 0 0.14395692083013781 -0.33367108905587339 0 0.13637751596875339 -0.33904940312946419 0 0.14378889281391699 -0.34660916639769829 0 0.15260182766598129 -0.33539100803610911 0 0.14395692083013781 -0.33367108905587339 0 0.14249138408317499 -0.32628427886985117 0 0.1491552171567663 -0.32633978516925038 0 0.14395692083013781 -0.33367108905587339 0 0.14249138408317499 -0.32628427886985117 0 0.14395692083013781 -0.33367108905587339 0 0.13795620013518239 -0.33024154242678899 0 0.14395692083013781 -0.33367108905587339 0 0.13795620013518239 -0.33024154242678899 0 0.13637751596875339 -0.33904940312946419 0 0.13795620013518239 -0.33024154242678899 0 0.13637751596875339 -0.33904940312946419 0 0.12990236287631229 -0.32959637168269201 0 0.12830234735129811 -0.34739150597240748 0 0.13637751596875339 -0.33904940312946419 0 0.12990236287631229 -0.32959637168269201 0 0.12990236287631229 -0.32959637168269201 0 0.12527412738309249 -0.32281620479276019 0 0.13075308348425491 -0.32173102507375201 0 0.12990236287631229 -0.32959637168269201 0 0.13075308348425491 -0.32173102507375201 0 0.13649511218925189 -0.32251493583884377 0 0.13795620013518239 -0.33024154242678899 0 0.12990236287631229 -0.32959637168269201 0 0.13649511218925189 -0.32251493583884377 0 0.14249138408317499 -0.32628427886985117 0 0.13795620013518239 -0.33024154242678899 0 0.13649511218925189 -0.32251493583884377 0 0.13649511218925189 -0.32251493583884377 0 0.13069080496784019 -0.31544679419088151 0 0.13798188279771939 -0.30992357930692183 0 0.14477728161947789 -0.31863495153407889 0 0.13649511218925189 -0.32251493583884377 0 0.13798188279771939 -0.30992357930692183 0 0.12527412738309249 -0.32281620479276019 0 0.13069080496784019 -0.31544679419088151 0 0.1236145078930512 -0.31337502551160601 0 0.13075308348425491 -0.32173102507375201 0 0.13649511218925189 -0.32251493583884377 0 0.13069080496784019 -0.31544679419088151 0 0.12527412738309249 -0.32281620479276019 0 0.13075308348425491 -0.32173102507375201 0 0.13069080496784019 -0.31544679419088151 0 0.13069080496784019 -0.31544679419088151 0 0.1290175252325976 -0.3065518775994564 0 0.13798188279771939 -0.30992357930692183 0 0.13069080496784019 -0.31544679419088151 0 0.1290175252325976 -0.3065518775994564 0 0.1236145078930512 -0.31337502551160601 0 0.1290175252325976 -0.3065518775994564 0 0.13250926602574001 -0.29851422023187357 0 0.1207539742543816 -0.29692058545905992 0 0.13250926602574001 -0.29851422023187357 0 0.13798188279771939 -0.30992357930692183 0 0.14259846886974581 -0.29871643861884811 0 0.1290175252325976 -0.3065518775994564 0 0.13250926602574001 -0.29851422023187357 0 0.13798188279771939 -0.30992357930692183 0 0.14477728161947789 -0.31863495153407889 0 0.13798188279771939 -0.30992357930692183 0 0.14926926002102259 -0.30877753979997702 0 0.13798188279771939 -0.30992357930692183 0 0.14259846886974581 -0.29871643861884811 0 0.14926926002102259 -0.30877753979997702 0 0.14259846886974581 -0.29871643861884811 0 0.15538932702345909 -0.29964075333521051 0 0.14926926002102259 -0.30877753979997702 0 0.15329896732340351 -0.31799273022632218 0 0.14926926002102259 -0.30877753979997702 0 0.1628222571374692 -0.31000710889942618 0 0.15538932702345909 -0.29964075333521051 0 0.14926926002102259 -0.30877753979997702 0 0.1628222571374692 -0.31000710889942618 0 0.14259846886974581 -0.29871643861884811 0 0.15538932702345909 -0.29964075333521051 0 0.14958627482697109 -0.2849432147301465 0 0.14259846886974581 -0.29871643861884811 0 0.14958627482697109 -0.2849432147301465 0 0.13441596589782889 -0.28727854034977329 0 0.13441596589782889 -0.28727854034977329 0 0.12650217539185429 -0.27412696483264049 0 0.1207539742543816 -0.29692058545905992 0 0.14958627482697109 -0.2849432147301465 0 0.13441596589782889 -0.28727854034977329 0 0.12650217539185429 -0.27412696483264049 0 0.13250926602574001 -0.29851422023187357 0 0.14259846886974581 -0.29871643861884811 0 0.13441596589782889 -0.28727854034977329 0 0.13250926602574001 -0.29851422023187357 0 0.13441596589782889 -0.28727854034977329 0 0.1207539742543816 -0.29692058545905992 0 0.14958627482697109 -0.2849432147301465 0 0.12650217539185429 -0.27412696483264049 0 0.14958627482697109 -0.2849432147301465 0 0.12650217539185429 -0.27412696483264049 0 0.14075577260727601 -0.27277081261004471 0 0.12650217539185429 -0.27412696483264049 0 0.12785210545784781 -0.26877402170128672 0 0.12650217539185429 -0.27412696483264049 0 0.12785210545784781 -0.26877402170128672 0 0.14075577260727601 -0.27277081261004471 0 0.12785210545784781 -0.26877402170128672 0 0.13291081641847749 -0.24871446989757229 0 0.12785210545784781 -0.26877402170128672 0 0.1186963690697211 -0.25371707134177057 0 0.13291081641847749 -0.24871446989757229 0 0.12785210545784781 -0.26877402170128672 0 0.15428397552161149 -0.26450402477843249 0 0.13291081641847749 -0.24871446989757229 0 0.15428397552161149 -0.26450402477843249 0 0.16258683716708699 -0.24718643187014869 0 0.14871305763952711 -0.24442574258537861 0 0.15428397552161149 -0.26450402477843249 0 0.14871305763952711 -0.24442574258537861 0 0.13291081641847749 -0.24871446989757229 0 0.14958627482697109 -0.2849432147301465 0 0.15428397552161149 -0.26450402477843249 0 0.14075577260727601 -0.27277081261004471 0 0.12785210545784781 -0.26877402170128672 0 0.15428397552161149 -0.26450402477843249 0 0.14075577260727601 -0.27277081261004471 0 0.12785210545784781 -0.26877402170128672 0 0.15428397552161149 -0.26450402477843249 0 0.14958627482697109 -0.2849432147301465 0 0.15428397552161149 -0.26450402477843249 0 0.16892267158697269 -0.27069997971300358 0 0.14958627482697109 -0.2849432147301465 0 0.16892267158697269 -0.27069997971300358 0 0.16958211719045441 -0.28293176354545901 0 0.15428397552161149 -0.26450402477843249 0 0.16889615696593699 -0.25477613782489111 0 0.16258683716708699 -0.24718643187014869 0 0.15428397552161149 -0.26450402477843249 0 0.18071584558537521 -0.26023402785557831 0 0.15428397552161149 -0.26450402477843249 0 0.16892267158697269 -0.27069997971300358 0 0.18071584558537521 -0.26023402785557831 0 0.15428397552161149 -0.26450402477843249 0 0.16889615696593699 -0.25477613782489111 0 0.18071584558537521 -0.26023402785557831 0 0.16889615696593699 -0.25477613782489111 0 0.18071584558537521 -0.26023402785557831 0 0.17799796958967429 -0.24718006679540469 0 0.18967514142879521 -0.26208647181682049 0 0.18071584558537521 -0.26023402785557831 0 0.18156769336735221 -0.27092976965299059 0 0.18967514142879521 -0.26208647181682049 0 0.18071584558537521 -0.26023402785557831 0 0.17799796958967429 -0.24718006679540469 0 0.18967514142879521 -0.26208647181682049 0 0.18156769336735221 -0.27092976965299059 0 0.18599676471760071 -0.27797120814763132 0 0.16892267158697269 -0.27069997971300358 0 0.1796510262568945 -0.27859480160570599 0 0.16958211719045441 -0.28293176354545901 0 0.16892267158697269 -0.27069997971300358 0 0.1796510262568945 -0.27859480160570599 0 0.18156769336735221 -0.27092976965299059 0 0.16892267158697269 -0.27069997971300358 0 0.18071584558537521 -0.26023402785557831 0 0.18156769336735221 -0.27092976965299059 0 0.1796510262568945 -0.27859480160570599 0 0.18156769336735221 -0.27092976965299059 0 0.18599676471760071 -0.27797120814763132 0 0.1796510262568945 -0.27859480160570599 0 0.18599676471760071 -0.27797120814763132 0 0.1836602479886176 -0.28930575846292372 0 0.1796510262568945 -0.27859480160570599 0 0.1836602479886176 -0.28930575846292372 0 0.16958211719045441 -0.28293176354545901 0 0.1726703742620869 -0.29575946462765468 0 0.1836602479886176 -0.28930575846292372 0 0.16958211719045441 -0.28293176354545901 0 0.1957544736972027 -0.30657571452516302 0 0.1726703742620869 -0.29575946462765468 0 0.1957544736972027 -0.30657571452516302 0 0.1864147884381912 -0.31828587000761099 0 0.17786721153275969 -0.31031464984374602 0 0.1957544736972027 -0.30657571452516302 0 0.1726703742620869 -0.29575946462765468 0 0.17786721153275969 -0.31031464984374602 0 0.1957544736972027 -0.30657571452516302 0 0.1726703742620869 -0.29575946462765468 0 0.1836602479886176 -0.28930575846292372 0 0.15538932702345909 -0.29964075333521051 0 0.1726703742620869 -0.29575946462765468 0 0.1628222571374692 -0.31000710889942618 0 0.1726703742620869 -0.29575946462765468 0 0.17786721153275969 -0.31031464984374602 0 0.1628222571374692 -0.31000710889942618 0 0.14958627482697109 -0.2849432147301465 0 0.1726703742620869 -0.29575946462765468 0 0.15538932702345909 -0.29964075333521051 0 0.14958627482697109 -0.2849432147301465 0 0.1726703742620869 -0.29575946462765468 0 0.14958627482697109 -0.2849432147301465 0 0.1726703742620869 -0.29575946462765468 0 0.16958211719045441 -0.28293176354545901 0 0.19331665228411671 -0.48794302187693989 0 0.2033109854152646 -0.5 0 0.17949524515602849 -0.5 0 0.19331665228411671 -0.48794302187693989 0 0.20427769468671089 -0.48444654653423258 0 0.2033109854152646 -0.5 0 0.1898330453331605 -0.47656156830674051 0 0.20146875364201919 -0.47340157105257319 0 0.17803058252056031 -0.48186699179789361 0 0.20146875364201919 -0.47340157105257319 0 0.17803058252056031 -0.48186699179789361 0 0.19331665228411671 -0.48794302187693989 0 0.20146875364201919 -0.47340157105257319 0 0.17803058252056031 -0.48186699179789361 0 0.1898330453331605 -0.47656156830674051 0 0.1949547477874439 -0.4622025432676633 0 0.18021844850261251 -0.47056821833617613 0 0.1898330453331605 -0.47656156830674051 0 0.1949547477874439 -0.4622025432676633 0 0.1898330453331605 -0.47656156830674051 0 0.20146875364201919 -0.47340157105257319 0 0.1949547477874439 -0.4622025432676633 0 0.19331665228411671 -0.48794302187693989 0 0.20146875364201919 -0.47340157105257319 0 0.20427769468671089 -0.48444654653423258 0 0.20146875364201919 -0.47340157105257319 0 0.21282324729892399 -0.47474478543004939 0 0.20427769468671089 -0.48444654653423258 0 0.21282324729892399 -0.47474478543004939 0 0.2146689096193321 -0.487187093578479 0 0.20427769468671089 -0.48444654653423258 0 0.20146875364201919 -0.47340157105257319 0 0.21282324729892399 -0.47474478543004939 0 0.20877357807210381 -0.46307503855270088 0 0.21282324729892399 -0.47474478543004939 0 0.2146689096193321 -0.487187093578479 0 0.2263775380466754 -0.48100287726913599 0 0.2146689096193321 -0.487187093578479 0 0.2033109854152646 -0.5 0 0.2271267256745006 -0.49999999999999839 0 0.2146689096193321 -0.487187093578479 0 0.20427769468671089 -0.48444654653423258 0 0.2033109854152646 -0.5 0 0.2146689096193321 -0.487187093578479 0 0.2271267256745006 -0.49999999999999839 0 0.2263775380466754 -0.48100287726913599 0 0.2271267256745006 -0.49999999999999839 0 0.24696913344281371 -0.48561435626788269 0 0.2263775380466754 -0.48100287726913599 0 0.2271267256745006 -0.49999999999999839 0 0.24696913344281371 -0.48561435626788269 0 0.2271267256745006 -0.49999999999999839 0 0.24696913344281371 -0.48561435626788269 0 0.24941649853059941 -0.500000000000003 0 0.24696913344281371 -0.48561435626788269 0 0.24941649853059941 -0.500000000000003 0 0.24696913344281371 -0.48561435626788269 0 0.2425143758095184 -0.45942923311424289 0 0.24696913344281371 -0.48561435626788269 0 0.23395579478159939 -0.47066876607788732 0 0.2425143758095184 -0.45942923311424289 0 0.24696913344281371 -0.48561435626788269 0 0.23395579478159939 -0.47066876607788732 0 0.2263775380466754 -0.48100287726913599 0 0.23395579478159939 -0.47066876607788732 0 0.2263775380466754 -0.48100287726913599 0 0.22272141746288249 -0.46780226226052118 0 0.21282324729892399 -0.47474478543004939 0 0.2263775380466754 -0.48100287726913599 0 0.22272141746288249 -0.46780226226052118 0 0.22272141746288249 -0.46780226226052118 0 0.2211516839358868 -0.45544693345275961 0 0.23046454527235569 -0.46038182252502341 0 0.2211516839358868 -0.45544693345275961 0 0.23046454527235569 -0.46038182252502341 0 0.23197945437189121 -0.44856191771970588 0 0.23395579478159939 -0.47066876607788732 0 0.22272141746288249 -0.46780226226052118 0 0.23046454527235569 -0.46038182252502341 0 0.23395579478159939 -0.47066876607788732 0 0.23046454527235569 -0.46038182252502341 0 0.2425143758095184 -0.45942923311424289 0 0.23046454527235569 -0.46038182252502341 0 0.2425143758095184 -0.45942923311424289 0 0.23197945437189121 -0.44856191771970588 0 0.2425143758095184 -0.45942923311424289 0 0.23805961817621951 -0.43324410996060381 0 0.26594341680140737 -0.44723136652224171 0 0.2425143758095184 -0.45942923311424289 0 0.23805961817621951 -0.43324410996060381 0 0.2425143758095184 -0.45942923311424289 0 0.23197945437189121 -0.44856191771970588 0 0.23805961817621951 -0.43324410996060381 0 0.23197945437189121 -0.44856191771970588 0 0.21840933242013641 -0.44079699614509632 0 0.23805961817621951 -0.43324410996060381 0 0.2211516839358868 -0.45544693345275961 0 0.23197945437189121 -0.44856191771970588 0 0.21840933242013641 -0.44079699614509632 0 0.23197945437189121 -0.44856191771970588 0 0.21840933242013641 -0.44079699614509632 0 0.21840933242013641 -0.44079699614509632 0 0.20007645024172829 -0.44784351822858648 0 0.21840933242013641 -0.44079699614509632 0 0.20007645024172829 -0.44784351822858648 0 0.2052713298195093 -0.43327933637730009 0 0.2211516839358868 -0.45544693345275961 0 0.21840933242013641 -0.44079699614509632 0 0.20007645024172829 -0.44784351822858648 0 0.2211516839358868 -0.45544693345275961 0 0.20877357807210381 -0.46307503855270088 0 0.20007645024172829 -0.44784351822858648 0 0.21282324729892399 -0.47474478543004939 0 0.22272141746288249 -0.46780226226052118 0 0.20877357807210381 -0.46307503855270088 0 0.22272141746288249 -0.46780226226052118 0 0.2211516839358868 -0.45544693345275961 0 0.20877357807210381 -0.46307503855270088 0 0.20877357807210381 -0.46307503855270088 0 0.1949547477874439 -0.4622025432676633 0 0.20007645024172829 -0.44784351822858648 0 0.1949547477874439 -0.4622025432676633 0 0.20007645024172829 -0.44784351822858648 0 0.1741856243137451 -0.45779505093828388 0 0.1949547477874439 -0.4622025432676633 0 0.20007645024172829 -0.44784351822858648 0 0.20146875364201919 -0.47340157105257319 0 0.20877357807210381 -0.46307503855270088 0 0.1949547477874439 -0.4622025432676633 0 0.20007645024172829 -0.44784351822858648 0 0.19279523624935321 -0.43638257395965352 0 0.18268221810597429 -0.44092837279347608 0 0.20007645024172829 -0.44784351822858648 0 0.2052713298195093 -0.43327933637730009 0 0.20007645024172829 -0.44784351822858648 0 0.19279523624935321 -0.43638257395965352 0 0.2052713298195093 -0.43327933637730009 0 0.2052713298195093 -0.43327933637730009 0 0.1864502982806269 -0.42250980649597758 0 0.20004681946230701 -0.41983272130326199 0 0.2052713298195093 -0.43327933637730009 0 0.1864502982806269 -0.42250980649597758 0 0.19279523624935321 -0.43638257395965352 0 0.2052713298195093 -0.43327933637730009 0 0.1864502982806269 -0.42250980649597758 0 0.1962699401079806 -0.40967535392771359 0 0.20004681946230701 -0.41983272130326199 0 0.1864502982806269 -0.42250980649597758 0 0.1962699401079806 -0.40967535392771359 0 0.20004681946230701 -0.41983272130326199 0 0.2121957096411112 -0.4138663884120567 0 0.1962699401079806 -0.40967535392771359 0 0.18504270561332839 -0.40703127248201582 0 0.1864502982806269 -0.42250980649597758 0 0.1962699401079806 -0.40967535392771359 0 0.2121957096411112 -0.4138663884120567 0 0.20454770266413311 -0.3987361453147934 0 0.20004681946230701 -0.41983272130326199 0 0.2121957096411112 -0.4138663884120567 0 0.2052713298195093 -0.43327933637730009 0 0.2121957096411112 -0.4138663884120567 0 0.2052713298195093 -0.43327933637730009 0 0.2121957096411112 -0.4138663884120567 0 0.2052713298195093 -0.43327933637730009 0 0.22295273671360669 -0.4258476685500403 0 0.21840933242013641 -0.44079699614509632 0 0.2052713298195093 -0.43327933637730009 0 0.22295273671360669 -0.4258476685500403 0 0.21840933242013641 -0.44079699614509632 0 0.2052713298195093 -0.43327933637730009 0 0.21840933242013641 -0.44079699614509632 0 0.23805961817621951 -0.43324410996060381 0 0.21840933242013641 -0.44079699614509632 0 0.22295273671360669 -0.4258476685500403 0 0.23805961817621951 -0.43324410996060381 0 0.22295273671360669 -0.4258476685500403 0 0.23805961817621951 -0.43324410996060381 0 0.23541899568361679 -0.41772249669609518 0 0.23805961817621951 -0.43324410996060381 0 0.23541899568361679 -0.41772249669609518 0 0.24446716135474419 -0.40992677056914401 0 0.23541899568361679 -0.41772249669609518 0 0.2250815763160208 -0.39975546985818883 0 0.25008502760396267 -0.41287437348443312 0 0.23805961817621951 -0.43324410996060381 0 0.23541899568361679 -0.41772249669609518 0 0.25008502760396267 -0.41287437348443312 0 0.24446716135474419 -0.40992677056914401 0 0.23541899568361679 -0.41772249669609518 0 0.25151765789997838 -0.40613307996476561 0 0.25008502760396267 -0.41287437348443312 0 0.24446716135474419 -0.40992677056914401 0 0.25008502760396267 -0.41287437348443312 0 0.24446716135474419 -0.40992677056914401 0 0.23541899568361679 -0.41772249669609518 0 0.2239122545885889 -0.41429800587909532 0 0.2250815763160208 -0.39975546985818883 0 0.22295273671360669 -0.4258476685500403 0 0.23541899568361679 -0.41772249669609518 0 0.2239122545885889 -0.41429800587909532 0 0.2121957096411112 -0.4138663884120567 0 0.22295273671360669 -0.4258476685500403 0 0.2239122545885889 -0.41429800587909532 0 0.2121957096411112 -0.4138663884120567 0 0.2239122545885889 -0.41429800587909532 0 0.2250815763160208 -0.39975546985818883 0 0.2121957096411112 -0.4138663884120567 0 0.2250815763160208 -0.39975546985818883 0 0.21912008946271319 -0.3944534404468133 0 0.2250815763160208 -0.39975546985818883 0 0.21912008946271319 -0.3944534404468133 0 0.22983117792480459 -0.38943273606235368 0 0.2250815763160208 -0.39975546985818883 0 0.23740968321483311 -0.39811744388032511 0 0.22983117792480459 -0.38943273606235368 0 0.24446716135474419 -0.40992677056914401 0 0.2250815763160208 -0.39975546985818883 0 0.24446716135474419 -0.40992677056914401 0 0.2250815763160208 -0.39975546985818883 0 0.23740968321483311 -0.39811744388032511 0 0.23740968321483311 -0.39811744388032511 0 0.24057289604918039 -0.39233841718261497 0 0.2467980079583264 -0.39970101785759332 0 0.23740968321483311 -0.39811744388032511 0 0.24057289604918039 -0.39233841718261497 0 0.22983117792480459 -0.38943273606235368 0 0.25172371832709822 -0.39048929150378081 0 0.24057289604918039 -0.39233841718261497 0 0.2467980079583264 -0.39970101785759332 0 0.25151765789997838 -0.40613307996476561 0 0.24446716135474419 -0.40992677056914401 0 0.2467980079583264 -0.39970101785759332 0 0.24446716135474419 -0.40992677056914401 0 0.23740968321483311 -0.39811744388032511 0 0.2467980079583264 -0.39970101785759332 0 0.23164112339152859 -0.3738221690383311 0 0.2483547988428961 -0.37703000882996779 0 0.23861082576682299 -0.38292531446083611 0 0.25172371832709822 -0.39048929150378081 0 0.2483547988428961 -0.37703000882996779 0 0.23861082576682299 -0.38292531446083611 0 0.25172371832709822 -0.39048929150378081 0 0.24057289604918039 -0.39233841718261497 0 0.23861082576682299 -0.38292531446083611 0 0.24057289604918039 -0.39233841718261497 0 0.23861082576682299 -0.38292531446083611 0 0.22983117792480459 -0.38943273606235368 0 0.23164112339152859 -0.3738221690383311 0 0.23861082576682299 -0.38292531446083611 0 0.22983117792480459 -0.38943273606235368 0 0.23164112339152859 -0.3738221690383311 0 0.21333463035233011 -0.37248957896032331 0 0.2204810495675216 -0.38326335588824362 0 0.23164112339152859 -0.3738221690383311 0 0.22983117792480459 -0.38943273606235368 0 0.2204810495675216 -0.38326335588824362 0 0.21912008946271319 -0.3944534404468133 0 0.22983117792480459 -0.38943273606235368 0 0.2204810495675216 -0.38326335588824362 0 0.21333463035233011 -0.37248957896032331 0 0.2204810495675216 -0.38326335588824362 0 0.21059960385431209 -0.38735240551390149 0 0.21333463035233011 -0.37248957896032331 0 0.21059960385431209 -0.38735240551390149 0 0.19835265424972101 -0.38439901161959389 0 0.21059960385431209 -0.38735240551390149 0 0.20454770266413311 -0.3987361453147934 0 0.19835265424972101 -0.38439901161959389 0 0.21912008946271319 -0.3944534404468133 0 0.2204810495675216 -0.38326335588824362 0 0.21059960385431209 -0.38735240551390149 0 0.2121957096411112 -0.4138663884120567 0 0.21912008946271319 -0.3944534404468133 0 0.2121957096411112 -0.4138663884120567 0 0.21912008946271319 -0.3944534404468133 0 0.20454770266413311 -0.3987361453147934 0 0.21912008946271319 -0.3944534404468133 0 0.21059960385431209 -0.38735240551390149 0 0.20454770266413311 -0.3987361453147934 0 0.20454770266413311 -0.3987361453147934 0 0.18962230739646521 -0.39482983226480978 0 0.19835265424972101 -0.38439901161959389 0 0.1962699401079806 -0.40967535392771359 0 0.20454770266413311 -0.3987361453147934 0 0.18962230739646521 -0.39482983226480978 0 0.1962699401079806 -0.40967535392771359 0 0.18962230739646521 -0.39482983226480978 0 0.18504270561332839 -0.40703127248201582 0 0.1929827593274018 -0.37197317886203701 0 0.19835265424972101 -0.38439901161959389 0 0.18054460406762271 -0.37870930550370729 0 0.21333463035233011 -0.37248957896032331 0 0.1929827593274018 -0.37197317886203701 0 0.19835265424972101 -0.38439901161959389 0 0.18962230739646521 -0.39482983226480978 0 0.19835265424972101 -0.38439901161959389 0 0.18054460406762271 -0.37870930550370729 0 0.18962230739646521 -0.39482983226480978 0 0.18054460406762271 -0.37870930550370729 0 0.1772473361442044 -0.39176488730140069 0 0.18054460406762271 -0.37870930550370729 0 0.1772473361442044 -0.39176488730140069 0 0.16275543897747721 -0.38635063803207359 0 0.18962230739646521 -0.39482983226480978 0 0.1795894303923154 -0.4003844639863397 0 0.1772473361442044 -0.39176488730140069 0 0.18962230739646521 -0.39482983226480978 0 0.1795894303923154 -0.4003844639863397 0 0.18504270561332839 -0.40703127248201582 0 0.1795894303923154 -0.4003844639863397 0 0.17165119233391909 -0.39843851229371541 0 0.17416831682765219 -0.40708002851214659 0 0.1795894303923154 -0.4003844639863397 0 0.17416831682765219 -0.40708002851214659 0 0.18504270561332839 -0.40703127248201582 0 0.1795894303923154 -0.4003844639863397 0 0.1772473361442044 -0.39176488730140069 0 0.17165119233391909 -0.39843851229371541 0 0.16275543897747721 -0.38635063803207359 0 0.15243107533573039 -0.38687219774854681 0 0.16449543932794691 -0.40661254363661609 0 0.16275543897747721 -0.38635063803207359 0 0.16449543932794691 -0.40661254363661609 0 0.17165119233391909 -0.39843851229371541 0 0.16275543897747721 -0.38635063803207359 0 0.16449543932794691 -0.40661254363661609 0 0.1772473361442044 -0.39176488730140069 0 0.17165119233391909 -0.39843851229371541 0 0.16275543897747721 -0.38635063803207359 0 0.15243107533573039 -0.38687219774854681 0 0.16449543932794691 -0.40661254363661609 0 0.14496430421839979 -0.39877122172252838 0 0.16449543932794691 -0.40661254363661609 0 0.16479659219668 -0.41011939982614681 0 0.17165119233391909 -0.39843851229371541 0 0.16449543932794691 -0.40661254363661609 0 0.17416831682765219 -0.40708002851214659 0 0.16101543862700679 -0.36608873242753109 0 0.16275543897747721 -0.38635063803207359 0 0.15243107533573039 -0.38687219774854681 0 0.16101543862700679 -0.36608873242753109 0 0.16275543897747721 -0.38635063803207359 0 0.16101543862700679 -0.36608873242753109 0 0.18054460406762271 -0.37870930550370729 0 0.16275543897747721 -0.38635063803207359 0 0.1403667113435145 -0.36713185186047692 0 0.15243107533573039 -0.38687219774854681 0 0.13948214155518371 -0.38603001078016741 0 0.1403667113435145 -0.36713185186047692 0 0.15243107533573039 -0.38687219774854681 0 0.15243107533573039 -0.38687219774854681 0 0.13948214155518371 -0.38603001078016741 0 0.14496430421839979 -0.39877122172252838 0 0.1403667113435145 -0.36713185186047692 0 0.13948214155518371 -0.38603001078016741 0 0.12513201624011991 -0.38742304361890939 0 0.12513201624011991 -0.38742304361890939 0 0.14496430421839979 -0.39877122172252838 0 0.13948214155518371 -0.38603001078016741 0 0.12513201624011991 -0.38742304361890939 0 0.14496430421839979 -0.39877122172252838 0 0.12513201624011991 -0.38742304361890939 0 0.1323956588780946 -0.4012287548850022 0 0.14496430421839979 -0.39877122172252838 0 0.12513201624011991 -0.38742304361890939 0 0.1323956588780946 -0.4012287548850022 0 0.1323956588780946 -0.4012287548850022 0 0.14496430421839979 -0.39877122172252838 0 0.14088127631296621 -0.40944511655393251 0 0.15243107533573039 -0.38687219774854681 0 0.14496430421839979 -0.39877122172252838 0 0.16449543932794691 -0.40661254363661609 0 0.14496430421839979 -0.39877122172252838 0 0.16479659219668 -0.41011939982614681 0 0.14496430421839979 -0.39877122172252838 0 0.1501264545243596 -0.41215304982999151 0 0.16479659219668 -0.41011939982614681 0 0.1501264545243596 -0.41215304982999151 0 0.1557285248274192 -0.42135512794155883 0 0.14426157506633319 -0.42107438310578971 0 0.1501264545243596 -0.41215304982999151 0 0.14426157506633319 -0.42107438310578971 0 0.14088127631296621 -0.40944511655393251 0 0.14496430421839979 -0.39877122172252838 0 0.1501264545243596 -0.41215304982999151 0 0.14088127631296621 -0.40944511655393251 0 0.1323956588780946 -0.4012287548850022 0 0.14088127631296621 -0.40944511655393251 0 0.13010382020271821 -0.41714042651304428 0 0.1323956588780946 -0.4012287548850022 0 0.13010382020271821 -0.41714042651304428 0 0.1230648975716611 -0.40932304658205981 0 0.14426157506633319 -0.42107438310578971 0 0.14088127631296621 -0.40944511655393251 0 0.13010382020271821 -0.41714042651304428 0 0.13010382020271821 -0.41714042651304428 0 0.13294704723435169 -0.43512957782937578 0 0.1214806017420694 -0.42746368531258638 0 0.14426157506633319 -0.42107438310578971 0 0.13010382020271821 -0.41714042651304428 0 0.13294704723435169 -0.43512957782937578 0 0.14426157506633319 -0.42107438310578971 0 0.13294704723435169 -0.43512957782937578 0 0.1516281744137476 -0.43444111685510017 0 0.1557285248274192 -0.42135512794155883 0 0.14426157506633319 -0.42107438310578971 0 0.1516281744137476 -0.43444111685510017 0 0.16682279123716581 -0.43371402363366413 0 0.16479659219668 -0.41011939982614681 0 0.1557285248274192 -0.42135512794155883 0 0.1516281744137476 -0.43444111685510017 0 0.16682279123716581 -0.43371402363366413 0 0.16682279123716581 -0.43371402363366413 0 0.16762926674174511 -0.41174027661465379 0 0.17379452098409109 -0.42182818935587207 0 0.1557285248274192 -0.42135512794155883 0 0.16682279123716581 -0.43371402363366413 0 0.16479659219668 -0.41011939982614681 0 0.1501264545243596 -0.41215304982999151 0 0.1557285248274192 -0.42135512794155883 0 0.16479659219668 -0.41011939982614681 0 0.16682279123716581 -0.43371402363366413 0 0.16479659219668 -0.41011939982614681 0 0.16762926674174511 -0.41174027661465379 0 0.16449543932794691 -0.40661254363661609 0 0.16762926674174511 -0.41174027661465379 0 0.17416831682765219 -0.40708002851214659 0 0.16449543932794691 -0.40661254363661609 0 0.16479659219668 -0.41011939982614681 0 0.16762926674174511 -0.41174027661465379 0 0.16449543932794691 -0.40661254363661609 0 0.16762926674174511 -0.41174027661465379 0 0.16449543932794691 -0.40661254363661609 0 0.16479659219668 -0.41011939982614681 0 0.16479659219668 -0.41011939982614681 0 0.16762926674174511 -0.41174027661465379 0 0.16762926674174511 -0.41174027661465379 0 0.17379452098409109 -0.42182818935587207 0 0.16762926674174511 -0.41174027661465379 0 0.1864502982806269 -0.42250980649597758 0 0.16762926674174511 -0.41174027661465379 0 0.17829277761661799 -0.41237452537407487 0 0.1864502982806269 -0.42250980649597758 0 0.16762926674174511 -0.41174027661465379 0 0.17379452098409109 -0.42182818935587207 0 0.1864502982806269 -0.42250980649597758 0 0.16762926674174511 -0.41174027661465379 0 0.17829277761661799 -0.41237452537407487 0 0.17416831682765219 -0.40708002851214659 0 0.17829277761661799 -0.41237452537407487 0 0.17416831682765219 -0.40708002851214659 0 0.18504270561332839 -0.40703127248201582 0 0.17829277761661799 -0.41237452537407487 0 0.18504270561332839 -0.40703127248201582 0 0.1864502982806269 -0.42250980649597758 0 0.16682279123716581 -0.43371402363366413 0 0.1801176069604141 -0.43086151543576329 0 0.18268221810597429 -0.44092837279347608 0 0.17379452098409109 -0.42182818935587207 0 0.1864502982806269 -0.42250980649597758 0 0.1801176069604141 -0.43086151543576329 0 0.19279523624935321 -0.43638257395965352 0 0.1801176069604141 -0.43086151543576329 0 0.18268221810597429 -0.44092837279347608 0 0.19279523624935321 -0.43638257395965352 0 0.1864502982806269 -0.42250980649597758 0 0.1801176069604141 -0.43086151543576329 0 0.16682279123716581 -0.43371402363366413 0 0.17379452098409109 -0.42182818935587207 0 0.1801176069604141 -0.43086151543576329 0 0.20007645024172829 -0.44784351822858648 0 0.18268221810597429 -0.44092837279347608 0 0.1741856243137451 -0.45779505093828388 0 0.18268221810597429 -0.44092837279347608 0 0.1741856243137451 -0.45779505093828388 0 0.16152588188721251 -0.44706640625819349 0 0.20007645024172829 -0.44784351822858648 0 0.1741856243137451 -0.45779505093828388 0 0.1741856243137451 -0.45779505093828388 0 0.16408824255815291 -0.47441493737029927 0 0.18021844850261251 -0.47056821833617613 0 0.1949547477874439 -0.4622025432676633 0 0.1741856243137451 -0.45779505093828388 0 0.18021844850261251 -0.47056821833617613 0 0.1741856243137451 -0.45779505093828388 0 0.1482947983857614 -0.46774658364797989 0 0.16408824255815291 -0.47441493737029927 0 0.1741856243137451 -0.45779505093828388 0 0.16152588188721251 -0.44706640625819349 0 0.1482947983857614 -0.46774658364797989 0 0.1741856243137451 -0.45779505093828388 0 0.1482947983857614 -0.46774658364797989 0 0.16682279123716581 -0.43371402363366413 0 0.18268221810597429 -0.44092837279347608 0 0.16152588188721251 -0.44706640625819349 0 0.1516281744137476 -0.43444111685510017 0 0.16682279123716581 -0.43371402363366413 0 0.16152588188721251 -0.44706640625819349 0 0.1516281744137476 -0.43444111685510017 0 0.16152588188721251 -0.44706640625819349 0 0.14554168486688049 -0.44777328968065683 0 0.13294704723435169 -0.43512957782937578 0 0.1516281744137476 -0.43444111685510017 0 0.14554168486688049 -0.44777328968065683 0 0.13294704723435169 -0.43512957782937578 0 0.14554168486688049 -0.44777328968065683 0 0.1276373740052584 -0.4551307845914786 0 0.13294704723435169 -0.43512957782937578 0 0.1276373740052584 -0.4551307845914786 0 0.1170628884959187 -0.43894113918854039 0 0.1276373740052584 -0.4551307845914786 0 0.1482947983857614 -0.46774658364797989 0 0.1315273885891102 -0.47016082183593327 0 0.14554168486688049 -0.44777328968065683 0 0.1276373740052584 -0.4551307845914786 0 0.1482947983857614 -0.46774658364797989 0 0.1276373740052584 -0.4551307845914786 0 0.1315273885891102 -0.47016082183593327 0 0.1174700795948086 -0.47561238205294898 0 0.16152588188721251 -0.44706640625819349 0 0.14554168486688049 -0.44777328968065683 0 0.1482947983857614 -0.46774658364797989 0 0.15138460135487061 -0.47878123685501012 0 0.1385629530764669 -0.48263101385854679 0 0.15459241139910121 -0.49033241254321408 0 0.1482947983857614 -0.46774658364797989 0 0.15138460135487061 -0.47878123685501012 0 0.16408824255815291 -0.47441493737029927 0 0.1482947983857614 -0.46774658364797989 0 0.15138460135487061 -0.47878123685501012 0 0.1385629530764669 -0.48263101385854679 0 0.1482947983857614 -0.46774658364797989 0 0.1315273885891102 -0.47016082183593327 0 0.1385629530764669 -0.48263101385854679 0 0.1315273885891102 -0.47016082183593327 0 0.1385629530764669 -0.48263101385854679 0 0.1174700795948086 -0.47561238205294898 0 0.1385629530764669 -0.48263101385854679 0 0.13115424027764169 -0.49879783328853361 0 0.1174700795948086 -0.47561238205294898 0 0.13115424027764169 -0.49879783328853361 0 0.12782580688401871 -0.49999999999999889 0 0.13115424027764169 -0.49879783328853361 0 0.15459241139910121 -0.49033241254321408 0 0.15567950489679261 -0.5 0 0.1385629530764669 -0.48263101385854679 0 0.13115424027764169 -0.49879783328853361 0 0.15459241139910121 -0.49033241254321408 0 0.13115424027764169 -0.49879783328853361 0 0.15459241139910121 -0.49033241254321408 0 0.15459241139910121 -0.49033241254321408 0 0.15567950489679261 -0.5 0 0.1683608388904958 -0.49177370566103212 0 0.15459241139910121 -0.49033241254321408 0 0.1683608388904958 -0.49177370566103212 0 0.17803058252056031 -0.48186699179789361 0 0.15567950489679261 -0.5 0 0.1683608388904958 -0.49177370566103212 0 0.17949524515602849 -0.5 0 0.15459241139910121 -0.49033241254321408 0 0.17803058252056031 -0.48186699179789361 0 0.15459241139910121 -0.49033241254321408 0 0.16408824255815291 -0.47441493737029927 0 0.17803058252056031 -0.48186699179789361 0 0.15138460135487061 -0.47878123685501012 0 0.15459241139910121 -0.49033241254321408 0 0.16408824255815291 -0.47441493737029927 0 0.16408824255815291 -0.47441493737029927 0 0.17803058252056031 -0.48186699179789361 0 0.18021844850261251 -0.47056821833617613 0 0.1898330453331605 -0.47656156830674051 0 0.17803058252056031 -0.48186699179789361 0 0.18021844850261251 -0.47056821833617613 0 0.1683608388904958 -0.49177370566103212 0 0.17803058252056031 -0.48186699179789361 0 0.17949524515602849 -0.5 0 0.19331665228411671 -0.48794302187693989 0 0.17803058252056031 -0.48186699179789361 0 0.17949524515602849 -0.5 0 0.07670187209684598 -0.5 0 0.076050044235406414 -0.48193781503923111 0 0.049528882474762392 -0.5 0 0.076050044235406414 -0.48193781503923111 0 0.091836138581533805 -0.47313630207763452 0 0.061729779475819403 -0.46934586009992119 0 0.07670187209684598 -0.5 0 0.076050044235406414 -0.48193781503923111 0 0.1038748617189293 -0.49999999999999978 0 0.076050044235406414 -0.48193781503923111 0 0.091836138581533805 -0.47313630207763452 0 0.1038748617189293 -0.49999999999999978 0 0.091836138581533805 -0.47313630207763452 0 0.1038748617189293 -0.49999999999999978 0 0.091836138581533805 -0.47313630207763452 0 0.1038748617189293 -0.49999999999999978 0 0.1158503343014731 -0.49069266335570411 0 0.13115424027764169 -0.49879783328853361 0 0.1158503343014731 -0.49069266335570411 0 0.1174700795948086 -0.47561238205294898 0 0.12782580688401871 -0.49999999999999889 0 0.1038748617189293 -0.49999999999999978 0 0.1158503343014731 -0.49069266335570411 0 0.13115424027764169 -0.49879783328853361 0 0.1174700795948086 -0.47561238205294898 0 0.13115424027764169 -0.49879783328853361 0 0.12782580688401871 -0.49999999999999889 0 0.1158503343014731 -0.49069266335570411 0 0.091836138581533805 -0.47313630207763452 0 0.1158503343014731 -0.49069266335570411 0 0.1174700795948086 -0.47561238205294898 0 0.091836138581533805 -0.47313630207763452 0 0.1174700795948086 -0.47561238205294898 0 0.10378591891197519 -0.45242693081736451 0 0.1276373740052584 -0.4551307845914786 0 0.1174700795948086 -0.47561238205294898 0 0.10378591891197519 -0.45242693081736451 0 0.1174700795948086 -0.47561238205294898 0 0.10378591891197519 -0.45242693081736451 0 0.1276373740052584 -0.4551307845914786 0 0.1170628884959187 -0.43894113918854039 0 0.10378591891197519 -0.45242693081736451 0 0.1170628884959187 -0.43894113918854039 0 0.10378591891197519 -0.45242693081736451 0 0.1066763980745304 -0.42957764318645569 0 0.10378591891197519 -0.45242693081736451 0 0.090101758229141793 -0.42924147958177999 0 0.10378591891197519 -0.45242693081736451 0 0.07979741544413825 -0.44627260415526909 0 0.090101758229141793 -0.42924147958177999 0 0.091836138581533805 -0.47313630207763452 0 0.10378591891197519 -0.45242693081736451 0 0.07979741544413825 -0.44627260415526909 0 0.091836138581533805 -0.47313630207763452 0 0.07979741544413825 -0.44627260415526909 0 0.07979741544413825 -0.44627260415526909 0 0.056336477350692651 -0.44781509094184518 0 0.061729779475819403 -0.46934586009992119 0 0.091836138581533805 -0.47313630207763452 0 0.07979741544413825 -0.44627260415526909 0 0.061729779475819403 -0.46934586009992119 0 0.07979741544413825 -0.44627260415526909 0 0.06240125097467842 -0.42720616542232842 0 0.056336477350692651 -0.44781509094184518 0 0.07979741544413825 -0.44627260415526909 0 0.090101758229141793 -0.42924147958177999 0 0.06240125097467842 -0.42720616542232842 0 0.090101758229141793 -0.42924147958177999 0 0.076417597546308391 -0.40605602834619547 0 0.06240125097467842 -0.42720616542232842 0 0.076417597546308391 -0.40605602834619547 0 0.054662654530190508 -0.40514817134103009 0 0.06240125097467842 -0.42720616542232842 0 0.090101758229141793 -0.42924147958177999 0 0.076417597546308391 -0.40605602834619547 0 0.098667011290299603 -0.41501078221138182 0 0.094467529361694058 -0.40115549968209863 0 0.076417597546308391 -0.40605602834619547 0 0.090101758229141793 -0.42924147958177999 0 0.098667011290299603 -0.41501078221138182 0 0.076417597546308391 -0.40605602834619547 0 0.090101758229141793 -0.42924147958177999 0 0.1066763980745304 -0.42957764318645569 0 0.098667011290299603 -0.41501078221138182 0 0.10378591891197519 -0.45242693081736451 0 0.090101758229141793 -0.42924147958177999 0 0.1066763980745304 -0.42957764318645569 0 0.1170628884959187 -0.43894113918854039 0 0.1066763980745304 -0.42957764318645569 0 0.1214806017420694 -0.42746368531258638 0 0.13294704723435169 -0.43512957782937578 0 0.1170628884959187 -0.43894113918854039 0 0.1214806017420694 -0.42746368531258638 0 0.1066763980745304 -0.42957764318645569 0 0.1214806017420694 -0.42746368531258638 0 0.114515603149587 -0.41748413798529321 0 0.1230648975716611 -0.40932304658205981 0 0.114515603149587 -0.41748413798529321 0 0.1152445080562448 -0.40143886694489928 0 0.114515603149587 -0.41748413798529321 0 0.098667011290299603 -0.41501078221138182 0 0.1152445080562448 -0.40143886694489928 0 0.13010382020271821 -0.41714042651304428 0 0.1214806017420694 -0.42746368531258638 0 0.114515603149587 -0.41748413798529321 0 0.13010382020271821 -0.41714042651304428 0 0.1230648975716611 -0.40932304658205981 0 0.114515603149587 -0.41748413798529321 0 0.1066763980745304 -0.42957764318645569 0 0.114515603149587 -0.41748413798529321 0 0.098667011290299603 -0.41501078221138182 0 0.098667011290299603 -0.41501078221138182 0 0.094467529361694058 -0.40115549968209863 0 0.1152445080562448 -0.40143886694489928 0 0.094467529361694058 -0.40115549968209863 0 0.1152445080562448 -0.40143886694489928 0 0.10676787327913791 -0.39043706488453123 0 0.1323956588780946 -0.4012287548850022 0 0.1230648975716611 -0.40932304658205981 0 0.1152445080562448 -0.40143886694489928 0 0.12513201624011991 -0.38742304361890939 0 0.1323956588780946 -0.4012287548850022 0 0.1152445080562448 -0.40143886694489928 0 0.1152445080562448 -0.40143886694489928 0 0.11500164928193329 -0.38978758344471748 0 0.10676787327913791 -0.39043706488453123 0 0.12513201624011991 -0.38742304361890939 0 0.1152445080562448 -0.40143886694489928 0 0.11500164928193329 -0.38978758344471748 0 0.12513201624011991 -0.38742304361890939 0 0.11201468340206321 -0.37991721123820971 0 0.11593812143109949 -0.36994858025798277 0 0.12513201624011991 -0.38742304361890939 0 0.11593812143109949 -0.36994858025798277 0 0.12513201624011991 -0.38742304361890939 0 0.11500164928193329 -0.38978758344471748 0 0.11201468340206321 -0.37991721123820971 0 0.12513201624011991 -0.38742304361890939 0 0.11201468340206321 -0.37991721123820971 0 0.11500164928193329 -0.38978758344471748 0 0.11201468340206321 -0.37991721123820971 0 0.10676787327913791 -0.39043706488453123 0 0.11201468340206321 -0.37991721123820971 0 0.10676787327913791 -0.39043706488453123 0 0.1006058779918885 -0.37681480828957697 0 0.094467529361694058 -0.40115549968209863 0 0.1006058779918885 -0.37681480828957697 0 0.094467529361694058 -0.40115549968209863 0 0.10676787327913791 -0.39043706488453123 0 0.1006058779918885 -0.37681480828957697 0 0.11201468340206321 -0.37991721123820971 0 0.1006058779918885 -0.37681480828957697 0 0.1088257273617827 -0.36978867917070629 0 0.1006058779918885 -0.37681480828957697 0 0.085122292490630538 -0.38773263306709238 0 0.086624956680442455 -0.37352535187963293 0 0.094467529361694058 -0.40115549968209863 0 0.1006058779918885 -0.37681480828957697 0 0.085122292490630538 -0.38773263306709238 0 0.085122292490630538 -0.38773263306709238 0 0.075918590317151605 -0.37741555149214878 0 0.086624956680442455 -0.37352535187963293 0 0.094467529361694058 -0.40115549968209863 0 0.085122292490630538 -0.38773263306709238 0 0.076417597546308391 -0.40605602834619547 0 0.085122292490630538 -0.38773263306709238 0 0.066999238895385116 -0.3920948848803687 0 0.076417597546308391 -0.40605602834619547 0 0.066999238895385116 -0.3920948848803687 0 0.076417597546308391 -0.40605602834619547 0 0.054662654530190508 -0.40514817134103009 0 0.085122292490630538 -0.38773263306709238 0 0.066999238895385116 -0.3920948848803687 0 0.075918590317151605 -0.37741555149214878 0 0.066999238895385116 -0.3920948848803687 0 0.075918590317151605 -0.37741555149214878 0 0.060288923606476807 -0.36883931516253288 0 0.066999238895385116 -0.3920948848803687 0 0.048354342333116161 -0.38229931767414871 0 0.060288923606476807 -0.36883931516253288 0 0.066999238895385116 -0.3920948848803687 0 0.048354342333116161 -0.38229931767414871 0 0.054662654530190508 -0.40514817134103009 0 0.048354342333116161 -0.38229931767414871 0 0.054662654530190508 -0.40514817134103009 0 0.034624542040993772 -0.40265794752734169 0 0.048354342333116161 -0.38229931767414871 0 0.034624542040993772 -0.40265794752734169 0 0.029121370701509209 -0.38638081345230851 0 0.048354342333116161 -0.38229931767414871 0 0.029121370701509209 -0.38638081345230851 0 0.037141110654292639 -0.35916807438573217 0 0.029121370701509209 -0.38638081345230851 0 0.0085074011331607649 -0.38858850028580327 0 0.01409360781467164 -0.3737027951455566 0 -0.00059381270617452487 -0.37697237717465393 0 -0.0077355309969082383 -0.39001028402193483 0 0.0085074011331607649 -0.38858850028580327 0 -0.00059381270617452487 -0.37697237717465393 0 0.0085074011331607649 -0.38858850028580327 0 0.01409360781467164 -0.3737027951455566 0 -0.0077355309969082383 -0.39001028402193483 0 0.0085074011331607649 -0.38858850028580327 0 0.003261312738943584 -0.39977956012240812 0 -0.0074320890386337024 -0.40694553560935498 0 0.003261312738943584 -0.39977956012240812 0 0.0056970885256454164 -0.41168491302385962 0 0.0085074011331607649 -0.38858850028580327 0 0.003261312738943584 -0.39977956012240812 0 0.017269694071453678 -0.40166856767108777 0 0.003261312738943584 -0.39977956012240812 0 0.017269694071453678 -0.40166856767108777 0 0.0056970885256454164 -0.41168491302385962 0 0.029121370701509209 -0.38638081345230851 0 0.0085074011331607649 -0.38858850028580327 0 0.017269694071453678 -0.40166856767108777 0 0.034624542040993772 -0.40265794752734169 0 0.029121370701509209 -0.38638081345230851 0 0.017269694071453678 -0.40166856767108777 0 0.034624542040993772 -0.40265794752734169 0 0.017269694071453678 -0.40166856767108777 0 0.020425860911425502 -0.41500330623197251 0 0.020425860911425502 -0.41500330623197251 0 0.023154776563814469 -0.42892425051418193 0 0.039106752374259847 -0.41910378211017379 0 0.017269694071453678 -0.40166856767108777 0 0.020425860911425502 -0.41500330623197251 0 0.0056970885256454164 -0.41168491302385962 0 0.020425860911425502 -0.41500330623197251 0 0.0056970885256454164 -0.41168491302385962 0 0.002702311892385807 -0.42598037654519072 0 -0.0057760053095382118 -0.41790257368011458 0 0.0056970885256454164 -0.41168491302385962 0 0.002702311892385807 -0.42598037654519072 0 0.020425860911425502 -0.41500330623197251 0 0.002702311892385807 -0.42598037654519072 0 0.023154776563814469 -0.42892425051418193 0 0.002702311892385807 -0.42598037654519072 0 0.023154776563814469 -0.42892425051418193 0 0.014440588980680159 -0.44652862360144069 0 0.039106752374259847 -0.41910378211017379 0 0.06240125097467842 -0.42720616542232842 0 0.038659730830631997 -0.43789527998955102 0 0.023154776563814469 -0.42892425051418193 0 0.039106752374259847 -0.41910378211017379 0 0.038659730830631997 -0.43789527998955102 0 0.034624542040993772 -0.40265794752734169 0 0.020425860911425502 -0.41500330623197251 0 0.039106752374259847 -0.41910378211017379 0 0.054662654530190508 -0.40514817134103009 0 0.034624542040993772 -0.40265794752734169 0 0.039106752374259847 -0.41910378211017379 0 0.054662654530190508 -0.40514817134103009 0 0.039106752374259847 -0.41910378211017379 0 0.06240125097467842 -0.42720616542232842 0 0.06240125097467842 -0.42720616542232842 0 0.056336477350692651 -0.44781509094184518 0 0.038659730830631997 -0.43789527998955102 0 0.056336477350692651 -0.44781509094184518 0 0.035868473413832147 -0.45657169956479687 0 0.061729779475819403 -0.46934586009992119 0 0.035868473413832147 -0.45657169956479687 0 0.03542747186645423 -0.48016345079315598 0 0.061729779475819403 -0.46934586009992119 0 0.056336477350692651 -0.44781509094184518 0 0.035868473413832147 -0.45657169956479687 0 0.038659730830631997 -0.43789527998955102 0 0.023154776563814469 -0.42892425051418193 0 0.038659730830631997 -0.43789527998955102 0 0.014440588980680159 -0.44652862360144069 0 0.035868473413832147 -0.45657169956479687 0 0.038659730830631997 -0.43789527998955102 0 0.014440588980680159 -0.44652862360144069 0 -0.0088618208689051972 -0.45065358436346159 0 0.002702311892385807 -0.42598037654519072 0 0.014440588980680159 -0.44652862360144069 0 -0.0088618208689051972 -0.45065358436346159 0 0.014440588980680159 -0.44652862360144069 0 0.007654331115178414 -0.47489969430106183 0 0.035868473413832147 -0.45657169956479687 0 0.014440588980680159 -0.44652862360144069 0 0.007654331115178414 -0.47489969430106183 0 0.035868473413832147 -0.45657169956479687 0 0.007654331115178414 -0.47489969430106183 0 0.03542747186645423 -0.48016345079315598 0 -0.0048170967694046718 -0.5 0 0.007654331115178414 -0.47489969430106183 0 0.022355892852678801 -0.5 0 0.007654331115178414 -0.47489969430106183 0 0.022355892852678801 -0.5 0 0.03542747186645423 -0.48016345079315598 0 0.022355892852678801 -0.5 0 0.03542747186645423 -0.48016345079315598 0 0.049528882474762392 -0.5 0 0.076050044235406414 -0.48193781503923111 0 0.061729779475819403 -0.46934586009992119 0 0.049528882474762392 -0.5 0 0.03542747186645423 -0.48016345079315598 0 0.061729779475819403 -0.46934586009992119 0 0.049528882474762392 -0.5 0 0.090914310205029769 -0.2862152362726908 0 0.081914302858164145 -0.30528088681556143 0 0.064103086367162429 -0.29277831065857762 0 0.090914310205029769 -0.2862152362726908 0 0.076128962464899586 -0.27790701540708662 0 0.087042658390112854 -0.27988023626490383 0 0.090914310205029769 -0.2862152362726908 0 0.087042658390112854 -0.27988023626490383 0 0.097651043351265523 -0.28241273404955269 0 0.090914310205029769 -0.2862152362726908 0 0.087042658390112854 -0.27988023626490383 0 0.090914310205029769 -0.2862152362726908 0 0.081914302858164145 -0.30528088681556143 0 0.099397183171819045 -0.30009535847366398 0 0.081914302858164145 -0.30528088681556143 0 0.096203345752803759 -0.3124155707789939 0 0.099397183171819045 -0.30009535847366398 0 0.081914302858164145 -0.30528088681556143 0 0.064103086367162429 -0.29277831065857762 0 0.056011116543230322 -0.31325781171026729 0 0.090914310205029769 -0.2862152362726908 0 0.064103086367162429 -0.29277831065857762 0 0.090914310205029769 -0.2862152362726908 0 0.064103086367162429 -0.29277831065857762 0 0.076128962464899586 -0.27790701540708662 0 0.076128962464899586 -0.27790701540708662 0 0.074905152453190835 -0.26474754447209398 0 0.05671130871665421 -0.27225575952569853 0 0.064103086367162429 -0.29277831065857762 0 0.076128962464899586 -0.27790701540708662 0 0.05671130871665421 -0.27225575952569853 0 0.063623970041427988 -0.25366525695557901 0 0.074905152453190835 -0.26474754447209398 0 0.05671130871665421 -0.27225575952569853 0 0.063623970041427988 -0.25366525695557901 0 0.074905152453190835 -0.26474754447209398 0 0.080133016059754175 -0.24824870288783779 0 0.074905152453190835 -0.26474754447209398 0 0.087680029315324592 -0.2631013876153091 0 0.080133016059754175 -0.24824870288783779 0 0.087680029315324592 -0.2631013876153091 0 0.096365910108183378 -0.25450443358088831 0 0.080133016059754175 -0.24824870288783779 0 0.076128962464899586 -0.27790701540708662 0 0.083476617699893702 -0.27161110703682229 0 0.087042658390112854 -0.27988023626490383 0 0.074905152453190835 -0.26474754447209398 0 0.087680029315324592 -0.2631013876153091 0 0.083476617699893702 -0.27161110703682229 0 0.076128962464899586 -0.27790701540708662 0 0.074905152453190835 -0.26474754447209398 0 0.083476617699893702 -0.27161110703682229 0 0.087680029315324592 -0.2631013876153091 0 0.083476617699893702 -0.27161110703682229 0 0.092108606432861839 -0.27454828702873202 0 0.087680029315324592 -0.2631013876153091 0 0.092108606432861839 -0.27454828702873202 0 0.099146185128536221 -0.26519239467676642 0 0.092108606432861839 -0.27454828702873202 0 0.087042658390112854 -0.27988023626490383 0 0.097651043351265523 -0.28241273404955269 0 0.083476617699893702 -0.27161110703682229 0 0.092108606432861839 -0.27454828702873202 0 0.087042658390112854 -0.27988023626490383 0 0.092108606432861839 -0.27454828702873202 0 0.099146185128536221 -0.26519239467676642 0 0.1099803559453548 -0.27166115436500932 0 0.092108606432861839 -0.27454828702873202 0 0.1099803559453548 -0.27166115436500932 0 0.092108606432861839 -0.27454828702873202 0 0.1099803559453548 -0.27166115436500932 0 0.097651043351265523 -0.28241273404955269 0 0.1099803559453548 -0.27166115436500932 0 0.1048898691922443 -0.28583635298273091 0 0.097651043351265523 -0.28241273404955269 0 0.096365910108183378 -0.25450443358088831 0 0.099146185128536221 -0.26519239467676642 0 0.10806000249799801 -0.25888881319301349 0 0.087680029315324592 -0.2631013876153091 0 0.096365910108183378 -0.25450443358088831 0 0.099146185128536221 -0.26519239467676642 0 0.099146185128536221 -0.26519239467676642 0 0.10806000249799801 -0.25888881319301349 0 0.1099803559453548 -0.27166115436500932 0 0.096365910108183378 -0.25450443358088831 0 0.10806000249799801 -0.25888881319301349 0 0.1057763399414953 -0.24565674719428141 0 0.10806000249799801 -0.25888881319301349 0 0.1186963690697211 -0.25371707134177057 0 0.1057763399414953 -0.24565674719428141 0 0.10806000249799801 -0.25888881319301349 0 0.11636177482386199 -0.26399693598853358 0 0.1186963690697211 -0.25371707134177057 0 0.10806000249799801 -0.25888881319301349 0 0.11636177482386199 -0.26399693598853358 0 0.1099803559453548 -0.27166115436500932 0 0.12785210545784781 -0.26877402170128672 0 0.11636177482386199 -0.26399693598853358 0 0.1186963690697211 -0.25371707134177057 0 0.12785210545784781 -0.26877402170128672 0 0.1099803559453548 -0.27166115436500932 0 0.12785210545784781 -0.26877402170128672 0 0.11636177482386199 -0.26399693598853358 0 0.1099803559453548 -0.27166115436500932 0 0.12785210545784781 -0.26877402170128672 0 0.1099803559453548 -0.27166115436500932 0 0.12004369091936901 -0.27110078734583881 0 0.1099803559453548 -0.27166115436500932 0 0.1159472573537022 -0.28198517499254738 0 0.1048898691922443 -0.28583635298273091 0 0.1099803559453548 -0.27166115436500932 0 0.12004369091936901 -0.27110078734583881 0 0.1159472573537022 -0.28198517499254738 0 0.12650217539185429 -0.27412696483264049 0 0.12004369091936901 -0.27110078734583881 0 0.12650217539185429 -0.27412696483264049 0 0.12785210545784781 -0.26877402170128672 0 0.12004369091936901 -0.27110078734583881 0 0.12650217539185429 -0.27412696483264049 0 0.12004369091936901 -0.27110078734583881 0 0.1159472573537022 -0.28198517499254738 0 0.1159472573537022 -0.28198517499254738 0 0.1048898691922443 -0.28583635298273091 0 0.1207539742543816 -0.29692058545905992 0 0.12650217539185429 -0.27412696483264049 0 0.1159472573537022 -0.28198517499254738 0 0.1207539742543816 -0.29692058545905992 0 0.12650217539185429 -0.27412696483264049 0 0.1207539742543816 -0.29692058545905992 0 0.090914310205029769 -0.2862152362726908 0 0.097651043351265523 -0.28241273404955269 0 0.099397183171819045 -0.30009535847366398 0 0.1048898691922443 -0.28583635298273091 0 0.099397183171819045 -0.30009535847366398 0 0.1207539742543816 -0.29692058545905992 0 0.1048898691922443 -0.28583635298273091 0 0.097651043351265523 -0.28241273404955269 0 0.099397183171819045 -0.30009535847366398 0 0.090914310205029769 -0.2862152362726908 0 0.099397183171819045 -0.30009535847366398 0 0.096203345752803759 -0.3124155707789939 0 0.099397183171819045 -0.30009535847366398 0 0.1117517079535232 -0.3203104806824254 0 0.099397183171819045 -0.30009535847366398 0 0.1117271596241585 -0.30926015767515741 0 0.1117517079535232 -0.3203104806824254 0 0.099397183171819045 -0.30009535847366398 0 0.1117517079535232 -0.3203104806824254 0 0.1207539742543816 -0.29692058545905992 0 0.1236145078930512 -0.31337502551160601 0 0.1167956947481566 -0.31938622101276309 0 0.1207539742543816 -0.29692058545905992 0 0.1167956947481566 -0.31938622101276309 0 0.11500577311691 -0.31971420608547929 0 0.1117271596241585 -0.30926015767515741 0 0.1207539742543816 -0.29692058545905992 0 0.11500577311691 -0.31971420608547929 0 0.1290175252325976 -0.3065518775994564 0 0.1207539742543816 -0.29692058545905992 0 0.1236145078930512 -0.31337502551160601 0 0.1207539742543816 -0.29692058545905992 0 0.11500577311691 -0.31971420608547929 0 0.099397183171819045 -0.30009535847366398 0 0.1117271596241585 -0.30926015767515741 0 0.1207539742543816 -0.29692058545905992 0 0.12527412738309249 -0.32281620479276019 0 0.1236145078930512 -0.31337502551160601 0 0.12067406767794191 -0.31994451993050371 0 0.12990236287631229 -0.32959637168269201 0 0.12527412738309249 -0.32281620479276019 0 0.11394879906497141 -0.32390547653264368 0 0.1236145078930512 -0.31337502551160601 0 0.12067406767794191 -0.31994451993050371 0 0.1167956947481566 -0.31938622101276309 0 0.1117271596241585 -0.30926015767515741 0 0.11500577311691 -0.31971420608547929 0 0.1117517079535232 -0.3203104806824254 0 0.1167956947481566 -0.31938622101276309 0 0.11500577311691 -0.31971420608547929 0 0.11500577311691 -0.31971420608547929 0 0.1117517079535232 -0.3203104806824254 0 0.1117517079535232 -0.3203104806824254 0 0.11394879906497141 -0.32390547653264368 0 0.1055398310753588 -0.33482645530913968 0 0.1117517079535232 -0.3203104806824254 0 0.11394879906497141 -0.32390547653264368 0 0.11500577311691 -0.31971420608547929 0 0.1117517079535232 -0.3203104806824254 0 0.11394879906497141 -0.32390547653264368 0 0.1167956947481566 -0.31938622101276309 0 0.11500577311691 -0.31971420608547929 0 0.11394879906497141 -0.32390547653264368 0 0.12067406767794191 -0.31994451993050371 0 0.1167956947481566 -0.31938622101276309 0 0.11394879906497141 -0.32390547653264368 0 0.11500577311691 -0.31971420608547929 0 0.11394879906497141 -0.32390547653264368 0 0.12527412738309249 -0.32281620479276019 0 0.12067406767794191 -0.31994451993050371 0 0.11394879906497141 -0.32390547653264368 0 0.12830234735129811 -0.34739150597240748 0 0.11394879906497141 -0.32390547653264368 0 0.12830234735129811 -0.34739150597240748 0 0.11394879906497141 -0.32390547653264368 0 0.107764334825346 -0.34842903238678608 0 0.11394879906497141 -0.32390547653264368 0 0.107764334825346 -0.34842903238678608 0 0.12830234735129811 -0.34739150597240748 0 0.12990236287631229 -0.32959637168269201 0 0.11394879906497141 -0.32390547653264368 0 0.11394879906497141 -0.32390547653264368 0 0.1055398310753588 -0.33482645530913968 0 0.107764334825346 -0.34842903238678608 0 0.1046974868231242 -0.34858396148750359 0 0.091750189027708456 -0.32397555714432402 0 0.1055398310753588 -0.33482645530913968 0 0.1046974868231242 -0.34858396148750359 0 0.091750189027708456 -0.32397555714432402 0 0.1117517079535232 -0.3203104806824254 0 0.091750189027708456 -0.32397555714432402 0 0.1117517079535232 -0.3203104806824254 0 0.1055398310753588 -0.33482645530913968 0 0.091750189027708456 -0.32397555714432402 0 0.096203345752803759 -0.3124155707789939 0 0.1117517079535232 -0.3203104806824254 0 0.091750189027708456 -0.32397555714432402 0 0.11593812143109949 -0.36994858025798277 0 0.11920668987201739 -0.35707303978898131 0 0.1067442266220814 -0.35247411689705499 0 0.11593812143109949 -0.36994858025798277 0 0.1067442266220814 -0.35247411689705499 0 0.11593812143109949 -0.36994858025798277 0 0.1067442266220814 -0.35247411689705499 0 0.1088257273617827 -0.36978867917070629 0 0.11201468340206321 -0.37991721123820971 0 0.11593812143109949 -0.36994858025798277 0 0.1088257273617827 -0.36978867917070629 0 0.12830234735129811 -0.34739150597240748 0 0.11920668987201739 -0.35707303978898131 0 0.107764334825346 -0.34842903238678608 0 0.12830234735129811 -0.34739150597240748 0 0.107764334825346 -0.34842903238678608 0 0.11920668987201739 -0.35707303978898131 0 0.107764334825346 -0.34842903238678608 0 0.1067442266220814 -0.35247411689705499 0 0.1055398310753588 -0.33482645530913968 0 0.107764334825346 -0.34842903238678608 0 0.1046974868231242 -0.34858396148750359 0 0.107764334825346 -0.34842903238678608 0 0.1067442266220814 -0.35247411689705499 0 0.107764334825346 -0.34842903238678608 0 0.1046974868231242 -0.34858396148750359 0 0.1067442266220814 -0.35247411689705499 0 0.1046974868231242 -0.34858396148750359 0 0.1067442266220814 -0.35247411689705499 0 0.107764334825346 -0.34842903238678608 0 0.1046974868231242 -0.34858396148750359 0 0.1046974868231242 -0.34858396148750359 0 0.1067442266220814 -0.35247411689705499 0 0.092967257577378143 -0.36092636457068011 0 0.1006058779918885 -0.37681480828957697 0 0.1067442266220814 -0.35247411689705499 0 0.1006058779918885 -0.37681480828957697 0 0.1067442266220814 -0.35247411689705499 0 0.1088257273617827 -0.36978867917070629 0 0.1006058779918885 -0.37681480828957697 0 0.1067442266220814 -0.35247411689705499 0 0.092967257577378143 -0.36092636457068011 0 0.1006058779918885 -0.37681480828957697 0 0.086624956680442455 -0.37352535187963293 0 0.092967257577378143 -0.36092636457068011 0 0.086624956680442455 -0.37352535187963293 0 0.092967257577378143 -0.36092636457068011 0 0.075635006999579979 -0.36412720929012232 0 0.075918590317151605 -0.37741555149214878 0 0.086624956680442455 -0.37352535187963293 0 0.075635006999579979 -0.36412720929012232 0 0.1046974868231242 -0.34858396148750359 0 0.092967257577378143 -0.36092636457068011 0 0.082058111334361361 -0.34972764323591732 0 0.092967257577378143 -0.36092636457068011 0 0.082058111334361361 -0.34972764323591732 0 0.075635006999579979 -0.36412720929012232 0 0.1046974868231242 -0.34858396148750359 0 0.082058111334361361 -0.34972764323591732 0 0.082058111334361361 -0.34972764323591732 0 0.075635006999579979 -0.36412720929012232 0 0.059418735845598397 -0.35087132498433049 0 0.082058111334361361 -0.34972764323591732 0 0.059418735845598397 -0.35087132498433049 0 0.075918590317151605 -0.37741555149214878 0 0.075635006999579979 -0.36412720929012232 0 0.060288923606476807 -0.36883931516253288 0 0.075635006999579979 -0.36412720929012232 0 0.060288923606476807 -0.36883931516253288 0 0.059418735845598397 -0.35087132498433049 0 0.081914302858164145 -0.30528088681556143 0 0.091750189027708456 -0.32397555714432402 0 0.081914302858164145 -0.30528088681556143 0 0.096203345752803759 -0.3124155707789939 0 0.091750189027708456 -0.32397555714432402 0 0.091750189027708456 -0.32397555714432402 0 0.069809419010295345 -0.3279959817953213 0 0.081914302858164145 -0.30528088681556143 0 0.091750189027708456 -0.32397555714432402 0 0.069809419010295345 -0.3279959817953213 0 0.1046974868231242 -0.34858396148750359 0 0.082058111334361361 -0.34972764323591732 0 0.091750189027708456 -0.32397555714432402 0 0.082058111334361361 -0.34972764323591732 0 0.091750189027708456 -0.32397555714432402 0 0.069809419010295345 -0.3279959817953213 0 0.082058111334361361 -0.34972764323591732 0 0.069809419010295345 -0.3279959817953213 0 0.059418735845598397 -0.35087132498433049 0 0.081914302858164145 -0.30528088681556143 0 0.069809419010295345 -0.3279959817953213 0 0.056011116543230322 -0.31325781171026729 0 0.069809419010295345 -0.3279959817953213 0 0.056011116543230322 -0.31325781171026729 0 0.047868648992882193 -0.33201640644631852 0 0.056011116543230322 -0.31325781171026729 0 0.047868648992882193 -0.33201640644631852 0 0.037190371995734432 -0.32024539903123239 0 0.069809419010295345 -0.3279959817953213 0 0.047868648992882193 -0.33201640644631852 0 0.059418735845598397 -0.35087132498433049 0 0.069809419010295345 -0.3279959817953213 0 0.047868648992882193 -0.33201640644631852 0 0.047868648992882193 -0.33201640644631852 0 0.037141110654292639 -0.35916807438573217 0 0.025927878975469051 -0.33603683109731558 0 0.047868648992882193 -0.33201640644631852 0 0.037190371995734432 -0.32024539903123239 0 0.025927878975469051 -0.33603683109731558 0 0.047868648992882193 -0.33201640644631852 0 0.025927878975469051 -0.33603683109731558 0 0.048354342333116161 -0.38229931767414871 0 0.060288923606476807 -0.36883931516253288 0 0.037141110654292639 -0.35916807438573217 0 0.060288923606476807 -0.36883931516253288 0 0.059418735845598397 -0.35087132498433049 0 0.037141110654292639 -0.35916807438573217 0 0.047868648992882193 -0.33201640644631852 0 0.059418735845598397 -0.35087132498433049 0 0.037141110654292639 -0.35916807438573217 0 0.037141110654292639 -0.35916807438573217 0 0.025927878975469051 -0.33603683109731558 0 0.048354342333116161 -0.38229931767414871 0 0.037141110654292639 -0.35916807438573217 0 0.029121370701509209 -0.38638081345230851 0 0.037141110654292639 -0.35916807438573217 0 0.01409360781467164 -0.3737027951455566 0 0.037141110654292639 -0.35916807438573217 0 0.013869297835352529 -0.3542850198345589 0 0.01409360781467164 -0.3737027951455566 0 0.037141110654292639 -0.35916807438573217 0 0.013869297835352529 -0.3542850198345589 0 0.025927878975469051 -0.33603683109731558 0 -0.0033958022082815 -0.35280863252157352 0 0.013869297835352529 -0.3542850198345589 0 0.0053144986862649207 -0.33981402497835661 0 -0.0033958022082815 -0.35280863252157352 0 0.013869297835352529 -0.3542850198345589 0 0.0020059410162170731 -0.36564019270545328 0 0.013869297835352529 -0.3542850198345589 0 0.0020059410162170731 -0.36564019270545328 0 0.01409360781467164 -0.3737027951455566 0 -0.00059381270617452487 -0.37697237717465393 0 0.0020059410162170731 -0.36564019270545328 0 0.01409360781467164 -0.3737027951455566 0 0.037190371995734432 -0.32024539903123239 0 0.01852830588562197 -0.32077260306081512 0 0.025927878975469051 -0.33603683109731558 0 0.037190371995734432 -0.32024539903123239 0 0.01852830588562197 -0.32077260306081512 0 0.037615909581468612 -0.2991433428414455 0 0.01852830588562197 -0.32077260306081512 0 0.025927878975469051 -0.33603683109731558 0 0.010069434572200459 -0.32793689244204088 0 0.01852830588562197 -0.32077260306081512 0 0.025927878975469051 -0.33603683109731558 0 0.025927878975469051 -0.33603683109731558 0 0.0053144986862649207 -0.33981402497835661 0 0.010069434572200459 -0.32793689244204088 0 -0.001353635059988922 -0.32284096746952262 0 0.0053144986862649207 -0.33981402497835661 0 0.010069434572200459 -0.32793689244204088 0 0.025927878975469051 -0.33603683109731558 0 0.0053144986862649207 -0.33981402497835661 0 0.013869297835352529 -0.3542850198345589 0 0.025927878975469051 -0.33603683109731558 0 0.0053144986862649207 -0.33981402497835661 0 -0.001353635059988922 -0.32284096746952262 0 0.010069434572200459 -0.32793689244204088 0 0.0088185320261091188 -0.31565897352895939 0 0.01852830588562197 -0.32077260306081512 0 0.010069434572200459 -0.32793689244204088 0 0.0088185320261091188 -0.31565897352895939 0 0.01852830588562197 -0.32077260306081512 0 0.011128732795775099 -0.30550837502431472 0 0.01852830588562197 -0.32077260306081512 0 0.0088185320261091188 -0.31565897352895939 0 0.011128732795775099 -0.30550837502431472 0 -0.0037362541763149119 -0.31130568738419218 0 -0.001353635059988922 -0.32284096746952262 0 0.0088185320261091188 -0.31565897352895939 0 -0.0037362541763149119 -0.31130568738419218 0 0.0088185320261091188 -0.31565897352895939 0 0.0049576531561908027 -0.30699132357812869 0 -0.0029118423047481429 -0.29908933609197491 0 0.0049576531561908027 -0.30699132357812869 0 0.0073295798629148604 -0.29767128280175342 0 0.0049576531561908027 -0.30699132357812869 0 0.0073295798629148604 -0.29767128280175342 0 0.011128732795775099 -0.30550837502431472 0 0.01296124985726289 -0.2969665940879132 0 0.011128732795775099 -0.30550837502431472 0 0.022633900795588559 -0.2950916695438533 0 0.0073295798629148604 -0.29767128280175342 0 0.01296124985726289 -0.2969665940879132 0 0.011128732795775099 -0.30550837502431472 0 0.0073295798629148604 -0.29767128280175342 0 0.011128732795775099 -0.30550837502431472 0 0.0088185320261091188 -0.31565897352895939 0 0.0049576531561908027 -0.30699132357812869 0 0.011128732795775099 -0.30550837502431472 0 0.0049576531561908027 -0.30699132357812869 0 0.011128732795775099 -0.30550837502431472 0 -0.0029118423047481429 -0.29908933609197491 0 -0.00019008444443280409 -0.28498279421653411 0 0.0073295798629148604 -0.29767128280175342 0 -0.00019008444443280409 -0.28498279421653411 0 0.0073295798629148604 -0.29767128280175342 0 0.01075278597477305 -0.28959504898173172 0 0.01296124985726289 -0.2969665940879132 0 0.01075278597477305 -0.28959504898173172 0 0.022633900795588559 -0.2950916695438533 0 0.0073295798629148604 -0.29767128280175342 0 0.01296124985726289 -0.2969665940879132 0 0.01075278597477305 -0.28959504898173172 0 -0.00019008444443280409 -0.28498279421653411 0 0.01075278597477305 -0.28959504898173172 0 0.015253973745127899 -0.27980625425665689 0 0.022633900795588559 -0.2950916695438533 0 0.032966277085234093 -0.27154613478381529 0 0.015253973745127899 -0.27980625425665689 0 0.01075278597477305 -0.28959504898173172 0 0.022633900795588559 -0.2950916695438533 0 0.015253973745127899 -0.27980625425665689 0 0.011128732795775099 -0.30550837502431472 0 0.022633900795588559 -0.2950916695438533 0 0.037615909581468612 -0.2991433428414455 0 0.01852830588562197 -0.32077260306081512 0 0.011128732795775099 -0.30550837502431472 0 0.037615909581468612 -0.2991433428414455 0 0.011128732795775099 -0.30550837502431472 0 0.037615909581468612 -0.2991433428414455 0 0.056011116543230322 -0.31325781171026729 0 0.037190371995734432 -0.32024539903123239 0 0.037615909581468612 -0.2991433428414455 0 0.022633900795588559 -0.2950916695438533 0 0.037615909581468612 -0.2991433428414455 0 0.044331833828075401 -0.28382153687472 0 0.022633900795588559 -0.2950916695438533 0 0.044331833828075401 -0.28382153687472 0 0.032966277085234093 -0.27154613478381529 0 0.064103086367162429 -0.29277831065857762 0 0.037615909581468612 -0.2991433428414455 0 0.064103086367162429 -0.29277831065857762 0 0.037615909581468612 -0.2991433428414455 0 0.044331833828075401 -0.28382153687472 0 0.064103086367162429 -0.29277831065857762 0 0.044331833828075401 -0.28382153687472 0 0.05671130871665421 -0.27225575952569853 0 0.064103086367162429 -0.29277831065857762 0 0.056011116543230322 -0.31325781171026729 0 0.037615909581468612 -0.2991433428414455 0 0.063623970041427988 -0.25366525695557901 0 0.05671130871665421 -0.27225575952569853 0 0.042327703713164112 -0.25016614243503871 0 0.044331833828075401 -0.28382153687472 0 0.05671130871665421 -0.27225575952569853 0 0.032966277085234093 -0.27154613478381529 0 0.032966277085234093 -0.27154613478381529 0 0.042327703713164112 -0.25016614243503871 0 0.02111703671114332 -0.25286281444346898 0 0.05671130871665421 -0.27225575952569853 0 0.032966277085234093 -0.27154613478381529 0 0.042327703713164112 -0.25016614243503871 0 0.032966277085234093 -0.27154613478381529 0 0.02111703671114332 -0.25286281444346898 0 0.032966277085234093 -0.27154613478381529 0 0.02111703671114332 -0.25286281444346898 0 0.012267058595817811 -0.26504664291872121 0 0.032966277085234093 -0.27154613478381529 0 0.015253973745127899 -0.27980625425665689 0 0.012267058595817811 -0.26504664291872121 0 -0.0018361495761199029 -0.27032559245580662 0 0.015253973745127899 -0.27980625425665689 0 0.012267058595817811 -0.26504664291872121 0 -0.00019008444443280409 -0.28498279421653411 0 -0.0018361495761199029 -0.27032559245580662 0 0.015253973745127899 -0.27980625425665689 0 -0.0018361495761199029 -0.27032559245580662 0 0.012267058595817811 -0.26504664291872121 0 0.0039536351843116394 -0.25386432206923099 0 0.02111703671114332 -0.25286281444346898 0 0.012267058595817811 -0.26504664291872121 0 0.0039536351843116394 -0.25386432206923099 0 0.02111703671114332 -0.25286281444346898 0 0.0039536351843116394 -0.25386432206923099 0 0.0092677963370525664 -0.2341794941031228 0 -0.0082108068989264153 -0.2437558387173519 0 0.0039536351843116394 -0.25386432206923099 0 0.0092677963370525664 -0.2341794941031228 0 0.02111703671114332 -0.25286281444346898 0 0.0092677963370525664 -0.2341794941031228 0 -0.0025814440370384578 -0.21549617376277669 0 0.012837185104591401 -0.21967242357848499 0 0.0092677963370525664 -0.2341794941031228 0 -0.0025814440370384578 -0.21549617376277669 0 0.0092677963370525664 -0.2341794941031228 0 0.012837185104591401 -0.21967242357848499 0 0.0092677963370525664 -0.2341794941031228 0 0.02440526282956024 -0.22352668791833771 0 0.0092677963370525664 -0.2341794941031228 0 0.02440526282956024 -0.22352668791833771 0 0.02785409436761219 -0.23790411876417211 0 0.042327703713164112 -0.25016614243503871 0 0.02111703671114332 -0.25286281444346898 0 0.02785409436761219 -0.23790411876417211 0 0.02111703671114332 -0.25286281444346898 0 0.0092677963370525664 -0.2341794941031228 0 0.02785409436761219 -0.23790411876417211 0 -0.0022379012392575791 -0.18928406987637861 0 0.01514913898995089 -0.19226120354254311 0 0.0040784261185659388 -0.2007201160184032 0 0.01514913898995089 -0.19226120354254311 0 0.0040784261185659388 -0.2007201160184032 0 0.020257125288791231 -0.20548733852970269 0 -0.0025814440370384578 -0.21549617376277669 0 0.0040784261185659388 -0.2007201160184032 0 0.020257125288791231 -0.20548733852970269 0 -0.0025814440370384578 -0.21549617376277669 0 0.020257125288791231 -0.20548733852970269 0 -0.0025814440370384578 -0.21549617376277669 0 0.012837185104591401 -0.21967242357848499 0 0.020257125288791231 -0.20548733852970269 0 0.02440526282956024 -0.22352668791833771 0 0.020257125288791231 -0.20548733852970269 0 0.0362361327474362 -0.2131309501764716 0 0.012837185104591401 -0.21967242357848499 0 0.02440526282956024 -0.22352668791833771 0 0.020257125288791231 -0.20548733852970269 0 0.020257125288791231 -0.20548733852970269 0 0.043095694614620088 -0.19547850329662689 0 0.030002833483978589 -0.186222255853772 0 0.01514913898995089 -0.19226120354254311 0 0.020257125288791231 -0.20548733852970269 0 0.030002833483978589 -0.186222255853772 0 0.020257125288791231 -0.20548733852970269 0 0.043095694614620088 -0.19547850329662689 0 0.043095694614620088 -0.19547850329662689 0 0.0362361327474362 -0.2131309501764716 0 0.051269908757068709 -0.2123767662167981 0 0.020257125288791231 -0.20548733852970269 0 0.043095694614620088 -0.19547850329662689 0 0.0362361327474362 -0.2131309501764716 0 0.0362361327474362 -0.2131309501764716 0 0.051269908757068709 -0.2123767662167981 0 0.042152672247140727 -0.2287854549208925 0 0.043095694614620088 -0.19547850329662689 0 0.051269908757068709 -0.2123767662167981 0 0.062710843684331136 -0.2019531724908539 0 0.051269908757068709 -0.2123767662167981 0 0.070278862435392331 -0.21500159615670561 0 0.062710843684331136 -0.2019531724908539 0 0.043095694614620088 -0.19547850329662689 0 0.065934263940449059 -0.18546966806355089 0 0.043095694614620088 -0.19547850329662689 0 0.062710843684331136 -0.2019531724908539 0 0.065934263940449059 -0.18546966806355089 0 0.042327703713164112 -0.25016614243503871 0 0.02785409436761219 -0.23790411876417211 0 0.042152672247140727 -0.2287854549208925 0 0.02440526282956024 -0.22352668791833771 0 0.0362361327474362 -0.2131309501764716 0 0.042152672247140727 -0.2287854549208925 0 0.02440526282956024 -0.22352668791833771 0 0.02785409436761219 -0.23790411876417211 0 0.042152672247140727 -0.2287854549208925 0 0.051269908757068709 -0.2123767662167981 0 0.042152672247140727 -0.2287854549208925 0 0.061100545674221379 -0.23411815950340131 0 0.051269908757068709 -0.2123767662167981 0 0.061100545674221379 -0.23411815950340131 0 0.070278862435392331 -0.21500159615670561 0 0.042327703713164112 -0.25016614243503871 0 0.042152672247140727 -0.2287854549208925 0 0.061100545674221379 -0.23411815950340131 0 0.063623970041427988 -0.25366525695557901 0 0.042327703713164112 -0.25016614243503871 0 0.061100545674221379 -0.23411815950340131 0 0.063623970041427988 -0.25366525695557901 0 0.061100545674221379 -0.23411815950340131 0 0.080133016059754175 -0.24824870288783779 0 0.061100545674221379 -0.23411815950340131 0 0.080133016059754175 -0.24824870288783779 0 0.081899696363786079 -0.2311035271598402 0 0.080133016059754175 -0.24824870288783779 0 0.092260177159900925 -0.2428795419465711 0 0.081899696363786079 -0.2311035271598402 0 0.096365910108183378 -0.25450443358088831 0 0.080133016059754175 -0.24824870288783779 0 0.092260177159900925 -0.2428795419465711 0 0.092260177159900925 -0.2428795419465711 0 0.081899696363786079 -0.2311035271598402 0 0.097354230841711104 -0.23165439176256639 0 0.081899696363786079 -0.2311035271598402 0 0.070278862435392331 -0.21500159615670561 0 0.090385499769449221 -0.2131038171282385 0 0.081899696363786079 -0.2311035271598402 0 0.090385499769449221 -0.2131038171282385 0 0.097354230841711104 -0.23165439176256639 0 0.061100545674221379 -0.23411815950340131 0 0.081899696363786079 -0.2311035271598402 0 0.070278862435392331 -0.21500159615670561 0 0.070278862435392331 -0.21500159615670561 0 0.062710843684331136 -0.2019531724908539 0 0.077964962244883043 -0.1993343626248989 0 0.062710843684331136 -0.2019531724908539 0 0.077964962244883043 -0.1993343626248989 0 0.065934263940449059 -0.18546966806355089 0 0.077964962244883043 -0.1993343626248989 0 0.090385499769449221 -0.2131038171282385 0 0.094586571507080788 -0.19247599091504949 0 0.077964962244883043 -0.1993343626248989 0 0.094586571507080788 -0.19247599091504949 0 0.088772833266278064 -0.17546083283047489 0 0.070278862435392331 -0.21500159615670561 0 0.077964962244883043 -0.1993343626248989 0 0.090385499769449221 -0.2131038171282385 0 0.090385499769449221 -0.2131038171282385 0 0.10904686841244871 -0.20213639106629619 0 0.1075634669631548 -0.21927497947472729 0 0.090385499769449221 -0.2131038171282385 0 0.094586571507080788 -0.19247599091504949 0 0.10904686841244871 -0.20213639106629619 0 0.094586571507080788 -0.19247599091504949 0 0.10904686841244871 -0.20213639106629619 0 0.10912620899183589 -0.18314534399153121 0 0.10904686841244871 -0.20213639106629619 0 0.10912620899183589 -0.18314534399153121 0 0.12927803376443761 -0.1913173179555738 0 0.10904686841244871 -0.20213639106629619 0 0.1238746239930002 -0.21544896047537199 0 0.12927803376443761 -0.1913173179555738 0 0.10904686841244871 -0.20213639106629619 0 0.1238746239930002 -0.21544896047537199 0 0.1075634669631548 -0.21927497947472729 0 0.1238746239930002 -0.21544896047537199 0 0.1171561117991648 -0.2340313369411636 0 0.1075634669631548 -0.21927497947472729 0 0.1186963690697211 -0.25371707134177057 0 0.1171561117991648 -0.2340313369411636 0 0.13291081641847749 -0.24871446989757229 0 0.1186963690697211 -0.25371707134177057 0 0.1171561117991648 -0.2340313369411636 0 0.1057763399414953 -0.24565674719428141 0 0.1171561117991648 -0.2340313369411636 0 0.1057763399414953 -0.24565674719428141 0 0.097354230841711104 -0.23165439176256639 0 0.096365910108183378 -0.25450443358088831 0 0.092260177159900925 -0.2428795419465711 0 0.1057763399414953 -0.24565674719428141 0 0.092260177159900925 -0.2428795419465711 0 0.1057763399414953 -0.24565674719428141 0 0.097354230841711104 -0.23165439176256639 0 0.1171561117991648 -0.2340313369411636 0 0.1075634669631548 -0.21927497947472729 0 0.097354230841711104 -0.23165439176256639 0 0.090385499769449221 -0.2131038171282385 0 0.1075634669631548 -0.21927497947472729 0 0.097354230841711104 -0.23165439176256639 0 0.1093087070848575 -0.14159139044462279 0 0.095112289287681895 -0.15547562336173831 0 0.091363747067397874 -0.14169751089317509 0 0.1093087070848575 -0.14159139044462279 0 0.095112289287681895 -0.15547562336173831 0 0.109266792591309 -0.16430283478147489 0 0.1093087070848575 -0.14159139044462279 0 0.11654158078493 -0.12502076340881341 0 0.09039656999676221 -0.12599580185753301 0 0.1093087070848575 -0.14159139044462279 0 0.091363747067397874 -0.14169751089317509 0 0.09039656999676221 -0.12599580185753301 0 0.1093087070848575 -0.14159139044462279 0 0.09039656999676221 -0.12599580185753301 0 0.11654158078493 -0.12502076340881341 0 0.09039656999676221 -0.12599580185753301 0 0.1093087070848575 -0.14159139044462279 0 0.11654158078493 -0.12502076340881341 0 0.1303612037570929 -0.13887815296178391 0 0.1093087070848575 -0.14159139044462279 0 0.12822084417295199 -0.15718697903171361 0 0.1093087070848575 -0.14159139044462279 0 0.109266792591309 -0.16430283478147489 0 0.12822084417295199 -0.15718697903171361 0 0.1093087070848575 -0.14159139044462279 0 0.12822084417295199 -0.15718697903171361 0 0.1303612037570929 -0.13887815296178391 0 0.1246049721563162 -0.1737470086758196 0 0.109266792591309 -0.16430283478147489 0 0.12822084417295199 -0.15718697903171361 0 0.1246049721563162 -0.1737470086758196 0 0.10912620899183589 -0.18314534399153121 0 0.109266792591309 -0.16430283478147489 0 0.1246049721563162 -0.1737470086758196 0 0.10912620899183589 -0.18314534399153121 0 0.12927803376443761 -0.1913173179555738 0 0.10912620899183589 -0.18314534399153121 0 0.109266792591309 -0.16430283478147489 0 0.088772833266278064 -0.17546083283047489 0 0.094586571507080788 -0.19247599091504949 0 0.10912620899183589 -0.18314534399153121 0 0.088772833266278064 -0.17546083283047489 0 0.095112289287681895 -0.15547562336173831 0 0.109266792591309 -0.16430283478147489 0 0.088772833266278064 -0.17546083283047489 0 0.095112289287681895 -0.15547562336173831 0 0.088772833266278064 -0.17546083283047489 0 0.073977175486448596 -0.16328832038200961 0 0.088772833266278064 -0.17546083283047489 0 0.065934263940449059 -0.18546966806355089 0 0.088772833266278064 -0.17546083283047489 0 0.065934263940449059 -0.18546966806355089 0 0.073977175486448596 -0.16328832038200961 0 0.077964962244883043 -0.1993343626248989 0 0.088772833266278064 -0.17546083283047489 0 0.065934263940449059 -0.18546966806355089 0 0.065934263940449059 -0.18546966806355089 0 0.073977175486448596 -0.16328832038200961 0 0.048977678915575869 -0.17083763845066541 0 0.06408139981404111 -0.1431386765356428 0 0.080984587694665655 -0.1493474830499851 0 0.081016581273022081 -0.13607725575199611 0 0.073977175486448596 -0.16328832038200961 0 0.06408139981404111 -0.1431386765356428 0 0.080984587694665655 -0.1493474830499851 0 0.095112289287681895 -0.15547562336173831 0 0.073977175486448596 -0.16328832038200961 0 0.080984587694665655 -0.1493474830499851 0 0.080984587694665655 -0.1493474830499851 0 0.091363747067397874 -0.14169751089317509 0 0.081016581273022081 -0.13607725575199611 0 0.095112289287681895 -0.15547562336173831 0 0.080984587694665655 -0.1493474830499851 0 0.091363747067397874 -0.14169751089317509 0 0.09039656999676221 -0.12599580185753301 0 0.081016581273022081 -0.13607725575199611 0 0.070911747105279907 -0.12672245871913071 0 0.09039656999676221 -0.12599580185753301 0 0.070911747105279907 -0.12672245871913071 0 0.091363747067397874 -0.14169751089317509 0 0.09039656999676221 -0.12599580185753301 0 0.081016581273022081 -0.13607725575199611 0 0.06408139981404111 -0.1431386765356428 0 0.081016581273022081 -0.13607725575199611 0 0.070911747105279907 -0.12672245871913071 0 0.06408139981404111 -0.1431386765356428 0 0.070911747105279907 -0.12672245871913071 0 0.062028735583644107 -0.1256800684738611 0 0.06408139981404111 -0.1431386765356428 0 0.052255260395232199 -0.12662243180934979 0 0.039886553260138423 -0.14850202238708091 0 0.06408139981404111 -0.1431386765356428 0 0.062028735583644107 -0.1256800684738611 0 0.052255260395232199 -0.12662243180934979 0 0.06408139981404111 -0.1431386765356428 0 0.039886553260138423 -0.14850202238708091 0 0.048977678915575869 -0.17083763845066541 0 0.052255260395232199 -0.12662243180934979 0 0.039886553260138423 -0.14850202238708091 0 0.035242889079265149 -0.12600117074965059 0 0.039886553260138423 -0.14850202238708091 0 0.035242889079265149 -0.12600117074965059 0 0.020814274243862819 -0.13559338059070841 0 0.052255260395232199 -0.12662243180934979 0 0.039886553260138423 -0.14850202238708091 0 0.043095694614620088 -0.19547850329662689 0 0.065934263940449059 -0.18546966806355089 0 0.048977678915575869 -0.17083763845066541 0 0.073977175486448596 -0.16328832038200961 0 0.06408139981404111 -0.1431386765356428 0 0.048977678915575869 -0.17083763845066541 0 0.039886553260138423 -0.14850202238708091 0 0.048977678915575869 -0.17083763845066541 0 0.027517846125044661 -0.170381612964812 0 0.039886553260138423 -0.14850202238708091 0 0.027517846125044661 -0.170381612964812 0 0.048977678915575869 -0.17083763845066541 0 0.030002833483978589 -0.186222255853772 0 0.027517846125044661 -0.170381612964812 0 0.043095694614620088 -0.19547850329662689 0 0.048977678915575869 -0.17083763845066541 0 0.030002833483978589 -0.186222255853772 0 0.01514913898995089 -0.19226120354254311 0 0.027517846125044661 -0.170381612964812 0 0.01514913898995089 -0.19226120354254311 0 0.030002833483978589 -0.186222255853772 0 0.027517846125044661 -0.170381612964812 0 0.01514913898995089 -0.19226120354254311 0 0.027517846125044661 -0.170381612964812 0 0.0099739598612314292 -0.17423772217135619 0 0.039886553260138423 -0.14850202238708091 0 0.027517846125044661 -0.170381612964812 0 0.022352599091555059 -0.1529544861747292 0 0.027517846125044661 -0.170381612964812 0 0.0099739598612314292 -0.17423772217135619 0 0.022352599091555059 -0.1529544861747292 0 0.0099739598612314292 -0.17423772217135619 0 0.022352599091555059 -0.1529544861747292 0 0.0043086689965235398 -0.1542508539049337 0 -0.0022379012392575791 -0.18928406987637861 0 0.01514913898995089 -0.19226120354254311 0 0.0099739598612314292 -0.17423772217135619 0 0.020814274243862819 -0.13559338059070841 0 0.022352599091555059 -0.1529544861747292 0 0.0043086689965235398 -0.1542508539049337 0 0.039886553260138423 -0.14850202238708091 0 0.020814274243862819 -0.13559338059070841 0 0.022352599091555059 -0.1529544861747292 0 -0.00024223516699402629 -0.12553518175368369 0 0.020814274243862819 -0.13559338059070841 0 0.0043086689965235398 -0.1542508539049337 0 -0.00024223516699402629 -0.12553518175368369 0 0.02399143079916612 -0.1132056832418314 0 0.0062094743525467136 -0.10273533307031189 0 -0.00024223516699402629 -0.12553518175368369 0 0.020814274243862819 -0.13559338059070841 0 0.02399143079916612 -0.1132056832418314 0 0.035242889079265149 -0.12600117074965059 0 0.020814274243862819 -0.13559338059070841 0 0.02399143079916612 -0.1132056832418314 0 0.02399143079916612 -0.1132056832418314 0 0.02427152736085143 -0.093773935840223144 0 0.043868275059757753 -0.10841957590580251 0 0.02399143079916612 -0.1132056832418314 0 0.02427152736085143 -0.093773935840223144 0 0.0062094743525467136 -0.10273533307031189 0 -0.003636929791090468 -0.080036382643159237 0 0.02427152736085143 -0.093773935840223144 0 0.0062094743525467136 -0.10273533307031189 0 -0.003636929791090468 -0.080036382643159237 0 0.02427152736085143 -0.093773935840223144 0 0.02580653861706431 -0.072732675034112904 0 -0.003636929791090468 -0.080036382643159237 0 0.02580653861706431 -0.072732675034112904 0 0.006397824160430849 -0.056727591935359062 0 0.02580653861706431 -0.072732675034112904 0 0.006397824160430849 -0.056727591935359062 0 0.02427152736085143 -0.093773935840223144 0 0.02580653861706431 -0.072732675034112904 0 0.045215253073697767 -0.088737758132866745 0 0.02580653861706431 -0.072732675034112904 0 0.045215253073697767 -0.088737758132866745 0 0.02580653861706431 -0.072732675034112904 0 0.045215253073697767 -0.088737758132866745 0 0.044044005014827067 -0.065107285427759884 0 0.02580653861706431 -0.072732675034112904 0 0.044044005014827067 -0.065107285427759884 0 0.02463407463335408 -0.05468607775967143 0 0.045215253073697767 -0.088737758132866745 0 0.044044005014827067 -0.065107285427759884 0 0.059511149514120253 -0.073214468100264718 0 0.044044005014827067 -0.065107285427759884 0 0.059511149514120253 -0.073214468100264718 0 0.061447835509971203 -0.059169537746610018 0 0.045215253073697767 -0.088737758132866745 0 0.059511149514120253 -0.073214468100264718 0 0.06546501318077963 -0.08832988386361329 0 0.045215253073697767 -0.088737758132866745 0 0.064623967530330645 -0.10474284123162129 0 0.045215253073697767 -0.088737758132866745 0 0.043868275059757753 -0.10841957590580251 0 0.064623967530330645 -0.10474284123162129 0 0.045215253073697767 -0.088737758132866745 0 0.064623967530330645 -0.10474284123162129 0 0.06546501318077963 -0.08832988386361329 0 0.052255260395232199 -0.12662243180934979 0 0.065808330022417302 -0.1171313323909452 0 0.064623967530330645 -0.10474284123162129 0 0.052255260395232199 -0.12662243180934979 0 0.043868275059757753 -0.10841957590580251 0 0.064623967530330645 -0.10474284123162129 0 0.052255260395232199 -0.12662243180934979 0 0.064623967530330645 -0.10474284123162129 0 0.062028735583644107 -0.1256800684738611 0 0.052255260395232199 -0.12662243180934979 0 0.065808330022417302 -0.1171313323909452 0 0.035242889079265149 -0.12600117074965059 0 0.02399143079916612 -0.1132056832418314 0 0.043868275059757753 -0.10841957590580251 0 0.052255260395232199 -0.12662243180934979 0 0.035242889079265149 -0.12600117074965059 0 0.043868275059757753 -0.10841957590580251 0 0.02427152736085143 -0.093773935840223144 0 0.045215253073697767 -0.088737758132866745 0 0.043868275059757753 -0.10841957590580251 0 0.016300485327847111 -0.0093186551489206765 0 0.032396677983504082 -0.01977135932714839 0 0.032442908370354039 -0.0053087707591589614 0 0.019688870728818302 0.0090970298504534329 0 0.016300485327847111 -0.0093186551489206765 0 0.019688870728818302 0.0090970298504534329 0 0.016300485327847111 -0.0093186551489206765 0 0.032442908370354039 -0.0053087707591589614 0 0.019688870728818302 0.0090970298504534329 0 0.016300485327847111 -0.0093186551489206765 0 0.0080183541192206075 -0.0001163402675899565 0 -0.009958688835701085 -0.01361406919586922 0 0.016300485327847111 -0.0093186551489206765 0 0.0080183541192206075 -0.0001163402675899565 0 -0.009958688835701085 -0.01361406919586922 0 0.016300485327847111 -0.0093186551489206765 0 0.001927903010464381 -0.028678454869142951 0 0.016300485327847111 -0.0093186551489206765 0 0.001927903010464381 -0.028678454869142951 0 0.01906571159137772 -0.037311084739259891 0 0.016300485327847111 -0.0093186551489206765 0 0.01906571159137772 -0.037311084739259891 0 0.032396677983504082 -0.01977135932714839 0 0.01906571159137772 -0.037311084739259891 0 0.040256773550674453 -0.048240311242934951 0 0.01906571159137772 -0.037311084739259891 0 0.02463407463335408 -0.05468607775967143 0 0.040256773550674453 -0.048240311242934951 0 0.001927903010464381 -0.028678454869142951 0 0.01906571159137772 -0.037311084739259891 0 0.0035951371165175851 -0.040859910095091781 0 0.01906571159137772 -0.037311084739259891 0 0.0035951371165175851 -0.040859910095091781 0 0.006397824160430849 -0.056727591935359062 0 0.01906571159137772 -0.037311084739259891 0 0.006397824160430849 -0.056727591935359062 0 0.02463407463335408 -0.05468607775967143 0 0.02580653861706431 -0.072732675034112904 0 0.006397824160430849 -0.056727591935359062 0 0.02463407463335408 -0.05468607775967143 0 0.044044005014827067 -0.065107285427759884 0 0.02463407463335408 -0.05468607775967143 0 0.040256773550674453 -0.048240311242934951 0 0.061447835509971203 -0.059169537746610018 0 0.056279947135428728 -0.043181077203379797 0 0.06667852248625819 -0.048171795292235448 0 0.040256773550674453 -0.048240311242934951 0 0.061447835509971203 -0.059169537746610018 0 0.056279947135428728 -0.043181077203379797 0 0.044044005014827067 -0.065107285427759884 0 0.040256773550674453 -0.048240311242934951 0 0.061447835509971203 -0.059169537746610018 0 0.040256773550674453 -0.048240311242934951 0 0.061447835509971203 -0.059169537746610018 0 0.040256773550674453 -0.048240311242934951 0 0.056279947135428728 -0.043181077203379797 0 0.044680834238587173 -0.032350433129331543 0 0.056279947135428728 -0.043181077203379797 0 0.058148323608691023 -0.030583314711035019 0 0.071599239518071178 -0.037319831144803001 0 0.056279947135428728 -0.043181077203379797 0 0.044680834238587173 -0.032350433129331543 0 0.058148323608691023 -0.030583314711035019 0 0.01906571159137772 -0.037311084739259891 0 0.040256773550674453 -0.048240311242934951 0 0.044680834238587173 -0.032350433129331543 0 0.044680834238587173 -0.032350433129331543 0 0.032396677983504082 -0.01977135932714839 0 0.050743188968991049 -0.017337360612464759 0 0.01906571159137772 -0.037311084739259891 0 0.044680834238587173 -0.032350433129331543 0 0.032396677983504082 -0.01977135932714839 0 0.058148323608691023 -0.030583314711035019 0 0.050743188968991049 -0.017337360612464759 0 0.067438408182376966 -0.022727871465195958 0 0.050743188968991049 -0.017337360612464759 0 0.062653431447581467 -0.0092225389150656697 0 0.067438408182376966 -0.022727871465195958 0 0.044680834238587173 -0.032350433129331543 0 0.058148323608691023 -0.030583314711035019 0 0.050743188968991049 -0.017337360612464759 0 0.045584796001883178 0.0052474759354978126 0 0.071480721274948589 0.001397922020545256 0 0.062653431447581467 -0.0092225389150656697 0 0.045584796001883178 0.0052474759354978126 0 0.050743188968991049 -0.017337360612464759 0 0.062653431447581467 -0.0092225389150656697 0 0.032396677983504082 -0.01977135932714839 0 0.050743188968991049 -0.017337360612464759 0 0.032442908370354039 -0.0053087707591589614 0 0.045584796001883178 0.0052474759354978126 0 0.050743188968991049 -0.017337360612464759 0 0.032442908370354039 -0.0053087707591589614 0 0.071480721274948589 0.001397922020545256 0 0.097376646548013979 -0.0024516318944073031 0 0.071480721274948589 0.001397922020545256 0 0.078020042809707549 -0.012692860453710699 0 0.097376646548013979 -0.0024516318944073031 0 0.078020042809707549 -0.012692860453710699 0 0.1043881097535788 -0.020620337946143669 0 0.097376646548013979 -0.0024516318944073031 0 0.071480721274948589 0.001397922020545256 0 0.062653431447581467 -0.0092225389150656697 0 0.078020042809707549 -0.012692860453710699 0 0.062653431447581467 -0.0092225389150656697 0 0.078020042809707549 -0.012692860453710699 0 0.067438408182376966 -0.022727871465195958 0 0.078020042809707549 -0.012692860453710699 0 0.067438408182376966 -0.022727871465195958 0 0.083464028901212822 -0.029476974368423281 0 0.067438408182376966 -0.022727871465195958 0 0.083464028901212822 -0.029476974368423281 0 0.071599239518071178 -0.037319831144803001 0 0.058148323608691023 -0.030583314711035019 0 0.067438408182376966 -0.022727871465195958 0 0.071599239518071178 -0.037319831144803001 0 0.078020042809707549 -0.012692860453710699 0 0.1043881097535788 -0.020620337946143669 0 0.078020042809707549 -0.012692860453710699 0 0.083464028901212822 -0.029476974368423281 0 0.1043881097535788 -0.020620337946143669 0 0.083464028901212822 -0.029476974368423281 0 0.083463304869812599 -0.042189614628601692 0 0.095986106854910908 -0.041812553593909153 0 0.083463304869812599 -0.042189614628601692 0 0.090457717454726291 -0.056443355655806077 0 0.095986106854910908 -0.041812553593909153 0 0.083464028901212822 -0.029476974368423281 0 0.083463304869812599 -0.042189614628601692 0 0.071599239518071178 -0.037319831144803001 0 0.083463304869812599 -0.042189614628601692 0 0.071599239518071178 -0.037319831144803001 0 0.077387067781561694 -0.053016735074148981 0 0.071599239518071178 -0.037319831144803001 0 0.077387067781561694 -0.053016735074148981 0 0.06667852248625819 -0.048171795292235448 0 0.056279947135428728 -0.043181077203379797 0 0.071599239518071178 -0.037319831144803001 0 0.06667852248625819 -0.048171795292235448 0 0.061447835509971203 -0.059169537746610018 0 0.077387067781561694 -0.053016735074148981 0 0.06667852248625819 -0.048171795292235448 0 0.077387067781561694 -0.053016735074148981 0 0.070106047461000714 -0.063892097716613527 0 0.082371940737253735 -0.070582441740344656 0 0.061447835509971203 -0.059169537746610018 0 0.077387067781561694 -0.053016735074148981 0 0.070106047461000714 -0.063892097716613527 0 0.061447835509971203 -0.059169537746610018 0 0.070106047461000714 -0.063892097716613527 0 0.077387067781561694 -0.053016735074148981 0 0.090457717454726291 -0.056443355655806077 0 0.082371940737253735 -0.070582441740344656 0 0.083463304869812599 -0.042189614628601692 0 0.077387067781561694 -0.053016735074148981 0 0.090457717454726291 -0.056443355655806077 0 0.090457717454726291 -0.056443355655806077 0 0.1098510034979993 -0.057278652169799667 0 0.095986106854910908 -0.041812553593909153 0 0.090457717454726291 -0.056443355655806077 0 0.1098510034979993 -0.057278652169799667 0 0.098861814363610023 -0.067583866221575431 0 0.1098510034979993 -0.057278652169799667 0 0.095986106854910908 -0.041812553593909153 0 0.12353490176389149 -0.049282380452973028 0 0.1098510034979993 -0.057278652169799667 0 0.11366936575464021 -0.037407807922825123 0 0.12353490176389149 -0.049282380452973028 0 0.1098510034979993 -0.057278652169799667 0 0.1237159001410876 -0.072744750745690173 0 0.12353490176389149 -0.049282380452973028 0 0.11366936575464021 -0.037407807922825123 0 0.1307561766974501 -0.028547815438576641 0 0.1098510034979993 -0.057278652169799667 0 0.11366936575464021 -0.037407807922825123 0 0.095986106854910908 -0.041812553593909153 0 0.11366936575464021 -0.037407807922825123 0 0.095986106854910908 -0.041812553593909153 0 0.1043881097535788 -0.020620337946143669 0 0.083464028901212822 -0.029476974368423281 0 0.095986106854910908 -0.041812553593909153 0 0.1043881097535788 -0.020620337946143669 0 0.1043881097535788 -0.020620337946143669 0 0.1232725718210794 -0.0063011858093598647 0 0.1307561766974501 -0.028547815438576641 0 0.11366936575464021 -0.037407807922825123 0 0.1043881097535788 -0.020620337946143669 0 0.1307561766974501 -0.028547815438576641 0 0.1043881097535788 -0.020620337946143669 0 0.1307561766974501 -0.028547815438576641 0 0.1232725718210794 -0.0063011858093598647 0 0.097376646548013979 -0.0024516318944073031 0 0.1043881097535788 -0.020620337946143669 0 0.1232725718210794 -0.0063011858093598647 0 0.097376646548013979 -0.0024516318944073031 0 0.081896611169565939 -0.1039529087271915 0 0.091040150373688442 -0.096999329983488605 0 0.079864087197504513 -0.086782332889081659 0 0.081896611169565939 -0.1039529087271915 0 0.072833965406504164 -0.097816329040567085 0 0.079864087197504513 -0.086782332889081659 0 0.081896611169565939 -0.1039529087271915 0 0.091040150373688442 -0.096999329983488605 0 0.093580424002072296 -0.1061240210769091 0 0.081896611169565939 -0.1039529087271915 0 0.093580424002072296 -0.1061240210769091 0 0.088849814435290719 -0.1133666014374845 0 0.09039656999676221 -0.12599580185753301 0 0.070911747105279907 -0.12672245871913071 0 0.077510268763547122 -0.1153693215445763 0 0.09039656999676221 -0.12599580185753301 0 0.088849814435290719 -0.1133666014374845 0 0.100865198244506 -0.1153909539812127 0 0.09039656999676221 -0.12599580185753301 0 0.077510268763547122 -0.1153693215445763 0 0.09039656999676221 -0.12599580185753301 0 0.088849814435290719 -0.1133666014374845 0 0.077510268763547122 -0.1153693215445763 0 0.081896611169565939 -0.1039529087271915 0 0.088849814435290719 -0.1133666014374845 0 0.077510268763547122 -0.1153693215445763 0 0.077510268763547122 -0.1153693215445763 0 0.064623967530330645 -0.10474284123162129 0 0.070911747105279907 -0.12672245871913071 0 0.077510268763547122 -0.1153693215445763 0 0.065808330022417302 -0.1171313323909452 0 0.070911747105279907 -0.12672245871913071 0 0.062028735583644107 -0.1256800684738611 0 0.065808330022417302 -0.1171313323909452 0 0.077510268763547122 -0.1153693215445763 0 0.065808330022417302 -0.1171313323909452 0 0.064623967530330645 -0.10474284123162129 0 0.064623967530330645 -0.10474284123162129 0 0.072055165796043361 -0.1057424179538073 0 0.072833965406504164 -0.097816329040567085 0 0.064623967530330645 -0.10474284123162129 0 0.072833965406504164 -0.097816329040567085 0 0.06546501318077963 -0.08832988386361329 0 0.081896611169565939 -0.1039529087271915 0 0.072055165796043361 -0.1057424179538073 0 0.072833965406504164 -0.097816329040567085 0 0.081896611169565939 -0.1039529087271915 0 0.077510268763547122 -0.1153693215445763 0 0.072055165796043361 -0.1057424179538073 0 0.077510268763547122 -0.1153693215445763 0 0.064623967530330645 -0.10474284123162129 0 0.072055165796043361 -0.1057424179538073 0 0.059511149514120253 -0.073214468100264718 0 0.06546501318077963 -0.08832988386361329 0 0.074066841299498309 -0.077981111650816282 0 0.06546501318077963 -0.08832988386361329 0 0.074066841299498309 -0.077981111650816282 0 0.079864087197504513 -0.086782332889081659 0 0.072833965406504164 -0.097816329040567085 0 0.06546501318077963 -0.08832988386361329 0 0.079864087197504513 -0.086782332889081659 0 0.059511149514120253 -0.073214468100264718 0 0.061447835509971203 -0.059169537746610018 0 0.070106047461000714 -0.063892097716613527 0 0.059511149514120253 -0.073214468100264718 0 0.070106047461000714 -0.063892097716613527 0 0.074066841299498309 -0.077981111650816282 0 0.070106047461000714 -0.063892097716613527 0 0.074066841299498309 -0.077981111650816282 0 0.082371940737253735 -0.070582441740344656 0 0.070106047461000714 -0.063892097716613527 0 0.082371940737253735 -0.070582441740344656 0 0.090457717454726291 -0.056443355655806077 0 0.082371940737253735 -0.070582441740344656 0 0.098861814363610023 -0.067583866221575431 0 0.082371940737253735 -0.070582441740344656 0 0.098861814363610023 -0.067583866221575431 0 0.09568735860579361 -0.077064254063442569 0 0.074066841299498309 -0.077981111650816282 0 0.082371940737253735 -0.070582441740344656 0 0.09568735860579361 -0.077064254063442569 0 0.082371940737253735 -0.070582441740344656 0 0.09568735860579361 -0.077064254063442569 0 0.091040150373688442 -0.096999329983488605 0 0.079864087197504513 -0.086782332889081659 0 0.1002168812711305 -0.089223649427106533 0 0.079864087197504513 -0.086782332889081659 0 0.1002168812711305 -0.089223649427106533 0 0.09568735860579361 -0.077064254063442569 0 0.074066841299498309 -0.077981111650816282 0 0.079864087197504513 -0.086782332889081659 0 0.09568735860579361 -0.077064254063442569 0 0.079864087197504513 -0.086782332889081659 0 0.1002168812711305 -0.089223649427106533 0 0.1002168812711305 -0.089223649427106533 0 0.1034745363500835 -0.081633697494471025 0 0.12056967534475641 -0.09166496596513192 0 0.1002168812711305 -0.089223649427106533 0 0.1034745363500835 -0.081633697494471025 0 0.09568735860579361 -0.077064254063442569 0 0.1034745363500835 -0.081633697494471025 0 0.09568735860579361 -0.077064254063442569 0 0.1034745363500835 -0.081633697494471025 0 0.098861814363610023 -0.067583866221575431 0 0.09568735860579361 -0.077064254063442569 0 0.1034745363500835 -0.081633697494471025 0 0.098861814363610023 -0.067583866221575431 0 0.110180193309623 -0.070884789502505707 0 0.1098510034979993 -0.057278652169799667 0 0.098861814363610023 -0.067583866221575431 0 0.110180193309623 -0.070884789502505707 0 0.1098510034979993 -0.057278652169799667 0 0.110180193309623 -0.070884789502505707 0 0.1237159001410876 -0.072744750745690173 0 0.1098510034979993 -0.057278652169799667 0 0.1237159001410876 -0.072744750745690173 0 0.110180193309623 -0.070884789502505707 0 0.1237159001410876 -0.072744750745690173 0 0.1166943429038358 -0.079659291535687043 0 0.1034745363500835 -0.081633697494471025 0 0.110180193309623 -0.070884789502505707 0 0.1166943429038358 -0.079659291535687043 0 0.1034745363500835 -0.081633697494471025 0 0.1166943429038358 -0.079659291535687043 0 0.12056967534475641 -0.09166496596513192 0 0.1002168812711305 -0.089223649427106533 0 0.12056967534475641 -0.09166496596513192 0 0.1110067672518551 -0.099286459401335875 0 0.1002168812711305 -0.089223649427106533 0 0.12056967534475641 -0.09166496596513192 0 0.1034745363500835 -0.081633697494471025 0 0.12056967534475641 -0.09166496596513192 0 0.1237159001410876 -0.072744750745690173 0 0.1166943429038358 -0.079659291535687043 0 0.12620522803167669 -0.085074343610618233 0 0.1166943429038358 -0.079659291535687043 0 0.12056967534475641 -0.09166496596513192 0 0.12620522803167669 -0.085074343610618233 0 0.12056967534475641 -0.09166496596513192 0 0.1290535093719232 -0.096347459265705038 0 0.12056967534475641 -0.09166496596513192 0 0.1110067672518551 -0.099286459401335875 0 0.1290535093719232 -0.096347459265705038 0 0.11228075954836329 -0.11235176595865801 0 0.12683669253601951 -0.10900267950001739 0 0.1290535093719232 -0.096347459265705038 0 0.11228075954836329 -0.11235176595865801 0 0.1290535093719232 -0.096347459265705038 0 0.1110067672518551 -0.099286459401335875 0 0.11228075954836329 -0.11235176595865801 0 0.1290535093719232 -0.096347459265705038 0 0.1002168812711305 -0.089223649427106533 0 0.1110067672518551 -0.099286459401335875 0 0.100024250529107 -0.099770127576620141 0 0.1110067672518551 -0.099286459401335875 0 0.1042770297467889 -0.1072171779942606 0 0.100024250529107 -0.099770127576620141 0 0.1110067672518551 -0.099286459401335875 0 0.1042770297467889 -0.1072171779942606 0 0.11228075954836329 -0.11235176595865801 0 0.093580424002072296 -0.1061240210769091 0 0.1042770297467889 -0.1072171779942606 0 0.100024250529107 -0.099770127576620141 0 0.091040150373688442 -0.096999329983488605 0 0.093580424002072296 -0.1061240210769091 0 0.100024250529107 -0.099770127576620141 0 0.091040150373688442 -0.096999329983488605 0 0.1002168812711305 -0.089223649427106533 0 0.100024250529107 -0.099770127576620141 0 0.11654158078493 -0.12502076340881341 0 0.09039656999676221 -0.12599580185753301 0 0.100865198244506 -0.1153909539812127 0 0.093580424002072296 -0.1061240210769091 0 0.088849814435290719 -0.1133666014374845 0 0.100865198244506 -0.1153909539812127 0 0.093580424002072296 -0.1061240210769091 0 0.1042770297467889 -0.1072171779942606 0 0.100865198244506 -0.1153909539812127 0 0.1042770297467889 -0.1072171779942606 0 0.100865198244506 -0.1153909539812127 0 0.11228075954836329 -0.11235176595865801 0 0.11654158078493 -0.12502076340881341 0 0.100865198244506 -0.1153909539812127 0 0.11228075954836329 -0.11235176595865801 0 0.11228075954836329 -0.11235176595865801 0 0.1270515328274423 -0.11651016093007931 0 0.12683669253601951 -0.10900267950001739 0 0.11654158078493 -0.12502076340881341 0 0.11228075954836329 -0.11235176595865801 0 0.1270515328274423 -0.11651016093007931 0 0.1270515328274423 -0.11651016093007931 0 0.13691203969480101 -0.1121298708228155 0 0.14268659157309771 -0.124045724960092 0 0.11654158078493 -0.12502076340881341 0 0.14268659157309771 -0.124045724960092 0 0.11654158078493 -0.12502076340881341 0 0.1270515328274423 -0.11651016093007931 0 0.14268659157309771 -0.124045724960092 0 0.1270515328274423 -0.11651016093007931 0 0.13691203969480101 -0.1121298708228155 0 0.12683669253601951 -0.10900267950001739 0 0.14268659157309771 -0.124045724960092 0 0.15596581812971641 -0.108719083877496 0 0.16883160236126521 -0.1230706865113679 0 0.14268659157309771 -0.124045724960092 0 0.15596581812971641 -0.108719083877496 0 0.1449241967563252 -0.10641563760559911 0 0.13691203969480101 -0.1121298708228155 0 0.14268659157309771 -0.124045724960092 0 0.1449241967563252 -0.10641563760559911 0 0.14268659157309771 -0.124045724960092 0 0.16883160236126521 -0.1230706865113679 0 0.14310003389816539 -0.094367481243626233 0 0.16163942127488731 -0.096591279747357262 0 0.15596581812971641 -0.108719083877496 0 0.14310003389816539 -0.094367481243626233 0 0.16163942127488731 -0.096591279747357262 0 0.15596581812971641 -0.108719083877496 0 0.14310003389816539 -0.094367481243626233 0 0.15596581812971641 -0.108719083877496 0 0.1449241967563252 -0.10641563760559911 0 0.14310003389816539 -0.094367481243626233 0 0.1449241967563252 -0.10641563760559911 0 0.14310003389816539 -0.094367481243626233 0 0.13673469006013089 -0.10058694308845639 0 0.14310003389816539 -0.094367481243626233 0 0.13673469006013089 -0.10058694308845639 0 0.13246542498452851 -0.093091860485002925 0 0.13673469006013089 -0.10058694308845639 0 0.1290535093719232 -0.096347459265705038 0 0.13691203969480101 -0.1121298708228155 0 0.13673469006013089 -0.10058694308845639 0 0.12683669253601951 -0.10900267950001739 0 0.13691203969480101 -0.1121298708228155 0 0.1449241967563252 -0.10641563760559911 0 0.13673469006013089 -0.10058694308845639 0 0.13673469006013089 -0.10058694308845639 0 0.12683669253601951 -0.10900267950001739 0 0.1290535093719232 -0.096347459265705038 0 0.13673469006013089 -0.10058694308845639 0 0.1290535093719232 -0.096347459265705038 0 0.13246542498452851 -0.093091860485002925 0 0.1290535093719232 -0.096347459265705038 0 0.13246542498452851 -0.093091860485002925 0 0.13246542498452851 -0.093091860485002925 0 0.12620522803167669 -0.085074343610618233 0 0.13758079678417609 -0.088210849321580631 0 0.12056967534475641 -0.09166496596513192 0 0.1290535093719232 -0.096347459265705038 0 0.13246542498452851 -0.093091860485002925 0 0.12056967534475641 -0.09166496596513192 0 0.13246542498452851 -0.093091860485002925 0 0.12056967534475641 -0.09166496596513192 0 0.13246542498452851 -0.093091860485002925 0 0.12620522803167669 -0.085074343610618233 0 0.1237159001410876 -0.072744750745690173 0 0.12620522803167669 -0.085074343610618233 0 0.13758079678417609 -0.088210849321580631 0 0.1237159001410876 -0.072744750745690173 0 0.13758079678417609 -0.088210849321580631 0 0.1237159001410876 -0.072744750745690173 0 0.13758079678417609 -0.088210849321580631 0 0.13828683869831579 -0.073630121085559067 0 0.14310003389816539 -0.094367481243626233 0 0.13246542498452851 -0.093091860485002925 0 0.13758079678417609 -0.088210849321580631 0 0.14310003389816539 -0.094367481243626233 0 0.13246542498452851 -0.093091860485002925 0 0.14310003389816539 -0.094367481243626233 0 0.13758079678417609 -0.088210849321580631 0 0.13246542498452851 -0.093091860485002925 0 0.13758079678417609 -0.088210849321580631 0 0.1237159001410876 -0.072744750745690173 0 0.13828683869831579 -0.073630121085559067 0 0.13889151743204209 -0.05320204731908814 0 0.13828683869831579 -0.073630121085559067 0 0.15288463471784819 -0.073608156355533944 0 0.13889151743204209 -0.05320204731908814 0 0.14310003389816539 -0.094367481243626233 0 0.1520296057124276 -0.087660513388031325 0 0.16163942127488731 -0.096591279747357262 0 0.14310003389816539 -0.094367481243626233 0 0.13758079678417609 -0.088210849321580631 0 0.1520296057124276 -0.087660513388031325 0 0.13758079678417609 -0.088210849321580631 0 0.15288463471784819 -0.073608156355533944 0 0.1520296057124276 -0.087660513388031325 0 0.13758079678417609 -0.088210849321580631 0 0.15288463471784819 -0.073608156355533944 0 0.13758079678417609 -0.088210849321580631 0 0.13828683869831579 -0.073630121085559067 0 0.15288463471784819 -0.073608156355533944 0 0.15288463471784819 -0.073608156355533944 0 0.1520296057124276 -0.087660513388031325 0 0.16357010101197891 -0.085066776185050402 0 0.1520296057124276 -0.087660513388031325 0 0.16357010101197891 -0.085066776185050402 0 0.16163942127488731 -0.096591279747357262 0 0.16357010101197891 -0.085066776185050402 0 0.17468553854308569 -0.075613227860450077 0 0.17661130481164539 -0.091860703573879418 0 0.16357010101197891 -0.085066776185050402 0 0.17661130481164539 -0.091860703573879418 0 0.16163942127488731 -0.096591279747357262 0 0.15288463471784819 -0.073608156355533944 0 0.16357010101197891 -0.085066776185050402 0 0.17468553854308569 -0.075613227860450077 0 0.15288463471784819 -0.073608156355533944 0 0.17468553854308569 -0.075613227860450077 0 0.1681884726515204 -0.05900546338948727 0 0.15288463471784819 -0.073608156355533944 0 0.1681884726515204 -0.05900546338948727 0 0.17468553854308569 -0.075613227860450077 0 0.1681884726515204 -0.05900546338948727 0 0.18806026884769639 -0.062515794031379274 0 0.17468553854308569 -0.075613227860450077 0 0.19775737814614061 -0.078481818526028063 0 0.18806026884769639 -0.062515794031379274 0 0.17468553854308569 -0.075613227860450077 0 0.17661130481164539 -0.091860703573879418 0 0.19775737814614061 -0.078481818526028063 0 0.17661130481164539 -0.091860703573879418 0 0.17164550725581801 -0.10798090136130881 0 0.189793569291034 -0.1005338792416733 0 0.1818297604359258 -0.12258593995731799 0 0.189793569291034 -0.1005338792416733 0 0.1818297604359258 -0.12258593995731799 0 0.17164550725581801 -0.10798090136130881 0 0.189793569291034 -0.1005338792416733 0 0.1818297604359258 -0.12258593995731799 0 0.1918170750488028 -0.1222134782350411 0 0.1818297604359258 -0.12258593995731799 0 0.16883160236126521 -0.1230706865113679 0 0.1818297604359258 -0.12258593995731799 0 0.16883160236126521 -0.1230706865113679 0 0.17164550725581801 -0.10798090136130881 0 0.15596581812971641 -0.108719083877496 0 0.16883160236126521 -0.1230706865113679 0 0.17164550725581801 -0.10798090136130881 0 0.15596581812971641 -0.108719083877496 0 0.16883160236126521 -0.1230706865113679 0 0.15596581812971641 -0.108719083877496 0 0.16163942127488731 -0.096591279747357262 0 0.17164550725581801 -0.10798090136130881 0 0.17661130481164539 -0.091860703573879418 0 0.16163942127488731 -0.096591279747357262 0 0.17164550725581801 -0.10798090136130881 0 0.1232725718210794 -0.0063011858093598647 0 0.1491684970941449 -0.010150739724312441 0 0.1232725718210794 -0.0063011858093598647 0 0.1491684970941449 -0.010150739724312441 0 0.1307561766974501 -0.028547815438576641 0 0.13283658907589069 0.015132359472021861 0 0.1232725718210794 -0.0063011858093598647 0 0.1491684970941449 -0.010150739724312441 0 0.1491684970941449 -0.010150739724312441 0 0.1307561766974501 -0.028547815438576641 0 0.1571242436413213 -0.036475292931009623 0 0.1307561766974501 -0.028547815438576641 0 0.13889151743204209 -0.05320204731908814 0 0.1571242436413213 -0.036475292931009623 0 0.1307561766974501 -0.028547815438576641 0 0.1571242436413213 -0.036475292931009623 0 0.12353490176389149 -0.049282380452973028 0 0.1307561766974501 -0.028547815438576641 0 0.13889151743204209 -0.05320204731908814 0 0.12353490176389149 -0.049282380452973028 0 0.1237159001410876 -0.072744750745690173 0 0.13889151743204209 -0.05320204731908814 0 0.13889151743204209 -0.05320204731908814 0 0.15439282536373389 -0.05179847524874754 0 0.1571242436413213 -0.036475292931009623 0 0.15288463471784819 -0.073608156355533944 0 0.13889151743204209 -0.05320204731908814 0 0.15439282536373389 -0.05179847524874754 0 0.15439282536373389 -0.05179847524874754 0 0.1681884726515204 -0.05900546338948727 0 0.1571242436413213 -0.036475292931009623 0 0.15288463471784819 -0.073608156355533944 0 0.15439282536373389 -0.05179847524874754 0 0.1681884726515204 -0.05900546338948727 0 0.1681884726515204 -0.05900546338948727 0 0.18349231058519311 -0.044402770423441117 0 0.18806026884769639 -0.062515794031379274 0 0.1681884726515204 -0.05900546338948727 0 0.18349231058519311 -0.044402770423441117 0 0.1777863862608301 -0.03168127339763116 0 0.18349231058519311 -0.044402770423441117 0 0.18741281138232599 -0.026124007050561199 0 0.1777863862608301 -0.03168127339763116 0 0.18349231058519311 -0.044402770423441117 0 0.1571242436413213 -0.036475292931009623 0 0.1681884726515204 -0.05900546338948727 0 0.18349231058519311 -0.044402770423441117 0 0.1571242436413213 -0.036475292931009623 0 0.18349231058519311 -0.044402770423441117 0 0.1571242436413213 -0.036475292931009623 0 0.1491684970941449 -0.010150739724312441 0 0.1650118702231049 -0.023804120991563971 0 0.1750644223672104 -0.01400029363926528 0 0.1777863862608301 -0.03168127339763116 0 0.1571242436413213 -0.036475292931009623 0 0.1650118702231049 -0.023804120991563971 0 0.1491684970941449 -0.010150739724312441 0 0.1571242436413213 -0.036475292931009623 0 0.1650118702231049 -0.023804120991563971 0 0.1777863862608301 -0.03168127339763116 0 0.1650118702231049 -0.023804120991563971 0 0.1750644223672104 -0.01400029363926528 0 0.1777863862608301 -0.03168127339763116 0 0.1750644223672104 -0.01400029363926528 0 0.1777863862608301 -0.03168127339763116 0 0.18741281138232599 -0.026124007050561199 0 0.1750644223672104 -0.01400029363926528 0 0.18741281138232599 -0.026124007050561199 0 0.1750644223672104 -0.01400029363926528 0 0.19534396406300489 -0.017014945106833459 0 0.1725282051644047 0.0024741368742126481 0 0.19255080382135159 -0.0061389146127854687 0 0.1725282051644047 0.0024741368742126481 0 0.1750644223672104 -0.01400029363926528 0 0.19255080382135159 -0.0061389146127854687 0 0.1725282051644047 0.0024741368742126481 0 0.1750644223672104 -0.01400029363926528 0 0.1750644223672104 -0.01400029363926528 0 0.19534396406300489 -0.017014945106833459 0 0.1725282051644047 0.0024741368742126481 0 0.1750644223672104 -0.01400029363926528 0 0.16067891809127829 -0.00040143054621440111 0 0.1491684970941449 -0.010150739724312441 0 0.1750644223672104 -0.01400029363926528 0 0.1491684970941449 -0.010150739724312441 0 0.1750644223672104 -0.01400029363926528 0 0.16067891809127829 -0.00040143054621440111 0 0.20129024074025251 0.0047714246717411278 0 0.21253901026711791 -0.001749705729047527 0 0.21257340247829809 -0.014751966099784261 0 0.20129024074025251 0.0047714246717411278 0 0.21257340247829809 -0.014751966099784261 0 0.21253901026711791 -0.001749705729047527 0 0.21257340247829809 -0.014751966099784261 0 0.22553980271454849 -0.0015513290382589259 0 0.21257340247829809 -0.014751966099784261 0 0.19255080382135159 -0.0061389146127854687 0 0.19534396406300489 -0.017014945106833459 0 0.21257340247829809 -0.014751966099784261 0 0.19255080382135159 -0.0061389146127854687 0 0.20129024074025251 0.0047714246717411278 0 0.21257340247829809 -0.014751966099784261 0 0.19255080382135159 -0.0061389146127854687 0 0.1750644223672104 -0.01400029363926528 0 0.19255080382135159 -0.0061389146127854687 0 0.19534396406300489 -0.017014945106833459 0 0.18741281138232599 -0.026124007050561199 0 0.19534396406300489 -0.017014945106833459 0 0.2053769736353914 -0.023520752685635259 0 0.19534396406300489 -0.017014945106833459 0 0.2053769736353914 -0.023520752685635259 0 0.21562350575879949 -0.020029596574401131 0 0.2053769736353914 -0.023520752685635259 0 0.21168871170554071 -0.02729807491168396 0 0.20058572173327799 -0.035832268575954347 0 0.21257340247829809 -0.014751966099784261 0 0.19534396406300489 -0.017014945106833459 0 0.21562350575879949 -0.020029596574401131 0 0.19534396406300489 -0.017014945106833459 0 0.21562350575879949 -0.020029596574401131 0 0.2053769736353914 -0.023520752685635259 0 0.21562350575879949 -0.020029596574401131 0 0.21168871170554071 -0.02729807491168396 0 0.21672676182753739 -0.0219385738496614 0 0.21562350575879949 -0.020029596574401131 0 0.21168871170554071 -0.02729807491168396 0 0.21257340247829809 -0.014751966099784261 0 0.21562350575879949 -0.020029596574401131 0 0.21562350575879949 -0.020029596574401131 0 0.21870138665566019 -0.020487138381897162 0 0.2196701031449971 -0.017804729094108251 0 0.21257340247829809 -0.014751966099784261 0 0.21562350575879949 -0.020029596574401131 0 0.2196701031449971 -0.017804729094108251 0 0.21257340247829809 -0.014751966099784261 0 0.2196701031449971 -0.017804729094108251 0 0.21672676182753739 -0.0219385738496614 0 0.21562350575879949 -0.020029596574401131 0 0.21562350575879949 -0.020029596574401131 0 0.21870138665566019 -0.020487138381897162 0 0.21672676182753739 -0.0219385738496614 0 0.21562350575879949 -0.020029596574401131 0 0.21870138665566019 -0.020487138381897162 0 0.21672676182753739 -0.0219385738496614 0 0.21870138665566019 -0.020487138381897162 0 0.21368499585635189 -0.034377697094736807 0 0.21870138665566019 -0.020487138381897162 0 0.21368499585635189 -0.034377697094736807 0 0.21672676182753739 -0.0219385738496614 0 0.21168871170554071 -0.02729807491168396 0 0.21368499585635189 -0.034377697094736807 0 0.21368499585635189 -0.034377697094736807 0 0.20058572173327799 -0.035832268575954347 0 0.20654068704104911 -0.051332193273432483 0 0.21368499585635189 -0.034377697094736807 0 0.2057211870012472 -0.056429757810382793 0 0.2269988738678578 -0.041516531238389193 0 0.21368499585635189 -0.034377697094736807 0 0.2057211870012472 -0.056429757810382793 0 0.21168871170554071 -0.02729807491168396 0 0.21368499585635189 -0.034377697094736807 0 0.20058572173327799 -0.035832268575954347 0 0.21368499585635189 -0.034377697094736807 0 0.20058572173327799 -0.035832268575954347 0 0.18349231058519311 -0.044402770423441117 0 0.18741281138232599 -0.026124007050561199 0 0.2053769736353914 -0.023520752685635259 0 0.18349231058519311 -0.044402770423441117 0 0.20058572173327799 -0.035832268575954347 0 0.20654068704104911 -0.051332193273432483 0 0.18349231058519311 -0.044402770423441117 0 0.2053769736353914 -0.023520752685635259 0 0.20058572173327799 -0.035832268575954347 0 0.18349231058519311 -0.044402770423441117 0 0.2053769736353914 -0.023520752685635259 0 0.18349231058519311 -0.044402770423441117 0 0.19595361336879649 -0.053670128884658913 0 0.20654068704104911 -0.051332193273432483 0 0.18349231058519311 -0.044402770423441117 0 0.19595361336879649 -0.053670128884658913 0 0.18806026884769639 -0.062515794031379274 0 0.19595361336879649 -0.053670128884658913 0 0.2057211870012472 -0.056429757810382793 0 0.18806026884769639 -0.062515794031379274 0 0.18349231058519311 -0.044402770423441117 0 0.20654068704104911 -0.051332193273432483 0 0.19595361336879649 -0.053670128884658913 0 0.2057211870012472 -0.056429757810382793 0 0.20654068704104911 -0.051332193273432483 0 0.2057211870012472 -0.056429757810382793 0 0.22837690503275471 -0.056560577593822547 0 0.21801306564057821 -0.065734316476146137 0 0.21368499585635189 -0.034377697094736807 0 0.2057211870012472 -0.056429757810382793 0 0.20654068704104911 -0.051332193273432483 0 0.2057211870012472 -0.056429757810382793 0 0.22837690503275471 -0.056560577593822547 0 0.2269988738678578 -0.041516531238389193 0 0.22837690503275471 -0.056560577593822547 0 0.24195780299950939 -0.060072566832644218 0 0.24943564751753791 -0.048204260324924073 0 0.22837690503275471 -0.056560577593822547 0 0.24943564751753791 -0.048204260324924073 0 0.2269988738678578 -0.041516531238389193 0 0.25403707308940587 -0.067204613670147656 0 0.24195780299950939 -0.060072566832644218 0 0.24943564751753791 -0.048204260324924073 0 0.24943564751753791 -0.048204260324924073 0 0.2384223090633483 -0.031630812803683038 0 0.2269988738678578 -0.041516531238389193 0 0.25854506567659918 -0.038983986322598932 0 0.24943564751753791 -0.048204260324924073 0 0.2384223090633483 -0.031630812803683038 0 0.21368499585635189 -0.034377697094736807 0 0.2384223090633483 -0.031630812803683038 0 0.21368499585635189 -0.034377697094736807 0 0.2384223090633483 -0.031630812803683038 0 0.2269988738678578 -0.041516531238389193 0 0.21368499585635189 -0.034377697094736807 0 0.2384223090633483 -0.031630812803683038 0 0.2297102316000208 -0.022123656162507731 0 0.21870138665566019 -0.020487138381897162 0 0.21368499585635189 -0.034377697094736807 0 0.2297102316000208 -0.022123656162507731 0 0.2196701031449971 -0.017804729094108251 0 0.2297102316000208 -0.022123656162507731 0 0.2196701031449971 -0.017804729094108251 0 0.2297102316000208 -0.022123656162507731 0 0.22909041507087249 -0.0132703769419027 0 0.21870138665566019 -0.020487138381897162 0 0.2297102316000208 -0.022123656162507731 0 0.21870138665566019 -0.020487138381897162 0 0.2196701031449971 -0.017804729094108251 0 0.2297102316000208 -0.022123656162507731 0 0.21870138665566019 -0.020487138381897162 0 0.2196701031449971 -0.017804729094108251 0 0.2297102316000208 -0.022123656162507731 0 0.24280283504346559 -0.01409374827181234 0 0.22909041507087249 -0.0132703769419027 0 0.2297102316000208 -0.022123656162507731 0 0.24514111334575969 -0.02876150478760282 0 0.26315962227034478 -0.028883928512629071 0 0.2384223090633483 -0.031630812803683038 0 0.24514111334575969 -0.02876150478760282 0 0.2384223090633483 -0.031630812803683038 0 0.2297102316000208 -0.022123656162507731 0 0.24514111334575969 -0.02876150478760282 0 0.2600658673723853 -0.026636167505362251 0 0.2448880494862031 -0.024379911833934301 0 0.24280283504346559 -0.01409374827181234 0 0.2297102316000208 -0.022123656162507731 0 0.24514111334575969 -0.02876150478760282 0 0.2448880494862031 -0.024379911833934301 0 0.2297102316000208 -0.022123656162507731 0 0.2448880494862031 -0.024379911833934301 0 0.2297102316000208 -0.022123656162507731 0 0.2448880494862031 -0.024379911833934301 0 0.24280283504346559 -0.01409374827181234 0 0.24677494993703919 0.0050456544542734818 0 0.24280283504346559 -0.01409374827181234 0 0.22553980271454849 -0.0015513290382589259 0 0.24677494993703919 0.0050456544542734818 0 0.2581532400794046 -0.0095009095219926679 0 0.24280283504346559 -0.01409374827181234 0 0.2196701031449971 -0.017804729094108251 0 0.22909041507087249 -0.0132703769419027 0 0.22553980271454849 -0.0015513290382589259 0 0.24280283504346559 -0.01409374827181234 0 0.22909041507087249 -0.0132703769419027 0 0.22553980271454849 -0.0015513290382589259 0 0.21257340247829809 -0.014751966099784261 0 0.2196701031449971 -0.017804729094108251 0 0.22553980271454849 -0.0015513290382589259 0 0.2196701031449971 -0.017804729094108251 0 0.22553980271454849 -0.0015513290382589259 0 0.24280283504346559 -0.01409374827181234 0 0.22553980271454849 -0.0015513290382589259 0 0.20906431851500709 -0.1103830314564761 0 0.20403084185296841 -0.091209673687045564 0 0.22081399107629721 -0.1049664348941922 0 0.20906431851500709 -0.1103830314564761 0 0.19792395845088501 -0.1067115759610431 0 0.20403084185296841 -0.091209673687045564 0 0.20464461377011159 -0.1217350946705011 0 0.20906431851500709 -0.1103830314564761 0 0.2209459897109749 -0.1227945343318711 0 0.20906431851500709 -0.1103830314564761 0 0.22081399107629721 -0.1049664348941922 0 0.2209459897109749 -0.1227945343318711 0 0.20464461377011159 -0.1217350946705011 0 0.20906431851500709 -0.1103830314564761 0 0.19792395845088501 -0.1067115759610431 0 0.20464461377011159 -0.1217350946705011 0 0.1918170750488028 -0.1222134782350411 0 0.19792395845088501 -0.1067115759610431 0 0.1818297604359258 -0.12258593995731799 0 0.1918170750488028 -0.1222134782350411 0 0.189793569291034 -0.1005338792416733 0 0.1918170750488028 -0.1222134782350411 0 0.19792395845088501 -0.1067115759610431 0 0.189793569291034 -0.1005338792416733 0 0.20464461377011159 -0.1217350946705011 0 0.1918170750488028 -0.1222134782350411 0 0.1918170750488028 -0.1222134782350411 0 0.19792395845088501 -0.1067115759610431 0 0.19792395845088501 -0.1067115759610431 0 0.20403084185296841 -0.091209673687045564 0 0.19792395845088501 -0.1067115759610431 0 0.19901896487560619 -0.093615582004153652 0 0.20403084185296841 -0.091209673687045564 0 0.19792395845088501 -0.1067115759610431 0 0.189793569291034 -0.1005338792416733 0 0.19901896487560619 -0.093615582004153652 0 0.189793569291034 -0.1005338792416733 0 0.19775737814614061 -0.078481818526028063 0 0.19901896487560619 -0.093615582004153652 0 0.17661130481164539 -0.091860703573879418 0 0.189793569291034 -0.1005338792416733 0 0.19775737814614061 -0.078481818526028063 0 0.189793569291034 -0.1005338792416733 0 0.19775737814614061 -0.078481818526028063 0 0.19775737814614061 -0.078481818526028063 0 0.19901896487560619 -0.093615582004153652 0 0.20403084185296841 -0.091209673687045564 0 0.19901896487560619 -0.093615582004153652 0 0.20403084185296841 -0.091209673687045564 0 0.2057211870012472 -0.056429757810382793 0 0.19775737814614061 -0.078481818526028063 0 0.18806026884769639 -0.062515794031379274 0 0.2057211870012472 -0.056429757810382793 0 0.19775737814614061 -0.078481818526028063 0 0.2057211870012472 -0.056429757810382793 0 0.19775737814614061 -0.078481818526028063 0 0.21052499311151601 -0.074724718672466203 0 0.2057211870012472 -0.056429757810382793 0 0.21052499311151601 -0.074724718672466203 0 0.21801306564057821 -0.065734316476146137 0 0.21052499311151601 -0.074724718672466203 0 0.20403084185296841 -0.091209673687045564 0 0.2290339574711874 -0.079207143678597061 0 0.20403084185296841 -0.091209673687045564 0 0.2290339574711874 -0.079207143678597061 0 0.19775737814614061 -0.078481818526028063 0 0.21052499311151601 -0.074724718672466203 0 0.20403084185296841 -0.091209673687045564 0 0.21052499311151601 -0.074724718672466203 0 0.20403084185296841 -0.091209673687045564 0 0.20403084185296841 -0.091209673687045564 0 0.2290339574711874 -0.079207143678597061 0 0.22081399107629721 -0.1049664348941922 0 0.21052499311151601 -0.074724718672466203 0 0.21801306564057821 -0.065734316476146137 0 0.2290339574711874 -0.079207143678597061 0 0.22837690503275471 -0.056560577593822547 0 0.24195780299950939 -0.060072566832644218 0 0.2290339574711874 -0.079207143678597061 0 0.22837690503275471 -0.056560577593822547 0 0.21801306564057821 -0.065734316476146137 0 0.2290339574711874 -0.079207143678597061 0 0.25403707308940587 -0.067204613670147656 0 0.2290339574711874 -0.079207143678597061 0 0.25403707308940587 -0.067204613670147656 0 0.24195780299950939 -0.060072566832644218 0 0.2290339574711874 -0.079207143678597061 0 0.26020767709886711 -0.092684468706796252 0 0.2290339574711874 -0.079207143678597061 0 0.23770265850757699 -0.097947522810295728 0 0.26020767709886711 -0.092684468706796252 0 0.25403707308940587 -0.067204613670147656 0 0.2290339574711874 -0.079207143678597061 0 0.26020767709886711 -0.092684468706796252 0 0.23770265850757699 -0.097947522810295728 0 0.2407550083839565 -0.11493204396159749 0 0.23770265850757699 -0.097947522810295728 0 0.22081399107629721 -0.1049664348941922 0 0.2407550083839565 -0.11493204396159749 0 0.2290339574711874 -0.079207143678597061 0 0.23770265850757699 -0.097947522810295728 0 0.22081399107629721 -0.1049664348941922 0 0.22081399107629721 -0.1049664348941922 0 0.2209459897109749 -0.1227945343318711 0 0.2407550083839565 -0.11493204396159749 0 0.2209459897109749 -0.1227945343318711 0 0.2407550083839565 -0.11493204396159749 0 0.23528194006523681 -0.13372966972821529 0 0.25414326762960338 -0.1404031760303571 0 0.2407550083839565 -0.11493204396159749 0 0.25414326762960338 -0.1404031760303571 0 0.23528194006523681 -0.13372966972821529 0 0.2358221373368537 -0.14733192063277339 0 0.25414326762960338 -0.1404031760303571 0 0.2407550083839565 -0.11493204396159749 0 0.23528194006523681 -0.13372966972821529 0 0.25414326762960338 -0.1404031760303571 0 0.24426321252287869 -0.15836156132245191 0 0.25414326762960338 -0.1404031760303571 0 0.2358221373368537 -0.14733192063277339 0 0.24426321252287869 -0.15836156132245191 0 0.2358221373368537 -0.14733192063277339 0 0.22719654136852341 -0.15899836030286749 0 0.24426321252287869 -0.15836156132245191 0 0.22139378935242271 -0.1417120557307093 0 0.21354708797761299 -0.15357163242981339 0 0.22719654136852341 -0.15899836030286749 0 0.2358221373368537 -0.14733192063277339 0 0.22139378935242271 -0.1417120557307093 0 0.22719654136852341 -0.15899836030286749 0 0.23528194006523681 -0.13372966972821529 0 0.2358221373368537 -0.14733192063277339 0 0.22139378935242271 -0.1417120557307093 0 0.2209459897109749 -0.1227945343318711 0 0.23528194006523681 -0.13372966972821529 0 0.22139378935242271 -0.1417120557307093 0 0.20464461377011159 -0.1217350946705011 0 0.2209459897109749 -0.1227945343318711 0 0.21254986861581959 -0.13171398814875021 0 0.22139378935242271 -0.1417120557307093 0 0.21254986861581959 -0.13171398814875021 0 0.20273368563949279 -0.1398204004872082 0 0.20464461377011159 -0.1217350946705011 0 0.21254986861581959 -0.13171398814875021 0 0.20273368563949279 -0.1398204004872082 0 0.2209459897109749 -0.1227945343318711 0 0.22139378935242271 -0.1417120557307093 0 0.21254986861581959 -0.13171398814875021 0 0.22139378935242271 -0.1417120557307093 0 0.21354708797761299 -0.15357163242981339 0 0.20273368563949279 -0.1398204004872082 0 0.21354708797761299 -0.15357163242981339 0 0.20273368563949279 -0.1398204004872082 0 0.1999596255737798 -0.15779356168817729 0 0.1999596255737798 -0.15779356168817729 0 0.18456535541514571 -0.1406214683140781 0 0.1999596255737798 -0.15779356168817729 0 0.18456535541514571 -0.1406214683140781 0 0.18667942740771831 -0.1535459437195949 0 0.20273368563949279 -0.1398204004872082 0 0.1999596255737798 -0.15779356168817729 0 0.18456535541514571 -0.1406214683140781 0 0.1918170750488028 -0.1222134782350411 0 0.18456535541514571 -0.1406214683140781 0 0.20273368563949279 -0.1398204004872082 0 0.19335098622726071 -0.13345013476943529 0 0.18456535541514571 -0.1406214683140781 0 0.20464461377011159 -0.1217350946705011 0 0.20273368563949279 -0.1398204004872082 0 0.19335098622726071 -0.13345013476943529 0 0.1918170750488028 -0.1222134782350411 0 0.19335098622726071 -0.13345013476943529 0 0.18456535541514571 -0.1406214683140781 0 0.20464461377011159 -0.1217350946705011 0 0.1918170750488028 -0.1222134782350411 0 0.19335098622726071 -0.13345013476943529 0 0.1997918059596927 -0.17709985767149941 0 0.18773015459379239 -0.16703755052060409 0 0.1904418317500452 -0.19039393737420621 0 0.1997918059596927 -0.17709985767149941 0 0.21037035640541271 -0.18738834322965359 0 0.1904418317500452 -0.19039393737420621 0 0.18773015459379239 -0.16703755052060409 0 0.1904418317500452 -0.19039393737420621 0 0.1997918059596927 -0.17709985767149941 0 0.18773015459379239 -0.16703755052060409 0 0.1999596255737798 -0.15779356168817729 0 0.18773015459379239 -0.16703755052060409 0 0.1999596255737798 -0.15779356168817729 0 0.18667942740771831 -0.1535459437195949 0 0.1997918059596927 -0.17709985767149941 0 0.1999596255737798 -0.15779356168817729 0 0.2153538957324147 -0.17496565506227579 0 0.21354708797761299 -0.15357163242981339 0 0.1999596255737798 -0.15779356168817729 0 0.2153538957324147 -0.17496565506227579 0 0.1999596255737798 -0.15779356168817729 0 0.2153538957324147 -0.17496565506227579 0 0.21354708797761299 -0.15357163242981339 0 0.2153538957324147 -0.17496565506227579 0 0.22719654136852341 -0.15899836030286749 0 0.1997918059596927 -0.17709985767149941 0 0.2153538957324147 -0.17496565506227579 0 0.21037035640541271 -0.18738834322965359 0 0.2153538957324147 -0.17496565506227579 0 0.21037035640541271 -0.18738834322965359 0 0.22207460784869301 -0.1830310050377488 0 0.22207460784869301 -0.1830310050377488 0 0.2343831574161569 -0.17631994661454839 0 0.2245031023094351 -0.1942783319066449 0 0.2343831574161569 -0.17631994661454839 0 0.2245031023094351 -0.1942783319066449 0 0.2153538957324147 -0.17496565506227579 0 0.22207460784869301 -0.1830310050377488 0 0.2343831574161569 -0.17631994661454839 0 0.2153538957324147 -0.17496565506227579 0 0.22719654136852341 -0.15899836030286749 0 0.2343831574161569 -0.17631994661454839 0 0.24426321252287869 -0.15836156132245191 0 0.2343831574161569 -0.17631994661454839 0 0.24902230615813939 -0.1758350962297997 0 0.22719654136852341 -0.15899836030286749 0 0.24426321252287869 -0.15836156132245191 0 0.2343831574161569 -0.17631994661454839 0 0.24426321252287869 -0.15836156132245191 0 0.2343831574161569 -0.17631994661454839 0 0.24902230615813939 -0.1758350962297997 0 0.23639883176636481 -0.19699350305200711 0 0.2343831574161569 -0.17631994661454839 0 0.24902230615813939 -0.1758350962297997 0 0.23639883176636481 -0.19699350305200711 0 0.25645001865589412 -0.19081562561394491 0 0.24902230615813939 -0.1758350962297997 0 0.23639883176636481 -0.19699350305200711 0 0.25645001865589412 -0.19081562561394491 0 0.23639883176636481 -0.19699350305200711 0 0.24539687245749331 -0.21581090180767801 0 0.23639883176636481 -0.19699350305200711 0 0.24539687245749331 -0.21581090180767801 0 0.22377535737459031 -0.21815190987421451 0 0.23639883176636481 -0.19699350305200711 0 0.22377535737459031 -0.21815190987421451 0 0.23639883176636481 -0.19699350305200711 0 0.22377535737459031 -0.21815190987421451 0 0.2245031023094351 -0.1942783319066449 0 0.2343831574161569 -0.17631994661454839 0 0.23639883176636481 -0.19699350305200711 0 0.2245031023094351 -0.1942783319066449 0 0.21037035640541271 -0.18738834322965359 0 0.22207460784869301 -0.1830310050377488 0 0.2245031023094351 -0.1942783319066449 0 0.25385053846730632 -0.24215592545976461 0 0.25237873260421839 -0.2289608231683557 0 0.2343437262590925 -0.2408061780014111 0 0.25385053846730632 -0.24215592545976461 0 0.24851381213818 -0.26039652043077638 0 0.2343437262590925 -0.2408061780014111 0 0.24539687245749331 -0.21581090180767801 0 0.2343437262590925 -0.2408061780014111 0 0.25237873260421839 -0.2289608231683557 0 0.24539687245749331 -0.21581090180767801 0 0.2343437262590925 -0.2408061780014111 0 0.24539687245749331 -0.21581090180767801 0 0.22377535737459031 -0.21815190987421451 0 0.2343437262590925 -0.2408061780014111 0 0.22377535737459031 -0.21815190987421451 0 0.2343437262590925 -0.2408061780014111 0 0.2111518829828157 -0.23931031669642189 0 0.21274621170666599 -0.25460641687182922 0 0.2343437262590925 -0.2408061780014111 0 0.2111518829828157 -0.23931031669642189 0 0.19852840859104109 -0.26046872351862932 0 0.2111518829828157 -0.23931031669642189 0 0.2111518829828157 -0.23931031669642189 0 0.20610979027670931 -0.22309928531002729 0 0.19586518606255079 -0.23710671108141079 0 0.22377535737459031 -0.21815190987421451 0 0.2111518829828157 -0.23931031669642189 0 0.22377535737459031 -0.21815190987421451 0 0.2111518829828157 -0.23931031669642189 0 0.20610979027670931 -0.22309928531002729 0 0.20610979027670931 -0.22309928531002729 0 0.19586518606255079 -0.23710671108141079 0 0.19315350890629801 -0.21375032422780851 0 0.19586518606255079 -0.23710671108141079 0 0.19315350890629801 -0.21375032422780851 0 0.19586518606255079 -0.23710671108141079 0 0.19315350890629801 -0.21375032422780851 0 0.18392056831124631 -0.2352337044339253 0 0.19852840859104109 -0.26046872351862932 0 0.19586518606255079 -0.23710671108141079 0 0.19199732609840839 -0.24872390271269651 0 0.18967514142879521 -0.26208647181682049 0 0.19199732609840839 -0.24872390271269651 0 0.18392056831124631 -0.2352337044339253 0 0.19852840859104109 -0.26046872351862932 0 0.2111518829828157 -0.23931031669642189 0 0.19586518606255079 -0.23710671108141079 0 0.19852840859104109 -0.26046872351862932 0 0.19586518606255079 -0.23710671108141079 0 0.19586518606255079 -0.23710671108141079 0 0.19199732609840839 -0.24872390271269651 0 0.18392056831124631 -0.2352337044339253 0 0.21037035640541271 -0.18738834322965359 0 0.2245031023094351 -0.1942783319066449 0 0.20775194512510031 -0.20507893273937619 0 0.22377535737459031 -0.21815190987421451 0 0.2245031023094351 -0.1942783319066449 0 0.20775194512510031 -0.20507893273937619 0 0.22377535737459031 -0.21815190987421451 0 0.20610979027670931 -0.22309928531002729 0 0.20775194512510031 -0.20507893273937619 0 0.20610979027670931 -0.22309928531002729 0 0.20775194512510031 -0.20507893273937619 0 0.19315350890629801 -0.21375032422780851 0 0.20775194512510031 -0.20507893273937619 0 0.19315350890629801 -0.21375032422780851 0 0.1904418317500452 -0.19039393737420621 0 0.21037035640541271 -0.18738834322965359 0 0.20775194512510031 -0.20507893273937619 0 0.1904418317500452 -0.19039393737420621 0 0.19315350890629801 -0.21375032422780851 0 0.1904418317500452 -0.19039393737420621 0 0.1904418317500452 -0.19039393737420621 0 0.17551812107930109 -0.20576385187437479 0 0.16604511834914101 -0.18837815620589521 0 0.19315350890629801 -0.21375032422780851 0 0.1904418317500452 -0.19039393737420621 0 0.17551812107930109 -0.20576385187437479 0 0.19315350890629801 -0.21375032422780851 0 0.17551812107930109 -0.20576385187437479 0 0.17934451719100439 -0.22060292806015791 0 0.17551812107930109 -0.20576385187437479 0 0.17934451719100439 -0.22060292806015791 0 0.16452357100453549 -0.220108576933222 0 0.17551812107930109 -0.20576385187437479 0 0.15824442335279529 -0.2056019273936916 0 0.16452357100453549 -0.220108576933222 0 0.15824442335279529 -0.2056019273936916 0 0.16452357100453549 -0.220108576933222 0 0.15191597835750531 -0.21920593139955921 0 0.17551812107930109 -0.20576385187437479 0 0.15824442335279529 -0.2056019273936916 0 0.16604511834914101 -0.18837815620589521 0 0.15824442335279529 -0.2056019273936916 0 0.16604511834914101 -0.18837815620589521 0 0.1482115702600568 -0.19185905638158951 0 0.18967514142879521 -0.26208647181682049 0 0.17799796958967429 -0.24718006679540469 0 0.18392056831124631 -0.2352337044339253 0 0.18967514142879521 -0.26208647181682049 0 0.18392056831124631 -0.2352337044339253 0 0.17799796958967429 -0.24718006679540469 0 0.18392056831124631 -0.2352337044339253 0 0.17045650611803839 -0.2330930489691441 0 0.19315350890629801 -0.21375032422780851 0 0.18392056831124631 -0.2352337044339253 0 0.17934451719100439 -0.22060292806015791 0 0.18392056831124631 -0.2352337044339253 0 0.17934451719100439 -0.22060292806015791 0 0.17045650611803839 -0.2330930489691441 0 0.17934451719100439 -0.22060292806015791 0 0.16452357100453549 -0.220108576933222 0 0.17045650611803839 -0.2330930489691441 0 0.16452357100453549 -0.220108576933222 0 0.1558141317113523 -0.23306886828688159 0 0.15191597835750531 -0.21920593139955921 0 0.16452357100453549 -0.220108576933222 0 0.17045650611803839 -0.2330930489691441 0 0.1558141317113523 -0.23306886828688159 0 0.17045650611803839 -0.2330930489691441 0 0.16258683716708699 -0.24718643187014869 0 0.1558141317113523 -0.23306886828688159 0 0.16889615696593699 -0.25477613782489111 0 0.17799796958967429 -0.24718006679540469 0 0.16258683716708699 -0.24718643187014869 0 0.17799796958967429 -0.24718006679540469 0 0.17045650611803839 -0.2330930489691441 0 0.16258683716708699 -0.24718643187014869 0 0.14871305763952711 -0.24442574258537861 0 0.1558141317113523 -0.23306886828688159 0 0.137969527379107 -0.22865491809385771 0 0.16258683716708699 -0.24718643187014869 0 0.14871305763952711 -0.24442574258537861 0 0.1558141317113523 -0.23306886828688159 0 0.1558141317113523 -0.23306886828688159 0 0.15191597835750531 -0.21920593139955921 0 0.137969527379107 -0.22865491809385771 0 0.15191597835750531 -0.21920593139955921 0 0.137969527379107 -0.22865491809385771 0 0.14302823833973641 -0.20859536629014311 0 0.1238746239930002 -0.21544896047537199 0 0.1171561117991648 -0.2340313369411636 0 0.137969527379107 -0.22865491809385771 0 0.137969527379107 -0.22865491809385771 0 0.13291081641847749 -0.24871446989757229 0 0.14871305763952711 -0.24442574258537861 0 0.137969527379107 -0.22865491809385771 0 0.13291081641847749 -0.24871446989757229 0 0.1171561117991648 -0.2340313369411636 0 0.137969527379107 -0.22865491809385771 0 0.13291081641847749 -0.24871446989757229 0 0.15824442335279529 -0.2056019273936916 0 0.1482115702600568 -0.19185905638158951 0 0.14302823833973641 -0.20859536629014311 0 0.15824442335279529 -0.2056019273936916 0 0.15191597835750531 -0.21920593139955921 0 0.14302823833973641 -0.20859536629014311 0 0.1238746239930002 -0.21544896047537199 0 0.137969527379107 -0.22865491809385771 0 0.14302823833973641 -0.20859536629014311 0 0.137969527379107 -0.22865491809385771 0 0.14302823833973641 -0.20859536629014311 0 0.1238746239930002 -0.21544896047537199 0 0.14302823833973641 -0.20859536629014311 0 0.12927803376443761 -0.1913173179555738 0 0.1482115702600568 -0.19185905638158951 0 0.14302823833973641 -0.20859536629014311 0 0.12927803376443761 -0.1913173179555738 0 0.1246049721563162 -0.1737470086758196 0 0.12927803376443761 -0.1913173179555738 0 0.14713298126104651 -0.17278256761880439 0 0.16604511834914101 -0.18837815620589521 0 0.1482115702600568 -0.19185905638158951 0 0.14713298126104651 -0.17278256761880439 0 0.1482115702600568 -0.19185905638158951 0 0.12927803376443761 -0.1913173179555738 0 0.14713298126104651 -0.17278256761880439 0 0.14713298126104651 -0.17278256761880439 0 0.15553768444903029 -0.1591467733724049 0 0.14363368839281809 -0.15230997949919101 0 0.1246049721563162 -0.1737470086758196 0 0.14713298126104651 -0.17278256761880439 0 0.12822084417295199 -0.15718697903171361 0 0.14713298126104651 -0.17278256761880439 0 0.12822084417295199 -0.15718697903171361 0 0.14363368839281809 -0.15230997949919101 0 0.14713298126104651 -0.17278256761880439 0 0.12822084417295199 -0.15718697903171361 0 0.12822084417295199 -0.15718697903171361 0 0.1303612037570929 -0.13887815296178391 0 0.14363368839281809 -0.15230997949919101 0 0.1303612037570929 -0.13887815296178391 0 0.14461561721802171 -0.13807709138713151 0 0.14363368839281809 -0.15230997949919101 0 0.11654158078493 -0.12502076340881341 0 0.14268659157309771 -0.124045724960092 0 0.1303612037570929 -0.13887815296178391 0 0.14268659157309771 -0.124045724960092 0 0.1303612037570929 -0.13887815296178391 0 0.14461561721802171 -0.13807709138713151 0 0.14268659157309771 -0.124045724960092 0 0.16883160236126521 -0.1230706865113679 0 0.1558298916064518 -0.13362874095777549 0 0.14268659157309771 -0.124045724960092 0 0.14461561721802171 -0.13807709138713151 0 0.1558298916064518 -0.13362874095777549 0 0.14461561721802171 -0.13807709138713151 0 0.1558298916064518 -0.13362874095777549 0 0.15687203145734971 -0.14496360612744449 0 0.14461561721802171 -0.13807709138713151 0 0.14363368839281809 -0.15230997949919101 0 0.15687203145734971 -0.14496360612744449 0 0.15553768444903029 -0.1591467733724049 0 0.14363368839281809 -0.15230997949919101 0 0.15687203145734971 -0.14496360612744449 0 0.15553768444903029 -0.1591467733724049 0 0.15687203145734971 -0.14496360612744449 0 0.1711089426147436 -0.1496409484318337 0 0.1711089426147436 -0.1496409484318337 0 0.16614361542252321 -0.1379865958028427 0 0.17458176409601561 -0.1395589836265064 0 0.15687203145734971 -0.14496360612744449 0 0.1711089426147436 -0.1496409484318337 0 0.16614361542252321 -0.1379865958028427 0 0.16883160236126521 -0.1230706865113679 0 0.16614361542252321 -0.1379865958028427 0 0.17458176409601561 -0.1395589836265064 0 0.16883160236126521 -0.1230706865113679 0 0.1558298916064518 -0.13362874095777549 0 0.16614361542252321 -0.1379865958028427 0 0.1558298916064518 -0.13362874095777549 0 0.15687203145734971 -0.14496360612744449 0 0.16614361542252321 -0.1379865958028427 0 0.16883160236126521 -0.1230706865113679 0 0.18456535541514571 -0.1406214683140781 0 0.16883160236126521 -0.1230706865113679 0 0.17458176409601561 -0.1395589836265064 0 0.18456535541514571 -0.1406214683140781 0 0.1918170750488028 -0.1222134782350411 0 0.17844853373966499 -0.13194867301080279 0 0.18456535541514571 -0.1406214683140781 0 0.16883160236126521 -0.1230706865113679 0 0.17844853373966499 -0.13194867301080279 0 0.18456535541514571 -0.1406214683140781 0 0.1818297604359258 -0.12258593995731799 0 0.16883160236126521 -0.1230706865113679 0 0.17844853373966499 -0.13194867301080279 0 0.1818297604359258 -0.12258593995731799 0 0.1918170750488028 -0.1222134782350411 0 0.17844853373966499 -0.13194867301080279 0 0.1818297604359258 -0.12258593995731799 0 0.17844853373966499 -0.13194867301080279 0 0.1711089426147436 -0.1496409484318337 0 0.17888269678947419 -0.15580191900270449 0 0.16902789790950651 -0.1618601662045942 0 0.1711089426147436 -0.1496409484318337 0 0.17888269678947419 -0.15580191900270449 0 0.18225930466639989 -0.1464752190724099 0 0.1711089426147436 -0.1496409484318337 0 0.17458176409601561 -0.1395589836265064 0 0.18225930466639989 -0.1464752190724099 0 0.18456535541514571 -0.1406214683140781 0 0.18225930466639989 -0.1464752190724099 0 0.18667942740771831 -0.1535459437195949 0 0.17458176409601561 -0.1395589836265064 0 0.18456535541514571 -0.1406214683140781 0 0.18225930466639989 -0.1464752190724099 0 0.18456535541514571 -0.1406214683140781 0 0.18225930466639989 -0.1464752190724099 0 0.17888269678947419 -0.15580191900270449 0 0.18225930466639989 -0.1464752190724099 0 0.18667942740771831 -0.1535459437195949 0 0.18773015459379239 -0.16703755052060409 0 0.17335085442968071 -0.17578354322983761 0 0.16902789790950651 -0.1618601662045942 0 0.18773015459379239 -0.16703755052060409 0 0.17888269678947419 -0.15580191900270449 0 0.16902789790950651 -0.1618601662045942 0 0.18773015459379239 -0.16703755052060409 0 0.17888269678947419 -0.15580191900270449 0 0.18667942740771831 -0.1535459437195949 0 0.1904418317500452 -0.19039393737420621 0 0.16604511834914101 -0.18837815620589521 0 0.17335085442968071 -0.17578354322983761 0 0.18773015459379239 -0.16703755052060409 0 0.1904418317500452 -0.19039393737420621 0 0.17335085442968071 -0.17578354322983761 0 0.16604511834914101 -0.18837815620589521 0 0.14713298126104651 -0.17278256761880439 0 0.16604511834914101 -0.18837815620589521 0 0.14713298126104651 -0.17278256761880439 0 0.17335085442968071 -0.17578354322983761 0 0.14713298126104651 -0.17278256761880439 0 0.15553768444903029 -0.1591467733724049 0 0.16902789790950651 -0.1618601662045942 0 0.14713298126104651 -0.17278256761880439 0 0.17335085442968071 -0.17578354322983761 0 0.16902789790950651 -0.1618601662045942 0 0.15553768444903029 -0.1591467733724049 0 0.1711089426147436 -0.1496409484318337 0 0.16902789790950651 -0.1618601662045942 0 
</DataArray>
</Points>
<Cells>
<DataArray type="UInt32" Name="connectivity" format="ascii">
0 1 2 3 4 5 6 7 8 9 10 11 12 13 14 15 16 17 18 19 20 21 22 23 24 25 26 27 28 29 30 31 32 33 34 35 36 37 38 39 40 41 42 43 44 45 46 47 48 49 50 51 52 53 54 55 56 57 58 59 60 61 62 63 64 65 66 67 68 69 70 71 72 73 74 75 76 77 78 79 80 81 82 83 84 85 86 87 88 89 90 91 92 93 94 95 96 97 98 99 100 101 102 103 104 105 106 107 108 109 110 111 112 113 114 115 116 117 118 119 120 121 122 123 124 125 126 127 128 129 130 131 132 133 134 135 136 137 138 139 140 141 142 143 144 145 146 147 148 149 150 151 152 153 154 155 156 157 158 159 160 161 162 163 164 165 166 167 168 169 170 171 172 173 174 175 176 177 178 179 180 181 182 183 184 185 186 187 188 189 190 191 192 193 194 195 196 197 198 199 200 201 202 203 204 205 206 207 208 209 210 211 212 213 214 215 216 217 218 219 220 221 222 223 224 225 226 227 228 229 230 231 232 233 234 235 236 237 238 239 240 241 242 243 244 245 246 247 248 249 250 251 252 253 254 255 256 257 258 259 260 261 262 263 264 265 266 267 268 269 270 271 272 273 274 275 276 277 278 279 280 281 282 283 284 285 286 287 288 289 290 291 292 293 294 295 296 297 298 299 300 301 302 303 304 305 306 307 308 309 310 311 312 313 314 315 316 317 318 319 320 321 322 323 324 325 326 327 328 329 330 331 332 333 334 335 336 337 338 339 340 341 342 343 344 345 346 347 348 349 350 351 352 353 354 355 356 357 358 359 360 361 362 363 364 365 366 367 368 369 370 371 372 373 374 375 376 377 378 379 380 381 382 383 384 385 386 387 388 389 390 391 392 393 394 395 396 397 398 399 400 401 402 403 404 405 406 407 408 409 410 411 412 413 414 415 416 417 418 419 420 421 422 423 424 425 426 427 428 429 430 431 432 433 434 435 436 437 438 439 440 441 442 443 444 445 446 447 448 449 450 451 452 453 454 455 456 457 458 459 460 461 462 463 464 465 466 467 468 469 470 471 472 473 474 475 476 477 478 479 480 481 482 483 484 485 486 487 488 489 490 491 492 493 494 495 496 497 498 499 500 501 502 503 504 505 506 507 508 509 510 511 512 513 514 515 516 517 518 519 520 521 522 523 524 525 526 527 528 529 530 531 532 533 534 535 536 537 538 539 540 541 542 543 544 545 546 547 548 549 550 551 552 553 554 555 556 557 558 559 560 561 562 563 564 565 566 567 568 569 570 571 572 573 574 575 576 577 578 579 580 581 582 583 584 585 586 587 588 589 590 591 592 593 594 595 596 597 598 599 600 601 602 603 604 605 606 607 608 609 610 611 612 613 614 615 616 617 618 619 620 621 622 623 624 625 626 627 628 629 630 631 632 633 634 635 636 637 638 639 640 641 642 643 644 645 646 647 648 649 650 651 652 653 654 655 656 657 658 659 660 661 662 663 664 665 666 667 668 669 670 671 672 673 674 675 676 677 678 679 680 681 682 683 684 685 686 687 688 689 690 691 692 693 694 695 696 697 698 699 700 701 702 703 704 705 706 707 708 709 710 711 712 713 714 715 716 717 718 719 720 721 722 723 724 725 726 727 728 729 730 731 732 733 734 735 736 737 738 739 740 741 742 743 744 745 746 747 748 749 750 751 752 753 754 755 756 757 758 759 760 761 762 763 764 765 766 767 768 769 770 771 772 773 774 775 776 777 778 779 780 781 782 783 784 785 786 787 788 789 790 791 792 793 794 795 796 797 798 799 800 801 802 803 804 805 806 807 808 809 810 811 812 813 814 815 816 817 818 819 820 821 822 823 824 825 826 827 828 829 830 831 832 833 834 835 836 837 838 839 840 841 842 843 844 845 846 847 848 849 850 851 852 853 854 855 856 857 858 859 860 861 862 863 864 865 866 867 868 869 870 871 872 873 874 875 876 877 878 879 880 881 882 883 884 885 886 887 888 889 890 891 892 893 894 895 896 897 898 899 900 901 902 903 904 905 906 907 908 909 910 911 912 913 914 915 916 917 918 919 920 921 922 923 924 925 926 927 928 929 930 931 932 933 934 935 936 937 938 939 940 941 942 943 944 945 946 947 948 949 950 951 952 953 954 955 956 957 958 959 960 961 962 963 964 965 966 967 968 969 970 971 972 973 974 975 976 977 978 979 980 981 982 983 984 985 986 987 988 989 990 991 992 993 994 995 996 997 998 999 1000 1001 1002 1003 1004 1005 1006 1007 1008 1009 1010 1011 1012 1013 1014 1015 1016 1017 1018 1019 1020 1021 1022 1023 1024 1025 1026 1027 1028 1029 1030 1031 1032 1033 1034 1035 1036 1037 1038 1039 1040 1041 1042 1043 1044 1045 1046 1047 1048 1049 1050 1051 1052 1053 1054 1055 1056 1057 1058 1059 1060 1061 1062 1063 1064 1065 1066 1067 1068 1069 1070 1071 1072 1073 1074 1075 1076 1077 1078 1079 1080 1081 1082 1083 1084 1085 1086 1087 1088 1089 1090 1091 1092 1093 1094 1095 1096 1097 1098 1099 1100 1101 1102 1103 1104 1105 1106 1107 1108 1109 1110 1111 1112 1113 1114 1115 1116 1117 1118 1119 1120 1121 1122 1123 1124 1125 1126 1127 1128 1129 1130 1131 1132 1133 1134 1135 1136 1137 1138 1139 1140 1141 1142 1143 1144 1145 1146 1147 1148 1149 1150 1151 1152 1153 1154 1155 1156 1157 1158 1159 1160 1161 1162 1163 1164 1165 1166 1167 1168 1169 1170 1171 1172 1173 1174 1175 1176 1177 1178 1179 1180 1181 1182 1183 1184 1185 1186 1187 1188 1189 1190 1191 1192 1193 1194 1195 1196 1197 1198 1199 1200 1201 1202 1203 1204 1205 1206 1207 1208 1209 1210 1211 1212 1213 1214 1215 1216 1217 1218 1219 1220 1221 1222 1223 1224 1225 1226 1227 1228 1229 1230 1231 1232 1233 1234 1235 1236 1237 1238 1239 1240 1241 1242 1243 1244 1245 1246 1247 1248 1249 1250 1251 1252 1253 1254 1255 1256 1257 1258 1259 1260 1261 1262 1263 1264 1265 1266 1267 1268 1269 1270 1271 1272 1273 1274 1275 1276 1277 1278 1279 1280 1281 1282 1283 1284 1285 1286 1287 1288 1289 1290 1291 1292 1293 1294 1295 1296 1297 1298 1299 1300 1301 1302 1303 1304 1305 1306 1307 1308 1309 1310 1311 1312 1313 1314 1315 1316 1317 1318 1319 1320 1321 1322 1323 1324 1325 1326 1327 1328 1329 1330 1331 1332 1333 1334 1335 1336 1337 1338 1339 1340 1341 1342 1343 1344 1345 1346 1347 1348 1349 1350 1351 1352 1353 1354 1355 1356 1357 1358 1359 1360 1361 1362 1363 1364 1365 1366 1367 1368 1369 1370 1371 1372 1373 1374 1375 1376 1377 1378 1379 1380 1381 1382 1383 1384 1385 1386 1387 1388 1389 1390 1391 1392 1393 1394 1395 1396 1397 1398 1399 1400 1401 1402 1403 1404 1405 1406 1407 1408 1409 1410 1411 1412 1413 1414 1415 1416 1417 1418 1419 1420 1421 1422 1423 1424 1425 1426 1427 1428 1429 1430 1431 1432 1433 1434 1435 1436 1437 1438 1439 1440 1441 1442 1443 1444 1445 1446 1447 1448 1449 1450 1451 1452 1453 1454 1455 1456 1457 1458 1459 1460 1461 1462 1463 1464 1465 1466 1467 1468 1469 1470 1471 1472 1473 1474 1475 1476 1477 1478 1479 1480 1481 1482 1483 1484 1485 1486 1487 1488 1489 1490 1491 1492 1493 1494 1495 1496 1497 1498 1499 1500 1501 1502 1503 1504 1505 1506 1507 1508 1509 1510 1511 1512 1513 1514 1515 1516 1517 1518 1519 1520 1521 1522 1523 1524 1525 1526 1527 1528 1529 1530 1531 1532 1533 1534 1535 1536 1537 1538 1539 1540 1541 1542 1543 1544 1545 1546 1547 1548 1549 1550 1551 1552 1553 1554 1555 1556 1557 1558 1559 1560 1561 1562 1563 1564 1565 1566 1567 1568 1569 1570 1571 1572 1573 1574 1575 1576 1577 1578 1579 1580 1581 1582 1583 1584 1585 1586 1587 1588 1589 1590 1591 1592 1593 1594 1595 1596 1597 1598 1599 1600 1601 1602 1603 1604 1605 1606 1607 1608 1609 1610 1611 1612 1613 1614 1615 1616 1617 1618 1619 1620 1621 1622 1623 1624 1625 1626 1627 1628 1629 1630 1631 1632 1633 1634 1635 1636 1637 1638 1639 1640 1641 1642 1643 1644 1645 1646 1647 1648 1649 1650 1651 1652 1653 1654 1655 1656 1657 1658 1659 1660 1661 1662 1663 1664 1665 1666 1667 1668 1669 1670 1671 1672 1673 1674 1675 1676 1677 1678 1679 1680 1681 1682 1683 1684 1685 1686 1687 1688 1689 1690 1691 1692 1693 1694 1695 1696 1697 1698 1699 1700 1701 1702 1703 1704 1705 1706 1707 1708 1709 1710 1711 1712 1713 1714 1715 1716 1717 1718 1719 1720 1721 1722 1723 1724 1725 1726 1727 1728 1729 1730 1731 1732 1733 1734 1735 1736 1737 1738 1739 1740 1741 1742 1743 1744 1745 1746 1747 1748 1749 1750 1751 1752 1753 1754 1755 1756 1757 1758 1759 1760 1761 1762 1763 1764 1765 1766 1767 1768 1769 1770 1771 1772 1773 1774 1775 1776 1777 1778 1779 1780 1781 1782 1783 1784 1785 1786 1787 1788 1789 1790 1791 1792 1793 1794 1795 1796 1797 1798 1799 1800 1801 1802 1803 1804 1805 1806 1807 1808 1809 1810 1811 1812 1813 1814 1815 1816 1817 1818 1819 1820 1821 1822 1823 1824 1825 1826 1827 1828 1829 1830 1831 1832 1833 1834 1835 1836 1837 1838 1839 1840 1841 1842 1843 1844 1845 1846 1847 1848 1849 1850 1851 1852 1853 1854 1855 1856 1857 1858 1859 1860 1861 1862 1863 1864 1865 1866 1867 1868 1869 1870 1871 1872 1873 1874 1875 1876 1877 1878 1879 1880 1881 1882 1883 1884 1885 1886 1887 1888 1889 1890 1891 1892 1893 1894 1895 1896 1897 1898 1899 1900 1901 1902 1903 1904 1905 1906 1907 1908 1909 1910 1911 1912 1913 1914 1915 1916 1917 1918 1919 1920 1921 1922 1923 1924 1925 1926 1927 1928 1929 1930 1931 1932 1933 1934 1935 1936 1937 1938 1939 1940 1941 1942 1943 1944 1945 1946 1947 1948 1949 1950 1951 1952 1953 1954 1955 1956 1957 1958 1959 1960 1961 1962 1963 1964 1965 1966 1967 1968 1969 1970 1971 1972 1973 1974 1975 1976 1977 1978 1979 1980 1981 1982 1983 1984 1985 1986 1987 1988 1989 1990 1991 1992 1993 1994 1995 1996 1997 1998 1999 2000 2001 2002 2003 2004 2005 2006 2007 2008 2009 2010 2011 2012 2013 2014 2015 2016 2017 2018 2019 2020 2021 2022 2023 2024 2025 2026 2027 2028 2029 2030 2031 2032 2033 2034 2035 2036 2037 2038 2039 2040 2041 2042 2043 2044 2045 2046 2047 2048 2049 2050 2051 2052 2053 2054 2055 2056 2057 2058 2059 2060 2061 2062 2063 2064 2065 2066 2067 2068 2069 2070 2071 2072 2073 2074 2075 2076 2077 2078 2079 2080 2081 2082 2083 2084 2085 2086 2087 2088 2089 2090 2091 2092 2093 2094 2095 2096 2097 2098 2099 2100 2101 2102 2103 2104 2105 2106 2107 2108 2109 2110 2111 2112 2113 2114 2115 2116 2117 2118 2119 2120 2121 2122 2123 2124 2125 2126 2127 2128 2129 2130 2131 2132 2133 2134 2135 2136 2137 2138 2139 2140 2141 2142 2143 2144 2145 2146 2147 2148 2149 2150 2151 2152 2153 2154 2155 2156 2157 2158 2159 2160 2161 2162 2163 2164 2165 2166 2167 2168 2169 2170 2171 2172 2173 2174 2175 2176 2177 2178 2179 2180 2181 2182 2183 2184 2185 2186 2187 2188 2189 2190 2191 2192 2193 2194 2195 2196 2197 2198 2199 2200 2201 2202 2203 2204 2205 2206 2207 2208 2209 2210 2211 2212 2213 2214 2215 2216 2217 2218 2219 2220 2221 2222 2223 2224 2225 2226 2227 2228 2229 2230 2231 2232 2233 2234 2235 2236 2237 2238 2239 2240 2241 2242 2243 2244 2245 2246 2247 2248 2249 2250 2251 2252 2253 2254 2255 2256 2257 2258 2259 2260 2261 2262 2263 2264 2265 2266 2267 2268 2269 2270 2271 2272 2273 2274 2275 2276 2277 2278 2279 2280 2281 2282 2283 2284 2285 2286 2287 2288 2289 2290 2291 2292 2293 2294 2295 2296 2297 2298 2299 2300 2301 2302 2303 2304 2305 2306 2307 2308 2309 2310 2311 2312 2313 2314 2315 2316 2317 2318 2319 2320 2321 2322 2323 2324 2325 2326 2327 2328 2329 2330 2331 2332 2333 2334 2335 2336 2337 2338 2339 2340 2341 2342 2343 2344 2345 2346 2347 2348 2349 2350 2351 2352 2353 2354 2355 2356 2357 2358 2359 2360 2361 2362 2363 2364 2365 2366 2367 2368 2369 2370 2371 2372 2373 2374 2375 2376 2377 2378 2379 2380 2381 2382 2383 2384 2385 2386 2387 2388 2389 2390 2391 2392 2393 2394 2395 2396 2397 2398 2399 2400 2401 2402 2403 2404 2405 2406 2407 2408 2409 2410 2411 2412 2413 2414 2415 2416 2417 2418 2419 2420 2421 2422 2423 2424 2425 2426 2427 2428 2429 2430 2431 2432 2433 2434 2435 2436 2437 2438 2439 2440 2441 2442 2443 2444 2445 2446 2447 2448 2449 2450 2451 2452 2453 2454 2455 2456 2457 2458 2459 2460 2461 2462 2463 2464 2465 2466 2467 2468 2469 2470 2471 2472 2473 2474 2475 2476 2477 2478 2479 2480 2481 2482 2483 2484 2485 2486 2487 2488 2489 2490 2491 2492 2493 2494 2495 2496 2497 2498 2499 2500 2501 2502 2503 2504 2505 2506 2507 2508 2509 2510 2511 2512 2513 2514 2515 2516 2517 2518 2519 2520 2521 2522 2523 2524 2525 2526 2527 2528 2529 2530 2531 2532 2533 2534 2535 2536 2537 2538 2539 2540 2541 2542 2543 2544 2545 2546 2547 2548 2549 2550 2551 2552 2553 2554 2555 2556 2557 2558 2559 2560 2561 2562 2563 2564 2565 2566 2567 2568 2569 2570 2571 2572 2573 2574 2575 2576 2577 2578 2579 2580 2581 2582 2583 2584 2585 2586 2587 2588 2589 2590 2591 2592 2593 2594 2595 2596 2597 2598 2599 2600 2601 2602 2603 2604 2605 2606 2607 2608 2609 2610 2611 2612 2613 2614 2615 2616 2617 2618 2619 2620 2621 2622 2623 2624 2625 2626 2627 2628 2629 2630 2631 2632 2633 2634 2635 2636 2637 2638 2639 2640 2641 2642 2643 2644 2645 2646 2647 2648 2649 2650 2651 2652 2653 2654 2655 2656 2657 2658 2659 2660 2661 2662 2663 2664 2665 2666 2667 2668 2669 2670 2671 2672 2673 2674 2675 2676 2677 2678 2679 2680 2681 2682 2683 2684 2685 2686 2687 2688 2689 2690 2691 2692 2693 2694 2695 2696 2697 2698 2699 2700 2701 2702 2703 2704 2705 2706 2707 2708 2709 2710 2711 2712 2713 2714 2715 2716 2717 2718 2719 2720 2721 2722 2723 2724 2725 2726 2727 2728 2729 2730 2731 2732 2733 2734 2735 2736 2737 2738 2739 2740 2741 2742 2743 2744 2745 2746 2747 2748 2749 2750 2751 2752 2753 2754 2755 2756 2757 2758 2759 2760 2761 2762 2763 2764 2765 2766 2767 2768 2769 2770 2771 2772 2773 2774 2775 2776 2777 2778 2779 2780 2781 2782 2783 2784 2785 2786 2787 2788 2789 2790 2791 2792 2793 2794 2795 2796 2797 2798 2799 2800 2801 2802 2803 2804 2805 2806 2807 2808 2809 2810 2811 2812 2813 2814 2815 2816 2817 2818 2819 2820 2821 2822 2823 2824 2825 2826 2827 2828 2829 2830 2831 2832 2833 2834 2835 2836 2837 2838 2839 2840 2841 2842 2843 2844 2845 2846 2847 2848 2849 2850 2851 2852 2853 2854 2855 2856 2857 2858 2859 2860 2861 2862 2863 2864 2865 2866 2867 2868 2869 2870 2871 2872 2873 2874 2875 2876 2877 2878 2879 2880 2881 2882 2883 2884 2885 2886 2887 2888 2889 2890 2891 2892 2893 2894 2895 2896 2897 2898 2899 2900 2901 2902 2903 2904 2905 2906 2907 2908 2909 2910 2911 2912 2913 2914 2915 2916 2917 2918 2919 2920 2921 2922 2923 2924 2925 2926 2927 2928 2929 2930 2931 2932 2933 2934 2935 2936 2937 2938 2939 2940 2941 2942 2943 2944 2945 2946 2947 2948 2949 2950 2951 2952 2953 2954 2955 2956 2957 2958 2959 2960 2961 2962 2963 2964 2965 2966 2967 2968 2969 2970 2971 2972 2973 2974 2975 2976 2977 2978 2979 2980 2981 2982 2983 2984 2985 2986 2987 2988 2989 2990 2991 2992 2993 2994 2995 2996 2997 2998 2999 3000 3001 3002 3003 3004 3005 3006 3007 3008 3009 3010 3011 3012 3013 3014 3015 3016 3017 3018 3019 3020 3021 3022 3023 3024 3025 3026 3027 3028 3029 3030 3031 3032 3033 3034 3035 3036 3037 3038 3039 3040 3041 3042 3043 3044 3045 3046 3047 3048 3049 3050 3051 3052 3053 3054 3055 3056 3057 3058 3059 3060 3061 3062 3063 3064 3065 3066 3067 3068 3069 3070 3071 3072 3073 3074 3075 3076 3077 3078 3079 3080 3081 3082 3083 3084 3085 3086 3087 3088 3089 3090 3091 3092 3093 3094 3095 3096 3097 3098 3099 3100 3101 3102 3103 3104 3105 3106 3107 3108 3109 3110 3111 3112 3113 3114 3115 3116 3117 3118 3119 3120 3121 3122 3123 3124 3125 3126 3127 3128 3129 3130 3131 3132 3133 3134 3135 3136 3137 3138 3139 3140 3141 3142 3143 3144 3145 3146 3147 3148 3149 3150 3151 3152 3153 3154 3155 3156 3157 3158 3159 3160 3161 3162 3163 3164 3165 3166 3167 3168 3169 3170 3171 3172 3173 3174 3175 3176 3177 3178 3179 3180 3181 3182 3183 3184 3185 3186 3187 3188 3189 3190 3191 3192 3193 3194 3195 3196 3197 3198 3199 3200 3201 3202 3203 3204 3205 3206 3207 3208 3209 3210 3211 3212 3213 3214 3215 3216 3217 3218 3219 3220 3221 3222 3223 3224 3225 3226 3227 3228 3229 3230 3231 3232 3233 3234 3235 3236 3237 3238 3239 3240 3241 3242 3243 3244 3245 3246 3247 3248 3249 3250 3251 3252 3253 3254 3255 3256 3257 3258 3259 3260 3261 3262 3263 3264 3265 3266 3267 3268 3269 3270 3271 3272 3273 3274 3275 3276 3277 3278 3279 3280 3281 3282 3283 3284 3285 3286 3287 3288 3289 3290 3291 3292 3293 3294 3295 3296 3297 3298 3299 3300 3301 3302 3303 3304 3305 3306 3307 3308 3309 3310 3311 3312 3313 3314 3315 3316 3317 3318 3319 3320 3321 3322 3323 3324 3325 3326 3327 3328 3329 3330 3331 3332 3333 3334 3335 3336 3337 3338 3339 3340 3341 3342 3343 3344 3345 3346 3347 3348 3349 3350 3351 3352 3353 3354 3355 3356 3357 3358 3359 3360 3361 3362 3363 3364 3365 3366 3367 3368 3369 3370 3371 3372 3373 3374 3375 3376 3377 3378 3379 3380 3381 3382 3383 3384 3385 3386 3387 3388 3389 3390 3391 3392 3393 3394 3395 3396 3397 3398 3399 3400 3401 3402 3403 3404 3405 3406 3407 3408 3409 3410 3411 3412 3413 3414 3415 3416 3417 3418 3419 3420 3421 3422 3423 3424 3425 3426 3427 3428 3429 3430 3431 3432 3433 3434 3435 3436 3437 3438 3439 3440 3441 3442 3443 3444 3445 3446 3447 3448 3449 3450 3451 3452 3453 3454 3455 3456 3457 3458 3459 3460 3461 3462 3463 3464 3465 3466 3467 3468 3469 3470 3471 3472 3473 3474 3475 3476 3477 3478 3479 3480 3481 3482 3483 3484 3485 3486 3487 3488 3489 3490 3491 3492 3493 3494 3495 3496 3497 3498 3499 3500 3501 3502 3503 3504 3505 3506 3507 3508 3509 3510 3511 3512 3513 3514 3515 3516 3517 3518 3519 3520 3521 3522 3523 3524 3525 3526 3527 3528 3529 3530 3531 3532 3533 3534 3535 3536 3537 3538 3539 3540 3541 3542 3543 3544 3545 3546 3547 3548 3549 3550 3551 3552 3553 3554 3555 3556 3557 3558 3559 3560 3561 3562 3563 3564 3565 3566 3567 3568 3569 3570 3571 3572 3573 3574 3575 3576 3577 3578 3579 3580 3581 3582 3583 3584 3585 3586 3587 3588 3589 3590 3591 3592 3593 3594 3595 3596 3597 3598 3599 3600 3601 3602 3603 3604 3605 3606 3607 3608 3609 3610 3611 3612 3613 3614 3615 3616 3617 3618 3619 3620 3621 3622 3623 3624 3625 3626 3627 3628 3629 3630 3631 3632 3633 3634 3635 3636 3637 3638 3639 3640 3641 3642 3643 3644 3645 3646 3647 3648 3649 3650 3651 3652 3653 3654 3655 3656 3657 3658 3659 3660 3661 3662 3663 3664 3665 3666 3667 3668 3669 3670 3671 3672 3673 3674 3675 3676 3677 3678 3679 3680 3681 3682 3683 3684 3685 3686 3687 3688 3689 3690 3691 3692 3693 3694 3695 3696 3697 3698 3699 3700 3701 3702 3703 3704 3705 3706 3707 3708 3709 3710 3711 3712 3713 3714 3715 3716 3717 3718 3719 3720 3721 3722 3723 3724 3725 3726 3727 3728 3729 3730 3731 3732 3733 3734 3735 3736 3737 3738 3739 3740 3741 3742 3743 3744 3745 3746 3747 3748 3749 3750 3751 3752 3753 3754 3755 3756 3757 3758 3759 3760 3761 3762 3763 3764 3765 3766 3767 3768 3769 3770 3771 3772 3773 3774 3775 3776 3777 3778 3779 3780 3781 3782 3783 3784 3785 3786 3787 3788 3789 3790 3791 3792 3793 3794 3795 3796 3797 3798 3799 3800 3801 3802 3803 3804 3805 3806 3807 3808 3809 3810 3811 3812 3813 3814 3815 3816 3817 3818 3819 3820 3821 3822 3823 3824 3825 3826 3827 3828 3829 3830 3831 3832 3833 3834 3835 3836 3837 3838 3839 3840 3841 3842 3843 3844 3845 3846 3847 3848 3849 3850 3851 3852 3853 3854 3855 3856 3857 3858 3859 3860 3861 3862 3863 3864 3865 3866 3867 3868 3869 3870 3871 3872 3873 3874 3875 3876 3877 3878 3879 3880 3881 3882 3883 3884 3885 3886 3887 3888 3889 3890 3891 3892 3893 3894 3895 3896 3897 3898 3899 3900 3901 3902 3903 3904 3905 3906 3907 3908 3909 3910 3911 3912 3913 3914 3915 3916 3917 3918 3919 3920 3921 3922 3923 3924 3925 3926 3927 3928 3929 3930 3931 3932 3933 3934 3935 3936 3937 3938 3939 3940 3941 3942 3943 3944 3945 3946 3947 3948 3949 3950 3951 3952 3953 3954 3955 3956 3957 3958 3959 3960 3961 3962 3963 3964 3965 3966 3967 3968 3969 3970 3971 3972 3973 3974 3975 3976 3977 3978 3979 3980 3981 3982 3983 3984 3985 3986 3987 3988 3989 3990 3991 3992 3993 3994 3995 3996 3997 3998 3999 4000 4001 4002 4003 4004 4005 4006 4007 4008 4009 4010 4011 4012 4013 4014 4015 4016 4017 4018 4019 4020 4021 4022 4023 4024 4025 4026 4027 4028 4029 4030 4031 4032 4033 4034 4035 4036 4037 4038 4039 4040 4041 4042 4043 4044 4045 4046 4047 4048 4049 4050 4051 4052 4053 4054 4055 4056 4057 4058 4059 4060 4061 4062 4063 4064 4065 4066 4067 4068 4069 4070 4071 4072 4073 4074 4075 4076 4077 4078 4079 4080 4081 4082 4083 4084 4085 4086 4087 4088 4089 4090 4091 4092 4093 4094 4095 4096 4097 4098 4099 4100 4101 4102 4103 4104 4105 4106 4107 4108 4109 4110 4111 4112 4113 4114 4115 4116 4117 4118 4119 4120 4121 4122 4123 4124 4125 4126 4127 4128 4129 4130 4131 4132 4133 4134 4135 4136 4137 4138 4139 4140 4141 4142 4143 4144 4145 4146 4147 4148 4149 4150 4151 4152 4153 4154 4155 4156 4157 4158 4159 4160 4161 4162 4163 4164 4165 4166 4167 4168 4169 4170 4171 4172 4173 4174 4175 4176 4177 4178 4179 4180 4181 4182 4183 4184 4185 4186 4187 4188 4189 4190 4191 4192 4193 4194 4195 4196 4197 4198 4199 4200 4201 4202 4203 4204 4205 4206 4207 4208 4209 4210 4211 4212 4213 4214 4215 4216 4217 4218 4219 4220 4221 4222 4223 4224 4225 4226 4227 4228 4229 4230 4231 4232 4233 4234 4235 4236 4237 4238 4239 4240 4241 4242 4243 4244 4245 4246 4247 4248 4249 4250 4251 4252 4253 4254 4255 4256 4257 4258 4259 4260 4261 4262 4263 4264 4265 4266 4267 4268 4269 4270 4271 4272 4273 4274 4275 4276 4277 4278 4279 4280 4281 4282 4283 4284 4285 4286 4287 4288 4289 4290 4291 4292 4293 4294 4295 4296 4297 4298 4299 4300 4301 4302 4303 4304 4305 4306 4307 4308 4309 4310 4311 4312 4313 4314 4315 4316 4317 4318 4319 4320 4321 4322 4323 4324 4325 4326 4327 4328 4329 4330 4331 4332 4333 4334 4335 4336 4337 4338 4339 4340 4341 4342 4343 4344 4345 4346 4347 4348 4349 4350 4351 4352 4353 4354 4355 4356 4357 4358 4359 4360 4361 4362 4363 4364 4365 4366 4367 4368 4369 4370 4371 4372 4373 4374 4375 4376 4377 4378 4379 4380 4381 4382 4383 4384 4385 4386 4387 4388 4389 4390 4391 4392 4393 4394 4395 4396 4397 4398 4399 4400 4401 4402 4403 4404 4405 4406 4407 4408 4409 4410 4411 4412 4413 4414 4415 4416 4417 4418 4419 4420 4421 4422 4423 4424 4425 4426 4427 4428 4429 4430 4431 4432 4433 4434 4435 4436 4437 4438 4439 4440 4441 4442 4443 4444 4445 4446 4447 4448 4449 4450 4451 4452 4453 4454 4455 4456 4457 4458 4459 4460 4461 4462 4463 4464 4465 4466 4467 4468 4469 4470 4471 4472 4473 4474 4475 4476 4477 4478 4479 4480 4481 4482 4483 4484 4485 4486 4487 4488 4489 4490 4491 4492 4493 4494 4495 4496 4497 4498 4499 4500 4501 4502 4503 4504 4505 4506 4507 4508 4509 4510 4511 4512 4513 4514 4515 4516 4517 4518 4519 4520 4521 4522 4523 4524 4525 4526 4527 4528 4529 4530 4531 4532 4533 4534 4535 4536 4537 4538 4539 4540 4541 4542 4543 4544 4545 4546 4547 4548 4549 4550 4551 4552 4553 4554 4555 4556 4557 4558 4559 4560 4561 4562 4563 4564 4565 4566 4567 4568 4569 4570 4571 4572 4573 4574 4575 4576 4577 4578 4579 4580 4581 4582 4583 4584 4585 4586 4587 4588 4589 4590 4591 4592 4593 4594 4595 4596 4597 4598 4599 4600 4601 4602 4603 4604 4605 4606 4607 4608 4609 4610 4611 4612 4613 4614 4615 4616 4617 4618 4619 4620 4621 4622 4623 4624 4625 4626 4627 4628 4629 4630 4631 4632 4633 4634 4635 4636 4637 4638 4639 4640 4641 4642 4643 4644 4645 4646 4647 4648 4649 4650 4651 4652 4653 4654 4655 4656 4657 4658 4659 4660 4661 4662 4663 4664 4665 4666 4667 4668 4669 4670 4671 4672 4673 4674 4675 4676 4677 4678 4679 4680 4681 4682 4683 4684 4685 4686 4687 4688 4689 4690 4691 4692 4693 4694 4695 4696 4697 4698 4699 4700 4701 4702 4703 4704 4705 4706 4707 4708 4709 4710 4711 4712 4713 4714 4715 4716 4717 4718 4719 4720 4721 4722 4723 4724 4725 4726 4727 4728 4729 4730 4731 4732 4733 4734 4735 4736 4737 4738 4739 4740 4741 4742 4743 4744 4745 4746 4747 4748 4749 4750 4751 4752 4753 4754 4755 4756 4757 4758 4759 4760 4761 4762 4763 4764 4765 4766 4767 4768 4769 4770 4771 4772 4773 4774 4775 4776 4777 4778 4779 4780 4781 4782 4783 4784 4785 4786 4787 4788 4789 4790 4791 4792 4793 4794 4795 4796 4797 4798 4799 4800 4801 4802 4803 4804 4805 4806 4807 4808 4809 4810 4811 4812 4813 4814 4815 4816 4817 4818 4819 4820 4821 4822 4823 4824 4825 4826 4827 4828 4829 4830 4831 4832 4833 4834 4835 4836 4837 4838 4839 4840 4841 4842 4843 4844 4845 4846 4847 4848 4849 4850 4851 4852 4853 4854 4855 4856 4857 4858 4859 4860 4861 4862 4863 4864 4865 4866 4867 4868 4869 4870 4871 4872 4873 4874 4875 4876 4877 4878 4879 4880 4881 4882 4883 4884 4885 4886 4887 4888 4889 4890 4891 4892 4893 4894 4895 4896 4897 4898 4899 4900 4901 4902 4903 4904 4905 4906 4907 4908 4909 4910 4911 4912 4913 4914 4915 4916 4917 4918 4919 4920 4921 4922 4923 4924 4925 4926 4927 4928 4929 4930 4931 4932 4933 4934 4935 4936 4937 4938 4939 4940 4941 4942 4943 4944 4945 4946 4947 4948 4949 4950 4951 4952 4953 4954 4955 4956 4957 4958 4959 4960 4961 4962 4963 4964 4965 4966 4967 4968 4969 4970 4971 4972 4973 4974 4975 4976 4977 4978 4979 4980 4981 4982 4983 4984 4985 4986 4987 4988 4989 4990 4991 4992 4993 4994 4995 4996 4997 4998 4999 5000 5001 5002 5003 5004 5005 5006 5007 5008 5009 5010 5011 5012 5013 5014 5015 5016 5017 5018 5019 5020 5021 5022 5023 5024 5025 5026 5027 5028 5029 5030 5031 5032 5033 5034 5035 5036 5037 5038 5039 5040 5041 5042 5043 5044 5045 5046 5047 5048 5049 5050 5051 5052 5053 5054 5055 5056 5057 5058 5059 5060 5061 5062 5063 5064 5065 5066 5067 5068 5069 5070 5071 5072 5073 5074 5075 5076 5077 5078 5079 5080 5081 5082 5083 5084 5085 5086 5087 5088 5089 5090 5091 5092 5093 5094 5095 5096 5097 5098 5099 5100 5101 5102 5103 5104 5105 5106 5107 5108 5109 5110 5111 5112 5113 5114 5115 5116 5117 5118 5119 5120 5121 5122 5123 5124 5125 5126 5127 5128 5129 5130 5131 5132 5133 5134 5135 5136 5137 5138 5139 5140 5141 5142 5143 5144 5145 5146 5147 5148 5149 5150 5151 5152 5153 5154 5155 5156 5157 5158 5159 5160 5161 5162 5163 5164 5165 5166 5167 5168 5169 5170 5171 5172 5173 5174 5175 5176 5177 5178 5179 5180 5181 5182 5183 5184 5185 5186 5187 5188 5189 5190 5191 5192 5193 5194 5195 5196 5197 5198 5199 5200 5201 5202 5203 5204 5205 5206 5207 5208 5209 5210 5211 5212 5213 5214 5215 5216 5217 5218 5219 5220 5221 5222 5223 5224 5225 5226 5227 5228 5229 5230 5231 5232 5233 5234 5235 5236 5237 5238 5239 5240 5241 5242 5243 5244 5245 5246 5247 5248 5249 5250 5251 5252 5253 5254 5255 5256 5257 5258 5259 5260 5261 5262 5263 5264 5265 5266 5267 5268 5269 5270 5271 5272 5273 5274 5275 5276 5277 5278 5279 5280 5281 5282 5283 5284 5285 5286 5287 5288 5289 5290 5291 5292 5293 5294 5295 5296 5297 5298 5299 5300 5301 5302 5303 5304 5305 5306 5307 5308 5309 5310 5311 5312 5313 5314 5315 5316 5317 5318 5319 5320 5321 5322 5323 5324 5325 5326 5327 5328 5329 5330 5331 5332 5333 5334 5335 5336 5337 5338 5339 5340 5341 5342 5343 5344 5345 5346 5347 5348 5349 5350 5351 5352 5353 5354 5355 5356 5357 5358 5359 5360 5361 5362 5363 5364 5365 5366 5367 5368 5369 5370 5371 5372 5373 5374 5375 5376 5377 5378 5379 5380 5381 5382 5383 5384 5385 5386 5387 5388 5389 5390 5391 5392 5393 5394 5395 5396 5397 5398 5399 5400 5401 5402 5403 5404 5405 5406 5407 5408 5409 5410 5411 5412 5413 5414 5415 5416 5417 5418 5419 5420 5421 5422 5423 5424 5425 5426 5427 5428 5429 5430 5431 5432 5433 5434 5435 5436 5437 5438 5439 5440 5441 5442 5443 5444 5445 5446 5447 5448 5449 5450 5451 5452 5453 5454 5455 5456 5457 5458 5459 5460 5461 5462 5463 5464 5465 5466 5467 5468 5469 5470 5471 5472 5473 5474 5475 5476 5477 5478 5479 5480 5481 5482 5483 5484 5485 5486 5487 5488 5489 5490 5491 5492 5493 5494 5495 5496 5497 5498 5499 5500 5501 5502 5503 5504 5505 5506 5507 5508 5509 5510 5511 5512 5513 5514 5515 5516 5517 5518 5519 5520 5521 5522 5523 5524 5525 5526 5527 5528 5529 5530 5531 5532 5533 5534 5535 5536 5537 5538 5539 5540 5541 5542 5543 5544 5545 5546 5547 5548 5549 5550 5551 5552 5553 5554 5555 5556 5557 5558 5559 5560 5561 5562 5563 5564 5565 5566 5567 5568 5569 5570 5571 5572 5573 5574 5575 5576 5577 5578 5579 5580 5581 5582 5583 5584 5585 5586 5587 5588 5589 5590 5591 5592 5593 5594 5595 5596 5597 5598 5599 5600 5601 5602 5603 5604 5605 5606 5607 5608 5609 5610 5611 5612 5613 5614 5615 5616 5617 5618 5619 5620 5621 5622 5623 5624 5625 5626 5627 5628 5629 5630 5631 5632 5633 5634 5635 5636 5637 5638 5639 5640 5641 5642 5643 5644 5645 5646 5647 5648 5649 5650 5651 5652 5653 5654 5655 5656 5657 5658 5659 5660 5661 5662 5663 5664 5665 5666 5667 5668 5669 5670 5671 5672 5673 5674 5675 5676 5677 5678 5679 5680 5681 5682 5683 5684 5685 5686 5687 5688 5689 5690 5691 5692 5693 5694 5695 5696 5697 5698 5699 5700 5701 5702 5703 5704 5705 5706 5707 5708 5709 5710 5711 5712 5713 5714 5715 5716 5717 5718 5719 5720 5721 5722 5723 5724 5725 5726 5727 5728 5729 5730 5731 5732 5733 5734 5735 5736 5737 5738 5739 5740 5741 5742 5743 5744 5745 5746 5747 5748 5749 5750 5751 5752 5753 5754 5755 5756 5757 5758 5759 5760 5761 5762 5763 5764 5765 5766 5767 5768 5769 5770 5771 5772 5773 5774 5775 5776 5777 5778 5779 5780 5781 5782 5783 5784 5785 5786 5787 5788 5789 5790 5791 5792 5793 5794 5795 5796 5797 5798 5799 5800 5801 5802 5803 5804 5805 5806 5807 5808 5809 5810 5811 5812 5813 5814 5815 5816 5817 5818 5819 5820 5821 5822 5823 5824 5825 5826 5827 5828 5829 5830 5831 5832 5833 5834 5835 5836 5837 5838 5839 5840 5841 5842 5843 5844 5845 5846 5847 5848 5849 5850 5851 5852 5853 5854 5855 5856 5857 5858 5859 5860 5861 5862 5863 5864 5865 5866 5867 5868 5869 5870 5871 5872 5873 5874 5875 5876 5877 5878 5879 5880 5881 5882 5883 5884 5885 5886 5887 5888 5889 5890 5891 5892 5893 5894 5895 5896 5897 5898 5899 5900 5901 5902 5903 5904 5905 5906 5907 5908 5909 5910 5911 5912 5913 5914 5915 5916 5917 5918 5919 5920 5921 5922 5923 5924 5925 5926 5927 5928 5929 5930 5931 5932 5933 5934 5935 5936 5937 5938 5939 5940 5941 5942 5943 5944 5945 5946 5947 5948 5949 5950 5951 5952 5953 5954 5955 5956 5957 5958 5959 5960 5961 5962 5963 5964 5965 5966 5967 5968 5969 5970 5971 5972 5973 5974 5975 5976 5977 5978 5979 5980 5981 5982 5983 5984 5985 5986 5987 5988 5989 5990 5991 5992 5993 5994 5995 5996 5997 5998 5999 6000 6001 6002 6003 6004 6005 6006 6007 6008 6009 6010 6011 6012 6013 6014 6015 6016 6017 6018 6019 6020 6021 6022 6023 6024 6025 6026 6027 6028 6029 6030 6031 6032 6033 6034 6035 6036 6037 6038 6039 6040 6041 6042 6043 6044 6045 6046 6047 6048 6049 6050 6051 6052 6053 6054 6055 6056 6057 6058 6059 6060 6061 6062 6063 6064 6065 6066 6067 6068 6069 6070 6071 6072 6073 6074 6075 6076 6077 6078 6079 6080 6081 6082 6083 6084 6085 6086 6087 6088 6089 6090 6091 6092 6093 6094 6095 6096 6097 6098 6099 6100 6101 6102 6103 6104 6105 6106 6107 6108 6109 6110 6111 6112 6113 6114 6115 6116 6117 6118 6119 6120 6121 6122 6123 6124 6125 6126 6127 6128 6129 6130 6131 6132 6133 6134 6135 6136 6137 6138 6139 6140 6141 6142 6143 6144 6145 6146 6147 6148 6149 6150 6151 6152 6153 6154 6155 6156 6157 6158 6159 6160 6161 6162 6163 6164 6165 6166 6167 6168 6169 6170 6171 6172 6173 6174 6175 6176 6177 6178 6179 6180 6181 6182 6183 6184 6185 6186 6187 6188 6189 6190 6191 6192 6193 6194 6195 6196 6197 6198 6199 6200 6201 6202 6203 6204 6205 6206 6207 6208 6209 6210 6211 6212 6213 6214 6215 6216 6217 6218 6219 6220 6221 6222 6223 6224 6225 6226 6227 6228 6229 6230 6231 6232 6233 6234 6235 6236 6237 6238 6239 6240 6241 6242 6243 6244 6245 6246 6247 6248 6249 6250 6251 6252 6253 6254 6255 6256 6257 6258 6259 6260 6261 6262 6263 6264 6265 6266 6267 6268 6269 6270 6271 6272 6273 6274 6275 6276 6277 6278 6279 6280 6281 6282 6283 6284 6285 6286 6287 6288 6289 6290 6291 6292 6293 6294 6295 6296 6297 6298 6299 6300 6301 6302 6303 6304 6305 6306 6307 6308 6309 6310 6311 6312 6313 6314 6315 6316 6317 6318 6319 6320 6321 6322 6323 6324 6325 6326 6327 6328 6329 6330 6331 6332 6333 6334 6335 6336 6337 6338 6339 6340 6341 6342 6343 6344 6345 6346 6347 6348 6349 6350 6351 6352 6353 6354 6355 6356 6357 6358 6359 6360 6361 6362 6363 6364 6365 6366 6367 6368 6369 6370 6371 6372 6373 6374 6375 6376 6377 6378 6379 6380 6381 6382 6383 6384 6385 6386 6387 6388 6389 6390 6391 6392 6393 6394 6395 6396 6397 6398 6399 6400 6401 6402 6403 6404 6405 6406 6407 6408 6409 6410 6411 6412 6413 6414 6415 6416 6417 6418 6419 6420 6421 6422 6423 6424 6425 6426 6427 6428 6429 6430 6431 6432 6433 6434 6435 6436 6437 6438 6439 6440 6441 6442 6443 6444 6445 6446 6447 6448 6449 6450 6451 6452 6453 6454 6455 6456 6457 6458 6459 6460 6461 6462 6463 6464 6465 6466 6467 6468 6469 6470 6471 6472 6473 6474 6475 6476 6477 6478 6479 6480 6481 6482 6483 6484 6485 6486 6487 6488 6489 6490 6491 6492 6493 6494 6495 6496 6497 6498 6499 6500 6501 6502 6503 6504 6505 6506 6507 6508 6509 6510 6511 6512 6513 6514 6515 6516 6517 6518 6519 6520 6521 6522 6523 6524 6525 6526 6527 6528 6529 6530 6531 6532 6533 6534 6535 6536 6537 6538 6539 6540 6541 6542 6543 6544 6545 6546 6547 6548 6549 6550 6551 6552 6553 6554 6555 6556 6557 6558 6559 6560 6561 6562 6563 6564 6565 6566 6567 6568 6569 6570 6571 6572 6573 6574 6575 6576 6577 6578 6579 6580 6581 6582 6583 6584 6585 6586 6587 6588 6589 6590 6591 6592 6593 6594 6595 6596 6597 6598 6599 6600 6601 6602 6603 6604 6605 6606 6607 6608 6609 6610 6611 6612 6613 6614 6615 6616 6617 6618 6619 6620 6621 6622 6623 6624 6625 6626 6627 6628 6629 6630 6631 6632 6633 6634 6635 6636 6637 6638 6639 6640 6641 6642 6643 6644 6645 6646 6647 6648 6649 6650 6651 6652 6653 6654 6655 6656 6657 6658 6659 6660 6661 6662 6663 6664 6665 6666 6667 6668 6669 6670 6671 6672 6673 6674 6675 6676 6677 6678 6679 6680 6681 6682 6683 6684 6685 6686 6687 6688 6689 6690 6691 6692 6693 6694 6695 6696 6697 6698 6699 6700 6701 6702 6703 6704 6705 6706 6707 6708 6709 6710 6711 6712 6713 6714 6715 6716 6717 6718 6719 6720 6721 6722 6723 6724 6725 6726 6727 6728 6729 6730 6731 6732 6733 6734 6735 6736 6737 6738 6739 6740 6741 6742 6743 6744 6745 6746 6747 6748 6749 6750 6751 6752 6753 6754 6755 6756 6757 6758 6759 6760 6761 6762 6763 6764 6765 6766 6767 6768 6769 6770 6771 6772 6773 6774 6775 6776 6777 6778 6779 6780 6781 6782 6783 6784 6785 6786 6787 6788 6789 6790 6791 6792 6793 6794 6795 6796 6797 6798 6799 6800 6801 6802 6803 6804 6805 6806 6807 6808 6809 6810 6811 6812 6813 6814 6815 6816 6817 6818 6819 6820 6821 6822 6823 6824 6825 6826 6827 6828 6829 6830 6831 6832 6833 6834 6835 6836 6837 6838 6839 6840 6841 6842 6843 6844 6845 6846 6847 6848 6849 6850 6851 6852 6853 6854 6855 6856 6857 6858 6859 6860 6861 6862 6863 6864 6865 6866 6867 6868 6869 6870 6871 6872 6873 6874 6875 6876 6877 6878 6879 6880 6881 6882 6883 6884 6885 6886 6887 6888 6889 6890 6891 6892 6893 6894 6895 6896 6897 6898 6899 6900 6901 6902 6903 6904 6905 6906 6907 6908 6909 6910 6911 6912 6913 6914 6915 6916 6917 6918 6919 6920 6921 6922 6923 6924 6925 6926 6927 6928 6929 6930 6931 6932 6933 6934 6935 6936 6937 6938 6939 6940 6941 6942 6943 6944 6945 6946 6947 6948 6949 6950 6951 6952 6953 6954 6955 6956 6957 6958 6959 6960 6961 6962 6963 6964 6965 6966 6967 6968 6969 6970 6971 6972 6973 6974 6975 6976 6977 6978 6979 6980 6981 6982 6983 6984 6985 6986 6987 6988 6989 6990 6991 6992 6993 6994 6995 6996 6997 6998 6999 7000 7001 7002 7003 7004 7005 7006 7007 7008 7009 7010 7011 7012 7013 7014 7015 7016 7017 7018 7019 7020 7021 7022 7023 7024 7025 7026 7027 7028 7029 7030 7031 7032 7033 7034 7035 7036 7037 7038 7039 7040 7041 7042 7043 7044 7045 7046 7047 7048 7049 7050 7051 7052 7053 7054 7055 7056 7057 7058 7059 7060 7061 7062 7063 7064 7065 7066 7067 7068 7069 7070 7071 7072 7073 7074 7075 7076 7077 7078 7079 7080 7081 7082 7083 7084 7085 7086 7087 7088 7089 7090 7091 7092 7093 7094 7095 7096 7097 7098 7099 7100 7101 7102 7103 7104 7105 7106 7107 7108 7109 7110 7111 7112 7113 7114 7115 7116 7117 7118 7119 7120 7121 7122 7123 7124 7125 7126 7127 7128 7129 7130 7131 7132 7133 7134 7135 7136 7137 7138 7139 7140 7141 7142 7143 7144 7145 7146 7147 7148 7149 7150 7151 7152 7153 7154 7155 7156 7157 7158 7159 7160 7161 7162 7163 7164 7165 7166 7167 7168 7169 7170 7171 7172 7173 7174 7175 7176 7177 7178 7179 7180 7181 7182 7183 7184 7185 7186 7187 7188 7189 7190 7191 7192 7193 7194 7195 7196 7197 7198 7199 7200 7201 7202 7203 7204 7205 7206 7207 7208 7209 7210 7211 7212 7213 7214 7215 7216 7217 7218 7219 7220 7221 7222 7223 7224 7225 7226 7227 7228 7229 7230 7231 7232 7233 7234 7235 7236 7237 7238 7239 7240 7241 7242 7243 7244 7245 7246 7247 7248 7249 7250 7251 7252 7253 7254 7255 7256 7257 7258 7259 7260 7261 7262 7263 7264 7265 7266 7267 7268 7269 7270 7271 7272 7273 7274 7275 7276 7277 7278 7279 7280 7281 7282 7283 7284 7285 7286 7287 7288 7289 7290 7291 7292 7293 7294 7295 7296 7297 7298 7299 7300 7301 7302 7303 7304 7305 7306 7307 7308 7309 7310 7311 7312 7313 7314 7315 7316 7317 7318 7319 7320 7321 7322 7323 7324 7325 7326 7327 7328 7329 7330 7331 7332 7333 7334 7335 7336 7337 7338 7339 7340 7341 7342 7343 7344 7345 7346 7347 7348 7349 7350 7351 7352 7353 7354 7355 7356 7357 7358 7359 7360 7361 7362 7363 7364 7365 7366 7367 7368 7369 7370 7371 7372 7373 7374 7375 7376 7377 7378 7379 7380 7381 7382 7383 7384 7385 7386 7387 7388 7389 7390 7391 7392 7393 7394 7395 7396 7397 7398 7399 7400 7401 7402 7403 7404 7405 7406 7407 7408 7409 7410 7411 7412 7413 7414 7415 7416 7417 7418 7419 7420 7421 7422 7423 7424 7425 7426 7427 7428 7429 7430 7431 7432 7433 7434 7435 7436 7437 7438 7439 7440 7441 7442 7443 7444 7445 7446 7447 7448 7449 7450 7451 7452 7453 7454 7455 7456 7457 7458 7459 7460 7461 7462 7463 7464 7465 7466 7467 7468 7469 7470 7471 7472 7473 7474 7475 7476 7477 7478 7479 7480 7481 7482 7483 7484 7485 7486 7487 7488 7489 7490 7491 7492 7493 7494 7495 7496 7497 7498 7499 7500 7501 7502 7503 7504 7505 7506 7507 7508 7509 7510 7511 7512 7513 7514 7515 7516 7517 7518 7519 7520 7521 7522 7523 7524 7525 7526 7527 7528 7529 7530 7531 7532 7533 7534 7535 7536 7537 7538 7539 7540 7541 7542 7543 7544 7545 7546 7547 7548 7549 7550 7551 7552 7553 7554 7555 7556 7557 7558 7559 7560 7561 7562 7563 7564 7565 7566 7567 7568 7569 7570 7571 7572 7573 7574 7575 7576 7577 7578 7579 7580 7581 7582 7583 7584 7585 7586 7587 7588 7589 7590 7591 7592 7593 7594 7595 7596 7597 7598 7599 7600 7601 7602 7603 7604 7605 7606 7607 7608 7609 7610 7611 7612 7613 7614 7615 7616 7617 7618 7619 7620 7621 7622 7623 7624 7625 7626 7627 7628 7629 7630 7631 7632 7633 7634 7635 7636 7637 7638 7639 7640 7641 7642 7643 7644 7645 7646 7647 7648 7649 7650 7651 7652 7653 7654 7655 7656 7657 7658 7659 7660 7661 7662 7663 7664 7665 7666 7667 7668 7669 7670 7671 7672 7673 7674 7675 7676 7677 7678 7679 7680 7681 7682 7683 7684 7685 7686 7687 7688 7689 7690 7691 7692 7693 7694 7695 7696 7697 7698 7699 7700 7701 7702 7703 7704 7705 7706 7707 7708 7709 7710 7711 7712 7713 7714 7715 7716 7717 7718 7719 7720 7721 7722 7723 7724 7725 7726 7727 7728 7729 7730 7731 7732 7733 7734 7735 7736 7737 7738 7739 7740 7741 7742 7743 7744 7745 7746 7747 7748 7749 7750 7751 7752 7753 7754 7755 7756 7757 7758 7759 7760 7761 7762 7763 7764 7765 7766 7767 7768 7769 7770 7771 7772 7773 7774 7775 7776 7777 7778 7779 7780 7781 7782 7783 7784 7785 7786 7787 7788 7789 7790 7791 7792 7793 7794 7795 7796 7797 7798 7799 7800 7801 7802 7803 7804 7805 7806 7807 7808 7809 7810 7811 7812 7813 7814 7815 7816 7817 7818 7819 7820 7821 7822 7823 7824 7825 7826 7827 7828 7829 7830 7831 7832 7833 7834 7835 7836 7837 7838 7839 7840 7841 7842 7843 7844 7845 7846 7847 7848 7849 7850 7851 7852 7853 7854 7855 7856 7857 7858 7859 7860 7861 7862 7863 7864 7865 7866 7867 7868 7869 7870 7871 7872 7873 7874 7875 7876 7877 7878 7879 7880 7881 7882 7883 7884 7885 7886 7887 7888 7889 7890 7891 7892 7893 7894 7895 7896 7897 7898 7899 7900 7901 7902 7903 7904 7905 7906 7907 7908 7909 7910 7911 7912 7913 7914 7915 7916 7917 7918 7919 7920 7921 7922 7923 7924 7925 7926 7927 7928 7929 7930 7931 7932 7933 7934 7935 7936 7937 7938 7939 7940 7941 7942 7943 7944 7945 7946 7947 7948 7949 7950 7951 7952 7953 7954 7955 7956 7957 7958 7959 7960 7961 7962 7963 7964 7965 7966 7967 7968 7969 7970 7971 7972 7973 7974 7975 7976 7977 7978 7979 7980 7981 7982 7983 7984 7985 7986 7987 7988 7989 7990 7991 7992 7993 7994 7995 7996 7997 7998 7999 8000 8001 8002 8003 8004 8005 8006 8007 8008 8009 8010 8011 8012 8013 8014 8015 8016 8017 8018 8019 8020 8021 8022 8023 8024 8025 8026 8027 8028 8029 8030 8031 8032 8033 8034 8035 8036 8037 8038 8039 8040 8041 8042 8043 8044 8045 8046 8047 8048 8049 8050 8051 8052 8053 8054 8055 8056 8057 8058 8059 8060 8061 8062 8063 8064 8065 8066 8067 8068 8069 8070 8071 8072 8073 8074 8075 8076 8077 8078 8079 8080 8081 8082 8083 8084 8085 8086 8087 8088 8089 8090 8091 8092 8093 8094 8095 8096 8097 8098 8099 8100 8101 8102 8103 8104 8105 8106 8107 8108 8109 8110 8111 8112 8113 8114 8115 8116 8117 8118 8119 8120 8121 8122 8123 8124 8125 8126 8127 8128 8129 8130 8131 8132 8133 8134 8135 8136 8137 8138 8139 8140 8141 8142 8143 8144 8145 8146 8147 8148 8149 8150 8151 8152 8153 8154 8155 8156 8157 8158 8159 8160 8161 8162 8163 8164 8165 8166 8167 8168 8169 8170 8171 8172 8173 8174 8175 8176 8177 8178 8179 8180 8181 8182 8183 8184 8185 8186 8187 8188 8189 8190 8191 8192 8193 8194 8195 8196 8197 8198 8199 8200 8201 8202 8203 8204 8205 8206 8207 8208 8209 8210 8211 8212 8213 8214 8215 8216 8217 8218 8219 8220 8221 8222 8223 8224 8225 8226 8227 8228 8229 8230 8231 8232 8233 8234 8235 8236 8237 8238 8239 8240 8241 8242 8243 8244 8245 8246 8247 8248 8249 8250 8251 8252 8253 8254 8255 8256 8257 8258 8259 8260 8261 8262 8263 8264 8265 8266 8267 8268 8269 8270 8271 8272 8273 8274 8275 8276 8277 8278 8279 8280 8281 8282 8283 8284 8285 8286 8287 8288 8289 8290 8291 8292 8293 8294 8295 8296 8297 8298 8299 8300 8301 8302 8303 8304 8305 8306 8307 8308 8309 8310 8311 8312 8313 8314 8315 8316 8317 8318 8319 8320 8321 8322 8323 8324 8325 8326 8327 8328 8329 8330 8331 8332 8333 8334 8335 8336 8337 8338 8339 8340 8341 8342 8343 8344 8345 8346 8347 8348 8349 8350 8351 8352 8353 8354 8355 8356 8357 8358 8359 8360 8361 8362 8363 8364 8365 8366 8367 8368 8369 8370 8371 8372 8373 8374 8375 8376 8377 8378 8379 8380 8381 8382 8383 8384 8385 8386 8387 8388 8389 8390 8391 8392 8393 8394 8395 8396 8397 8398 8399 8400 8401 8402 8403 8404 8405 8406 8407 8408 8409 8410 8411 8412 8413 8414 8415 8416 8417 8418 8419 8420 8421 8422 8423 8424 8425 8426 8427 8428 8429 8430 8431 8432 8433 8434 8435 8436 8437 8438 8439 8440 8441 8442 8443 8444 8445 8446 8447 8448 8449 8450 8451 8452 8453 8454 8455 8456 8457 8458 8459 8460 8461 8462 8463 8464 8465 8466 8467 8468 8469 8470 8471 8472 8473 8474 8475 8476 8477 8478 8479 8480 8481 8482 8483 8484 8485 8486 8487 8488 8489 8490 8491 8492 8493 8494 8495 8496 8497 8498 8499 8500 8501 8502 8503 8504 8505 8506 8507 8508 8509 8510 8511 8512 8513 8514 8515 8516 8517 8518 8519 8520 8521 8522 8523 8524 8525 8526 8527 8528 8529 8530 8531 8532 8533 8534 8535 8536 8537 8538 8539 8540 8541 8542 8543 8544 8545 8546 8547 8548 8549 8550 8551 8552 8553 8554 8555 8556 8557 8558 8559 8560 8561 8562 8563 8564 8565 8566 8567 8568 8569 8570 8571 8572 8573 8574 8575 8576 8577 8578 8579 8580 8581 8582 8583 8584 8585 8586 8587 8588 8589 8590 8591 8592 8593 8594 8595 8596 8597 8598 8599 8600 8601 8602 8603 8604 8605 8606 8607 8608 8609 8610 8611 8612 8613 8614 8615 8616 8617 8618 8619 8620 8621 8622 8623 8624 8625 8626 8627 8628 8629 8630 8631 8632 8633 8634 8635 8636 8637 8638 8639 8640 8641 8642 8643 8644 8645 8646 8647 8648 8649 8650 8651 8652 8653 8654 8655 8656 8657 8658 8659 8660 8661 8662 8663 8664 8665 8666 8667 8668 8669 8670 8671 8672 8673 8674 8675 8676 8677 8678 8679 8680 8681 8682 8683 8684 8685 8686 8687 8688 8689 8690 8691 8692 8693 8694 8695 8696 8697 8698 8699 8700 8701 8702 8703 8704 8705 8706 8707 8708 8709 8710 8711 8712 8713 8714 8715 8716 8717 8718 8719 8720 8721 8722 8723 8724 8725 8726 8727 8728 8729 8730 8731 8732 8733 8734 8735 8736 8737 8738 8739 8740 8741 8742 8743 8744 8745 8746 8747 8748 8749 8750 8751 8752 8753 8754 8755 8756 8757 8758 8759 8760 8761 8762 8763 8764 8765 8766 8767 8768 8769 8770 8771 8772 8773 8774 8775 8776 8777 8778 8779 8780 8781 8782 8783 8784 8785 8786 8787 8788 8789 8790 8791 8792 8793 8794 8795 8796 8797 8798 8799 8800 8801 8802 8803 8804 8805 8806 8807 8808 8809 8810 8811 8812 8813 8814 8815 8816 8817 8818 8819 8820 8821 8822 8823 8824 8825 8826 8827 8828 8829 8830 8831 8832 8833 8834 8835 8836 8837 8838 8839 8840 8841 8842 8843 8844 8845 8846 8847 8848 8849 8850 8851 8852 8853 8854 8855 8856 8857 8858 8859 8860 8861 8862 8863 8864 8865 8866 8867 8868 8869 8870 8871 8872 8873 8874 8875 8876 8877 8878 8879 8880 8881 8882 8883 8884 8885 8886 8887 8888 8889 8890 8891 8892 8893 8894 8895 8896 8897 8898 8899 8900 8901 8902 8903 8904 8905 8906 8907 8908 8909 8910 8911 8912 8913 8914 8915 8916 8917 8918 8919 8920 8921 8922 8923 8924 8925 8926 8927 8928 8929 8930 8931 8932 8933 8934 8935 8936 8937 8938 8939 8940 8941 8942 8943 8944 8945 8946 8947 8948 8949 8950 8951 8952 8953 8954 8955 8956 8957 8958 8959 8960 8961 8962 8963 8964 8965 8966 8967 8968 8969 8970 8971 8972 8973 8974 8975 8976 8977 8978 8979 8980 8981 8982 8983 8984 8985 8986 8987 8988 8989 8990 8991 8992 8993 8994 8995 8996 8997 8998 8999 9000 9001 9002 9003 9004 9005 9006 9007 9008 9009 9010 9011 9012 9013 9014 9015 9016 9017 9018 9019 9020 9021 9022 9023 9024 9025 9026 9027 9028 9029 9030 9031 9032 9033 9034 9035 9036 9037 9038 9039 9040 9041 9042 9043 9044 9045 9046 9047 9048 9049 9050 9051 9052 9053 9054 9055 9056 9057 9058 9059 9060 9061 9062 9063 9064 9065 9066 9067 9068 9069 9070 9071 9072 9073 9074 9075 9076 9077 9078 9079 9080 9081 9082 9083 9084 9085 9086 9087 9088 9089 9090 9091 9092 9093 9094 9095 9096 9097 9098 9099 9100 9101 9102 9103 9104 9105 9106 9107 9108 9109 9110 9111 9112 9113 9114 9115 9116 9117 9118 9119 9120 9121 9122 9123 9124 9125 9126 9127 9128 9129 9130 9131 9132 9133 9134 9135 9136 9137 9138 9139 9140 9141 9142 9143 9144 9145 9146 9147 9148 9149 9150 9151 9152 9153 9154 9155 9156 9157 9158 9159 9160 9161 9162 9163 9164 9165 9166 9167 9168 9169 9170 9171 9172 9173 9174 9175 9176 9177 9178 9179 9180 9181 9182 9183 9184 9185 9186 9187 9188 9189 9190 9191 9192 9193 9194 9195 9196 9197 9198 9199 9200 9201 9202 9203 9204 9205 9206 9207 9208 9209 9210 9211 9212 9213 9214 9215 9216 9217 9218 9219 9220 9221 9222 9223 9224 9225 9226 9227 9228 9229 9230 9231 9232 9233 9234 9235 9236 9237 9238 9239 9240 9241 9242 9243 9244 9245 9246 9247 9248 9249 9250 9251 9252 9253 9254 9255 9256 9257 9258 9259 9260 9261 9262 9263 9264 9265 9266 9267 9268 9269 9270 9271 9272 9273 9274 9275 9276 9277 9278 9279 9280 9281 9282 9283 9284 9285 9286 9287 9288 9289 9290 9291 9292 9293 9294 9295 9296 9297 9298 9299 9300 9301 9302 9303 9304 9305 9306 9307 9308 9309 9310 9311 9312 9313 9314 9315 9316 9317 9318 9319 9320 9321 9322 9323 9324 9325 9326 9327 9328 9329 9330 9331 9332 9333 9334 9335 9336 9337 9338 9339 9340 9341 9342 9343 9344 9345 9346 9347 9348 9349 9350 9351 9352 9353 9354 9355 9356 9357 9358 9359 9360 9361 9362 9363 9364 9365 9366 9367 9368 9369 9370 9371 9372 9373 9374 9375 9376 9377 9378 9379 9380 9381 9382 9383 9384 9385 9386 9387 9388 9389 9390 9391 9392 9393 9394 9395 9396 9397 9398 9399 9400 9401 9402 9403 9404 9405 9406 9407 9408 9409 9410 9411 9412 9413 9414 9415 9416 9417 9418 9419 9420 9421 9422 9423 9424 9425 9426 9427 9428 9429 9430 9431 9432 9433 9434 9435 9436 9437 9438 9439 9440 9441 9442 9443 9444 9445 9446 9447 9448 9449 9450 9451 9452 9453 9454 9455 9456 9457 9458 9459 9460 9461 9462 9463 9464 9465 9466 9467 9468 9469 9470 9471 9472 9473 9474 9475 9476 9477 9478 9479 9480 9481 9482 9483 9484 9485 9486 9487 9488 9489 9490 9491 9492 9493 9494 9495 9496 9497 9498 9499 9500 9501 9502 9503 9504 9505 9506 9507 9508 9509 9510 9511 9512 9513 9514 9515 9516 9517 9518 9519 9520 9521 9522 9523 9524 9525 9526 9527 9528 9529 9530 9531 9532 9533 9534 9535 9536 9537 9538 9539 9540 9541 9542 9543 9544 9545 9546 9547 9548 9549 9550 9551 9552 9553 9554 9555 9556 9557 9558 9559 9560 9561 9562 9563 9564 9565 9566 9567 9568 9569 9570 9571 9572 9573 9574 9575 9576 9577 9578 9579 9580 9581 9582 9583 9584 9585 9586 9587 9588 9589 9590 9591 9592 9593 9594 9595 9596 9597 9598 9599 9600 9601 9602 9603 9604 9605 9606 9607 9608 9609 9610 9611 9612 9613 9614 9615 9616 9617 9618 9619 9620 9621 9622 9623 9624 9625 9626 9627 9628 9629 9630 9631 9632 9633 9634 9635 9636 9637 9638 9639 9640 9641 9642 9643 9644 9645 9646 9647 9648 9649 9650 9651 9652 9653 9654 9655 9656 9657 9658 9659 9660 9661 9662 9663 9664 9665 9666 9667 9668 9669 9670 9671 9672 9673 9674 9675 9676 9677 9678 9679 9680 9681 9682 9683 9684 9685 9686 9687 9688 9689 9690 9691 9692 9693 9694 9695 9696 9697 9698 9699 9700 9701 9702 9703 9704 9705 9706 9707 9708 9709 9710 9711 9712 9713 9714 9715 9716 9717 9718 9719 9720 9721 9722 9723 9724 9725 9726 9727 9728 9729 9730 9731 9732 9733 9734 9735 9736 9737 9738 9739 9740 9741 9742 9743 9744 9745 9746 9747 9748 9749 9750 9751 9752 9753 9754 9755 9756 9757 9758 9759 9760 9761 9762 9763 9764 9765 9766 9767 9768 9769 9770 9771 9772 9773 9774 9775 9776 9777 9778 9779 9780 9781 9782 9783 9784 9785 9786 9787 9788 9789 9790 9791 9792 9793 9794 9795 9796 9797 9798 9799 9800 9801 9802 9803 9804 9805 9806 9807 9808 9809 9810 9811 9812 9813 9814 9815 9816 9817 9818 9819 9820 9821 9822 9823 9824 9825 9826 9827 9828 9829 9830 9831 9832 9833 9834 9835 9836 9837 9838 9839 9840 9841 9842 9843 9844 9845 9846 9847 9848 9849 9850 9851 9852 9853 9854 9855 9856 9857 9858 9859 9860 9861 9862 9863 9864 9865 9866 9867 9868 9869 9870 9871 9872 9873 9874 9875 9876 9877 9878 9879 9880 9881 9882 9883 9884 9885 9886 9887 9888 9889 9890 9891 9892 9893 9894 9895 9896 9897 9898 9899 9900 9901 9902 9903 9904 9905 9906 9907 9908 9909 9910 9911 9912 9913 9914 9915 9916 9917 9918 9919 9920 9921 9922 9923 9924 9925 9926 9927 9928 9929 9930 9931 9932 9933 9934 9935 9936 9937 9938 9939 9940 9941 9942 9943 9944 9945 9946 9947 9948 9949 9950 9951 9952 9953 9954 9955 9956 9957 9958 9959 9960 9961 9962 9963 9964 9965 9966 9967 9968 9969 9970 9971 9972 9973 9974 9975 9976 9977 9978 9979 9980 9981 9982 9983 9984 9985 9986 9987 9988 9989 9990 9991 9992 9993 9994 9995 9996 9997 9998 9999 10000 10001 10002 10003 10004 10005 10006 10007 10008 10009 10010 10011 10012 10013 10014 10015 10016 10017 10018 10019 10020 10021 10022 10023 10024 10025 10026 10027 10028 10029 10030 10031 10032 10033 10034 10035 10036 10037 10038 10039 10040 10041 10042 10043 10044 10045 10046 10047 10048 10049 10050 10051 10052 10053 10054 10055 10056 10057 10058 10059 10060 10061 10062 10063 10064 10065 10066 10067 10068 10069 10070 10071 10072 10073 10074 10075 10076 10077 10078 10079 10080 10081 10082 10083 10084 10085 10086 10087 10088 10089 10090 10091 10092 10093 10094 10095 10096 10097 10098 10099 10100 10101 10102 10103 10104 10105 10106 10107 10108 10109 10110 10111 10112 10113 10114 10115 10116 10117 10118 10119 10120 10121 10122 10123 10124 10125 10126 10127 10128 10129 10130 10131 10132 10133 10134 10135 10136 10137 10138 10139 10140 10141 10142 10143 10144 10145 10146 10147 10148 10149 10150 10151 10152 10153 10154 10155 10156 10157 10158 10159 10160 10161 10162 10163 10164 10165 10166 10167 10168 10169 10170 10171 10172 10173 10174 10175 10176 10177 10178 10179 10180 10181 10182 10183 10184 10185 10186 10187 10188 10189 10190 10191 10192 10193 10194 10195 10196 10197 10198 10199 10200 10201 10202 10203 10204 10205 10206 10207 10208 10209 10210 10211 10212 10213 10214 10215 10216 10217 10218 10219 10220 10221 10222 10223 10224 10225 10226 10227 10228 10229 10230 10231 10232 10233 10234 10235 10236 10237 10238 10239 10240 10241 10242 10243 10244 10245 10246 10247 10248 10249 10250 10251 10252 10253 10254 10255 10256 10257 10258 10259 10260 10261 10262 10263 10264 10265 10266 10267 10268 10269 10270 10271 10272 10273 10274 10275 10276 10277 10278 10279 10280 10281 10282 10283 10284 10285 10286 10287 10288 10289 10290 10291 10292 10293 10294 10295 10296 10297 10298 10299 10300 10301 10302 10303 10304 10305 10306 10307 10308 10309 10310 10311 10312 10313 10314 10315 10316 10317 10318 10319 10320 10321 10322 10323 10324 10325 10326 10327 10328 10329 10330 10331 10332 10333 10334 10335 10336 10337 10338 10339 10340 10341 10342 10343 10344 10345 10346 10347 10348 10349 10350 10351 10352 10353 10354 10355 10356 10357 10358 10359 10360 10361 10362 10363 10364 10365 10366 10367 10368 10369 10370 10371 10372 10373 10374 10375 10376 10377 10378 10379 10380 10381 10382 10383 10384 10385 10386 10387 10388 10389 10390 10391 10392 10393 10394 10395 10396 10397 10398 10399 10400 10401 10402 10403 10404 10405 10406 10407 10408 10409 10410 10411 10412 10413 10414 10415 10416 10417 10418 10419 10420 10421 10422 10423 10424 10425 10426 10427 10428 10429 10430 10431 10432 10433 10434 10435 10436 10437 10438 10439 10440 10441 10442 10443 10444 10445 10446 10447 10448 10449 10450 10451 10452 10453 10454 10455 10456 10457 10458 10459 10460 10461 10462 10463 10464 10465 10466 10467 10468 10469 10470 10471 10472 10473 10474 10475 10476 10477 10478 10479 10480 10481 10482 10483 10484 10485 10486 10487 10488 10489 10490 10491 10492 10493 10494 10495 10496 10497 10498 10499 10500 10501 10502 10503 10504 10505 10506 10507 10508 10509 10510 10511 10512 10513 10514 10515 10516 10517 10518 10519 10520 10521 10522 10523 10524 10525 10526 10527 10528 10529 10530 10531 10532 10533 10534 10535 10536 10537 10538 10539 10540 10541 10542 10543 10544 10545 10546 10547 10548 10549 10550 10551 10552 10553 10554 10555 10556 10557 10558 10559 10560 10561 10562 10563 10564 10565 10566 10567 10568 10569 10570 10571 10572 10573 10574 10575 10576 10577 10578 10579 10580 10581 10582 10583 10584 10585 10586 10587 10588 10589 10590 10591 10592 10593 10594 10595 10596 10597 10598 10599 10600 10601 10602 10603 10604 10605 10606 10607 10608 10609 10610 10611 10612 10613 10614 10615 10616 10617 10618 10619 10620 10621 10622 10623 10624 10625 10626 10627 10628 10629 10630 10631 10632 10633 10634 10635 10636 10637 10638 10639 10640 10641 10642 10643 10644 10645 10646 10647 10648 10649 10650 10651 10652 10653 10654 10655 10656 10657 10658 10659 10660 10661 10662 10663 10664 10665 10666 10667 10668 10669 10670 10671 10672 10673 10674 10675 10676 10677 10678 10679 10680 10681 10682 10683 10684 10685 10686 10687 10688 10689 10690 10691 10692 10693 10694 10695 10696 10697 10698 10699 10700 10701 10702 10703 10704 10705 10706 10707 10708 10709 10710 10711 10712 10713 10714 10715 10716 10717 10718 10719 10720 10721 10722 10723 10724 10725 10726 10727 10728 10729 10730 10731 10732 10733 10734 10735 10736 10737 10738 10739 10740 10741 10742 10743 10744 10745 10746 10747 10748 10749 10750 10751 10752 10753 10754 10755 10756 10757 10758 10759 10760 10761 10762 10763 10764 10765 10766 10767 10768 10769 10770 10771 10772 10773 10774 10775 10776 10777 10778 10779 10780 10781 10782 10783 10784 10785 10786 10787 10788 10789 10790 10791 10792 10793 10794 10795 10796 10797 10798 10799 10800 10801 10802 10803 10804 10805 10806 10807 10808 10809 10810 10811 10812 10813 10814 10815 10816 10817 10818 10819 10820 10821 10822 10823 10824 10825 10826 10827 10828 10829 10830 10831 10832 10833 10834 10835 10836 10837 10838 10839 10840 10841 10842 10843 10844 10845 10846 10847 10848 10849 10850 10851 10852 10853 10854 10855 10856 10857 10858 10859 10860 10861 10862 10863 10864 10865 10866 10867 10868 10869 10870 10871 10872 10873 10874 10875 10876 10877 10878 10879 10880 10881 10882 10883 10884 10885 10886 10887 10888 10889 10890 10891 10892 10893 10894 10895 10896 10897 10898 10899 10900 10901 10902 10903 10904 10905 10906 10907 10908 10909 10910 10911 10912 10913 10914 10915 10916 10917 10918 10919 10920 10921 10922 10923 10924 10925 10926 10927 10928 10929 10930 10931 10932 10933 10934 10935 10936 10937 10938 10939 10940 10941 10942 10943 10944 10945 10946 10947 10948 10949 10950 10951 10952 10953 10954 10955 10956 10957 10958 10959 10960 10961 10962 10963 10964 10965 10966 10967 10968 10969 10970 10971 10972 10973 10974 10975 10976 10977 10978 10979 10980 10981 10982 10983 10984 10985 10986 10987 10988 10989 10990 10991 10992 10993 10994 10995 10996 10997 10998 10999 11000 11001 11002 11003 11004 11005 11006 11007 11008 11009 11010 11011 11012 11013 11014 11015 11016 11017 11018 11019 11020 11021 11022 11023 11024 11025 11026 11027 11028 11029 11030 11031 11032 11033 11034 11035 11036 11037 11038 11039 11040 11041 11042 11043 11044 11045 11046 11047 11048 11049 11050 11051 11052 11053 11054 11055 11056 11057 11058 11059 11060 11061 11062 11063 11064 11065 11066 11067 11068 11069 11070 11071 11072 11073 11074 11075 11076 11077 11078 11079 11080 11081 11082 11083 11084 11085 11086 11087 11088 11089 11090 11091 11092 11093 11094 11095 11096 11097 11098 11099 11100 11101 11102 11103 11104 11105 11106 11107 11108 11109 11110 11111 11112 11113 11114 11115 11116 11117 11118 11119 11120 11121 11122 11123 11124 11125 11126 11127 11128 11129 11130 11131 11132 11133 11134 11135 11136 11137 11138 11139 11140 11141 11142 11143 11144 11145 11146 11147 11148 11149 11150 11151 11152 11153 11154 11155 11156 11157 11158 11159 11160 11161 11162 11163 11164 11165 11166 11167 11168 11169 11170 11171 11172 11173 11174 11175 11176 11177 11178 11179 11180 11181 11182 11183 11184 11185 11186 11187 11188 11189 11190 11191 11192 11193 11194 11195 11196 11197 11198 11199 11200 11201 11202 11203 11204 11205 11206 11207 11208 11209 11210 11211 11212 11213 11214 11215 11216 11217 11218 11219 11220 11221 11222 11223 11224 11225 11226 11227 11228 11229 11230 11231 11232 11233 11234 11235 11236 11237 11238 11239 11240 11241 11242 11243 11244 11245 11246 11247 11248 11249 11250 11251 11252 11253 11254 11255 11256 11257 11258 11259 11260 11261 11262 11263 11264 11265 11266 11267 11268 11269 11270 11271 11272 11273 11274 11275 11276 11277 11278 11279 11280 11281 11282 11283 11284 11285 11286 11287 11288 11289 11290 11291 11292 11293 11294 11295 11296 11297 11298 11299 11300 11301 11302 11303 11304 11305 11306 11307 11308 11309 11310 11311 11312 11313 11314 11315 11316 11317 11318 11319 11320 11321 11322 11323 11324 11325 11326 11327 11328 11329 11330 11331 11332 11333 11334 11335 11336 11337 11338 11339 11340 11341 11342 11343 11344 11345 11346 11347 11348 11349 11350 11351 11352 11353 11354 11355 11356 11357 11358 11359 11360 11361 11362 11363 11364 11365 11366 11367 11368 11369 11370 11371 11372 11373 11374 11375 11376 11377 11378 11379 11380 11381 11382 11383 11384 11385 11386 11387 11388 11389 11390 11391 11392 11393 11394 11395 11396 11397 11398 11399 11400 11401 11402 11403 11404 11405 11406 11407 11408 11409 11410 11411 11412 11413 11414 11415 11416 11417 11418 11419 11420 11421 11422 11423 11424 11425 11426 11427 11428 11429 11430 11431 11432 11433 11434 11435 11436 11437 11438 11439 11440 11441 11442 11443 11444 11445 11446 11447 11448 11449 11450 11451 11452 11453 11454 11455 11456 11457 11458 11459 11460 11461 11462 11463 11464 11465 11466 11467 11468 11469 11470 11471 11472 11473 11474 11475 11476 11477 11478 11479 11480 11481 11482 11483 11484 11485 11486 11487 11488 11489 11490 11491 11492 11493 11494 11495 11496 11497 11498 11499 11500 11501 11502 11503 11504 11505 11506 11507 11508 11509 11510 11511 11512 11513 11514 11515 11516 11517 11518 11519 11520 11521 11522 11523 11524 11525 11526 11527 11528 11529 11530 11531 11532 11533 11534 11535 11536 11537 11538 11539 11540 11541 11542 11543 11544 11545 11546 11547 11548 11549 11550 11551 11552 11553 11554 11555 11556 11557 11558 11559 11560 11561 11562 11563 11564 11565 11566 11567 11568 11569 11570 11571 11572 11573 11574 11575 11576 11577 11578 11579 11580 11581 11582 11583 11584 11585 11586 11587 11588 11589 11590 11591 11592 11593 11594 11595 11596 11597 11598 11599 11600 11601 11602 11603 11604 11605 11606 11607 11608 11609 11610 11611 11612 11613 11614 11615 11616 11617 11618 11619 11620 11621 11622 11623 11624 11625 11626 11627 11628 11629 11630 11631 11632 11633 11634 11635 11636 11637 11638 11639 11640 11641 11642 11643 11644 11645 11646 11647 11648 11649 11650 11651 11652 11653 11654 11655 11656 11657 11658 11659 11660 11661 11662 11663 11664 11665 11666 11667 11668 11669 11670 11671 11672 11673 11674 11675 11676 11677 11678 11679 11680 11681 11682 11683 11684 11685 11686 11687 11688 11689 11690 11691 11692 11693 11694 11695 11696 11697 11698 11699 11700 11701 11702 11703 11704 11705 11706 11707 11708 11709 11710 11711 11712 11713 11714 11715 11716 11717 11718 11719 11720 11721 11722 11723 11724 11725 11726 11727 11728 11729 11730 11731 11732 11733 11734 11735 11736 11737 11738 11739 11740 11741 11742 11743 11744 11745 11746 11747 11748 11749 11750 11751 11752 11753 11754 11755 11756 11757 11758 11759 11760 11761 11762 11763 11764 11765 11766 11767 11768 11769 11770 11771 11772 11773 11774 11775 11776 11777 11778 11779 11780 11781 11782 11783 11784 11785 11786 11787 11788 11789 11790 11791 11792 11793 11794 11795 11796 11797 11798 11799 11800 11801 11802 11803 11804 11805 11806 11807 11808 11809 11810 11811 11812 11813 11814 11815 11816 11817 11818 11819 11820 11821 11822 11823 11824 11825 11826 11827 11828 11829 11830 11831 11832 11833 11834 11835 11836 11837 11838 11839 11840 11841 11842 11843 11844 11845 11846 11847 11848 11849 11850 11851 11852 11853 11854 11855 11856 11857 11858 11859 11860 11861 11862 11863 11864 11865 11866 11867 11868 11869 11870 11871 11872 11873 11874 11875 11876 11877 11878 11879 11880 11881 11882 11883 11884 11885 11886 11887 11888 11889 11890 11891 11892 11893 11894 11895 11896 11897 11898 11899 11900 11901 11902 11903 11904 11905 11906 11907 11908 11909 11910 11911 11912 11913 11914 11915 11916 11917 11918 11919 11920 11921 11922 11923 11924 11925 11926 11927 11928 11929 11930 11931 11932 11933 11934 11935 11936 11937 11938 11939 11940 11941 11942 11943 11944 11945 11946 11947 11948 11949 11950 11951 11952 11953 11954 11955 11956 11957 11958 11959 11960 11961 11962 11963 11964 11965 11966 11967 11968 11969 11970 11971 11972 11973 11974 11975 11976 11977 11978 11979 11980 11981 11982 11983 11984 11985 11986 11987 11988 11989 11990 11991 11992 11993 11994 11995 11996 11997 11998 11999 12000 12001 12002 12003 12004 12005 12006 12007 12008 12009 12010 12011 12012 12013 12014 12015 12016 12017 12018 12019 12020 12021 12022 12023 12024 12025 12026 12027 12028 12029 12030 12031 12032 12033 12034 12035 12036 12037 12038 12039 12040 12041 12042 12043 12044 12045 12046 12047 12048 12049 12050 12051 12052 12053 12054 12055 12056 12057 12058 12059 12060 12061 12062 12063 12064 12065 12066 12067 12068 12069 12070 12071 12072 12073 12074 12075 12076 12077 12078 12079 12080 12081 12082 12083 12084 12085 12086 12087 12088 12089 12090 12091 12092 12093 12094 12095 12096 12097 12098 12099 12100 12101 12102 12103 12104 12105 12106 12107 12108 12109 12110 12111 12112 12113 12114 12115 12116 12117 12118 12119 12120 12121 12122 12123 12124 12125 12126 12127 12128 12129 12130 12131 12132 12133 12134 12135 12136 12137 12138 12139 12140 12141 12142 12143 12144 12145 12146 12147 12148 12149 12150 12151 12152 12153 12154 12155 12156 12157 12158 12159 12160 12161 12162 12163 12164 12165 12166 12167 12168 12169 12170 12171 12172 12173 12174 12175 12176 12177 12178 12179 12180 12181 12182 12183 12184 12185 12186 12187 12188 12189 12190 12191 12192 12193 12194 12195 12196 12197 12198 12199 12200 12201 12202 12203 12204 12205 12206 12207 12208 12209 12210 12211 12212 12213 12214 12215 12216 12217 12218 12219 12220 12221 12222 12223 12224 12225 12226 12227 12228 12229 12230 12231 12232 12233 12234 12235 12236 12237 12238 12239 12240 12241 12242 12243 12244 12245 12246 12247 12248 12249 12250 12251 12252 12253 12254 12255 12256 12257 12258 12259 12260 12261 12262 12263 12264 12265 12266 12267 12268 12269 12270 12271 12272 12273 12274 12275 12276 12277 12278 12279 12280 12281 12282 12283 12284 12285 12286 12287 12288 12289 12290 12291 12292 12293 12294 12295 12296 12297 12298 12299 12300 12301 12302 12303 12304 12305 12306 12307 12308 12309 12310 12311 12312 12313 12314 12315 12316 12317 12318 12319 12320 12321 12322 12323 12324 12325 12326 12327 12328 12329 12330 12331 12332 12333 12334 12335 12336 12337 12338 12339 12340 12341 12342 12343 12344 12345 12346 12347 12348 12349 12350 12351 12352 12353 12354 12355 12356 12357 12358 12359 12360 12361 12362 12363 12364 12365 12366 12367 12368 12369 12370 12371 12372 12373 12374 12375 12376 12377 12378 12379 12380 12381 12382 12383 12384 12385 12386 12387 12388 12389 12390 12391 12392 12393 12394 12395 12396 12397 12398 12399 12400 12401 12402 12403 12404 12405 12406 12407 12408 12409 12410 12411 12412 12413 12414 12415 12416 12417 12418 12419 12420 12421 12422 12423 12424 12425 12426 12427 12428 12429 12430 12431 12432 12433 12434 12435 12436 12437 12438 12439 12440 12441 12442 12443 12444 12445 12446 12447 12448 12449 12450 12451 12452 12453 12454 12455 12456 12457 12458 12459 12460 12461 12462 12463 12464 12465 12466 12467 12468 12469 12470 12471 12472 12473 12474 12475 12476 12477 12478 12479 12480 12481 12482 12483 12484 12485 12486 12487 12488 12489 12490 12491 12492 12493 12494 12495 12496 12497 12498 12499 12500 12501 12502 12503 12504 12505 12506 12507 12508 12509 12510 12511 12512 12513 12514 12515 12516 12517 12518 12519 12520 12521 12522 12523 12524 12525 12526 12527 12528 12529 12530 12531 12532 12533 12534 12535 12536 12537 12538 12539 12540 12541 12542 12543 12544 12545 12546 12547 12548 12549 12550 12551 12552 12553 12554 12555 12556 12557 12558 12559 12560 12561 12562 12563 12564 12565 12566 12567 12568 12569 12570 12571 12572 12573 12574 12575 12576 12577 12578 12579 12580 12581 12582 12583 12584 12585 12586 12587 12588 12589 12590 12591 12592 12593 12594 12595 12596 12597 12598 12599 12600 12601 12602 12603 12604 12605 12606 12607 12608 12609 12610 12611 12612 12613 12614 12615 12616 12617 12618 12619 12620 12621 12622 12623 12624 12625 12626 12627 12628 12629 12630 12631 12632 12633 12634 12635 12636 12637 12638 12639 12640 12641 12642 12643 12644 12645 12646 12647 12648 12649 12650 12651 12652 12653 12654 12655 12656 12657 12658 12659 12660 12661 12662 12663 12664 12665 12666 12667 12668 12669 12670 12671 12672 12673 12674 12675 12676 12677 12678 12679 12680 12681 12682 12683 12684 12685 12686 12687 12688 12689 12690 12691 12692 12693 12694 12695 12696 12697 12698 12699 12700 12701 12702 12703 12704 12705 12706 12707 12708 12709 12710 12711 12712 12713 12714 12715 12716 12717 12718 12719 12720 12721 12722 12723 12724 12725 12726 12727 12728 12729 12730 12731 12732 12733 12734 12735 12736 12737 12738 12739 12740 12741 12742 12743 12744 12745 12746 12747 12748 12749 12750 12751 12752 12753 12754 12755 12756 12757 12758 12759 12760 12761 12762 12763 12764 12765 12766 12767 12768 12769 12770 12771 12772 12773 12774 12775 12776 12777 12778 12779 12780 12781 12782 12783 12784 12785 12786 12787 12788 12789 12790 12791 12792 12793 12794 12795 12796 12797 12798 12799 12800 12801 12802 12803 12804 12805 12806 12807 12808 12809 12810 12811 12812 12813 12814 12815 12816 12817 12818 12819 12820 12821 12822 12823 12824 12825 12826 12827 12828 12829 12830 12831 12832 12833 12834 12835 12836 12837 12838 12839 12840 12841 12842 12843 12844 12845 12846 12847 12848 12849 12850 12851 12852 12853 12854 12855 12856 12857 12858 12859 12860 12861 12862 12863 12864 12865 12866 12867 12868 12869 12870 12871 12872 12873 12874 12875 12876 12877 12878 12879 12880 12881 12882 12883 12884 12885 12886 12887 12888 12889 12890 12891 12892 12893 12894 12895 12896 12897 12898 12899 12900 12901 12902 12903 12904 12905 12906 12907 12908 12909 12910 12911 12912 12913 12914 12915 12916 12917 12918 12919 12920 12921 12922 12923 12924 12925 12926 12927 12928 12929 12930 12931 12932 12933 12934 12935 12936 12937 12938 12939 12940 12941 12942 12943 12944 12945 12946 12947 12948 12949 12950 12951 12952 12953 12954 12955 12956 12957 12958 12959 12960 12961 12962 12963 12964 12965 12966 12967 12968 12969 12970 12971 12972 12973 12974 12975 12976 12977 12978 12979 12980 12981 12982 12983 12984 12985 12986 12987 12988 12989 12990 12991 12992 12993 12994 12995 12996 12997 12998 12999 13000 13001 13002 13003 13004 13005 13006 13007 13008 13009 13010 13011 13012 13013 13014 13015 13016 13017 13018 13019 13020 13021 13022 13023 13024 13025 13026 13027 13028 13029 13030 13031 13032 13033 13034 13035 13036 13037 13038 13039 13040 13041 13042 13043 13044 13045 13046 13047 13048 13049 13050 13051 13052 13053 13054 13055 13056 13057 13058 13059 13060 13061 13062 13063 13064 13065 13066 13067 13068 13069 13070 13071 13072 13073 13074 13075 13076 13077 13078 13079 13080 13081 13082 13083 13084 13085 13086 13087 13088 13089 13090 13091 13092 13093 13094 13095 13096 13097 13098 13099 13100 13101 13102 13103 13104 13105 13106 13107 13108 13109 13110 13111 13112 13113 13114 13115 13116 13117 13118 13119 13120 13121 13122 13123 13124 13125 13126 13127 13128 13129 13130 13131 13132 13133 13134 13135 13136 13137 13138 13139 13140 13141 13142 13143 13144 13145 13146 13147 13148 13149 13150 13151 13152 13153 13154 13155 13156 13157 13158 13159 13160 13161 13162 13163 13164 13165 13166 13167 13168 13169 13170 13171 13172 13173 13174 13175 13176 13177 13178 13179 13180 13181 13182 13183 13184 13185 13186 13187 13188 13189 13190 13191 13192 13193 13194 13195 13196 13197 13198 13199 13200 13201 13202 13203 13204 13205 13206 13207 13208 13209 13210 13211 13212 13213 13214 13215 13216 13217 13218 13219 13220 13221 13222 13223 13224 13225 13226 13227 13228 13229 13230 13231 13232 13233 13234 13235 13236 13237 13238 13239 13240 13241 13242 13243 13244 13245 13246 13247 13248 13249 13250 13251 13252 13253 13254 13255 13256 13257 13258 13259 13260 13261 13262 13263 13264 13265 13266 13267 13268 13269 13270 13271 13272 13273 13274 13275 13276 13277 13278 13279 13280 13281 13282 13283 13284 13285 13286 13287 13288 13289 13290 13291 13292 13293 13294 13295 13296 13297 13298 13299 13300 13301 13302 13303 13304 13305 13306 13307 13308 13309 13310 13311 13312 13313 13314 13315 13316 13317 13318 13319 13320 13321 13322 13323 13324 13325 13326 13327 13328 13329 13330 13331 13332 13333 13334 13335 13336 13337 13338 13339 13340 13341 13342 13343 13344 13345 13346 13347 13348 13349 13350 13351 13352 13353 13354 13355 13356 13357 13358 13359 13360 13361 13362 13363 13364 13365 13366 13367 13368 13369 13370 13371 13372 13373 13374 13375 13376 13377 13378 13379 13380 13381 13382 13383 13384 13385 13386 13387 13388 13389 13390 13391 13392 13393 13394 13395 13396 13397 13398 13399 13400 13401 13402 13403 13404 13405 13406 13407 13408 13409 13410 13411 13412 13413 13414 13415 13416 13417 13418 13419 13420 13421 13422 13423 13424 13425 13426 13427 13428 13429 13430 13431 13432 13433 13434 13435 13436 13437 13438 13439 13440 13441 13442 13443 13444 13445 13446 13447 13448 13449 13450 13451 13452 13453 13454 13455 13456 13457 13458 13459 13460 13461 13462 13463 13464 13465 13466 13467 13468 13469 13470 13471 13472 13473 13474 13475 13476 13477 13478 13479 13480 13481 13482 13483 13484 13485 13486 13487 13488 13489 13490 13491 13492 13493 13494 13495 13496 13497 13498 13499 13500 13501 13502 13503 13504 13505 13506 13507 13508 13509 13510 13511 13512 13513 13514 13515 13516 13517 13518 13519 13520 13521 13522 13523 13524 13525 13526 13527 13528 13529 13530 13531 13532 13533 13534 13535 13536 13537 13538 13539 13540 13541 13542 13543 13544 13545 13546 13547 13548 13549 13550 13551 13552 13553 13554 13555 13556 13557 13558 13559 13560 13561 13562 13563 13564 13565 13566 13567 13568 13569 13570 13571 13572 13573 13574 13575 13576 13577 13578 13579 13580 13581 13582 13583 13584 13585 13586 13587 13588 13589 13590 13591 13592 13593 13594 13595 13596 13597 13598 13599 13600 13601 13602 13603 13604 13605 13606 13607 13608 13609 13610 13611 13612 13613 13614 13615 13616 13617 13618 13619 13620 13621 13622 13623 13624 13625 13626 13627 13628 13629 13630 13631 13632 13633 13634 13635 13636 13637 13638 13639 13640 13641 13642 13643 13644 13645 13646 13647 13648 13649 13650 13651 13652 13653 13654 13655 13656 13657 13658 13659 13660 13661 13662 13663 13664 13665 13666 13667 13668 13669 13670 13671 13672 13673 13674 13675 13676 13677 13678 13679 13680 13681 13682 13683 13684 13685 13686 13687 13688 13689 13690 13691 13692 13693 13694 13695 13696 13697 13698 13699 13700 13701 13702 13703 13704 13705 13706 13707 13708 13709 13710 13711 13712 13713 13714 13715 13716 13717 13718 13719 13720 13721 13722 13723 13724 13725 13726 13727 13728 13729 13730 13731 13732 13733 13734 13735 13736 13737 13738 13739 13740 13741 13742 13743 13744 13745 13746 13747 13748 13749 13750 13751 13752 13753 13754 13755 13756 13757 13758 13759 13760 13761 13762 13763 13764 13765 13766 13767 13768 13769 13770 13771 13772 13773 13774 13775 13776 13777 13778 13779 13780 13781 13782 13783 13784 13785 13786 13787 13788 13789 13790 13791 13792 13793 13794 13795 13796 13797 13798 13799 13800 13801 13802 13803 13804 13805 13806 13807 13808 13809 13810 13811 13812 13813 13814 13815 13816 13817 13818 13819 13820 13821 13822 13823 13824 13825 13826 13827 13828 13829 13830 13831 13832 13833 13834 13835 13836 13837 13838 13839 13840 13841 13842 13843 13844 13845 13846 13847 13848 13849 13850 13851 13852 13853 13854 13855 13856 13857 13858 13859 13860 13861 13862 13863 13864 13865 13866 13867 13868 13869 13870 13871 13872 13873 13874 13875 13876 13877 13878 13879 13880 13881 13882 13883 13884 13885 13886 13887 13888 13889 13890 13891 13892 13893 13894 13895 13896 13897 13898 13899 13900 13901 13902 13903 13904 13905 13906 13907 13908 13909 13910 13911 13912 13913 13914 13915 13916 13917 13918 13919 13920 13921 13922 13923 13924 13925 13926 13927 13928 13929 13930 13931 13932 13933 13934 13935 13936 13937 13938 13939 13940 13941 13942 13943 13944 13945 13946 13947 13948 13949 13950 13951 13952 13953 13954 13955 13956 13957 13958 13959 13960 13961 13962 13963 13964 13965 13966 13967 13968 13969 13970 13971 13972 13973 13974 13975 13976 13977 13978 13979 13980 13981 13982 13983 13984 13985 13986 13987 13988 13989 13990 13991 13992 13993 13994 13995 13996 13997 13998 13999 14000 14001 14002 14003 14004 14005 14006 14007 14008 14009 14010 14011 14012 14013 14014 14015 14016 14017 14018 14019 14020 14021 14022 14023 14024 14025 14026 14027 14028 14029 14030 14031 14032 14033 14034 14035 14036 14037 14038 14039 14040 14041 14042 14043 14044 14045 14046 14047 14048 14049 14050 14051 14052 14053 14054 14055 14056 14057 14058 14059 14060 14061 14062 14063 14064 14065 14066 14067 14068 14069 14070 14071 14072 14073 14074 14075 14076 14077 14078 14079 14080 14081 14082 14083 14084 14085 14086 14087 14088 14089 14090 14091 14092 14093 14094 14095 14096 14097 14098 14099 14100 14101 14102 14103 14104 14105 14106 14107 14108 14109 14110 14111 14112 14113 14114 14115 14116 14117 14118 14119 14120 14121 14122 14123 14124 14125 14126 14127 14128 14129 14130 14131 14132 14133 14134 14135 14136 14137 14138 14139 14140 14141 14142 14143 14144 14145 14146 14147 14148 14149 14150 14151 14152 14153 14154 14155 14156 14157 14158 14159 14160 14161 14162 14163 14164 14165 14166 14167 14168 14169 14170 14171 14172 14173 14174 14175 14176 14177 14178 14179 14180 14181 14182 14183 14184 14185 14186 14187 14188 14189 14190 14191 14192 14193 14194 14195 14196 14197 14198 14199 14200 14201 14202 14203 14204 14205 14206 14207 14208 14209 14210 14211 14212 14213 14214 14215 14216 14217 14218 14219 14220 14221 14222 14223 14224 14225 14226 14227 14228 14229 14230 14231 14232 14233 14234 14235 14236 14237 14238 14239 14240 14241 14242 14243 14244 14245 14246 14247 14248 14249 14250 14251 14252 14253 14254 14255 14256 14257 14258 14259 14260 14261 14262 14263 14264 14265 14266 14267 14268 14269 14270 14271 14272 14273 14274 14275 14276 14277 14278 14279 14280 14281 14282 14283 14284 14285 14286 14287 14288 14289 14290 14291 14292 14293 14294 14295 14296 14297 14298 14299 14300 14301 14302 14303 14304 14305 14306 14307 14308 14309 14310 14311 14312 14313 14314 14315 14316 14317 14318 14319 14320 14321 14322 14323 14324 14325 14326 14327 14328 14329 14330 14331 14332 14333 14334 14335 14336 14337 14338 14339 14340 14341 14342 14343 14344 14345 14346 14347 14348 14349 14350 14351 14352 14353 14354 14355 14356 14357 14358 14359 14360 14361 14362 14363 14364 14365 14366 14367 14368 14369 14370 14371 14372 14373 14374 14375 14376 14377 14378 14379 14380 14381 14382 14383 14384 14385 14386 14387 14388 14389 14390 14391 14392 14393 14394 14395 14396 14397 14398 14399 14400 14401 14402 14403 14404 14405 14406 14407 14408 14409 14410 14411 14412 14413 14414 14415 14416 14417 14418 14419 14420 14421 14422 14423 14424 14425 14426 14427 14428 14429 14430 14431 14432 14433 14434 14435 14436 14437 14438 14439 14440 14441 14442 14443 14444 14445 14446 14447 14448 14449 14450 14451 14452 14453 14454 14455 14456 14457 14458 14459 14460 14461 14462 14463 14464 14465 14466 14467 14468 14469 14470 14471 14472 14473 14474 14475 14476 14477 14478 14479 14480 14481 14482 14483 14484 14485 14486 14487 14488 14489 14490 14491 14492 14493 14494 14495 14496 14497 14498 14499 14500 14501 14502 14503 14504 14505 14506 14507 14508 14509 14510 14511 14512 14513 14514 14515 14516 14517 14518 14519 14520 14521 14522 14523 14524 14525 14526 14527 14528 14529 14530 14531 14532 14533 14534 14535 14536 14537 14538 14539 14540 14541 14542 14543 14544 14545 14546 14547 14548 14549 14550 14551 14552 14553 14554 14555 14556 14557 14558 14559 14560 14561 14562 14563 14564 14565 14566 14567 14568 14569 14570 14571 14572 14573 14574 14575 14576 14577 14578 14579 14580 14581 14582 14583 14584 14585 14586 14587 14588 14589 14590 14591 14592 14593 14594 14595 14596 14597 14598 14599 14600 14601 14602 14603 14604 14605 14606 14607 14608 14609 14610 14611 14612 14613 14614 14615 14616 14617 14618 14619 14620 14621 14622 14623 14624 14625 14626 14627 14628 14629 14630 14631 14632 14633 14634 14635 14636 14637 14638 14639 14640 14641 14642 14643 14644 14645 14646 14647 14648 14649 14650 14651 14652 14653 14654 14655 14656 14657 14658 14659 14660 14661 14662 14663 14664 14665 14666 14667 14668 14669 14670 14671 14672 14673 14674 14675 14676 14677 14678 14679 14680 14681 14682 14683 14684 14685 14686 14687 14688 14689 14690 14691 14692 14693 14694 14695 14696 14697 14698 14699 14700 14701 14702 14703 14704 14705 14706 14707 14708 14709 14710 14711 14712 14713 14714 14715 14716 14717 14718 14719 14720 14721 14722 14723 14724 14725 14726 14727 14728 14729 14730 14731 14732 14733 14734 14735 14736 14737 14738 14739 14740 14741 14742 14743 14744 14745 14746 14747 14748 14749 14750 14751 14752 14753 14754 14755 14756 14757 14758 14759 14760 14761 14762 14763 14764 14765 14766 14767 14768 14769 14770 14771 14772 14773 14774 14775 14776 14777 14778 14779 14780 14781 14782 14783 14784 14785 14786 14787 14788 14789 14790 14791 14792 14793 14794 14795 14796 14797 14798 14799 14800 14801 14802 14803 14804 14805 14806 14807 14808 14809 14810 14811 14812 14813 14814 14815 14816 14817 14818 14819 14820 14821 14822 14823 14824 14825 14826 14827 14828 14829 14830 14831 14832 14833 14834 14835 14836 14837 14838 14839 14840 14841 14842 14843 14844 14845 14846 14847 14848 14849 14850 14851 14852 14853 14854 14855 14856 14857 14858 14859 14860 14861 14862 14863 14864 14865 14866 14867 14868 14869 14870 14871 14872 14873 14874 14875 14876 14877 14878 14879 14880 14881 14882 14883 14884 14885 14886 14887 14888 14889 14890 14891 14892 14893 14894 14895 14896 14897 14898 14899 14900 14901 14902 14903 14904 14905 14906 14907 14908 14909 14910 14911 14912 14913 14914 14915 14916 14917 14918 14919 14920 14921 14922 14923 14924 14925 14926 14927 14928 14929 14930 14931 14932 14933 14934 14935 14936 14937 14938 14939 14940 14941 14942 14943 14944 14945 14946 14947 14948 14949 14950 14951 14952 14953 14954 14955 14956 14957 14958 14959 14960 14961 14962 14963 14964 14965 14966 14967 14968 14969 14970 14971 14972 14973 14974 14975 14976 14977 14978 14979 14980 14981 14982 14983 14984 14985 14986 14987 14988 14989 14990 14991 14992 14993 14994 14995 14996 14997 14998 14999 15000 15001 15002 15003 15004 15005 15006 15007 15008 15009 15010 15011 15012 15013 15014 15015 15016 15017 15018 15019 15020 15021 15022 15023 15024 15025 15026 15027 15028 15029 15030 15031 15032 15033 15034 15035 15036 15037 15038 15039 15040 15041 15042 15043 15044 15045 15046 15047 15048 15049 15050 15051 15052 15053 15054 15055 15056 15057 15058 15059 15060 15061 15062 15063 15064 15065 15066 15067 15068 15069 15070 15071 15072 15073 15074 15075 15076 15077 15078 15079 15080 15081 15082 15083 15084 15085 15086 15087 15088 15089 15090 15091 15092 15093 15094 15095 15096 15097 15098 15099 15100 15101 15102 15103 15104 15105 15106 15107 15108 15109 15110 15111 15112 15113 15114 15115 15116 15117 15118 15119 15120 15121 15122 15123 15124 15125 15126 15127 15128 15129 15130 15131 15132 15133 15134 15135 15136 15137 15138 15139 15140 15141 15142 15143 15144 15145 15146 15147 15148 15149 15150 15151 15152 15153 15154 15155 15156 15157 15158 15159 15160 15161 15162 15163 15164 15165 15166 15167 15168 15169 15170 15171 15172 15173 15174 15175 15176 15177 15178 15179 15180 15181 15182 15183 15184 15185 15186 15187 15188 15189 15190 15191 15192 15193 15194 15195 15196 15197 15198 15199 15200 15201 15202 15203 15204 15205 15206 15207 15208 15209 15210 15211 15212 15213 15214 15215 15216 15217 15218 15219 15220 15221 15222 15223 15224 15225 15226 15227 15228 15229 15230 15231 15232 15233 15234 15235 15236 15237 15238 15239 15240 15241 15242 15243 15244 15245 15246 15247 15248 15249 15250 15251 15252 15253 15254 15255 15256 15257 15258 15259 15260 15261 15262 15263 15264 15265 15266 15267 15268 15269 15270 15271 15272 15273 15274 15275 15276 15277 15278 15279 15280 15281 15282 15283 15284 15285 15286 15287 15288 15289 15290 15291 15292 15293 15294 15295 15296 15297 15298 15299 15300 15301 15302 15303 15304 15305 15306 15307 15308 15309 15310 15311 15312 15313 15314 15315 15316 15317 15318 15319 15320 15321 15322 15323 15324 15325 15326 15327 15328 15329 15330 15331 15332 15333 15334 15335 15336 15337 15338 15339 15340 15341 15342 15343 15344 15345 15346 15347 15348 15349 15350 15351 15352 15353 15354 15355 15356 15357 15358 15359 15360 15361 15362 15363 15364 15365 15366 15367 15368 15369 15370 15371 15372 15373 15374 15375 15376 15377 15378 15379 15380 15381 15382 15383 15384 15385 15386 15387 15388 15389 15390 15391 15392 15393 15394 15395 15396 15397 15398 15399 15400 15401 15402 15403 15404 15405 15406 15407 15408 15409 15410 15411 15412 15413 15414 15415 15416 15417 15418 15419 15420 15421 15422 15423 15424 15425 15426 15427 15428 15429 15430 15431 15432 15433 15434 15435 15436 15437 15438 15439 15440 15441 15442 15443 15444 15445 15446 15447 15448 15449 15450 15451 15452 15453 15454 15455 15456 15457 15458 15459 15460 15461 15462 15463 15464 15465 15466 15467 15468 15469 15470 15471 15472 15473 15474 15475 15476 15477 15478 15479 15480 15481 15482 15483 15484 15485 15486 15487 15488 15489 15490 15491 15492 15493 15494 15495 15496 15497 15498 15499 15500 15501 15502 15503 15504 15505 15506 15507 15508 15509 15510 15511 15512 15513 15514 15515 15516 15517 15518 15519 15520 15521 15522 15523 15524 15525 15526 15527 15528 15529 15530 15531 15532 15533 15534 15535 15536 15537 15538 15539 15540 15541 15542 15543 15544 15545 15546 15547 15548 15549 15550 15551 15552 15553 15554 15555 15556 15557 15558 15559 15560 15561 15562 15563 15564 15565 15566 15567 15568 15569 15570 15571 15572 15573 15574 15575 15576 15577 15578 15579 15580 15581 15582 15583 15584 15585 15586 15587 15588 15589 15590 15591 15592 15593 15594 15595 15596 15597 15598 15599 15600 15601 15602 15603 15604 15605 15606 15607 15608 15609 15610 15611 15612 15613 15614 15615 15616 15617 15618 15619 15620 15621 15622 15623 15624 15625 15626 15627 15628 15629 15630 15631 15632 15633 15634 15635 15636 15637 15638 15639 15640 15641 15642 15643 15644 15645 15646 15647 15648 15649 15650 15651 15652 15653 15654 15655 15656 15657 15658 15659 15660 15661 15662 15663 15664 15665 15666 15667 15668 15669 15670 15671 15672 15673 15674 15675 15676 15677 15678 15679 15680 15681 15682 15683 15684 15685 15686 15687 15688 15689 15690 15691 15692 15693 15694 15695 15696 15697 15698 15699 15700 15701 15702 15703 15704 15705 15706 15707 15708 15709 15710 15711 15712 15713 15714 15715 15716 15717 15718 15719 15720 15721 15722 15723 15724 15725 15726 15727 15728 15729 15730 15731 15732 15733 15734 15735 15736 15737 15738 15739 15740 15741 15742 15743 15744 15745 15746 15747 15748 15749 15750 15751 15752 15753 15754 15755 15756 15757 15758 15759 15760 15761 15762 15763 15764 15765 15766 15767 15768 15769 15770 15771 15772 15773 15774 15775 15776 15777 15778 15779 15780 15781 15782 15783 15784 15785 15786 15787 15788 15789 15790 15791 15792 15793 15794 15795 15796 15797 15798 15799 15800 15801 15802 15803 15804 15805 15806 15807 15808 15809 15810 15811 15812 15813 15814 15815 15816 15817 15818 15819 15820 15821 15822 15823 15824 15825 15826 15827 15828 15829 15830 15831 15832 15833 15834 15835 15836 15837 15838 15839 15840 15841 15842 15843 15844 15845 15846 15847 15848 15849 15850 15851 15852 15853 15854 15855 15856 15857 15858 15859 15860 15861 15862 15863 15864 15865 15866 15867 15868 15869 15870 15871 15872 15873 15874 15875 15876 15877 15878 15879 15880 15881 15882 15883 15884 15885 15886 15887 15888 15889 15890 15891 15892 15893 15894 15895 15896 15897 15898 15899 15900 15901 15902 15903 15904 15905 15906 15907 15908 15909 15910 15911 15912 15913 15914 15915 15916 15917 15918 15919 15920 15921 15922 15923 15924 15925 15926 15927 15928 15929 15930 15931 15932 15933 15934 15935 15936 15937 15938 15939 15940 15941 15942 15943 15944 15945 15946 15947 15948 15949 15950 15951 15952 15953 15954 15955 15956 15957 15958 15959 15960 15961 15962 15963 15964 15965 15966 15967 15968 15969 15970 15971 15972 15973 15974 15975 15976 15977 15978 15979 15980 15981 15982 15983 15984 15985 15986 15987 15988 15989 15990 15991 15992 15993 15994 15995 15996 15997 15998 15999 16000 16001 16002 16003 16004 16005 16006 16007 16008 16009 16010 16011 16012 16013 16014 16015 16016 16017 16018 16019 16020 16021 16022 16023 16024 16025 16026 16027 16028 16029 16030 16031 16032 16033 16034 16035 16036 16037 16038 16039 16040 16041 16042 16043 16044 16045 16046 16047 16048 16049 16050 16051 16052 16053 16054 16055 16056 16057 16058 16059 16060 16061 16062 16063 16064 16065 16066 16067 16068 16069 16070 16071 16072 16073 16074 16075 16076 16077 16078 16079 16080 16081 16082 16083 16084 16085 16086 16087 16088 16089 16090 16091 16092 16093 16094 16095 16096 16097 16098 16099 16100 16101 16102 16103 16104 16105 16106 16107 16108 16109 16110 16111 16112 16113 16114 16115 16116 16117 16118 16119 16120 16121 16122 16123 16124 16125 16126 16127 16128 16129 16130 16131 16132 16133 16134 16135 16136 16137 16138 16139 16140 16141 16142 16143 16144 16145 16146 16147 16148 16149 16150 16151 16152 16153 16154 16155 16156 16157 16158 16159 16160 16161 16162 16163 16164 16165 16166 16167 16168 16169 16170 16171 16172 16173 16174 16175 16176 16177 16178 16179 16180 16181 16182 16183 16184 16185 16186 16187 16188 16189 16190 16191 16192 16193 16194 16195 16196 16197 16198 16199 16200 16201 16202 16203 16204 16205 16206 16207 16208 16209 16210 16211 16212 16213 16214 16215 16216 16217 16218 16219 16220 16221 16222 16223 16224 16225 16226 16227 16228 16229 16230 16231 16232 16233 16234 16235 16236 16237 16238 16239 16240 16241 16242 16243 16244 16245 16246 16247 16248 16249 16250 16251 16252 16253 16254 16255 16256 16257 16258 16259 16260 16261 16262 16263 16264 16265 16266 16267 16268 16269 16270 16271 16272 16273 16274 16275 16276 16277 16278 16279 16280 16281 16282 16283 16284 16285 16286 16287 16288 16289 16290 16291 16292 16293 16294 16295 16296 16297 16298 16299 16300 16301 16302 16303 16304 16305 16306 16307 16308 16309 16310 16311 16312 16313 16314 16315 16316 16317 16318 16319 16320 16321 16322 16323 16324 16325 16326 16327 16328 16329 16330 16331 16332 16333 16334 16335 16336 16337 16338 16339 16340 16341 16342 16343 16344 16345 16346 16347 16348 16349 16350 16351 16352 16353 16354 16355 16356 16357 16358 16359 16360 16361 16362 16363 16364 16365 16366 16367 16368 16369 16370 16371 16372 16373 16374 16375 16376 16377 16378 16379 16380 16381 16382 16383 16384 16385 16386 16387 16388 16389 16390 16391 16392 16393 16394 16395 16396 16397 16398 16399 16400 16401 16402 16403 16404 16405 16406 16407 16408 16409 16410 16411 16412 16413 16414 16415 16416 16417 16418 16419 16420 16421 16422 16423 16424 16425 16426 16427 16428 16429 16430 16431 16432 16433 16434 16435 16436 16437 16438 16439 16440 16441 16442 16443 16444 16445 16446 16447 16448 16449 16450 16451 16452 16453 16454 16455 16456 16457 16458 16459 16460 16461 16462 16463 16464 16465 16466 16467 16468 16469 16470 16471 16472 16473 16474 16475 16476 16477 16478 16479 16480 16481 16482 16483 16484 16485 16486 16487 16488 16489 16490 16491 16492 16493 16494 16495 16496 16497 16498 16499 16500 16501 16502 16503 16504 16505 16506 16507 16508 16509 16510 16511 16512 16513 16514 16515 16516 16517 16518 16519 16520 16521 16522 16523 16524 16525 16526 16527 16528 16529 16530 16531 16532 16533 16534 16535 16536 16537 16538 16539 16540 16541 16542 16543 16544 16545 16546 16547 16548 16549 16550 16551 16552 16553 16554 16555 16556 16557 16558 16559 16560 16561 16562 16563 16564 16565 16566 16567 16568 16569 16570 16571 16572 16573 16574 16575 16576 16577 16578 16579 16580 16581 16582 16583 16584 16585 16586 16587 16588 16589 16590 16591 16592 16593 16594 16595 16596 16597 16598 16599 16600 16601 16602 16603 16604 16605 16606 16607 16608 16609 16610 16611 16612 16613 16614 16615 16616 16617 16618 16619 16620 16621 16622 16623 16624 16625 16626 16627 16628 16629 16630 16631 16632 16633 16634 16635 16636 16637 16638 16639 16640 16641 16642 16643 16644 16645 16646 16647 16648 16649 16650 16651 16652 16653 16654 16655 16656 16657 16658 16659 16660 16661 16662 16663 16664 16665 16666 16667 16668 16669 16670 16671 16672 16673 16674 16675 16676 16677 16678 16679 16680 16681 16682 16683 16684 16685 16686 16687 16688 16689 16690 16691 16692 16693 16694 16695 16696 16697 16698 16699 16700 16701 16702 16703 16704 16705 16706 16707 16708 16709 16710 16711 16712 16713 16714 16715 16716 16717 16718 16719 16720 16721 16722 16723 16724 16725 16726 16727 16728 16729 16730 16731 16732 16733 16734 16735 16736 16737 16738 16739 16740 16741 16742 16743 16744 16745 16746 16747 16748 16749 16750 16751 16752 16753 16754 16755 16756 16757 16758 16759 16760 16761 16762 16763 16764 16765 16766 16767 16768 16769 16770 16771 16772 16773 16774 16775 16776 16777 16778 16779 16780 16781 16782 16783 16784 16785 16786 16787 16788 16789 16790 16791 16792 16793 16794 16795 16796 16797 16798 16799 16800 16801 16802 16803 16804 16805 16806 16807 16808 16809 16810 16811 16812 16813 16814 16815 16816 16817 16818 16819 16820 16821 16822 16823 16824 16825 16826 16827 16828 16829 16830 16831 16832 16833 16834 16835 16836 16837 16838 16839 16840 16841 16842 16843 16844 16845 16846 16847 16848 16849 16850 16851 16852 16853 16854 16855 16856 16857 16858 16859 16860 16861 16862 16863 16864 16865 16866 16867 16868 16869 16870 16871 16872 16873 16874 16875 16876 16877 16878 16879 16880 16881 16882 16883 16884 16885 16886 16887 16888 16889 16890 16891 16892 16893 16894 16895 16896 16897 16898 16899 16900 16901 16902 16903 16904 16905 16906 16907 16908 16909 16910 16911 16912 16913 16914 16915 16916 16917 16918 16919 16920 16921 16922 16923 16924 16925 16926 16927 16928 16929 16930 16931 16932 16933 16934 16935 16936 16937 16938 16939 16940 16941 16942 16943 16944 16945 16946 16947 16948 16949 16950 16951 16952 16953 16954 16955 16956 16957 16958 16959 16960 16961 16962 16963 16964 16965 16966 16967 16968 16969 16970 16971 16972 16973 16974 16975 16976 16977 16978 16979 16980 16981 16982 16983 16984 16985 16986 16987 16988 16989 16990 16991 16992 16993 16994 16995 16996 16997 16998 16999 17000 17001 17002 17003 17004 17005 17006 17007 17008 17009 17010 17011 17012 17013 17014 17015 17016 17017 17018 17019 17020 17021 17022 17023 17024 17025 17026 17027 17028 17029 17030 17031 17032 17033 17034 17035 17036 17037 17038 17039 17040 17041 17042 17043 17044 17045 17046 17047 17048 17049 17050 17051 17052 17053 17054 17055 17056 17057 17058 17059 17060 17061 17062 17063 17064 17065 17066 17067 17068 17069 17070 17071 17072 17073 17074 17075 17076 17077 17078 17079 17080 17081 17082 17083 17084 17085 17086 17087 17088 17089 17090 17091 17092 17093 17094 17095 17096 17097 17098 17099 17100 17101 17102 17103 17104 17105 17106 17107 17108 17109 17110 17111 17112 17113 17114 17115 17116 17117 17118 17119 17120 17121 17122 17123 17124 17125 17126 17127 17128 17129 17130 17131 17132 17133 17134 17135 17136 17137 17138 17139 17140 17141 17142 17143 17144 17145 17146 17147 17148 17149 17150 17151 17152 17153 17154 17155 17156 17157 17158 17159 17160 17161 17162 17163 17164 17165 17166 17167 17168 17169 17170 17171 17172 17173 17174 17175 17176 17177 17178 17179 17180 17181 17182 17183 17184 17185 17186 17187 17188 17189 17190 17191 17192 17193 17194 17195 17196 17197 17198 17199 17200 17201 17202 17203 17204 17205 17206 17207 17208 17209 17210 17211 17212 17213 17214 17215 17216 17217 17218 17219 17220 17221 17222 17223 17224 17225 17226 17227 17228 17229 17230 17231 17232 17233 17234 17235 17236 17237 17238 17239 17240 17241 17242 17243 17244 17245 17246 17247 17248 17249 17250 17251 17252 17253 17254 17255 17256 17257 17258 17259 17260 17261 17262 17263 17264 17265 17266 17267 17268 17269 17270 17271 17272 17273 17274 17275 17276 17277 17278 17279 17280 17281 17282 17283 17284 17285 17286 17287 17288 17289 17290 17291 17292 17293 17294 17295 17296 17297 17298 17299 17300 17301 17302 17303 17304 17305 17306 17307 17308 17309 17310 17311 17312 17313 17314 17315 17316 17317 17318 17319 17320 17321 17322 17323 17324 17325 17326 17327 17328 17329 17330 17331 17332 17333 17334 17335 17336 17337 17338 17339 17340 17341 17342 17343 17344 17345 17346 17347 17348 17349 17350 17351 17352 17353 17354 17355 17356 17357 17358 17359 17360 17361 17362 17363 17364 17365 17366 17367 17368 17369 17370 17371 17372 17373 17374 17375 17376 17377 17378 17379 17380 17381 17382 17383 17384 17385 17386 17387 17388 17389 17390 17391 17392 17393 17394 17395 17396 17397 17398 17399 17400 17401 17402 17403 17404 17405 17406 17407 17408 17409 17410 17411 17412 17413 17414 17415 17416 17417 17418 17419 17420 17421 17422 17423 17424 17425 17426 17427 17428 17429 17430 17431 17432 17433 17434 17435 17436 17437 17438 17439 17440 17441 17442 17443 17444 17445 17446 17447 17448 17449 17450 17451 17452 17453 17454 17455 17456 17457 17458 17459 17460 17461 17462 17463 17464 17465 17466 17467 17468 17469 17470 17471 17472 17473 17474 17475 17476 17477 17478 17479 17480 17481 17482 17483 17484 17485 17486 17487 17488 17489 17490 17491 17492 17493 17494 17495 17496 17497 17498 17499 17500 17501 17502 17503 17504 17505 17506 17507 17508 17509 17510 17511 17512 17513 17514 17515 17516 17517 17518 17519 17520 17521 17522 17523 17524 17525 17526 17527 17528 17529 17530 17531 17532 17533 17534 17535 17536 17537 17538 17539 17540 17541 17542 17543 17544 17545 17546 17547 17548 17549 17550 17551 17552 17553 17554 17555 17556 17557 17558 17559 17560 17561 17562 17563 17564 17565 17566 17567 17568 17569 17570 17571 17572 17573 17574 17575 17576 17577 17578 17579 17580 17581 17582 17583 17584 17585 17586 17587 17588 17589 17590 17591 17592 17593 17594 17595 17596 17597 17598 17599 17600 17601 17602 17603 17604 17605 17606 17607 17608 17609 17610 17611 17612 17613 17614 17615 17616 17617 17618 17619 17620 17621 17622 17623 17624 17625 17626 17627 17628 17629 17630 17631 17632 17633 17634 17635 17636 17637 17638 17639 17640 17641 17642 17643 17644 17645 17646 17647 17648 17649 17650 17651 17652 17653 17654 17655 17656 17657 17658 17659 17660 17661 17662 17663 17664 17665 17666 17667 17668 17669 17670 17671 17672 17673 17674 17675 17676 17677 17678 17679 17680 17681 17682 17683 17684 17685 17686 17687 17688 17689 17690 17691 17692 17693 17694 17695 17696 17697 17698 17699 17700 17701 17702 17703 17704 17705 17706 17707 17708 17709 17710 17711 17712 17713 17714 17715 17716 17717 17718 17719 17720 17721 17722 17723 17724 17725 17726 17727 17728 17729 17730 17731 17732 17733 17734 17735 17736 17737 17738 17739 17740 17741 17742 17743 17744 17745 17746 17747 17748 17749 17750 17751 17752 17753 17754 17755 17756 17757 17758 17759 17760 17761 17762 17763 17764 17765 17766 17767 17768 17769 17770 17771 17772 17773 17774 17775 17776 17777 17778 17779 17780 17781 17782 17783 17784 17785 17786 17787 17788 17789 17790 17791 17792 17793 17794 17795 17796 17797 17798 17799 17800 17801 17802 17803 17804 17805 17806 17807 17808 17809 17810 17811 17812 17813 17814 17815 17816 17817 17818 17819 17820 17821 17822 17823 17824 17825 17826 17827 17828 17829 17830 17831 17832 17833 17834 17835 17836 17837 17838 17839 17840 17841 17842 17843 17844 17845 17846 17847 17848 17849 17850 17851 17852 17853 17854 17855 17856 17857 17858 17859 17860 17861 17862 17863 17864 17865 17866 17867 17868 17869 17870 17871 17872 17873 17874 17875 17876 17877 17878 17879 17880 17881 17882 17883 17884 17885 17886 17887 17888 17889 17890 17891 17892 17893 17894 17895 17896 17897 17898 17899 17900 17901 17902 17903 17904 17905 17906 17907 17908 17909 17910 17911 17912 17913 17914 17915 17916 17917 17918 17919 17920 17921 17922 17923 17924 17925 17926 17927 17928 17929 17930 17931 17932 17933 17934 17935 17936 17937 17938 17939 17940 17941 17942 17943 17944 17945 17946 17947 17948 17949 17950 17951 17952 17953 17954 17955 17956 17957 17958 17959 17960 17961 17962 17963 17964 17965 17966 17967 17968 17969 17970 17971 17972 17973 17974 17975 17976 17977 17978 17979 17980 17981 17982 17983 17984 17985 17986 17987 17988 17989 17990 17991 17992 17993 17994 17995 17996 17997 17998 17999 18000 18001 18002 18003 18004 18005 18006 18007 18008 18009 18010 18011 18012 18013 18014 18015 18016 18017 18018 18019 18020 18021 18022 18023 18024 18025 18026 18027 18028 18029 18030 18031 18032 18033 18034 18035 18036 18037 18038 18039 18040 18041 18042 18043 18044 18045 18046 18047 18048 18049 18050 18051 18052 18053 18054 18055 18056 18057 18058 18059 18060 18061 18062 18063 18064 18065 18066 18067 18068 18069 18070 18071 18072 18073 18074 18075 18076 18077 18078 18079 18080 18081 18082 18083 18084 18085 18086 18087 18088 18089 18090 18091 18092 18093 18094 18095 18096 18097 18098 18099 18100 18101 18102 18103 18104 18105 18106 18107 18108 18109 18110 18111 18112 18113 18114 18115 18116 18117 18118 18119 18120 18121 18122 18123 18124 18125 18126 18127 18128 18129 18130 18131 18132 18133 18134 18135 18136 18137 18138 18139 18140 18141 18142 18143 18144 18145 18146 18147 18148 18149 18150 18151 18152 18153 18154 18155 18156 18157 18158 18159 18160 18161 18162 18163 18164 18165 18166 18167 18168 18169 18170 18171 18172 18173 18174 18175 18176 18177 18178 18179 18180 18181 18182 18183 18184 18185 18186 18187 18188 18189 18190 18191 18192 18193 18194 18195 18196 18197 18198 18199 18200 18201 18202 18203 18204 18205 18206 18207 18208 18209 18210 18211 18212 18213 18214 18215 18216 18217 18218 18219 18220 18221 18222 18223 18224 18225 18226 18227 18228 18229 18230 18231 18232 18233 18234 18235 18236 18237 18238 18239 18240 18241 18242 18243 18244 18245 18246 18247 18248 18249 18250 18251 18252 18253 18254 18255 18256 18257 18258 18259 18260 18261 18262 18263 18264 18265 18266 18267 18268 18269 18270 18271 18272 18273 18274 18275 18276 18277 18278 18279 18280 18281 18282 18283 18284 18285 18286 18287 18288 18289 18290 18291 18292 18293 18294 18295 18296 18297 18298 18299 18300 18301 18302 18303 18304 18305 18306 18307 18308 18309 18310 18311 18312 18313 18314 18315 18316 18317 18318 18319 18320 18321 18322 18323 18324 18325 18326 18327 18328 18329 18330 18331 18332 18333 18334 18335 18336 18337 18338 18339 18340 18341 18342 18343 18344 18345 18346 18347 18348 18349 18350 18351 18352 18353 18354 18355 18356 18357 18358 18359 18360 18361 18362 18363 18364 18365 18366 18367 18368 18369 18370 18371 18372 18373 18374 18375 18376 18377 18378 18379 18380 18381 18382 18383 18384 18385 18386 18387 18388 18389 18390 18391 18392 18393 18394 18395 18396 18397 18398 18399 18400 18401 18402 18403 18404 18405 18406 18407 18408 18409 18410 18411 18412 18413 18414 18415 18416 18417 18418 18419 18420 18421 18422 18423 18424 18425 18426 18427 18428 18429 18430 18431 18432 18433 18434 18435 18436 18437 18438 18439 18440 18441 18442 18443 18444 18445 18446 18447 18448 18449 18450 18451 18452 18453 18454 18455 18456 18457 18458 18459 18460 18461 18462 18463 18464 18465 18466 18467 18468 18469 18470 18471 18472 18473 18474 18475 18476 18477 18478 18479 18480 18481 18482 18483 18484 18485 18486 18487 18488 18489 18490 18491 18492 18493 18494 18495 18496 18497 18498 18499 18500 18501 18502 18503 18504 18505 18506 18507 18508 18509 18510 18511 18512 18513 18514 18515 18516 18517 18518 18519 18520 18521 18522 18523 18524 18525 18526 18527 18528 18529 18530 18531 18532 18533 18534 18535 18536 18537 18538 18539 18540 18541 18542 18543 18544 18545 18546 18547 18548 18549 18550 18551 18552 18553 18554 18555 18556 18557 18558 18559 18560 18561 18562 18563 18564 18565 18566 18567 18568 18569 18570 18571 18572 18573 18574 18575 18576 18577 18578 18579 18580 18581 18582 18583 18584 18585 18586 18587 18588 18589 18590 18591 18592 18593 18594 18595 18596 18597 18598 18599 18600 18601 18602 18603 18604 18605 18606 18607 18608 18609 18610 18611 18612 18613 18614 18615 18616 18617 18618 18619 18620 18621 18622 18623 18624 18625 18626 18627 18628 18629 18630 18631 18632 18633 18634 18635 18636 18637 18638 18639 18640 18641 18642 18643 18644 18645 18646 18647 18648 18649 18650 18651 18652 18653 18654 18655 18656 18657 18658 18659 18660 18661 18662 18663 18664 18665 18666 18667 18668 18669 18670 18671 18672 18673 18674 18675 18676 18677 18678 18679 18680 18681 18682 18683 18684 18685 18686 18687 18688 18689 18690 18691 18692 18693 18694 18695 18696 18697 18698 18699 18700 18701 18702 18703 18704 18705 18706 18707 18708 18709 18710 18711 18712 18713 18714 18715 18716 18717 18718 18719 18720 18721 18722 18723 18724 18725 18726 18727 18728 18729 18730 18731 18732 18733 18734 18735 18736 18737 18738 18739 18740 18741 18742 18743 18744 18745 18746 18747 18748 18749 18750 18751 18752 18753 18754 18755 18756 18757 18758 18759 18760 18761 18762 18763 18764 18765 18766 18767 18768 18769 18770 18771 18772 18773 18774 18775 18776 18777 18778 18779 18780 18781 18782 18783 18784 18785 18786 18787 18788 18789 18790 18791 18792 18793 18794 18795 18796 18797 18798 18799 18800 18801 18802 18803 18804 18805 18806 18807 18808 18809 18810 18811 18812 18813 18814 18815 18816 18817 18818 18819 18820 18821 18822 18823 18824 18825 18826 18827 18828 18829 18830 18831 18832 18833 18834 18835 18836 18837 18838 18839 18840 18841 18842 18843 18844 18845 18846 18847 18848 18849 18850 18851 18852 18853 18854 18855 18856 18857 18858 18859 18860 18861 18862 18863 18864 18865 18866 18867 18868 18869 18870 18871 18872 18873 18874 18875 18876 18877 18878 18879 18880 18881 18882 18883 18884 18885 18886 18887 18888 18889 18890 18891 18892 18893 18894 18895 18896 18897 18898 18899 18900 18901 18902 18903 18904 18905 18906 18907 18908 18909 18910 18911 18912 18913 18914 18915 18916 18917 18918 18919 18920 18921 18922 18923 18924 18925 18926 18927 18928 18929 18930 18931 18932 18933 18934 18935 18936 18937 18938 18939 18940 18941 18942 18943 18944 18945 18946 18947 18948 18949 18950 18951 18952 18953 18954 18955 18956 18957 18958 18959 18960 18961 18962 18963 18964 18965 18966 18967 18968 18969 18970 18971 18972 18973 18974 18975 18976 18977 18978 18979 18980 18981 18982 18983 18984 18985 18986 18987 18988 18989 18990 18991 18992 18993 18994 18995 18996 18997 18998 18999 19000 19001 19002 19003 19004 19005 19006 19007 19008 19009 19010 19011 19012 19013 19014 19015 19016 19017 19018 19019 19020 19021 19022 19023 19024 19025 19026 19027 19028 19029 19030 19031 19032 19033 19034 19035 19036 19037 19038 19039 19040 19041 19042 19043 19044 19045 19046 19047 19048 19049 19050 19051 19052 19053 19054 19055 19056 19057 19058 19059 19060 19061 19062 19063 19064 19065 19066 19067 19068 19069 19070 19071 19072 19073 19074 19075 19076 19077 19078 19079 19080 19081 19082 19083 19084 19085 19086 19087 19088 19089 19090 19091 19092 19093 19094 19095 19096 19097 19098 19099 19100 19101 19102 19103 19104 19105 19106 19107 19108 19109 19110 19111 19112 19113 19114 19115 19116 19117 19118 19119 19120 19121 19122 19123 19124 19125 19126 19127 19128 19129 19130 19131 19132 19133 19134 19135 19136 19137 19138 19139 19140 19141 19142 19143 19144 19145 19146 19147 19148 19149 19150 19151 19152 19153 19154 19155 19156 19157 19158 19159 19160 19161 19162 19163 19164 19165 19166 19167 19168 19169 19170 19171 19172 19173 19174 19175 19176 19177 19178 19179 19180 19181 19182 19183 19184 19185 19186 19187 19188 19189 19190 19191 19192 19193 19194 19195 19196 19197 19198 19199 19200 19201 19202 19203 19204 19205 19206 19207 19208 19209 19210 19211 19212 19213 19214 19215 19216 19217 19218 19219 19220 19221 19222 19223 19224 19225 19226 19227 19228 19229 19230 19231 19232 19233 19234 19235 19236 19237 19238 19239 19240 19241 19242 19243 19244 19245 19246 19247 19248 19249 19250 19251 19252 19253 19254 19255 19256 19257 19258 19259 19260 19261 19262 19263 19264 19265 19266 19267 19268 19269 19270 19271 19272 19273 19274 19275 19276 19277 19278 19279 19280 19281 19282 19283 19284 19285 19286 19287 19288 19289 19290 19291 19292 19293 19294 19295 19296 19297 19298 19299 19300 19301 19302 19303 19304 19305 19306 19307 19308 19309 19310 19311 19312 19313 19314 19315 19316 19317 19318 19319 19320 19321 19322 19323 19324 19325 19326 19327 19328 19329 19330 19331 19332 19333 19334 19335 19336 19337 19338 19339 19340 19341 19342 19343 19344 19345 19346 19347 19348 19349 19350 19351 19352 19353 19354 19355 19356 19357 19358 19359 19360 19361 19362 19363 19364 19365 19366 19367 19368 19369 19370 19371 19372 19373 19374 19375 19376 19377 19378 19379 19380 19381 19382 19383 19384 19385 19386 19387 19388 19389 19390 19391 19392 19393 19394 19395 19396 19397 19398 19399 19400 19401 19402 19403 19404 19405 19406 19407 19408 19409 19410 19411 19412 19413 19414 19415 19416 19417 19418 19419 19420 19421 19422 19423 19424 19425 19426 19427 19428 19429 19430 19431 19432 19433 19434 19435 19436 19437 19438 19439 19440 19441 19442 19443 19444 19445 19446 19447 19448 19449 19450 19451 19452 19453 19454 19455 19456 19457 19458 19459 19460 19461 19462 19463 19464 19465 19466 19467 19468 19469 19470 19471 19472 19473 19474 19475 19476 19477 19478 19479 19480 19481 19482 19483 19484 19485 19486 19487 19488 19489 19490 19491 19492 19493 19494 19495 19496 19497 19498 19499 19500 19501 19502 19503 19504 19505 19506 19507 19508 19509 19510 19511 19512 19513 19514 19515 19516 19517 19518 19519 19520 19521 19522 19523 19524 19525 19526 19527 19528 19529 19530 19531 19532 19533 19534 19535 19536 19537 19538 19539 19540 19541 19542 19543 19544 19545 19546 19547 19548 19549 19550 19551 19552 19553 19554 19555 19556 19557 19558 19559 19560 19561 19562 19563 19564 19565 19566 19567 19568 19569 19570 19571 19572 19573 19574 19575 19576 19577 19578 19579 19580 19581 19582 19583 19584 19585 19586 19587 19588 19589 19590 19591 19592 19593 19594 19595 19596 19597 19598 19599 19600 19601 19602 19603 19604 19605 19606 19607 19608 19609 19610 19611 19612 19613 19614 19615 19616 19617 19618 19619 19620 19621 19622 19623 19624 19625 19626 19627 19628 19629 19630 19631 19632 19633 19634 19635 19636 19637 19638 19639 19640 19641 19642 19643 19644 19645 19646 19647 19648 19649 19650 19651 19652 19653 19654 19655 19656 19657 19658 19659 19660 19661 19662 19663 19664 19665 19666 19667 19668 19669 19670 19671 19672 19673 19674 19675 19676 19677 19678 19679 19680 19681 19682 19683 19684 19685 19686 19687 19688 19689 19690 19691 19692 19693 19694 19695 19696 19697 19698 19699 19700 19701 19702 19703 19704 19705 19706 19707 19708 19709 19710 19711 19712 19713 19714 19715 19716 19717 19718 19719 19720 19721 19722 19723 19724 19725 19726 19727 19728 19729 19730 19731 19732 19733 19734 19735 19736 19737 19738 19739 19740 19741 19742 19743 19744 19745 19746 19747 19748 19749 19750 19751 19752 19753 19754 19755 19756 19757 19758 19759 19760 19761 19762 19763 19764 19765 19766 19767 19768 19769 19770 19771 19772 19773 19774 19775 19776 19777 19778 19779 19780 19781 19782 19783 19784 19785 19786 19787 19788 19789 19790 19791 19792 19793 19794 19795 19796 19797 19798 19799 19800 19801 19802 19803 19804 19805 19806 19807 19808 19809 19810 19811 19812 19813 19814 19815 19816 19817 19818 19819 19820 19821 19822 19823 19824 19825 19826 19827 19828 19829 19830 19831 19832 19833 19834 19835 19836 19837 19838 19839 19840 19841 19842 19843 19844 19845 19846 19847 19848 19849 19850 19851 19852 19853 19854 19855 19856 19857 19858 19859 19860 19861 19862 19863 19864 19865 19866 19867 19868 19869 19870 19871 19872 19873 19874 19875 19876 19877 19878 19879 19880 19881 19882 19883 19884 19885 19886 19887 19888 19889 19890 19891 19892 19893 19894 19895 19896 19897 19898 19899 19900 19901 19902 19903 19904 19905 19906 19907 19908 19909 19910 19911 19912 19913 19914 19915 19916 19917 19918 19919 19920 19921 19922 19923 19924 19925 19926 19927 19928 19929 19930 19931 19932 19933 19934 19935 19936 19937 19938 19939 19940 19941 19942 19943 19944 19945 19946 19947 19948 19949 19950 19951 19952 19953 19954 19955 19956 19957 19958 19959 19960 19961 19962 19963 19964 19965 19966 19967 19968 19969 19970 19971 19972 19973 19974 19975 19976 19977 19978 19979 19980 19981 19982 19983 19984 19985 19986 19987 19988 19989 19990 19991 19992 19993 19994 19995 19996 19997 19998 19999 20000 20001 20002 20003 20004 20005 20006 20007 20008 20009 20010 20011 20012 20013 20014 20015 20016 20017 20018 20019 20020 20021 20022 20023 20024 20025 20026 20027 20028 20029 20030 20031 20032 20033 20034 20035 20036 20037 20038 20039 20040 20041 20042 20043 20044 20045 20046 20047 20048 20049 20050 20051 20052 20053 20054 20055 20056 20057 20058 20059 20060 20061 20062 20063 20064 20065 20066 20067 20068 20069 20070 20071 20072 20073 20074 20075 20076 20077 20078 20079 20080 20081 20082 20083 20084 20085 20086 20087 20088 20089 20090 20091 20092 20093 20094 20095 20096 20097 20098 20099 20100 20101 20102 20103 20104 20105 20106 20107 20108 20109 20110 20111 20112 20113 20114 20115 20116 20117 20118 20119 20120 20121 20122 20123 20124 20125 20126 20127 20128 20129 20130 20131 20132 20133 20134 20135 20136 20137 20138 20139 20140 20141 20142 20143 20144 20145 20146 20147 20148 20149 20150 20151 20152 20153 20154 20155 20156 20157 20158 20159 20160 20161 20162 20163 20164 20165 20166 20167 20168 20169 20170 20171 20172 20173 20174 20175 20176 20177 20178 20179 20180 20181 20182 20183 20184 20185 20186 20187 20188 20189 20190 20191 20192 20193 20194 20195 20196 20197 20198 20199 20200 20201 20202 20203 20204 20205 20206 20207 20208 20209 20210 20211 20212 20213 20214 20215 20216 20217 20218 20219 20220 20221 20222 20223 20224 20225 20226 20227 20228 20229 20230 20231 20232 20233 20234 20235 20236 20237 20238 20239 20240 20241 20242 20243 20244 20245 20246 20247 20248 20249 20250 20251 20252 20253 20254 20255 20256 20257 20258 20259 20260 20261 20262 20263 20264 20265 20266 20267 20268 20269 20270 20271 20272 20273 20274 20275 20276 20277 20278 20279 20280 20281 20282 20283 20284 20285 20286 20287 20288 20289 20290 20291 20292 20293 20294 20295 20296 20297 20298 20299 20300 20301 20302 20303 20304 20305 20306 20307 20308 20309 20310 20311 20312 20313 20314 20315 20316 20317 20318 20319 20320 20321 20322 20323 20324 20325 20326 20327 20328 20329 20330 20331 20332 20333 20334 20335 20336 20337 20338 20339 20340 20341 20342 20343 20344 20345 20346 20347 20348 20349 20350 20351 20352 20353 20354 20355 20356 20357 20358 20359 20360 20361 20362 20363 20364 20365 20366 20367 20368 20369 20370 20371 20372 20373 20374 20375 20376 20377 20378 20379 20380 20381 20382 20383 20384 20385 20386 20387 20388 20389 20390 20391 20392 20393 20394 20395 20396 20397 20398 20399 20400 20401 20402 20403 20404 20405 20406 20407 20408 20409 20410 20411 20412 20413 20414 20415 20416 20417 20418 20419 20420 20421 20422 20423 20424 20425 20426 20427 20428 20429 20430 20431 20432 20433 20434 20435 20436 20437 20438 20439 20440 20441 20442 20443 20444 20445 20446 20447 20448 20449 20450 20451 20452 20453 20454 20455 20456 20457 20458 20459 20460 20461 20462 20463 20464 20465 20466 20467 20468 20469 20470 20471 20472 20473 20474 20475 20476 20477 20478 20479 20480 20481 20482 20483 20484 20485 20486 20487 20488 20489 20490 20491 20492 20493 20494 20495 20496 20497 20498 20499 20500 20501 20502 20503 20504 20505 20506 20507 20508 20509 20510 20511 20512 20513 20514 20515 20516 20517 20518 20519 20520 20521 20522 20523 20524 20525 20526 20527 20528 20529 20530 20531 20532 20533 20534 20535 20536 20537 20538 20539 20540 20541 20542 20543 20544 20545 20546 20547 20548 20549 20550 20551 20552 20553 20554 20555 20556 20557 20558 20559 20560 20561 20562 20563 20564 20565 20566 20567 20568 20569 20570 20571 20572 20573 20574 20575 20576 20577 20578 20579 20580 20581 20582 20583 20584 20585 20586 20587 20588 20589 20590 20591 20592 20593 20594 20595 20596 20597 20598 20599 20600 20601 20602 20603 20604 20605 20606 20607 20608 20609 20610 20611 20612 20613 20614 20615 20616 20617 20618 20619 20620 20621 20622 20623 20624 20625 20626 20627 20628 20629 20630 20631 20632 20633 20634 20635 20636 20637 20638 20639 20640 20641 20642 20643 20644 20645 20646 20647 20648 20649 20650 20651 20652 20653 20654 20655 20656 20657 20658 20659 20660 20661 20662 20663 20664 20665 20666 20667 20668 20669 20670 20671 20672 20673 20674 20675 20676 20677 20678 20679 20680 20681 20682 20683 20684 20685 20686 20687 20688 20689 20690 20691 20692 20693 20694 20695 20696 20697 20698 20699 20700 20701 20702 20703 20704 20705 20706 20707 20708 20709 20710 20711 20712 20713 20714 20715 20716 20717 20718 20719 20720 20721 20722 20723 20724 20725 20726 20727 20728 20729 20730 20731 20732 20733 20734 20735 20736 20737 20738 20739 20740 20741 20742 20743 20744 20745 20746 20747 20748 20749 20750 20751 20752 20753 20754 20755 20756 20757 20758 20759 20760 20761 20762 20763 20764 20765 20766 20767 20768 20769 20770 20771 20772 20773 20774 20775 20776 20777 20778 20779 20780 20781 20782 20783 20784 20785 20786 20787 20788 20789 20790 20791 20792 20793 20794 20795 20796 20797 20798 20799 20800 20801 20802 20803 20804 20805 20806 20807 20808 20809 20810 20811 20812 20813 20814 20815 20816 20817 20818 20819 20820 20821 20822 20823 20824 20825 20826 20827 20828 20829 20830 20831 20832 20833 20834 20835 20836 20837 20838 20839 20840 20841 20842 20843 20844 20845 20846 20847 20848 20849 20850 20851 20852 20853 20854 20855 20856 20857 20858 20859 20860 20861 20862 20863 20864 20865 20866 20867 20868 20869 20870 20871 20872 20873 20874 20875 20876 20877 20878 20879 20880 20881 20882 20883 20884 20885 20886 20887 20888 20889 20890 20891 20892 20893 20894 20895 20896 20897 20898 20899 20900 20901 20902 20903 20904 20905 20906 20907 20908 20909 20910 20911 20912 20913 20914 20915 20916 20917 20918 20919 20920 20921 20922 20923 20924 20925 20926 20927 20928 20929 20930 20931 20932 20933 20934 20935 20936 20937 20938 20939 20940 20941 20942 20943 20944 20945 20946 20947 20948 20949 20950 20951 20952 20953 20954 20955 20956 20957 20958 20959 20960 20961 20962 20963 20964 20965 20966 20967 20968 20969 20970 20971 20972 20973 20974 20975 20976 20977 20978 20979 20980 20981 20982 20983 20984 20985 20986 20987 20988 20989 20990 20991 20992 20993 20994 20995 20996 20997 20998 20999 21000 21001 21002 21003 21004 21005 21006 21007 21008 21009 21010 21011 21012 21013 21014 21015 21016 21017 21018 21019 21020 21021 21022 21023 21024 21025 21026 21027 21028 21029 21030 21031 21032 21033 21034 21035 21036 21037 21038 21039 21040 21041 21042 21043 21044 21045 21046 21047 21048 21049 21050 21051 21052 21053 21054 21055 21056 21057 21058 21059 21060 21061 21062 21063 21064 21065 21066 21067 21068 21069 21070 21071 21072 21073 21074 21075 21076 21077 21078 21079 21080 21081 21082 21083 21084 21085 21086 21087 21088 21089 21090 21091 21092 21093 21094 21095 21096 21097 21098 21099 21100 21101 21102 21103 21104 21105 21106 21107 21108 21109 21110 21111 21112 21113 21114 21115 21116 21117 21118 21119 21120 21121 21122 21123 21124 21125 21126 21127 21128 21129 21130 21131 21132 21133 21134 21135 21136 21137 21138 21139 21140 21141 21142 21143 21144 21145 21146 21147 21148 21149 21150 21151 21152 21153 21154 21155 21156 21157 21158 21159 21160 21161 21162 21163 21164 21165 21166 21167 21168 21169 21170 21171 21172 21173 21174 21175 21176 21177 21178 21179 21180 21181 21182 21183 21184 21185 21186 21187 21188 21189 21190 21191 21192 21193 21194 21195 21196 21197 21198 21199 21200 21201 21202 21203 21204 21205 21206 21207 21208 21209 21210 21211 21212 21213 21214 21215 21216 21217 21218 21219 21220 21221 21222 21223 21224 21225 21226 21227 21228 21229 21230 21231 21232 21233 21234 21235 21236 21237 21238 21239 21240 21241 21242 21243 21244 21245 21246 21247 21248 21249 21250 21251 21252 21253 21254 21255 21256 21257 21258 21259 21260 21261 21262 21263 21264 21265 21266 21267 21268 21269 21270 21271 21272 21273 21274 21275 21276 21277 21278 21279 21280 21281 21282 21283 21284 21285 21286 21287 21288 21289 21290 21291 21292 21293 21294 21295 21296 21297 21298 21299 21300 21301 21302 21303 21304 21305 21306 21307 21308 21309 21310 21311 21312 21313 21314 21315 21316 21317 21318 21319 21320 21321 21322 21323 21324 21325 21326 21327 21328 21329 21330 21331 21332 21333 21334 21335 21336 21337 21338 21339 21340 21341 21342 21343 21344 21345 21346 21347 21348 21349 21350 21351 21352 21353 21354 21355 21356 21357 21358 21359 21360 21361 21362 21363 21364 21365 21366 21367 21368 21369 21370 21371 21372 21373 21374 21375 21376 21377 21378 21379 21380 21381 21382 21383 21384 21385 21386 21387 21388 21389 21390 21391 21392 21393 21394 21395 21396 21397 21398 21399 21400 21401 21402 21403 21404 21405 21406 21407 21408 21409 21410 21411 21412 21413 21414 21415 21416 21417 21418 21419 21420 21421 21422 21423 21424 21425 21426 21427 21428 21429 21430 21431 21432 21433 21434 21435 21436 21437 21438 21439 21440 21441 21442 21443 21444 21445 21446 21447 21448 21449 21450 21451 21452 21453 21454 21455 21456 21457 21458 21459 21460 21461 21462 21463 21464 21465 21466 21467 21468 21469 21470 21471 21472 21473 21474 21475 21476 21477 21478 21479 21480 21481 21482 21483 21484 21485 21486 21487 21488 21489 21490 21491 21492 21493 21494 21495 21496 21497 21498 21499 21500 21501 21502 21503 21504 21505 21506 21507 21508 21509 21510 21511 21512 21513 21514 21515 21516 21517 21518 21519 21520 21521 21522 21523 21524 21525 21526 21527 21528 21529 21530 21531 21532 21533 21534 21535 21536 21537 21538 21539 21540 21541 21542 21543 21544 21545 21546 21547 21548 21549 21550 21551 21552 21553 21554 21555 21556 21557 21558 21559 21560 21561 21562 21563 21564 21565 21566 21567 21568 21569 21570 21571 21572 21573 21574 21575 21576 21577 21578 21579 21580 21581 21582 21583 21584 21585 21586 21587 21588 21589 21590 21591 21592 21593 21594 21595 21596 21597 21598 21599 21600 21601 21602 21603 21604 21605 21606 21607 21608 21609 21610 21611 21612 21613 21614 21615 21616 21617 21618 21619 21620 21621 21622 21623 21624 21625 21626 21627 21628 21629 21630 21631 21632 21633 21634 21635 21636 21637 21638 21639 21640 21641 21642 21643 21644 21645 21646 21647 21648 21649 21650 21651 21652 21653 21654 21655 21656 21657 21658 21659 21660 21661 21662 21663 21664 21665 21666 21667 21668 21669 21670 21671 21672 21673 21674 21675 21676 21677 21678 21679 21680 21681 21682 21683 21684 21685 21686 21687 21688 21689 21690 21691 21692 21693 21694 21695 21696 21697 21698 21699 21700 21701 21702 21703 21704 21705 21706 21707 21708 21709 21710 21711 21712 21713 21714 21715 21716 21717 21718 21719 21720 21721 21722 21723 21724 21725 21726 21727 21728 21729 21730 21731 21732 21733 21734 21735 21736 21737 21738 21739 21740 21741 21742 21743 21744 21745 21746 21747 21748 21749 21750 21751 21752 21753 21754 21755 21756 21757 21758 21759 21760 21761 21762 21763 21764 21765 21766 21767 21768 21769 21770 21771 21772 21773 21774 21775 21776 21777 21778 21779 21780 21781 21782 21783 21784 21785 21786 21787 21788 21789 21790 21791 21792 21793 21794 21795 21796 21797 21798 21799 21800 21801 21802 21803 21804 21805 21806 21807 21808 21809 21810 21811 21812 21813 21814 21815 21816 21817 21818 21819 21820 21821 21822 21823 21824 21825 21826 21827 21828 21829 21830 21831 21832 21833 21834 21835 21836 21837 21838 21839 21840 21841 21842 21843 21844 21845 21846 21847 21848 21849 21850 21851 21852 21853 21854 21855 21856 21857 21858 21859 21860 21861 21862 21863 21864 21865 21866 21867 21868 21869 21870 21871 21872 21873 21874 21875 21876 21877 21878 21879 21880 21881 21882 21883 21884 21885 21886 21887 21888 21889 21890 21891 21892 21893 21894 21895 21896 21897 21898 21899 21900 21901 21902 21903 21904 21905 21906 21907 21908 21909 21910 21911 21912 21913 21914 21915 21916 21917 21918 21919 21920 21921 21922 21923 21924 21925 21926 21927 21928 21929 21930 21931 21932 21933 21934 21935 21936 21937 21938 21939 21940 21941 21942 21943 21944 21945 21946 21947 21948 21949 21950 21951 21952 21953 21954 21955 21956 21957 21958 21959 21960 21961 21962 21963 21964 21965 21966 21967 21968 21969 21970 21971 21972 21973 21974 21975 21976 21977 21978 21979 21980 21981 21982 21983 21984 21985 21986 21987 21988 21989 21990 21991 21992 21993 21994 21995 21996 21997 21998 21999 22000 22001 22002 22003 22004 22005 22006 22007 22008 22009 22010 22011 22012 22013 22014 22015 22016 22017 22018 22019 22020 22021 22022 22023 22024 22025 22026 22027 22028 22029 22030 22031 22032 22033 22034 22035 22036 22037 22038 22039 22040 22041 22042 22043 22044 22045 22046 22047 22048 22049 22050 22051 22052 22053 22054 22055 22056 22057 22058 22059 22060 22061 22062 22063 22064 22065 22066 22067 22068 22069 22070 22071 22072 22073 22074 22075 22076 22077 22078 22079 22080 22081 22082 22083 22084 22085 22086 22087 22088 22089 22090 22091 22092 22093 22094 22095 22096 22097 22098 22099 22100 22101 22102 22103 22104 22105 22106 22107 22108 22109 22110 22111 22112 22113 22114 22115 22116 22117 22118 22119 22120 22121 22122 22123 22124 22125 22126 22127 22128 22129 22130 22131 22132 22133 22134 22135 22136 22137 22138 22139 22140 22141 22142 22143 22144 22145 22146 22147 22148 22149 22150 22151 22152 22153 22154 22155 22156 22157 22158 22159 22160 22161 22162 22163 22164 22165 22166 22167 22168 22169 22170 22171 22172 22173 22174 22175 22176 22177 22178 22179 22180 22181 22182 22183 22184 22185 22186 22187 22188 22189 22190 22191 22192 22193 22194 22195 22196 22197 22198 22199 22200 22201 22202 22203 22204 22205 22206 22207 22208 22209 22210 22211 22212 22213 22214 22215 22216 22217 22218 22219 22220 22221 22222 22223 22224 22225 22226 22227 22228 22229 22230 22231 22232 22233 22234 22235 22236 22237 22238 22239 22240 22241 22242 22243 22244 22245 22246 22247 22248 22249 22250 22251 22252 22253 22254 22255 22256 22257 22258 22259 22260 22261 22262 22263 22264 22265 22266 22267 22268 22269 22270 22271 22272 22273 22274 22275 22276 22277 22278 22279 22280 22281 22282 22283 22284 22285 22286 22287 22288 22289 22290 22291 22292 22293 22294 22295 22296 22297 22298 22299 22300 22301 22302 22303 22304 22305 22306 22307 22308 22309 22310 22311 22312 22313 22314 22315 22316 22317 22318 22319 22320 22321 22322 22323 22324 22325 22326 22327 22328 22329 22330 22331 22332 22333 22334 22335 22336 22337 22338 22339 22340 22341 22342 22343 22344 22345 22346 22347 22348 22349 22350 22351 22352 22353 22354 22355 22356 22357 22358 22359 22360 22361 22362 22363 22364 22365 22366 22367 22368 22369 22370 22371 22372 22373 22374 22375 22376 22377 22378 22379 22380 22381 22382 22383 22384 22385 22386 22387 22388 22389 22390 22391 22392 22393 22394 22395 22396 22397 22398 22399 22400 22401 22402 22403 22404 22405 22406 22407 22408 22409 22410 22411 22412 22413 22414 22415 22416 22417 22418 22419 22420 22421 22422 22423 22424 22425 22426 22427 22428 22429 22430 22431 22432 22433 22434 22435 22436 22437 22438 22439 22440 22441 22442 22443 22444 22445 22446 22447 22448 22449 22450 22451 22452 22453 22454 22455 22456 22457 22458 22459 22460 22461 22462 22463 22464 22465 22466 22467 22468 22469 22470 22471 22472 22473 22474 22475 22476 22477 22478 22479 22480 22481 22482 22483 22484 22485 22486 22487 22488 22489 22490 22491 22492 22493 22494 22495 22496 22497 22498 22499 22500 22501 22502 22503 22504 22505 22506 22507 22508 22509 22510 22511 22512 22513 22514 22515 22516 22517 22518 22519 22520 22521 22522 22523 22524 22525 22526 22527 22528 22529 22530 22531 22532 22533 22534 22535 22536 22537 22538 22539 22540 22541 22542 22543 22544 22545 22546 22547 22548 22549 22550 22551 22552 22553 22554 22555 22556 22557 22558 22559 22560 22561 22562 22563 22564 22565 22566 22567 22568 22569 22570 22571 22572 22573 22574 22575 22576 22577 22578 22579 22580 22581 22582 22583 22584 22585 22586 22587 22588 22589 22590 22591 22592 22593 22594 22595 22596 22597 22598 22599 22600 22601 22602 22603 22604 22605 22606 22607 22608 22609 22610 22611 22612 22613 22614 22615 22616 22617 22618 22619 22620 22621 22622 22623 22624 22625 22626 22627 22628 22629 22630 22631 22632 22633 22634 22635 22636 22637 22638 22639 22640 22641 22642 22643 22644 22645 22646 22647 22648 22649 22650 22651 22652 22653 22654 22655 22656 22657 22658 22659 22660 22661 22662 22663 22664 22665 22666 22667 22668 22669 22670 22671 22672 22673 22674 22675 22676 22677 22678 22679 22680 22681 22682 22683 22684 22685 22686 22687 22688 22689 22690 22691 22692 22693 22694 22695 22696 22697 22698 22699 22700 22701 22702 22703 22704 22705 22706 22707 22708 22709 22710 22711 22712 22713 22714 22715 22716 22717 22718 22719 22720 22721 22722 22723 22724 22725 22726 22727 22728 22729 22730 22731 22732 22733 22734 22735 22736 22737 22738 22739 22740 22741 22742 22743 22744 22745 22746 22747 22748 22749 22750 22751 22752 22753 22754 22755 22756 22757 22758 22759 22760 22761 22762 22763 22764 22765 22766 22767 22768 22769 22770 22771 22772 22773 22774 22775 22776 22777 22778 22779 22780 22781 22782 22783 22784 22785 22786 22787 22788 22789 22790 22791 22792 22793 22794 22795 22796 22797 22798 22799 22800 22801 22802 22803 22804 22805 22806 22807 22808 22809 22810 22811 22812 22813 22814 22815 22816 22817 22818 22819 22820 22821 22822 22823 22824 22825 22826 22827 22828 22829 22830 22831 22832 22833 22834 22835 22836 22837 22838 22839 22840 22841 22842 22843 22844 22845 22846 22847 22848 22849 22850 22851 22852 22853 22854 22855 22856 22857 22858 22859 22860 22861 22862 22863 22864 22865 22866 22867 22868 22869 22870 22871 22872 22873 22874 22875 22876 22877 22878 22879 22880 22881 22882 22883 22884 22885 22886 22887 22888 22889 22890 22891 22892 22893 22894 22895 22896 22897 22898 22899 22900 22901 22902 22903 22904 22905 22906 22907 22908 22909 22910 22911 22912 22913 22914 22915 22916 22917 22918 22919 22920 22921 22922 22923 22924 22925 22926 22927 22928 22929 22930 22931 22932 22933 22934 22935 22936 22937 22938 22939 22940 22941 22942 22943 22944 22945 22946 22947 22948 22949 22950 22951 22952 22953 22954 22955 22956 22957 22958 22959 22960 22961 22962 22963 22964 22965 22966 22967 22968 22969 22970 22971 22972 22973 22974 22975 22976 22977 22978 22979 22980 22981 22982 22983 22984 22985 22986 22987 22988 22989 22990 22991 22992 22993 22994 22995 22996 22997 22998 22999 23000 23001 23002 23003 23004 23005 23006 23007 23008 23009 23010 23011 23012 23013 23014 23015 23016 23017 23018 23019 23020 23021 23022 23023 23024 23025 23026 23027 23028 23029 23030 23031 23032 23033 23034 23035 23036 23037 23038 23039 23040 23041 23042 23043 23044 23045 23046 23047 23048 23049 23050 23051 23052 23053 23054 23055 23056 23057 23058 23059 23060 23061 23062 23063 23064 23065 23066 23067 23068 23069 23070 23071 23072 23073 23074 23075 23076 23077 23078 23079 23080 23081 23082 23083 23084 23085 23086 23087 23088 23089 23090 23091 23092 23093 23094 23095 23096 23097 23098 23099 23100 23101 23102 23103 23104 23105 23106 23107 23108 23109 23110 23111 23112 23113 23114 23115 23116 23117 23118 23119 23120 23121 23122 23123 23124 23125 23126 23127 23128 23129 23130 23131 23132 23133 23134 23135 23136 23137 23138 23139 23140 23141 23142 23143 23144 23145 23146 23147 23148 23149 23150 23151 23152 23153 23154 23155 23156 23157 23158 23159 23160 23161 23162 23163 23164 23165 23166 23167 23168 23169 23170 23171 23172 23173 23174 23175 23176 23177 23178 23179 23180 23181 23182 23183 23184 23185 23186 23187 23188 23189 23190 23191 23192 23193 23194 23195 23196 23197 23198 23199 23200 23201 23202 23203 23204 23205 23206 23207 23208 23209 23210 23211 23212 23213 23214 23215 23216 23217 23218 23219 23220 23221 23222 23223 23224 23225 23226 23227 23228 23229 23230 23231 23232 23233 23234 23235 23236 23237 23238 23239 23240 23241 23242 23243 23244 23245 23246 23247 23248 23249 23250 23251 23252 23253 23254 23255 23256 23257 23258 23259 23260 23261 23262 23263 23264 23265 23266 23267 23268 23269 23270 23271 23272 23273 23274 23275 23276 23277 23278 23279 23280 23281 23282 23283 23284 23285 23286 23287 23288 23289 23290 23291 23292 23293 23294 23295 23296 23297 23298 23299 23300 23301 23302 23303 23304 23305 23306 23307 23308 23309 23310 23311 23312 23313 23314 23315 23316 23317 23318 23319 23320 23321 23322 23323 23324 23325 23326 23327 23328 23329 23330 23331 23332 23333 23334 23335 23336 23337 23338 23339 23340 23341 23342 23343 23344 23345 23346 23347 23348 23349 23350 23351 23352 23353 23354 23355 23356 23357 23358 23359 23360 23361 23362 23363 23364 23365 23366 23367 23368 23369 23370 23371 23372 23373 23374 23375 23376 23377 23378 23379 23380 23381 23382 23383 23384 23385 23386 23387 23388 23389 23390 23391 23392 23393 23394 23395 23396 23397 23398 23399 23400 23401 23402 23403 23404 23405 23406 23407 23408 23409 23410 23411 23412 23413 23414 23415 23416 23417 23418 23419 23420 23421 23422 23423 23424 23425 23426 23427 23428 23429 23430 23431 23432 23433 23434 23435 23436 23437 23438 23439 23440 23441 23442 23443 23444 23445 23446 23447 23448 23449 23450 23451 23452 23453 23454 23455 23456 23457 23458 23459 23460 23461 23462 23463 23464 23465 23466 23467 23468 23469 23470 23471 23472 23473 23474 23475 23476 23477 23478 23479 23480 23481 23482 23483 23484 23485 23486 23487 23488 23489 23490 23491 23492 23493 23494 23495 23496 23497 23498 23499 23500 23501 23502 23503 23504 23505 23506 23507 23508 23509 23510 23511 23512 23513 23514 23515 23516 23517 23518 23519 23520 23521 23522 23523 23524 23525 23526 23527 23528 23529 23530 23531 23532 23533 23534 23535 23536 23537 23538 23539 23540 23541 23542 23543 23544 23545 23546 23547 23548 23549 23550 23551 23552 23553 23554 23555 23556 23557 23558 23559 23560 23561 23562 23563 23564 23565 23566 23567 23568 23569 23570 23571 23572 23573 23574 23575 23576 23577 23578 23579 23580 23581 23582 23583 23584 23585 23586 23587 23588 23589 23590 23591 23592 23593 23594 23595 23596 23597 23598 23599 23600 23601 23602 23603 23604 23605 23606 23607 23608 23609 23610 23611 23612 23613 23614 23615 23616 23617 23618 23619 23620 23621 23622 23623 23624 23625 23626 23627 23628 23629 23630 23631 23632 23633 23634 23635 23636 23637 23638 23639 23640 23641 23642 23643 23644 23645 23646 23647 23648 23649 23650 23651 23652 23653 23654 23655 23656 23657 23658 23659 23660 23661 23662 23663 23664 23665 23666 23667 23668 23669 23670 23671 23672 23673 23674 23675 23676 23677 23678 23679 23680 23681 23682 23683 23684 23685 23686 23687 23688 23689 23690 23691 23692 23693 23694 23695 23696 23697 23698 23699 23700 23701 23702 23703 23704 23705 23706 23707 23708 23709 23710 23711 23712 23713 23714 23715 23716 23717 23718 23719 23720 23721 23722 23723 23724 23725 23726 23727 23728 23729 23730 23731 23732 23733 23734 23735 23736 23737 23738 23739 23740 23741 23742 23743 23744 23745 23746 23747 23748 23749 23750 23751 23752 23753 23754 23755 23756 23757 23758 23759 23760 23761 23762 23763 23764 23765 23766 23767 23768 23769 23770 23771 23772 23773 23774 23775 23776 23777 23778 23779 23780 23781 23782 23783 23784 23785 23786 23787 23788 23789 23790 23791 23792 23793 23794 23795 23796 23797 23798 23799 23800 23801 23802 23803 23804 23805 23806 23807 23808 23809 23810 23811 23812 23813 23814 23815 23816 23817 23818 23819 23820 23821 23822 23823 23824 23825 23826 23827 23828 23829 23830 23831 23832 23833 23834 23835 23836 23837 23838 23839 23840 23841 23842 23843 23844 23845 23846 23847 23848 23849 23850 23851 23852 23853 23854 23855 23856 23857 23858 23859 23860 23861 23862 23863 23864 23865 23866 23867 23868 23869 23870 23871 23872 23873 23874 23875 23876 23877 23878 23879 23880 23881 23882 23883 23884 23885 23886 23887 23888 23889 23890 23891 23892 23893 23894 23895 23896 23897 23898 23899 23900 23901 23902 23903 23904 23905 23906 23907 23908 23909 23910 23911 23912 23913 23914 23915 23916 23917 23918 23919 23920 23921 23922 23923 23924 23925 23926 23927 23928 23929 23930 23931 23932 23933 23934 23935 23936 23937 23938 23939 23940 23941 23942 23943 23944 23945 23946 23947 23948 23949 23950 23951 23952 23953 23954 23955 23956 23957 23958 23959 23960 23961 23962 23963 23964 23965 23966 23967 23968 23969 23970 23971 23972 23973 23974 23975 23976 23977 23978 23979 23980 23981 23982 23983 23984 23985 23986 23987 23988 23989 23990 23991 23992 23993 23994 23995 23996 23997 23998 23999 24000 24001 24002 24003 24004 24005 24006 24007 24008 24009 24010 24011 24012 24013 24014 24015 24016 24017 24018 24019 24020 24021 24022 24023 24024 24025 24026 24027 24028 24029 24030 24031 24032 24033 24034 24035 24036 24037 24038 24039 24040 24041 24042 24043 24044 24045 24046 24047 24048 24049 24050 24051 24052 24053 24054 24055 24056 24057 24058 24059 24060 24061 24062 24063 24064 24065 24066 24067 24068 24069 24070 24071 24072 24073 24074 24075 24076 24077 24078 24079 24080 24081 24082 24083 24084 24085 24086 24087 24088 24089 24090 24091 24092 24093 24094 24095 24096 24097 24098 24099 24100 24101 24102 24103 24104 24105 24106 24107 24108 24109 24110 24111 24112 24113 24114 24115 24116 24117 24118 24119 24120 24121 24122 24123 24124 24125 24126 24127 24128 24129 24130 24131 24132 24133 24134 24135 24136 24137 24138 24139 24140 24141 24142 24143 24144 24145 24146 24147 24148 24149 24150 24151 24152 24153 24154 24155 24156 24157 24158 24159 24160 24161 24162 24163 24164 24165 24166 24167 24168 24169 24170 24171 24172 24173 24174 24175 24176 24177 24178 24179 24180 24181 24182 24183 24184 24185 24186 24187 24188 24189 24190 24191 24192 24193 24194 24195 24196 24197 24198 24199 24200 24201 24202 24203 24204 24205 24206 24207 24208 24209 24210 24211 24212 24213 24214 24215 24216 24217 24218 24219 24220 24221 24222 24223 24224 24225 24226 24227 24228 24229 24230 24231 24232 24233 24234 24235 24236 24237 24238 24239 24240 24241 24242 24243 24244 24245 24246 24247 24248 24249 24250 24251 24252 24253 24254 24255 24256 24257 24258 24259 24260 24261 24262 24263 24264 24265 24266 24267 24268 24269 24270 24271 24272 24273 24274 24275 24276 24277 24278 24279 24280 24281 24282 24283 24284 24285 24286 24287 24288 24289 24290 24291 24292 24293 24294 24295 24296 24297 24298 24299 24300 24301 24302 24303 24304 24305 24306 24307 24308 24309 24310 24311 24312 24313 24314 24315 24316 24317 24318 24319 24320 24321 24322 24323 24324 24325 24326 24327 24328 24329 24330 24331 24332 24333 24334 24335 24336 24337 24338 24339 24340 24341 24342 24343 24344 24345 24346 24347 24348 24349 24350 24351 24352 24353 24354 24355 24356 24357 24358 24359 24360 24361 24362 24363 24364 24365 24366 24367 24368 24369 24370 24371 24372 24373 24374 24375 24376 24377 24378 24379 24380 24381 24382 24383 24384 24385 24386 24387 24388 24389 24390 24391 24392 24393 24394 24395 24396 24397 24398 24399 24400 24401 24402 24403 24404 24405 24406 24407 24408 24409 24410 24411 24412 24413 24414 24415 24416 24417 24418 24419 24420 24421 24422 24423 24424 24425 24426 24427 24428 24429 24430 24431 24432 24433 24434 24435 24436 24437 24438 24439 24440 24441 24442 24443 24444 24445 24446 24447 24448 24449 24450 24451 24452 24453 24454 24455 24456 24457 24458 24459 24460 24461 24462 24463 24464 24465 24466 24467 24468 24469 24470 24471 24472 24473 24474 24475 24476 24477 24478 24479 24480 24481 24482 24483 24484 24485 24486 24487 24488 24489 24490 24491 24492 24493 24494 24495 24496 24497 24498 24499 24500 24501 24502 24503 24504 24505 24506 24507 24508 24509 24510 24511 24512 24513 24514 24515 24516 24517 24518 24519 24520 24521 24522 24523 24524 24525 24526 24527 24528 24529 24530 24531 24532 24533 24534 24535 24536 24537 24538 24539 24540 24541 24542 24543 24544 24545 24546 24547 24548 24549 24550 24551 24552 24553 24554 24555 24556 24557 24558 24559 24560 24561 24562 24563 24564 24565 24566 24567 24568 24569 24570 24571 24572 24573 24574 24575 24576 24577 24578 24579 24580 24581 24582 24583 24584 24585 24586 24587 24588 24589 24590 24591 24592 24593 24594 24595 24596 24597 24598 24599 24600 24601 24602 24603 24604 24605 24606 24607 24608 24609 24610 24611 24612 24613 24614 24615 24616 24617 24618 24619 24620 24621 24622 24623 24624 24625 24626 24627 24628 24629 24630 24631 24632 24633 24634 24635 24636 24637 24638 24639 24640 24641 24642 24643 24644 24645 24646 24647 24648 24649 24650 24651 24652 24653 24654 24655 24656 24657 24658 24659 24660 24661 24662 24663 24664 24665 24666 24667 24668 24669 24670 24671 24672 24673 24674 24675 24676 24677 24678 24679 24680 24681 24682 24683 24684 24685 24686 24687 24688 24689 24690 24691 24692 24693 24694 24695 24696 24697 24698 24699 24700 24701 24702 24703 24704 24705 24706 24707 24708 24709 24710 24711 24712 24713 24714 24715 24716 24717 24718 24719 24720 24721 24722 24723 24724 24725 24726 24727 24728 24729 24730 24731 24732 24733 24734 24735 24736 24737 24738 24739 24740 24741 24742 24743 24744 24745 24746 24747 24748 24749 24750 24751 24752 24753 24754 24755 24756 24757 24758 24759 24760 24761 24762 24763 24764 24765 24766 24767 24768 24769 24770 24771 24772 24773 24774 24775 24776 24777 24778 24779 24780 24781 24782 24783 24784 24785 24786 24787 24788 24789 24790 24791 24792 24793 24794 24795 24796 24797 24798 24799 24800 24801 24802 24803 24804 24805 24806 24807 24808 24809 24810 24811 24812 24813 24814 24815 24816 24817 24818 24819 24820 24821 24822 24823 24824 24825 24826 24827 24828 24829 24830 24831 24832 24833 24834 24835 24836 24837 24838 24839 24840 24841 24842 24843 24844 24845 24846 24847 24848 24849 24850 24851 24852 24853 24854 24855 24856 24857 24858 24859 24860 24861 24862 24863 24864 24865 24866 24867 24868 24869 24870 24871 24872 24873 24874 24875 24876 24877 24878 24879 24880 24881 24882 24883 24884 24885 24886 24887 24888 24889 24890 24891 24892 24893 24894 24895 24896 24897 24898 24899 24900 24901 24902 24903 24904 24905 24906 24907 24908 24909 24910 24911 24912 24913 24914 24915 24916 24917 24918 24919 24920 24921 24922 24923 24924 24925 24926 24927 24928 24929 24930 24931 24932 24933 24934 24935 24936 24937 24938 24939 24940 24941 24942 24943 24944 24945 24946 24947 24948 24949 24950 24951 24952 24953 24954 24955 24956 24957 24958 24959 24960 24961 24962 24963 24964 24965 24966 24967 24968 24969 24970 24971 24972 24973 24974 24975 24976 24977 24978 24979 24980 24981 24982 24983 24984 24985 24986 24987 24988 24989 24990 24991 24992 24993 24994 24995 24996 24997 24998 24999 25000 25001 25002 25003 25004 25005 25006 25007 25008 25009 25010 25011 25012 25013 25014 25015 25016 25017 25018 25019 25020 25021 25022 25023 25024 25025 25026 25027 25028 25029 25030 25031 25032 25033 25034 25035 25036 25037 25038 25039 25040 25041 25042 25043 25044 25045 25046 25047 25048 25049 25050 25051 25052 25053 25054 25055 25056 25057 25058 25059 25060 25061 25062 25063 25064 25065 25066 25067 25068 25069 25070 25071 25072 25073 25074 25075 25076 25077 25078 25079 25080 25081 25082 25083 25084 25085 25086 25087 25088 25089 25090 25091 25092 25093 25094 25095 25096 25097 25098 25099 25100 25101 25102 25103 25104 25105 25106 25107 25108 25109 25110 25111 25112 25113 25114 25115 25116 25117 25118 25119 25120 25121 25122 25123 25124 25125 25126 25127 25128 25129 25130 25131 25132 25133 25134 25135 25136 25137 25138 25139 25140 25141 25142 25143 25144 25145 25146 25147 25148 25149 25150 25151 25152 25153 25154 25155 25156 25157 25158 25159 25160 25161 25162 25163 25164 25165 25166 25167 25168 25169 25170 25171 25172 25173 25174 25175 25176 25177 25178 25179 25180 25181 25182 25183 25184 25185 25186 25187 25188 25189 25190 25191 25192 25193 25194 25195 25196 25197 25198 25199 25200 25201 25202 25203 25204 25205 25206 25207 25208 25209 25210 25211 25212 25213 25214 25215 25216 25217 25218 25219 25220 25221 25222 25223 25224 25225 25226 25227 25228 25229 25230 25231 25232 25233 25234 25235 25236 25237 25238 25239 25240 25241 25242 25243 25244 25245 25246 25247 25248 25249 25250 25251 25252 25253 25254 25255 25256 25257 25258 25259 25260 25261 25262 25263 25264 25265 25266 25267 25268 25269 25270 25271 25272 25273 25274 25275 25276 25277 25278 25279 25280 25281 25282 25283 25284 25285 25286 25287 25288 25289 25290 25291 25292 25293 25294 25295 25296 25297 25298 25299 25300 25301 25302 25303 25304 25305 25306 25307 25308 25309 25310 25311 25312 25313 25314 25315 25316 25317 25318 25319 25320 25321 25322 25323 25324 25325 25326 25327 25328 25329 25330 25331 25332 25333 25334 25335 25336 25337 25338 25339 25340 25341 25342 25343 25344 25345 25346 25347 25348 25349 25350 25351 25352 25353 25354 25355 25356 25357 25358 25359 25360 25361 25362 25363 25364 25365 25366 25367 25368 25369 25370 25371 25372 25373 25374 25375 25376 25377 25378 25379 25380 25381 25382 25383 25384 25385 25386 25387 25388 25389 25390 25391 25392 25393 25394 25395 25396 25397 25398 25399 25400 25401 25402 25403 25404 25405 25406 25407 25408 25409 25410 25411 25412 25413 25414 25415 25416 25417 25418 25419 25420 25421 25422 25423 25424 25425 25426 25427 25428 25429 25430 25431 25432 25433 25434 25435 25436 25437 25438 25439 25440 25441 25442 25443 25444 25445 25446 25447 25448 25449 25450 25451 25452 25453 25454 25455 25456 25457 25458 25459 25460 25461 25462 25463 25464 25465 25466 25467 25468 25469 25470 25471 25472 25473 25474 25475 25476 25477 25478 25479 25480 25481 25482 25483 25484 25485 25486 25487 25488 25489 25490 25491 25492 25493 25494 25495 25496 25497 25498 25499 25500 25501 25502 25503 25504 25505 25506 25507 25508 25509 25510 25511 25512 25513 25514 25515 25516 25517 25518 25519 25520 25521 25522 25523 25524 25525 25526 25527 25528 25529 25530 25531 25532 25533 25534 25535 25536 25537 25538 25539 25540 25541 25542 25543 25544 25545 25546 25547 25548 25549 25550 25551 25552 25553 25554 25555 25556 25557 25558 25559 25560 25561 25562 25563 25564 25565 25566 25567 25568 25569 25570 25571 25572 25573 25574 25575 25576 25577 25578 25579 25580 25581 25582 25583 25584 25585 25586 25587 25588 25589 25590 25591 25592 25593 25594 25595 25596 25597 25598 25599 25600 25601 25602 25603 25604 25605 25606 25607 25608 25609 25610 25611 25612 25613 25614 25615 25616 25617 25618 25619 25620 25621 25622 25623 25624 25625 25626 25627 25628 25629 25630 25631 25632 25633 25634 25635 25636 25637 25638 25639 25640 25641 25642 25643 25644 25645 25646 25647 25648 25649 25650 25651 25652 25653 25654 25655 25656 25657 25658 25659 25660 25661 25662 25663 25664 25665 25666 25667 25668 25669 25670 25671 25672 25673 25674 25675 25676 25677 25678 25679 25680 25681 25682 25683 25684 25685 25686 25687 25688 25689 25690 25691 25692 25693 25694 25695 25696 25697 25698 25699 25700 25701 25702 25703 25704 25705 25706 25707 25708 25709 25710 25711 25712 25713 25714 25715 25716 25717 25718 25719 25720 25721 25722 25723 25724 25725 25726 25727 25728 25729 25730 25731 25732 25733 25734 25735 25736 25737 25738 25739 25740 25741 25742 25743 25744 25745 25746 25747 25748 25749 25750 25751 25752 25753 25754 25755 25756 25757 25758 25759 25760 25761 25762 25763 25764 25765 25766 25767 25768 25769 25770 25771 25772 25773 25774 25775 25776 25777 25778 25779 25780 25781 25782 25783 25784 25785 25786 25787 25788 25789 25790 25791 25792 25793 25794 25795 25796 25797 25798 25799 25800 25801 25802 25803 25804 25805 25806 25807 25808 25809 25810 25811 25812 25813 25814 25815 25816 25817 25818 25819 25820 25821 25822 25823 25824 25825 25826 25827 25828 25829 25830 25831 25832 25833 25834 25835 25836 25837 25838 25839 25840 25841 25842 25843 25844 25845 25846 25847 25848 25849 25850 25851 25852 25853 25854 25855 25856 25857 25858 25859 25860 25861 25862 25863 25864 25865 25866 25867 25868 25869 25870 25871 25872 25873 25874 25875 25876 25877 25878 25879 25880 25881 25882 25883 25884 25885 25886 25887 25888 25889 25890 25891 25892 25893 25894 25895 25896 25897 25898 25899 25900 25901 25902 25903 25904 25905 25906 25907 25908 25909 25910 25911 25912 25913 25914 25915 25916 25917 25918 25919 25920 25921 25922 25923 25924 25925 25926 25927 25928 25929 25930 25931 25932 25933 25934 25935 25936 25937 25938 25939 25940 25941 25942 25943 25944 25945 25946 25947 25948 25949 25950 25951 25952 25953 25954 25955 25956 25957 25958 25959 25960 25961 25962 25963 25964 25965 25966 25967 25968 25969 25970 25971 25972 25973 25974 25975 25976 25977 25978 25979 25980 25981 25982 25983 25984 25985 25986 25987 25988 25989 25990 25991 25992 25993 25994 25995 25996 25997 25998 25999 26000 26001 26002 26003 26004 26005 26006 26007 26008 26009 26010 26011 26012 26013 26014 26015 26016 26017 26018 26019 26020 26021 26022 26023 26024 26025 26026 26027 26028 26029 26030 26031 26032 26033 26034 26035 26036 26037 26038 26039 26040 26041 26042 26043 26044 26045 26046 26047 26048 26049 26050 26051 26052 26053 26054 26055 26056 26057 26058 26059 26060 26061 26062 26063 26064 26065 26066 26067 26068 26069 26070 26071 26072 26073 26074 26075 26076 26077 26078 26079 26080 26081 26082 26083 26084 26085 26086 26087 26088 26089 26090 26091 26092 26093 26094 26095 26096 26097 26098 26099 26100 26101 26102 26103 26104 26105 26106 26107 26108 26109 26110 26111 26112 26113 26114 26115 26116 26117 26118 26119 26120 26121 26122 26123 26124 26125 26126 26127 26128 26129 26130 26131 26132 26133 26134 26135 26136 26137 26138 26139 26140 26141 26142 26143 26144 26145 26146 26147 26148 26149 26150 26151 26152 26153 26154 26155 26156 26157 26158 26159 26160 26161 26162 26163 26164 26165 26166 26167 26168 26169 26170 26171 26172 26173 26174 26175 26176 26177 26178 26179 26180 26181 26182 26183 26184 26185 26186 26187 26188 26189 26190 26191 26192 26193 26194 26195 26196 26197 26198 26199 26200 26201 26202 26203 26204 26205 26206 26207 26208 26209 26210 26211 26212 26213 26214 26215 26216 26217 26218 26219 26220 26221 26222 26223 26224 26225 26226 26227 26228 26229 26230 26231 26232 26233 26234 26235 26236 26237 26238 26239 26240 26241 26242 26243 26244 26245 26246 26247 26248 26249 26250 26251 26252 26253 26254 26255 26256 26257 26258 26259 26260 26261 26262 26263 26264 26265 26266 26267 26268 26269 26270 26271 26272 26273 26274 26275 26276 26277 26278 26279 26280 26281 26282 26283 26284 26285 26286 26287 26288 26289 26290 26291 26292 26293 26294 26295 26296 26297 26298 26299 26300 26301 26302 26303 26304 26305 26306 26307 26308 26309 26310 26311 26312 26313 26314 26315 26316 26317 26318 26319 26320 26321 26322 26323 26324 26325 26326 26327 26328 26329 26330 26331 26332 26333 26334 26335 26336 26337 26338 26339 26340 26341 26342 26343 26344 26345 26346 26347 26348 26349 26350 26351 26352 26353 26354 26355 26356 26357 26358 26359 26360 26361 26362 26363 26364 26365 26366 26367 26368 26369 26370 26371 26372 26373 26374 26375 26376 26377 26378 26379 26380 26381 26382 26383 26384 26385 26386 26387 26388 26389 26390 26391 26392 26393 26394 26395 26396 26397 26398 26399 26400 26401 26402 26403 26404 26405 26406 26407 26408 26409 26410 26411 26412 26413 26414 26415 26416 26417 26418 26419 26420 26421 26422 26423 26424 26425 26426 26427 26428 26429 26430 26431 26432 26433 26434 26435 26436 26437 26438 26439 26440 26441 26442 26443 26444 26445 26446 26447 26448 26449 26450 26451 26452 26453 26454 26455 26456 26457 26458 26459 26460 26461 26462 26463 26464 26465 26466 26467 26468 26469 26470 26471 26472 26473 26474 26475 26476 26477 26478 26479 26480 26481 26482 26483 26484 26485 26486 26487 26488 26489 26490 26491 26492 26493 26494 26495 26496 26497 26498 26499 26500 26501 26502 26503 26504 26505 26506 26507 26508 26509 26510 26511 26512 26513 26514 26515 26516 26517 26518 26519 26520 26521 26522 26523 26524 26525 26526 26527 26528 26529 26530 26531 26532 26533 26534 26535 26536 26537 26538 26539 26540 26541 26542 26543 26544 26545 26546 26547 26548 26549 26550 26551 26552 26553 26554 26555 26556 26557 26558 26559 26560 26561 26562 26563 26564 26565 26566 26567 26568 26569 26570 26571 26572 26573 26574 26575 26576 26577 26578 26579 26580 26581 26582 26583 26584 26585 26586 26587 26588 26589 26590 26591 26592 26593 26594 26595 26596 26597 26598 26599 26600 26601 26602 26603 26604 26605 26606 26607 26608 26609 26610 26611 26612 26613 26614 26615 26616 26617 26618 26619 26620 26621 26622 26623 26624 26625 26626 26627 26628 26629 26630 26631 26632 26633 26634 26635 26636 26637 26638 26639 26640 26641 26642 26643 26644 26645 26646 26647 26648 26649 26650 26651 26652 26653 26654 26655 26656 26657 26658 26659 26660 26661 26662 26663 26664 26665 26666 26667 26668 26669 26670 26671 26672 26673 26674 26675 26676 26677 26678 26679 26680 26681 26682 26683 26684 26685 26686 26687 26688 26689 26690 26691 26692 26693 26694 26695 26696 26697 26698 26699 26700 26701 26702 26703 26704 26705 26706 26707 26708 26709 26710 26711 26712 26713 26714 26715 26716 26717 26718 26719 26720 26721 26722 26723 26724 26725 26726 26727 26728 26729 26730 26731 26732 26733 26734 26735 26736 26737 26738 26739 26740 26741 26742 26743 26744 26745 26746 26747 26748 26749 26750 26751 26752 26753 26754 26755 26756 26757 26758 26759 26760 26761 26762 26763 26764 26765 26766 26767 26768 26769 26770 26771 26772 26773 26774 26775 26776 26777 26778 26779 26780 26781 26782 26783 26784 26785 26786 26787 26788 26789 26790 26791 26792 26793 26794 26795 26796 26797 26798 26799 26800 26801 26802 26803 26804 26805 26806 26807 26808 26809 26810 26811 26812 26813 26814 26815 26816 26817 26818 26819 26820 26821 26822 26823 26824 26825 26826 26827 26828 26829 26830 26831 26832 26833 26834 26835 26836 26837 26838 26839 26840 26841 26842 26843 26844 26845 26846 26847 26848 26849 26850 26851 26852 26853 26854 26855 26856 26857 26858 26859 26860 26861 26862 26863 26864 26865 26866 26867 26868 26869 26870 26871 26872 26873 26874 26875 26876 26877 26878 26879 26880 26881 26882 26883 26884 26885 26886 26887 26888 26889 26890 26891 26892 26893 26894 26895 26896 26897 26898 26899 26900 26901 26902 26903 26904 26905 26906 26907 26908 26909 26910 26911 26912 26913 26914 26915 26916 26917 26918 26919 26920 26921 26922 26923 26924 26925 26926 26927 26928 26929 26930 26931 26932 26933 26934 26935 26936 26937 26938 26939 26940 26941 26942 26943 26944 26945 26946 26947 26948 26949 26950 26951 26952 26953 26954 26955 26956 26957 26958 26959 26960 26961 26962 26963 26964 26965 26966 26967 26968 26969 26970 26971 26972 26973 26974 26975 26976 26977 26978 26979 26980 26981 26982 26983 26984 26985 26986 26987 26988 26989 26990 26991 26992 26993 26994 26995 26996 26997 26998 26999 27000 27001 27002 27003 27004 27005 27006 27007 27008 27009 27010 27011 27012 27013 27014 27015 27016 27017 27018 27019 27020 27021 27022 27023 27024 27025 27026 27027 27028 27029 27030 27031 27032 27033 27034 27035 27036 27037 27038 27039 27040 27041 27042 27043 27044 27045 27046 27047 27048 27049 27050 27051 27052 27053 27054 27055 27056 27057 27058 27059 27060 27061 27062 27063 27064 27065 27066 27067 27068 27069 27070 27071 27072 27073 27074 27075 27076 27077 27078 27079 27080 27081 27082 27083 27084 27085 27086 27087 27088 27089 27090 27091 27092 27093 27094 27095 27096 27097 27098 27099 27100 27101 27102 27103 27104 27105 27106 27107 27108 27109 27110 27111 27112 27113 27114 27115 27116 27117 27118 27119 27120 27121 27122 27123 27124 27125 27126 27127 27128 27129 27130 27131 27132 27133 27134 27135 27136 27137 27138 27139 27140 27141 27142 27143 27144 27145 27146 27147 27148 27149 27150 27151 27152 27153 27154 27155 27156 27157 27158 27159 27160 27161 27162 27163 27164 27165 27166 27167 27168 27169 27170 27171 27172 27173 27174 27175 27176 27177 27178 27179 27180 27181 27182 27183 27184 27185 27186 27187 27188 27189 27190 27191 27192 27193 27194 27195 27196 27197 27198 27199 27200 27201 27202 27203 27204 27205 27206 27207 27208 27209 27210 27211 27212 27213 27214 27215 27216 27217 27218 27219 27220 27221 27222 27223 27224 27225 27226 27227 27228 27229 27230 27231 27232 27233 27234 27235 27236 27237 27238 27239 27240 27241 27242 27243 27244 27245 27246 27247 27248 27249 27250 27251 27252 27253 27254 27255 27256 27257 27258 27259 27260 27261 27262 27263 27264 27265 27266 27267 27268 27269 27270 27271 27272 27273 27274 27275 27276 27277 27278 27279 27280 27281 27282 27283 27284 27285 27286 27287 27288 27289 27290 27291 27292 27293 27294 27295 27296 27297 27298 27299 27300 27301 27302 27303 27304 27305 27306 27307 27308 27309 27310 27311 27312 27313 27314 27315 27316 27317 27318 27319 27320 27321 27322 27323 27324 27325 27326 27327 27328 27329 27330 27331 27332 27333 27334 27335 27336 27337 27338 27339 27340 27341 27342 27343 27344 27345 27346 27347 27348 27349 27350 27351 27352 27353 27354 27355 27356 27357 27358 27359 27360 27361 27362 27363 27364 27365 27366 27367 27368 27369 27370 27371 27372 27373 27374 27375 27376 27377 27378 27379 27380 27381 27382 27383 27384 27385 27386 27387 27388 27389 27390 27391 27392 27393 27394 27395 27396 27397 27398 27399 27400 27401 27402 27403 27404 27405 27406 27407 27408 27409 27410 27411 27412 27413 27414 27415 27416 27417 27418 27419 27420 27421 27422 27423 27424 27425 27426 27427 27428 27429 27430 27431 27432 27433 27434 27435 27436 27437 27438 27439 27440 27441 27442 27443 27444 27445 27446 27447 27448 27449 27450 27451 27452 27453 27454 27455 27456 27457 27458 27459 27460 27461 27462 27463 27464 27465 27466 27467 27468 27469 27470 27471 27472 27473 27474 27475 27476 27477 27478 27479 27480 27481 27482 27483 27484 27485 27486 27487 27488 27489 27490 27491 27492 27493 27494 27495 27496 27497 27498 27499 27500 27501 27502 27503 27504 27505 27506 27507 27508 27509 27510 27511 27512 27513 27514 27515 27516 27517 27518 27519 27520 27521 27522 27523 27524 27525 27526 27527 27528 27529 27530 27531 27532 27533 27534 27535 27536 27537 27538 27539 27540 27541 27542 27543 27544 27545 27546 27547 27548 27549 27550 27551 27552 27553 27554 27555 27556 27557 27558 27559 27560 27561 27562 27563 27564 27565 27566 27567 27568 27569 27570 27571 27572 27573 27574 27575 27576 27577 27578 27579 27580 27581 27582 27583 27584 27585 27586 27587 27588 27589 27590 27591 27592 27593 27594 27595 27596 27597 27598 27599 27600 27601 27602 27603 27604 27605 27606 27607 27608 27609 27610 27611 27612 27613 27614 27615 27616 27617 27618 27619 27620 27621 27622 27623 27624 27625 27626 27627 27628 27629 27630 27631 27632 27633 27634 27635 27636 27637 27638 27639 27640 27641 27642 27643 27644 27645 27646 27647 27648 27649 27650 27651 27652 27653 27654 27655 27656 27657 27658 27659 27660 27661 27662 27663 27664 27665 27666 27667 27668 27669 27670 27671 27672 27673 27674 27675 27676 27677 27678 27679 27680 27681 27682 27683 27684 27685 27686 27687 27688 27689 27690 27691 27692 27693 27694 27695 27696 27697 27698 27699 27700 27701 27702 27703 27704 27705 27706 27707 27708 27709 27710 27711 27712 27713 27714 27715 27716 27717 27718 27719 27720 27721 27722 27723 27724 27725 27726 27727 27728 27729 27730 27731 27732 27733 27734 27735 27736 27737 27738 27739 27740 27741 27742 27743 27744 27745 27746 27747 27748 27749 27750 27751 27752 27753 27754 27755 27756 27757 27758 27759 27760 27761 27762 27763 27764 27765 27766 27767 27768 27769 27770 27771 27772 27773 27774 27775 27776 27777 27778 27779 27780 27781 27782 27783 27784 27785 27786 27787 27788 27789 27790 27791 27792 27793 27794 27795 27796 27797 27798 27799 27800 27801 27802 27803 27804 27805 27806 27807 27808 27809 27810 27811 27812 27813 27814 27815 27816 27817 27818 27819 27820 27821 27822 27823 27824 27825 27826 27827 27828 27829 27830 27831 27832 27833 27834 27835 27836 27837 27838 27839 27840 27841 27842 27843 27844 27845 27846 27847 27848 27849 27850 27851 27852 27853 27854 27855 27856 27857 27858 27859 27860 27861 27862 27863 27864 27865 27866 27867 27868 27869 27870 27871 27872 27873 27874 27875 27876 27877 27878 27879 27880 27881 27882 27883 27884 27885 27886 27887 27888 27889 27890 27891 27892 27893 27894 27895 27896 27897 27898 27899 27900 27901 27902 27903 27904 27905 27906 27907 27908 27909 27910 27911 27912 27913 27914 27915 27916 27917 27918 27919 27920 27921 27922 27923 27924 27925 27926 27927 27928 27929 27930 27931 27932 27933 27934 27935 27936 27937 27938 27939 27940 27941 27942 27943 27944 27945 27946 27947 27948 27949 27950 27951 27952 27953 27954 27955 27956 27957 27958 27959 27960 27961 27962 27963 27964 27965 27966 27967 27968 27969 27970 27971 27972 27973 27974 27975 27976 27977 27978 27979 27980 27981 27982 27983 27984 27985 27986 27987 27988 27989 27990 27991 27992 27993 27994 27995 27996 27997 27998 27999 28000 28001 28002 28003 28004 28005 28006 28007 28008 28009 28010 28011 28012 28013 28014 28015 28016 28017 28018 28019 28020 28021 28022 28023 28024 28025 28026 28027 28028 28029 28030 28031 28032 28033 28034 28035 28036 28037 28038 28039 28040 28041 28042 28043 28044 28045 28046 28047 28048 28049 28050 28051 28052 28053 28054 28055 28056 28057 28058 28059 28060 28061 28062 28063 28064 28065 28066 28067 28068 28069 28070 28071 28072 28073 28074 28075 28076 28077 28078 28079 28080 28081 28082 28083 28084 28085 28086 28087 28088 28089 28090 28091 28092 28093 28094 28095 28096 28097 28098 28099 28100 28101 28102 28103 28104 28105 28106 28107 28108 28109 28110 28111 28112 28113 28114 28115 28116 28117 28118 28119 28120 28121 28122 28123 28124 28125 28126 28127 28128 28129 28130 28131 28132 28133 28134 28135 28136 28137 28138 28139 28140 28141 28142 28143 28144 28145 28146 28147 28148 28149 28150 28151 28152 28153 28154 28155 28156 28157 28158 28159 28160 28161 28162 28163 28164 28165 28166 28167 28168 28169 28170 28171 28172 28173 28174 28175 28176 28177 28178 28179 28180 28181 28182 28183 28184 28185 28186 28187 28188 28189 28190 28191 28192 28193 28194 28195 28196 28197 28198 28199 28200 28201 28202 28203 28204 28205 28206 28207 28208 28209 28210 28211 28212 28213 28214 28215 28216 28217 28218 28219 28220 28221 28222 28223 28224 28225 28226 28227 28228 28229 28230 28231 28232 28233 28234 28235 28236 28237 28238 28239 28240 28241 28242 28243 28244 28245 28246 28247 28248 28249 28250 28251 28252 28253 28254 28255 28256 28257 28258 28259 28260 28261 28262 28263 28264 28265 28266 28267 28268 28269 28270 28271 28272 28273 28274 28275 28276 28277 28278 28279 28280 28281 28282 28283 28284 28285 28286 28287 28288 28289 28290 28291 28292 28293 28294 28295 28296 28297 28298 28299 28300 28301 28302 28303 28304 28305 28306 28307 28308 28309 28310 28311 28312 28313 28314 28315 28316 28317 28318 28319 28320 28321 28322 28323 28324 28325 28326 28327 28328 28329 28330 28331 28332 28333 28334 28335 28336 28337 28338 28339 28340 28341 28342 28343 28344 28345 28346 28347 28348 28349 28350 28351 28352 28353 28354 28355 28356 28357 28358 28359 28360 28361 28362 28363 28364 28365 28366 28367 28368 28369 28370 28371 28372 28373 28374 28375 28376 28377 28378 28379 28380 28381 28382 28383 28384 28385 28386 28387 28388 28389 28390 28391 28392 28393 28394 28395 28396 28397 28398 28399 28400 28401 28402 28403 28404 28405 28406 28407 28408 28409 28410 28411 28412 28413 28414 28415 28416 28417 28418 28419 28420 28421 28422 28423 28424 28425 28426 28427 28428 28429 28430 28431 28432 28433 28434 28435 28436 28437 28438 28439 28440 28441 28442 28443 28444 28445 28446 28447 28448 28449 28450 28451 28452 28453 28454 28455 28456 28457 28458 28459 28460 28461 28462 28463 28464 28465 28466 28467 28468 28469 28470 28471 28472 28473 28474 28475 28476 28477 28478 28479 28480 28481 28482 28483 28484 28485 28486 28487 28488 28489 28490 28491 28492 28493 28494 28495 28496 28497 28498 28499 28500 28501 28502 28503 28504 28505 28506 28507 28508 28509 28510 28511 28512 28513 28514 28515 28516 28517 28518 28519 28520 28521 28522 28523 28524 28525 28526 28527 28528 28529 28530 28531 28532 28533 28534 28535 28536 28537 28538 28539 28540 28541 28542 28543 28544 28545 28546 28547 28548 28549 28550 28551 28552 28553 28554 28555 28556 28557 28558 28559 28560 28561 28562 28563 28564 28565 28566 28567 28568 28569 28570 28571 28572 28573 28574 28575 28576 28577 28578 28579 28580 28581 28582 28583 28584 28585 28586 28587 28588 28589 28590 28591 28592 28593 28594 28595 28596 28597 28598 28599 28600 28601 28602 28603 28604 28605 28606 28607 28608 28609 28610 28611 28612 28613 28614 28615 28616 28617 28618 28619 28620 28621 28622 28623 28624 28625 28626 28627 28628 28629 28630 28631 28632 28633 28634 28635 28636 28637 28638 28639 28640 28641 28642 28643 28644 28645 28646 28647 28648 28649 28650 28651 28652 28653 28654 28655 28656 28657 28658 28659 28660 28661 28662 28663 28664 28665 28666 28667 28668 28669 28670 28671 28672 28673 28674 28675 28676 28677 28678 28679 28680 28681 28682 28683 28684 28685 28686 28687 28688 28689 28690 28691 28692 28693 28694 28695 28696 28697 28698 28699 28700 28701 28702 28703 28704 28705 28706 28707 28708 28709 28710 28711 28712 28713 28714 28715 28716 28717 28718 28719 28720 28721 28722 28723 28724 28725 28726 28727 28728 28729 28730 28731 28732 28733 28734 28735 28736 28737 28738 28739 28740 28741 28742 28743 28744 28745 28746 28747 28748 28749 28750 28751 28752 28753 28754 28755 28756 28757 28758 28759 28760 28761 28762 28763 28764 28765 28766 28767 28768 28769 28770 28771 28772 28773 28774 28775 28776 28777 28778 28779 28780 28781 28782 28783 28784 28785 28786 28787 28788 28789 28790 28791 28792 28793 28794 28795 28796 28797 28798 28799 28800 28801 28802 28803 28804 28805 28806 28807 28808 28809 28810 28811 28812 28813 28814 28815 28816 28817 28818 28819 28820 28821 28822 28823 28824 28825 28826 28827 28828 28829 28830 28831 28832 28833 28834 28835 28836 28837 28838 28839 28840 28841 28842 28843 28844 28845 28846 28847 28848 28849 28850 28851 28852 28853 28854 28855 28856 28857 28858 28859 28860 28861 28862 28863 28864 28865 28866 28867 28868 28869 28870 28871 28872 28873 28874 28875 28876 28877 28878 28879 28880 28881 28882 28883 28884 28885 28886 28887 28888 28889 28890 28891 28892 28893 28894 28895 28896 28897 28898 28899 28900 28901 28902 28903 28904 28905 28906 28907 28908 28909 28910 28911 28912 28913 28914 28915 28916 28917 28918 28919 28920 28921 28922 28923 28924 28925 28926 28927 28928 28929 28930 28931 28932 28933 28934 28935 28936 28937 28938 28939 28940 28941 28942 28943 28944 28945 28946 28947 28948 28949 28950 28951 28952 28953 28954 28955 28956 28957 28958 28959 28960 28961 28962 28963 28964 28965 28966 28967 28968 28969 28970 28971 28972 28973 28974 28975 28976 28977 28978 28979 28980 28981 28982 28983 28984 28985 28986 28987 28988 28989 28990 28991 28992 28993 28994 28995 28996 28997 28998 28999 29000 29001 29002 29003 29004 29005 29006 29007 29008 29009 29010 29011 29012 29013 29014 29015 29016 29017 29018 29019 29020 29021 29022 29023 29024 29025 29026 29027 29028 29029 29030 29031 29032 29033 29034 29035 29036 29037 29038 29039 29040 29041 29042 29043 29044 29045 29046 29047 29048 29049 29050 29051 29052 29053 29054 29055 29056 29057 29058 29059 29060 29061 29062 29063 29064 29065 29066 29067 29068 29069 29070 29071 29072 29073 29074 29075 29076 29077 29078 29079 29080 29081 29082 29083 29084 29085 29086 29087 29088 29089 29090 29091 29092 29093 29094 29095 29096 29097 29098 29099 29100 29101 29102 29103 29104 29105 29106 29107 29108 29109 29110 29111 29112 29113 29114 29115 29116 29117 29118 29119 29120 29121 29122 29123 29124 29125 29126 29127 29128 29129 29130 29131 29132 29133 29134 29135 29136 29137 29138 29139 29140 29141 29142 29143 29144 29145 29146 29147 29148 29149 29150 29151 29152 29153 29154 29155 29156 29157 29158 29159 29160 29161 29162 29163 29164 29165 29166 29167 29168 29169 29170 29171 29172 29173 29174 29175 29176 29177 29178 29179 29180 29181 29182 29183 29184 29185 29186 29187 29188 29189 29190 29191 29192 29193 29194 29195 29196 29197 29198 29199 29200 29201 29202 29203 29204 29205 29206 29207 29208 29209 29210 29211 29212 29213 29214 29215 29216 29217 29218 29219 29220 29221 29222 29223 29224 29225 29226 29227 29228 29229 29230 29231 29232 29233 29234 29235 29236 29237 29238 29239 29240 29241 29242 29243 29244 29245 29246 29247 29248 29249 29250 29251 29252 29253 29254 29255 29256 29257 29258 29259 29260 29261 29262 29263 29264 29265 29266 29267 29268 29269 29270 29271 29272 29273 29274 29275 29276 29277 29278 29279 29280 29281 29282 29283 29284 29285 29286 29287 29288 29289 29290 29291 29292 29293 29294 29295 29296 29297 29298 29299 29300 29301 29302 29303 29304 29305 29306 29307 29308 29309 29310 29311 29312 29313 29314 29315 29316 29317 29318 29319 29320 29321 29322 29323 29324 29325 29326 29327 29328 29329 29330 29331 29332 29333 29334 29335 29336 29337 29338 29339 29340 29341 29342 29343 29344 29345 29346 29347 29348 29349 29350 29351 29352 29353 29354 29355 29356 29357 29358 29359 29360 29361 29362 29363 29364 29365 29366 29367 29368 29369 29370 29371 29372 29373 29374 29375 29376 29377 29378 29379 29380 29381 29382 29383 29384 29385 29386 29387 29388 29389 29390 29391 29392 29393 29394 29395 29396 29397 29398 29399 29400 29401 29402 29403 29404 29405 29406 29407 29408 29409 29410 29411 29412 29413 29414 29415 29416 29417 29418 29419 29420 29421 29422 29423 29424 29425 29426 29427 29428 29429 29430 29431 29432 29433 29434 29435 29436 29437 29438 29439 29440 29441 29442 29443 29444 29445 29446 29447 29448 29449 29450 29451 29452 29453 29454 29455 29456 29457 29458 29459 29460 29461 29462 29463 29464 29465 29466 29467 29468 29469 29470 29471 29472 29473 29474 29475 29476 29477 29478 29479 29480 29481 29482 29483 29484 29485 29486 29487 29488 29489 29490 29491 29492 29493 29494 29495 29496 29497 29498 29499 29500 29501 29502 29503 29504 29505 29506 29507 29508 29509 29510 29511 29512 29513 29514 29515 29516 29517 29518 29519 29520 29521 29522 29523 29524 29525 29526 29527 29528 29529 29530 29531 29532 29533 29534 29535 29536 29537 29538 29539 29540 29541 29542 29543 29544 29545 29546 29547 29548 29549 29550 29551 29552 29553 29554 29555 29556 29557 29558 29559 29560 29561 29562 29563 29564 29565 29566 29567 29568 29569 29570 29571 29572 29573 29574 29575 29576 29577 29578 29579 29580 29581 29582 29583 29584 29585 29586 29587 29588 29589 29590 29591 29592 29593 29594 29595 29596 29597 29598 29599 29600 29601 29602 29603 29604 29605 29606 29607 29608 29609 29610 29611 29612 29613 29614 29615 29616 29617 29618 29619 29620 29621 29622 29623 29624 29625 29626 29627 29628 29629 29630 29631 29632 29633 29634 29635 29636 29637 29638 29639 29640 29641 29642 29643 29644 29645 29646 29647 29648 29649 29650 29651 29652 29653 29654 29655 29656 29657 29658 29659 29660 29661 29662 29663 29664 29665 29666 29667 29668 29669 29670 29671 29672 29673 29674 29675 29676 29677 29678 29679 29680 29681 29682 29683 29684 29685 29686 29687 29688 29689 29690 29691 29692 29693 29694 29695 29696 29697 29698 29699 29700 29701 29702 29703 29704 29705 29706 29707 29708 29709 29710 29711 29712 29713 29714 29715 29716 29717 29718 29719 29720 29721 29722 29723 29724 29725 29726 29727 29728 29729 29730 29731 29732 29733 29734 29735 29736 29737 29738 29739 29740 29741 29742 29743 29744 29745 29746 29747 29748 29749 29750 29751 29752 29753 29754 29755 29756 29757 29758 29759 29760 29761 29762 29763 29764 29765 29766 29767 29768 29769 29770 29771 29772 29773 29774 29775 29776 29777 29778 29779 29780 29781 29782 29783 29784 29785 29786 29787 29788 29789 29790 29791 29792 29793 29794 29795 29796 29797 29798 29799 29800 29801 29802 29803 29804 29805 29806 29807 29808 29809 29810 29811 29812 29813 29814 29815 29816 29817 29818 29819 29820 29821 29822 29823 29824 29825 29826 29827 29828 29829 29830 29831 29832 29833 29834 29835 29836 29837 29838 29839 29840 29841 29842 29843 29844 29845 29846 29847 29848 29849 29850 29851 29852 29853 29854 29855 29856 29857 29858 29859 29860 29861 29862 29863 29864 29865 29866 29867 29868 29869 29870 29871 29872 29873 29874 29875 29876 29877 29878 29879 29880 29881 29882 29883 29884 29885 29886 29887 29888 29889 29890 29891 29892 29893 29894 29895 29896 29897 29898 29899 29900 29901 29902 29903 29904 29905 29906 29907 29908 29909 29910 29911 29912 29913 29914 29915 29916 29917 29918 29919 29920 29921 29922 29923 29924 29925 29926 29927 29928 29929 29930 29931 29932 29933 29934 29935 29936 29937 29938 29939 29940 29941 29942 29943 29944 29945 29946 29947 29948 29949 29950 29951 29952 29953 29954 29955 29956 29957 29958 29959 29960 29961 29962 29963 29964 29965 29966 29967 29968 29969 29970 29971 29972 29973 29974 29975 29976 29977 29978 29979 29980 29981 29982 29983 29984 29985 29986 29987 29988 29989 29990 29991 29992 29993 29994 29995 29996 29997 29998 29999 30000 30001 30002 30003 30004 30005 30006 30007 30008 30009 30010 30011 30012 30013 30014 30015 30016 30017 30018 30019 30020 30021 30022 30023 30024 30025 30026 30027 30028 30029 30030 30031 30032 30033 30034 30035 30036 30037 30038 30039 30040 30041 30042 30043 30044 30045 30046 30047 30048 30049 30050 30051 30052 30053 30054 30055 30056 30057 30058 30059 30060 30061 30062 30063 30064 30065 30066 30067 30068 30069 30070 30071 30072 30073 30074 30075 30076 30077 30078 30079 30080 30081 30082 30083 30084 30085 30086 30087 30088 30089 30090 30091 30092 30093 30094 30095 30096 30097 30098 30099 30100 30101 30102 30103 30104 30105 30106 30107 30108 30109 30110 30111 30112 30113 30114 30115 30116 30117 30118 30119 30120 30121 30122 30123 30124 30125 30126 30127 30128 30129 30130 30131 30132 30133 30134 30135 30136 30137 30138 30139 30140 30141 30142 30143 30144 30145 30146 30147 30148 30149 30150 30151 30152 30153 30154 30155 30156 30157 30158 30159 30160 30161 30162 30163 30164 30165 30166 30167 30168 30169 30170 30171 30172 30173 30174 30175 30176 30177 30178 30179 30180 30181 30182 30183 30184 30185 30186 30187 30188 30189 30190 30191 30192 30193 30194 30195 30196 30197 30198 30199 30200 30201 30202 30203 30204 30205 30206 30207 30208 30209 30210 30211 30212 30213 30214 30215 30216 30217 30218 30219 30220 30221 30222 30223 30224 30225 30226 30227 30228 30229 30230 30231 30232 30233 30234 30235 30236 30237 30238 30239 30240 30241 30242 30243 30244 30245 30246 30247 30248 30249 30250 30251 30252 30253 30254 30255 30256 30257 30258 30259 30260 30261 30262 30263 30264 30265 30266 30267 30268 30269 30270 30271 30272 30273 30274 30275 30276 30277 30278 30279 30280 30281 30282 30283 30284 30285 30286 30287 30288 30289 30290 30291 30292 30293 30294 30295 30296 30297 30298 30299 30300 30301 30302 30303 30304 30305 30306 30307 30308 30309 30310 30311 30312 30313 30314 30315 30316 30317 30318 30319 30320 30321 30322 30323 30324 30325 30326 30327 30328 30329 30330 30331 30332 30333 30334 30335 30336 30337 30338 30339 30340 30341 30342 30343 30344 30345 30346 30347 30348 30349 30350 30351 30352 30353 30354 30355 30356 30357 30358 30359 30360 30361 30362 30363 30364 30365 30366 30367 30368 30369 30370 30371 30372 30373 30374 30375 30376 30377 30378 30379 30380 30381 30382 30383 30384 30385 30386 30387 30388 30389 30390 30391 30392 30393 30394 30395 30396 30397 30398 30399 30400 30401 30402 30403 30404 30405 30406 30407 30408 30409 30410 30411 30412 30413 30414 30415 30416 30417 30418 30419 30420 30421 30422 30423 30424 30425 30426 30427 30428 30429 30430 30431 30432 30433 30434 30435 30436 30437 30438 30439 30440 30441 30442 30443 30444 30445 30446 30447 30448 30449 30450 30451 30452 30453 30454 30455 30456 30457 30458 30459 30460 30461 30462 30463 30464 30465 30466 30467 30468 30469 30470 30471 30472 30473 30474 30475 30476 30477 30478 30479 30480 30481 30482 30483 30484 30485 30486 30487 30488 30489 30490 30491 30492 30493 30494 30495 30496 30497 30498 30499 30500 30501 30502 30503 30504 30505 30506 30507 30508 30509 30510 30511 30512 30513 30514 30515 30516 30517 30518 30519 30520 30521 30522 30523 30524 30525 30526 30527 30528 30529 30530 30531 30532 30533 30534 30535 30536 30537 30538 30539 30540 30541 30542 30543 30544 30545 30546 30547 30548 30549 30550 30551 30552 30553 30554 30555 30556 30557 30558 30559 30560 30561 30562 30563 30564 30565 30566 30567 30568 30569 30570 30571 30572 30573 30574 30575 30576 30577 30578 30579 30580 30581 30582 30583 30584 30585 30586 30587 30588 30589 30590 30591 30592 30593 30594 30595 30596 30597 30598 30599 30600 30601 30602 30603 30604 30605 30606 30607 30608 30609 30610 30611 30612 30613 30614 30615 30616 30617 30618 30619 30620 30621 30622 30623 30624 30625 30626 30627 30628 30629 30630 30631 30632 30633 30634 30635 30636 30637 30638 30639 30640 30641 30642 30643 30644 30645 30646 30647 30648 30649 30650 30651 30652 30653 30654 30655 30656 30657 30658 30659 30660 30661 30662 30663 30664 30665 30666 30667 30668 30669 30670 30671 30672 30673 30674 30675 30676 30677 30678 30679 30680 30681 30682 30683 30684 30685 30686 30687 30688 30689 30690 30691 30692 30693 30694 30695 30696 30697 30698 30699 30700 30701 30702 30703 30704 30705 30706 30707 30708 30709 30710 30711 30712 30713 30714 30715 30716 30717 30718 30719 30720 30721 30722 30723 30724 30725 30726 30727 30728 30729 30730 30731 30732 30733 30734 30735 30736 30737 30738 30739 30740 30741 30742 30743 30744 30745 30746 30747 30748 30749 30750 30751 30752 30753 30754 30755 30756 30757 30758 30759 30760 30761 30762 30763 30764 30765 30766 30767 30768 30769 30770 30771 30772 30773 30774 30775 30776 30777 30778 30779 30780 30781 30782 30783 30784 30785 30786 30787 30788 30789 30790 30791 30792 30793 30794 30795 30796 30797 30798 30799 30800 30801 30802 30803 30804 30805 30806 30807 30808 30809 30810 30811 30812 30813 30814 30815 30816 30817 30818 30819 30820 30821 30822 30823 30824 30825 30826 30827 30828 30829 30830 30831 30832 30833 30834 30835 30836 30837 30838 30839 30840 30841 30842 30843 30844 30845 30846 30847 30848 30849 30850 30851 30852 30853 30854 30855 30856 30857 30858 30859 30860 30861 30862 30863 30864 30865 30866 30867 30868 30869 30870 30871 30872 30873 30874 30875 30876 30877 30878 30879 30880 30881 30882 30883 30884 30885 30886 30887 30888 30889 30890 30891 30892 30893 30894 30895 30896 30897 30898 30899 30900 30901 30902 30903 30904 30905 30906 30907 30908 30909 30910 30911 30912 30913 30914 30915 30916 30917 30918 30919 30920 30921 30922 30923 30924 30925 30926 30927 30928 30929 30930 30931 30932 30933 30934 30935 30936 30937 30938 30939 30940 30941 30942 30943 30944 30945 30946 30947 30948 30949 30950 30951 30952 30953 30954 30955 30956 30957 30958 30959 30960 30961 30962 30963 30964 30965 30966 30967 30968 30969 30970 30971 30972 30973 30974 30975 30976 30977 30978 30979 30980 30981 30982 30983 30984 30985 30986 30987 30988 30989 30990 30991 30992 30993 30994 30995 30996 30997 30998 30999 31000 31001 31002 31003 31004 31005 31006 31007 31008 31009 31010 31011 31012 31013 31014 31015 31016 31017 31018 31019 31020 31021 31022 31023 31024 31025 31026 31027 31028 31029 31030 31031 31032 31033 31034 31035 31036 31037 31038 31039 31040 31041 31042 31043 31044 31045 31046 31047 31048 31049 31050 31051 31052 31053 31054 31055 31056 31057 31058 31059 31060 31061 31062 31063 31064 31065 31066 31067 31068 31069 31070 31071 31072 31073 31074 31075 31076 31077 31078 31079 31080 31081 31082 31083 31084 31085 31086 31087 31088 31089 31090 31091 31092 31093 31094 31095 31096 31097 31098 31099 31100 31101 31102 31103 31104 31105 31106 31107 31108 31109 31110 31111 31112 31113 31114 31115 31116 31117 31118 31119 31120 31121 31122 31123 31124 31125 31126 31127 31128 31129 31130 31131 31132 31133 31134 31135 31136 31137 31138 31139 31140 31141 31142 31143 31144 31145 31146 31147 31148 31149 31150 31151 31152 31153 31154 31155 31156 31157 31158 31159 31160 31161 31162 31163 31164 31165 31166 31167 31168 31169 31170 31171 31172 31173 31174 31175 31176 31177 31178 31179 31180 31181 31182 31183 31184 31185 31186 31187 31188 31189 31190 31191 31192 31193 31194 31195 31196 31197 31198 31199 31200 31201 31202 31203 31204 31205 31206 31207 31208 31209 31210 31211 31212 31213 31214 31215 31216 31217 31218 31219 31220 31221 31222 31223 31224 31225 31226 31227 31228 31229 31230 31231 31232 31233 31234 31235 31236 31237 31238 31239 31240 31241 31242 31243 31244 31245 31246 31247 31248 31249 31250 31251 31252 31253 31254 31255 31256 31257 31258 31259 31260 31261 31262 31263 31264 31265 31266 31267 31268 31269 31270 31271 31272 31273 31274 31275 31276 31277 31278 31279 31280 31281 31282 31283 31284 31285 31286 31287 31288 31289 31290 31291 31292 31293 31294 31295 31296 31297 31298 31299 31300 31301 31302 31303 31304 31305 31306 31307 31308 31309 31310 31311 31312 31313 31314 31315 31316 31317 31318 31319 31320 31321 31322 31323 31324 31325 31326 31327 31328 31329 31330 31331 31332 31333 31334 31335 31336 31337 31338 31339 31340 31341 31342 31343 31344 31345 31346 31347 31348 31349 31350 31351 31352 31353 31354 31355 31356 31357 31358 31359 31360 31361 31362 31363 31364 31365 31366 31367 31368 31369 31370 31371 31372 31373 31374 31375 31376 31377 31378 31379 31380 31381 31382 31383 31384 31385 31386 31387 31388 31389 31390 31391 31392 31393 31394 31395 31396 31397 31398 31399 31400 31401 31402 31403 31404 31405 31406 31407 31408 31409 31410 31411 31412 31413 31414 31415 31416 31417 31418 31419 31420 31421 31422 31423 31424 31425 31426 31427 31428 31429 31430 31431 31432 31433 31434 31435 31436 31437 31438 31439 31440 31441 31442 31443 31444 31445 31446 31447 31448 31449 31450 31451 31452 31453 31454 31455 31456 31457 31458 31459 31460 31461 31462 31463 31464 31465 31466 31467 31468 31469 31470 31471 31472 31473 31474 31475 31476 31477 31478 31479 31480 31481 31482 31483 31484 31485 31486 31487 31488 31489 31490 31491 31492 31493 31494 31495 31496 31497 31498 31499 31500 31501 31502 31503 31504 31505 31506 31507 31508 31509 31510 31511 31512 31513 31514 31515 31516 31517 31518 31519 31520 31521 31522 31523 31524 31525 31526 31527 31528 31529 31530 31531 31532 31533 31534 31535 31536 31537 31538 31539 31540 31541 31542 31543 31544 31545 31546 31547 31548 31549 31550 31551 31552 31553 31554 31555 31556 31557 31558 31559 31560 31561 31562 31563 31564 31565 31566 31567 31568 31569 31570 31571 31572 31573 31574 31575 31576 31577 31578 31579 31580 31581 31582 31583 31584 31585 31586 31587 31588 31589 31590 31591 31592 31593 31594 31595 31596 31597 31598 31599 31600 31601 31602 31603 31604 31605 31606 31607 31608 31609 31610 31611 31612 31613 31614 31615 31616 31617 31618 31619 31620 31621 31622 31623 31624 31625 31626 31627 31628 31629 31630 31631 31632 31633 31634 31635 31636 31637 31638 31639 31640 31641 31642 31643 31644 31645 31646 31647 31648 31649 31650 31651 31652 31653 31654 31655 31656 31657 31658 31659 31660 31661 31662 31663 31664 31665 31666 31667 31668 31669 31670 31671 31672 31673 31674 31675 31676 31677 31678 31679 31680 31681 31682 31683 31684 31685 31686 31687 31688 31689 31690 31691 31692 31693 31694 31695 31696 31697 31698 31699 31700 31701 31702 31703 31704 31705 31706 31707 31708 31709 31710 31711 31712 31713 31714 31715 31716 31717 31718 31719 31720 31721 31722 31723 31724 31725 31726 31727 31728 31729 31730 31731 31732 31733 31734 31735 31736 31737 31738 31739 31740 31741 31742 31743 31744 31745 31746 31747 31748 31749 31750 31751 31752 31753 31754 31755 31756 31757 31758 31759 31760 31761 31762 31763 31764 31765 31766 31767 31768 31769 31770 31771 31772 31773 31774 31775 31776 31777 31778 31779 31780 31781 31782 31783 
</DataArray>
<DataArray type="UInt32" Name="offsets" format="ascii">
3 6 9 12 15 18 21 24 27 30 33 36 39 41 44 47 50 53 56 59 62 64 67 70 72 75 78 81 84 87 90 93 96 99 102 105 108 111 114 117 120 122 125 128 131 134 137 140 143 146 149 152 155 158 161 164 167 170 173 176 179 182 185 188 191 194 197 200 203 206 209 212 215 218 221 224 227 230 233 236 239 242 245 248 251 254 257 260 263 266 269 272 275 278 281 284 287 290 293 295 298 301 304 307 310 313 316 319 321 324 327 330 333 336 338 341 344 347 350 353 355 358 361 364 367 370 373 376 379 381 384 386 389 392 395 398 401 404 407 409 412 414 417 419 422 425 428 431 434 437 440 443 446 448 451 453 455 458 461 464 466 469 472 475 477 480 482 485 488 491 494 496 499 501 504 507 510 513 516 518 521 524 527 530 533 536 539 542 545 548 551 554 557 560 563 565 568 571 574 577 580 583 585 588 591 594 597 600 603 606 609 612 615 618 621 623 625 628 631 634 636 639 642 644 647 650 653 655 658 661 664 667 670 673 676 678 681 684 687 690 693 696 699 702 705 708 711 714 717 720 723 725 728 730 733 736 738 741 744 747 749 752 755 758 761 764 767 770 773 776 779 782 784 787 790 793 796 799 802 804 807 810 813 816 818 821 824 827 830 832 835 837 840 842 845 848 851 854 856 858 861 864 867 870 872 875 878 881 883 886 889 892 895 897 900 902 905 908 911 914 917 920 923 926 929 931 934 937 940 942 945 948 951 954 957 960 963 966 969 972 975 978 981 984 987 990 993 996 999 1002 1005 1008 1011 1014 1017 1020 1023 1026 1029 1032 1035 1037 1040 1043 1046 1049 1052 1055 1058 1061 1064 1067 1070 1073 1076 1079 1082 1085 1087 1090 1093 1096 1099 1102 1105 1108 1111 1114 1117 1120 1123 1125 1128 1131 1134 1136 1139 1142 1144 1147 1150 1153 1156 1159 1162 1165 1167 1170 1173 1176 1179 1182 1185 1188 1191 1193 1196 1198 1201 1204 1207 1209 1212 1215 1218 1221 1224 1227 1230 1233 1235 1238 1240 1243 1246 1249 1251 1254 1256 1259 1262 1264 1267 1270 1273 1275 1278 1281 1284 1286 1289 1292 1294 1297 1300 1303 1306 1309 1312 1315 1318 1321 1323 1326 1329 1332 1335 1338 1340 1343 1345 1348 1351 1354 1356 1359 1362 1365 1368 1371 1374 1377 1380 1382 1385 1388 1390 1393 1395 1398 1401 1404 1407 1410 1412 1415 1418 1421 1424 1427 1430 1433 1436 1439 1442 1445 1448 1451 1454 1456 1459 1462 1465 1467 1470 1473 1476 1479 1481 1484 1487 1490 1493 1495 1498 1501 1504 1507 1510 1513 1516 1519 1522 1525 1528 1531 1534 1537 1540 1543 1546 1549 1552 1555 1558 1561 1564 1567 1570 1573 1576 1579 1582 1585 1588 1591 1594 1596 1599 1602 1605 1608 1611 1614 1617 1620 1623 1625 1628 1631 1634 1637 1640 1643 1646 1649 1652 1655 1658 1660 1663 1666 1669 1672 1674 1677 1680 1683 1686 1689 1692 1694 1697 1700 1702 1705 1708 1711 1714 1717 1720 1723 1726 1729 1732 1735 1738 1741 1744 1747 1750 1753 1756 1759 1762 1765 1768 1771 1774 1777 1780 1783 1786 1789 1792 1795 1798 1801 1804 1807 1810 1813 1816 1819 1822 1825 1828 1831 1834 1837 1840 1843 1846 1849 1852 1855 1857 1860 1863 1866 1869 1872 1875 1877 1880 1883 1886 1889 1892 1895 1898 1901 1904 1907 1910 1913 1916 1919 1922 1925 1928 1931 1934 1937 1939 1942 1945 1948 1951 1954 1957 1960 1963 1966 1969 1972 1975 1978 1981 1984 1987 1990 1993 1996 1999 2002 2005 2008 2011 2014 2017 2020 2023 2026 2029 2032 2035 2038 2041 2044 2047 2050 2053 2056 2059 2062 2065 2068 2071 2074 2077 2080 2083 2086 2089 2092 2095 2098 2101 2104 2107 2110 2113 2116 2119 2122 2125 2128 2131 2134 2137 2140 2143 2146 2149 2152 2155 2158 2161 2164 2167 2170 2173 2176 2179 2182 2185 2188 2191 2194 2197 2200 2203 2206 2209 2212 2215 2218 2221 2224 2227 2230 2233 2235 2238 2241 2244 2247 2250 2253 2256 2259 2262 2265 2268 2270 2273 2276 2279 2282 2285 2288 2291 2293 2296 2299 2301 2304 2307 2310 2313 2316 2319 2322 2325 2328 2331 2334 2337 2340 2343 2346 2349 2352 2355 2358 2361 2364 2367 2370 2372 2375 2378 2381 2384 2387 2390 2393 2396 2399 2402 2405 2408 2411 2414 2417 2420 2423 2426 2429 2432 2435 2438 2441 2444 2447 2450 2453 2456 2458 2461 2464 2466 2469 2472 2475 2478 2481 2484 2487 2490 2493 2496 2499 2502 2504 2507 2510 2513 2516 2519 2521 2524 2527 2529 2532 2535 2538 2541 2544 2547 2550 2553 2556 2559 2562 2565 2568 2570 2572 2575 2578 2581 2584 2587 2590 2593 2596 2599 2602 2605 2608 2611 2614 2616 2619 2622 2625 2628 2630 2633 2635 2638 2641 2644 2646 2649 2652 2655 2658 2661 2664 2667 2670 2673 2676 2679 2682 2685 2688 2691 2693 2696 2699 2702 2705 2708 2711 2714 2717 2720 2723 2726 2729 2732 2735 2738 2741 2744 2747 2750 2753 2756 2759 2762 2765 2768 2771 2774 2777 2780 2783 2786 2789 2792 2794 2797 2799 2802 2805 2808 2810 2813 2816 2819 2821 2824 2827 2830 2833 2836 2839 2842 2845 2848 2851 2854 2857 2860 2863 2866 2869 2872 2875 2878 2881 2884 2887 2890 2893 2896 2899 2901 2904 2907 2910 2912 2915 2918 2921 2924 2926 2929 2932 2935 2938 2940 2943 2946 2949 2952 2955 2958 2960 2963 2966 2969 2971 2974 2977 2980 2983 2986 2989 2992 2995 2998 3001 3004 3007 3010 3013 3016 3019 3022 3025 3028 3031 3034 3037 3040 3042 3045 3048 3051 3054 3056 3059 3062 3065 3068 3071 3074 3077 3080 3083 3085 3088 3090 3093 3096 3099 3102 3105 3108 3111 3114 3116 3119 3122 3125 3128 3131 3134 3137 3140 3143 3146 3149 3151 3154 3157 3160 3163 3166 3169 3172 3175 3178 3181 3184 3187 3190 3193 3196 3198 3201 3204 3207 3210 3213 3215 3218 3221 3224 3227 3230 3233 3236 3238 3241 3244 3247 3250 3253 3256 3259 3262 3265 3268 3271 3274 3277 3280 3282 3285 3288 3291 3294 3297 3300 3303 3306 3308 3311 3314 3316 3319 3322 3325 3328 3331 3334 3337 3339 3342 3345 3348 3351 3354 3357 3360 3363 3366 3369 3372 3375 3378 3381 3384 3386 3389 3391 3394 3397 3400 3403 3406 3409 3412 3415 3418 3421 3424 3427 3430 3433 3436 3439 3442 3445 3448 3451 3454 3457 3460 3463 3465 3468 3471 3474 3476 3479 3482 3485 3488 3491 3493 3496 3499 3501 3504 3507 3510 3512 3515 3518 3521 3524 3527 3530 3532 3535 3538 3541 3544 3547 3550 3553 3556 3559 3561 3563 3566 3569 3572 3574 3576 3579 3582 3584 3587 3590 3592 3595 3598 3601 3604 3607 3610 3612 3615 3618 3620 3622 3625 3628 3630 3633 3636 3639 3641 3644 3647 3650 3653 3656 3659 3662 3665 3668 3671 3674 3677 3680 3683 3686 3689 3692 3695 3698 3701 3704 3707 3710 3713 3715 3718 3721 3724 3727 3729 3732 3735 3738 3741 3744 3746 3749 3752 3755 3758 3761 3764 3767 3769 3772 3775 3778 3781 3784 3786 3789 3792 3795 3798 3801 3804 3807 3810 3812 3815 3818 3821 3824 3827 3830 3832 3835 3837 3840 3843 3846 3848 3851 3854 3856 3859 3862 3865 3867 3870 3873 3876 3879 3882 3885 3888 3891 3894 3897 3900 3903 3906 3909 3912 3914 3917 3920 3923 3926 3928 3931 3934 3937 3940 3943 3945 3948 3951 3954 3957 3959 3962 3965 3968 3971 3974 3977 3980 3983 3986 3988 3990 3993 3996 3999 4002 4005 4008 4011 4014 4017 4019 4022 4025 4028 4031 4034 4037 4040 4043 4045 4048 4051 4054 4057 4060 4063 4066 4069 4072 4074 4077 4080 4083 4086 4089 4092 4094 4097 4100 4103 4106 4109 4112 4115 4118 4121 4123 4126 4129 4132 4135 4138 4140 4143 4145 4148 4151 4154 4157 4160 4163 4166 4169 4172 4175 4178 4181 4184 4187 4190 4193 4196 4199 4202 4205 4208 4211 4214 4217 4220 4223 4226 4229 4232 4235 4238 4240 4243 4246 4249 4252 4255 4258 4261 4264 4267 4270 4273 4276 4279 4282 4285 4288 4291 4294 4297 4300 4303 4306 4309 4312 4315 4318 4321 4324 4327 4330 4333 4336 4339 4342 4345 4347 4350 4353 4356 4359 4361 4364 4367 4370 4373 4376 4379 4382 4385 4388 4391 4394 4397 4400 4403 4405 4408 4411 4414 4417 4420 4423 4426 4429 4432 4435 4438 4441 4444 4447 4450 4452 4455 4458 4460 4463 4466 4469 4471 4474 4477 4480 4483 4486 4489 4492 4495 4498 4501 4504 4506 4509 4512 4515 4518 4521 4524 4527 4530 4533 4536 4539 4542 4545 4548 4550 4553 4556 4559 4562 4565 4568 4571 4574 4577 4579 4582 4585 4588 4591 4594 4597 4599 4602 4605 4607 4610 4613 4616 4619 4622 4625 4628 4631 4634 4636 4639 4641 4643 4646 4649 4652 4655 4658 4661 4664 4666 4668 4671 4674 4677 4680 4683 4686 4689 4692 4695 4698 4701 4704 4707 4710 4712 4715 4718 4720 4723 4726 4729 4732 4735 4738 4741 4744 4747 4750 4753 4756 4759 4762 4765 4768 4771 4774 4777 4779 4781 4784 4787 4790 4793 4796 4799 4802 4805 4808 4811 4814 4817 4820 4823 4826 4829 4832 4835 4838 4841 4844 4847 4850 4853 4856 4859 4862 4865 4868 4871 4874 4877 4879 4882 4884 4887 4890 4893 4896 4899 4902 4905 4908 4911 4914 4917 4920 4923 4926 4929 4932 4934 4937 4940 4943 4946 4949 4952 4955 4957 4960 4963 4966 4969 4972 4975 4978 4981 4984 4987 4990 4993 4995 4998 5001 5004 5007 5010 5013 5016 5019 5022 5025 5028 5031 5034 5037 5040 5043 5046 5049 5052 5055 5058 5061 5064 5067 5070 5073 5076 5078 5081 5084 5087 5090 5093 5096 5099 5102 5105 5108 5110 5113 5116 5119 5122 5125 5127 5130 5133 5136 5139 5142 5144 5147 5150 5153 5156 5159 5162 5165 5167 5170 5173 5176 5179 5182 5185 5188 5191 5194 5197 5200 5203 5206 5209 5212 5215 5218 5221 5223 5226 5229 5232 5235 5238 5241 5243 5245 5248 5251 5254 5257 5260 5262 5264 5267 5270 5273 5276 5279 5282 5285 5288 5291 5294 5297 5300 5303 5305 5308 5311 5314 5317 5320 5323 5326 5329 5332 5335 5338 5341 5344 5347 5350 5353 5356 5359 5362 5365 5368 5371 5374 5377 5380 5383 5386 5388 5391 5394 5396 5399 5402 5404 5407 5410 5413 5415 5418 5421 5424 5427 5430 5433 5436 5439 5441 5443 5446 5449 5452 5455 5458 5461 5464 5467 5470 5472 5475 5477 5480 5483 5486 5489 5492 5495 5497 5500 5502 5505 5508 5511 5514 5517 5520 5523 5526 5529 5531 5534 5537 5540 5543 5546 5549 5552 5554 5557 5560 5563 5565 5568 5570 5572 5575 5578 5580 5583 5586 5588 5591 5593 5596 5598 5601 5604 5607 5609 5612 5615 5618 5621 5624 5627 5630 5633 5636 5639 5641 5644 5646 5649 5651 5654 5656 5659 5662 5664 5667 5670 5672 5674 5677 5680 5683 5686 5689 5691 5694 5697 5700 5703 5706 5708 5711 5714 5717 5720 5723 5726 5729 5731 5734 5737 5740 5743 5746 5749 5752 5755 5758 5761 5764 5767 5770 5773 5776 5779 5782 5785 5788 5791 5793 5796 5799 5802 5805 5807 5810 5813 5816 5819 5822 5824 5827 5830 5833 5836 5838 5841 5844 5846 5849 5852 5855 5858 5861 5864 5867 5870 5873 5876 5878 5881 5884 5887 5890 5893 5896 5899 5902 5905 5907 5910 5913 5916 5919 5922 5925 5928 5931 5934 5937 5940 5943 5946 5949 5952 5955 5958 5961 5964 5967 5970 5973 5976 5978 5981 5984 5987 5990 5993 5996 5999 6002 6005 6007 6009 6012 6015 6018 6021 6024 6027 6030 6032 6035 6038 6041 6044 6046 6049 6051 6054 6057 6060 6062 6065 6068 6071 6074 6077 6080 6083 6086 6089 6092 6095 6098 6101 6104 6107 6110 6113 6115 6118 6121 6123 6125 6127 6130 6132 6135 6137 6140 6143 6146 6149 6152 6154 6156 6159 6161 6164 6167 6169 6172 6174 6177 6180 6182 6184 6187 6190 6193 6196 6199 6202 6205 6208 6211 6214 6217 6220 6223 6226 6229 6232 6235 6238 6240 6243 6246 6249 6252 6255 6258 6261 6264 6267 6270 6273 6276 6279 6282 6285 6288 6291 6294 6297 6300 6303 6306 6309 6312 6315 6318 6321 6324 6327 6330 6333 6336 6339 6342 6345 6348 6351 6354 6357 6360 6363 6366 6369 6372 6375 6378 6381 6384 6387 6390 6392 6395 6398 6401 6404 6407 6410 6413 6416 6419 6422 6425 6428 6431 6434 6437 6440 6443 6446 6449 6452 6455 6457 6460 6463 6466 6469 6472 6474 6477 6480 6483 6486 6489 6492 6495 6498 6501 6504 6507 6510 6513 6516 6519 6522 6525 6528 6531 6534 6537 6540 6543 6546 6549 6552 6555 6558 6561 6564 6567 6570 6573 6576 6579 6582 6585 6588 6591 6594 6597 6599 6602 6605 6608 6611 6614 6617 6620 6623 6626 6629 6632 6635 6638 6641 6644 6647 6650 6653 6656 6659 6662 6665 6668 6671 6674 6677 6679 6682 6685 6688 6691 6694 6697 6700 6703 6706 6709 6712 6714 6717 6720 6723 6726 6729 6732 6735 6738 6741 6744 6747 6750 6752 6755 6757 6760 6763 6766 6769 6772 6775 6778 6781 6784 6787 6790 6793 6796 6799 6802 6805 6808 6811 6814 6817 6820 6823 6825 6828 6831 6834 6837 6839 6841 6844 6847 6850 6853 6856 6859 6862 6865 6868 6871 6874 6877 6880 6883 6886 6889 6891 6893 6896 6899 6901 6903 6906 6908 6911 6914 6917 6919 6921 6924 6927 6930 6932 6935 6938 6941 6944 6947 6950 6953 6955 6958 6961 6964 6967 6970 6973 6976 6978 6981 6983 6986 6988 6991 6994 6997 7000 7003 7006 7009 7012 7015 7018 7021 7023 7026 7029 7032 7035 7038 7041 7044 7047 7050 7053 7056 7059 7062 7065 7068 7071 7074 7077 7080 7083 7086 7089 7092 7094 7097 7100 7103 7106 7108 7110 7113 7116 7119 7122 7125 7128 7131 7134 7137 7139 7142 7144 7147 7150 7153 7156 7159 7162 7165 7168 7171 7174 7177 7180 7183 7186 7189 7192 7194 7197 7200 7203 7206 7209 7212 7215 7218 7220 7223 7226 7229 7232 7234 7237 7240 7243 7246 7249 7252 7254 7257 7260 7263 7266 7268 7271 7274 7277 7280 7282 7285 7288 7291 7294 7297 7300 7303 7306 7309 7312 7315 7318 7321 7324 7327 7330 7333 7336 7339 7342 7345 7348 7351 7354 7357 7360 7363 7366 7369 7371 7374 7377 7380 7383 7386 7389 7392 7395 7398 7401 7404 7407 7410 7413 7416 7419 7422 7425 7428 7431 7434 7437 7440 7443 7446 7449 7452 7455 7458 7461 7464 7467 7470 7473 7476 7479 7482 7485 7488 7491 7494 7496 7499 7502 7505 7508 7511 7514 7517 7520 7523 7526 7529 7532 7535 7538 7541 7544 7547 7550 7553 7555 7557 7560 7563 7566 7569 7572 7574 7577 7579 7582 7585 7588 7591 7594 7597 7600 7603 7606 7609 7612 7615 7618 7621 7624 7627 7630 7632 7635 7638 7641 7644 7647 7650 7653 7656 7658 7661 7664 7666 7669 7672 7675 7678 7681 7684 7687 7690 7693 7695 7698 7701 7704 7707 7710 7712 7715 7718 7721 7723 7726 7729 7732 7734 7737 7740 7742 7745 7747 7750 7753 7756 7759 7762 7765 7768 7771 7774 7777 7780 7783 7786 7789 7792 7795 7798 7801 7804 7807 7810 7812 7815 7818 7821 7824 7827 7829 7832 7834 7837 7840 7843 7846 7849 7852 7855 7858 7860 7862 7865 7867 7870 7873 7875 7877 7880 7883 7885 7888 7891 7894 7897 7900 7903 7906 7909 7912 7915 7918 7921 7924 7927 7930 7933 7936 7939 7942 7945 7948 7951 7954 7957 7960 7963 7966 7969 7972 7975 7978 7981 7984 7987 7990 7993 7996 7999 8002 8005 8008 8011 8014 8017 8020 8023 8026 8029 8032 8035 8038 8041 8044 8047 8050 8053 8056 8059 8062 8065 8068 8071 8074 8077 8080 8083 8086 8089 8092 8095 8098 8101 8104 8107 8110 8113 8116 8119 8122 8125 8128 8131 8134 8137 8140 8143 8146 8149 8152 8155 8157 8160 8163 8165 8168 8171 8174 8177 8180 8183 8186 8189 8192 8195 8198 8201 8204 8207 8210 8213 8216 8219 8222 8225 8228 8231 8234 8237 8240 8243 8246 8249 8252 8255 8258 8260 8263 8266 8269 8272 8275 8277 8280 8283 8286 8289 8292 8295 8298 8301 8304 8307 8310 8313 8316 8319 8322 8325 8328 8331 8334 8336 8339 8342 8345 8348 8351 8354 8357 8360 8363 8366 8369 8372 8375 8378 8381 8384 8387 8390 8393 8396 8399 8402 8405 8408 8411 8414 8416 8419 8422 8425 8428 8431 8434 8437 8440 8442 8445 8448 8451 8454 8457 8460 8463 8466 8469 8472 8475 8478 8481 8484 8487 8489 8492 8495 8498 8501 8504 8507 8509 8512 8515 8518 8520 8523 8526 8529 8532 8535 8537 8539 8542 8545 8548 8551 8554 8557 8560 8563 8566 8569 8572 8575 8578 8581 8584 8587 8589 8592 8595 8597 8600 8603 8606 8609 8612 8614 8617 8620 8623 8626 8629 8632 8635 8638 8641 8644 8646 8649 8652 8655 8658 8661 8664 8666 8669 8671 8674 8677 8680 8683 8685 8688 8691 8694 8697 8700 8703 8706 8709 8712 8715 8718 8721 8724 8727 8730 8733 8736 8739 8742 8745 8748 8751 8754 8757 8760 8763 8766 8769 8772 8775 8777 8780 8783 8786 8789 8792 8795 8798 8801 8804 8807 8810 8813 8816 8819 8821 8824 8827 8829 8832 8835 8838 8841 8844 8847 8850 8853 8856 8859 8862 8865 8868 8871 8874 8877 8880 8883 8886 8888 8891 8894 8896 8899 8902 8904 8907 8910 8913 8915 8918 8921 8924 8926 8929 8932 8935 8938 8940 8943 8946 8949 8952 8954 8957 8959 8962 8965 8968 8971 8974 8976 8978 8981 8984 8987 8989 8992 8995 8998 9000 9003 9005 9008 9010 9013 9016 9018 9021 9024 9027 9030 9033 9036 9038 9041 9043 9046 9049 9051 9054 9057 9060 9063 9066 9069 9072 9075 9078 9081 9084 9087 9090 9093 9096 9099 9102 9104 9107 9109 9112 9114 9117 9119 9122 9125 9128 9130 9133 9136 9139 9142 9145 9148 9151 9153 9156 9159 9162 9165 9168 9171 9174 9177 9180 9182 9185 9188 9191 9194 9197 9200 9203 9206 9209 9212 9215 9218 9221 9223 9226 9228 9231 9234 9237 9240 9243 9246 9249 9252 9255 9258 9260 9263 9266 9269 9272 9275 9278 9280 9283 9286 9289 9291 9294 9296 9299 9301 9304 9307 9310 9313 9316 9319 9322 9325 9328 9331 9334 9337 9340 9343 9345 9348 9351 9354 9357 9360 9363 9366 9369 9371 9374 9377 9380 9383 9386 9388 9391 9394 9397 9400 9403 9406 9409 9412 9415 9418 9421 9423 9426 9429 9432 9435 9438 9441 9444 9447 9450 9453 9456 9459 9462 9465 9468 9471 9474 9477 9480 9483 9486 9489 9492 9495 9498 9501 9504 9506 9509 9512 9515 9518 9521 9524 9526 9529 9532 9535 9538 9541 9544 9547 9549 9552 9555 9558 9561 9564 9567 9570 9573 9576 9579 9582 9585 9588 9591 9594 9597 9600 9603 9606 9609 9612 9615 9618 9621 9623 9626 9629 9632 9635 9638 9641 9644 9647 9650 9653 9656 9659 9662 9665 9668 9671 9674 9677 9680 9683 9686 9689 9692 9695 9698 9701 9704 9707 9710 9712 9715 9718 9721 9724 9727 9729 9731 9734 9737 9740 9743 9746 9749 9752 9755 9758 9761 9764 9767 9770 9773 9776 9779 9782 9785 9788 9791 9794 9797 9800 9803 9806 9809 9812 9814 9817 9820 9823 9826 9828 9831 9834 9836 9839 9842 9844 9847 9849 9852 9855 9858 9861 9864 9867 9870 9873 9876 9879 9882 9885 9888 9891 9894 9897 9900 9903 9906 9909 9912 9915 9918 9921 9924 9927 9930 9933 9936 9939 9942 9945 9948 9951 9954 9957 9960 9963 9966 9968 9971 9974 9977 9980 9983 9986 9989 9992 9995 9998 10001 10004 10007 10010 10013 10016 10019 10022 10025 10028 10031 10033 10036 10039 10042 10045 10048 10051 10054 10057 10060 10063 10066 10069 10072 10075 10078 10081 10084 10087 10090 10093 10095 10098 10101 10104 10106 10109 10112 10115 10118 10121 10124 10126 10129 10132 10135 10138 10140 10143 10146 10149 10152 10155 10157 10160 10162 10165 10168 10171 10173 10176 10179 10182 10185 10188 10191 10194 10197 10200 10203 10205 10208 10211 10214 10216 10219 10222 10224 10227 10229 10232 10234 10237 10240 10243 10246 10249 10251 10254 10257 10260 10262 10265 10268 10270 10273 10276 10279 10281 10284 10287 10290 10293 10296 10298 10301 10304 10307 10310 10313 10316 10319 10322 10325 10328 10331 10334 10337 10340 10343 10346 10349 10352 10355 10358 10361 10364 10367 10370 10373 10376 10379 10382 10385 10388 10391 10394 10397 10400 10403 10405 10408 10411 10414 10417 10420 10423 10426 10429 10432 10434 10437 10440 10443 10446 10449 10452 10455 10458 10461 10464 10467 10470 10473 10476 10479 10482 10485 10488 10491 10494 10497 10500 10503 10506 10509 10512 10515 10517 10520 10523 10526 10529 10532 10535 10538 10541 10544 10547 10550 10553 10556 10559 10562 10565 10568 10571 10573 10576 10579 10582 10585 10588 10591 10594 10597 10600 10603 10605 10608 10611 10614 10616 10619 10622 10625 10628 10630 10633 10636 10639 10642 10645 10647 10650 10653 10656 10659 10662 10665 10668 10671 10674 10677 10680 10682 10685 10688 10691 10694 10697 10699 10702 10705 10708 10711 10714 10717 10720 10723 10726 10729 10732 10735 10738 10741 10743 10746 10749 10752 10755 10758 10761 10764 10767 10770 10773 10776 10779 10781 10784 10787 10789 10792 10795 10798 10801 10804 10806 10809 10812 10815 10817 10820 10823 10826 10829 10832 10835 10838 10841 10844 10847 10850 10853 10856 10859 10862 10865 10868 10871 10874 10877 10880 10883 10886 10889 10891 10893 10895 10898 10901 10903 10906 10908 10910 10913 10916 10918 10921 10924 10927 10930 10933 10936 10938 10941 10944 10947 10950 10953 10955 10958 10961 10963 10966 10969 10971 10973 10976 10979 10982 10985 10988 10991 10994 10997 11000 11003 11006 11009 11012 11015 11017 11020 11023 11026 11029 11032 11035 11038 11041 11043 11046 11049 11052 11054 11057 11060 11063 11066 11069 11072 11074 11077 11080 11083 11086 11089 11092 11095 11098 11101 11104 11107 11110 11112 11115 11118 11121 11124 11127 11130 11133 11136 11139 11142 11145 11148 11151 11154 11157 11160 11163 11166 11169 11172 11175 11178 11181 11184 11187 11190 11193 11196 11199 11202 11205 11208 11210 11213 11216 11219 11222 11224 11226 11229 11232 11235 11238 11240 11243 11246 11249 11252 11255 11258 11261 11264 11267 11270 11273 11276 11279 11282 11285 11287 11290 11293 11296 11299 11302 11305 11308 11311 11314 11317 11320 11323 11326 11329 11332 11335 11338 11341 11344 11347 11350 11353 11355 11358 11361 11364 11366 11369 11372 11375 11378 11381 11384 11387 11390 11393 11395 11398 11400 11403 11406 11409 11412 11415 11417 11420 11423 11426 11429 11431 11434 11437 11440 11443 11446 11449 11452 11455 11458 11460 11463 11466 11469 11472 11474 11477 11480 11483 11486 11489 11492 11495 11497 11499 11502 11505 11507 11510 11513 11516 11519 11522 11525 11528 11531 11534 11537 11540 11543 11546 11549 11552 11555 11558 11561 11564 11567 11570 11573 11576 11579 11582 11585 11588 11590 11593 11596 11599 11602 11605 11608 11611 11614 11617 11620 11623 11626 11629 11632 11635 11638 11641 11644 11647 11650 11653 11656 11659 11662 11665 11668 11671 11674 11677 11680 11683 11686 11689 11692 11695 11698 11701 11704 11707 11710 11712 11715 11718 11721 11724 11727 11730 11733 11736 11739 11741 11744 11747 11750 11752 11755 11758 11760 11763 11765 11768 11770 11773 11776 11779 11782 11785 11788 11791 11793 11796 11799 11802 11805 11808 11811 11814 11817 11820 11823 11826 11829 11832 11835 11838 11841 11844 11847 11849 11852 11855 11858 11861 11864 11867 11870 11873 11876 11879 11882 11885 11888 11891 11894 11897 11900 11903 11906 11909 11912 11915 11918 11921 11924 11926 11929 11932 11935 11938 11941 11944 11947 11950 11953 11956 11959 11962 11964 11967 11970 11973 11976 11979 11982 11985 11987 11990 11993 11996 11998 12001 12004 12007 12009 12011 12014 12017 12020 12023 12026 12029 12032 12035 12038 12040 12043 12046 12049 12052 12055 12058 12061 12064 12067 12070 12073 12075 12077 12080 12082 12084 12086 12089 12091 12094 12097 12100 12103 12106 12109 12112 12115 12118 12121 12124 12127 12130 12133 12135 12138 12141 12144 12147 12150 12153 12156 12159 12162 12165 12168 12171 12174 12177 12180 12183 12186 12189 12192 12195 12198 12201 12203 12206 12209 12212 12215 12218 12221 12224 12227 12230 12233 12236 12239 12242 12244 12247 12249 12252 12255 12258 12261 12264 12267 12270 12273 12276 12279 12282 12285 12288 12291 12294 12297 12300 12303 12306 12309 12312 12315 12318 12320 12323 12326 12329 12332 12335 12338 12341 12344 12347 12350 12353 12356 12359 12362 12365 12368 12371 12374 12377 12380 12383 12386 12389 12392 12395 12398 12401 12404 12406 12409 12412 12415 12418 12421 12424 12427 12430 12433 12436 12439 12442 12445 12448 12451 12454 12456 12459 12462 12465 12468 12471 12474 12477 12480 12483 12486 12489 12492 12495 12498 12501 12504 12507 12510 12513 12516 12519 12522 12525 12528 12531 12534 12536 12539 12542 12545 12548 12551 12554 12557 12560 12562 12565 12568 12570 12573 12576 12578 12581 12584 12587 12590 12593 12596 12599 12602 12605 12607 12610 12613 12616 12619 12622 12625 12628 12631 12634 12637 12639 12642 12645 12648 12651 12653 12655 12658 12661 12664 12667 12670 12673 12676 12678 12681 12683 12686 12689 12692 12695 12698 12700 12702 12705 12707 12710 12713 12716 12718 12721 12724 12726 12728 12731 12733 12736 12739 12742 12745 12748 12750 12753 12756 12758 12761 12764 12766 12768 12771 12774 12777 12780 12782 12785 12787 12790 12793 12796 12799 12802 12805 12808 12810 12812 12815 12818 12821 12824 12827 12830 12833 12836 12838 12840 12843 12845 12847 12849 12852 12854 12857 12860 12863 12866 12869 12872 12875 12878 12881 12884 12887 12890 12893 12896 12898 12901 12904 12906 12909 12912 12915 12918 12921 12924 12927 12930 12933 12936 12939 12942 12945 12948 12951 12954 12957 12960 12963 12966 12969 12972 12975 12978 12981 12984 12987 12990 12993 12996 12999 13002 13005 13008 13011 13014 13017 13020 13023 13026 13029 13032 13035 13038 13041 13044 13047 13050 13053 13056 13059 13062 13065 13068 13071 13074 13077 13080 13083 13086 13088 13090 13093 13096 13099 13102 13105 13108 13111 13114 13117 13120 13123 13126 13129 13132 13135 13138 13141 13144 13147 13150 13153 13156 13159 13162 13165 13168 13171 13174 13177 13180 13183 13186 13189 13192 13195 13198 13201 13204 13207 13210 13213 13216 13219 13222 13225 13228 13231 13234 13237 13240 13243 13246 13249 13252 13255 13258 13261 13264 13267 13270 13273 13276 13279 13282 13284 13287 13290 13293 13296 13299 13302 13305 13308 13311 13313 13316 13319 13322 13324 13326 13329 13332 13335 13338 13341 13344 13347 13350 13353 13355 13358 13360 13363 13366 13368 13370 13373 13376 13379 13382 13385 13387 13389 13392 13395 13398 13401 13403 13406 13409 13412 13414 13417 13419 13422 13425 13428 13431 13433 13436 13439 13442 13445 13447 13450 13453 13455 13458 13461 13464 13467 13470 13473 13475 13478 13481 13484 13487 13490 13493 13496 13499 13502 13504 13507 13510 13513 13516 13518 13521 13524 13527 13530 13533 13536 13539 13542 13545 13548 13551 13554 13557 13560 13563 13566 13569 13572 13575 13578 13581 13584 13587 13590 13593 13596 13599 13602 13605 13608 13611 13614 13617 13620 13623 13626 13629 13631 13634 13637 13640 13643 13645 13648 13651 13653 13656 13658 13661 13664 13666 13669 13672 13675 13677 13680 13683 13686 13688 13691 13694 13697 13700 13703 13706 13709 13712 13715 13718 13721 13723 13726 13729 13732 13735 13738 13741 13744 13747 13750 13752 13755 13758 13761 13764 13767 13769 13772 13775 13778 13781 13784 13786 13789 13792 13795 13798 13801 13803 13806 13809 13811 13813 13816 13818 13821 13823 13826 13828 13831 13834 13837 13840 13843 13846 13849 13852 13855 13858 13861 13863 13866 13869 13872 13875 13878 13881 13884 13887 13889 13892 13895 13898 13901 13904 13907 13910 13912 13914 13917 13920 13922 13925 13927 13930 13933 13936 13939 13942 13945 13947 13950 13953 13956 13959 13962 13965 13968 13971 13974 13977 13980 13983 13986 13988 13991 13994 13997 14000 14003 14006 14008 14011 14014 14017 14020 14023 14026 14029 14032 14035 14038 14041 14044 14047 14050 14053 14056 14059 14062 14065 14068 14071 14074 14077 14080 14083 14086 14089 14092 14095 14097 14099 14102 14105 14108 14110 14113 14116 14119 14121 14124 14127 14130 14133 14136 14139 14142 14145 14147 14150 14153 14156 14159 14162 14165 14168 14171 14174 14177 14180 14183 14186 14189 14192 14195 14198 14201 14204 14207 14210 14213 14216 14219 14222 14225 14228 14231 14234 14237 14239 14242 14245 14248 14251 14254 14257 14260 14263 14266 14269 14272 14275 14278 14281 14284 14287 14290 14293 14296 14299 14302 14305 14307 14310 14313 14316 14319 14321 14324 14327 14330 14333 14336 14339 14342 14345 14348 14351 14354 14357 14360 14363 14366 14369 14372 14375 14378 14381 14384 14387 14390 14393 14396 14399 14402 14405 14407 14410 14412 14415 14417 14420 14423 14426 14429 14432 14435 14438 14441 14444 14447 14450 14453 14456 14459 14462 14465 14468 14471 14474 14477 14480 14483 14486 14489 14491 14494 14497 14500 14503 14506 14509 14512 14515 14518 14521 14524 14527 14529 14532 14535 14538 14541 14544 14547 14550 14553 14556 14559 14562 14565 14568 14571 14574 14577 14580 14582 14584 14587 14590 14593 14596 14599 14602 14605 14608 14611 14614 14617 14619 14621 14624 14627 14629 14632 14635 14638 14640 14642 14645 14648 14651 14653 14655 14658 14661 14663 14666 14669 14671 14674 14677 14679 14682 14685 14688 14691 14693 14696 14699 14702 14704 14707 14709 14712 14715 14718 14721 14724 14727 14730 14733 14736 14739 14742 14745 14748 14751 14754 14757 14760 14763 14766 14768 14771 14774 14777 14780 14783 14786 14789 14792 14795 14798 14801 14804 14807 14809 14812 14814 14817 14820 14823 14826 14829 14831 14834 14836 14839 14842 14845 14848 14851 14854 14857 14860 14863 14866 14869 14872 14875 14878 14881 14884 14887 14890 14893 14895 14898 14900 14903 14905 14908 14911 14913 14916 14918 14921 14923 14926 14929 14931 14934 14937 14940 14943 14946 14948 14951 14954 14957 14960 14962 14965 14968 14970 14973 14976 14978 14981 14983 14985 14988 14990 14993 14996 14998 15001 15003 15006 15009 15012 15014 15016 15019 15022 15024 15026 15029 15032 15034 15037 15040 15043 15046 15049 15052 15055 15058 15061 15064 15066 15069 15072 15075 15078 15081 15084 15087 15090 15093 15096 15099 15102 15105 15108 15111 15113 15116 15119 15122 15125 15128 15130 15133 15136 15138 15140 15142 15144 15147 15149 15152 15155 15157 15160 15163 15165 15168 15171 15173 15176 15179 15182 15184 15187 15190 15193 15196 15198 15201 15204 15207 15210 15213 15216 15218 15221 15224 15227 15230 15233 15236 15239 15242 15245 15248 15251 15254 15257 15259 15262 15265 15267 15270 15273 15276 15279 15282 15285 15288 15290 15293 15296 15299 15302 15304 15307 15310 15313 15316 15319 15322 15325 15327 15330 15333 15335 15338 15341 15344 15346 15349 15352 15355 15357 15360 15363 15366 15369 15372 15375 15378 15381 15384 15387 15390 15393 15396 15399 15402 15405 15408 15411 15414 15417 15420 15423 15426 15429 15432 15435 15438 15441 15444 15447 15450 15453 15456 15459 15462 15465 15468 15471 15474 15477 15479 15482 15485 15488 15491 15494 15497 15500 15503 15505 15508 15511 15514 15517 15520 15522 15525 15528 15531 15533 15535 15538 15541 15543 15546 15549 15551 15554 15557 15560 15563 15566 15568 15571 15574 15577 15580 15583 15585 15588 15591 15593 15596 15598 15601 15604 15607 15610 15612 15615 15618 15621 15624 15627 15630 15632 15634 15637 15639 15642 15645 15648 15651 15654 15657 15660 15662 15665 15667 15670 15673 15676 15679 15682 15684 15687 15690 15693 15695 15698 15701 15704 15707 15710 15712 15715 15718 15720 15723 15725 15727 15730 15733 15736 15739 15741 15743 15746 15749 15752 15755 15757 15760 15763 15765 15767 15770 15773 15776 15778 15781 15783 15786 15789 15792 15795 15798 15800 15803 15806 15809 15812 15815 15818 15820 15823 15825 15828 15830 15832 15834 15837 15840 15842 15844 15847 15850 15853 15856 15859 15862 15865 15868 15870 15873 15875 15877 15880 15882 15884 15887 15889 15891 15894 15896 15899 15902 15905 15908 15911 15914 15917 15920 15923 15926 15928 15931 15934 15936 15939 15942 15945 15948 15950 15953 15955 15958 15961 15964 15966 15969 15971 15973 15975 15978 15981 15984 15987 15990 15993 15995 15998 16001 16004 16007 16009 16012 16015 16018 16020 16023 16026 16028 16031 16034 16037 16040 16043 16046 16049 16052 16055 16058 16061 16064 16066 16069 16072 16075 16077 16080 16083 16086 16089 16092 16095 16098 16101 16104 16107 16110 16113 16116 16119 16121 16124 16127 16130 16133 16136 16138 16141 16144 16147 16150 16153 16156 16159 16162 16165 16168 16171 16174 16177 16180 16183 16186 16189 16192 16195 16198 16201 16204 16207 16210 16213 16216 16219 16221 16224 16226 16229 16232 16235 16238 16240 16243 16246 16249 16252 16255 16258 16261 16264 16267 16270 16273 16276 16279 16281 16284 16287 16289 16292 16295 16298 16301 16304 16307 16310 16313 16315 16318 16321 16324 16327 16330 16333 16336 16338 16341 16344 16347 16350 16353 16356 16359 16362 16365 16368 16371 16374 16377 16380 16383 16386 16389 16392 16395 16398 16401 16404 16407 16409 16411 16414 16417 16420 16423 16426 16429 16432 16435 16437 16440 16443 16446 16449 16451 16453 16456 16459 16462 16465 16468 16471 16474 16477 16479 16482 16484 16487 16490 16493 16496 16499 16502 16505 16508 16510 16513 16516 16519 16522 16525 16528 16531 16534 16537 16540 16543 16546 16549 16552 16555 16558 16560 16563 16566 16569 16571 16574 16577 16580 16583 16586 16589 16592 16595 16598 16600 16603 16606 16609 16612 16615 16618 16621 16623 16626 16629 16632 16635 16638 16640 16643 16646 16649 16651 16654 16656 16659 16662 16665 16668 16671 16674 16677 16680 16683 16686 16688 16691 16694 16697 16699 16701 16704 16707 16710 16713 16715 16718 16721 16724 16727 16730 16732 16734 16736 16739 16742 16745 16747 16750 16753 16755 16757 16760 16763 16766 16769 16772 16775 16777 16780 16782 16785 16788 16791 16794 16797 16799 16802 16805 16807 16810 16813 16816 16819 16822 16824 16827 16830 16833 16836 16839 16842 16845 16847 16850 16853 16856 16859 16862 16865 16868 16870 16873 16876 16879 16881 16884 16887 16890 16892 16895 16898 16901 16904 16907 16910 16913 16916 16919 16922 16925 16928 16931 16933 16936 16939 16941 16944 16947 16950 16952 16955 16957 16960 16963 16966 16969 16972 16974 16976 16979 16982 16985 16987 16990 16993 16996 16999 17002 17005 17008 17011 17014 17016 17018 17021 17024 17026 17029 17032 17035 17037 17040 17043 17046 17048 17051 17054 17057 17059 17062 17065 17068 17071 17074 17076 17079 17082 17085 17088 17091 17094 17097 17099 17102 17105 17108 17111 17114 17116 17119 17122 17125 17128 17131 17134 17137 17140 17143 17146 17148 17151 17154 17156 17159 17162 17165 17167 17170 17173 17175 17178 17181 17184 17187 17190 17193 17196 17199 17202 17205 17207 17210 17213 17215 17218 17221 17224 17227 17230 17233 17236 17239 17241 17244 17247 17249 17252 17255 17258 17261 17264 17267 17270 17273 17275 17278 17281 17283 17286 17289 17292 17295 17298 17301 17303 17306 17309 17312 17315 17318 17321 17324 17327 17330 17333 17336 17339 17341 17344 17347 17350 17353 17356 17359 17362 17365 17368 17370 17373 17376 17379 17382 17385 17388 17390 17393 17396 17399 17402 17404 17407 17410 17413 17415 17418 17421 17424 17427 17429 17432 17435 17438 17441 17443 17446 17449 17452 17455 17458 17461 17463 17466 17468 17471 17474 17477 17480 17482 17485 17488 17491 17494 17497 17500 17503 17506 17509 17512 17515 17518 17520 17523 17526 17529 17532 17535 17538 17541 17543 17546 17549 17552 17554 17557 17560 17563 17566 17569 17572 17575 17578 17581 17584 17586 17589 17591 17594 17596 17599 17602 17605 17608 17611 17614 17616 17619 17622 17625 17627 17630 17633 17636 17639 17642 17644 17647 17650 17653 17656 17659 17662 17665 17668 17671 17674 17677 17680 17683 17685 17688 17691 17694 17697 17700 17702 17705 17708 17711 17714 17717 17719 17722 17725 17727 17729 17732 17735 17737 17740 17743 17745 17748 17751 17754 17757 17760 17762 17765 17768 17771 17774 17777 17779 17782 17785 17787 17790 17793 17796 17799 17802 17805 17807 17810 17813 17816 17819 17822 17825 17828 17831 17834 17837 17840 17842 17845 17848 17850 17853 17856 17859 17862 17865 17868 17871 17874 17877 17879 17881 17884 17887 17890 17892 17895 17898 17901 17904 17906 17909 17912 17915 17918 17921 17924 17927 17930 17933 17935 17938 17940 17943 17946 17948 17951 17954 17957 17960 17963 17965 17968 17971 17974 17977 17980 17983 17985 17988 17991 17994 17996 17999 18002 18004 18007 18009 18012 18015 18017 18020 18023 18026 18029 18032 18035 18038 18041 18043 18046 18049 18052 18055 18058 18061 18064 18067 18069 18072 18074 18077 18080 18083 18085 18088 18091 18094 18096 18099 18102 18105 18108 18111 18114 18117 18120 18123 18126 18129 18131 18134 18137 18140 18143 18146 18149 18152 18154 18157 18160 18163 18166 18169 18172 18175 18177 18180 18183 18185 18188 18191 18194 18197 18200 18203 18206 18209 18212 18215 18218 18221 18224 18226 18229 18232 18234 18237 18240 18243 18246 18248 18251 18254 18256 18259 18261 18264 18267 18270 18273 18276 18279 18282 18285 18288 18291 18294 18297 18300 18303 18306 18309 18312 18315 18318 18321 18324 18327 18330 18333 18336 18339 18342 18345 18348 18351 18354 18357 18360 18363 18366 18368 18371 18374 18377 18380 18383 18385 18388 18391 18394 18397 18400 18402 18405 18408 18411 18414 18417 18420 18423 18426 18429 18432 18435 18438 18441 18444 18447 18449 18452 18455 18458 18460 18463 18466 18469 18472 18475 18478 18481 18484 18487 18490 18492 18495 18498 18501 18504 18506 18509 18512 18515 18518 18521 18524 18527 18529 18532 18535 18538 18541 18544 18547 18550 18553 18556 18559 18562 18565 18568 18571 18574 18576 18579 18581 18584 18587 18590 18592 18595 18598 18601 18604 18607 18609 18611 18614 18617 18620 18623 18626 18629 18632 18635 18638 18641 18644 18647 18650 18653 18656 18659 18662 18665 18668 18671 18674 18677 18680 18683 18686 18689 18692 18695 18698 18701 18704 18707 18710 18713 18716 18719 18722 18724 18727 18730 18733 18736 18739 18742 18745 18748 18751 18754 18757 18760 18762 18765 18768 18771 18774 18776 18779 18782 18785 18788 18791 18794 18796 18799 18802 18805 18807 18810 18813 18816 18819 18821 18824 18827 18830 18832 18835 18838 18840 18843 18846 18848 18851 18854 18856 18859 18861 18863 18866 18869 18872 18875 18877 18880 18883 18886 18889 18892 18895 18898 18900 18903 18906 18909 18912 18915 18918 18921 18923 18926 18929 18932 18935 18937 18940 18943 18945 18948 18951 18954 18957 18960 18963 18966 18968 18971 18973 18976 18979 18981 18984 18987 18990 18993 18996 18999 19001 19004 19007 19010 19013 19016 19018 19021 19023 19026 19028 19031 19033 19036 19039 19042 19045 19048 19050 19053 19056 19059 19062 19065 19068 19071 19074 19077 19080 19083 19086 19089 19092 19095 19098 19101 19103 19106 19109 19112 19114 19117 19120 19123 19125 19128 19131 19134 19137 19140 19143 19145 19148 19151 19154 19157 19160 19162 19165 19168 19171 19174 19176 19179 19182 19185 19188 19191 19194 19197 19200 19203 19206 19209 19212 19215 19218 19220 19223 19226 19229 19232 19235 19238 19241 19243 19246 19249 19252 19255 19257 19260 19263 19265 19268 19271 19273 19275 19278 19281 19284 19287 19290 19293 19296 19299 19302 19305 19307 19310 19312 19315 19318 19321 19324 19327 19329 19332 19335 19338 19341 19344 19347 19350 19353 19356 19359 19362 19365 19368 19371 19374 19376 19379 19382 19384 19387 19389 19391 19394 19397 19400 19403 19406 19409 19412 19415 19418 19420 19423 19426 19429 19431 19434 19437 19440 19443 19446 19448 19451 19454 19457 19460 19463 19466 19468 19471 19474 19476 19479 19482 19484 19487 19490 19493 19496 19499 19502 19504 19507 19510 19513 19516 19518 19520 19523 19526 19529 19532 19535 19538 19541 19544 19547 19550 19553 19556 19559 19562 19565 19568 19571 19574 19577 19580 19583 19586 19589 19592 19595 19598 19601 19604 19607 19610 19613 19616 19619 19622 19625 19628 19631 19634 19637 19640 19642 19645 19648 19651 19654 19657 19660 19662 19665 19668 19671 19674 19677 19680 19683 19686 19689 19692 19695 19698 19701 19704 19706 19709 19712 19715 19717 19720 19722 19725 19728 19731 19734 19737 19740 19743 19746 19749 19752 19755 19758 19761 19764 19767 19770 19773 19776 19779 19782 19784 19787 19790 19793 19795 19798 19801 19803 19806 19809 19812 19815 19818 19821 19824 19827 19830 19833 19836 19839 19842 19845 19848 19851 19853 19856 19859 19862 19864 19867 19870 19873 19876 19879 19881 19884 19887 19890 19893 19896 19899 19902 19905 19908 19911 19914 19917 19920 19923 19925 19928 19931 19934 19936 19939 19942 19945 19948 19951 19954 19957 19960 19963 19965 19968 19971 19974 19977 19980 19983 19986 19988 19991 19994 19997 19999 20001 20003 20006 20009 20012 20015 20018 20021 20024 20027 20030 20033 20036 20039 20042 20045 20048 20051 20054 20057 20060 20063 20066 20069 20072 20075 20078 20081 20084 20087 20090 20093 20096 20099 20102 20104 20106 20109 20112 20114 20117 20120 20123 20126 20128 20131 20133 20136 20139 20142 20144 20147 20150 20153 20156 20159 20162 20165 20167 20170 20173 20176 20179 20181 20184 20187 20189 20192 20195 20198 20201 20204 20207 20209 20212 20215 20218 20221 20223 20226 20229 20231 20234 20237 20240 20243 20246 20249 20252 20254 20256 20259 20262 20265 20268 20271 20274 20277 20280 20283 20286 20288 20291 20294 20297 20299 20302 20305 20308 20311 20314 20316 20319 20322 20325 20327 20329 20331 20334 20337 20340 20343 20345 20348 20351 20354 20357 20360 20363 20366 20369 20372 20374 20377 20380 20383 20385 20388 20391 20394 20397 20400 20403 20406 20409 20412 20415 20418 20421 20424 20426 20429 20432 20435 20438 20441 20444 20447 20450 20453 20456 20459 20462 20465 20467 20470 20473 20476 20479 20481 20484 20487 20490 20493 20496 20499 20502 20505 20508 20511 20514 20517 20520 20523 20526 20528 20530 20533 20536 20539 20542 20544 20547 20550 20553 20556 20559 20561 20564 20567 20570 20573 20576 20579 20582 20585 20588 20591 20594 20597 20600 20603 20606 20608 20611 20614 20617 20619 20622 20625 20628 20630 20633 20636 20639 20642 20645 20648 20651 20654 20657 20659 20662 20665 20668 20671 20674 20677 20680 20683 20686 20689 20692 20695 20698 20701 20704 20707 20710 20713 20716 20719 20722 20725 20728 20731 20734 20737 20739 20742 20745 20748 20750 20753 20756 20758 20761 20763 20766 20769 20772 20775 20778 20781 20784 20787 20790 20793 20796 20799 20802 20805 20807 20810 20813 20816 20819 20821 20824 20827 20830 20833 20836 20839 20842 20845 20848 20851 20854 20856 20859 20862 20865 20868 20871 20874 20877 20880 20883 20886 20889 20892 20895 20897 20900 20903 20906 20909 20911 20914 20917 20920 20923 20926 20929 20931 20934 20937 20940 20943 20946 20949 20952 20955 20958 20961 20964 20966 20969 20972 20975 20978 20981 20984 20987 20990 20993 20996 20999 21001 21004 21006 21009 21012 21015 21018 21021 21024 21027 21030 21033 21036 21039 21042 21045 21048 21051 21054 21057 21060 21063 21066 21069 21072 21074 21077 21080 21083 21086 21088 21091 21094 21097 21100 21103 21106 21109 21112 21115 21117 21119 21121 21124 21127 21130 21133 21136 21139 21142 21145 21148 21151 21154 21156 21159 21162 21165 21168 21170 21173 21176 21179 21182 21184 21187 21190 21193 21196 21198 21201 21204 21207 21210 21213 21216 21219 21222 21224 21227 21230 21233 21236 21239 21242 21245 21248 21250 21252 21255 21258 21261 21264 21267 21270 21273 21275 21278 21281 21284 21286 21289 21292 21295 21298 21301 21304 21307 21309 21312 21315 21318 21321 21324 21327 21330 21333 21336 21339 21342 21345 21348 21351 21354 21357 21360 21363 21366 21369 21371 21374 21377 21380 21383 21386 21389 21392 21395 21398 21401 21404 21406 21409 21412 21415 21418 21420 21423 21426 21429 21432 21435 21438 21441 21444 21447 21450 21453 21455 21458 21461 21464 21467 21470 21473 21476 21479 21481 21484 21487 21490 21493 21496 21498 21501 21504 21507 21510 21513 21516 21519 21522 21525 21528 21530 21532 21534 21537 21540 21542 21545 21548 21551 21553 21556 21559 21562 21565 21568 21571 21574 21577 21580 21583 21586 21589 21592 21595 21598 21601 21604 21607 21610 21613 21616 21619 21622 21625 21628 21631 21634 21636 21639 21642 21645 21648 21650 21653 21656 21659 21662 21665 21667 21670 21673 21675 21678 21681 21684 21687 21690 21692 21695 21697 21700 21703 21706 21709 21712 21715 21718 21721 21724 21727 21730 21733 21736 21739 21742 21745 21748 21751 21754 21757 21760 21763 21766 21769 21772 21774 21777 21779 21782 21785 21788 21791 21794 21797 21800 21803 21805 21808 21811 21814 21817 21819 21822 21825 21828 21831 21834 21836 21839 21841 21844 21847 21850 21852 21855 21857 21860 21863 21866 21868 21871 21874 21877 21880 21883 21885 21888 21891 21894 21897 21900 21903 21906 21909 21912 21915 21918 21921 21924 21927 21930 21933 21936 21938 21941 21944 21947 21950 21953 21955 21958 21961 21964 21967 21969 21972 21975 21978 21981 21984 21986 21989 21992 21995 21998 22001 22003 22006 22009 22012 22015 22018 22021 22024 22027 22029 22032 22035 22037 22040 22043 22046 22049 22052 22055 22058 22061 22064 22067 22070 22073 22076 22079 22081 22084 22087 22090 22093 22096 22098 22101 22104 22106 22109 22112 22115 22118 22121 22124 22127 22130 22133 22136 22138 22141 22144 22147 22150 22153 22156 22159 22162 22165 22167 22170 22173 22176 22179 22182 22185 22188 22191 22194 22197 22200 22202 22205 22208 22211 22214 22217 22220 22223 22226 22229 22232 22235 22238 22241 22244 22247 22250 22253 22256 22259 22262 22265 22268 22271 22274 22277 22280 22283 22286 22289 22292 22295 22298 22301 22304 22306 22309 22312 22315 22318 22321 22324 22327 22330 22333 22336 22339 22342 22345 22348 22351 22354 22357 22360 22362 22365 22367 22370 22373 22376 22379 22382 22385 22387 22390 22393 22396 22398 22401 22404 22407 22410 22413 22416 22419 22422 22425 22428 22431 22434 22436 22439 22442 22445 22448 22450 22453 22456 22459 22462 22465 22468 22471 22474 22476 22479 22482 22484 22487 22489 22491 22494 22497 22500 22503 22506 22508 22511 22514 22517 22519 22522 22525 22527 22530 22533 22535 22538 22541 22544 22547 22550 22553 22556 22559 22562 22565 22568 22571 22574 22577 22580 22583 22585 22588 22591 22594 22597 22600 22603 22606 22609 22611 22614 22617 22620 22623 22626 22629 22632 22635 22638 22641 22643 22646 22649 22652 22655 22658 22661 22664 22667 22670 22672 22675 22678 22680 22683 22686 22689 22692 22695 22698 22701 22704 22707 22710 22713 22716 22719 22721 22724 22727 22730 22732 22734 22737 22740 22742 22745 22748 22751 22753 22755 22758 22761 22764 22766 22769 22772 22775 22778 22781 22784 22787 22790 22793 22796 22799 22802 22805 22808 22811 22814 22817 22820 22823 22826 22828 22831 22834 22837 22840 22842 22845 22848 22851 22854 22857 22860 22863 22866 22869 22872 22875 22878 22881 22884 22887 22890 22893 22896 22899 22902 22905 22908 22911 22914 22917 22920 22923 22926 22929 22932 22935 22938 22941 22944 22947 22950 22953 22956 22959 22962 22965 22968 22971 22974 22976 22979 22982 22985 22988 22991 22994 22997 23000 23003 23006 23009 23012 23015 23018 23021 23023 23025 23028 23031 23033 23036 23039 23041 23043 23046 23049 23052 23055 23058 23061 23064 23067 23070 23073 23076 23079 23082 23085 23088 23091 23094 23097 23100 23103 23106 23109 23112 23114 23117 23120 23122 23125 23128 23131 23133 23136 23139 23142 23145 23148 23151 23154 23157 23160 23163 23165 23168 23170 23173 23176 23179 23182 23185 23188 23191 23194 23197 23199 23202 23205 23208 23211 23214 23217 23220 23223 23226 23229 23232 23234 23237 23240 23243 23246 23249 23252 23254 23257 23260 23263 23266 23269 23272 23275 23278 23281 23283 23286 23289 23292 23295 23298 23300 23303 23305 23308 23311 23314 23317 23319 23322 23324 23327 23329 23331 23334 23337 23340 23343 23346 23349 23352 23355 23358 23361 23364 23367 23370 23373 23376 23379 23382 23384 23387 23390 23393 23395 23398 23401 23403 23406 23409 23412 23415 23418 23421 23424 23426 23429 23431 23434 23437 23440 23443 23445 23448 23451 23454 23456 23459 23462 23465 23467 23469 23472 23475 23478 23481 23484 23487 23490 23493 23495 23498 23500 23502 23505 23507 23510 23513 23516 23519 23522 23524 23527 23530 23533 23536 23539 23542 23545 23548 23551 23554 23557 23560 23563 23566 23569 23572 23575 23578 23581 23583 23586 23589 23592 23595 23598 23601 23604 23607 23610 23613 23616 23619 23621 23624 23627 23630 23633 23636 23639 23642 23645 23648 23651 23654 23657 23660 23663 23666 23669 23672 23674 23677 23680 23683 23686 23688 23691 23694 23697 23700 23703 23706 23708 23711 23714 23717 23720 23723 23726 23729 23731 23734 23737 23740 23742 23745 23747 23750 23753 23755 23758 23760 23763 23766 23769 23772 23774 23777 23780 23783 23785 23788 23791 23793 23796 23799 23802 23805 23808 23811 23814 23817 23820 23823 23826 23829 23831 23834 23837 23840 23843 23846 23849 23852 23855 23858 23861 23864 23867 23870 23872 23875 23877 23880 23883 23886 23888 23890 23893 23896 23899 23901 23904 23907 23910 23912 23915 23918 23921 23924 23927 23930 23933 23936 23939 23942 23945 23948 23951 23954 23957 23960 23963 23966 23969 23972 23975 23978 23981 23984 23987 23990 23993 23996 23999 24002 24005 24008 24010 24013 24016 24019 24022 24025 24027 24030 24033 24036 24039 24041 24044 24047 24049 24052 24054 24057 24060 24063 24066 24069 24072 24075 24078 24081 24084 24086 24088 24091 24094 24097 24099 24102 24105 24108 24111 24114 24117 24120 24122 24124 24127 24130 24133 24136 24138 24141 24144 24147 24150 24153 24156 24159 24162 24165 24168 24171 24174 24176 24178 24181 24184 24187 24189 24192 24194 24197 24200 24203 24205 24208 24211 24213 24216 24219 24221 24223 24226 24229 24232 24235 24238 24240 24243 24246 24249 24252 24255 24258 24261 24264 24267 24270 24273 24276 24278 24281 24284 24287 24290 24293 24296 24299 24302 24305 24308 24311 24314 24317 24320 24323 24326 24329 24332 24335 24338 24341 24344 24347 24350 24353 24356 24359 24361 24363 24366 24369 24372 24375 24378 24381 24383 24386 24389 24392 24395 24398 24400 24403 24406 24409 24412 24415 24418 24421 24424 24427 24430 24433 24436 24439 24442 24445 24448 24451 24454 24457 24460 24462 24465 24467 24470 24473 24475 24478 24481 24483 24486 24488 24491 24493 24496 24499 24502 24505 24508 24510 24513 24516 24518 24521 24523 24526 24529 24532 24535 24538 24541 24544 24546 24549 24552 24554 24557 24560 24562 24564 24567 24570 24572 24575 24578 24581 24583 24585 24588 24591 24594 24597 24600 24603 24606 24609 24612 24615 24618 24621 24623 24625 24628 24630 24633 24636 24639 24642 24644 24646 24649 24652 24655 24657 24660 24662 24665 24667 24670 24672 24675 24678 24681 24683 24686 24689 24691 24694 24696 24699 24702 24705 24707 24710 24713 24716 24719 24722 24725 24728 24731 24734 24737 24740 24743 24746 24749 24752 24755 24758 24760 24763 24765 24767 24770 24772 24775 24777 24780 24783 24785 24787 24790 24793 24796 24799 24802 24805 24807 24810 24812 24815 24817 24819 24822 24825 24827 24830 24833 24836 24839 24842 24845 24848 24851 24854 24857 24860 24863 24866 24869 24872 24875 24878 24881 24884 24887 24890 24893 24896 24899 24902 24905 24908 24911 24914 24917 24920 24923 24926 24929 24932 24934 24937 24940 24943 24946 24949 24952 24955 24957 24960 24963 24966 24969 24971 24973 24975 24978 24981 24983 24986 24989 24991 24994 24997 25000 25003 25006 25008 25011 25014 25016 25019 25022 25024 25027 25029 25032 25034 25037 25040 25043 25046 25049 25052 25055 25058 25060 25062 25065 25068 25070 25073 25076 25079 25081 25084 25086 25088 25091 25093 25096 25098 25101 25104 25107 25109 25112 25115 25118 25121 25123 25126 25128 25131 25134 25137 25140 25142 25145 25148 25151 25154 25157 25160 25163 25166 25169 25172 25175 25178 25181 25183 25186 25189 25192 25195 25198 25201 25203 25206 25209 25212 25215 25218 25221 25224 25227 25230 25233 25236 25239 25242 25245 25248 25251 25254 25257 25260 25263 25266 25269 25272 25275 25278 25281 25284 25287 25290 25293 25296 25299 25302 25305 25308 25311 25313 25316 25319 25321 25323 25326 25329 25331 25333 25336 25339 25341 25344 25346 25349 25352 25355 25358 25360 25363 25366 25369 25372 25375 25378 25380 25383 25386 25389 25392 25395 25397 25400 25402 25405 25408 25411 25414 25417 25420 25423 25426 25428 25431 25433 25436 25439 25441 25444 25447 25450 25452 25455 25458 25461 25464 25467 25470 25473 25476 25479 25482 25485 25488 25490 25492 25495 25498 25501 25503 25506 25508 25511 25514 25517 25520 25523 25526 25529 25531 25533 25536 25539 25542 25545 25548 25551 25554 25557 25560 25563 25566 25569 25572 25575 25578 25580 25583 25586 25588 25590 25593 25596 25599 25602 25604 25607 25610 25613 25616 25619 25621 25624 25627 25629 25631 25634 25637 25640 25642 25644 25647 25650 25653 25655 25658 25661 25664 25667 25670 25673 25676 25679 25682 25684 25687 25690 25692 25695 25698 25701 25704 25707 25710 25712 25715 25718 25721 25723 25726 25729 25732 25735 25738 25741 25744 25747 25750 25753 25756 25759 25762 25764 25767 25770 25773 25776 25779 25782 25785 25788 25791 25794 25797 25800 25802 25805 25808 25811 25814 25817 25820 25823 25826 25829 25832 25835 25838 25841 25844 25847 25850 25853 25856 25859 25862 25865 25868 25870 25873 25876 25879 25881 25883 25885 25888 25891 25893 25896 25899 25901 25903 25906 25909 25912 25915 25918 25921 25924 25927 25929 25932 25934 25937 25940 25943 25946 25949 25952 25955 25958 25961 25964 25967 25970 25973 25976 25979 25982 25984 25987 25990 25993 25996 25998 26001 26004 26006 26009 26012 26015 26018 26021 26024 26027 26030 26032 26034 26037 26040 26043 26046 26049 26052 26055 26058 26061 26064 26067 26070 26073 26076 26079 26082 26085 26088 26091 26094 26097 26100 26103 26105 26108 26111 26113 26116 26119 26122 26125 26128 26131 26134 26136 26138 26141 26144 26147 26150 26153 26156 26159 26162 26165 26168 26171 26174 26177 26180 26183 26186 26188 26191 26193 26196 26198 26201 26204 26207 26210 26213 26215 26218 26221 26224 26227 26229 26232 26234 26237 26240 26243 26246 26249 26252 26255 26258 26261 26264 26267 26270 26273 26276 26279 26282 26285 26288 26291 26294 26297 26299 26302 26305 26308 26311 26314 26317 26320 26323 26326 26328 26331 26334 26337 26340 26343 26345 26348 26351 26354 26357 26360 26363 26366 26369 26372 26375 26378 26381 26384 26387 26390 26393 26395 26398 26401 26404 26407 26410 26413 26415 26418 26421 26424 26427 26430 26432 26434 26437 26440 26443 26446 26449 26452 26455 26457 26460 26463 26466 26469 26471 26474 26476 26479 26482 26485 26487 26490 26493 26495 26498 26500 26503 26506 26509 26512 26514 26517 26520 26523 26526 26529 26531 26534 26537 26540 26543 26546 26549 26552 26555 26558 26560 26563 26565 26568 26571 26574 26576 26579 26582 26584 26587 26590 26593 26596 26599 26602 26604 26607 26610 26612 26615 26618 26621 26623 26626 26629 26631 26634 26636 26639 26642 26644 26647 26650 26652 26655 26657 26660 26663 26666 26668 26671 26674 26677 26680 26683 26686 26689 26692 26695 26697 26700 26703 26706 26709 26712 26714 26716 26719 26721 26724 26727 26730 26733 26736 26738 26741 26744 26746 26748 26751 26753 26755 26758 26761 26764 26767 26770 26773 26776 26779 26782 26785 26788 26790 26793 26796 26799 26802 26804 26807 26810 26813 26816 26819 26821 26824 26827 26830 26833 26835 26838 26841 26844 26847 26849 26852 26855 26858 26861 26864 26867 26870 26872 26875 26878 26881 26884 26887 26890 26892 26895 26898 26900 26903 26906 26908 26911 26914 26916 26919 26922 26925 26928 26931 26934 26937 26940 26943 26946 26949 26952 26955 26958 26961 26964 26967 26969 26972 26975 26977 26980 26982 26985 26988 26991 26994 26997 27000 27002 27005 27008 27010 27013 27016 27018 27021 27023 27026 27028 27031 27034 27037 27040 27043 27046 27048 27051 27054 27057 27060 27063 27065 27068 27070 27073 27076 27079 27082 27084 27087 27090 27093 27095 27098 27100 27103 27106 27109 27112 27115 27118 27121 27124 27127 27130 27133 27136 27139 27142 27145 27148 27151 27154 27157 27160 27163 27166 27169 27172 27175 27178 27181 27184 27187 27190 27193 27195 27198 27201 27203 27206 27209 27212 27214 27216 27219 27221 27224 27227 27229 27232 27234 27237 27240 27243 27245 27248 27251 27254 27256 27259 27261 27264 27267 27270 27272 27274 27276 27279 27281 27284 27286 27289 27291 27294 27297 27299 27301 27304 27306 27309 27311 27313 27316 27319 27322 27324 27326 27329 27332 27335 27337 27340 27343 27346 27349 27352 27354 27357 27360 27363 27366 27368 27371 27374 27377 27380 27383 27386 27389 27392 27395 27398 27401 27404 27407 27410 27413 27416 27419 27421 27424 27427 27430 27433 27436 27439 27442 27445 27448 27451 27454 27457 27460 27463 27466 27469 27472 27475 27478 27481 27484 27487 27490 27493 27496 27499 27502 27505 27508 27510 27513 27516 27519 27522 27524 27527 27530 27532 27535 27538 27541 27543 27546 27548 27551 27554 27557 27560 27562 27565 27567 27569 27571 27573 27576 27579 27582 27585 27588 27591 27594 27597 27600 27603 27606 27609 27612 27615 27618 27621 27624 27627 27630 27633 27636 27639 27642 27645 27647 27650 27653 27656 27659 27662 27665 27668 27671 27674 27677 27679 27682 27685 27687 27690 27693 27696 27699 27702 27704 27706 27709 27712 27715 27718 27721 27724 27727 27730 27733 27736 27738 27741 27744 27747 27750 27752 27755 27758 27761 27764 27766 27769 27772 27775 27778 27780 27783 27786 27788 27791 27794 27796 27799 27802 27805 27808 27811 27814 27817 27820 27823 27826 27828 27831 27834 27837 27840 27843 27846 27849 27852 27855 27858 27861 27864 27867 27870 27873 27875 27878 27881 27884 27887 27890 27893 27896 27898 27900 27903 27906 27909 27912 27915 27918 27921 27924 27927 27930 27933 27936 27939 27942 27945 27948 27951 27954 27957 27960 27963 27966 27969 27972 27975 27978 27981 27984 27987 27990 27993 27996 27999 28002 28005 28008 28011 28014 28017 28020 28023 28026 28029 28031 28034 28037 28040 28043 28046 28049 28052 28055 28057 28060 28063 28066 28069 28072 28075 28078 28080 28082 28084 28087 28090 28093 28096 28099 28102 28104 28107 28110 28113 28116 28119 28122 28125 28128 28131 28134 28136 28139 28142 28145 28148 28150 28153 28156 28158 28161 28164 28167 28170 28173 28176 28179 28182 28185 28188 28191 28194 28197 28200 28202 28205 28208 28211 28214 28217 28220 28223 28226 28228 28231 28234 28237 28240 28242 28245 28248 28251 28254 28257 28260 28263 28266 28269 28272 28275 28278 28281 28284 28287 28290 28293 28296 28299 28302 28305 28308 28311 28314 28317 28320 28323 28326 28329 28332 28335 28338 28340 28343 28345 28348 28351 28354 28356 28359 28361 28364 28367 28370 28373 28376 28378 28381 28384 28386 28388 28391 28394 28397 28400 28403 28406 28409 28412 28415 28418 28421 28424 28427 28430 28433 28436 28439 28442 28445 28448 28451 28454 28457 28460 28463 28466 28469 28472 28475 28478 28481 28484 28487 28490 28493 28496 28499 28502 28505 28508 28511 28514 28517 28519 28522 28524 28527 28529 28532 28535 28538 28541 28544 28547 28549 28552 28555 28558 28560 28563 28566 28569 28572 28575 28578 28581 28584 28587 28590 28593 28596 28599 28601 28604 28607 28610 28613 28616 28618 28621 28624 28627 28630 28633 28635 28638 28641 28643 28646 28649 28652 28655 28658 28661 28664 28667 28670 28673 28675 28678 28680 28682 28685 28688 28691 28694 28697 28700 28703 28706 28709 28711 28714 28717 28720 28723 28725 28727 28730 28733 28736 28739 28742 28745 28748 28750 28753 28756 28758 28761 28763 28766 28769 28772 28775 28778 28781 28784 28786 28789 28792 28794 28796 28799 28802 28804 28807 28810 28813 28816 28818 28821 28824 28827 28830 28833 28836 28839 28841 28844 28847 28850 28853 28856 28859 28862 28865 28868 28871 28874 28877 28880 28883 28886 28889 28892 28895 28897 28900 28903 28906 28909 28912 28915 28918 28921 28924 28927 28930 28933 28936 28939 28942 28945 28947 28950 28953 28955 28958 28961 28964 28966 28969 28972 28974 28977 28980 28982 28985 28988 28990 28993 28996 28998 29001 29004 29007 29010 29013 29016 29019 29022 29025 29028 29031 29033 29036 29039 29042 29045 29048 29051 29054 29056 29058 29060 29062 29064 29067 29070 29073 29076 29079 29082 29085 29088 29091 29094 29097 29100 29102 29105 29108 29111 29114 29116 29119 29122 29125 29128 29131 29134 29137 29140 29143 29146 29149 29152 29155 29158 29161 29164 29166 29169 29172 29174 29177 29180 29183 29185 29188 29191 29194 29197 29200 29203 29206 29209 29212 29215 29217 29220 29223 29226 29228 29231 29234 29237 29240 29242 29245 29248 29250 29253 29256 29258 29261 29264 29267 29270 29273 29276 29278 29281 29284 29287 29290 29293 29296 29299 29302 29305 29308 29311 29314 29317 29320 29323 29326 29329 29332 29335 29337 29340 29342 29345 29348 29350 29353 29356 29359 29362 29365 29368 29371 29374 29377 29380 29383 29386 29389 29392 29395 29398 29401 29404 29407 29410 29413 29416 29419 29422 29425 29428 29431 29434 29437 29440 29443 29446 29449 29452 29455 29458 29461 29464 29467 29470 29473 29476 29479 29482 29485 29488 29491 29494 29497 29500 29503 29506 29509 29512 29514 29517 29520 29523 29525 29528 29531 29534 29537 29540 29543 29546 29549 29552 29555 29558 29561 29564 29567 29570 29572 29575 29578 29581 29584 29587 29590 29593 29596 29599 29602 29604 29607 29610 29613 29616 29618 29621 29624 29627 29630 29632 29635 29638 29641 29643 29646 29649 29651 29654 29657 29660 29663 29665 29668 29671 29674 29677 29680 29682 29684 29687 29689 29692 29695 29698 29700 29703 29705 29708 29710 29713 29716 29718 29721 29723 29726 29729 29732 29734 29737 29740 29743 29745 29748 29751 29753 29756 29758 29760 29763 29765 29768 29771 29774 29777 29780 29783 29786 29788 29791 29793 29796 29799 29801 29804 29806 29809 29812 29815 29818 29821 29824 29827 29830 29832 29835 29838 29840 29843 29846 29849 29851 29853 29856 29859 29862 29865 29868 29871 29874 29877 29880 29883 29885 29888 29891 29893 29896 29899 29902 29904 29907 29910 29913 29916 29919 29922 29925 29927 29930 29932 29935 29938 29941 29944 29947 29950 29953 29956 29959 29961 29964 29967 29970 29972 29975 29978 29981 29984 29987 29990 29993 29995 29998 30001 30004 30007 30010 30013 30016 30019 30021 30024 30026 30029 30032 30035 30038 30041 30044 30047 30049 30052 30055 30058 30061 30064 30066 30069 30072 30075 30078 30081 30083 30086 30089 30092 30095 30098 30101 30104 30107 30110 30113 30116 30119 30122 30125 30128 30131 30134 30137 30140 30143 30146 30149 30152 30155 30158 30161 30164 30167 30170 30173 30176 30179 30182 30185 30188 30191 30194 30197 30200 30202 30204 30207 30209 30212 30215 30218 30221 30224 30227 30230 30233 30236 30238 30241 30244 30247 30250 30253 30256 30259 30262 30265 30267 30270 30273 30276 30279 30282 30285 30288 30291 30293 30296 30299 30302 30304 30307 30310 30312 30315 30318 30321 30324 30327 30330 30333 30336 30339 30342 30345 30348 30351 30354 30357 30360 30363 30365 30368 30370 30373 30376 30379 30382 30385 30387 30390 30393 30396 30399 30401 30404 30407 30410 30413 30416 30418 30421 30424 30427 30430 30433 30436 30438 30441 30444 30447 30450 30453 30456 30459 30462 30465 30467 30470 30473 30476 30479 30482 30485 30488 30491 30494 30497 30500 30503 30506 30508 30511 30514 30517 30520 30523 30526 30529 30531 30534 30537 30540 30543 30546 30549 30552 30555 30558 30561 30563 30566 30569 30572 30575 30577 30580 30583 30586 30589 30592 30595 30598 30601 30603 30605 30608 30611 30614 30617 30620 30623 30626 30628 30631 30634 30636 30639 30642 30645 30648 30651 30654 30657 30660 30663 30666 30669 30672 30675 30678 30680 30683 30686 30689 30691 30694 30697 30700 30702 30705 30708 30710 30713 30716 30719 30722 30724 30727 30730 30733 30736 30738 30740 30743 30746 30748 30751 30754 30756 30759 30762 30765 30768 30771 30774 30777 30780 30783 30786 30789 30792 30795 30798 30801 30803 30806 30809 30812 30815 30818 30820 30822 30825 30827 30830 30833 30836 30838 30841 30844 30847 30850 30852 30855 30858 30860 30863 30866 30868 30871 30874 30876 30878 30880 30883 30886 30889 30892 30895 30897 30900 30903 30906 30909 30912 30915 30918 30920 30923 30926 30929 30932 30934 30937 30939 30941 30944 30947 30949 30952 30955 30957 30960 30963 30966 30969 30971 30974 30977 30980 30983 30986 30989 30992 30994 30997 31000 31003 31005 31008 31011 31014 31017 31019 31022 31025 31027 31030 31032 31034 31037 31039 31042 31045 31047 31050 31053 31055 31058 31061 31064 31067 31070 31073 31075 31078 31081 31083 31086 31089 31091 31093 31095 31098 31101 31103 31106 31109 31112 31114 31117 31119 31122 31125 31128 31130 31133 31136 31139 31141 31144 31147 31150 31153 31156 31159 31162 31165 31168 31170 31173 31176 31179 31181 31184 31186 31189 31191 31194 31196 31199 31202 31205 31208 31210 31213 31216 31219 31222 31225 31228 31230 31232 31235 31238 31241 31244 31247 31250 31253 31256 31258 31260 31262 31265 31268 31271 31274 31276 31279 31281 31284 31286 31289 31292 31295 31297 31300 31302 31305 31308 31311 31314 31316 31319 31322 31325 31328 31331 31334 31337 31340 31342 31345 31348 31350 31353 31356 31359 31362 31365 31368 31371 31374 31377 31380 31383 31386 31388 31391 31394 31396 31399 31402 31405 31408 31411 31414 31416 31419 31422 31425 31428 31430 31433 31436 31439 31442 31444 31447 31450 31453 31456 31458 31460 31463 31466 31469 31472 31474 31477 31480 31483 31486 31489 31491 31494 31497 31500 31503 31505 31508 31510 31513 31516 31518 31521 31524 31527 31530 31532 31535 31538 31541 31544 31547 31550 31553 31555 31558 31561 31564 31567 31570 31573 31576 31579 31582 31584 31587 31590 31593 31596 31599 31602 31605 31608 31611 31614 31617 31620 31623 31626 31628 31631 31634 31637 31640 31643 31645 31648 31651 31654 31657 31660 31663 31666 31669 31671 31674 31677 31680 31683 31686 31689 31692 31695 31698 31701 31704 31707 31710 31713 31716 31718 31721 31724 31727 31730 31733 31735 31738 31741 31744 31747 31750 31752 31755 31758 31761 31764 31767 31770 31772 31775 31778 31781 31784 
</DataArray>
<DataArray type="UInt32" Name="types" format="ascii">
5 5 5 5 5 5 5 5 5 5 5 5 5 3 5 5 5 5 5 5 5 3 5 5 3 5 5 5 5 5 5 5 5 5 5 5 5 5 5 5 5 3 5 5 5 5 5 5 5 5 5 5 5 5 5 5 5 5 5 5 5 5 5 5 5 5 5 5 5 5 5 5 5 5 5 5 5 5 5 5 5 5 5 5 5 5 5 5 5 5 5 5 5 5 5 5 5 5 5 3 5 5 5 5 5 5 5 5 3 5 5 5 5 5 3 5 5 5 5 5 3 5 5 5 5 5 5 5 5 3 5 3 5 5 5 5 5 5 5 3 5 3 5 3 5 5 5 5 5 5 5 5 5 3 5 3 3 5 5 5 3 5 5 5 3 5 3 5 5 5 5 3 5 3 5 5 5 5 5 3 5 5 5 5 5 5 5 5 5 5 5 5 5 5 5 3 5 5 5 5 5 5 3 5 5 5 5 5 5 5 5 5 5 5 5 3 3 5 5 5 3 5 5 3 5 5 5 3 5 5 5 5 5 5 5 3 5 5 5 5 5 5 5 5 5 5 5 5 5 5 5 3 5 3 5 5 3 5 5 5 3 5 5 5 5 5 5 5 5 5 5 5 3 5 5 5 5 5 5 3 5 5 5 5 3 5 5 5 5 3 5 3 5 3 5 5 5 5 3 3 5 5 5 5 3 5 5 5 3 5 5 5 5 3 5 3 5 5 5 5 5 5 5 5 5 3 5 5 5 3 5 5 5 5 5 5 5 5 5 5 5 5 5 5 5 5 5 5 5 5 5 5 5 5 5 5 5 5 5 5 5 3 5 5 5 5 5 5 5 5 5 5 5 5 5 5 5 5 3 5 5 5 5 5 5 5 5 5 5 5 5 3 5 5 5 3 5 5 3 5 5 5 5 5 5 5 3 5 5 5 5 5 5 5 5 3 5 3 5 5 5 3 5 5 5 5 5 5 5 5 3 5 3 5 5 5 3 5 3 5 5 3 5 5 5 3 5 5 5 3 5 5 3 5 5 5 5 5 5 5 5 5 3 5 5 5 5 5 3 5 3 5 5 5 3 5 5 5 5 5 5 5 5 3 5 5 3 5 3 5 5 5 5 5 3 5 5 5 5 5 5 5 5 5 5 5 5 5 5 3 5 5 5 3 5 5 5 5 3 5 5 5 5 3 5 5 5 5 5 5 5 5 5 5 5 5 5 5 5 5 5 5 5 5 5 5 5 5 5 5 5 5 5 5 5 5 5 3 5 5 5 5 5 5 5 5 5 3 5 5 5 5 5 5 5 5 5 5 5 3 5 5 5 5 3 5 5 5 5 5 5 3 5 5 3 5 5 5 5 5 5 5 5 5 5 5 5 5 5 5 5 5 5 5 5 5 5 5 5 5 5 5 5 5 5 5 5 5 5 5 5 5 5 5 5 5 5 5 5 5 5 5 5 5 5 5 3 5 5 5 5 5 5 3 5 5 5 5 5 5 5 5 5 5 5 5 5 5 5 5 5 5 5 5 3 5 5 5 5 5 5 5 5 5 5 5 5 5 5 5 5 5 5 5 5 5 5 5 5 5 5 5 5 5 5 5 5 5 5 5 5 5 5 5 5 5 5 5 5 5 5 5 5 5 5 5 5 5 5 5 5 5 5 5 5 5 5 5 5 5 5 5 5 5 5 5 5 5 5 5 5 5 5 5 5 5 5 5 5 5 5 5 5 5 5 5 5 5 5 5 5 5 5 3 5 5 5 5 5 5 5 5 5 5 5 3 5 5 5 5 5 5 5 3 5 5 3 5 5 5 5 5 5 5 5 5 5 5 5 5 5 5 5 5 5 5 5 5 5 5 3 5 5 5 5 5 5 5 5 5 5 5 5 5 5 5 5 5 5 5 5 5 5 5 5 5 5 5 5 3 5 5 3 5 5 5 5 5 5 5 5 5 5 5 5 3 5 5 5 5 5 3 5 5 3 5 5 5 5 5 5 5 5 5 5 5 5 5 3 3 5 5 5 5 5 5 5 5 5 5 5 5 5 5 3 5 5 5 5 3 5 3 5 5 5 3 5 5 5 5 5 5 5 5 5 5 5 5 5 5 5 3 5 5 5 5 5 5 5 5 5 5 5 5 5 5 5 5 5 5 5 5 5 5 5 5 5 5 5 5 5 5 5 5 5 3 5 3 5 5 5 3 5 5 5 3 5 5 5 5 5 5 5 5 5 5 5 5 5 5 5 5 5 5 5 5 5 5 5 5 5 5 3 5 5 5 3 5 5 5 5 3 5 5 5 5 3 5 5 5 5 5 5 3 5 5 5 3 5 5 5 5 5 5 5 5 5 5 5 5 5 5 5 5 5 5 5 5 5 5 5 3 5 5 5 5 3 5 5 5 5 5 5 5 5 5 3 5 3 5 5 5 5 5 5 5 5 3 5 5 5 5 5 5 5 5 5 5 5 3 5 5 5 5 5 5 5 5 5 5 5 5 5 5 5 3 5 5 5 5 5 3 5 5 5 5 5 5 5 3 5 5 5 5 5 5 5 5 5 5 5 5 5 5 3 5 5 5 5 5 5 5 5 3 5 5 3 5 5 5 5 5 5 5 3 5 5 5 5 5 5 5 5 5 5 5 5 5 5 5 3 5 3 5 5 5 5 5 5 5 5 5 5 5 5 5 5 5 5 5 5 5 5 5 5 5 5 3 5 5 5 3 5 5 5 5 5 3 5 5 3 5 5 5 3 5 5 5 5 5 5 3 5 5 5 5 5 5 5 5 5 3 3 5 5 5 3 3 5 5 3 5 5 3 5 5 5 5 5 5 3 5 5 3 3 5 5 3 5 5 5 3 5 5 5 5 5 5 5 5 5 5 5 5 5 5 5 5 5 5 5 5 5 5 5 5 3 5 5 5 5 3 5 5 5 5 5 3 5 5 5 5 5 5 5 3 5 5 5 5 5 3 5 5 5 5 5 5 5 5 3 5 5 5 5 5 5 3 5 3 5 5 5 3 5 5 3 5 5 5 3 5 5 5 5 5 5 5 5 5 5 5 5 5 5 5 3 5 5 5 5 3 5 5 5 5 5 3 5 5 5 5 3 5 5 5 5 5 5 5 5 5 3 3 5 5 5 5 5 5 5 5 5 3 5 5 5 5 5 5 5 5 3 5 5 5 5 5 5 5 5 5 3 5 5 5 5 5 5 3 5 5 5 5 5 5 5 5 5 3 5 5 5 5 5 3 5 3 5 5 5 5 5 5 5 5 5 5 5 5 5 5 5 5 5 5 5 5 5 5 5 5 5 5 5 5 5 5 5 3 5 5 5 5 5 5 5 5 5 5 5 5 5 5 5 5 5 5 5 5 5 5 5 5 5 5 5 5 5 5 5 5 5 5 5 3 5 5 5 5 3 5 5 5 5 5 5 5 5 5 5 5 5 5 5 3 5 5 5 5 5 5 5 5 5 5 5 5 5 5 5 3 5 5 3 5 5 5 3 5 5 5 5 5 5 5 5 5 5 5 3 5 5 5 5 5 5 5 5 5 5 5 5 5 5 3 5 5 5 5 5 5 5 5 5 3 5 5 5 5 5 5 3 5 5 3 5 5 5 5 5 5 5 5 5 3 5 3 3 5 5 5 5 5 5 5 3 3 5 5 5 5 5 5 5 5 5 5 5 5 5 5 3 5 5 3 5 5 5 5 5 5 5 5 5 5 5 5 5 5 5 5 5 5 5 3 3 5 5 5 5 5 5 5 5 5 5 5 5 5 5 5 5 5 5 5 5 5 5 5 5 5 5 5 5 5 5 5 5 3 5 3 5 5 5 5 5 5 5 5 5 5 5 5 5 5 5 5 3 5 5 5 5 5 5 5 3 5 5 5 5 5 5 5 5 5 5 5 5 3 5 5 5 5 5 5 5 5 5 5 5 5 5 5 5 5 5 5 5 5 5 5 5 5 5 5 5 3 5 5 5 5 5 5 5 5 5 5 3 5 5 5 5 5 3 5 5 5 5 5 3 5 5 5 5 5 5 5 3 5 5 5 5 5 5 5 5 5 5 5 5 5 5 5 5 5 5 3 5 5 5 5 5 5 3 3 5 5 5 5 5 3 3 5 5 5 5 5 5 5 5 5 5 5 5 5 3 5 5 5 5 5 5 5 5 5 5 5 5 5 5 5 5 5 5 5 5 5 5 5 5 5 5 5 3 5 5 3 5 5 3 5 5 5 3 5 5 5 5 5 5 5 5 3 3 5 5 5 5 5 5 5 5 5 3 5 3 5 5 5 5 5 5 3 5 3 5 5 5 5 5 5 5 5 5 3 5 5 5 5 5 5 5 3 5 5 5 3 5 3 3 5 5 3 5 5 3 5 3 5 3 5 5 5 3 5 5 5 5 5 5 5 5 5 5 3 5 3 5 3 5 3 5 5 3 5 5 3 3 5 5 5 5 5 3 5 5 5 5 5 3 5 5 5 5 5 5 5 3 5 5 5 5 5 5 5 5 5 5 5 5 5 5 5 5 5 5 5 5 3 5 5 5 5 3 5 5 5 5 5 3 5 5 5 5 3 5 5 3 5 5 5 5 5 5 5 5 5 5 3 5 5 5 5 5 5 5 5 5 3 5 5 5 5 5 5 5 5 5 5 5 5 5 5 5 5 5 5 5 5 5 5 5 3 5 5 5 5 5 5 5 5 5 3 3 5 5 5 5 5 5 5 3 5 5 5 5 3 5 3 5 5 5 3 5 5 5 5 5 5 5 5 5 5 5 5 5 5 5 5 5 3 5 5 3 3 3 5 3 5 3 5 5 5 5 5 3 3 5 3 5 5 3 5 3 5 5 3 3 5 5 5 5 5 5 5 5 5 5 5 5 5 5 5 5 5 5 3 5 5 5 5 5 5 5 5 5 5 5 5 5 5 5 5 5 5 5 5 5 5 5 5 5 5 5 5 5 5 5 5 5 5 5 5 5 5 5 5 5 5 5 5 5 5 5 5 5 5 3 5 5 5 5 5 5 5 5 5 5 5 5 5 5 5 5 5 5 5 5 5 3 5 5 5 5 5 3 5 5 5 5 5 5 5 5 5 5 5 5 5 5 5 5 5 5 5 5 5 5 5 5 5 5 5 5 5 5 5 5 5 5 5 5 5 5 5 5 5 3 5 5 5 5 5 5 5 5 5 5 5 5 5 5 5 5 5 5 5 5 5 5 5 5 5 5 3 5 5 5 5 5 5 5 5 5 5 5 3 5 5 5 5 5 5 5 5 5 5 5 5 3 5 3 5 5 5 5 5 5 5 5 5 5 5 5 5 5 5 5 5 5 5 5 5 5 3 5 5 5 5 3 3 5 5 5 5 5 5 5 5 5 5 5 5 5 5 5 5 3 3 5 5 3 3 5 3 5 5 5 3 3 5 5 5 3 5 5 5 5 5 5 5 3 5 5 5 5 5 5 5 3 5 3 5 3 5 5 5 5 5 5 5 5 5 5 5 3 5 5 5 5 5 5 5 5 5 5 5 5 5 5 5 5 5 5 5 5 5 5 5 3 5 5 5 5 3 3 5 5 5 5 5 5 5 5 5 3 5 3 5 5 5 5 5 5 5 5 5 5 5 5 5 5 5 5 3 5 5 5 5 5 5 5 5 3 5 5 5 5 3 5 5 5 5 5 5 3 5 5 5 5 3 5 5 5 5 3 5 5 5 5 5 5 5 5 5 5 5 5 5 5 5 5 5 5 5 5 5 5 5 5 5 5 5 5 5 3 5 5 5 5 5 5 5 5 5 5 5 5 5 5 5 5 5 5 5 5 5 5 5 5 5 5 5 5 5 5 5 5 5 5 5 5 5 5 5 5 5 3 5 5 5 5 5 5 5 5 5 5 5 5 5 5 5 5 5 5 5 3 3 5 5 5 5 5 3 5 3 5 5 5 5 5 5 5 5 5 5 5 5 5 5 5 5 5 3 5 5 5 5 5 5 5 5 3 5 5 3 5 5 5 5 5 5 5 5 5 3 5 5 5 5 5 3 5 5 5 3 5 5 5 3 5 5 3 5 3 5 5 5 5 5 5 5 5 5 5 5 5 5 5 5 5 5 5 5 5 5 3 5 5 5 5 5 3 5 3 5 5 5 5 5 5 5 5 3 3 5 3 5 5 3 3 5 5 3 5 5 5 5 5 5 5 5 5 5 5 5 5 5 5 5 5 5 5 5 5 5 5 5 5 5 5 5 5 5 5 5 5 5 5 5 5 5 5 5 5 5 5 5 5 5 5 5 5 5 5 5 5 5 5 5 5 5 5 5 5 5 5 5 5 5 5 5 5 5 5 5 5 5 5 5 5 5 5 5 5 5 5 5 5 5 5 5 5 5 3 5 5 3 5 5 5 5 5 5 5 5 5 5 5 5 5 5 5 5 5 5 5 5 5 5 5 5 5 5 5 5 5 5 5 3 5 5 5 5 5 3 5 5 5 5 5 5 5 5 5 5 5 5 5 5 5 5 5 5 5 3 5 5 5 5 5 5 5 5 5 5 5 5 5 5 5 5 5 5 5 5 5 5 5 5 5 5 3 5 5 5 5 5 5 5 5 3 5 5 5 5 5 5 5 5 5 5 5 5 5 5 5 3 5 5 5 5 5 5 3 5 5 5 3 5 5 5 5 5 3 3 5 5 5 5 5 5 5 5 5 5 5 5 5 5 5 5 3 5 5 3 5 5 5 5 5 3 5 5 5 5 5 5 5 5 5 5 3 5 5 5 5 5 5 3 5 3 5 5 5 5 3 5 5 5 5 5 5 5 5 5 5 5 5 5 5 5 5 5 5 5 5 5 5 5 5 5 5 5 5 5 5 3 5 5 5 5 5 5 5 5 5 5 5 5 5 5 3 5 5 3 5 5 5 5 5 5 5 5 5 5 5 5 5 5 5 5 5 5 5 3 5 5 3 5 5 3 5 5 5 3 5 5 5 3 5 5 5 5 3 5 5 5 5 3 5 3 5 5 5 5 5 3 3 5 5 5 3 5 5 5 3 5 3 5 3 5 5 3 5 5 5 5 5 5 3 5 3 5 5 3 5 5 5 5 5 5 5 5 5 5 5 5 5 5 5 5 5 3 5 3 5 3 5 3 5 5 5 3 5 5 5 5 5 5 5 3 5 5 5 5 5 5 5 5 5 3 5 5 5 5 5 5 5 5 5 5 5 5 5 3 5 3 5 5 5 5 5 5 5 5 5 5 3 5 5 5 5 5 5 3 5 5 5 3 5 3 5 3 5 5 5 5 5 5 5 5 5 5 5 5 5 5 3 5 5 5 5 5 5 5 5 3 5 5 5 5 5 3 5 5 5 5 5 5 5 5 5 5 5 3 5 5 5 5 5 5 5 5 5 5 5 5 5 5 5 5 5 5 5 5 5 5 5 5 5 5 5 3 5 5 5 5 5 5 3 5 5 5 5 5 5 5 3 5 5 5 5 5 5 5 5 5 5 5 5 5 5 5 5 5 5 5 5 5 5 5 5 3 5 5 5 5 5 5 5 5 5 5 5 5 5 5 5 5 5 5 5 5 5 5 5 5 5 5 5 5 5 3 5 5 5 5 5 3 3 5 5 5 5 5 5 5 5 5 5 5 5 5 5 5 5 5 5 5 5 5 5 5 5 5 5 5 3 5 5 5 5 3 5 5 3 5 5 3 5 3 5 5 5 5 5 5 5 5 5 5 5 5 5 5 5 5 5 5 5 5 5 5 5 5 5 5 5 5 5 5 5 5 5 5 5 5 5 5 5 3 5 5 5 5 5 5 5 5 5 5 5 5 5 5 5 5 5 5 5 5 5 3 5 5 5 5 5 5 5 5 5 5 5 5 5 5 5 5 5 5 5 5 3 5 5 5 3 5 5 5 5 5 5 3 5 5 5 5 3 5 5 5 5 5 3 5 3 5 5 5 3 5 5 5 5 5 5 5 5 5 5 3 5 5 5 3 5 5 3 5 3 5 3 5 5 5 5 5 3 5 5 5 3 5 5 3 5 5 5 3 5 5 5 5 5 3 5 5 5 5 5 5 5 5 5 5 5 5 5 5 5 5 5 5 5 5 5 5 5 5 5 5 5 5 5 5 5 5 5 5 5 3 5 5 5 5 5 5 5 5 5 3 5 5 5 5 5 5 5 5 5 5 5 5 5 5 5 5 5 5 5 5 5 5 5 5 5 5 5 3 5 5 5 5 5 5 5 5 5 5 5 5 5 5 5 5 5 5 3 5 5 5 5 5 5 5 5 5 5 3 5 5 5 3 5 5 5 5 3 5 5 5 5 5 3 5 5 5 5 5 5 5 5 5 5 5 3 5 5 5 5 5 3 5 5 5 5 5 5 5 5 5 5 5 5 5 5 3 5 5 5 5 5 5 5 5 5 5 5 5 3 5 5 3 5 5 5 5 5 3 5 5 5 3 5 5 5 5 5 5 5 5 5 5 5 5 5 5 5 5 5 5 5 5 5 5 5 5 3 3 3 5 5 3 5 3 3 5 5 3 5 5 5 5 5 5 3 5 5 5 5 5 3 5 5 3 5 5 3 3 5 5 5 5 5 5 5 5 5 5 5 5 5 5 3 5 5 5 5 5 5 5 5 3 5 5 5 3 5 5 5 5 5 5 3 5 5 5 5 5 5 5 5 5 5 5 5 3 5 5 5 5 5 5 5 5 5 5 5 5 5 5 5 5 5 5 5 5 5 5 5 5 5 5 5 5 5 5 5 5 3 5 5 5 5 3 3 5 5 5 5 3 5 5 5 5 5 5 5 5 5 5 5 5 5 5 5 3 5 5 5 5 5 5 5 5 5 5 5 5 5 5 5 5 5 5 5 5 5 5 3 5 5 5 3 5 5 5 5 5 5 5 5 5 3 5 3 5 5 5 5 5 3 5 5 5 5 3 5 5 5 5 5 5 5 5 5 3 5 5 5 5 3 5 5 5 5 5 5 5 3 3 5 5 3 5 5 5 5 5 5 5 5 5 5 5 5 5 5 5 5 5 5 5 5 5 5 5 5 5 5 5 3 5 5 5 5 5 5 5 5 5 5 5 5 5 5 5 5 5 5 5 5 5 5 5 5 5 5 5 5 5 5 5 5 5 5 5 5 5 5 5 5 3 5 5 5 5 5 5 5 5 5 3 5 5 5 3 5 5 3 5 3 5 3 5 5 5 5 5 5 5 3 5 5 5 5 5 5 5 5 5 5 5 5 5 5 5 5 5 5 3 5 5 5 5 5 5 5 5 5 5 5 5 5 5 5 5 5 5 5 5 5 5 5 5 5 3 5 5 5 5 5 5 5 5 5 5 5 5 3 5 5 5 5 5 5 5 3 5 5 5 3 5 5 5 3 3 5 5 5 5 5 5 5 5 5 3 5 5 5 5 5 5 5 5 5 5 5 3 3 5 3 3 3 5 3 5 5 5 5 5 5 5 5 5 5 5 5 5 5 3 5 5 5 5 5 5 5 5 5 5 5 5 5 5 5 5 5 5 5 5 5 5 3 5 5 5 5 5 5 5 5 5 5 5 5 5 3 5 3 5 5 5 5 5 5 5 5 5 5 5 5 5 5 5 5 5 5 5 5 5 5 5 3 5 5 5 5 5 5 5 5 5 5 5 5 5 5 5 5 5 5 5 5 5 5 5 5 5 5 5 5 3 5 5 5 5 5 5 5 5 5 5 5 5 5 5 5 5 3 5 5 5 5 5 5 5 5 5 5 5 5 5 5 5 5 5 5 5 5 5 5 5 5 5 5 3 5 5 5 5 5 5 5 5 3 5 5 3 5 5 3 5 5 5 5 5 5 5 5 5 3 5 5 5 5 5 5 5 5 5 5 3 5 5 5 5 3 3 5 5 5 5 5 5 5 3 5 3 5 5 5 5 5 3 3 5 3 5 5 5 3 5 5 3 3 5 3 5 5 5 5 5 3 5 5 3 5 5 3 3 5 5 5 5 3 5 3 5 5 5 5 5 5 5 3 3 5 5 5 5 5 5 5 5 3 3 5 3 3 3 5 3 5 5 5 5 5 5 5 5 5 5 5 5 5 5 3 5 5 3 5 5 5 5 5 5 5 5 5 5 5 5 5 5 5 5 5 5 5 5 5 5 5 5 5 5 5 5 5 5 5 5 5 5 5 5 5 5 5 5 5 5 5 5 5 5 5 5 5 5 5 5 5 5 5 5 5 5 5 5 3 3 5 5 5 5 5 5 5 5 5 5 5 5 5 5 5 5 5 5 5 5 5 5 5 5 5 5 5 5 5 5 5 5 5 5 5 5 5 5 5 5 5 5 5 5 5 5 5 5 5 5 5 5 5 5 5 5 5 5 5 5 5 5 5 5 3 5 5 5 5 5 5 5 5 5 3 5 5 5 3 3 5 5 5 5 5 5 5 5 5 3 5 3 5 5 3 3 5 5 5 5 5 3 3 5 5 5 5 3 5 5 5 3 5 3 5 5 5 5 3 5 5 5 5 3 5 5 3 5 5 5 5 5 5 3 5 5 5 5 5 5 5 5 5 3 5 5 5 5 3 5 5 5 5 5 5 5 5 5 5 5 5 5 5 5 5 5 5 5 5 5 5 5 5 5 5 5 5 5 5 5 5 5 5 5 5 5 3 5 5 5 5 3 5 5 3 5 3 5 5 3 5 5 5 3 5 5 5 3 5 5 5 5 5 5 5 5 5 5 5 3 5 5 5 5 5 5 5 5 5 3 5 5 5 5 5 3 5 5 5 5 5 3 5 5 5 5 5 3 5 5 3 3 5 3 5 3 5 3 5 5 5 5 5 5 5 5 5 5 5 3 5 5 5 5 5 5 5 5 3 5 5 5 5 5 5 5 3 3 5 5 3 5 3 5 5 5 5 5 5 3 5 5 5 5 5 5 5 5 5 5 5 5 5 3 5 5 5 5 5 5 3 5 5 5 5 5 5 5 5 5 5 5 5 5 5 5 5 5 5 5 5 5 5 5 5 5 5 5 5 5 3 3 5 5 5 3 5 5 5 3 5 5 5 5 5 5 5 5 3 5 5 5 5 5 5 5 5 5 5 5 5 5 5 5 5 5 5 5 5 5 5 5 5 5 5 5 5 5 5 3 5 5 5 5 5 5 5 5 5 5 5 5 5 5 5 5 5 5 5 5 5 5 3 5 5 5 5 3 5 5 5 5 5 5 5 5 5 5 5 5 5 5 5 5 5 5 5 5 5 5 5 5 5 5 5 5 3 5 3 5 3 5 5 5 5 5 5 5 5 5 5 5 5 5 5 5 5 5 5 5 5 5 5 5 5 3 5 5 5 5 5 5 5 5 5 5 5 5 3 5 5 5 5 5 5 5 5 5 5 5 5 5 5 5 5 5 3 3 5 5 5 5 5 5 5 5 5 5 5 3 3 5 5 3 5 5 5 3 3 5 5 5 3 3 5 5 3 5 5 3 5 5 3 5 5 5 5 3 5 5 5 3 5 3 5 5 5 5 5 5 5 5 5 5 5 5 5 5 5 5 5 5 5 3 5 5 5 5 5 5 5 5 5 5 5 5 5 3 5 3 5 5 5 5 5 3 5 3 5 5 5 5 5 5 5 5 5 5 5 5 5 5 5 5 5 5 5 3 5 3 5 3 5 5 3 5 3 5 3 5 5 3 5 5 5 5 5 3 5 5 5 5 3 5 5 3 5 5 3 5 3 3 5 3 5 5 3 5 3 5 5 5 3 3 5 5 3 3 5 5 3 5 5 5 5 5 5 5 5 5 5 3 5 5 5 5 5 5 5 5 5 5 5 5 5 5 5 3 5 5 5 5 5 3 5 5 3 3 3 3 5 3 5 5 3 5 5 3 5 5 3 5 5 5 3 5 5 5 5 3 5 5 5 5 5 5 3 5 5 5 5 5 5 5 5 5 5 5 5 5 3 5 5 3 5 5 5 5 5 5 5 3 5 5 5 5 3 5 5 5 5 5 5 5 3 5 5 3 5 5 5 3 5 5 5 3 5 5 5 5 5 5 5 5 5 5 5 5 5 5 5 5 5 5 5 5 5 5 5 5 5 5 5 5 5 5 5 5 5 5 5 5 5 5 5 5 3 5 5 5 5 5 5 5 5 3 5 5 5 5 5 3 5 5 5 3 3 5 5 3 5 5 3 5 5 5 5 5 3 5 5 5 5 5 3 5 5 3 5 3 5 5 5 5 3 5 5 5 5 5 5 3 3 5 3 5 5 5 5 5 5 5 3 5 3 5 5 5 5 5 3 5 5 5 3 5 5 5 5 5 3 5 5 3 5 3 3 5 5 5 5 3 3 5 5 5 5 3 5 5 3 3 5 5 5 3 5 3 5 5 5 5 5 3 5 5 5 5 5 5 3 5 3 5 3 3 3 5 5 3 3 5 5 5 5 5 5 5 5 3 5 3 3 5 3 3 5 3 3 5 3 5 5 5 5 5 5 5 5 5 5 3 5 5 3 5 5 5 5 3 5 3 5 5 5 3 5 3 3 3 5 5 5 5 5 5 3 5 5 5 5 3 5 5 5 3 5 5 3 5 5 5 5 5 5 5 5 5 5 5 5 3 5 5 5 3 5 5 5 5 5 5 5 5 5 5 5 5 5 5 3 5 5 5 5 5 3 5 5 5 5 5 5 5 5 5 5 5 5 5 5 5 5 5 5 5 5 5 5 5 5 5 5 5 3 5 3 5 5 5 5 3 5 5 5 5 5 5 5 5 5 5 5 5 5 3 5 5 3 5 5 5 5 5 5 5 5 3 5 5 5 5 5 5 5 3 5 5 5 5 5 5 5 5 5 5 5 5 5 5 5 5 5 5 5 5 5 5 5 3 3 5 5 5 5 5 5 5 5 3 5 5 5 5 3 3 5 5 5 5 5 5 5 5 3 5 3 5 5 5 5 5 5 5 5 3 5 5 5 5 5 5 5 5 5 5 5 5 5 5 5 5 3 5 5 5 3 5 5 5 5 5 5 5 5 5 3 5 5 5 5 5 5 5 3 5 5 5 5 5 3 5 5 5 3 5 3 5 5 5 5 5 5 5 5 5 5 3 5 5 5 3 3 5 5 5 5 3 5 5 5 5 5 3 3 3 5 5 5 3 5 5 3 3 5 5 5 5 5 5 3 5 3 5 5 5 5 5 3 5 5 3 5 5 5 5 5 3 5 5 5 5 5 5 5 3 5 5 5 5 5 5 5 3 5 5 5 3 5 5 5 3 5 5 5 5 5 5 5 5 5 5 5 5 5 3 5 5 3 5 5 5 3 5 3 5 5 5 5 5 3 3 5 5 5 3 5 5 5 5 5 5 5 5 5 3 3 5 5 3 5 5 5 3 5 5 5 3 5 5 5 3 5 5 5 5 5 3 5 5 5 5 5 5 5 3 5 5 5 5 5 3 5 5 5 5 5 5 5 5 5 5 3 5 5 3 5 5 5 3 5 5 3 5 5 5 5 5 5 5 5 5 5 3 5 5 3 5 5 5 5 5 5 5 5 3 5 5 3 5 5 5 5 5 5 5 5 3 5 5 3 5 5 5 5 5 5 3 5 5 5 5 5 5 5 5 5 5 5 5 3 5 5 5 5 5 5 5 5 5 3 5 5 5 5 5 5 3 5 5 5 5 3 5 5 5 3 5 5 5 5 3 5 5 5 5 3 5 5 5 5 5 5 3 5 3 5 5 5 5 3 5 5 5 5 5 5 5 5 5 5 5 5 3 5 5 5 5 5 5 5 3 5 5 5 3 5 5 5 5 5 5 5 5 5 5 3 5 3 5 3 5 5 5 5 5 5 3 5 5 5 3 5 5 5 5 5 3 5 5 5 5 5 5 5 5 5 5 5 5 5 3 5 5 5 5 5 3 5 5 5 5 5 3 5 5 3 3 5 5 3 5 5 3 5 5 5 5 5 3 5 5 5 5 5 3 5 5 3 5 5 5 5 5 5 3 5 5 5 5 5 5 5 5 5 5 5 3 5 5 3 5 5 5 5 5 5 5 5 5 3 3 5 5 5 3 5 5 5 5 3 5 5 5 5 5 5 5 5 5 3 5 3 5 5 3 5 5 5 5 5 3 5 5 5 5 5 5 3 5 5 5 3 5 5 3 5 3 5 5 3 5 5 5 5 5 5 5 5 3 5 5 5 5 5 5 5 5 3 5 3 5 5 5 3 5 5 5 3 5 5 5 5 5 5 5 5 5 5 5 3 5 5 5 5 5 5 5 3 5 5 5 5 5 5 5 3 5 5 3 5 5 5 5 5 5 5 5 5 5 5 5 5 3 5 5 3 5 5 5 5 3 5 5 3 5 3 5 5 5 5 5 5 5 5 5 5 5 5 5 5 5 5 5 5 5 5 5 5 5 5 5 5 5 5 5 5 5 5 5 5 5 3 5 5 5 5 5 3 5 5 5 5 5 3 5 5 5 5 5 5 5 5 5 5 5 5 5 5 5 3 5 5 5 3 5 5 5 5 5 5 5 5 5 5 3 5 5 5 5 3 5 5 5 5 5 5 5 3 5 5 5 5 5 5 5 5 5 5 5 5 5 5 5 3 5 3 5 5 5 3 5 5 5 5 5 3 3 5 5 5 5 5 5 5 5 5 5 5 5 5 5 5 5 5 5 5 5 5 5 5 5 5 5 5 5 5 5 5 5 5 5 5 5 5 3 5 5 5 5 5 5 5 5 5 5 5 5 3 5 5 5 5 3 5 5 5 5 5 5 3 5 5 5 3 5 5 5 5 3 5 5 5 3 5 5 3 5 5 3 5 5 3 5 3 3 5 5 5 5 3 5 5 5 5 5 5 5 3 5 5 5 5 5 5 5 3 5 5 5 5 3 5 5 3 5 5 5 5 5 5 5 3 5 3 5 5 3 5 5 5 5 5 5 3 5 5 5 5 5 3 5 3 5 3 5 3 5 5 5 5 5 3 5 5 5 5 5 5 5 5 5 5 5 5 5 5 5 5 5 3 5 5 5 3 5 5 5 3 5 5 5 5 5 5 3 5 5 5 5 5 3 5 5 5 5 3 5 5 5 5 5 5 5 5 5 5 5 5 5 5 3 5 5 5 5 5 5 5 3 5 5 5 5 3 5 5 3 5 5 3 3 5 5 5 5 5 5 5 5 5 5 3 5 3 5 5 5 5 5 3 5 5 5 5 5 5 5 5 5 5 5 5 5 5 5 3 5 5 3 5 3 3 5 5 5 5 5 5 5 5 5 3 5 5 5 3 5 5 5 5 5 3 5 5 5 5 5 5 3 5 5 3 5 5 3 5 5 5 5 5 5 3 5 5 5 5 3 3 5 5 5 5 5 5 5 5 5 5 5 5 5 5 5 5 5 5 5 5 5 5 5 5 5 5 5 5 5 5 5 5 5 5 5 5 5 5 5 5 3 5 5 5 5 5 5 3 5 5 5 5 5 5 5 5 5 5 5 5 5 5 3 5 5 5 3 5 3 5 5 5 5 5 5 5 5 5 5 5 5 5 5 5 5 5 5 5 5 3 5 5 5 3 5 5 3 5 5 5 5 5 5 5 5 5 5 5 5 5 5 5 5 3 5 5 5 3 5 5 5 5 5 3 5 5 5 5 5 5 5 5 5 5 5 5 5 5 3 5 5 5 3 5 5 5 5 5 5 5 5 5 3 5 5 5 5 5 5 5 3 5 5 5 3 3 3 5 5 5 5 5 5 5 5 5 5 5 5 5 5 5 5 5 5 5 5 5 5 5 5 5 5 5 5 5 5 5 5 5 3 3 5 5 3 5 5 5 5 3 5 3 5 5 5 3 5 5 5 5 5 5 5 3 5 5 5 5 3 5 5 3 5 5 5 5 5 5 3 5 5 5 5 3 5 5 3 5 5 5 5 5 5 5 3 3 5 5 5 5 5 5 5 5 5 5 3 5 5 5 3 5 5 5 5 5 3 5 5 5 3 3 3 5 5 5 5 3 5 5 5 5 5 5 5 5 5 3 5 5 5 3 5 5 5 5 5 5 5 5 5 5 5 5 5 3 5 5 5 5 5 5 5 5 5 5 5 5 5 3 5 5 5 5 3 5 5 5 5 5 5 5 5 5 5 5 5 5 5 5 3 3 5 5 5 5 3 5 5 5 5 5 3 5 5 5 5 5 5 5 5 5 5 5 5 5 5 5 3 5 5 5 3 5 5 5 3 5 5 5 5 5 5 5 5 5 3 5 5 5 5 5 5 5 5 5 5 5 5 5 5 5 5 5 5 5 5 5 5 5 5 5 5 3 5 5 5 3 5 5 3 5 3 5 5 5 5 5 5 5 5 5 5 5 5 5 5 3 5 5 5 5 3 5 5 5 5 5 5 5 5 5 5 5 3 5 5 5 5 5 5 5 5 5 5 5 5 5 3 5 5 5 5 3 5 5 5 5 5 5 3 5 5 5 5 5 5 5 5 5 5 5 3 5 5 5 5 5 5 5 5 5 5 5 3 5 3 5 5 5 5 5 5 5 5 5 5 5 5 5 5 5 5 5 5 5 5 5 5 3 5 5 5 5 3 5 5 5 5 5 5 5 5 5 3 3 3 5 5 5 5 5 5 5 5 5 5 5 3 5 5 5 5 3 5 5 5 5 3 5 5 5 5 3 5 5 5 5 5 5 5 5 3 5 5 5 5 5 5 5 5 3 3 5 5 5 5 5 5 5 3 5 5 5 3 5 5 5 5 5 5 5 3 5 5 5 5 5 5 5 5 5 5 5 5 5 5 5 5 5 5 5 5 3 5 5 5 5 5 5 5 5 5 5 5 3 5 5 5 5 3 5 5 5 5 5 5 5 5 5 5 5 3 5 5 5 5 5 5 5 5 3 5 5 5 5 5 3 5 5 5 5 5 5 5 5 5 5 3 3 3 5 5 3 5 5 5 3 5 5 5 5 5 5 5 5 5 5 5 5 5 5 5 5 5 5 5 5 5 5 5 5 5 5 5 3 5 5 5 5 3 5 5 5 5 5 3 5 5 3 5 5 5 5 5 3 5 3 5 5 5 5 5 5 5 5 5 5 5 5 5 5 5 5 5 5 5 5 5 5 5 5 5 3 5 3 5 5 5 5 5 5 5 5 3 5 5 5 5 3 5 5 5 5 5 3 5 3 5 5 5 3 5 3 5 5 5 3 5 5 5 5 5 3 5 5 5 5 5 5 5 5 5 5 5 5 5 5 5 5 5 3 5 5 5 5 5 3 5 5 5 5 3 5 5 5 5 5 3 5 5 5 5 5 3 5 5 5 5 5 5 5 5 3 5 5 3 5 5 5 5 5 5 5 5 5 5 5 5 5 5 3 5 5 5 5 5 3 5 5 3 5 5 5 5 5 5 5 5 5 5 3 5 5 5 5 5 5 5 5 5 3 5 5 5 5 5 5 5 5 5 5 5 3 5 5 5 5 5 5 5 5 5 5 5 5 5 5 5 5 5 5 5 5 5 5 5 5 5 5 5 5 5 5 5 5 5 5 3 5 5 5 5 5 5 5 5 5 5 5 5 5 5 5 5 5 5 3 5 3 5 5 5 5 5 5 3 5 5 5 3 5 5 5 5 5 5 5 5 5 5 5 5 3 5 5 5 5 3 5 5 5 5 5 5 5 5 3 5 5 3 5 3 3 5 5 5 5 5 3 5 5 5 3 5 5 3 5 5 3 5 5 5 5 5 5 5 5 5 5 5 5 5 5 5 5 3 5 5 5 5 5 5 5 5 3 5 5 5 5 5 5 5 5 5 5 3 5 5 5 5 5 5 5 5 5 3 5 5 3 5 5 5 5 5 5 5 5 5 5 5 5 5 3 5 5 5 3 3 5 5 3 5 5 5 3 3 5 5 5 3 5 5 5 5 5 5 5 5 5 5 5 5 5 5 5 5 5 5 5 5 3 5 5 5 5 3 5 5 5 5 5 5 5 5 5 5 5 5 5 5 5 5 5 5 5 5 5 5 5 5 5 5 5 5 5 5 5 5 5 5 5 5 5 5 5 5 5 5 5 5 3 5 5 5 5 5 5 5 5 5 5 5 5 5 5 5 3 3 5 5 3 5 5 3 3 5 5 5 5 5 5 5 5 5 5 5 5 5 5 5 5 5 5 5 5 5 5 5 3 5 5 3 5 5 5 3 5 5 5 5 5 5 5 5 5 5 3 5 3 5 5 5 5 5 5 5 5 5 3 5 5 5 5 5 5 5 5 5 5 5 3 5 5 5 5 5 5 3 5 5 5 5 5 5 5 5 5 3 5 5 5 5 5 3 5 3 5 5 5 5 3 5 3 5 3 3 5 5 5 5 5 5 5 5 5 5 5 5 5 5 5 5 5 3 5 5 5 3 5 5 3 5 5 5 5 5 5 5 3 5 3 5 5 5 5 3 5 5 5 3 5 5 5 3 3 5 5 5 5 5 5 5 5 3 5 3 3 5 3 5 5 5 5 5 3 5 5 5 5 5 5 5 5 5 5 5 5 5 5 5 5 5 5 5 3 5 5 5 5 5 5 5 5 5 5 5 5 3 5 5 5 5 5 5 5 5 5 5 5 5 5 5 5 5 5 3 5 5 5 5 3 5 5 5 5 5 5 3 5 5 5 5 5 5 5 3 5 5 5 3 5 3 5 5 3 5 3 5 5 5 5 3 5 5 5 3 5 5 3 5 5 5 5 5 5 5 5 5 5 5 5 3 5 5 5 5 5 5 5 5 5 5 5 5 5 3 5 3 5 5 5 3 3 5 5 5 3 5 5 5 3 5 5 5 5 5 5 5 5 5 5 5 5 5 5 5 5 5 5 5 5 5 5 5 5 5 5 5 5 5 5 5 5 3 5 5 5 5 5 3 5 5 5 5 3 5 5 3 5 3 5 5 5 5 5 5 5 5 5 5 3 3 5 5 5 3 5 5 5 5 5 5 5 3 3 5 5 5 5 3 5 5 5 5 5 5 5 5 5 5 5 5 3 3 5 5 5 3 5 3 5 5 5 3 5 5 3 5 5 3 3 5 5 5 5 5 3 5 5 5 5 5 5 5 5 5 5 5 5 3 5 5 5 5 5 5 5 5 5 5 5 5 5 5 5 5 5 5 5 5 5 5 5 5 5 5 5 3 3 5 5 5 5 5 5 3 5 5 5 5 5 3 5 5 5 5 5 5 5 5 5 5 5 5 5 5 5 5 5 5 5 5 3 5 3 5 5 3 5 5 3 5 3 5 3 5 5 5 5 5 3 5 5 3 5 3 5 5 5 5 5 5 5 3 5 5 3 5 5 3 3 5 5 3 5 5 5 3 3 5 5 5 5 5 5 5 5 5 5 5 5 3 3 5 3 5 5 5 5 3 3 5 5 5 3 5 3 5 3 5 3 5 5 5 3 5 5 3 5 3 5 5 5 3 5 5 5 5 5 5 5 5 5 5 5 5 5 5 5 5 5 3 5 3 3 5 3 5 3 5 5 3 3 5 5 5 5 5 5 3 5 3 5 3 3 5 5 3 5 5 5 5 5 5 5 5 5 5 5 5 5 5 5 5 5 5 5 5 5 5 5 5 5 5 5 5 5 5 5 5 5 5 5 3 5 5 5 5 5 5 5 3 5 5 5 5 3 3 3 5 5 3 5 5 3 5 5 5 5 5 3 5 5 3 5 5 3 5 3 5 3 5 5 5 5 5 5 5 5 3 3 5 5 3 5 5 5 3 5 3 3 5 3 5 3 5 5 5 3 5 5 5 5 3 5 3 5 5 5 5 3 5 5 5 5 5 5 5 5 5 5 5 5 5 3 5 5 5 5 5 5 3 5 5 5 5 5 5 5 5 5 5 5 5 5 5 5 5 5 5 5 5 5 5 5 5 5 5 5 5 5 5 5 5 5 5 5 5 3 5 5 3 3 5 5 3 3 5 5 3 5 3 5 5 5 5 3 5 5 5 5 5 5 3 5 5 5 5 5 3 5 3 5 5 5 5 5 5 5 5 3 5 3 5 5 3 5 5 5 3 5 5 5 5 5 5 5 5 5 5 5 5 3 3 5 5 5 3 5 3 5 5 5 5 5 5 5 3 3 5 5 5 5 5 5 5 5 5 5 5 5 5 5 5 3 5 5 3 3 5 5 5 5 3 5 5 5 5 5 3 5 5 3 3 5 5 5 3 3 5 5 5 3 5 5 5 5 5 5 5 5 5 3 5 5 3 5 5 5 5 5 5 3 5 5 5 3 5 5 5 5 5 5 5 5 5 5 5 5 5 3 5 5 5 5 5 5 5 5 5 5 5 5 3 5 5 5 5 5 5 5 5 5 5 5 5 5 5 5 5 5 5 5 5 5 5 3 5 5 5 3 3 3 5 5 3 5 5 3 3 5 5 5 5 5 5 5 5 3 5 3 5 5 5 5 5 5 5 5 5 5 5 5 5 5 5 5 3 5 5 5 5 3 5 5 3 5 5 5 5 5 5 5 5 3 3 5 5 5 5 5 5 5 5 5 5 5 5 5 5 5 5 5 5 5 5 5 5 5 3 5 5 3 5 5 5 5 5 5 5 3 3 5 5 5 5 5 5 5 5 5 5 5 5 5 5 5 5 3 5 3 5 3 5 5 5 5 5 3 5 5 5 5 3 5 3 5 5 5 5 5 5 5 5 5 5 5 5 5 5 5 5 5 5 5 5 5 3 5 5 5 5 5 5 5 5 5 3 5 5 5 5 5 3 5 5 5 5 5 5 5 5 5 5 5 5 5 5 5 5 3 5 5 5 5 5 5 3 5 5 5 5 5 3 3 5 5 5 5 5 5 5 3 5 5 5 5 3 5 3 5 5 5 3 5 5 3 5 3 5 5 5 5 3 5 5 5 5 5 3 5 5 5 5 5 5 5 5 5 3 5 3 5 5 5 3 5 5 3 5 5 5 5 5 5 3 5 5 3 5 5 5 3 5 5 3 5 3 5 5 3 5 5 3 5 3 5 5 5 3 5 5 5 5 5 5 5 5 5 3 5 5 5 5 5 3 3 5 3 5 5 5 5 5 3 5 5 3 3 5 3 3 5 5 5 5 5 5 5 5 5 5 5 3 5 5 5 5 3 5 5 5 5 5 3 5 5 5 5 3 5 5 5 5 3 5 5 5 5 5 5 5 3 5 5 5 5 5 5 3 5 5 3 5 5 3 5 5 3 5 5 5 5 5 5 5 5 5 5 5 5 5 5 5 5 5 3 5 5 3 5 3 5 5 5 5 5 5 3 5 5 3 5 5 3 5 3 5 3 5 5 5 5 5 5 3 5 5 5 5 5 3 5 3 5 5 5 5 3 5 5 5 3 5 3 5 5 5 5 5 5 5 5 5 5 5 5 5 5 5 5 5 5 5 5 5 5 5 5 5 5 5 5 5 5 5 3 5 5 3 5 5 5 3 3 5 3 5 5 3 5 3 5 5 5 3 5 5 5 3 5 3 5 5 5 3 3 3 5 3 5 3 5 3 5 5 3 3 5 3 5 3 3 5 5 5 3 3 5 5 5 3 5 5 5 5 5 3 5 5 5 5 3 5 5 5 5 5 5 5 5 5 5 5 5 5 5 5 5 5 3 5 5 5 5 5 5 5 5 5 5 5 5 5 5 5 5 5 5 5 5 5 5 5 5 5 5 5 5 5 3 5 5 5 5 3 5 5 3 5 5 5 3 5 3 5 5 5 5 3 5 3 3 3 3 5 5 5 5 5 5 5 5 5 5 5 5 5 5 5 5 5 5 5 5 5 5 5 5 3 5 5 5 5 5 5 5 5 5 5 3 5 5 3 5 5 5 5 5 3 3 5 5 5 5 5 5 5 5 5 5 3 5 5 5 5 3 5 5 5 5 3 5 5 5 5 3 5 5 3 5 5 3 5 5 5 5 5 5 5 5 5 5 3 5 5 5 5 5 5 5 5 5 5 5 5 5 5 5 3 5 5 5 5 5 5 5 3 3 5 5 5 5 5 5 5 5 5 5 5 5 5 5 5 5 5 5 5 5 5 5 5 5 5 5 5 5 5 5 5 5 5 5 5 5 5 5 5 5 5 5 5 3 5 5 5 5 5 5 5 5 3 5 5 5 5 5 5 5 3 3 3 5 5 5 5 5 5 3 5 5 5 5 5 5 5 5 5 5 3 5 5 5 5 3 5 5 3 5 5 5 5 5 5 5 5 5 5 5 5 5 5 3 5 5 5 5 5 5 5 5 3 5 5 5 5 3 5 5 5 5 5 5 5 5 5 5 5 5 5 5 5 5 5 5 5 5 5 5 5 5 5 5 5 5 5 5 5 5 3 5 3 5 5 5 3 5 3 5 5 5 5 5 3 5 5 3 3 5 5 5 5 5 5 5 5 5 5 5 5 5 5 5 5 5 5 5 5 5 5 5 5 5 5 5 5 5 5 5 5 5 5 5 5 5 5 5 5 5 5 5 3 5 3 5 3 5 5 5 5 5 5 3 5 5 5 3 5 5 5 5 5 5 5 5 5 5 5 5 5 3 5 5 5 5 5 3 5 5 5 5 5 3 5 5 3 5 5 5 5 5 5 5 5 5 5 3 5 3 3 5 5 5 5 5 5 5 5 5 3 5 5 5 5 3 3 5 5 5 5 5 5 5 3 5 5 3 5 3 5 5 5 5 5 5 5 3 5 5 3 3 5 5 3 5 5 5 5 3 5 5 5 5 5 5 5 3 5 5 5 5 5 5 5 5 5 5 5 5 5 5 5 5 5 5 3 5 5 5 5 5 5 5 5 5 5 5 5 5 5 5 5 3 5 5 3 5 5 5 3 5 5 3 5 5 3 5 5 3 5 5 3 5 5 5 5 5 5 5 5 5 5 5 3 5 5 5 5 5 5 5 3 3 3 3 3 5 5 5 5 5 5 5 5 5 5 5 5 3 5 5 5 5 3 5 5 5 5 5 5 5 5 5 5 5 5 5 5 5 5 3 5 5 3 5 5 5 3 5 5 5 5 5 5 5 5 5 5 3 5 5 5 3 5 5 5 5 3 5 5 3 5 5 3 5 5 5 5 5 5 3 5 5 5 5 5 5 5 5 5 5 5 5 5 5 5 5 5 5 5 3 5 3 5 5 3 5 5 5 5 5 5 5 5 5 5 5 5 5 5 5 5 5 5 5 5 5 5 5 5 5 5 5 5 5 5 5 5 5 5 5 5 5 5 5 5 5 5 5 5 5 5 5 5 5 5 5 5 5 5 3 5 5 5 3 5 5 5 5 5 5 5 5 5 5 5 5 5 5 5 3 5 5 5 5 5 5 5 5 5 5 3 5 5 5 5 3 5 5 5 5 3 5 5 5 3 5 5 3 5 5 5 5 3 5 5 5 5 5 3 3 5 3 5 5 5 3 5 3 5 3 5 5 3 5 3 5 5 5 3 5 5 5 3 5 5 3 5 3 3 5 3 5 5 5 5 5 5 5 3 5 3 5 5 3 5 3 5 5 5 5 5 5 5 5 3 5 5 3 5 5 5 3 3 5 5 5 5 5 5 5 5 5 5 3 5 5 3 5 5 5 3 5 5 5 5 5 5 5 3 5 3 5 5 5 5 5 5 5 5 5 3 5 5 5 3 5 5 5 5 5 5 5 3 5 5 5 5 5 5 5 5 3 5 3 5 5 5 5 5 5 5 3 5 5 5 5 5 3 5 5 5 5 5 3 5 5 5 5 5 5 5 5 5 5 5 5 5 5 5 5 5 5 5 5 5 5 5 5 5 5 5 5 5 5 5 5 5 5 5 5 5 5 5 3 3 5 3 5 5 5 5 5 5 5 5 5 3 5 5 5 5 5 5 5 5 5 3 5 5 5 5 5 5 5 5 3 5 5 5 3 5 5 3 5 5 5 5 5 5 5 5 5 5 5 5 5 5 5 5 5 3 5 3 5 5 5 5 5 3 5 5 5 5 3 5 5 5 5 5 3 5 5 5 5 5 5 3 5 5 5 5 5 5 5 5 5 3 5 5 5 5 5 5 5 5 5 5 5 5 5 3 5 5 5 5 5 5 5 3 5 5 5 5 5 5 5 5 5 5 3 5 5 5 5 3 5 5 5 5 5 5 5 5 3 3 5 5 5 5 5 5 5 3 5 5 3 5 5 5 5 5 5 5 5 5 5 5 5 5 5 3 5 5 5 3 5 5 5 3 5 5 3 5 5 5 5 3 5 5 5 5 3 3 5 5 3 5 5 3 5 5 5 5 5 5 5 5 5 5 5 5 5 5 5 3 5 5 5 5 5 3 3 5 3 5 5 5 3 5 5 5 5 3 5 5 3 5 5 3 5 5 3 3 3 5 5 5 5 5 3 5 5 5 5 5 5 5 3 5 5 5 5 3 5 3 3 5 5 3 5 5 3 5 5 5 5 3 5 5 5 5 5 5 5 3 5 5 5 3 5 5 5 5 3 5 5 3 5 3 3 5 3 5 5 3 5 5 3 5 5 5 5 5 5 3 5 5 3 5 5 3 3 3 5 5 3 5 5 5 3 5 3 5 5 5 3 5 5 5 3 5 5 5 5 5 5 5 5 5 3 5 5 5 3 5 3 5 3 5 3 5 5 5 5 3 5 5 5 5 5 5 3 3 5 5 5 5 5 5 5 5 3 3 3 5 5 5 5 3 5 3 5 3 5 5 5 3 5 3 5 5 5 5 3 5 5 5 5 5 5 5 5 3 5 5 3 5 5 5 5 5 5 5 5 5 5 5 5 3 5 5 3 5 5 5 5 5 5 3 5 5 5 5 3 5 5 5 5 3 5 5 5 5 3 3 5 5 5 5 3 5 5 5 5 5 3 5 5 5 5 3 5 3 5 5 3 5 5 5 5 3 5 5 5 5 5 5 5 3 5 5 5 5 5 5 5 5 5 3 5 5 5 5 5 5 5 5 5 5 5 5 5 5 3 5 5 5 5 5 3 5 5 5 5 5 5 5 5 3 5 5 5 5 5 5 5 5 5 5 5 5 5 5 5 3 5 5 5 5 5 3 5 5 5 5 5 3 5 5 5 5 5 5 3 5 5 5 5 
</DataArray>
</Cells>
<PointData Scalars="" Vectors="displacement," Tensors="">
<DataArray type="Float64" Name="displacement" NumberOfComponents="3" format="ascii">
-0.0049997835785878927 -0.0049997806923925553 0 -0.0048447891168985737 -0.0048323038217553986 0 -0.0045521041465616105 -0.0049996074591265195 0 -0.0049997835785878927 -0.0049997806923925553 0 -0.0048447891168985737 -0.0048323038217553986 0 -0.0049995651343666229 -0.0045340285074328447 0 -0.0049995651343666229 -0.0045340285074328447 0 -0.0048843958231009291 -0.0046616023812843261 0 -0.0049636639553670599 -0.0042857602695316318 0 -0.0048447891168985737 -0.0048323038217553986 0 -0.0049995651343666229 -0.0045340285074328447 0 -0.0048843958231009291 -0.0046616023812843261 0 -0.0046077427935921414 -0.0048675706999261352 0 -0.0048843958231009291 -0.0046616023812843261 0 -0.0046286352437823813 -0.0048197417677012218 0 -0.0046077427935921414 -0.0048675706999261352 0 -0.0048843958231009291 -0.0046616023812843261 0 -0.0046582484836994939 -0.0048894452994544752 0 -0.0048447891168985737 -0.0048323038217553986 0 -0.0048843958231009291 -0.0046616023812843261 0 -0.0046582484836994939 -0.0048894452994544752 0 -0.0046077427935921414 -0.0048675706999261352 0 -0.0046582484836994939 -0.0048894452994544752 0 -0.0045066151059758204 -0.0049816763731714876 0 -0.0046582484836994939 -0.0048894452994544752 0 -0.0044174716419819217 -0.0049998146284275773 0 -0.0045066151059758204 -0.0049816763731714876 0 -0.0046582484836994939 -0.0048894452994544752 0 -0.0045521041465616105 -0.0049996074591265195 0 -0.0044174716419819217 -0.0049998146284275773 0 -0.0048447891168985737 -0.0048323038217553986 0 -0.0046582484836994939 -0.0048894452994544752 0 -0.0045521041465616105 -0.0049996074591265195 0 -0.0041885507901385441 -0.0050448031582996126 0 -0.0044174716419819217 -0.0049998146284275773 0 -0.0039429602379761177 -0.0049998922816057289 0 -0.0045521041465616105 -0.0049996074591265195 0 -0.0044174716419819217 -0.0049998146284275773 0 -0.0039429602379761177 -0.0049998922816057289 0 -0.0041665599381951338 -0.0050267795503559894 0 -0.0043762428188695033 -0.0050480855686668704 0 -0.0041242186578322841 -0.0050195320494090933 0 -0.0041155201492765218 -0.0051323155863871855 0 -0.0044217720457893463 -0.0050253591292703766 0 -0.0041885507901385441 -0.0050448031582996126 0 -0.0043698113651926447 -0.0050167941973717021 0 -0.0044217720457893463 -0.0050253591292703766 0 -0.0041885507901385441 -0.0050448031582996126 0 -0.0044174716419819217 -0.0049998146284275773 0 -0.0043698113651926447 -0.0050167941973717021 0 -0.0044174716419819217 -0.0049998146284275773 0 -0.0043698113651926447 -0.0050167941973717021 0 -0.0045066151059758204 -0.0049816763731714876 0 -0.0039425094447676848 -0.0049997943640447129 0 -0.0038276734014047894 -0.005101943093337306 0 -0.0036616241031441907 -0.0049999585196861636 0 -0.0039425094447676848 -0.0049997943640447129 0 -0.0039964363482309796 -0.0050660594055488171 0 -0.0038276734014047894 -0.005101943093337306 0 -0.0041242186578322841 -0.0050195320494090933 0 -0.0039425094447676848 -0.0049997943640447129 0 -0.0039964363482309796 -0.0050660594055488171 0 -0.0041665599381951338 -0.0050267795503559894 0 -0.0039426491298559969 -0.0049999801331107535 0 -0.0041242186578322841 -0.0050195320494090933 0 -0.0039964363482309796 -0.0050660594055488171 0 -0.0041155201492765218 -0.0051323155863871855 0 -0.0039964363482309796 -0.0050660594055488171 0 -0.0038276734014047894 -0.005101943093337306 0 -0.0041155201492765218 -0.0051323155863871855 0 -0.0041806961207893336 -0.0050908826328612553 0 -0.0043894389926485856 -0.0050910904662094291 0 -0.0045602210153211893 -0.005058507256481961 0 -0.0045286712059838538 -0.0051389786497044541 0 -0.004610466152491598 -0.0051017786906107122 0 -0.0045602210153211893 -0.005058507256481961 0 -0.004610466152491598 -0.0051017786906107122 0 -0.0046689072687120022 -0.0050843607827422499 0 -0.0046164285258792253 -0.0050859494346601319 0 -0.0045286712059838538 -0.0051389786497044541 0 -0.004610466152491598 -0.0051017786906107122 0 -0.0046164285258792253 -0.0050859494346601319 0 -0.004610466152491598 -0.0051017786906107122 0 -0.004663054914344416 -0.0050613736497984391 0 -0.0046689072687120022 -0.0050843607827422499 0 -0.0046723371718911423 -0.0050192004139320038 0 -0.0046277237627985988 -0.0049944520967735578 0 -0.004610466152491598 -0.0051017786906107122 0 -0.0046689072687120022 -0.0050843607827422499 0 -0.004663054914344416 -0.0050613736497984391 0 -0.0046689072687120022 -0.0050843607827422499 0 -0.0046723371718911423 -0.0050192004139320038 0 -0.004663054914344416 -0.0050613736497984391 0 -0.0046723371718911423 -0.0050192004139320038 0 -0.0047275598253192011 -0.0049842864861358964 0 -0.0046672846239795502 -0.0049461256951941071 0 -0.0046723371718911423 -0.0050192004139320038 0 -0.0047275598253192011 -0.0049842864861358964 0 -0.004663054914344416 -0.0050613736497984391 0 -0.0046164285258792253 -0.0050859494346601319 0 -0.004663054914344416 -0.0050613736497984391 0 -0.0046817623121824916 -0.0050490173415422748 0 -0.0047275598253192011 -0.0049842864861358964 0 -0.004663054914344416 -0.0050613736497984391 0 -0.0046817623121824916 -0.0050490173415422748 0 -0.0047275598253192011 -0.0049842864861358964 0 -0.0046817623121824916 -0.0050490173415422748 0 -0.004758376447750145 -0.0049924398425240015 0 -0.0046817623121824916 -0.0050490173415422748 0 -0.004758376447750145 -0.0049924398425240015 0 -0.0047000298888583555 -0.0050363220895439133 0 -0.0046077427935921414 -0.0048675706999261352 0 -0.0045066151059758204 -0.0049816763731714876 0 -0.00453802385037859 -0.0050040594503818897 0 -0.0045066151059758204 -0.0049816763731714876 0 -0.0044217720457893463 -0.0050253591292703766 0 -0.00453802385037859 -0.0050040594503818897 0 -0.0043698113651926447 -0.0050167941973717021 0 -0.0045066151059758204 -0.0049816763731714876 0 -0.0044217720457893463 -0.0050253591292703766 0 -0.0043894389926485856 -0.0050910904662094291 0 -0.0045033992072643463 -0.0050215825815387184 0 -0.0041155201492765218 -0.0051323155863871855 0 -0.0044217720457893463 -0.0050253591292703766 0 -0.00453802385037859 -0.0050040594503818897 0 -0.0046689072687120022 -0.0050843607827422499 0 -0.0046277237627985988 -0.0049944520967735578 0 -0.00453802385037859 -0.0050040594503818897 0 -0.0046277237627985988 -0.0049944520967735578 0 -0.0045982236994995098 -0.0049033288600103756 0 -0.00453802385037859 -0.0050040594503818897 0 -0.0046277237627985988 -0.0049944520967735578 0 -0.0046672846239795502 -0.0049461256951941071 0 -0.0045982236994995098 -0.0049033288600103756 0 -0.0046723371718911423 -0.0050192004139320038 0 -0.0046277237627985988 -0.0049944520967735578 0 -0.0046672846239795502 -0.0049461256951941071 0 -0.0046077427935921414 -0.0048675706999261352 0 -0.0045982236994995098 -0.0049033288600103756 0 -0.00453802385037859 -0.0050040594503818897 0 -0.0046077427935921414 -0.0048675706999261352 0 -0.0045982236994995098 -0.0049033288600103756 0 -0.0046152665005164085 -0.0048302667662226562 0 -0.0045982236994995098 -0.0049033288600103756 0 -0.0046152665005164085 -0.0048302667662226562 0 -0.0046595768112779011 -0.0048565410380200704 0 -0.0046152665005164085 -0.0048302667662226562 0 -0.0046595768112779011 -0.0048565410380200704 0 -0.004671470997755953 -0.0047683847792333589 0 -0.0046672846239795502 -0.0049461256951941071 0 -0.0045982236994995098 -0.0049033288600103756 0 -0.0046595768112779011 -0.0048565410380200704 0 -0.0046672846239795502 -0.0049461256951941071 0 -0.0046595768112779011 -0.0048565410380200704 0 -0.0047233745280265485 -0.0048931108167029622 0 -0.0046595768112779011 -0.0048565410380200704 0 -0.0047234444643735694 -0.0048081473244529502 0 -0.0047233745280265485 -0.0048931108167029622 0 -0.0046595768112779011 -0.0048565410380200704 0 -0.0047234444643735694 -0.0048081473244529502 0 -0.004671470997755953 -0.0047683847792333589 0 -0.004671470997755953 -0.0047683847792333589 0 -0.0047020326600321341 -0.0046287494435930717 0 -0.0047946479070411991 -0.0046468903150535014 0 -0.0047234444643735694 -0.0048081473244529502 0 -0.004671470997755953 -0.0047683847792333589 0 -0.0047946479070411991 -0.0046468903150535014 0 -0.0046152665005164085 -0.0048302667662226562 0 -0.004671470997755953 -0.0047683847792333589 0 -0.0046141577830105251 -0.004745368684037697 0 -0.004671470997755953 -0.0047683847792333589 0 -0.0047020326600321341 -0.0046287494435930717 0 -0.0046141577830105251 -0.004745368684037697 0 -0.0048851922139667037 -0.0049353791045273817 0 -0.0048170318261982325 -0.0049243565279671235 0 -0.0049201197089603025 -0.0047743214384267539 0 -0.0048851922139667037 -0.0049353791045273817 0 -0.004758376447750145 -0.0049924398425240015 0 -0.0048170318261982325 -0.0049243565279671235 0 -0.0048851922139667037 -0.0049353791045273817 0 -0.004758376447750145 -0.0049924398425240015 0 -0.0047000298888583555 -0.0050363220895439133 0 -0.0047275598253192011 -0.0049842864861358964 0 -0.004758376447750145 -0.0049924398425240015 0 -0.0048170318261982325 -0.0049243565279671235 0 -0.0048170318261982325 -0.0049243565279671235 0 -0.0048015623855257299 -0.0048549301766567738 0 -0.0049201197089603025 -0.0047743214384267539 0 -0.0047275598253192011 -0.0049842864861358964 0 -0.0048170318261982325 -0.0049243565279671235 0 -0.0048015623855257299 -0.0048549301766567738 0 -0.0047275598253192011 -0.0049842864861358964 0 -0.0046672846239795502 -0.0049461256951941071 0 -0.0047233745280265485 -0.0048931108167029622 0 -0.0048015623855257299 -0.0048549301766567738 0 -0.0047233745280265485 -0.0048931108167029622 0 -0.004796331892336617 -0.0047622237016453975 0 -0.0047275598253192011 -0.0049842864861358964 0 -0.0048015623855257299 -0.0048549301766567738 0 -0.0047233745280265485 -0.0048931108167029622 0 -0.0047234444643735694 -0.0048081473244529502 0 -0.0047233745280265485 -0.0048931108167029622 0 -0.004796331892336617 -0.0047622237016453975 0 -0.0047234444643735694 -0.0048081473244529502 0 -0.004796331892336617 -0.0047622237016453975 0 -0.0047946479070411991 -0.0046468903150535014 0 -0.004796331892336617 -0.0047622237016453975 0 -0.0048899892043244818 -0.0046723214919667201 0 -0.0047946479070411991 -0.0046468903150535014 0 -0.0048015623855257299 -0.0048549301766567738 0 -0.004796331892336617 -0.0047622237016453975 0 -0.0048899892043244818 -0.0046723214919667201 0 -0.0048015623855257299 -0.0048549301766567738 0 -0.0048899892043244818 -0.0046723214919667201 0 -0.0049201197089603025 -0.0047743214384267539 0 -0.0048899892043244818 -0.0046723214919667201 0 -0.0049201197089603025 -0.0047743214384267539 0 -0.0049833642264652291 -0.0045983992286930111 0 -0.0049201197089603025 -0.0047743214384267539 0 -0.0050638845702149051 -0.0047593563786351946 0 -0.0050757906749040712 -0.0046251849167238453 0 -0.0049201197089603025 -0.0047743214384267539 0 -0.0049833642264652291 -0.0045983992286930111 0 -0.0050757906749040712 -0.0046251849167238453 0 -0.0048851922139667037 -0.0049353791045273817 0 -0.0049201197089603025 -0.0047743214384267539 0 -0.0050638845702149051 -0.0047593563786351946 0 -0.0050861378016803342 -0.00443006369905952 0 -0.0049833642264652291 -0.0045983992286930111 0 -0.0050757906749040712 -0.0046251849167238453 0 -0.0048899892043244818 -0.0046723214919667201 0 -0.0049833642264652291 -0.0045983992286930111 0 -0.0049534468879828099 -0.004501178025602061 0 -0.0050861378016803342 -0.00443006369905952 0 -0.0049833642264652291 -0.0045983992286930111 0 -0.0049534468879828099 -0.004501178025602061 0 -0.0048899892043244818 -0.0046723214919667201 0 -0.0049534468879828099 -0.004501178025602061 0 -0.0047946479070411991 -0.0046468903150535014 0 -0.0049534468879828099 -0.004501178025602061 0 -0.0048981462876830206 -0.0044378598391321463 0 -0.0047946479070411991 -0.0046468903150535014 0 -0.0048981462876830206 -0.0044378598391321463 0 -0.0048832525591371136 -0.004302931482582103 0 -0.0049999074356299267 -0.0042288204483506555 0 -0.0048981462876830206 -0.0044378598391321463 0 -0.0050300629132472643 -0.0043267948566556354 0 -0.0049999074356299267 -0.0042288204483506555 0 -0.0049534468879828099 -0.004501178025602061 0 -0.0048981462876830206 -0.0044378598391321463 0 -0.0050300629132472643 -0.0043267948566556354 0 -0.0050300629132472643 -0.0043267948566556354 0 -0.005206344504692836 -0.0042346132507662757 0 -0.0051410157003094212 -0.0041339635094443609 0 -0.0050861378016803342 -0.00443006369905952 0 -0.0050300629132472643 -0.0043267948566556354 0 -0.005206344504692836 -0.0042346132507662757 0 -0.0050861378016803342 -0.00443006369905952 0 -0.0049534468879828099 -0.004501178025602061 0 -0.0050300629132472643 -0.0043267948566556354 0 -0.0047020326600321341 -0.0046287494435930717 0 -0.0046426663275152538 -0.0045173650511899669 0 -0.0047709888797155499 -0.0043933016367374202 0 -0.0047020326600321341 -0.0046287494435930717 0 -0.0046426663275152538 -0.0045173650511899669 0 -0.0046141577830105251 -0.004745368684037697 0 -0.0047020326600321341 -0.0046287494435930717 0 -0.0047946479070411991 -0.0046468903150535014 0 -0.0048018300671997553 -0.0045050685473936227 0 -0.0048981462876830206 -0.0044378598391321463 0 -0.0047946479070411991 -0.0046468903150535014 0 -0.0048018300671997553 -0.0045050685473936227 0 -0.0047020326600321341 -0.0046287494435930717 0 -0.0048018300671997553 -0.0045050685473936227 0 -0.0047709888797155499 -0.0043933016367374202 0 -0.0048018300671997553 -0.0045050685473936227 0 -0.0048832525591371136 -0.004302931482582103 0 -0.0047709888797155499 -0.0043933016367374202 0 -0.0048832525591371136 -0.004302931482582103 0 -0.0047709888797155499 -0.0043933016367374202 0 -0.0048199588555035604 -0.0041729822676099546 0 -0.0048981462876830206 -0.0044378598391321463 0 -0.0048018300671997553 -0.0045050685473936227 0 -0.0048832525591371136 -0.004302931482582103 0 -0.0046426663275152538 -0.0045173650511899669 0 -0.0047709888797155499 -0.0043933016367374202 0 -0.0045779143551548974 -0.0043074863497119904 0 -0.0046426663275152538 -0.0045173650511899669 0 -0.0045222326804112683 -0.0046079929565394483 0 -0.0045779143551548974 -0.0043074863497119904 0 -0.0049995651343666229 -0.0045340285074328447 0 -0.0049996982905719063 -0.0039059741036369588 0 -0.0049636639553670599 -0.0042857602695316318 0 -0.0047939182221944958 -0.0043303343305441111 0 -0.0047591282878184761 -0.0041518588844668709 0 -0.0046426663275152538 -0.0045173650511899669 0 -0.0045222326804112683 -0.0046079929565394483 0 -0.0046141577830105251 -0.004745368684037697 0 -0.0050587763542807983 -0.0040442679417593786 0 -0.0050071907523498629 -0.0040389003022873035 0 -0.0051061784284782601 -0.004256321839766283 0 -0.0050587763542807983 -0.0040442679417593786 0 -0.0049976208797952735 -0.0040028577920561562 0 -0.0050071907523498629 -0.0040389003022873035 0 -0.0049976208797952735 -0.0040028577920561562 0 -0.0049427221112294736 -0.0039840539174048851 0 -0.0049279381359175851 -0.0039764720392289074 0 -0.0049976208797952735 -0.0040028577920561562 0 -0.0049975376613422889 -0.0039915970087922321 0 -0.0049427221112294736 -0.0039840539174048851 0 -0.0050587763542807983 -0.0040442679417593786 0 -0.0049976208797952735 -0.0040028577920561562 0 -0.0049279381359175851 -0.0039764720392289074 0 -0.0049996982905719063 -0.0039059741036369588 0 -0.0050071907523498629 -0.0040389003022873035 0 -0.0049975376613422889 -0.0039915970087922321 0 -0.0049976208797952735 -0.0040028577920561562 0 -0.0050071907523498629 -0.0040389003022873035 0 -0.0049975376613422889 -0.0039915970087922321 0 -0.0049999707036612563 -0.0039055480287909202 0 -0.0049548829549254832 -0.0039316224035746538 0 -0.0050000222531917477 -0.0039054539845730283 0 -0.0050011000739349516 -0.0038568654228552722 0 -0.004999934220428051 -0.0036153658030704371 0 -0.0050000222531917477 -0.0039054539845730283 0 -0.0050011000739349516 -0.0038568654228552722 0 -0.0049220182288522533 -0.0038693094007329499 0 -0.0049996982905719063 -0.0039059741036369588 0 -0.0050071907523498629 -0.0040389003022873035 0 -0.0049636639553670599 -0.0042857602695316318 0 -0.0050071907523498629 -0.0040389003022873035 0 -0.0049636639553670599 -0.0042857602695316318 0 -0.0051061784284782601 -0.004256321839766283 0 -0.0048843958231009291 -0.0046616023812843261 0 -0.0049636639553670599 -0.0042857602695316318 0 -0.0051061784284782601 -0.004256321839766283 0 -0.0048813164894242278 -0.0046354198948136416 0 -0.004860417154576956 -0.0045247107630163284 0 -0.0048843958231009291 -0.0046616023812843261 0 -0.0046286352437823813 -0.0048197417677012218 0 -0.0046233014237125935 -0.0048172268487360293 0 -0.0046077427935921414 -0.0048675706999261352 0 -0.0046152665005164085 -0.0048302667662226562 0 -0.0046286352437823813 -0.0048197417677012218 0 -0.0046152665005164085 -0.0048302667662226562 0 -0.0046286352437823813 -0.0048197417677012218 0 -0.0046141577830105251 -0.004745368684037697 0 -0.0046286352437823813 -0.0048197417677012218 0 -0.0046141577830105251 -0.004745368684037697 0 -0.0046233014237125935 -0.0048172268487360293 0 -0.0045222326804112683 -0.0046079929565394483 0 -0.0046141577830105251 -0.004745368684037697 0 -0.0046233014237125935 -0.0048172268487360293 0 -0.0047939182221944958 -0.0043303343305441111 0 -0.004860417154576956 -0.0045247107630163284 0 -0.0037195371561187227 -0.0044487186768648861 0 -0.0038152965536655576 -0.0044784557675278452 0 -0.0037423307391282836 -0.0045372428234854807 0 -0.0037195371561187227 -0.0044487186768648861 0 -0.0037423307391282836 -0.0045372428234854807 0 -0.0036563152078909482 -0.0044874469621403804 0 -0.0038152965536655576 -0.0044784557675278452 0 -0.0039061478404464997 -0.0044645615024166922 0 -0.003900525995466201 -0.0045607260129004526 0 -0.0038152965536655576 -0.0044784557675278452 0 -0.003900525995466201 -0.0045607260129004526 0 -0.0037423307391282836 -0.0045372428234854807 0 -0.0038152965536655576 -0.0044784557675278452 0 -0.0038017922383135087 -0.0043699545858106089 0 -0.0039061478404464997 -0.0044645615024166922 0 -0.0037195371561187227 -0.0044487186768648861 0 -0.0038152965536655576 -0.0044784557675278452 0 -0.0038017922383135087 -0.0043699545858106089 0 -0.0037195371561187227 -0.0044487186768648861 0 -0.0038017922383135087 -0.0043699545858106089 0 -0.0036489017355431533 -0.0043950100340651704 0 -0.0027696056357678122 -0.0052416352855963588 0 -0.0025689903924079856 -0.0049584490498012831 0 -0.0017305223519192116 -0.0053103190795853981 0 -0.0033348315090522009 -0.0047899347815242837 0 -0.002548451526463658 -0.0047692601953194325 0 -0.0038017922383135087 -0.0043699545858106089 0 -0.0036405271021311427 -0.0043804437075426464 0 -0.0036489017355431533 -0.0043950100340651704 0 -0.0026303838426477931 -0.005111949842359644 0 -0.0020225943801379024 -0.0051266045836632678 0 -0.0026452908383660092 -0.0052755997231328337 0 -0.0025299980532373259 -0.0051669178141352549 0 -0.0024137486722582038 -0.0052764416887714676 0 -0.0025689903924079856 -0.0049584490498012831 0 -0.0017096443112214301 -0.0050078449155233793 0 -0.0017305223519192116 -0.0053103190795853981 0 -0.0026452908383660092 -0.0052755997231328337 0 -0.0025299980532373259 -0.0051669178141352549 0 -0.0026849043939441652 -0.0051379235808666499 0 -0.0025299980532373259 -0.0051669178141352549 0 -0.0025363538275366862 -0.0049999940053064556 0 -0.0026849043939441652 -0.0051379235808666499 0 -0.0025363538275366862 -0.0049999940053064556 0 -0.0026849043939441652 -0.0051379235808666499 0 -0.0028176141788330395 -0.0049999921822531405 0 -0.0026849043939441652 -0.0051379235808666499 0 -0.0028238426952642798 -0.0051517415213889542 0 -0.0028176141788330395 -0.0049999921822531405 0 -0.0027696056357678122 -0.0052416352855963588 0 -0.0025689903924079856 -0.0049584490498012831 0 -0.0034766517685780314 -0.0049562110119828551 0 -0.0026303838426477931 -0.005111949842359644 0 -0.0030697797731384395 -0.0051887726008990461 0 -0.0026452908383660092 -0.0052755997231328337 0 -0.0026849043939441652 -0.0051379235808666499 0 -0.0028769132567430769 -0.0052744640086536052 0 -0.0026439922951113884 -0.0051491554528556669 0 -0.0030697797731384395 -0.0051887726008990461 0 -0.0026849043939441652 -0.0051379235808666499 0 -0.0028731963122475223 -0.0052815853113544354 0 -0.0028238426952642798 -0.0051517415213889542 0 -0.0030697797731384395 -0.0051887726008990461 0 -0.0037814139034354492 -0.0049825655191921177 0 -0.0028731963122475223 -0.0052815853113544354 0 -0.002906298740460824 -0.0051738951242503335 0 -0.0030168885734084454 -0.0051593839711279619 0 -0.0028731963122475223 -0.0052815853113544354 0 -0.002906298740460824 -0.0051738951242503335 0 -0.0028238426952642798 -0.0051517415213889542 0 -0.002906298740460824 -0.0051738951242503335 0 -0.0028176141788330395 -0.0049999921822531405 0 -0.0030168885734084454 -0.0051593839711279619 0 -0.002906298740460824 -0.0051738951242503335 0 -0.0028238426952642798 -0.0051517415213889542 0 -0.0028176141788330395 -0.0049999921822531405 0 -0.0028176141788330395 -0.0049999921822531405 0 -0.0030988226321576641 -0.0050000351526146777 0 -0.0030168885734084454 -0.0051593839711279619 0 -0.0030988226321576641 -0.0050000351526146777 0 -0.0030168885734084454 -0.0051593839711279619 0 -0.0032017186840462902 -0.0051294282203561848 0 -0.0028731963122475223 -0.0052815853113544354 0 -0.0030168885734084454 -0.0051593839711279619 0 -0.0031739379686099006 -0.0052903402642754975 0 -0.0030760888374863518 -0.0053114893474967059 0 -0.0031946702368859533 -0.0053286359002662782 0 -0.0031739379686099006 -0.0052903402642754975 0 -0.0030398025888969189 -0.0052830155150385919 0 -0.0030760888374863518 -0.0053114893474967059 0 -0.0031739379686099006 -0.0052903402642754975 0 -0.0030697797731384395 -0.0051887726008990461 0 -0.0031153279574242143 -0.0053145015998983273 0 -0.0030168885734084454 -0.0051593839711279619 0 -0.0031739379686099006 -0.0052903402642754975 0 -0.0032017186840462902 -0.0051294282203561848 0 -0.0037814139034354492 -0.0049825655191921177 0 -0.0045387736745428793 -0.0046677522470860129 0 -0.0037814139034354492 -0.0049825655191921177 0 -0.0038802689460373501 -0.0052245377559512543 0 -0.0044652840724544842 -0.0050622334662689282 0 -0.0045533242007485828 -0.0050875585402920401 0 -0.0045683510934397724 -0.0050679677030165769 0 -0.0044652840724544842 -0.0050622334662689282 0 -0.0045581346025131775 -0.0051194166069638992 0 -0.0045533242007485828 -0.0050875585402920401 0 -0.0039671103976171114 -0.0043604753314986202 0 -0.0040036430403522566 -0.0045114746633982258 0 -0.004109248345931636 -0.0044589912081720506 0 -0.0033348315090522009 -0.0047899347815242837 0 -0.0037814139034354492 -0.0049825655191921177 0 -0.0038017922383135087 -0.0043699545858106089 0 -0.0039671103976171114 -0.0043604753314986202 0 -0.0039061478404464997 -0.0044645615024166922 0 -0.0027696056357678122 -0.0052416352855963588 0 -0.0034766517685780314 -0.0049562110119828551 0 -0.003789211388344765 -0.0051830234642604219 0 -0.0039671103976171114 -0.0043604753314986202 0 -0.0039061478404464997 -0.0044645615024166922 0 -0.0040036430403522566 -0.0045114746633982258 0 -0.0042618142446873928 -0.00432889912093966 0 -0.0042724003215377322 -0.0041508479505158241 0 -0.0039061478404464997 -0.0044645615024166922 0 -0.0040036430403522566 -0.0045114746633982258 0 -0.003900525995466201 -0.0045607260129004526 0 -0.0042618142446873928 -0.00432889912093966 0 -0.0045387736745428793 -0.0046677522470860129 0 -0.0045638695643530893 -0.0041321759720376458 0 -0.0046944672770158971 -0.0041612545536418473 0 -0.0046937662818146248 -0.004066212401165138 0 -0.0045638695643530893 -0.0041321759720376458 0 -0.0046944672770158971 -0.0041612545536418473 0 -0.0046082868528548836 -0.0042178596016864628 0 -0.0045876375335297892 -0.005091636739422466 0 -0.0045843008396671756 -0.0050785048763399973 0 -0.004584792829043503 -0.0050888267064169669 0 -0.0046944672770158971 -0.0041612545536418473 0 -0.0046937662818146248 -0.004066212401165138 0 -0.0048231208509985713 -0.0041571381451780357 0 -0.0045387736745428793 -0.0046677522470860129 0 -0.0047190149065875426 -0.0046623341599565911 0 -0.0045876375335297892 -0.005091636739422466 0 -0.004584792829043503 -0.0050888267064169669 0 -0.0045826022993663831 -0.0050971768492558411 0 -0.0045387736745428793 -0.0046677522470860129 0 -0.0044807004482537984 -0.0048893872424890482 0 -0.0045843008396671756 -0.0050785048763399973 0 -0.0045889545841171098 -0.0050850016720391323 0 -0.0045839541448272165 -0.0050632949426992089 0 -0.0045843008396671756 -0.0050785048763399973 0 -0.0045889545841171098 -0.0050850016720391323 0 -0.004584792829043503 -0.0050888267064169669 0 -0.0045889545841171098 -0.0050850016720391323 0 -0.004588227512697992 -0.0050930546665695874 0 -0.0045925346742624155 -0.0051257513176327218 0 -0.0045889545841171098 -0.0050850016720391323 0 -0.004584792829043503 -0.0050888267064169669 0 -0.004588227512697992 -0.0050930546665695874 0 -0.0045812487005120637 -0.0050873096151946157 0 -0.0045683510934397724 -0.0050679677030165769 0 -0.0045925346742624155 -0.0051257513176327218 0 -0.0038802689460373501 -0.0052245377559512543 0 -0.0040526800639756767 -0.0052454539681106166 0 -0.004588227512697992 -0.0050930546665695874 0 -0.0045812487005120637 -0.0050873096151946157 0 -0.0045925346742624155 -0.0051257513176327218 0 -0.004584792829043503 -0.0050888267064169669 0 -0.004588227512697992 -0.0050930546665695874 0 -0.0045826022993663831 -0.0050971768492558411 0 -0.0045812487005120637 -0.0050873096151946157 0 -0.0045826022993663831 -0.0050971768492558411 0 -0.0045533242007485828 -0.0050875585402920401 0 -0.004588227512697992 -0.0050930546665695874 0 -0.0045812487005120637 -0.0050873096151946157 0 -0.0045826022993663831 -0.0050971768492558411 0 -0.0045581346025131775 -0.0051194166069638992 0 -0.0045826022993663831 -0.0050971768492558411 0 -0.0045533242007485828 -0.0050875585402920401 0 -0.0045812487005120637 -0.0050873096151946157 0 -0.0045533242007485828 -0.0050875585402920401 0 -0.0045683510934397724 -0.0050679677030165769 0 -0.0031946702368859533 -0.0053286359002662782 0 -0.0031739379686099006 -0.0052903402642754975 0 -0.0033306447491473958 -0.0052133782280002101 0 -0.0031739379686099006 -0.0052903402642754975 0 -0.0032017186840462902 -0.0051294282203561848 0 -0.0033306447491473958 -0.0052133782280002101 0 -0.0030988226321576641 -0.0050000351526146777 0 -0.0032017186840462902 -0.0051294282203561848 0 -0.0033802721831843849 -0.004999859767590425 0 -0.0032017186840462902 -0.0051294282203561848 0 -0.0033802721831843849 -0.004999859767590425 0 -0.0033306447491473958 -0.0052133782280002101 0 -0.0033802721831843849 -0.004999859767590425 0 -0.0033306447491473958 -0.0052133782280002101 0 -0.0035302441409544847 -0.0051220436664911745 0 -0.0033306447491473958 -0.0052133782280002101 0 -0.0035037704420617802 -0.0053929941571892251 0 -0.0035302441409544847 -0.0051220436664911745 0 -0.0031946702368859533 -0.0053286359002662782 0 -0.0033306447491473958 -0.0052133782280002101 0 -0.0035037704420617802 -0.0053929941571892251 0 -0.0035037704420617802 -0.0053929941571892251 0 -0.0037635461653513116 -0.0051593220446135681 0 -0.0043474862037837002 -0.0052128975271379168 0 -0.0037635461653513116 -0.0051593220446135681 0 -0.0036860706350695482 -0.0049996998483582749 0 -0.0043474862037837002 -0.0052128975271379168 0 -0.0040526800639756767 -0.0052454539681106166 0 -0.0043123097603644887 -0.0052236304303495329 0 -0.0037635461653513116 -0.0051593220446135681 0 -0.0035302441409544847 -0.0051220436664911745 0 -0.0036860706350695482 -0.0049996998483582749 0 -0.0035037704420617802 -0.0053929941571892251 0 -0.0037635461653513116 -0.0051593220446135681 0 -0.0035302441409544847 -0.0051220436664911745 0 -0.0033802721831843849 -0.004999859767590425 0 -0.0036860706350695482 -0.0049996998483582749 0 -0.0036616241031441907 -0.0049999585196861636 0 -0.0033802721831843849 -0.004999859767590425 0 -0.0035302441409544847 -0.0051220436664911745 0 -0.0036860706350695482 -0.0049996998483582749 0 -0.0038276734014047894 -0.005101943093337306 0 -0.0036860706350695482 -0.0049996998483582749 0 -0.0036616241031441907 -0.0049999585196861636 0 -0.0045602210153211893 -0.005058507256481961 0 -0.0036860706350695482 -0.0049996998483582749 0 -0.0043474862037837002 -0.0052128975271379168 0 -0.0041806961207893336 -0.0050908826328612553 0 -0.0037527468860224658 -0.0049953572380087782 0 -0.0045602210153211893 -0.005058507256481961 0 -0.0045286712059838538 -0.0051389786497044541 0 -0.0043474862037837002 -0.0052128975271379168 0 -0.0045286712059838538 -0.0051389786497044541 0 -0.0043474862037837002 -0.0052128975271379168 0 -0.0045349381363933711 -0.0050837212941527501 0 -0.0046164285258792253 -0.0050859494346601319 0 -0.0045286712059838538 -0.0051389786497044541 0 -0.0045349381363933711 -0.0050837212941527501 0 -0.0045925346742624155 -0.0051257513176327218 0 -0.0043474862037837002 -0.0052128975271379168 0 -0.0045349381363933711 -0.0050837212941527501 0 -0.0045925346742624155 -0.0051257513176327218 0 -0.0045349381363933711 -0.0050837212941527501 0 -0.0045839541448272165 -0.0050632949426992089 0 -0.0045889545841171098 -0.0050850016720391323 0 -0.0045925346742624155 -0.0051257513176327218 0 -0.0045839541448272165 -0.0050632949426992089 0 -0.0045843008396671756 -0.0050785048763399973 0 -0.0045839541448272165 -0.0050632949426992089 0 -0.0045967023129800527 -0.0050888921175614469 0 -0.0046817623121824916 -0.0050490173415422748 0 -0.0045349381363933711 -0.0050837212941527501 0 -0.0047000298888583555 -0.0050363220895439133 0 -0.0045839541448272165 -0.0050632949426992089 0 -0.0047000298888583555 -0.0050363220895439133 0 -0.0046279301907356006 -0.0050742115675149139 0 -0.0045349381363933711 -0.0050837212941527501 0 -0.0045839541448272165 -0.0050632949426992089 0 -0.0047000298888583555 -0.0050363220895439133 0 -0.0046164285258792253 -0.0050859494346601319 0 -0.0046817623121824916 -0.0050490173415422748 0 -0.0045349381363933711 -0.0050837212941527501 0 -0.0048851922139667037 -0.0049353791045273817 0 -0.0051256418249724092 -0.0049536434546855494 0 -0.0050638845702149051 -0.0047593563786351946 0 -0.0049361020459710017 -0.0047203563772934302 0 -0.0049156420720679189 -0.0044589440342547469 0 -0.0046912730279109888 -0.0051571077289711085 0 -0.0049156420720679189 -0.0044589440342547469 0 -0.0048851922139667037 -0.0049353791045273817 0 -0.0047000298888583555 -0.0050363220895439133 0 -0.0048420039363805808 -0.0049589917082002982 0 -0.0047000298888583555 -0.0050363220895439133 0 -0.0046690373658191944 -0.0051110450905023008 0 -0.0046279301907356006 -0.0050742115675149139 0 -0.0045839541448272165 -0.0050632949426992089 0 -0.0046279301907356006 -0.0050742115675149139 0 -0.0045967023129800527 -0.0050888921175614469 0 -0.0049156420720679189 -0.0044589440342547469 0 -0.0050854662098282766 -0.0039404151266824059 0 -0.0054656710024264454 -0.0032636120292643435 0 -0.0053557563547208704 -0.0032626113800971555 0 -0.0054355812789810441 -0.0033097683332608172 0 -0.0046690373658191944 -0.0051110450905023008 0 -0.0046279301907356006 -0.0050742115675149139 0 -0.0045967023129800527 -0.0050888921175614469 0 -0.0050854662098282766 -0.0039404151266824059 0 -0.005344369592111849 -0.0033053806512041476 0 -0.0053309975202522394 -0.0033472208278800294 0 -0.0054355812789810441 -0.0033097683332608172 0 -0.0054335625757025528 -0.0034180173137253688 0 -0.0053443783454879615 -0.0032245640342518523 0 -0.0053309975202522394 -0.0033472208278800294 0 -0.0054355812789810441 -0.0033097683332608172 0 -0.0051256418249724092 -0.0049536434546855494 0 -0.0050638845702149051 -0.0047593563786351946 0 -0.005302862341032292 -0.0045548501047090115 0 -0.0049156420720679189 -0.0044589440342547469 0 -0.0054191796012607501 -0.0039014190882264714 0 -0.0054656710024264454 -0.0032636120292643435 0 -0.0054355812789810441 -0.0033097683332608172 0 -0.0054335625757025528 -0.0034180173137253688 0 -0.0050638845702149051 -0.0047593563786351946 0 -0.0050757906749040712 -0.0046251849167238453 0 -0.005302862341032292 -0.0045548501047090115 0 -0.005302862341032292 -0.0045548501047090115 0 -0.0052182884164655103 -0.0044063905032518131 0 -0.0053982804618397853 -0.0042162427465956909 0 -0.0050757906749040712 -0.0046251849167238453 0 -0.005302862341032292 -0.0045548501047090115 0 -0.0052182884164655103 -0.0044063905032518131 0 -0.0050861378016803342 -0.00443006369905952 0 -0.0050757906749040712 -0.0046251849167238453 0 -0.0052182884164655103 -0.0044063905032518131 0 -0.0050861378016803342 -0.00443006369905952 0 -0.0052182884164655103 -0.0044063905032518131 0 -0.005206344504692836 -0.0042346132507662757 0 -0.0052182884164655103 -0.0044063905032518131 0 -0.005206344504692836 -0.0042346132507662757 0 -0.0053982804618397853 -0.0042162427465956909 0 -0.0054191796012607501 -0.0039014190882264714 0 -0.0053846495579544084 -0.0039379477651550476 0 -0.0053309975202522394 -0.0033472208278800294 0 -0.0054335625757025528 -0.0034180173137253688 0 -0.0053209835753971098 -0.0034731818987153531 0 -0.0054335625757025528 -0.0034180173137253688 0 -0.0054047466441311228 -0.0036125277145033405 0 -0.0053209835753971098 -0.0034731818987153531 0 -0.0053309975202522394 -0.0033472208278800294 0 -0.0053209835753971098 -0.0034731818987153531 0 -0.0051966959814603586 -0.0034296662406807957 0 -0.0053209835753971098 -0.0034731818987153531 0 -0.0051966959814603586 -0.0034296662406807957 0 -0.0051991280227479068 -0.0035473950703835419 0 -0.0054047466441311228 -0.0036125277145033405 0 -0.0051991280227479068 -0.0035473950703835419 0 -0.0051849827925313967 -0.0037138508805965669 0 -0.0054047466441311228 -0.0036125277145033405 0 -0.0053209835753971098 -0.0034731818987153531 0 -0.0051991280227479068 -0.0035473950703835419 0 -0.0051991280227479068 -0.0035473950703835419 0 -0.00504310007917532 -0.0035946787450583956 0 -0.0051849827925313967 -0.0037138508805965669 0 -0.0051991280227479068 -0.0035473950703835419 0 -0.0050509458111106598 -0.0034673021911149791 0 -0.00504310007917532 -0.0035946787450583956 0 -0.0051966959814603586 -0.0034296662406807957 0 -0.0050509458111106598 -0.0034673021911149791 0 -0.0050827776001198819 -0.0033273680835321151 0 -0.0051966959814603586 -0.0034296662406807957 0 -0.0051991280227479068 -0.0035473950703835419 0 -0.0050509458111106598 -0.0034673021911149791 0 -0.0051966959814603586 -0.0034296662406807957 0 -0.0050827776001198819 -0.0033273680835321151 0 -0.0052211061057760898 -0.0033071165534443747 0 -0.0050827776001198819 -0.0033273680835321151 0 -0.0052211061057760898 -0.0033071165534443747 0 -0.0051715705304380107 -0.0031916564619255744 0 -0.0053309975202522394 -0.0033472208278800294 0 -0.0051966959814603586 -0.0034296662406807957 0 -0.0052211061057760898 -0.0033071165534443747 0 -0.0053443783454879615 -0.0032245640342518523 0 -0.0053309975202522394 -0.0033472208278800294 0 -0.0052211061057760898 -0.0033071165534443747 0 -0.0048231208509985713 -0.0041571381451780357 0 -0.0049508866789664671 -0.0042450902865730717 0 -0.0047811258776134166 -0.0042323716158777971 0 -0.0047190149065875426 -0.0046623341599565911 0 -0.0050854662098282766 -0.0039404151266824059 0 -0.0053443783454879615 -0.0032245640342518523 0 -0.0052211061057760898 -0.0033071165534443747 0 -0.0051715705304380107 -0.0031916564619255744 0 -0.0050854662098282766 -0.0039404151266824059 0 -0.0049734585417287635 -0.0037004199292692847 0 -0.0046944672770158971 -0.0041612545536418473 0 -0.0048231208509985713 -0.0041571381451780357 0 -0.0047811258776134166 -0.0042323716158777971 0 -0.0050827776001198819 -0.0033273680835321151 0 -0.0051715705304380107 -0.0031916564619255744 0 -0.0049858053621173537 -0.003162395420296085 0 -0.0049734585417287635 -0.0037004199292692847 0 -0.0048544379054988387 -0.0036633870055203716 0 -0.0046944672770158971 -0.0041612545536418473 0 -0.0047811258776134166 -0.0042323716158777971 0 -0.0046082868528548836 -0.0042178596016864628 0 -0.0045638695643530893 -0.0041321759720376458 0 -0.0046082868528548836 -0.0042178596016864628 0 -0.0044304005184558539 -0.0042013130690045216 0 -0.0049858053621173537 -0.003162395420296085 0 -0.0047796830378505715 -0.0031355827296329821 0 -0.0047784091594897946 -0.003280720273990922 0 -0.0048544379054988387 -0.0036633870055203716 0 -0.0042724003215377322 -0.0041508479505158241 0 -0.0049858053621173537 -0.003162395420296085 0 -0.0047784091594897946 -0.003280720273990922 0 -0.0049142969978069866 -0.0034051163737928948 0 -0.0047784091594897946 -0.003280720273990922 0 -0.0049142969978069866 -0.0034051163737928948 0 -0.004715408725890189 -0.003427835002861826 0 -0.0050827776001198819 -0.0033273680835321151 0 -0.0049858053621173537 -0.003162395420296085 0 -0.0049142969978069866 -0.0034051163737928948 0 -0.0050509458111106598 -0.0034673021911149791 0 -0.0050827776001198819 -0.0033273680835321151 0 -0.0049142969978069866 -0.0034051163737928948 0 -0.0050509458111106598 -0.0034673021911149791 0 -0.0049142969978069866 -0.0034051163737928948 0 -0.0048750164001368935 -0.0034969464516691694 0 -0.00504310007917532 -0.0035946787450583956 0 -0.0048750164001368935 -0.0034969464516691694 0 -0.0048989811181921299 -0.0036287219356994629 0 -0.0050509458111106598 -0.0034673021911149791 0 -0.00504310007917532 -0.0035946787450583956 0 -0.0048750164001368935 -0.0034969464516691694 0 -0.0048750164001368935 -0.0034969464516691694 0 -0.0047509410880911956 -0.003552003246742329 0 -0.0048989811181921299 -0.0036287219356994629 0 -0.0048750164001368935 -0.0034969464516691694 0 -0.0047070812289906321 -0.0034795556023427387 0 -0.0047509410880911956 -0.003552003246742329 0 -0.0049142969978069866 -0.0034051163737928948 0 -0.004715408725890189 -0.003427835002861826 0 -0.0046829309107567583 -0.0036157180047775117 0 -0.0049142969978069866 -0.0034051163737928948 0 -0.0048750164001368935 -0.0034969464516691694 0 -0.0047070812289906321 -0.0034795556023427387 0 -0.0048970251831047902 -0.0034146008705011805 0 -0.0046942994215009989 -0.0035438812274079389 0 -0.004715408725890189 -0.003427835002861826 0 -0.0046263341120917388 -0.0034997233507877076 0 -0.0046829309107567583 -0.0036157180047775117 0 -0.004715408725890189 -0.003427835002861826 0 -0.0046263341120917388 -0.0034997233507877076 0 -0.0046198366243111388 -0.0033624451615898894 0 -0.0046263341120917388 -0.0034997233507877076 0 -0.0045270210313188355 -0.0034592358275954958 0 -0.0046198366243111388 -0.0033624451615898894 0 -0.0047070812289906321 -0.0034795556023427387 0 -0.0044633169403289416 -0.0035461231783109558 0 -0.0045896619365421764 -0.0035556403419843285 0 -0.0046263341120917388 -0.0034997233507877076 0 -0.0046829309107567583 -0.0036157180047775117 0 -0.0045904635663845464 -0.0036361806585586513 0 -0.0047070812289906321 -0.0034795556023427387 0 -0.0047509410880911956 -0.003552003246742329 0 -0.0045896619365421764 -0.0035556403419843285 0 -0.0046942994215009989 -0.0035438812274079389 0 -0.0044708724671660132 -0.0036729026559961797 0 -0.0046829309107567583 -0.0036157180047775117 0 -0.0045904635663845464 -0.0036361806585586513 0 -0.0044875881238260066 -0.0037631368304809781 0 -0.004498695968315921 -0.0036680862145508407 0 -0.0044481510990626817 -0.0037922882068996133 0 -0.0044446306965999025 -0.0036026963989469682 0 -0.0045904635663845464 -0.0036361806585586513 0 -0.004498695968315921 -0.0036680862145508407 0 -0.0045304585442667274 -0.0035268605884443884 0 -0.0045904635663845464 -0.0036361806585586513 0 -0.004498695968315921 -0.0036680862145508407 0 -0.0044875881238260066 -0.0037631368304809781 0 -0.004590442014072816 -0.0036466877313691705 0 -0.00450620713118786 -0.0034217851057162449 0 -0.0046263341120917388 -0.0034997233507877076 0 -0.0045904635663845464 -0.0036361806585586513 0 -0.0045270210313188355 -0.0034592358275954958 0 -0.004498695968315921 -0.0036680862145508407 0 -0.0045304585442667274 -0.0035268605884443884 0 -0.0044446306965999025 -0.0036026963989469682 0 -0.0045304585442667274 -0.0035268605884443884 0 -0.0044381143680198619 -0.0034575176112892386 0 -0.0044446306965999025 -0.0036026963989469682 0 -0.0045270210313188355 -0.0034592358275954958 0 -0.0044682423554130643 -0.003292095688206887 0 -0.0046198366243111388 -0.0033624451615898894 0 -0.00450620713118786 -0.0034217851057162449 0 -0.0041241783907841317 -0.0039622221992721245 0 -0.0045304585442667274 -0.0035268605884443884 0 -0.004486724234667107 -0.0034325643052076529 0 -0.0044381143680198619 -0.0034575176112892386 0 -0.0041241783907841317 -0.0039622221992721245 0 -0.003845765770941575 -0.004259222788684203 0 -0.0044682423554130643 -0.003292095688206887 0 -0.0046198366243111388 -0.0033624451615898894 0 -0.0046261646072880145 -0.003208806078580258 0 -0.0041241783907841317 -0.0039622221992721245 0 -0.0042524131883885825 -0.0038900040181922505 0 -0.0047784091594897946 -0.003280720273990922 0 -0.004715408725890189 -0.003427835002861826 0 -0.0046198366243111388 -0.0033624451615898894 0 -0.0047784091594897946 -0.003280720273990922 0 -0.0046198366243111388 -0.0033624451615898894 0 -0.0046261646072880145 -0.003208806078580258 0 -0.0039311483637110237 -0.0045368172375662708 0 -0.0038213125642223371 -0.0045998770228981075 0 -0.0037423307391282836 -0.0045372428234854807 0 -0.0047796830378505715 -0.0031355827296329821 0 -0.0047784091594897946 -0.003280720273990922 0 -0.0046261646072880145 -0.003208806078580258 0 -0.0042724003215377322 -0.0041508479505158241 0 -0.0036104892578501407 -0.004623188518829288 0 -0.0042724003215377322 -0.0041508479505158241 0 -0.0042524131883885825 -0.0038900040181922505 0 -0.0037243152202047604 -0.0046450443720843521 0 -0.0037423307391282836 -0.0045372428234854807 0 -0.0036563152078909482 -0.0044874469621403804 0 -0.0037243152202047604 -0.0046450443720843521 0 -0.0038213125642223371 -0.0045998770228981075 0 -0.0037423307391282836 -0.0045372428234854807 0 -0.0044392011327925472 -0.0034408308577409744 0 -0.0044603269730657197 -0.0034640270003463052 0 -0.0044495759697489546 -0.0034205529106194877 0 -0.0044603269730657197 -0.0034640270003463052 0 -0.0044495759697489546 -0.0034205529106194877 0 -0.0044821007656473425 -0.0034226946475004925 0 -0.0046276167661902252 -0.0037703292497978094 0 -0.0044507328609589116 -0.0036155268438759413 0 -0.0044392011327925472 -0.0034408308577409744 0 -0.0044190786617474449 -0.0034172015587992021 0 -0.0044495759697489546 -0.0034205529106194877 0 -0.004699993866170908 -0.003996230643215427 0 -0.0048001909268392314 -0.0039833553524592676 0 -0.004786773278115981 -0.0040860763682298443 0 -0.004699993866170908 -0.003996230643215427 0 -0.0048001909268392314 -0.0039833553524592676 0 -0.0047492897147853258 -0.0038766404958081881 0 -0.0046276167661902252 -0.0037703292497978094 0 -0.0045487209355454762 -0.0032788059454238964 0 -0.0048001909268392314 -0.0039833553524592676 0 -0.0048904955548491379 -0.0040195133857645858 0 -0.004786773278115981 -0.0040860763682298443 0 -0.0048001909268392314 -0.0039833553524592676 0 -0.0047492897147853258 -0.0038766404958081881 0 -0.0048766958908774199 -0.0039237796420433547 0 -0.0047492897147853258 -0.0038766404958081881 0 -0.0046177047098336964 -0.0039103809538638358 0 -0.0047061755783100569 -0.0037492629391411001 0 -0.004699993866170908 -0.003996230643215427 0 -0.0047492897147853258 -0.0038766404958081881 0 -0.0046177047098336964 -0.0039103809538638358 0 -0.0044507328609589116 -0.0036155268438759413 0 -0.0043605115927919302 -0.0035134604702356381 0 -0.004390814612844544 -0.0035320379139125377 0 -0.0044158301488920653 -0.0035480072711385857 0 -0.0043802364856826009 -0.0035190537018859945 0 -0.0044507328609589116 -0.0036155268438759413 0 -0.0046147396515232404 -0.0036796081271038739 0 -0.004390814612844544 -0.0035320379139125377 0 -0.0044158301488920653 -0.0035480072711385857 0 -0.0044987663448671803 -0.0035942911957128234 0 -0.0044158301488920653 -0.0035480072711385857 0 -0.0044389002540704183 -0.0035670945014597863 0 -0.0044987663448671803 -0.0035942911957128234 0 -0.0044389002540704183 -0.0035670945014597863 0 -0.0044796381688038617 -0.0035721738719754919 0 -0.0044987663448671803 -0.0035942911957128234 0 -0.0044389002540704183 -0.0035670945014597863 0 -0.0044796381688038617 -0.0035721738719754919 0 -0.0044633169403289416 -0.0035461231783109558 0 -0.0044389002540704183 -0.0035670945014597863 0 -0.0044633169403289416 -0.0035461231783109558 0 -0.0044446544976329801 -0.0035550191095647466 0 -0.0045157059683462392 -0.0035661035552899795 0 -0.0044796381688038617 -0.0035721738719754919 0 -0.0044987663448671803 -0.0035942911957128234 0 -0.0045157059683462392 -0.0035661035552899795 0 -0.0044796381688038617 -0.0035721738719754919 0 -0.0044633169403289416 -0.0035461231783109558 0 -0.0045157059683462392 -0.0035661035552899795 0 -0.0044633169403289416 -0.0035461231783109558 0 -0.0045896619365421764 -0.0035556403419843285 0 -0.004498695968315921 -0.0036680862145508407 0 -0.0044875881238260066 -0.0037631368304809781 0 -0.0044481510990626817 -0.0037922882068996133 0 -0.0044708724671660132 -0.0036729026559961797 0 -0.0043348557847043634 -0.0037904247221307794 0 -0.0047509410880911956 -0.003552003246742329 0 -0.0045896619365421764 -0.0035556403419843285 0 -0.0044987663448671803 -0.0035942911957128234 0 -0.0047509410880911956 -0.003552003246742329 0 -0.0047061755783100569 -0.0037492629391411001 0 -0.0047926332304862916 -0.00366396265339507 0 -0.0047061755783100569 -0.0037492629391411001 0 -0.0048316687844770613 -0.003723804609935068 0 -0.0047926332304862916 -0.00366396265339507 0 -0.0047419628760880586 -0.003536944857215828 0 -0.0046147396515232404 -0.0036796081271038739 0 -0.0045157059683462392 -0.0035661035552899795 0 -0.0045896619365421764 -0.0035556403419843285 0 -0.0044987663448671803 -0.0035942911957128234 0 -0.0047061755783100569 -0.0037492629391411001 0 -0.0047902247684828928 -0.003788169741872936 0 -0.0048316687844770613 -0.003723804609935068 0 -0.0047492897147853258 -0.0038766404958081881 0 -0.0047902247684828928 -0.003788169741872936 0 -0.0048788404236212212 -0.0038202646254652827 0 -0.0047492897147853258 -0.0038766404958081881 0 -0.0047061755783100569 -0.0037492629391411001 0 -0.0047902247684828928 -0.003788169741872936 0 -0.0047902247684828928 -0.003788169741872936 0 -0.0048788404236212212 -0.0038202646254652827 0 -0.0048316687844770613 -0.003723804609935068 0 -0.0048788404236212212 -0.0038202646254652827 0 -0.0049279068690548065 -0.0037320859216705723 0 -0.0049961769855957974 -0.0037923053211934483 0 -0.0048788404236212212 -0.0038202646254652827 0 -0.0049961769855957974 -0.0037923053211934483 0 -0.0049703116713440548 -0.0038679897112602574 0 -0.0048788404236212212 -0.0038202646254652827 0 -0.0049279068690548065 -0.0037320859216705723 0 -0.0048316687844770613 -0.003723804609935068 0 -0.0048316687844770613 -0.003723804609935068 0 -0.0047926332304862916 -0.00366396265339507 0 -0.0048989811181921299 -0.0036287219356994629 0 -0.0049279068690548065 -0.0037320859216705723 0 -0.0048316687844770613 -0.003723804609935068 0 -0.0048989811181921299 -0.0036287219356994629 0 -0.0047509410880911956 -0.003552003246742329 0 -0.0047926332304862916 -0.00366396265339507 0 -0.0048989811181921299 -0.0036287219356994629 0 -0.00504310007917532 -0.0035946787450583956 0 -0.0048989811181921299 -0.0036287219356994629 0 -0.0050070283981889768 -0.0036981313009494198 0 -0.0049279068690548065 -0.0037320859216705723 0 -0.0048989811181921299 -0.0036287219356994629 0 -0.0050070283981889768 -0.0036981313009494198 0 -0.0050070283981889768 -0.0036981313009494198 0 -0.0049961769855957974 -0.0037923053211934483 0 -0.0050941693749358818 -0.003777036362208028 0 -0.0049279068690548065 -0.0037320859216705723 0 -0.0050070283981889768 -0.0036981313009494198 0 -0.0049961769855957974 -0.0037923053211934483 0 -0.0049961769855957974 -0.0037923053211934483 0 -0.0050816068097369682 -0.0038461263528390553 0 -0.0050941693749358818 -0.003777036362208028 0 -0.0050816068097369682 -0.0038461263528390553 0 -0.0050569418947364712 -0.0039203624972289457 0 -0.0049703116713440548 -0.0038679897112602574 0 -0.0050569418947364712 -0.0039203624972289457 0 -0.0049703116713440548 -0.0038679897112602574 0 -0.0049827276006841033 -0.0039690804378923038 0 -0.0049961769855957974 -0.0037923053211934483 0 -0.0050816068097369682 -0.0038461263528390553 0 -0.0049703116713440548 -0.0038679897112602574 0 -0.0048788404236212212 -0.0038202646254652827 0 -0.0049703116713440548 -0.0038679897112602574 0 -0.0048766958908774199 -0.0039237796420433547 0 -0.0047492897147853258 -0.0038766404958081881 0 -0.0048788404236212212 -0.0038202646254652827 0 -0.0048766958908774199 -0.0039237796420433547 0 -0.0049703116713440548 -0.0038679897112602574 0 -0.0048766958908774199 -0.0039237796420433547 0 -0.0049827276006841033 -0.0039690804378923038 0 -0.0048766958908774199 -0.0039237796420433547 0 -0.0048904955548491379 -0.0040195133857645858 0 -0.0049827276006841033 -0.0039690804378923038 0 -0.0048904955548491379 -0.0040195133857645858 0 -0.0049827276006841033 -0.0039690804378923038 0 -0.0049930904521794106 -0.0041016848278549491 0 -0.0048001909268392314 -0.0039833553524592676 0 -0.0048766958908774199 -0.0039237796420433547 0 -0.0048904955548491379 -0.0040195133857645858 0 -0.0049827276006841033 -0.0039690804378923038 0 -0.0051075482381510804 -0.0039949871893075585 0 -0.0049930904521794106 -0.0041016848278549491 0 -0.0050569418947364712 -0.0039203624972289457 0 -0.0049827276006841033 -0.0039690804378923038 0 -0.0051075482381510804 -0.0039949871893075585 0 -0.005236769308667775 -0.0039258701715844486 0 -0.0051075482381510804 -0.0039949871893075585 0 -0.0052161401830320784 -0.004106228536408121 0 -0.0050569418947364712 -0.0039203624972289457 0 -0.0051075482381510804 -0.0039949871893075585 0 -0.005160722638515915 -0.003892775673631348 0 -0.005236769308667775 -0.0039258701715844486 0 -0.0051075482381510804 -0.0039949871893075585 0 -0.005160722638515915 -0.003892775673631348 0 -0.005236769308667775 -0.0039258701715844486 0 -0.0053097742283235144 -0.0038550178599487156 0 -0.0053213382916155478 -0.0038627895614029443 0 -0.0052300273748930653 -0.0038972463943073906 0 -0.0053721047374397368 -0.0039842364068991363 0 -0.005236769308667775 -0.0039258701715844486 0 -0.0053278132242200894 -0.0040252282308732464 0 -0.0052161401830320784 -0.004106228536408121 0 -0.0052627933637551683 -0.0038748001577965153 0 -0.005363719884222515 -0.0038705135595806031 0 -0.0053213382916155478 -0.0038627895614029443 0 -0.005236769308667775 -0.0039258701715844486 0 -0.0052627933637551683 -0.0038748001577965153 0 -0.0053213382916155478 -0.0038627895614029443 0 -0.0052627933637551683 -0.0038748001577965153 0 -0.005160722638515915 -0.003892775673631348 0 -0.0051968104365576646 -0.0038316861800868776 0 -0.005236769308667775 -0.0039258701715844486 0 -0.0052627933637551683 -0.0038748001577965153 0 -0.005160722638515915 -0.003892775673631348 0 -0.0050816068097369682 -0.0038461263528390553 0 -0.0050569418947364712 -0.0039203624972289457 0 -0.005160722638515915 -0.003892775673631348 0 -0.0050816068097369682 -0.0038461263528390553 0 -0.005160722638515915 -0.003892775673631348 0 -0.0051968104365576646 -0.0038316861800868776 0 -0.0050816068097369682 -0.0038461263528390553 0 -0.0051968104365576646 -0.0038316861800868776 0 -0.0050941693749358818 -0.003777036362208028 0 -0.0051968104365576646 -0.0038316861800868776 0 -0.0050941693749358818 -0.003777036362208028 0 -0.0051849827925313967 -0.0037138508805965669 0 -0.00504310007917532 -0.0035946787450583956 0 -0.0050070283981889768 -0.0036981313009494198 0 -0.0051849827925313967 -0.0037138508805965669 0 -0.0050070283981889768 -0.0036981313009494198 0 -0.0050941693749358818 -0.003777036362208028 0 -0.0051849827925313967 -0.0037138508805965669 0 -0.0054047466441311228 -0.0036125277145033405 0 -0.0051849827925313967 -0.0037138508805965669 0 -0.005363719884222515 -0.0038705135595806031 0 -0.0052627933637551683 -0.0038748001577965153 0 -0.0051968104365576646 -0.0038316861800868776 0 -0.005363719884222515 -0.0038705135595806031 0 -0.0051968104365576646 -0.0038316861800868776 0 -0.0051849827925313967 -0.0037138508805965669 0 -0.005363719884222515 -0.0038705135595806031 0 -0.005363719884222515 -0.0038705135595806031 0 -0.0052779422610677385 -0.0040168721895485551 0 -0.0053187251484257559 -0.0038837030618996226 0 -0.005363719884222515 -0.0038705135595806031 0 -0.0053187251484257559 -0.0038837030618996226 0 -0.0053213382916155478 -0.0038627895614029443 0 -0.0053846495579544084 -0.0039379477651550476 0 -0.0053743299967475445 -0.0038755340649670304 0 -0.0053982804618397853 -0.0042162427465956909 0 -0.005363719884222515 -0.0038705135595806031 0 -0.0052779422610677385 -0.0040168721895485551 0 -0.005206344504692836 -0.0042346132507662757 0 -0.0052779422610677385 -0.0040168721895485551 0 -0.0051410157003094212 -0.0041339635094443609 0 -0.005206344504692836 -0.0042346132507662757 0 -0.0053982804618397853 -0.0042162427465956909 0 -0.0052779422610677385 -0.0040168721895485551 0 -0.0052779422610677385 -0.0040168721895485551 0 -0.0051410157003094212 -0.0041339635094443609 0 -0.0052332547496897535 -0.0039266256918943374 0 -0.0052779422610677385 -0.0040168721895485551 0 -0.0053187251484257559 -0.0038837030618996226 0 -0.0052332547496897535 -0.0039266256918943374 0 -0.0053187251484257559 -0.0038837030618996226 0 -0.0053133867977333609 -0.0038205537105130156 0 -0.0052332547496897535 -0.0039266256918943374 0 -0.0053187251484257559 -0.0038837030618996226 0 -0.0053133867977333609 -0.0038205537105130156 0 -0.0053213382916155478 -0.0038627895614029443 0 -0.0053097742283235144 -0.0038550178599487156 0 -0.0053213382916155478 -0.0038627895614029443 0 -0.0053230733694466384 -0.0038203046509673821 0 -0.0053133867977333609 -0.0038205537105130156 0 -0.0053213382916155478 -0.0038627895614029443 0 -0.0053230733694466384 -0.0038203046509673821 0 -0.0053133867977333609 -0.0038205537105130156 0 -0.0053230733694466384 -0.0038203046509673821 0 -0.0053195974447447147 -0.0037639865118889596 0 -0.0053133867977333609 -0.0038205537105130156 0 -0.0053195974447447147 -0.0037639865118889596 0 -0.005299241860120851 -0.0037348391685491002 0 -0.0053195974447447147 -0.0037639865118889596 0 -0.005299241860120851 -0.0037348391685491002 0 -0.0053213765521296979 -0.0036708752977733256 0 -0.0051789003421251652 -0.0034452207353024397 0 -0.0057108135180185459 -0.0035277189067232867 0 -0.0053195974447447147 -0.0037639865118889596 0 -0.0053281707743072469 -0.0037842033029157575 0 -0.0053213765521296979 -0.0036708752977733256 0 -0.0053230733694466384 -0.0038203046509673821 0 -0.0053195974447447147 -0.0037639865118889596 0 -0.0053281707743072469 -0.0037842033029157575 0 -0.0053097742283235144 -0.0038550178599487156 0 -0.0053230733694466384 -0.0038203046509673821 0 -0.0053281707743072469 -0.0037842033029157575 0 -0.0053721047374397368 -0.0039842364068991363 0 -0.0051789003421251652 -0.0034452207353024397 0 -0.0040202846576948914 -0.0028029779371575975 0 -0.0038758823654145816 -0.0025472677990415792 0 -0.0040513915607908119 -0.0024667533205558925 0 -0.0040202846576948914 -0.0028029779371575975 0 -0.0040513915607908119 -0.0024667533205558925 0 -0.0042036240627838645 -0.0026580988082155225 0 -0.0051789003421251652 -0.0034452207353024397 0 -0.0046906386138268301 -0.0026993443627390274 0 -0.0062088936546907262 -0.003377354095825577 0 -0.0059242612450803415 -0.0030843355500321059 0 -0.0058569483718975621 -0.00335324160306213 0 -0.0040202846576948914 -0.0028029779371575975 0 -0.0038758823654145816 -0.0025472677990415792 0 -0.0036970640742052603 -0.0024883944021266307 0 -0.0038758823654145816 -0.0025472677990415792 0 -0.0036970640742052603 -0.0024883944021266307 0 -0.0037122656056876248 -0.0024462387431523794 0 -0.0038758823654145816 -0.0025472677990415792 0 -0.0037122656056876248 -0.0024462387431523794 0 -0.0040513915607908119 -0.0024667533205558925 0 -0.0037122656056876248 -0.0024462387431523794 0 -0.0036920661822149752 -0.0024287416270168528 0 -0.0036998106562512339 -0.0023913077989931551 0 -0.0037122656056876248 -0.0024462387431523794 0 -0.0037456148638806263 -0.0023790083257608837 0 -0.0037872964712640806 -0.0024277202756202718 0 -0.0036970640742052603 -0.0024883944021266307 0 -0.0037122656056876248 -0.0024462387431523794 0 -0.0036920661822149752 -0.0024287416270168528 0 -0.0037304920680301533 -0.0024454781777854869 0 -0.0039029917728759709 -0.0024497660133983726 0 -0.0037122656056876248 -0.0024462387431523794 0 -0.0037456148638806263 -0.0023790083257608837 0 -0.0036998106562512339 -0.0023913077989931551 0 -0.0037456148638806263 -0.0023790083257608837 0 -0.0036998106562512339 -0.0023913077989931551 0 -0.0036847295487752183 -0.0023375873514837058 0 -0.0037456148638806263 -0.0023790083257608837 0 -0.0036847295487752183 -0.0023375873514837058 0 -0.0037447026267343839 -0.0022854240710671152 0 -0.0037456148638806263 -0.0023790083257608837 0 -0.0038215921640917176 -0.0023653591405114463 0 -0.0037447026267343839 -0.0022854240710671152 0 -0.0038215921640917176 -0.0023653591405114463 0 -0.0037447026267343839 -0.0022854240710671152 0 -0.0038139520220593945 -0.002266195400063605 0 -0.0037456148638806263 -0.0023790083257608837 0 -0.0037872964712640806 -0.0024277202756202718 0 -0.0038215921640917176 -0.0023653591405114463 0 -0.0037872964712640806 -0.0024277202756202718 0 -0.0038215921640917176 -0.0023653591405114463 0 -0.0038858360279054806 -0.0024336063559378981 0 -0.0038215921640917176 -0.0023653591405114463 0 -0.0039101725974337127 -0.0023512400747890132 0 -0.0038858360279054806 -0.0024336063559378981 0 -0.0039029917728759709 -0.0024497660133983726 0 -0.0041712422063376825 -0.0024612984810821201 0 -0.0038215921640917176 -0.0023653591405114463 0 -0.0039101725974337127 -0.0023512400747890132 0 -0.0038139520220593945 -0.002266195400063605 0 -0.0038642930455229747 -0.0023309188655226552 0 -0.003828465151488384 -0.0022834735892936385 0 -0.0038636396171805305 -0.0023562246122651766 0 -0.0039050829136104449 -0.0023247565703218877 0 -0.0038870266720018158 -0.0022613819067656784 0 -0.0038636396171805305 -0.0023562246122651766 0 -0.0039147687762352504 -0.0023727872772613071 0 -0.0039050829136104449 -0.0023247565703218877 0 -0.0039101725974337127 -0.0023512400747890132 0 -0.0038858360279054806 -0.0024336063559378981 0 -0.0039952904027477322 -0.0024376097326136137 0 -0.0041712422063376825 -0.0024612984810821201 0 -0.0040531861905496345 -0.002549429223553367 0 -0.0043533540907287303 -0.0025010105693601989 0 -0.0045256818554505734 -0.0026741027995155187 0 -0.0046209398906962729 -0.0025202707991113125 0 -0.0043613939619682931 -0.0026631936218171992 0 -0.004357418753471968 -0.0028197729598383125 0 -0.0045256818554505734 -0.0026741027995155187 0 -0.0043533540907287303 -0.0025010105693601989 0 -0.0043613939619682931 -0.0026631936218171992 0 -0.0045256818554505734 -0.0026741027995155187 0 -0.0043533540907287303 -0.0025010105693601989 0 -0.0043613939619682931 -0.0026631936218171992 0 -0.0042036240627838645 -0.0026580988082155225 0 -0.0040513915607908119 -0.0024667533205558925 0 -0.0043533540907287303 -0.0025010105693601989 0 -0.0042036240627838645 -0.0026580988082155225 0 -0.0043613939619682931 -0.0026631936218171992 0 -0.0042036240627838645 -0.0026580988082155225 0 -0.004357418753471968 -0.0028197729598383125 0 -0.0040202846576948914 -0.0028029779371575975 0 -0.0042036240627838645 -0.0026580988082155225 0 -0.004357418753471968 -0.0028197729598383125 0 -0.0053278132242200894 -0.0040252282308732464 0 -0.0054222696313494297 -0.0041067263519200562 0 -0.0052161401830320784 -0.004106228536408121 0 -0.0051789003421251652 -0.0034452207353024397 0 -0.0046704923391229962 -0.0034563778223864598 0 -0.0051075482381510804 -0.0039949871893075585 0 -0.0052161401830320784 -0.004106228536408121 0 -0.0049930904521794106 -0.0041016848278549491 0 -0.0046704923391229962 -0.0034563778223864598 0 -0.0049143844503850296 -0.0034970563736864699 0 -0.004357418753471968 -0.0028197729598383125 0 -0.0046548341187089082 -0.0028411498541104771 0 -0.0045256818554505734 -0.0026741027995155187 0 -0.0046548341187089082 -0.0028411498541104771 0 -0.0047827853529532902 -0.0026980990296831646 0 -0.0045256818554505734 -0.0026741027995155187 0 -0.0048904955548491379 -0.0040195133857645858 0 -0.0049930904521794106 -0.0041016848278549491 0 -0.004786773278115981 -0.0040860763682298443 0 -0.0049143844503850296 -0.0034970563736864699 0 -0.0045487209355454762 -0.0032788059454238964 0 -0.0046548341187089082 -0.0028411498541104771 0 -0.0047827853529532902 -0.0026980990296831646 0 -0.0049392582851604579 -0.0028700666126821651 0 -0.004266884306167327 -0.0027143695176882563 0 -0.0045487209355454762 -0.0032788059454238964 0 -0.0037998485699550027 -0.0028072426734963925 0 -0.0036602166844812178 -0.0026558579693010884 0 -0.003926944437538867 -0.0026561412910647143 0 -0.0037998485699550027 -0.0028072426734963925 0 -0.003926944437538867 -0.0026561412910647143 0 -0.0039330578376923523 -0.0028112966700874521 0 -0.004266884306167327 -0.0027143695176882563 0 -0.0040531861905496345 -0.002549429223553367 0 -0.0047827853529532902 -0.0026980990296831646 0 -0.0045256818554505734 -0.0026741027995155187 0 -0.0046209398906962729 -0.0025202707991113125 0 -0.0038636396171805305 -0.0023562246122651766 0 -0.0039112672957894419 -0.0024512976738600991 0 -0.0039147687762352504 -0.0023727872772613071 0 -0.0039112672957894419 -0.0024512976738600991 0 -0.0039364533556838811 -0.0024010971772801485 0 -0.0039147687762352504 -0.0023727872772613071 0 -0.0038642930455229747 -0.0023309188655226552 0 -0.0040531861905496345 -0.002549429223553367 0 -0.0039112672957894419 -0.0024512976738600991 0 -0.0039364533556838811 -0.0024010971772801485 0 -0.0039643738641607501 -0.0024650375436530893 0 -0.0039364533556838811 -0.0024010971772801485 0 -0.0039147687762352504 -0.0023727872772613071 0 -0.0039602943362917154 -0.0023066869523216491 0 -0.0039147687762352504 -0.0023727872772613071 0 -0.0039602943362917154 -0.0023066869523216491 0 -0.0039050829136104449 -0.0023247565703218877 0 -0.003914408206951347 -0.0022565127628489247 0 -0.0039628262220793818 -0.0024501340355211512 0 -0.003864349994021004 -0.0021982850893597617 0 -0.0039361470185352429 -0.0022402262529131745 0 -0.0039643738641607501 -0.0024650375436530893 0 -0.0039361470185352429 -0.0022402262529131745 0 -0.0040028299770410525 -0.0024091078160141926 0 -0.004029326467789046 -0.0023644714137339932 0 -0.0040531861905496345 -0.002549429223553367 0 -0.0039171819512449531 -0.0025794771398654909 0 -0.0039364533556838811 -0.0024010971772801485 0 -0.0039602943362917154 -0.0023066869523216491 0 -0.0039643738641607501 -0.0024650375436530893 0 -0.0039361470185352429 -0.0022402262529131745 0 -0.0039643738641607501 -0.0024650375436530893 0 -0.0040028299770410525 -0.0024091078160141926 0 -0.0039112672957894419 -0.0024512976738600991 0 -0.0039643738641607501 -0.0024650375436530893 0 -0.0040105469797390974 -0.0024947218244757065 0 -0.0039643738641607501 -0.0024650375436530893 0 -0.0040105469797390974 -0.0024947218244757065 0 -0.0040028299770410525 -0.0024091078160141926 0 -0.0040105469797390974 -0.0024947218244757065 0 -0.0040453987551267107 -0.002422668192918732 0 -0.0041207200435853988 -0.002459754331908948 0 -0.0040453987551267107 -0.002422668192918732 0 -0.0040827890764044304 -0.002386215105183729 0 -0.0041207200435853988 -0.002459754331908948 0 -0.0040453987551267107 -0.002422668192918732 0 -0.004029326467789046 -0.0023644714137339932 0 -0.0040827890764044304 -0.002386215105183729 0 -0.0040105469797390974 -0.0024947218244757065 0 -0.0040028299770410525 -0.0024091078160141926 0 -0.0040453987551267107 -0.002422668192918732 0 -0.0040028299770410525 -0.0024091078160141926 0 -0.0040453987551267107 -0.002422668192918732 0 -0.004029326467789046 -0.0023644714137339932 0 -0.0039245746439785772 -0.0022347956176161669 0 -0.0040410215497573001 -0.002223815117660388 0 -0.0039361470185352429 -0.0022402262529131745 0 -0.004029326467789046 -0.0023644714137339932 0 -0.0040796080208087369 -0.0023097893668792384 0 -0.0039361470185352429 -0.0022402262529131745 0 -0.0039804204858351214 -0.0021302182735304441 0 -0.0039654546497926582 -0.0021387769853061954 0 -0.0040827890764044304 -0.002386215105183729 0 -0.0040796080208087369 -0.0023097893668792384 0 -0.0041493273384350235 -0.0023793913200170561 0 -0.004029326467789046 -0.0023644714137339932 0 -0.0040827890764044304 -0.002386215105183729 0 -0.0040796080208087369 -0.0023097893668792384 0 -0.0040796080208087369 -0.0023097893668792384 0 -0.0041493273384350235 -0.0023793913200170561 0 -0.0042511906365947823 -0.0023211212647067593 0 -0.0040410215497573001 -0.002223815117660388 0 -0.0040198383518446259 -0.0021226564518917767 0 -0.0039804204858351214 -0.0021302182735304441 0 -0.0039864080263699656 -0.0020870165410525102 0 -0.0039974579735057815 -0.0020789100290967517 0 -0.0039706096253016594 -0.0020796084633398601 0 -0.0040198383518446259 -0.0021226564518917767 0 -0.0039804204858351214 -0.0021302182735304441 0 -0.0039864080263699656 -0.0020870165410525102 0 -0.0039807979155755315 -0.0021083482174587063 0 -0.0040827890764044304 -0.002386215105183729 0 -0.0041493273384350235 -0.0023793913200170561 0 -0.0041207200435853988 -0.002459754331908948 0 -0.0041493273384350235 -0.0023793913200170561 0 -0.0042210321676980798 -0.0024441068376464571 0 -0.0042511906365947823 -0.0023211212647067593 0 -0.0039171819512449531 -0.0025794771398654909 0 -0.0042444304570946481 -0.0026200749460161881 0 -0.0042210321676980798 -0.0024441068376464571 0 -0.0041207200435853988 -0.002459754331908948 0 -0.004224808698932438 -0.0026297747878252847 0 -0.0040105469797390974 -0.0024947218244757065 0 -0.0041207200435853988 -0.002459754331908948 0 -0.004224808698932438 -0.0026297747878252847 0 -0.0041493273384350235 -0.0023793913200170561 0 -0.0042210321676980798 -0.0024441068376464571 0 -0.0041207200435853988 -0.002459754331908948 0 -0.003926944437538867 -0.0026561412910647143 0 -0.004224808698932438 -0.0026297747878252847 0 -0.0040584113883779501 -0.0028103330018891481 0 -0.004224808698932438 -0.0026297747878252847 0 -0.0040584113883779501 -0.0028103330018891481 0 -0.0042689246201057353 -0.0028412207613340702 0 -0.003926944437538867 -0.0026561412910647143 0 -0.0039330578376923523 -0.0028112966700874521 0 -0.0040584113883779501 -0.0028103330018891481 0 -0.0040584113883779501 -0.0028103330018891481 0 -0.0039480822111831199 -0.0029739888114411099 0 -0.0041416724201500093 -0.0029985774268496378 0 -0.0039330578376923523 -0.0028112966700874521 0 -0.0040584113883779501 -0.0028103330018891481 0 -0.0039480822111831199 -0.0029739888114411099 0 -0.0045487209355454762 -0.0032788059454238964 0 -0.0042354652586452726 -0.0032038772445120043 0 -0.0037998485699550027 -0.0028072426734963925 0 -0.0039330578376923523 -0.0028112966700874521 0 -0.0039480822111831199 -0.0029739888114411099 0 -0.0040584113883779501 -0.0028103330018891481 0 -0.0041416724201500093 -0.0029985774268496378 0 -0.0042689246201057353 -0.0028412207613340702 0 -0.0042354652586452726 -0.0032038772445120043 0 -0.0044055523774065202 -0.0032028795548205264 0 -0.0048103240826288547 -0.003943977255477505 0 -0.0047672866082268351 -0.0038491315195721089 0 -0.0048471069375778594 -0.003964599027147203 0 -0.0050358753159444412 -0.0035279608357033452 0 -0.0050440939241327238 -0.003683956876521224 0 -0.005300924575039969 -0.0032125230421097195 0 -0.0052116383322682669 -0.0031967096564450934 0 -0.0052455219480159318 -0.0034134198969239522 0 -0.0048103240826288547 -0.003943977255477505 0 -0.0048636020642109385 -0.0039176107532772498 0 -0.0048673273455802132 -0.0038074459119060316 0 -0.0048103240826288547 -0.003943977255477505 0 -0.0047672866082268351 -0.0038491315195721089 0 -0.0048673273455802132 -0.0038074459119060316 0 -0.0047672866082268351 -0.0038491315195721089 0 -0.0048673273455802132 -0.0038074459119060316 0 -0.0048426442653547157 -0.0035667204741937743 0 -0.005300924575039969 -0.0032125230421097195 0 -0.0053097112385287262 -0.003046782437309623 0 -0.0052546433753486886 -0.0030723750485041191 0 -0.0050358753159444412 -0.0035279608357033452 0 -0.0050865797778716151 -0.0033085433421212529 0 -0.005300924575039969 -0.0032125230421097195 0 -0.0052116383322682669 -0.0031967096564450934 0 -0.0052546433753486886 -0.0030723750485041191 0 -0.0051272465099240537 -0.0031427036335137815 0 -0.0050746473749177625 -0.0031971087633880044 0 -0.0051482012889616305 -0.0032882107783158191 0 -0.0052116383322682669 -0.0031967096564450934 0 -0.0051272465099240537 -0.0031427036335137815 0 -0.0051482012889616305 -0.0032882107783158191 0 -0.0052116383322682669 -0.0031967096564450934 0 -0.0051272465099240537 -0.0031427036335137815 0 -0.0051800524077919453 -0.0030902317139561205 0 -0.0050746473749177625 -0.0031971087633880044 0 -0.0049999692544997346 -0.0033250990785062594 0 -0.0050270962616836591 -0.0031006491528386719 0 -0.0049999692544997346 -0.0033250990785062594 0 -0.0049999352563585564 -0.003035015614174119 0 -0.0050270962616836591 -0.0031006491528386719 0 -0.0050746473749177625 -0.0031971087633880044 0 -0.0049999692544997346 -0.0033250990785062594 0 -0.0051482012889616305 -0.0032882107783158191 0 -0.0051272465099240537 -0.0031427036335137815 0 -0.0050728058181544163 -0.0031324519925203733 0 -0.0050746473749177625 -0.0031971087633880044 0 -0.0050728058181544163 -0.0031324519925203733 0 -0.0050746473749177625 -0.0031971087633880044 0 -0.0050270962616836591 -0.0031006491528386719 0 -0.0049999692544997346 -0.0033250990785062594 0 -0.0051482012889616305 -0.0032882107783158191 0 -0.0051099645554833553 -0.003451920578465972 0 -0.0052116383322682669 -0.0031967096564450934 0 -0.0051482012889616305 -0.0032882107783158191 0 -0.0052455219480159318 -0.0034134198969239522 0 -0.0051482012889616305 -0.0032882107783158191 0 -0.0051099645554833553 -0.003451920578465972 0 -0.0052455219480159318 -0.0034134198969239522 0 -0.0051099645554833553 -0.003451920578465972 0 -0.0051504912383816817 -0.0036358932230804364 0 -0.0052455219480159318 -0.0034134198969239522 0 -0.0049486787221346843 -0.0039068467050959524 0 -0.0048887621455308613 -0.0039308212125833877 0 -0.0048471069375778594 -0.003964599027147203 0 -0.0050446784794871838 -0.0037728848825377046 0 -0.0050440939241327238 -0.003683956876521224 0 -0.0049999692544997346 -0.0033250990785062594 0 -0.0051099645554833553 -0.003451920578465972 0 -0.004999934220428051 -0.0036153658030704371 0 -0.0051099645554833553 -0.003451920578465972 0 -0.004999934220428051 -0.0036153658030704371 0 -0.0051504912383816817 -0.0036358932230804364 0 -0.0050011000739349516 -0.0038568654228552722 0 -0.004999934220428051 -0.0036153658030704371 0 -0.0051504912383816817 -0.0036358932230804364 0 -0.0050028689982403781 -0.0038505408402052031 0 -0.0050446784794871838 -0.0037728848825377046 0 -0.0050011000739349516 -0.0038568654228552722 0 -0.0049486787221346843 -0.0039068467050959524 0 -0.0049220182288522533 -0.0038693094007329499 0 -0.0049486787221346843 -0.0039068467050959524 0 -0.0049220182288522533 -0.0038693094007329499 0 -0.0048887621455308613 -0.0039308212125833877 0 -0.0049220182288522533 -0.0038693094007329499 0 -0.0048887621455308613 -0.0039308212125833877 0 -0.0048547484564118127 -0.0039773304967472426 0 -0.0049975376613422889 -0.0039915970087922321 0 -0.0049427221112294736 -0.0039840539174048851 0 -0.0048547484564118127 -0.0039773304967472426 0 -0.0049548829549254832 -0.0039316224035746538 0 -0.0048692500168924912 -0.0039716006517890598 0 -0.0048103240826288547 -0.003943977255477505 0 -0.0048471069375778594 -0.003964599027147203 0 -0.0048547484564118127 -0.0039773304967472426 0 -0.0048887621455308613 -0.0039308212125833877 0 -0.0048471069375778594 -0.003964599027147203 0 -0.0048547484564118127 -0.0039773304967472426 0 -0.0048103240826288547 -0.003943977255477505 0 -0.004793739934565445 -0.0039995849046606602 0 -0.0048636020642109385 -0.0039176107532772498 0 -0.0048103240826288547 -0.003943977255477505 0 -0.0048547484564118127 -0.0039773304967472426 0 -0.004793739934565445 -0.0039995849046606602 0 -0.0047591282878184761 -0.0041518588844668709 0 -0.0047862333170176907 -0.0040217274108187602 0 -0.0049427221112294736 -0.0039840539174048851 0 -0.0048547484564118127 -0.0039773304967472426 0 -0.0049279381359175851 -0.0039764720392289074 0 -0.0048547484564118127 -0.0039773304967472426 0 -0.0049279381359175851 -0.0039764720392289074 0 -0.004793739934565445 -0.0039995849046606602 0 -0.0045779143551548974 -0.0043074863497119904 0 -0.0048199588555035604 -0.0041729822676099546 0 -0.004793739934565445 -0.0039995849046606602 0 -0.0047709888797155499 -0.0043933016367374202 0 -0.0045779143551548974 -0.0043074863497119904 0 -0.0048199588555035604 -0.0041729822676099546 0 -0.0048832525591371136 -0.004302931482582103 0 -0.0048199588555035604 -0.0041729822676099546 0 -0.0049589002390983284 -0.0041137195443340362 0 -0.0048832525591371136 -0.004302931482582103 0 -0.0049589002390983284 -0.0041137195443340362 0 -0.0049999074356299267 -0.0042288204483506555 0 -0.0049589002390983284 -0.0041137195443340362 0 -0.0050426808418808922 -0.0039504142816738468 0 -0.0049070450835869512 -0.0040015086914425724 0 -0.0048199588555035604 -0.0041729822676099546 0 -0.0049589002390983284 -0.0041137195443340362 0 -0.0049070450835869512 -0.0040015086914425724 0 -0.0048199588555035604 -0.0041729822676099546 0 -0.0049070450835869512 -0.0040015086914425724 0 -0.004793739934565445 -0.0039995849046606602 0 -0.0049070450835869512 -0.0040015086914425724 0 -0.004793739934565445 -0.0039995849046606602 0 -0.0048636020642109385 -0.0039176107532772498 0 -0.0050300629132472643 -0.0043267948566556354 0 -0.0051410157003094212 -0.0041339635094443609 0 -0.0049999074356299267 -0.0042288204483506555 0 -0.0051410157003094212 -0.0041339635094443609 0 -0.0049999074356299267 -0.0042288204483506555 0 -0.005089099882018621 -0.004041551413323634 0 -0.0049589002390983284 -0.0041137195443340362 0 -0.0049999074356299267 -0.0042288204483506555 0 -0.005089099882018621 -0.004041551413323634 0 -0.0049589002390983284 -0.0041137195443340362 0 -0.0050426808418808922 -0.0039504142816738468 0 -0.005089099882018621 -0.004041551413323634 0 -0.0050426808418808922 -0.0039504142816738468 0 -0.005089099882018621 -0.004041551413323634 0 -0.0051507732584148754 -0.0038967526442710378 0 -0.005089099882018621 -0.004041551413323634 0 -0.0052332547496897535 -0.0039266256918943374 0 -0.0051507732584148754 -0.0038967526442710378 0 -0.0051410157003094212 -0.0041339635094443609 0 -0.005089099882018621 -0.004041551413323634 0 -0.0052332547496897535 -0.0039266256918943374 0 -0.0052332547496897535 -0.0039266256918943374 0 -0.0052566350006326363 -0.0038107186493609754 0 -0.0051507732584148754 -0.0038967526442710378 0 -0.0053133867977333609 -0.0038205537105130156 0 -0.0052332547496897535 -0.0039266256918943374 0 -0.0052566350006326363 -0.0038107186493609754 0 -0.0050426808418808922 -0.0039504142816738468 0 -0.0051474625244722454 -0.0038000894773486753 0 -0.0051507732584148754 -0.0038967526442710378 0 -0.0052566350006326363 -0.0038107186493609754 0 -0.0051474625244722454 -0.0038000894773486753 0 -0.0051507732584148754 -0.0038967526442710378 0 -0.0051474625244722454 -0.0038000894773486753 0 -0.0052879760461853297 -0.0036674197352134139 0 -0.0051165750360175361 -0.0036608584190158874 0 -0.0052566350006326363 -0.0038107186493609754 0 -0.0051474625244722454 -0.0038000894773486753 0 -0.0052879760461853297 -0.0036674197352134139 0 -0.0053133867977333609 -0.0038205537105130156 0 -0.0052566350006326363 -0.0038107186493609754 0 -0.005299241860120851 -0.0037348391685491002 0 -0.0052566350006326363 -0.0038107186493609754 0 -0.0052879760461853297 -0.0036674197352134139 0 -0.005299241860120851 -0.0037348391685491002 0 -0.0049070450835869512 -0.0040015086914425724 0 -0.0048636020642109385 -0.0039176107532772498 0 -0.0049998666502393653 -0.0038609755040089891 0 -0.0048636020642109385 -0.0039176107532772498 0 -0.0049998666502393653 -0.0038609755040089891 0 -0.0048673273455802132 -0.0038074459119060316 0 -0.0050426808418808922 -0.0039504142816738468 0 -0.0051474625244722454 -0.0038000894773486753 0 -0.0049998666502393653 -0.0038609755040089891 0 -0.0050426808418808922 -0.0039504142816738468 0 -0.0049070450835869512 -0.0040015086914425724 0 -0.0049998666502393653 -0.0038609755040089891 0 -0.0051474625244722454 -0.0038000894773486753 0 -0.0049998666502393653 -0.0038609755040089891 0 -0.0051165750360175361 -0.0036608584190158874 0 -0.0051165750360175361 -0.0036608584190158874 0 -0.0048673273455802132 -0.0038074459119060316 0 -0.0048426442653547157 -0.0035667204741937743 0 -0.0049998666502393653 -0.0038609755040089891 0 -0.0051165750360175361 -0.0036608584190158874 0 -0.0048673273455802132 -0.0038074459119060316 0 -0.0051165750360175361 -0.0036608584190158874 0 -0.0048426442653547157 -0.0035667204741937743 0 -0.0051585331265709177 -0.0034380935910080877 0 -0.0050865797778716151 -0.0033085433421212529 0 -0.0052280060953273314 -0.0031018604388911119 0 -0.0048426442653547157 -0.0035667204741937743 0 -0.0051585331265709177 -0.0034380935910080877 0 -0.0052398644812442809 -0.0030863114045753298 0 -0.0051165750360175361 -0.0036608584190158874 0 -0.0051585331265709177 -0.0034380935910080877 0 -0.0053474385802591276 -0.0034010465818862462 0 -0.0051585331265709177 -0.0034380935910080877 0 -0.0052398644812442809 -0.0030863114045753298 0 -0.0053474385802591276 -0.0034010465818862462 0 -0.0052398644812442809 -0.0030863114045753298 0 -0.0053474385802591276 -0.0034010465818862462 0 -0.0054073745470330347 -0.0030645814663050638 0 -0.0052398644812442809 -0.0030863114045753298 0 -0.0054073745470330347 -0.0030645814663050638 0 -0.0053445805969289609 -0.0029559096742817672 0 -0.0053097112385287262 -0.003046782437309623 0 -0.0052398644812442809 -0.0030863114045753298 0 -0.0052883076989790022 -0.0030117895018481424 0 -0.0052398644812442809 -0.0030863114045753298 0 -0.0052773649475722642 -0.0029438146707955379 0 -0.0052883076989790022 -0.0030117895018481424 0 -0.0052398644812442809 -0.0030863114045753298 0 -0.0053002052876291866 -0.0029105988701073676 0 -0.0052773649475722642 -0.0029438146707955379 0 -0.0052879760461853297 -0.0036674197352134139 0 -0.005299241860120851 -0.0037348391685491002 0 -0.0053213765521296979 -0.0036708752977733256 0 -0.0057108135180185459 -0.0035277189067232867 0 -0.0052827132118796272 -0.0034099099500307069 0 -0.0052879760461853297 -0.0036674197352134139 0 -0.0051165750360175361 -0.0036608584190158874 0 -0.0053474385802591276 -0.0034010465818862462 0 -0.0052879760461853297 -0.0036674197352134139 0 -0.0053213765521296979 -0.0036708752977733256 0 -0.0053474385802591276 -0.0034010465818862462 0 -0.0053474385802591276 -0.0034010465818862462 0 -0.0054073745470330347 -0.0030645814663050638 0 -0.0055157048662207719 -0.0031223688130312052 0 -0.0054073745470330347 -0.0030645814663050638 0 -0.0055157048662207719 -0.0031223688130312052 0 -0.005582734190975421 -0.0029904502469088705 0 -0.0055157048662207719 -0.0031223688130312052 0 -0.0056545288933855182 -0.0031782304301143502 0 -0.005582734190975421 -0.0029904502469088705 0 -0.0053474385802591276 -0.0034010465818862462 0 -0.0055157048662207719 -0.0031223688130312052 0 -0.0056545288933855182 -0.0031782304301143502 0 -0.0059242612450803415 -0.0030843355500321059 0 -0.0058569483718975621 -0.00335324160306213 0 -0.0056545288933855182 -0.0031782304301143502 0 -0.0058569483718975621 -0.00335324160306213 0 -0.0053474385802591276 -0.0034010465818862462 0 -0.0056545288933855182 -0.0031782304301143502 0 -0.0059242612450803415 -0.0030843355500321059 0 -0.0056545288933855182 -0.0031782304301143502 0 -0.005582734190975421 -0.0029904502469088705 0 -0.0059242612450803415 -0.0030843355500321059 0 -0.005582734190975421 -0.0029904502469088705 0 -0.0056067214285091824 -0.0027594540989484911 0 -0.0036970640742052603 -0.0024883944021266307 0 -0.0036536155666314807 -0.0024009587208035886 0 -0.0035963376506392337 -0.0023555987826622974 0 -0.0046906386138268301 -0.0026993443627390274 0 -0.0051330141748973301 -0.0025708454481206842 0 -0.0036998106562512339 -0.0023913077989931551 0 -0.0036847295487752183 -0.0023375873514837058 0 -0.0036536155666314807 -0.0024009587208035886 0 -0.0036920661822149752 -0.0024287416270168528 0 -0.0036998106562512339 -0.0023913077989931551 0 -0.0036536155666314807 -0.0024009587208035886 0 -0.0036970640742052603 -0.0024883944021266307 0 -0.0036920661822149752 -0.0024287416270168528 0 -0.0036536155666314807 -0.0024009587208035886 0 -0.0055576074222497282 -0.0028510333326778325 0 -0.005582734190975421 -0.0029904502469088705 0 -0.0056067214285091824 -0.0027594540989484911 0 -0.0053094653023264809 -0.0026506574314314087 0 -0.0051330141748973301 -0.0025708454481206842 0 -0.0054073745470330347 -0.0030645814663050638 0 -0.005582734190975421 -0.0029904502469088705 0 -0.0054521770547293485 -0.0028991994279483177 0 -0.0055576074222497282 -0.0028510333326778325 0 -0.005582734190975421 -0.0029904502469088705 0 -0.0054521770547293485 -0.0028991994279483177 0 -0.0055576074222497282 -0.0028510333326778325 0 -0.0054521770547293485 -0.0028991994279483177 0 -0.0054853950315332497 -0.0027840413976116807 0 -0.0057050216154128927 -0.0025927267052849416 0 -0.0055906712053270186 -0.0024895412553062124 0 -0.0057078553983646108 -0.0024447509773791202 0 -0.0055576074222497282 -0.0028510333326778325 0 -0.0056054050550530714 -0.0027849613369560215 0 -0.0054853950315332497 -0.0027840413976116807 0 -0.0056054050550530714 -0.0027849613369560215 0 -0.0054853950315332497 -0.0027840413976116807 0 -0.0055220087179388951 -0.0026353694489141023 0 -0.0051330141748973301 -0.0025708454481206842 0 -0.0056191179750894431 -0.0026079646593864434 0 -0.0036847295487752183 -0.0023375873514837058 0 -0.0036536155666314807 -0.0024009587208035886 0 -0.0035963376506392337 -0.0023555987826622974 0 -0.0036847295487752183 -0.0023375873514837058 0 -0.0035963376506392337 -0.0023555987826622974 0 -0.0036647661767265976 -0.0022403140177142543 0 -0.0051330141748973301 -0.0025708454481206842 0 -0.0046735212672595486 -0.0023005341636661999 0 -0.0053002052876291866 -0.0029105988701073676 0 -0.0052688602909809184 -0.002817035918950593 0 -0.0052773649475722642 -0.0029438146707955379 0 -0.0053002052876291866 -0.0029105988701073676 0 -0.0053269472249067324 -0.0027612304263394368 0 -0.0052688602909809184 -0.002817035918950593 0 -0.0053002052876291866 -0.0029105988701073676 0 -0.0053815818515794561 -0.0028384967123171951 0 -0.0053269472249067324 -0.0027612304263394368 0 -0.0052398644812442809 -0.0030863114045753298 0 -0.0053002052876291866 -0.0029105988701073676 0 -0.0053445805969289609 -0.0029559096742817672 0 -0.0053002052876291866 -0.0029105988701073676 0 -0.0053445805969289609 -0.0029559096742817672 0 -0.0053815818515794561 -0.0028384967123171951 0 -0.0054073745470330347 -0.0030645814663050638 0 -0.0054521770547293485 -0.0028991994279483177 0 -0.0053445805969289609 -0.0029559096742817672 0 -0.0054521770547293485 -0.0028991994279483177 0 -0.0053815818515794561 -0.0028384967123171951 0 -0.0054853950315332497 -0.0027840413976116807 0 -0.0054521770547293485 -0.0028991994279483177 0 -0.0053445805969289609 -0.0029559096742817672 0 -0.0053815818515794561 -0.0028384967123171951 0 -0.0053815818515794561 -0.0028384967123171951 0 -0.0054853950315332497 -0.0027840413976116807 0 -0.0054230749136290135 -0.0026780991959130039 0 -0.0054853950315332497 -0.0027840413976116807 0 -0.0055220087179388951 -0.0026353694489141023 0 -0.0054230749136290135 -0.0026780991959130039 0 -0.0054230749136290135 -0.0026780991959130039 0 -0.0053269472249067324 -0.0027612304263394368 0 -0.0053462355788278532 -0.0025864076573473933 0 -0.0053815818515794561 -0.0028384967123171951 0 -0.0054230749136290135 -0.0026780991959130039 0 -0.0053269472249067324 -0.0027612304263394368 0 -0.0053269472249067324 -0.0027612304263394368 0 -0.0052718297203766884 -0.0026749917614759871 0 -0.0053462355788278532 -0.0025864076573473933 0 -0.0052718297203766884 -0.0026749917614759871 0 -0.0052661292800343165 -0.0025032165023959685 0 -0.0053462355788278532 -0.0025864076573473933 0 -0.0052718297203766884 -0.0026749917614759871 0 -0.0052139893664804966 -0.0026323568745897207 0 -0.0052661292800343165 -0.0025032165023959685 0 -0.0052718297203766884 -0.0026749917614759871 0 -0.0052139893664804966 -0.0026323568745897207 0 -0.0052115418715804719 -0.002751260264751238 0 -0.0052718297203766884 -0.0026749917614759871 0 -0.0052115418715804719 -0.002751260264751238 0 -0.0052688602909809184 -0.002817035918950593 0 -0.0053269472249067324 -0.0027612304263394368 0 -0.0052718297203766884 -0.0026749917614759871 0 -0.0052688602909809184 -0.002817035918950593 0 -0.005153012155114052 -0.0026425631236186337 0 -0.0052139893664804966 -0.0026323568745897207 0 -0.0051867749680850781 -0.0025159344660122618 0 -0.005153012155114052 -0.0026425631236186337 0 -0.005108451632398512 -0.0025501766373147664 0 -0.0051867749680850781 -0.0025159344660122618 0 -0.005153012155114052 -0.0026425631236186337 0 -0.0052139893664804966 -0.0026323568745897207 0 -0.0052115418715804719 -0.002751260264751238 0 -0.005153012155114052 -0.0026425631236186337 0 -0.0051437023046159757 -0.0027591754373448387 0 -0.0052115418715804719 -0.002751260264751238 0 -0.0051437023046159757 -0.0027591754373448387 0 -0.0052115418715804719 -0.002751260264751238 0 -0.0052156050387596837 -0.0028613606913364081 0 -0.0051437023046159757 -0.0027591754373448387 0 -0.0052156050387596837 -0.0028613606913364081 0 -0.0051629580739572575 -0.0028937780230111334 0 -0.0052156050387596837 -0.0028613606913364081 0 -0.0052688602909809184 -0.002817035918950593 0 -0.0052773649475722642 -0.0029438146707955379 0 -0.0052115418715804719 -0.002751260264751238 0 -0.0052156050387596837 -0.0028613606913364081 0 -0.0052688602909809184 -0.002817035918950593 0 -0.0052156050387596837 -0.0028613606913364081 0 -0.0052773649475722642 -0.0029438146707955379 0 -0.0052343648318306773 -0.0029657258526777728 0 -0.0052773649475722642 -0.0029438146707955379 0 -0.0052883076989790022 -0.0030117895018481424 0 -0.0052343648318306773 -0.0029657258526777728 0 -0.0052156050387596837 -0.0028613606913364081 0 -0.0051629580739572575 -0.0028937780230111334 0 -0.0052343648318306773 -0.0029657258526777728 0 -0.0051629580739572575 -0.0028937780230111334 0 -0.0051770477334988465 -0.0029947312908116734 0 -0.0052343648318306773 -0.0029657258526777728 0 -0.0051770477334988465 -0.0029947312908116734 0 -0.0052343648318306773 -0.0029657258526777728 0 -0.0052546433753486886 -0.0030723750485041191 0 -0.0051770477334988465 -0.0029947312908116734 0 -0.0051800524077919453 -0.0030902317139561205 0 -0.0052546433753486886 -0.0030723750485041191 0 -0.0052116383322682669 -0.0031967096564450934 0 -0.0051800524077919453 -0.0030902317139561205 0 -0.0052546433753486886 -0.0030723750485041191 0 -0.0052883076989790022 -0.0030117895018481424 0 -0.0052343648318306773 -0.0029657258526777728 0 -0.0052546433753486886 -0.0030723750485041191 0 -0.0053097112385287262 -0.003046782437309623 0 -0.0052883076989790022 -0.0030117895018481424 0 -0.0052546433753486886 -0.0030723750485041191 0 -0.0049999352563585564 -0.003035015614174119 0 -0.0050270962616836591 -0.0031006491528386719 0 -0.005034489739182091 -0.0028246152860967586 0 -0.0050619566902010468 -0.0030226761123568796 0 -0.0050270962616836591 -0.0031006491528386719 0 -0.0050202519449053665 -0.0029501723056322114 0 -0.0050619566902010468 -0.0030226761123568796 0 -0.0050270962616836591 -0.0031006491528386719 0 -0.0050777610885542022 -0.0030876396428503386 0 -0.0050728058181544163 -0.0031324519925203733 0 -0.0050270962616836591 -0.0031006491528386719 0 -0.0050777610885542022 -0.0030876396428503386 0 -0.0051272465099240537 -0.0031427036335137815 0 -0.0050777610885542022 -0.0030876396428503386 0 -0.0051202323943877505 -0.0030439136812851187 0 -0.0051272465099240537 -0.0031427036335137815 0 -0.0050728058181544163 -0.0031324519925203733 0 -0.0050777610885542022 -0.0030876396428503386 0 -0.0051272465099240537 -0.0031427036335137815 0 -0.0051800524077919453 -0.0030902317139561205 0 -0.0051202323943877505 -0.0030439136812851187 0 -0.0051770477334988465 -0.0029947312908116734 0 -0.0051800524077919453 -0.0030902317139561205 0 -0.0051202323943877505 -0.0030439136812851187 0 -0.0050619566902010468 -0.0030226761123568796 0 -0.0050777610885542022 -0.0030876396428503386 0 -0.0051202323943877505 -0.0030439136812851187 0 -0.0050619566902010468 -0.0030226761123568796 0 -0.0051202323943877505 -0.0030439136812851187 0 -0.0051007659657036778 -0.0029480214117728947 0 -0.0050619566902010468 -0.0030226761123568796 0 -0.0051007659657036778 -0.0029480214117728947 0 -0.0050202519449053665 -0.0029501723056322114 0 -0.0051770477334988465 -0.0029947312908116734 0 -0.0051202323943877505 -0.0030439136812851187 0 -0.0051007659657036778 -0.0029480214117728947 0 -0.0051629580739572575 -0.0028937780230111334 0 -0.0051770477334988465 -0.0029947312908116734 0 -0.0051007659657036778 -0.0029480214117728947 0 -0.0051629580739572575 -0.0028937780230111334 0 -0.0051007659657036778 -0.0029480214117728947 0 -0.0050992453053344518 -0.0028288755110059093 0 -0.0051007659657036778 -0.0029480214117728947 0 -0.0050550779112323264 -0.0028805200661908138 0 -0.0050202519449053665 -0.0029501723056322114 0 -0.0051007659657036778 -0.0029480214117728947 0 -0.0050550779112323264 -0.0028805200661908138 0 -0.0050992453053344518 -0.0028288755110059093 0 -0.0050203202643672763 -0.0030829229925072557 0 -0.004985316297871494 -0.0028565370761305113 0 -0.0050270962616836591 -0.0031006491528386719 0 -0.0050202519449053665 -0.0029501723056322114 0 -0.0049326431196073236 -0.0028906144542116536 0 -0.0050202519449053665 -0.0029501723056322114 0 -0.0049326431196073236 -0.0028906144542116536 0 -0.0049991423817555029 -0.0028747535424990338 0 -0.0050550779112323264 -0.0028805200661908138 0 -0.0050202519449053665 -0.0029501723056322114 0 -0.0049991423817555029 -0.0028747535424990338 0 -0.0049999352563585564 -0.003035015614174119 0 -0.005034489739182091 -0.0028246152860967586 0 -0.0050000301358827607 -0.0027447851071035244 0 -0.005034489739182091 -0.0028246152860967586 0 -0.0050000301358827607 -0.0027447851071035244 0 -0.0050240600065930242 -0.002549942343389807 0 -0.0049326431196073236 -0.0028906144542116536 0 -0.0049929093854888798 -0.0027881654366209538 0 -0.0048968060805340604 -0.0025947620010339377 0 -0.004985316297871494 -0.0028565370761305113 0 -0.0049667748425583141 -0.00257060728668973 0 -0.0050550779112323264 -0.0028805200661908138 0 -0.0049991423817555029 -0.0028747535424990338 0 -0.0049929093854888798 -0.0027881654366209538 0 -0.0049326431196073236 -0.0028906144542116536 0 -0.0049991423817555029 -0.0028747535424990338 0 -0.0049929093854888798 -0.0027881654366209538 0 -0.0049929093854888798 -0.0027881654366209538 0 -0.0050637616651334275 -0.002740672897123536 0 -0.005015132769261894 -0.0026508851464813127 0 -0.0051437023046159757 -0.0027591754373448387 0 -0.0051629580739572575 -0.0028937780230111334 0 -0.0050992453053344518 -0.0028288755110059093 0 -0.0050550779112323264 -0.0028805200661908138 0 -0.0049929093854888798 -0.0027881654366209538 0 -0.0050992453053344518 -0.0028288755110059093 0 -0.0049929093854888798 -0.0027881654366209538 0 -0.0050992453053344518 -0.0028288755110059093 0 -0.0050637616651334275 -0.002740672897123536 0 -0.0051437023046159757 -0.0027591754373448387 0 -0.0050992453053344518 -0.0028288755110059093 0 -0.0050637616651334275 -0.002740672897123536 0 -0.005153012155114052 -0.0026425631236186337 0 -0.0051437023046159757 -0.0027591754373448387 0 -0.0050901595976764972 -0.0026545397771592489 0 -0.0051437023046159757 -0.0027591754373448387 0 -0.0050637616651334275 -0.002740672897123536 0 -0.0050901595976764972 -0.0026545397771592489 0 -0.0050637616651334275 -0.002740672897123536 0 -0.0050901595976764972 -0.0026545397771592489 0 -0.005015132769261894 -0.0026508851464813127 0 -0.0050901595976764972 -0.0026545397771592489 0 -0.005046692135168303 -0.0025800430420586905 0 -0.005015132769261894 -0.0026508851464813127 0 -0.0050901595976764972 -0.0026545397771592489 0 -0.005046692135168303 -0.0025800430420586905 0 -0.005108451632398512 -0.0025501766373147664 0 -0.005153012155114052 -0.0026425631236186337 0 -0.0050901595976764972 -0.0026545397771592489 0 -0.005108451632398512 -0.0025501766373147664 0 -0.0050000301358827607 -0.0027447851071035244 0 -0.0050240600065930242 -0.002549942343389807 0 -0.0049999744823041401 -0.0024545985679185573 0 -0.0049929093854888798 -0.0027881654366209538 0 -0.005015132769261894 -0.0026508851464813127 0 -0.0048968060805340604 -0.0025947620010339377 0 -0.005046692135168303 -0.0025800430420586905 0 -0.005015132769261894 -0.0026508851464813127 0 -0.0050066011755054473 -0.0025475336646262206 0 -0.005015132769261894 -0.0026508851464813127 0 -0.0050066011755054473 -0.0025475336646262206 0 -0.0048968060805340604 -0.0025947620010339377 0 -0.0048968060805340604 -0.0025947620010339377 0 -0.0050014101234845268 -0.0024353607522150968 0 -0.0050011266209214278 -0.0022769752594488293 0 -0.0050240600065930242 -0.002549942343389807 0 -0.0049999744823041401 -0.0024545985679185573 0 -0.0050011266209214278 -0.0022769752594488293 0 -0.0050066011755054473 -0.0025475336646262206 0 -0.0048968060805340604 -0.0025947620010339377 0 -0.0050014101234845268 -0.0024353607522150968 0 -0.0049667748425583141 -0.00257060728668973 0 -0.0049917192832946945 -0.0023003467788719227 0 -0.0050014101234845268 -0.0024353607522150968 0 -0.0050603755916058604 -0.0024852661273734693 0 -0.0050661592493031343 -0.0023347463575825221 0 -0.0050066011755054473 -0.0025475336646262206 0 -0.0050014101234845268 -0.0024353607522150968 0 -0.0050603755916058604 -0.0024852661273734693 0 -0.005046692135168303 -0.0025800430420586905 0 -0.0050603755916058604 -0.0024852661273734693 0 -0.005108451632398512 -0.0025501766373147664 0 -0.005046692135168303 -0.0025800430420586905 0 -0.0050066011755054473 -0.0025475336646262206 0 -0.0050603755916058604 -0.0024852661273734693 0 -0.0050603755916058604 -0.0024852661273734693 0 -0.005108451632398512 -0.0025501766373147664 0 -0.0051241617471943415 -0.0024291884806435394 0 -0.005108451632398512 -0.0025501766373147664 0 -0.0051241617471943415 -0.0024291884806435394 0 -0.0051867749680850781 -0.0025159344660122618 0 -0.0050603755916058604 -0.0024852661273734693 0 -0.0051241617471943415 -0.0024291884806435394 0 -0.0050661592493031343 -0.0023347463575825221 0 -0.0051241617471943415 -0.0024291884806435394 0 -0.0050661592493031343 -0.0023347463575825221 0 -0.0051517394063307969 -0.0022859406404395141 0 -0.0051517394063307969 -0.0022859406404395141 0 -0.0051068542464948671 -0.0022183379053324907 0 -0.0051727355916289571 -0.0021297426984875469 0 -0.0050661592493031343 -0.0023347463575825221 0 -0.0051068542464948671 -0.0022183379053324907 0 -0.0050495901621844582 -0.0022017554188225531 0 -0.0050661592493031343 -0.0023347463575825221 0 -0.0051517394063307969 -0.0022859406404395141 0 -0.0051068542464948671 -0.0022183379053324907 0 -0.0049999744823041401 -0.0024545985679185573 0 -0.0050011266209214278 -0.0022769752594488293 0 -0.0049998820972705135 -0.0021644612071877027 0 -0.0050661592493031343 -0.0023347463575825221 0 -0.0050495901621844582 -0.0022017554188225531 0 -0.0050011266209214278 -0.0022769752594488293 0 -0.0050495901621844582 -0.0022017554188225531 0 -0.0050011266209214278 -0.0022769752594488293 0 -0.0049998820972705135 -0.0021644612071877027 0 -0.0050014101234845268 -0.0024353607522150968 0 -0.0050661592493031343 -0.0023347463575825221 0 -0.0050011266209214278 -0.0022769752594488293 0 -0.0052661292800343165 -0.0025032165023959685 0 -0.0052925232571322612 -0.0023325831895920678 0 -0.0053704701169644169 -0.0023918691860482905 0 -0.0052661292800343165 -0.0025032165023959685 0 -0.0053704701169644169 -0.0023918691860482905 0 -0.0053462355788278532 -0.0025864076573473933 0 -0.0052661292800343165 -0.0025032165023959685 0 -0.0052089489559533162 -0.0023812897986471206 0 -0.0052925232571322612 -0.0023325831895920678 0 -0.0052661292800343165 -0.0025032165023959685 0 -0.0051867749680850781 -0.0025159344660122618 0 -0.0052089489559533162 -0.0023812897986471206 0 -0.0052139893664804966 -0.0026323568745897207 0 -0.0052661292800343165 -0.0025032165023959685 0 -0.0051867749680850781 -0.0025159344660122618 0 -0.0051241617471943415 -0.0024291884806435394 0 -0.0051867749680850781 -0.0025159344660122618 0 -0.0052089489559533162 -0.0023812897986471206 0 -0.0051241617471943415 -0.0024291884806435394 0 -0.0051517394063307969 -0.0022859406404395141 0 -0.0052089489559533162 -0.0023812897986471206 0 -0.0051517394063307969 -0.0022859406404395141 0 -0.0052354142948027385 -0.0022274213894123993 0 -0.0052089489559533162 -0.0023812897986471206 0 -0.0052354142948027385 -0.0022274213894123993 0 -0.0052089489559533162 -0.0023812897986471206 0 -0.0052925232571322612 -0.0023325831895920678 0 -0.0052354142948027385 -0.0022274213894123993 0 -0.0052925232571322612 -0.0023325831895920678 0 -0.0053377202427335717 -0.0021394861864884565 0 -0.0052925232571322612 -0.0023325831895920678 0 -0.0053377202427335717 -0.0021394861864884565 0 -0.0053807126377491783 -0.0022542714595622853 0 -0.0052925232571322612 -0.0023325831895920678 0 -0.0053704701169644169 -0.0023918691860482905 0 -0.0053807126377491783 -0.0022542714595622853 0 -0.0053377202427335717 -0.0021394861864884565 0 -0.0053745484270371433 -0.0019920306979252758 0 -0.0054652147985227613 -0.0020921123013131295 0 -0.0053377202427335717 -0.0021394861864884565 0 -0.0052618278359557432 -0.0020613893376533778 0 -0.0053745484270371433 -0.0019920306979252758 0 -0.0052354142948027385 -0.0022274213894123993 0 -0.0052618278359557432 -0.0020613893376533778 0 -0.0051727355916289571 -0.0021297426984875469 0 -0.0052354142948027385 -0.0022274213894123993 0 -0.0053377202427335717 -0.0021394861864884565 0 -0.0052618278359557432 -0.0020613893376533778 0 -0.0051517394063307969 -0.0022859406404395141 0 -0.0052354142948027385 -0.0022274213894123993 0 -0.0051727355916289571 -0.0021297426984875469 0 -0.0052618278359557432 -0.0020613893376533778 0 -0.0051727355916289571 -0.0021297426984875469 0 -0.0051799826651312301 -0.0019854394261010662 0 -0.0052618278359557432 -0.0020613893376533778 0 -0.0051799826651312301 -0.0019854394261010662 0 -0.0052747291976528226 -0.0018995343902011297 0 -0.0052618278359557432 -0.0020613893376533778 0 -0.0053745484270371433 -0.0019920306979252758 0 -0.0052747291976528226 -0.0018995343902011297 0 -0.0051068542464948671 -0.0022183379053324907 0 -0.0050495901621844582 -0.0022017554188225531 0 -0.0050736128819793749 -0.0020486011202924923 0 -0.0050495901621844582 -0.0022017554188225531 0 -0.0050736128819793749 -0.0020486011202924923 0 -0.0049998820972705135 -0.0021644612071877027 0 -0.0050736128819793749 -0.0020486011202924923 0 -0.0051727355916289571 -0.0021297426984875469 0 -0.0051799826651312301 -0.0019854394261010662 0 -0.0051068542464948671 -0.0022183379053324907 0 -0.0050736128819793749 -0.0020486011202924923 0 -0.0051727355916289571 -0.0021297426984875469 0 -0.0051799826651312301 -0.0019854394261010662 0 -0.0051389605720095627 -0.0018101666614213717 0 -0.0052747291976528226 -0.0018995343902011297 0 -0.0050736128819793749 -0.0020486011202924923 0 -0.0051799826651312301 -0.0019854394261010662 0 -0.0051389605720095627 -0.0018101666614213717 0 -0.0050736128819793749 -0.0020486011202924923 0 -0.0049999571195847763 -0.0018742614973961732 0 -0.0051389605720095627 -0.0018101666614213717 0 -0.0050736128819793749 -0.0020486011202924923 0 -0.0049998820972705135 -0.0021644612071877027 0 -0.0049999571195847763 -0.0018742614973961732 0 -0.0049999571195847763 -0.0018742614973961732 0 -0.0049999551822154289 -0.001584085557498774 0 -0.0051389605720095627 -0.0018101666614213717 0 -0.0049999551822154289 -0.001584085557498774 0 -0.0051389605720095627 -0.0018101666614213717 0 -0.0051726806938919819 -0.0015214014442200823 0 -0.0051389605720095627 -0.0018101666614213717 0 -0.0052734068847121243 -0.0017486990248800974 0 -0.0051726806938919819 -0.0015214014442200823 0 -0.0051389605720095627 -0.0018101666614213717 0 -0.0052747291976528226 -0.0018995343902011297 0 -0.0052734068847121243 -0.0017486990248800974 0 -0.0052747291976528226 -0.0018995343902011297 0 -0.0052734068847121243 -0.0017486990248800974 0 -0.0054262757323687433 -0.0017854837588678072 0 -0.0053745484270371433 -0.0019920306979252758 0 -0.0052747291976528226 -0.0018995343902011297 0 -0.0054262757323687433 -0.0017854837588678072 0 -0.0053311296518717272 -0.0015803369765099711 0 -0.0054709376797815188 -0.0015797355141480794 0 -0.0054262757323687433 -0.0017854837588678072 0 -0.0052734068847121243 -0.0017486990248800974 0 -0.0053311296518717272 -0.0015803369765099711 0 -0.0054262757323687433 -0.0017854837588678072 0 -0.0052734068847121243 -0.0017486990248800974 0 -0.0053311296518717272 -0.0015803369765099711 0 -0.0051726806938919819 -0.0015214014442200823 0 -0.0053311296518717272 -0.0015803369765099711 0 -0.0052886682492722017 -0.0013656602630085684 0 -0.0051726806938919819 -0.0015214014442200823 0 -0.0053311296518717272 -0.0015803369765099711 0 -0.0054310386258478571 -0.0014167388348179687 0 -0.0054709376797815188 -0.0015797355141480794 0 -0.0053311296518717272 -0.0015803369765099711 0 -0.0054310386258478571 -0.0014167388348179687 0 -0.0052886682492722017 -0.0013656602630085684 0 -0.0054310386258478571 -0.0014167388348179687 0 -0.0052886682492722017 -0.0013656602630085684 0 -0.0054063862174982711 -0.0012261431449099986 0 -0.0052886682492722017 -0.0013656602630085684 0 -0.0051590179639861592 -0.001296304463871694 0 -0.0051726806938919819 -0.0015214014442200823 0 -0.0051590179639861592 -0.001296304463871694 0 -0.004999968957248838 -0.0012939214860620291 0 -0.0051726806938919819 -0.0015214014442200823 0 -0.0049999551822154289 -0.001584085557498774 0 -0.004999968957248838 -0.0012939214860620291 0 -0.0051726806938919819 -0.0015214014442200823 0 -0.0056855334145937998 -0.0015641407214171375 0 -0.0057962080538725806 -0.0015315595193891374 0 -0.0057342302134843915 -0.0016676626895830689 0 -0.0056855334145937998 -0.0015641407214171375 0 -0.0055877783134738587 -0.0016484600784587703 0 -0.0057342302134843915 -0.0016676626895830689 0 -0.0057962080538725806 -0.0015315595193891374 0 -0.0057342302134843915 -0.0016676626895830689 0 -0.0058370559580964102 -0.0016908203333649305 0 -0.0057962080538725806 -0.0015315595193891374 0 -0.0058004057172499736 -0.0014696367350170703 0 -0.0058274185546406676 -0.0014050609984275083 0 -0.0057962080538725806 -0.0015315595193891374 0 -0.0057138650736740203 -0.001446830661330649 0 -0.0058274185546406676 -0.0014050609984275083 0 -0.0056855334145937998 -0.0015641407214171375 0 -0.0057962080538725806 -0.0015315595193891374 0 -0.0057138650736740203 -0.001446830661330649 0 -0.0057138650736740203 -0.001446830661330649 0 -0.0055776264395642943 -0.0015012092550013522 0 -0.0055602714874233971 -0.0013408457139659628 0 -0.0056855334145937998 -0.0015641407214171375 0 -0.0057138650736740203 -0.001446830661330649 0 -0.0055776264395642943 -0.0015012092550013522 0 -0.0054310386258478571 -0.0014167388348179687 0 -0.0055776264395642943 -0.0015012092550013522 0 -0.0055602714874233971 -0.0013408457139659628 0 -0.0054310386258478571 -0.0014167388348179687 0 -0.0055776264395642943 -0.0015012092550013522 0 -0.0054709376797815188 -0.0015797355141480794 0 -0.0055776264395642943 -0.0015012092550013522 0 -0.0054709376797815188 -0.0015797355141480794 0 -0.0055877783134738587 -0.0016484600784587703 0 -0.0056855334145937998 -0.0015641407214171375 0 -0.0055776264395642943 -0.0015012092550013522 0 -0.0055877783134738587 -0.0016484600784587703 0 -0.0055877783134738587 -0.0016484600784587703 0 -0.0056012554974618567 -0.0018009908993862382 0 -0.0057342302134843915 -0.0016676626895830689 0 -0.0055877783134738587 -0.0016484600784587703 0 -0.0054262757323687433 -0.0017854837588678072 0 -0.0056012554974618567 -0.0018009908993862382 0 -0.0054709376797815188 -0.0015797355141480794 0 -0.0055877783134738587 -0.0016484600784587703 0 -0.0054262757323687433 -0.0017854837588678072 0 -0.0053745484270371433 -0.0019920306979252758 0 -0.0054262757323687433 -0.0017854837588678072 0 -0.0054937303537092638 -0.0019255188750194252 0 -0.0054262757323687433 -0.0017854837588678072 0 -0.0056012554974618567 -0.0018009908993862382 0 -0.0054937303537092638 -0.0019255188750194252 0 -0.0056012554974618567 -0.0018009908993862382 0 -0.0054937303537092638 -0.0019255188750194252 0 -0.005598016214602714 -0.0019651745390532483 0 -0.0056012554974618567 -0.0018009908993862382 0 -0.0057339588457728224 -0.0018229558592358713 0 -0.005598016214602714 -0.0019651745390532483 0 -0.0056012554974618567 -0.0018009908993862382 0 -0.0057339588457728224 -0.0018229558592358713 0 -0.0057342302134843915 -0.0016676626895830689 0 -0.0057339588457728224 -0.0018229558592358713 0 -0.0057342302134843915 -0.0016676626895830689 0 -0.0058370559580964102 -0.0016908203333649305 0 -0.0057339588457728224 -0.0018229558592358713 0 -0.0058626884507103245 -0.0019021506108907705 0 -0.0058370559580964102 -0.0016908203333649305 0 -0.0057223093604613119 -0.0019985068525893105 0 -0.0057898065758271045 -0.002169809232782293 0 -0.0058626884507103245 -0.0019021506108907705 0 -0.0057339588457728224 -0.0018229558592358713 0 -0.0057223093604613119 -0.0019985068525893105 0 -0.0058626884507103245 -0.0019021506108907705 0 -0.0057339588457728224 -0.0018229558592358713 0 -0.0057223093604613119 -0.0019985068525893105 0 -0.005598016214602714 -0.0019651745390532483 0 -0.0057223093604613119 -0.0019985068525893105 0 -0.005598016214602714 -0.0019651745390532483 0 -0.0056023400413836031 -0.0021956198871103689 0 -0.0057223093604613119 -0.0019985068525893105 0 -0.0057898065758271045 -0.002169809232782293 0 -0.0056023400413836031 -0.0021956198871103689 0 -0.0053745484270371433 -0.0019920306979252758 0 -0.0054937303537092638 -0.0019255188750194252 0 -0.0054652147985227613 -0.0020921123013131295 0 -0.0054937303537092638 -0.0019255188750194252 0 -0.005598016214602714 -0.0019651745390532483 0 -0.0054652147985227613 -0.0020921123013131295 0 -0.005598016214602714 -0.0019651745390532483 0 -0.0054652147985227613 -0.0020921123013131295 0 -0.0056023400413836031 -0.0021956198871103689 0 -0.0054652147985227613 -0.0020921123013131295 0 -0.0054833238270237698 -0.0022580871808470368 0 -0.0056023400413836031 -0.0021956198871103689 0 -0.0054652147985227613 -0.0020921123013131295 0 -0.0053807126377491783 -0.0022542714595622853 0 -0.0054833238270237698 -0.0022580871808470368 0 -0.0053377202427335717 -0.0021394861864884565 0 -0.0054652147985227613 -0.0020921123013131295 0 -0.0053807126377491783 -0.0022542714595622853 0 -0.0053704701169644169 -0.0023918691860482905 0 -0.0053807126377491783 -0.0022542714595622853 0 -0.0054833238270237698 -0.0022580871808470368 0 -0.0053704701169644169 -0.0023918691860482905 0 -0.0054833238270237698 -0.0022580871808470368 0 -0.0054787806191713981 -0.002426915722805918 0 -0.0056023400413836031 -0.0021956198871103689 0 -0.0054787806191713981 -0.002426915722805918 0 -0.0056889947650874389 -0.0023362383581740248 0 -0.0054833238270237698 -0.0022580871808470368 0 -0.0056023400413836031 -0.0021956198871103689 0 -0.0054787806191713981 -0.002426915722805918 0 -0.0055906712053270186 -0.0024895412553062124 0 -0.0054787806191713981 -0.002426915722805918 0 -0.0056889947650874389 -0.0023362383581740248 0 -0.0055220087179388951 -0.0026353694489141023 0 -0.0054230749136290135 -0.0026780991959130039 0 -0.0054787806191713981 -0.002426915722805918 0 -0.0056191179750894431 -0.0026079646593864434 0 -0.0054493544153853823 -0.0024199979690453081 0 -0.0054230749136290135 -0.0026780991959130039 0 -0.0054787806191713981 -0.002426915722805918 0 -0.0053462355788278532 -0.0025864076573473933 0 -0.0053704701169644169 -0.0023918691860482905 0 -0.0054787806191713981 -0.002426915722805918 0 -0.0053462355788278532 -0.0025864076573473933 0 -0.0057898065758271045 -0.002169809232782293 0 -0.0056889947650874389 -0.0023362383581740248 0 -0.0058439057152091262 -0.0023614265655144432 0 -0.0057898065758271045 -0.002169809232782293 0 -0.0056023400413836031 -0.0021956198871103689 0 -0.0056889947650874389 -0.0023362383581740248 0 -0.0055906712053270186 -0.0024895412553062124 0 -0.0056889947650874389 -0.0023362383581740248 0 -0.0057078553983646108 -0.0024447509773791202 0 -0.0057050216154128927 -0.0025927267052849416 0 -0.0057078553983646108 -0.0024447509773791202 0 -0.0058439057152091262 -0.0023614265655144432 0 -0.0056889947650874389 -0.0023362383581740248 0 -0.0057078553983646108 -0.0024447509773791202 0 -0.0058439057152091262 -0.0023614265655144432 0 -0.0036647661767265976 -0.0022403140177142543 0 -0.003756031369660795 -0.0022027103567766183 0 -0.0037447026267343839 -0.0022854240710671152 0 -0.0036847295487752183 -0.0023375873514837058 0 -0.0036647661767265976 -0.0022403140177142543 0 -0.0037447026267343839 -0.0022854240710671152 0 -0.0036647661767265976 -0.0022403140177142543 0 -0.003756031369660795 -0.0022027103567766183 0 -0.0037142944857029695 -0.0021177088173278576 0 -0.0057898065758271045 -0.002169809232782293 0 -0.0058439057152091262 -0.0023614265655144432 0 -0.0059488122889962362 -0.0021094834146203429 0 -0.0046735212672595486 -0.0023005341636661999 0 -0.0048458838148391151 -0.0021102267626472043 0 -0.003756031369660795 -0.0022027103567766183 0 -0.003816429626317305 -0.0021416757460373326 0 -0.0037142944857029695 -0.0021177088173278576 0 -0.003756031369660795 -0.0022027103567766183 0 -0.0037447026267343839 -0.0022854240710671152 0 -0.0038139520220593945 -0.002266195400063605 0 -0.0038139520220593945 -0.002266195400063605 0 -0.0038870266720018158 -0.0022613819067656784 0 -0.003816429626317305 -0.0021416757460373326 0 -0.0038636396171805305 -0.0023562246122651766 0 -0.0038139520220593945 -0.002266195400063605 0 -0.0038870266720018158 -0.0022613819067656784 0 -0.0038870266720018158 -0.0022613819067656784 0 -0.003816429626317305 -0.0021416757460373326 0 -0.0039305846600264276 -0.0021662037163358194 0 -0.003756031369660795 -0.0022027103567766183 0 -0.0038139520220593945 -0.002266195400063605 0 -0.003816429626317305 -0.0021416757460373326 0 -0.003816429626317305 -0.0021416757460373326 0 -0.0038658339789945178 -0.0020085237371974475 0 -0.0039305846600264276 -0.0021662037163358194 0 -0.0038678738717562396 -0.002014989867849812 0 -0.003898744143169576 -0.002120981693692861 0 -0.003816429626317305 -0.0021416757460373326 0 -0.0038658339789945178 -0.0020085237371974475 0 -0.0037679482749160961 -0.0019809813487914312 0 -0.0060089808897072217 -0.0018877350328251811 0 -0.0058626884507103245 -0.0019021506108907705 0 -0.0059488122889962362 -0.0021094834146203429 0 -0.0048709454521223012 -0.0019413592252311891 0 -0.0048458838148391151 -0.0021102267626472043 0 -0.0057898065758271045 -0.002169809232782293 0 -0.0058626884507103245 -0.0019021506108907705 0 -0.0059488122889962362 -0.0021094834146203429 0 -0.003816429626317305 -0.0021416757460373326 0 -0.0037679482749160961 -0.0019809813487914312 0 -0.0037142944857029695 -0.0021177088173278576 0 -0.003978234192560254 -0.0020784653549378064 0 -0.0039803707997226861 -0.0020946201404686057 0 -0.0039782772365580081 -0.0020743930528552951 0 -0.003978234192560254 -0.0020784653549378064 0 -0.0039680737947900158 -0.0020764391289719098 0 -0.0039662415352443641 -0.002076738615641787 0 -0.003978234192560254 -0.0020784653549378064 0 -0.0039680737947900158 -0.0020764391289719098 0 -0.0039803707997226861 -0.0020946201404686057 0 -0.0039680737947900158 -0.0020764391289719098 0 -0.003978007104897447 -0.0020846312809475092 0 -0.0039562772407856486 -0.0020626093787791907 0 -0.0039864080263699656 -0.0020870165410525102 0 -0.0039562772407856486 -0.0020626093787791907 0 -0.003959914911348862 -0.0020299026685488154 0 -0.0039864080263699656 -0.0020870165410525102 0 -0.003978007104897447 -0.0020846312809475092 0 -0.0039562772407856486 -0.0020626093787791907 0 -0.0039864080263699656 -0.0020870165410525102 0 -0.003978007104897447 -0.0020846312809475092 0 -0.0039807979155755315 -0.0021083482174587063 0 -0.003978007104897447 -0.0020846312809475092 0 -0.0039803707997226861 -0.0020946201404686057 0 -0.0039807979155755315 -0.0021083482174587063 0 -0.0039680737947900158 -0.0020764391289719098 0 -0.003978007104897447 -0.0020846312809475092 0 -0.0039803707997226861 -0.0020946201404686057 0 -0.0039803707997226861 -0.0020946201404686057 0 -0.0039654546497926582 -0.0021387769853061954 0 -0.0039656661249649538 -0.0020895026770796506 0 -0.0039654546497926582 -0.0021387769853061954 0 -0.0039656661249649538 -0.0020895026770796506 0 -0.0039336980886148553 -0.0021009209900237883 0 -0.0039803707997226861 -0.0020946201404686057 0 -0.0039807979155755315 -0.0021083482174587063 0 -0.0039654546497926582 -0.0021387769853061954 0 -0.0039804204858351214 -0.0021302182735304441 0 -0.0039807979155755315 -0.0021083482174587063 0 -0.0039654546497926582 -0.0021387769853061954 0 -0.0039803707997226861 -0.0020946201404686057 0 -0.0039656661249649538 -0.0020895026770796506 0 -0.0039782772365580081 -0.0020743930528552951 0 -0.0039656661249649538 -0.0020895026770796506 0 -0.0039782772365580081 -0.0020743930528552951 0 -0.0039489619483902821 -0.0020570645161810406 0 -0.0039336980886148553 -0.0021009209900237883 0 -0.0039093409535886975 -0.0021418759460350338 0 -0.0038715679605830513 -0.0020753757775867692 0 -0.0039336980886148553 -0.0021009209900237883 0 -0.0038715679605830513 -0.0020753757775867692 0 -0.0039489619483902821 -0.0020570645161810406 0 -0.0039656661249649538 -0.0020895026770796506 0 -0.0039336980886148553 -0.0021009209900237883 0 -0.0039489619483902821 -0.0020570645161810406 0 -0.0039654546497926582 -0.0021387769853061954 0 -0.0039336980886148553 -0.0021009209900237883 0 -0.0039093409535886975 -0.0021418759460350338 0 -0.0039361470185352429 -0.0022402262529131745 0 -0.0039654546497926582 -0.0021387769853061954 0 -0.0039093409535886975 -0.0021418759460350338 0 -0.003864349994021004 -0.0021982850893597617 0 -0.0039361470185352429 -0.0022402262529131745 0 -0.0039093409535886975 -0.0021418759460350338 0 -0.003914408206951347 -0.0022565127628489247 0 -0.003898744143169576 -0.002120981693692861 0 -0.003864349994021004 -0.0021982850893597617 0 -0.0039093409535886975 -0.0021418759460350338 0 -0.0038715679605830513 -0.0020753757775867692 0 -0.0039602943362917154 -0.0023066869523216491 0 -0.0038870266720018158 -0.0022613819067656784 0 -0.0039305846600264276 -0.0021662037163358194 0 -0.0039602943362917154 -0.0023066869523216491 0 -0.0039050829136104449 -0.0023247565703218877 0 -0.0038870266720018158 -0.0022613819067656784 0 -0.0038715679605830513 -0.0020753757775867692 0 -0.0039024779292291577 -0.0020274157639673701 0 -0.0039489619483902821 -0.0020570645161810406 0 -0.0038658339789945178 -0.0020085237371974475 0 -0.0038715679605830513 -0.0020753757775867692 0 -0.0039024779292291577 -0.0020274157639673701 0 -0.0038658339789945178 -0.0020085237371974475 0 -0.0039024779292291577 -0.0020274157639673701 0 -0.0039017702715340558 -0.0019222550685535154 0 -0.0039024779292291577 -0.0020274157639673701 0 -0.0039498397450538148 -0.0019796140555952621 0 -0.0039017702715340558 -0.0019222550685535154 0 -0.0039024779292291577 -0.0020274157639673701 0 -0.0039498397450538148 -0.0019796140555952621 0 -0.0039489619483902821 -0.0020570645161810406 0 -0.0039782772365580081 -0.0020743930528552951 0 -0.0039489619483902821 -0.0020570645161810406 0 -0.0039861683064509063 -0.0020396452592599621 0 -0.0039498397450538148 -0.0019796140555952621 0 -0.0039861683064509063 -0.0020396452592599621 0 -0.0040052956822512076 -0.0019455876102377166 0 -0.0039498397450538148 -0.0019796140555952621 0 -0.0039489619483902821 -0.0020570645161810406 0 -0.0039861683064509063 -0.0020396452592599621 0 -0.0039861683064509063 -0.0020396452592599621 0 -0.004031096237064262 -0.0020409954038887153 0 -0.0040052956822512076 -0.0019455876102377166 0 -0.0039861683064509063 -0.0020396452592599621 0 -0.004031096237064262 -0.0020409954038887153 0 -0.0039885654609840933 -0.0020703524658920959 0 -0.0039782772365580081 -0.0020743930528552951 0 -0.0039861683064509063 -0.0020396452592599621 0 -0.0039885654609840933 -0.0020703524658920959 0 -0.004031096237064262 -0.0020409954038887153 0 -0.0039885654609840933 -0.0020703524658920959 0 -0.003968365019650393 -0.0020817426962475359 0 -0.003978234192560254 -0.0020784653549378064 0 -0.0039782772365580081 -0.0020743930528552951 0 -0.0039885654609840933 -0.0020703524658920959 0 -0.003978234192560254 -0.0020784653549378064 0 -0.0039885654609840933 -0.0020703524658920959 0 -0.0039662415352443641 -0.002076738615641787 0 -0.0039885654609840933 -0.0020703524658920959 0 -0.003968365019650393 -0.0020817426962475359 0 -0.0039662415352443641 -0.002076738615641787 0 -0.004059695337317086 -0.0018049222170431743 0 -0.0040894328138117155 -0.0019035839919744068 0 -0.0041297846865121423 -0.001781258650990011 0 -0.004059695337317086 -0.0018049222170431743 0 -0.0040052956822512076 -0.0019455876102377166 0 -0.0040894328138117155 -0.0019035839919744068 0 -0.004031096237064262 -0.0020409954038887153 0 -0.0040052956822512076 -0.0019455876102377166 0 -0.0040894328138117155 -0.0019035839919744068 0 -0.0039498397450538148 -0.0019796140555952621 0 -0.0040052956822512076 -0.0019455876102377166 0 -0.0039723788512139955 -0.0018586097491862857 0 -0.004059695337317086 -0.0018049222170431743 0 -0.0040052956822512076 -0.0019455876102377166 0 -0.0039723788512139955 -0.0018586097491862857 0 -0.004059695337317086 -0.0018049222170431743 0 -0.0039723788512139955 -0.0018586097491862857 0 -0.004046002861010263 -0.001715179582867081 0 -0.0039723788512139955 -0.0018586097491862857 0 -0.003896382781644375 -0.0018244233406435029 0 -0.0039611529846211016 -0.0017703822738364089 0 -0.0039498397450538148 -0.0019796140555952621 0 -0.0039723788512139955 -0.0018586097491862857 0 -0.0039017702715340558 -0.0019222550685535154 0 -0.0039723788512139955 -0.0018586097491862857 0 -0.0039017702715340558 -0.0019222550685535154 0 -0.003896382781644375 -0.0018244233406435029 0 -0.003896382781644375 -0.0018244233406435029 0 -0.0038826108140195483 -0.0017340995824661881 0 -0.0039611529846211016 -0.0017703822738364089 0 -0.004482182035679 -0.0015601588196832925 0 -0.0037707901181685643 -0.0017295614024346333 0 -0.0038420850176219936 -0.0016569439222639468 0 -0.0040237716939985043 -0.0016104766166402094 0 -0.0039611529846211016 -0.0017703822738364089 0 -0.0038420850176219936 -0.0016569439222639468 0 -0.0040237716939985043 -0.0016104766166402094 0 -0.0040131763931000241 -0.0014603839578372036 0 -0.004482182035679 -0.0015601588196832925 0 -0.003923842847761835 -0.0014101866487517699 0 -0.0039723788512139955 -0.0018586097491862857 0 -0.0039611529846211016 -0.0017703822738364089 0 -0.004046002861010263 -0.001715179582867081 0 -0.0040237716939985043 -0.0016104766166402094 0 -0.0039611529846211016 -0.0017703822738364089 0 -0.004046002861010263 -0.001715179582867081 0 -0.0040237716939985043 -0.0016104766166402094 0 -0.004046002861010263 -0.001715179582867081 0 -0.0040917056518613064 -0.0016286487672076641 0 -0.004046002861010263 -0.001715179582867081 0 -0.0040979088239746653 -0.001693073137246827 0 -0.0040917056518613064 -0.0016286487672076641 0 -0.0040979088239746653 -0.001693073137246827 0 -0.0040917056518613064 -0.0016286487672076641 0 -0.0041005797082171204 -0.0016372223263249708 0 -0.004059695337317086 -0.0018049222170431743 0 -0.004046002861010263 -0.001715179582867081 0 -0.0040979088239746653 -0.001693073137246827 0 -0.004059695337317086 -0.0018049222170431743 0 -0.0040979088239746653 -0.001693073137246827 0 -0.0041297846865121423 -0.001781258650990011 0 -0.0059475011596862417 -0.0017242340449477363 0 -0.0058370559580964102 -0.0016908203333649305 0 -0.0059026322172584089 -0.0015849258025638167 0 -0.0058626884507103245 -0.0019021506108907705 0 -0.0059475011596862417 -0.0017242340449477363 0 -0.0058370559580964102 -0.0016908203333649305 0 -0.0060089808897072217 -0.0018877350328251811 0 -0.0058626884507103245 -0.0019021506108907705 0 -0.0059475011596862417 -0.0017242340449477363 0 -0.0038658339789945178 -0.0020085237371974475 0 -0.0037679482749160961 -0.0019809813487914312 0 -0.0038211534248319998 -0.0018571848023066335 0 -0.0038658339789945178 -0.0020085237371974475 0 -0.0039017702715340558 -0.0019222550685535154 0 -0.0038211534248319998 -0.0018571848023066335 0 -0.0048709454521223012 -0.0019413592252311891 0 -0.0050170594698530548 -0.0017859126604666158 0 -0.0060089808897072217 -0.0018877350328251811 0 -0.0059475011596862417 -0.0017242340449477363 0 -0.0060464222959340161 -0.0017130341020529219 0 -0.0039017702715340558 -0.0019222550685535154 0 -0.003896382781644375 -0.0018244233406435029 0 -0.0038211534248319998 -0.0018571848023066335 0 -0.0059475011596862417 -0.0017242340449477363 0 -0.0060464222959340161 -0.0017130341020529219 0 -0.0060015120458333342 -0.0016134928799217229 0 -0.003896382781644375 -0.0018244233406435029 0 -0.0038826108140195483 -0.0017340995824661881 0 -0.0038211534248319998 -0.0018571848023066335 0 -0.0060958723767094861 -0.0015802770296581212 0 -0.0060464222959340161 -0.0017130341020529219 0 -0.0060015120458333342 -0.0016134928799217229 0 -0.004482182035679 -0.0015601588196832925 0 -0.0050170594698530548 -0.0017859126604666158 0 -0.0060958723767094861 -0.0015802770296581212 0 -0.0060015120458333342 -0.0016134928799217229 0 -0.0060062489076370658 -0.0015169271271209572 0 -0.0042682039631788812 -0.00099289877910640925 0 -0.0046164440682191603 -0.0011183482224470273 0 -0.0043559870391016208 -0.0014620002094180703 0 -0.004482182035679 -0.0015601588196832925 0 -0.0054184236297037686 -0.0013298507092210049 0 -0.0060015120458333342 -0.0016134928799217229 0 -0.0060062489076370658 -0.0015169271271209572 0 -0.0059026322172584089 -0.0015849258025638167 0 -0.0060062489076370658 -0.0015169271271209572 0 -0.0059026322172584089 -0.0015849258025638167 0 -0.0058749416280788891 -0.0014528434231199899 0 -0.0059026322172584089 -0.0015849258025638167 0 -0.0058004057172499736 -0.0014696367350170703 0 -0.0058749416280788891 -0.0014528434231199899 0 -0.0059475011596862417 -0.0017242340449477363 0 -0.0060015120458333342 -0.0016134928799217229 0 -0.0059026322172584089 -0.0015849258025638167 0 -0.0057962080538725806 -0.0015315595193891374 0 -0.0058370559580964102 -0.0016908203333649305 0 -0.0059026322172584089 -0.0015849258025638167 0 -0.0057962080538725806 -0.0015315595193891374 0 -0.0059026322172584089 -0.0015849258025638167 0 -0.0058004057172499736 -0.0014696367350170703 0 -0.0058004057172499736 -0.0014696367350170703 0 -0.0056711437390069286 -0.0014901484163885358 0 -0.0058749416280788891 -0.0014528434231199899 0 -0.0058004057172499736 -0.0014696367350170703 0 -0.0057754995870759286 -0.001462649602741286 0 -0.0056711437390069286 -0.0014901484163885358 0 -0.0057754995870759286 -0.001462649602741286 0 -0.0056711437390069286 -0.0014901484163885358 0 -0.005754118511782611 -0.0015797019563824107 0 -0.0056711437390069286 -0.0014901484163885358 0 -0.0055551590293527594 -0.0017756815927615942 0 -0.0052887582363402141 -0.0017834880383187028 0 -0.0056711437390069286 -0.0014901484163885358 0 -0.005754118511782611 -0.0015797019563824107 0 -0.0055551590293527594 -0.0017756815927615942 0 -0.0056711437390069286 -0.0014901484163885358 0 -0.0050947138156571554 -0.0015709510104514319 0 -0.0052887582363402141 -0.0017834880383187028 0 -0.0056711437390069286 -0.0014901484163885358 0 -0.0050947138156571554 -0.0015709510104514319 0 -0.0050764362698353356 -0.0012483987185596475 0 -0.0056766253967736801 -0.0014889564837432775 0 -0.0054690906442856624 -0.0013610476787351575 0 -0.0054184236297037686 -0.0013298507092210049 0 -0.0054690906442856624 -0.0013610476787351575 0 -0.0046164440682191603 -0.0011183482224470273 0 -0.0050764362698353356 -0.0012483987185596475 0 -0.0047130367039295122 -0.0014219057219713525 0 -0.0046164440682191603 -0.0011183482224470273 0 -0.0047130367039295122 -0.0014219057219713525 0 -0.0043559870391016208 -0.0014620002094180703 0 -0.0043559870391016208 -0.0014620002094180703 0 -0.0046990107633299982 -0.0017272467255800695 0 -0.0044028444569127745 -0.0019655105280263611 0 -0.0047130367039295122 -0.0014219057219713525 0 -0.0043559870391016208 -0.0014620002094180703 0 -0.0046990107633299982 -0.0017272467255800695 0 -0.0050947138156571554 -0.0015709510104514319 0 -0.0046990107633299982 -0.0017272467255800695 0 -0.0049856417889993891 -0.001876605611456822 0 -0.0050947138156571554 -0.0015709510104514319 0 -0.0047130367039295122 -0.0014219057219713525 0 -0.0046990107633299982 -0.0017272467255800695 0 -0.0050947138156571554 -0.0015709510104514319 0 -0.0050764362698353356 -0.0012483987185596475 0 -0.0047130367039295122 -0.0014219057219713525 0 -0.0046990107633299982 -0.0017272467255800695 0 -0.0049856417889993891 -0.001876605611456822 0 -0.0047507918888169982 -0.0020256843792551995 0 -0.0049856417889993891 -0.001876605611456822 0 -0.0047507918888169982 -0.0020256843792551995 0 -0.0051305037534014591 -0.0021883144889023342 0 -0.0046990107633299982 -0.0017272467255800695 0 -0.0047507918888169982 -0.0020256843792551995 0 -0.0044028444569127745 -0.0019655105280263611 0 -0.0047507918888169982 -0.0020256843792551995 0 -0.0044028444569127745 -0.0019655105280263611 0 -0.0045920976350962471 -0.0024288561698313812 0 -0.0044028444569127745 -0.0019655105280263611 0 -0.0042851897109819287 -0.0023535235031904864 0 -0.0045920976350962471 -0.0024288561698313812 0 -0.0047507918888169982 -0.0020256843792551995 0 -0.0051305037534014591 -0.0021883144889023342 0 -0.0045920976350962471 -0.0024288561698313812 0 -0.0049144597931137044 0.00091660768913372659 0 -0.0048019846287587521 0.00068868591573898765 0 -0.0044682021038994837 0.0006904074366787771 0 -0.005029199311297328 -0.00064501225029270273 0 -0.0045191239258856371 -0.00088789652745598893 0 -0.0049144597931137044 0.00091660768913372659 0 -0.0051645507719544686 0.0008728639283222294 0 -0.0048019846287587521 0.00068868591573898765 0 -0.0049144597931137044 0.00091660768913372659 0 -0.0051645507719544686 0.0008728639283222294 0 -0.0052642372999513109 0.0010352230762125483 0 -0.0051645507719544686 0.0008728639283222294 0 -0.0052642372999513109 0.0010352230762125483 0 -0.0052057416301718893 0.00076282209787846957 0 -0.005441116830070359 9.6284363696016556e-05 0 -0.005426601837627964 0.00011088942433991106 0 -0.0054345660025459271 0.00010449382588637265 0 -0.005449855223433016 -0.0003159665809466379 0 -0.0053239412735598323 0.00063018088355218718 0 -0.0051305037534014591 -0.0021883144889023342 0 -0.0057312524014461359 -0.0018616040718624203 0 -0.0055551590293527594 -0.0017756815927615942 0 -0.005029199311297328 -0.00064501225029270273 0 -0.005449855223433016 -0.0003159665809466379 0 -0.0057370157172388792 -0.0017962629136482982 0 -0.0057446288178074493 -0.0017504017880150332 0 -0.0058094173864069194 -0.0016646698772974839 0 -0.005754118511782611 -0.0015797019563824107 0 -0.0057446288178074493 -0.0017504017880150332 0 -0.0055551590293527594 -0.0017756815927615942 0 -0.0057312524014461359 -0.0018616040718624203 0 -0.0057446288178074493 -0.0017504017880150332 0 -0.0055551590293527594 -0.0017756815927615942 0 -0.005449855223433016 -0.0003159665809466379 0 -0.0053998246639920732 -0.00090347790406718762 0 -0.0049856417889993891 -0.001876605611456822 0 -0.0051305037534014591 -0.0021883144889023342 0 -0.0052887582363402141 -0.0017834880383187028 0 -0.0051305037534014591 -0.0021883144889023342 0 -0.0055551590293527594 -0.0017756815927615942 0 -0.0052887582363402141 -0.0017834880383187028 0 -0.0050947138156571554 -0.0015709510104514319 0 -0.0049856417889993891 -0.001876605611456822 0 -0.0052887582363402141 -0.0017834880383187028 0 -0.004202177263545423 -0.0016238233360061026 0 -0.0040917056518613064 -0.0016286487672076641 0 -0.0041005797082171204 -0.0016372223263249708 0 -0.0040237716939985043 -0.0016104766166402094 0 -0.0040917056518613064 -0.0016286487672076641 0 -0.0040493268049343152 -0.0015685273705708831 0 -0.004202177263545423 -0.0016238233360061026 0 -0.0040493268049343152 -0.0015685273705708831 0 -0.0040925683697309798 -0.0014901435020185315 0 -0.004202177263545423 -0.0016238233360061026 0 -0.0040917056518613064 -0.0016286487672076641 0 -0.0040493268049343152 -0.0015685273705708831 0 -0.0040493268049343152 -0.0015685273705708831 0 -0.0040131763931000241 -0.0014603839578372036 0 -0.0040263506233129574 -0.001641181404503107 0 -0.0040493268049343152 -0.0015685273705708831 0 -0.0040263506233129574 -0.001641181404503107 0 -0.0040925683697309798 -0.0014901435020185315 0 -0.0040237716939985043 -0.0016104766166402094 0 -0.0040493268049343152 -0.0015685273705708831 0 -0.0040131763931000241 -0.0014603839578372036 0 -0.0042682039631788812 -0.00099289877910640925 0 -0.0043559870391016208 -0.0014620002094180703 0 -0.0040131763931000241 -0.0014603839578372036 0 -0.0043559870391016208 -0.0014620002094180703 0 -0.0044028444569127745 -0.0019655105280263611 0 -0.0040263506233129574 -0.001641181404503107 0 -0.0043559870391016208 -0.0014620002094180703 0 -0.0040131763931000241 -0.0014603839578372036 0 -0.0040263506233129574 -0.001641181404503107 0 -0.0040263506233129574 -0.001641181404503107 0 -0.0038388781692691798 -0.001295144261048756 0 -0.0040261119541693353 -0.0013089201978282153 0 -0.0044028444569127745 -0.0019655105280263611 0 -0.0040263506233129574 -0.001641181404503107 0 -0.0040685199737761886 -0.0021941950449261907 0 -0.0040087648106710587 -0.0015683542458397775 0 -0.0039475476761395524 -0.0019085426037793196 0 -0.0044028444569127745 -0.0019655105280263611 0 -0.0042851897109819287 -0.0023535235031904864 0 -0.0040685199737761886 -0.0021941950449261907 0 -0.0040261119541693353 -0.0013089201978282153 0 -0.0041551675762483723 -0.0011004581672552848 0 -0.0039225758256978254 -0.0010820991419229098 0 -0.0038388781692691798 -0.001295144261048756 0 -0.0040261119541693353 -0.0013089201978282153 0 -0.0039225758256978254 -0.0010820991419229098 0 -0.0040263506233129574 -0.001641181404503107 0 -0.0040261119541693353 -0.0013089201978282153 0 -0.0040925683697309798 -0.0014901435020185315 0 -0.0040261119541693353 -0.0013089201978282153 0 -0.0040925683697309798 -0.0014901435020185315 0 -0.0041551675762483723 -0.0011004581672552848 0 -0.0040925683697309798 -0.0014901435020185315 0 -0.0043062406445332638 -0.0012256470678108581 0 -0.0041551675762483723 -0.0011004581672552848 0 -0.004202177263545423 -0.0016238233360061026 0 -0.0043062406445332638 -0.0012256470678108581 0 -0.004566572046968617 -0.0012194969420712899 0 -0.004202177263545423 -0.0016238233360061026 0 -0.0040925683697309798 -0.0014901435020185315 0 -0.0043062406445332638 -0.0012256470678108581 0 -0.0043307958986735211 -0.00070594074964153608 0 -0.0044571017182818713 -0.0007788073286592133 0 -0.0044650821191977892 -0.00062115298087920157 0 -0.0043307958986735211 -0.00070594074964153608 0 -0.0043397828081074069 -0.00055363026670163316 0 -0.0044650821191977892 -0.00062115298087920157 0 -0.0043307958986735211 -0.00070594074964153608 0 -0.0044571017182818713 -0.0007788073286592133 0 -0.0043427054897073316 -0.00089003004660673148 0 -0.0043062406445332638 -0.0012256470678108581 0 -0.0043427054897073316 -0.00089003004660673148 0 -0.0045234438300659954 -0.00094444890408854629 0 -0.0044571017182818713 -0.0007788073286592133 0 -0.0043427054897073316 -0.00089003004660673148 0 -0.0045234438300659954 -0.00094444890408854629 0 -0.0043062406445332638 -0.0012256470678108581 0 -0.0045234438300659954 -0.00094444890408854629 0 -0.004566572046968617 -0.0012194969420712899 0 -0.0043427054897073316 -0.00089003004660673148 0 -0.0041551675762483723 -0.0011004581672552848 0 -0.0041963256442677614 -0.0008216171418864058 0 -0.0043062406445332638 -0.0012256470678108581 0 -0.0043427054897073316 -0.00089003004660673148 0 -0.0041551675762483723 -0.0011004581672552848 0 -0.0041551675762483723 -0.0011004581672552848 0 -0.0041963256442677614 -0.0008216171418864058 0 -0.0040297121839232156 -0.000878317933403983 0 -0.0041963256442677614 -0.0008216171418864058 0 -0.0041344149201379262 -0.00067993114407781255 0 -0.0040297121839232156 -0.000878317933403983 0 -0.0043307958986735211 -0.00070594074964153608 0 -0.0043427054897073316 -0.00089003004660673148 0 -0.0041963256442677614 -0.0008216171418864058 0 -0.0043307958986735211 -0.00070594074964153608 0 -0.0041963256442677614 -0.0008216171418864058 0 -0.0042283502318476596 -0.00059283920822533916 0 -0.0043307958986735211 -0.00070594074964153608 0 -0.0042283502318476596 -0.00059283920822533916 0 -0.0043397828081074069 -0.00055363026670163316 0 -0.0041963256442677614 -0.0008216171418864058 0 -0.0041344149201379262 -0.00067993114407781255 0 -0.0042283502318476596 -0.00059283920822533916 0 -0.0041344149201379262 -0.00067993114407781255 0 -0.0040338476624877193 -0.00064032862329360533 0 -0.0041179260383505927 -0.0004822943880635015 0 -0.0040338476624877193 -0.00064032862329360533 0 -0.0039234143874455384 -0.00064316273729202579 0 -0.0040126669718584945 -0.00042892023409197362 0 -0.0040338476624877193 -0.00064032862329360533 0 -0.0039515638810442297 -0.00078592142164941165 0 -0.0039234143874455384 -0.00064316273729202579 0 -0.0040338476624877193 -0.00064032862329360533 0 -0.0039515638810442297 -0.00078592142164941165 0 -0.0040297121839232156 -0.000878317933403983 0 -0.0039515638810442297 -0.00078592142164941165 0 -0.0040297121839232156 -0.000878317933403983 0 -0.0039071272029736872 -0.00089160931570570758 0 -0.0041344149201379262 -0.00067993114407781255 0 -0.0040338476624877193 -0.00064032862329360533 0 -0.0040297121839232156 -0.000878317933403983 0 -0.0041551675762483723 -0.0011004581672552848 0 -0.0040297121839232156 -0.000878317933403983 0 -0.0039225758256978254 -0.0010820991419229098 0 -0.0040297121839232156 -0.000878317933403983 0 -0.0039225758256978254 -0.0010820991419229098 0 -0.0039071272029736872 -0.00089160931570570758 0 -0.0038388781692691798 -0.001295144261048756 0 -0.0039225758256978254 -0.0010820991419229098 0 -0.0037741227284902863 -0.00087503656866368075 0 -0.0042851897109819287 -0.0023535235031904864 0 -0.0040685199737761886 -0.0021941950449261907 0 -0.0041032370616002536 -0.0026778109704652595 0 -0.0039225758256978254 -0.0010820991419229098 0 -0.0039071272029736872 -0.00089160931570570758 0 -0.0037741227284902863 -0.00087503656866368075 0 -0.0039475476761395524 -0.0019085426037793196 0 -0.0041426903320202733 -0.00097841066776150156 0 -0.0039071272029736872 -0.00089160931570570758 0 -0.0037741227284902863 -0.00087503656866368075 0 -0.0038324513987788677 -0.00083358918328536565 0 -0.0041426903320202733 -0.00097841066776150156 0 -0.0039595250071761427 -2.6630930067418498e-05 0 -0.0037716114447094856 -0.0008676746854226232 0 -0.0038324513987788677 -0.00083358918328536565 0 -0.0038265792573044461 -0.00051591264446982233 0 -0.0040851162513132928 0.00047444674445630065 0 -0.0040896433196252833 0.00021746632927476669 0 -0.0043788245802405439 0.00034231520033115839 0 -0.0039515638810442297 -0.00078592142164941165 0 -0.0038324513987788677 -0.00083358918328536565 0 -0.0039234143874455384 -0.00064316273729202579 0 -0.0041426903320202733 -0.00097841066776150156 0 -0.0040600580178416831 -0.00099086045891362746 0 -0.0039515638810442297 -0.00078592142164941165 0 -0.0039071272029736872 -0.00089160931570570758 0 -0.0038324513987788677 -0.00083358918328536565 0 -0.0038324513987788677 -0.00083358918328536565 0 -0.0039234143874455384 -0.00064316273729202579 0 -0.0038265792573044461 -0.00051591264446982233 0 -0.0038265792573044461 -0.00051591264446982233 0 -0.0040331640847962417 -0.00013748076649958732 0 -0.0040126669718584945 -0.00042892023409197362 0 -0.0039595250071761427 -2.6630930067418498e-05 0 -0.0040113965534923444 -0.00020910983525822832 0 -0.0040896433196252833 0.00021746632927476669 0 -0.0040331640847962417 -0.00013748076649958732 0 -0.0043187728316859148 3.4624324158918152e-05 0 -0.0039234143874455384 -0.00064316273729202579 0 -0.0038265792573044461 -0.00051591264446982233 0 -0.0040126669718584945 -0.00042892023409197362 0 -0.0040331640847962417 -0.00013748076649958732 0 -0.004028092580451728 -0.00018803772645872478 0 -0.0040769232728534131 -0.00028800181804287614 0 -0.0040331640847962417 -0.00013748076649958732 0 -0.0041716293359093477 -0.00015270707359136114 0 -0.0043187728316859148 3.4624324158918152e-05 0 -0.0041716293359093477 -0.00015270707359136114 0 -0.004028092580451728 -0.00018803772645872478 0 -0.0040954609872416673 -0.00024342904948183329 0 -0.0040331640847962417 -0.00013748076649958732 0 -0.0041716293359093477 -0.00015270707359136114 0 -0.004028092580451728 -0.00018803772645872478 0 -0.004028092580451728 -0.00018803772645872478 0 -0.0040848023943249089 -0.00020007937539729762 0 -0.0040769232728534131 -0.00028800181804287614 0 -0.0040331640847962417 -0.00013748076649958732 0 -0.0040769232728534131 -0.00028800181804287614 0 -0.0040126669718584945 -0.00042892023409197362 0 -0.0040769232728534131 -0.00028800181804287614 0 -0.0040126669718584945 -0.00042892023409197362 0 -0.0041179260383505927 -0.0004822943880635015 0 -0.0040338476624877193 -0.00064032862329360533 0 -0.0040126669718584945 -0.00042892023409197362 0 -0.0041179260383505927 -0.0004822943880635015 0 -0.0040769232728534131 -0.00028800181804287614 0 -0.0041179260383505927 -0.0004822943880635015 0 -0.0042607119878516021 -0.00040335265538152189 0 -0.0041344149201379262 -0.00067993114407781255 0 -0.0041179260383505927 -0.0004822943880635015 0 -0.0042283502318476596 -0.00059283920822533916 0 -0.0041179260383505927 -0.0004822943880635015 0 -0.0042283502318476596 -0.00059283920822533916 0 -0.0042607119878516021 -0.00040335265538152189 0 -0.0042283502318476596 -0.00059283920822533916 0 -0.0042607119878516021 -0.00040335265538152189 0 -0.0043397828081074069 -0.00055363026670163316 0 -0.0040848023943249089 -0.00020007937539729762 0 -0.0040769232728534131 -0.00028800181804287614 0 -0.0042280392019504592 -0.00022817779539547697 0 -0.0040769232728534131 -0.00028800181804287614 0 -0.0042607119878516021 -0.00040335265538152189 0 -0.0042280392019504592 -0.00022817779539547697 0 -0.0042607119878516021 -0.00040335265538152189 0 -0.0042280392019504592 -0.00022817779539547697 0 -0.0043675358432435111 -0.0003115250482805414 0 -0.0042280392019504592 -0.00022817779539547697 0 -0.0043675358432435111 -0.0003115250482805414 0 -0.0044206267612538616 -0.00017460883674639196 0 -0.0042607119878516021 -0.00040335265538152189 0 -0.0043675358432435111 -0.0003115250482805414 0 -0.0044343207933810096 -0.0004576900971061601 0 -0.0043675358432435111 -0.0003115250482805414 0 -0.0045582934372205642 -0.00032614010695298276 0 -0.0044206267612538616 -0.00017460883674639196 0 -0.0043675358432435111 -0.0003115250482805414 0 -0.0044343207933810096 -0.0004576900971061601 0 -0.0045582934372205642 -0.00032614010695298276 0 -0.0042607119878516021 -0.00040335265538152189 0 -0.0044343207933810096 -0.0004576900971061601 0 -0.0043397828081074069 -0.00055363026670163316 0 -0.0044343207933810096 -0.0004576900971061601 0 -0.0043397828081074069 -0.00055363026670163316 0 -0.0044650821191977892 -0.00062115298087920157 0 -0.0051429460699428204 0.00068890905599453868 0 -0.0049580990745759553 0.00046015136848681821 0 -0.0052722718222957023 0.00053684105881973178 0 -0.0052057416301718893 0.00076282209787846957 0 -0.0051429460699428204 0.00068890905599453868 0 -0.0052722718222957023 0.00053684105881973178 0 -0.0054185882231360533 0.00010556019057884536 0 -0.005426601837627964 0.00011088942433991106 0 -0.0053861471928027069 0.00010893322181895137 0 -0.0053239412735598323 0.00063018088355218718 0 -0.0053185463390037248 0.00026139782585567412 0 -0.0054185882231360533 0.00010556019057884536 0 -0.0053861471928027069 0.00010893322181895137 0 -0.0054146592930369398 9.5050079869671647e-05 0 -0.0054185882231360533 0.00010556019057884536 0 -0.005426601837627964 0.00011088942433991106 0 -0.0054310879837396993 0.00010643293613273558 0 -0.0051645507719544686 0.0008728639283222294 0 -0.0052057416301718893 0.00076282209787846957 0 -0.0051429460699428204 0.00068890905599453868 0 -0.0051624375949273537 0.00086010197864610442 0 -0.0050140502893488313 0.00059267131249287068 0 -0.0051645507719544686 0.0008728639283222294 0 -0.0048875039003993172 0.00047570042614715084 0 -0.0048019846287587521 0.00068868591573898765 0 -0.0048019846287587521 0.00068868591573898765 0 -0.0046163001556236097 0.00048449312854113819 0 -0.0044682021038994837 0.0006904074366787771 0 -0.0048875039003993172 0.00047570042614715084 0 -0.0048019846287587521 0.00068868591573898765 0 -0.0046163001556236097 0.00048449312854113819 0 -0.0046163001556236097 0.00048449312854113819 0 -0.0044682021038994837 0.0006904074366787771 0 -0.0043788245802405439 0.00034231520033115839 0 -0.0041426903320202733 -0.00097841066776150156 0 -0.0045191239258856371 -0.00088789652745598893 0 -0.0040851162513132928 0.00047444674445630065 0 -0.0044682021038994837 0.0006904074366787771 0 -0.0043788245802405439 0.00034231520033115839 0 -0.0042851897109819287 -0.0023535235031904864 0 -0.0041032370616002536 -0.0026778109704652595 0 -0.0045920976350962471 -0.0024288561698313812 0 -0.0048875039003993172 0.00047570042614715084 0 -0.0046163001556236097 0.00048449312854113819 0 -0.0046024882754009781 0.00010793950948094711 0 -0.0046163001556236097 0.00048449312854113819 0 -0.0043788245802405439 0.00034231520033115839 0 -0.0046024882754009781 0.00010793950948094711 0 -0.0050140502893488313 0.00059267131249287068 0 -0.0047718749352018142 0.00027404280177174134 0 -0.0040896433196252833 0.00021746632927476669 0 -0.0043788245802405439 0.00034231520033115839 0 -0.0043187728316859148 3.4624324158918152e-05 0 -0.0043788245802405439 0.00034231520033115839 0 -0.0046024882754009781 0.00010793950948094711 0 -0.0043187728316859148 3.4624324158918152e-05 0 -0.0046024882754009781 0.00010793950948094711 0 -0.0043187728316859148 3.4624324158918152e-05 0 -0.0044708683409974683 -0.00010724526032068801 0 -0.0041716293359093477 -0.00015270707359136114 0 -0.0043187728316859148 3.4624324158918152e-05 0 -0.0044708683409974683 -0.00010724526032068801 0 -0.0049580990745759553 0.00046015136848681821 0 -0.0044708683409974683 -0.00010724526032068801 0 -0.0050106746971201226 0.00015213751526287051 0 -0.0044708683409974683 -0.00010724526032068801 0 -0.0050106746971201226 0.00015213751526287051 0 -0.0050970724256342078 -0.00013080676868595906 0 -0.0047718749352018142 0.00027404280177174134 0 -0.0044921683892423635 -9.5211179064333301e-05 0 -0.0050106746971201226 0.00015213751526287051 0 -0.005280094440092792 4.0926588141690969e-05 0 -0.0052722718222957023 0.00053684105881973178 0 -0.0050106746971201226 0.00015213751526287051 0 -0.005280094440092792 4.0926588141690969e-05 0 -0.0050970724256342078 -0.00013080676868595906 0 -0.0049580990745759553 0.00046015136848681821 0 -0.0050106746971201226 0.00015213751526287051 0 -0.0052722718222957023 0.00053684105881973178 0 -0.0052828015749790671 6.7600361021452428e-05 0 -0.0053185463390037248 0.00026139782585567412 0 -0.0053861471928027069 0.00010893322181895137 0 -0.0054146592930369398 9.5050079869671647e-05 0 -0.0054021613227892926 7.341053351414049e-05 0 -0.005280094440092792 4.0926588141690969e-05 0 -0.0053861471928027069 0.00010893322181895137 0 -0.0054021613227892926 7.341053351414049e-05 0 -0.0054021613227892926 7.341053351414049e-05 0 -0.0054278440928413199 4.8706783986176838e-05 0 -0.0053750721949793155 3.0399994552987253e-05 0 -0.005280094440092792 4.0926588141690969e-05 0 -0.0054021613227892926 7.341053351414049e-05 0 -0.0053750721949793155 3.0399994552987253e-05 0 -0.0054021613227892926 7.341053351414049e-05 0 -0.0054568288365520598 5.6712496070807677e-05 0 -0.0054356241065248272 7.7646261459240497e-05 0 -0.0054021613227892926 7.341053351414049e-05 0 -0.0054278440928413199 4.8706783986176838e-05 0 -0.0054568288365520598 5.6712496070807677e-05 0 -0.0054568288365520598 5.6712496070807677e-05 0 -0.0054772192139236368 4.1346724293206086e-05 0 -0.0054779324406164058 5.9616680022643698e-05 0 -0.0054568288365520598 5.6712496070807677e-05 0 -0.0054578610031612634 6.119725653495073e-05 0 -0.0054772192139236368 4.1346724293206086e-05 0 -0.0054568288365520598 5.6712496070807677e-05 0 -0.0054578610031612634 6.119725653495073e-05 0 -0.0054356241065248272 7.7646261459240497e-05 0 -0.0054578610031612634 6.119725653495073e-05 0 -0.0054356241065248272 7.7646261459240497e-05 0 -0.0054344680366075707 9.5385689381402965e-05 0 -0.0054146592930369398 9.5050079869671647e-05 0 -0.0054356241065248272 7.7646261459240497e-05 0 -0.0054344680366075707 9.5385689381402965e-05 0 -0.0054146592930369398 9.5050079869671647e-05 0 -0.0054021613227892926 7.341053351414049e-05 0 -0.0054356241065248272 7.7646261459240497e-05 0 -0.0054185882231360533 0.00010556019057884536 0 -0.0054146592930369398 9.5050079869671647e-05 0 -0.0054344680366075707 9.5385689381402965e-05 0 -0.0054185882231360533 0.00010556019057884536 0 -0.0054344680366075707 9.5385689381402965e-05 0 -0.0054310879837396993 0.00010643293613273558 0 -0.0054578610031612634 6.119725653495073e-05 0 -0.0054344680366075707 9.5385689381402965e-05 0 -0.0054559284334785964 8.7913605562169213e-05 0 -0.0054344680366075707 9.5385689381402965e-05 0 -0.0054559284334785964 8.7913605562169213e-05 0 -0.0054428609368181698 0.00010072784296644635 0 -0.0054428609368181698 0.00010072784296644635 0 -0.0054575315464332579 0.00010254394432045363 0 -0.0054386285512471625 0.0001046769407080112 0 -0.0054559284334785964 8.7913605562169213e-05 0 -0.0054428609368181698 0.00010072784296644635 0 -0.0054575315464332579 0.00010254394432045363 0 -0.0054428609368181698 0.00010072784296644635 0 -0.0054310879837396993 0.00010643293613273558 0 -0.0054386285512471625 0.0001046769407080112 0 -0.005426601837627964 0.00011088942433991106 0 -0.0054310879837396993 0.00010643293613273558 0 -0.0054345660025459271 0.00010449382588637265 0 -0.0054344680366075707 9.5385689381402965e-05 0 -0.0054428609368181698 0.00010072784296644635 0 -0.0054310879837396993 0.00010643293613273558 0 -0.005502331900296537 -0.00051766683864137408 0 -0.0053262646984304695 -0.00060547504570168035 0 -0.0054945747913436403 -0.00079706258042230036 0 -0.005502331900296537 -0.00051766683864137408 0 -0.0057243417146426575 -0.00057972881238468779 0 -0.0054945747913436403 -0.00079706258042230036 0 -0.0055960167170496754 -0.00025704813959765793 0 -0.0055533258190135978 -0.00011806269114772394 0 -0.0054559284334785964 8.7913605562169213e-05 0 -0.0054575315464332579 0.00010254394432045363 0 -0.0054857872333817894 7.3255671012503011e-05 0 -0.0054578610031612634 6.119725653495073e-05 0 -0.0054559284334785964 8.7913605562169213e-05 0 -0.0054857872333817894 7.3255671012503011e-05 0 -0.005502331900296537 -0.00051766683864137408 0 -0.0057243417146426575 -0.00057972881238468779 0 -0.0056347965506735372 -0.00031548788461599285 0 -0.005502331900296537 -0.00051766683864137408 0 -0.0056347965506735372 -0.00031548788461599285 0 -0.0054113666573529211 -0.00027623253135845583 0 -0.0055533258190135978 -0.00011806269114772394 0 -0.0055008712294666211 -3.3613419802799177e-05 0 -0.0056347965506735372 -0.00031548788461599285 0 -0.0054903247163014968 -2.7788853270691593e-05 0 -0.0054113666573529211 -0.00027623253135845583 0 -0.0054578610031612634 6.119725653495073e-05 0 -0.0054770558250369803 3.1077384419475867e-05 0 -0.0054772192139236368 4.1346724293206086e-05 0 -0.0054578610031612634 6.119725653495073e-05 0 -0.0054857872333817894 7.3255671012503011e-05 0 -0.0054770558250369803 3.1077384419475867e-05 0 -0.0054857872333817894 7.3255671012503011e-05 0 -0.0054770558250369803 3.1077384419475867e-05 0 -0.0054903247163014968 -2.7788853270691593e-05 0 -0.0054770558250369803 3.1077384419475867e-05 0 -0.0054855749330121233 2.4785763420686551e-05 0 -0.0054772192139236368 4.1346724293206086e-05 0 -0.0054770558250369803 3.1077384419475867e-05 0 -0.0054855749330121233 2.4785763420686551e-05 0 -0.0054903247163014968 -2.7788853270691593e-05 0 -0.0054855749330121233 2.4785763420686551e-05 0 -0.0054772192139236368 4.1346724293206086e-05 0 -0.0054822574946929983 6.8325401756013285e-05 0 -0.0054903247163014968 -2.7788853270691593e-05 0 -0.0052996346129280895 -6.0072551861925322e-05 0 -0.0054679621281469694 6.2662943005374001e-05 0 -0.0054855749330121233 2.4785763420686551e-05 0 -0.0054903247163014968 -2.7788853270691593e-05 0 -0.0054679621281469694 6.2662943005374001e-05 0 -0.0053280941323833198 -4.4823925144256946e-05 0 -0.0054627114731599421 5.3990468193077159e-05 0 -0.0053526585114771182 -2.7382001025235076e-05 0 -0.0051977581992373421 -0.00015983945003628959 0 -0.005196229918558881 8.3944610930953756e-05 0 -0.0053280941323833198 -4.4823925144256946e-05 0 -0.0051479281225626878 -0.00019600970650733023 0 -0.0052996346129280895 -6.0072551861925322e-05 0 -0.0050985959896377372 -0.00023537603268178605 0 -0.0052434215558865597 -0.00031920613927805062 0 -0.0054903247163014968 -2.7788853270691593e-05 0 -0.0052996346129280895 -6.0072551861925322e-05 0 -0.0054113666573529211 -0.00027623253135845583 0 -0.0052996346129280895 -6.0072551861925322e-05 0 -0.0054113666573529211 -0.00027623253135845583 0 -0.0052434215558865597 -0.00031920613927805062 0 -0.0049999762040773875 -4.8139823236475254e-05 0 -0.0050791802254143582 -0.00015178767266144804 0 -0.005196229918558881 8.3944610930953756e-05 0 -0.0051977581992373421 -0.00015983945003628959 0 -0.0050791802254143582 -0.00015178767266144804 0 -0.005196229918558881 8.3944610930953756e-05 0 -0.0050985959896377372 -0.00023537603268178605 0 -0.0049999814096798462 -0.00032009902956211042 0 -0.0050478490112276274 -0.00037075452289626459 0 -0.0051977581992373421 -0.00015983945003628959 0 -0.0050791802254143582 -0.00015178767266144804 0 -0.0049999936685559227 -0.00031984016738611446 0 -0.0049999762040773875 -4.8139823236475254e-05 0 -0.0050791802254143582 -0.00015178767266144804 0 -0.0049999936685559227 -0.00031984016738611446 0 -0.0051479281225626878 -0.00019600970650733023 0 -0.00500001697682352 -0.00031987459638477581 0 -0.0049998608934245957 -0.00042315345567221763 0 -0.0049999814096798462 -0.00032009902956211042 0 -0.0050478490112276274 -0.00037075452289626459 0 -0.0049998608934245957 -0.00042315345567221763 0 -0.0050478490112276274 -0.00037075452289626459 0 -0.0050348981551121006 -0.00047678686184011689 0 -0.0050985959896377372 -0.00023537603268178605 0 -0.0050478490112276274 -0.00037075452289626459 0 -0.0051125092551582915 -0.00041224169621160615 0 -0.0050985959896377372 -0.00023537603268178605 0 -0.0051125092551582915 -0.00041224169621160615 0 -0.0052434215558865597 -0.00031920613927805062 0 -0.0050478490112276274 -0.00037075452289626459 0 -0.0051125092551582915 -0.00041224169621160615 0 -0.0050348981551121006 -0.00047678686184011689 0 -0.005084716892808574 -0.00054376611149293272 0 -0.0052043714938544931 -0.00050220637773051207 0 -0.0051482661822410541 -0.00067565763388871027 0 -0.005084716892808574 -0.00054376611149293272 0 -0.0049700653547398166 -0.0006217586768673569 0 -0.0051482661822410541 -0.00067565763388871027 0 -0.0051125092551582915 -0.00041224169621160615 0 -0.005084716892808574 -0.00054376611149293272 0 -0.0052043714938544931 -0.00050220637773051207 0 -0.0051125092551582915 -0.00041224169621160615 0 -0.005084716892808574 -0.00054376611149293272 0 -0.0050348981551121006 -0.00047678686184011689 0 -0.0049998608934245957 -0.00042315345567221763 0 -0.0050348981551121006 -0.00047678686184011689 0 -0.0049700653547398166 -0.0006217586768673569 0 -0.004999999724686891 -0.00042331641146503871 0 -0.0049999971602029741 -0.00071350729464198382 0 -0.0051014502939183727 -0.00064366856376458993 0 -0.0050000031681936459 -0.0004233800514168706 0 -0.005040419487953916 -0.00063854669747287203 0 -0.005084716892808574 -0.00054376611149293272 0 -0.0050348981551121006 -0.00047678686184011689 0 -0.0049700653547398166 -0.0006217586768673569 0 -0.0054113666573529211 -0.00027623253135845583 0 -0.0053518577934393062 -0.00044552136308932731 0 -0.0052434215558865597 -0.00031920613927805062 0 -0.005502331900296537 -0.00051766683864137408 0 -0.0054113666573529211 -0.00027623253135845583 0 -0.0053518577934393062 -0.00044552136308932731 0 -0.0051125092551582915 -0.00041224169621160615 0 -0.0052434215558865597 -0.00031920613927805062 0 -0.0052043714938544931 -0.00050220637773051207 0 -0.0053518577934393062 -0.00044552136308932731 0 -0.0052434215558865597 -0.00031920613927805062 0 -0.0052043714938544931 -0.00050220637773051207 0 -0.0052043714938544931 -0.00050220637773051207 0 -0.0053262646984304695 -0.00060547504570168035 0 -0.0051482661822410541 -0.00067565763388871027 0 -0.005502331900296537 -0.00051766683864137408 0 -0.0053518577934393062 -0.00044552136308932731 0 -0.0053262646984304695 -0.00060547504570168035 0 -0.0053518577934393062 -0.00044552136308932731 0 -0.0052043714938544931 -0.00050220637773051207 0 -0.0053262646984304695 -0.00060547504570168035 0 -0.0053262646984304695 -0.00060547504570168035 0 -0.005273452768966006 -0.00077367923053406004 0 -0.0054945747913436403 -0.00079706258042230036 0 -0.0053262646984304695 -0.00060547504570168035 0 -0.005273452768966006 -0.00077367923053406004 0 -0.0051482661822410541 -0.00067565763388871027 0 -0.005273452768966006 -0.00077367923053406004 0 -0.0051870431967994714 -0.00089237121494056847 0 -0.0051482661822410541 -0.00067565763388871027 0 -0.005273452768966006 -0.00077367923053406004 0 -0.0051870431967994714 -0.00089237121494056847 0 -0.0053336112520318158 -0.00095932988663216783 0 -0.005273452768966006 -0.00077367923053406004 0 -0.0053336112520318158 -0.00095932988663216783 0 -0.0054945747913436403 -0.00079706258042230036 0 -0.0053336112520318158 -0.00095932988663216783 0 -0.0054750322341970666 -0.0010460568025895767 0 -0.0054945747913436403 -0.00079706258042230036 0 -0.0049999971602029741 -0.00071350729464198382 0 -0.0051014502939183727 -0.00064366856376458993 0 -0.0051913698073455814 -0.00087280668812846432 0 -0.005040419487953916 -0.00063854669747287203 0 -0.0051128959431000487 -0.00088257654508990132 0 -0.0049700653547398166 -0.0006217586768673569 0 -0.0051482661822410541 -0.00067565763388871027 0 -0.0050318741907274334 -0.00089451201552675857 0 -0.0051870431967994714 -0.00089237121494056847 0 -0.0051482661822410541 -0.00067565763388871027 0 -0.0050318741907274334 -0.00089451201552675857 0 -0.0051870431967994714 -0.00089237121494056847 0 -0.0050318741907274334 -0.00089451201552675857 0 -0.0051477261272482536 -0.001155805290641029 0 -0.0049999971602029741 -0.00071350729464198382 0 -0.0051913698073455814 -0.00087280668812846432 0 -0.0049999731952173661 -0.0010037198927871573 0 -0.0051913698073455814 -0.00087280668812846432 0 -0.0049999731952173661 -0.0010037198927871573 0 -0.0052643905835535179 -0.0011137509192641584 0 -0.0051128959431000487 -0.00088257654508990132 0 -0.0052046511399365799 -0.0011338161111426727 0 -0.0051590179639861592 -0.001296304463871694 0 -0.0049999731952173661 -0.0010037198927871573 0 -0.0052643905835535179 -0.0011137509192641584 0 -0.0052886682492722017 -0.0013656602630085684 0 -0.0051590179639861592 -0.001296304463871694 0 -0.0052643905835535179 -0.0011137509192641584 0 -0.0051590179639861592 -0.001296304463871694 0 -0.004999968957248838 -0.0012939214860620291 0 -0.0049999731952173661 -0.0010037198927871573 0 -0.0053336112520318158 -0.00095932988663216783 0 -0.0051477261272482536 -0.001155805290641029 0 -0.0054063862174982711 -0.0012261431449099986 0 -0.0053336112520318158 -0.00095932988663216783 0 -0.0054063862174982711 -0.0012261431449099986 0 -0.0054750322341970666 -0.0010460568025895767 0 -0.0051870431967994714 -0.00089237121494056847 0 -0.0053336112520318158 -0.00095932988663216783 0 -0.0051477261272482536 -0.001155805290641029 0 -0.0052886682492722017 -0.0013656602630085684 0 -0.0051477261272482536 -0.001155805290641029 0 -0.0054063862174982711 -0.0012261431449099986 0 -0.0052834199160635663 -0.0013426937400568188 0 -0.0052046511399365799 -0.0011338161111426727 0 -0.0054063862174982711 -0.0012261431449099986 0 -0.0055602714874233971 -0.0013408457139659628 0 -0.0055731493768468128 -0.0011846213796707691 0 -0.0054310386258478571 -0.0014167388348179687 0 -0.0054063862174982711 -0.0012261431449099986 0 -0.0055602714874233971 -0.0013408457139659628 0 -0.0054063862174982711 -0.0012261431449099986 0 -0.0054750322341970666 -0.0010460568025895767 0 -0.0055731493768468128 -0.0011846213796707691 0 -0.0054750322341970666 -0.0010460568025895767 0 -0.0055731493768468128 -0.0011846213796707691 0 -0.0056136363649474724 -0.0010140567638515635 0 -0.0055731493768468128 -0.0011846213796707691 0 -0.005702376701251414 -0.0011452681395397542 0 -0.005705579276645052 -0.0013024176510145037 0 -0.0055731493768468128 -0.0011846213796707691 0 -0.005702376701251414 -0.0011452681395397542 0 -0.0056136363649474724 -0.0010140567638515635 0 -0.0057138650736740203 -0.001446830661330649 0 -0.0055602714874233971 -0.0013408457139659628 0 -0.005705579276645052 -0.0013024176510145037 0 -0.0055602714874233971 -0.0013408457139659628 0 -0.0055731493768468128 -0.0011846213796707691 0 -0.005705579276645052 -0.0013024176510145037 0 -0.005705579276645052 -0.0013024176510145037 0 -0.0058274185546406676 -0.0014050609984275083 0 -0.0057703387233222414 -0.0012454773184485729 0 -0.0057138650736740203 -0.001446830661330649 0 -0.005705579276645052 -0.0013024176510145037 0 -0.0058274185546406676 -0.0014050609984275083 0 -0.0058004057172499736 -0.0014696367350170703 0 -0.0057754995870759286 -0.001462649602741286 0 -0.0058274185546406676 -0.0014050609984275083 0 -0.0057754995870759286 -0.001462649602741286 0 -0.0058274185546406676 -0.0014050609984275083 0 -0.0058369263763167999 -0.0015416923191549502 0 -0.0058274185546406676 -0.0014050609984275083 0 -0.0058369263763167999 -0.0015416923191549502 0 -0.0059694501127133493 -0.0015845554617432897 0 -0.0057370157172388792 -0.0017962629136482982 0 -0.0058631903874468549 -0.0016311324619119245 0 -0.0059694501127133493 -0.0015845554617432897 0 -0.0059261691940427144 -0.0015536414353393957 0 -0.0056273591133354679 -0.00096247147966581391 0 -0.0057754995870759286 -0.001462649602741286 0 -0.005754118511782611 -0.0015797019563824107 0 -0.0058369263763167999 -0.0015416923191549502 0 -0.0058369263763167999 -0.0015416923191549502 0 -0.0058631903874468549 -0.0016311324619119245 0 -0.0059694501127133493 -0.0015845554617432897 0 -0.005754118511782611 -0.0015797019563824107 0 -0.0058369263763167999 -0.0015416923191549502 0 -0.0058094173864069194 -0.0016646698772974839 0 -0.0058369263763167999 -0.0015416923191549502 0 -0.0058631903874468549 -0.0016311324619119245 0 -0.0058094173864069194 -0.0016646698772974839 0 -0.005754118511782611 -0.0015797019563824107 0 -0.0057446288178074493 -0.0017504017880150332 0 -0.0058094173864069194 -0.0016646698772974839 0 -0.0058274185546406676 -0.0014050609984275083 0 -0.0057703387233222414 -0.0012454773184485729 0 -0.0058436572787808087 -0.0011212597624624032 0 -0.005702376701251414 -0.0011452681395397542 0 -0.005705579276645052 -0.0013024176510145037 0 -0.0057703387233222414 -0.0012454773184485729 0 -0.005702376701251414 -0.0011452681395397542 0 -0.0057703387233222414 -0.0012454773184485729 0 -0.0058436572787808087 -0.0011212597624624032 0 -0.0056273591133354679 -0.00096247147966581391 0 -0.0055982972878489395 -0.00028415028612755822 0 -0.0054358819123903621 8.2768275296942704e-05 0 -0.0054374356261968513 9.7500240562607051e-05 0 -0.0054377834769178124 0.00010073963369644647 0 -0.005702376701251414 -0.0011452681395397542 0 -0.0058436572787808087 -0.0011212597624624032 0 -0.0057952315741394145 -0.00084398331846684954 0 -0.005449855223433016 -0.0003159665809466379 0 -0.0056273591133354679 -0.00096247147966581391 0 -0.005441116830070359 9.6284363696016556e-05 0 -0.0054374356261968513 9.7500240562607051e-05 0 -0.0054345660025459271 0.00010449382588637265 0 -0.005441116830070359 9.6284363696016556e-05 0 -0.0054358819123903621 8.2768275296942704e-05 0 -0.0054374356261968513 9.7500240562607051e-05 0 -0.0057370157172388792 -0.0017962629136482982 0 -0.0058631903874468549 -0.0016311324619119245 0 -0.0058094173864069194 -0.0016646698772974839 0 -0.0054374356261968513 9.7500240562607051e-05 0 -0.0054345660025459271 0.00010449382588637265 0 -0.0054386285512471625 0.0001046769407080112 0 -0.0054310879837396993 0.00010643293613273558 0 -0.0054345660025459271 0.00010449382588637265 0 -0.0054386285512471625 0.0001046769407080112 0 -0.0054374356261968513 9.7500240562607051e-05 0 -0.0054377834769178124 0.00010073963369644647 0 -0.0054386285512471625 0.0001046769407080112 0 -0.0054575315464332579 0.00010254394432045363 0 -0.0054377834769178124 0.00010073963369644647 0 -0.0054386285512471625 0.0001046769407080112 0 -0.0055960167170496754 -0.00025704813959765793 0 -0.0055982972878489395 -0.00028415028612755822 0 -0.0057243417146426575 -0.00057972881238468779 0 -0.0057952315741394145 -0.00084398331846684954 0 -0.0054945747913436403 -0.00079706258042230036 0 -0.0054750322341970666 -0.0010460568025895767 0 -0.0054945747913436403 -0.00079706258042230036 0 -0.0056136363649474724 -0.0010140567638515635 0 -0.0057952315741394145 -0.00084398331846684954 0 -0.0054945747913436403 -0.00079706258042230036 0 -0.0056136363649474724 -0.0010140567638515635 0 -0.005702376701251414 -0.0011452681395397542 0 -0.0057952315741394145 -0.00084398331846684954 0 -0.0056136363649474724 -0.0010140567638515635 0 -0.0040043802222201148 -0.0017654957024238313 0 -0.0039242319679224039 -0.0018240849277060853 0 -0.0040162139833654327 -0.0018393188722553363 0 -0.0040043802222201148 -0.0017654957024238313 0 -0.0040162139833654327 -0.0018393188722553363 0 -0.0040079120296611735 -0.0017920105492208428 0 -0.0040043802222201148 -0.0017654957024238313 0 -0.0039063417858745822 -0.0017031134407744365 0 -0.0039242319679224039 -0.0018240849277060853 0 -0.0039242319679224039 -0.0018240849277060853 0 -0.0038541982717209722 -0.001912871760968307 0 -0.0037977006490313961 -0.0017790186232735749 0 -0.0039063417858745822 -0.0017031134407744365 0 -0.0039242319679224039 -0.0018240849277060853 0 -0.0037977006490313961 -0.0017790186232735749 0 -0.0039063417858745822 -0.0017031134407744365 0 -0.0038248539297993946 -0.0016390993903344611 0 -0.0037977006490313961 -0.0017790186232735749 0 -0.0039242319679224039 -0.0018240849277060853 0 -0.0038541982717209722 -0.001912871760968307 0 -0.0039423072543329808 -0.0019469941576557173 0 -0.0038541982717209722 -0.001912871760968307 0 -0.0037977006490313961 -0.0017790186232735749 0 -0.003787857043098029 -0.0019097499675699036 0 -0.0038541982717209722 -0.001912871760968307 0 -0.003787857043098029 -0.0019097499675699036 0 -0.0037762805658545016 -0.0020109217834464663 0 -0.0038541982717209722 -0.001912871760968307 0 -0.0037762805658545016 -0.0020109217834464663 0 -0.0038015552314539527 -0.0020666974528813463 0 -0.0038541982717209722 -0.001912871760968307 0 -0.0039423072543329808 -0.0019469941576557173 0 -0.0038015552314539527 -0.0020666974528813463 0 -0.0037838509974451621 -0.0021417924034077269 0 -0.0038005195052494508 -0.0020801428521047402 0 -0.0039242319679224039 -0.0018240849277060853 0 -0.0039423072543329808 -0.0019469941576557173 0 -0.0040162139833654327 -0.0018393188722553363 0 -0.0037838509974451621 -0.0021417924034077269 0 -0.0036752146968875164 -0.0022248812827016851 0 -0.0036342090050276192 -0.0023443331068443759 0 -0.0033189256099129512 -0.0022920107252629059 0 -0.003546883700951874 -0.0021479810532986712 0 -0.0036342090050276192 -0.0023443331068443759 0 -0.0033628705917839474 -0.0025920931180524699 0 -0.0033189256099129512 -0.0022920107252629059 0 -0.0033189256099129512 -0.0022920107252629059 0 -0.0030744327187762119 -0.0022990709750578564 0 -0.0031078383135845983 -0.002478147671383945 0 -0.0030744327187762119 -0.0022990709750578564 0 -0.0031078383135845983 -0.002478147671383945 0 -0.0029068065584095968 -0.0024279815856910495 0 -0.0030744327187762119 -0.0022990709750578564 0 -0.0029068065584095968 -0.0024279815856910495 0 -0.0029421302775391907 -0.0022613265225381401 0 -0.0029121779955371819 -0.0025536575359801496 0 -0.0031078383135845983 -0.002478147671383945 0 -0.0029068065584095968 -0.0024279815856910495 0 -0.0029121779955371819 -0.0025536575359801496 0 -0.0031078383135845983 -0.002478147671383945 0 -0.0030652779875570092 -0.0026179499854309617 0 -0.0033628705917839474 -0.0025920931180524699 0 -0.0033189256099129512 -0.0022920107252629059 0 -0.0031078383135845983 -0.002478147671383945 0 -0.0033628705917839474 -0.0025920931180524699 0 -0.0031078383135845983 -0.002478147671383945 0 -0.0030652779875570092 -0.0026179499854309617 0 -0.0025966235214539618 -0.0024529171145355722 0 -0.0027202789953574961 -0.002364631091934485 0 -0.0025693110496550447 -0.0023605776947947734 0 -0.0025966235214539618 -0.0024529171145355722 0 -0.0027202789953574961 -0.002364631091934485 0 -0.0027554181381062013 -0.0024807244613730749 0 -0.0027202789953574961 -0.002364631091934485 0 -0.0028303158037430169 -0.0023622803180283775 0 -0.0027554181381062013 -0.0024807244613730749 0 -0.0027202789953574961 -0.002364631091934485 0 -0.0028303158037430169 -0.0023622803180283775 0 -0.0028398279972348347 -0.0022594598874975543 0 -0.0028303158037430169 -0.0023622803180283775 0 -0.0029068065584095968 -0.0024279815856910495 0 -0.0029421302775391907 -0.0022613265225381401 0 -0.0028303158037430169 -0.0023622803180283775 0 -0.0029068065584095968 -0.0024279815856910495 0 -0.0027554181381062013 -0.0024807244613730749 0 -0.0029121779955371819 -0.0025536575359801496 0 -0.0027554181381062013 -0.0024807244613730749 0 -0.0027515716787521777 -0.0026227126663763045 0 -0.0029121779955371819 -0.0025536575359801496 0 -0.0029068065584095968 -0.0024279815856910495 0 -0.0027554181381062013 -0.0024807244613730749 0 -0.0027554181381062013 -0.0024807244613730749 0 -0.0026162303674781445 -0.0025717679151502333 0 -0.0027515716787521777 -0.0026227126663763045 0 -0.0025966235214539618 -0.0024529171145355722 0 -0.0027554181381062013 -0.0024807244613730749 0 -0.0026162303674781445 -0.0025717679151502333 0 -0.0026162303674781445 -0.0025717679151502333 0 -0.0027515716787521777 -0.0026227126663763045 0 -0.002644393748935118 -0.0026984963775953707 0 -0.0027515716787521777 -0.0026227126663763045 0 -0.0027540929227693675 -0.0027221527734315582 0 -0.002644393748935118 -0.0026984963775953707 0 -0.0027515716787521777 -0.0026227126663763045 0 -0.0028710957116820902 -0.0026737407481422092 0 -0.0027540929227693675 -0.0027221527734315582 0 -0.0029121779955371819 -0.0025536575359801496 0 -0.0027515716787521777 -0.0026227126663763045 0 -0.0028710957116820902 -0.0026737407481422092 0 -0.0028710957116820902 -0.0026737407481422092 0 -0.0027540929227693675 -0.0027221527734315582 0 -0.0027856057805151556 -0.0028251441532500263 0 -0.0027699533498772213 -0.0028346935314664885 0 -0.0031234915846321898 -0.0025718954261388259 0 -0.0027540929227693675 -0.0027221527734315582 0 -0.0027139322240490008 -0.0027873804462842499 0 -0.0027856057805151556 -0.0028251441532500263 0 -0.0027139322240490008 -0.0027873804462842499 0 -0.002644393748935118 -0.0026984963775953707 0 -0.0026205570876279239 -0.0028015291663898022 0 -0.0027540929227693675 -0.0027221527734315582 0 -0.0027139322240490008 -0.0027873804462842499 0 -0.002644393748935118 -0.0026984963775953707 0 -0.0036752146968875164 -0.0022248812827016851 0 -0.0035973873224359608 -0.0022558028182094337 0 -0.0033628705917839474 -0.0025920931180524699 0 -0.0030652779875570092 -0.0026179499854309617 0 -0.003080079813643851 -0.0027915405104747691 0 -0.0028710957116820902 -0.0026737407481422092 0 -0.0030652779875570092 -0.0026179499854309617 0 -0.003080079813643851 -0.0027915405104747691 0 -0.0029121779955371819 -0.0025536575359801496 0 -0.0028710957116820902 -0.0026737407481422092 0 -0.0030652779875570092 -0.0026179499854309617 0 -0.0040079120296611735 -0.0017920105492208428 0 -0.0040061471811349714 -0.0018149889638279112 0 -0.0039205855928648196 -0.0018331307467074063 0 -0.0028710957116820902 -0.0026737407481422092 0 -0.003080079813643851 -0.0027915405104747691 0 -0.0028148372397169765 -0.0029962694457918897 0 -0.0035973873224359608 -0.0022558028182094337 0 -0.0031234915846321898 -0.0025718954261388259 0 -0.0040043802222201148 -0.0017654957024238313 0 -0.0041293915657278375 -0.0016756867119291508 0 -0.0040651858032579669 -0.0016521872906934091 0 -0.0040043802222201148 -0.0017654957024238313 0 -0.0040079120296611735 -0.0017920105492208428 0 -0.0040061471811349714 -0.0018149889638279112 0 -0.0039351333284372431 -0.0017880691251383797 0 -0.0042266010587905349 -0.0017056872280490124 0 -0.0041293915657278375 -0.0016756867119291508 0 -0.0041368059080988942 -0.0016081842035774933 0 -0.0040651858032579669 -0.0016521872906934091 0 -0.0041368059080988942 -0.0016081842035774933 0 -0.0040699630132630706 -0.0015809246987624791 0 -0.0040651858032579669 -0.0016521872906934091 0 -0.0041293915657278375 -0.0016756867119291508 0 -0.0041368059080988942 -0.0016081842035774933 0 -0.004216910461422997 -0.001613365801742817 0 -0.0042266010587905349 -0.0017056872280490124 0 -0.0033532793050326127 -0.0018373261120482769 0 -0.0041368059080988942 -0.0016081842035774933 0 -0.004175478926084223 -0.0015693768881204909 0 -0.004129953887423328 -0.0015562950031085959 0 -0.0041368059080988942 -0.0016081842035774933 0 -0.004175478926084223 -0.0015693768881204909 0 -0.004216910461422997 -0.001613365801742817 0 -0.004175478926084223 -0.0015693768881204909 0 -0.0042040086453332716 -0.0015438460428713286 0 -0.0041612632043227732 -0.0015114889398262581 0 -0.004175478926084223 -0.0015693768881204909 0 -0.004129953887423328 -0.0015562950031085959 0 -0.0041612632043227732 -0.0015114889398262581 0 -0.004129953887423328 -0.0015562950031085959 0 -0.0040699630132630706 -0.0015809246987624791 0 -0.0040911727227527133 -0.0015181795013074499 0 -0.0041368059080988942 -0.0016081842035774933 0 -0.004129953887423328 -0.0015562950031085959 0 -0.0040699630132630706 -0.0015809246987624791 0 -0.0033532793050326127 -0.0018373261120482769 0 -0.0019169554637925861 -0.001010260016810922 0 -0.0027857841924695446 -0.0028709550906899787 0 -0.0027364999670075451 -0.0028573036700896013 0 -0.0026511399107293017 -0.0029202269318776104 0 -0.0026874284287550531 -0.0028329379989388832 0 -0.0026511399107293017 -0.0029202269318776104 0 -0.0026205570876279239 -0.0028015291663898022 0 -0.0027139322240490008 -0.0027873804462842499 0 -0.0026874284287550531 -0.0028329379989388832 0 -0.0026205570876279239 -0.0028015291663898022 0 -0.0027139322240490008 -0.0027873804462842499 0 -0.0026874284287550531 -0.0028329379989388832 0 -0.0027313612775254248 -0.0028251879928234891 0 -0.0026874284287550531 -0.0028329379989388832 0 -0.0027313612775254248 -0.0028251879928234891 0 -0.0027364999670075451 -0.0028573036700896013 0 -0.0026874284287550531 -0.0028329379989388832 0 -0.0027364999670075451 -0.0028573036700896013 0 -0.0026511399107293017 -0.0029202269318776104 0 -0.0040061471811349714 -0.0018149889638279112 0 -0.0039129245143261684 -0.00186368190098731 0 -0.0039205855928648196 -0.0018331307467074063 0 -0.0027857841924695446 -0.0028709550906899787 0 -0.0027364999670075451 -0.0028573036700896013 0 -0.0028039304731421262 -0.0027986901986563266 0 -0.0027139322240490008 -0.0027873804462842499 0 -0.0027313612775254248 -0.0028251879928234891 0 -0.0027856057805151556 -0.0028251441532500263 0 -0.0033532793050326127 -0.0018373261120482769 0 -0.0031234915846321898 -0.0025718954261388259 0 -0.0027270921286613671 -0.0028775344331326146 0 -0.0031234915846321898 -0.0025718954261388259 0 -0.0027313612775254248 -0.0028251879928234891 0 -0.0027364999670075451 -0.0028573036700896013 0 -0.0027856057805151556 -0.0028251441532500263 0 -0.004175478926084223 -0.0015693768881204909 0 -0.004216910461422997 -0.001613365801742817 0 -0.0042226694519433821 -0.001554487824043584 0 -0.004175478926084223 -0.0015693768881204909 0 -0.0042040086453332716 -0.0015438460428713286 0 -0.0042226694519433821 -0.001554487824043584 0 -0.0030695993029874248 -0.00077763273762518532 0 -0.0023947101946925403 -0.00064442330962023362 0 -0.0033532793050326127 -0.0018373261120482769 0 -0.0023947101946925403 -0.00064442330962023362 0 -0.001611741329423347 5.2550118064496578e-05 0 -0.0015913479687390977 6.4926663854749351e-05 0 -0.0015861747585469582 4.3434292164515791e-05 0 -0.0026507116732380157 -0.0010934963533063174 0 -0.0026064153175832179 -0.0012947159270001924 0 -0.0024041629626799467 -0.0011903191083861456 0 -0.0023947101946925403 -0.00064442330962023362 0 -0.0019169554637925861 -0.001010260016810922 0 -0.001611741329423347 5.2550118064496578e-05 0 -0.0015861747585469582 4.3434292164515791e-05 0 -0.0016092688904934991 3.6343197503343122e-05 0 -0.0016377514078012578 5.1398998224482083e-05 0 -0.0016341318133519403 5.2377510420106439e-05 0 -0.0016092688904934991 3.6343197503343122e-05 0 -0.0023947101946925403 -0.00064442330962023362 0 -0.0014506834849545519 0.00029677067853283178 0 -0.0016377514078012578 5.1398998224482083e-05 0 -0.0016092688904934991 3.6343197503343122e-05 0 -0.0016502464776152743 5.3365987389125609e-05 0 -0.0016092688904934991 3.6343197503343122e-05 0 -0.0016502464776152743 5.3365987389125609e-05 0 -0.0016262563979345058 3.1471724705257621e-05 0 -0.0015861747585469582 4.3434292164515791e-05 0 -0.0016092688904934991 3.6343197503343122e-05 0 -0.001570425806107535 2.7413956937745089e-05 0 -0.0016092688904934991 3.6343197503343122e-05 0 -0.001570425806107535 2.7413956937745089e-05 0 -0.0015857623306042561 2.2005269008646722e-05 0 -0.004129953887423328 -0.0015562950031085959 0 -0.0040911727227527133 -0.0015181795013074499 0 -0.0041612632043227732 -0.0015114889398262581 0 -0.0040911727227527133 -0.0015181795013074499 0 -0.0041612632043227732 -0.0015114889398262581 0 -0.0040778985919876212 -0.0014457332239202665 0 -0.0040799022314964503 -0.0014021629655361937 0 -0.0039567688351411301 -0.0013456450800614901 0 -0.0037533717230474025 -0.0011645887442919181 0 -0.0037707620193356594 -0.0012690215877608209 0 -0.003902673331262796 -0.0012749221335053632 0 -0.0036060054332791741 -0.0010947408744694863 0 -0.0037533717230474025 -0.0011645887442919181 0 -0.0037707620193356594 -0.0012690215877608209 0 -0.0030695993029874248 -0.00077763273762518532 0 -0.0026323728214156985 -0.00053803725154898574 0 -0.0030695993029874248 -0.00077763273762518532 0 -0.0040799022314964503 -0.0014021629655361937 0 -0.0016502464776152743 5.3365987389125609e-05 0 -0.0016527821714304963 3.9329803206681832e-05 0 -0.0017334585280610623 4.9050975852211022e-05 0 -0.0016502464776152743 5.3365987389125609e-05 0 -0.0016262563979345058 3.1471724705257621e-05 0 -0.0016527821714304963 3.9329803206681832e-05 0 -0.0026323728214156985 -0.00053803725154898574 0 -0.002832053983258516 -0.00066918021144134058 0 -0.0037707620193356594 -0.0012690215877608209 0 -0.003902673331262796 -0.0012749221335053632 0 -0.0039040126290666144 -0.0013560705922484745 0 -0.003902673331262796 -0.0012749221335053632 0 -0.0039580072464194807 -0.0013698043492660513 0 -0.0039040126290666144 -0.0013560705922484745 0 -0.0040778985919876212 -0.0014457332239202665 0 -0.0039580072464194807 -0.0013698043492660513 0 -0.0039919148701642471 -0.0015099088854116191 0 -0.0039567688351411301 -0.0013456450800614901 0 -0.0039702862205498752 -0.0013699375268694015 0 -0.0039580072464194807 -0.0013698043492660513 0 -0.0039919148701642471 -0.0015099088854116191 0 -0.0038851433493378544 -0.0014449059348877109 0 -0.0039919148701642471 -0.0015099088854116191 0 -0.0038959472484218689 -0.0015734488911453555 0 -0.0038851433493378544 -0.0014449059348877109 0 -0.0040911727227527133 -0.0015181795013074499 0 -0.0040778985919876212 -0.0014457332239202665 0 -0.0039919148701642471 -0.0015099088854116191 0 -0.0040699630132630706 -0.0015809246987624791 0 -0.0039919148701642471 -0.0015099088854116191 0 -0.0039909944867693456 -0.0016302701678532136 0 -0.0040699630132630706 -0.0015809246987624791 0 -0.0040911727227527133 -0.0015181795013074499 0 -0.0039919148701642471 -0.0015099088854116191 0 -0.0039919148701642471 -0.0015099088854116191 0 -0.0039909944867693456 -0.0016302701678532136 0 -0.0038959472484218689 -0.0015734488911453555 0 -0.0039063417858745822 -0.0017031134407744365 0 -0.0039909944867693456 -0.0016302701678532136 0 -0.0038959472484218689 -0.0015734488911453555 0 -0.0040043802222201148 -0.0017654957024238313 0 -0.0039063417858745822 -0.0017031134407744365 0 -0.0039909944867693456 -0.0016302701678532136 0 -0.0040699630132630706 -0.0015809246987624791 0 -0.0039909944867693456 -0.0016302701678532136 0 -0.0040651858032579669 -0.0016521872906934091 0 -0.0040043802222201148 -0.0017654957024238313 0 -0.0039909944867693456 -0.0016302701678532136 0 -0.0040651858032579669 -0.0016521872906934091 0 -0.0039063417858745822 -0.0017031134407744365 0 -0.0038248539297993946 -0.0016390993903344611 0 -0.0038959472484218689 -0.0015734488911453555 0 -0.0038248539297993946 -0.0016390993903344611 0 -0.0038959472484218689 -0.0015734488911453555 0 -0.0037942773647839803 -0.0015183104983483608 0 -0.0038959472484218689 -0.0015734488911453555 0 -0.0038851433493378544 -0.0014449059348877109 0 -0.0037942773647839803 -0.0015183104983483608 0 -0.0039580072464194807 -0.0013698043492660513 0 -0.0038851433493378544 -0.0014449059348877109 0 -0.003884663850945335 -0.001359016463080496 0 -0.0038851433493378544 -0.0014449059348877109 0 -0.0038134382003697561 -0.0013869241430324859 0 -0.0037942773647839803 -0.0015183104983483608 0 -0.0038851433493378544 -0.0014449059348877109 0 -0.0038134382003697561 -0.0013869241430324859 0 -0.003884663850945335 -0.001359016463080496 0 -0.0038134382003697561 -0.0013869241430324859 0 -0.0037942773647839803 -0.0015183104983483608 0 -0.0037452225769088873 -0.0014559702428280142 0 -0.0037942773647839803 -0.0015183104983483608 0 -0.0037452225769088873 -0.0014559702428280142 0 -0.0036929619645138848 -0.0015286687855876088 0 -0.0038134382003697561 -0.0013869241430324859 0 -0.0037452225769088873 -0.0014559702428280142 0 -0.0037369141262904 -0.0013649004852821327 0 -0.0037452225769088873 -0.0014559702428280142 0 -0.0036757028301836357 -0.001459756061451972 0 -0.0037369141262904 -0.0013649004852821327 0 -0.0036757028301836357 -0.001459756061451972 0 -0.0036881055633291734 -0.0013192515165938222 0 -0.0037369141262904 -0.0013649004852821327 0 -0.0036757028301836357 -0.001459756061451972 0 -0.0036154713754799183 -0.0013850872621100016 0 -0.0035790176478425468 -0.0015135257588608769 0 -0.0036757028301836357 -0.001459756061451972 0 -0.0036154713754799183 -0.0013850872621100016 0 -0.0036881055633291734 -0.0013192515165938222 0 -0.0036757028301836357 -0.001459756061451972 0 -0.0036519969170170472 -0.0016273552557308885 0 -0.0035790176478425468 -0.0015135257588608769 0 -0.003676572076056876 -0.0014698439915093939 0 -0.0037317376854331288 -0.0015813844856572602 0 -0.0036757028301836357 -0.001459756061451972 0 -0.0037769100444347099 -0.0016374385751632724 0 -0.0036519969170170472 -0.0016273552557308885 0 -0.0037452225769088873 -0.0014559702428280142 0 -0.0036757028301836357 -0.001459756061451972 0 -0.0036929619645138848 -0.0015286687855876088 0 -0.0037769100444347099 -0.0016374385751632724 0 -0.0036519969170170472 -0.0016273552557308885 0 -0.003733703460162587 -0.001799601214156385 0 -0.0036519969170170472 -0.0016273552557308885 0 -0.003733703460162587 -0.001799601214156385 0 -0.0035912201855014298 -0.0017398087716314881 0 -0.0037288794538466274 -0.0018038407379256827 0 -0.0037191713597281863 -0.001808824955453669 0 -0.003733703460162587 -0.001799601214156385 0 -0.0038079912331760858 -0.0018800525900995193 0 -0.0037856985136130684 -0.001812731637707587 0 -0.0037769100444347099 -0.0016374385751632724 0 -0.003733703460162587 -0.001799601214156385 0 -0.0038015853199108692 -0.0017623898227877421 0 -0.0038248539297993946 -0.0016390993903344611 0 -0.0037262621326174337 -0.0016369605766074604 0 -0.0037977006490313961 -0.0017790186232735749 0 -0.0038248539297993946 -0.0016390993903344611 0 -0.0037942773647839803 -0.0015183104983483608 0 -0.0037262621326174337 -0.0016369605766074604 0 -0.0037942773647839803 -0.0015183104983483608 0 -0.0036929619645138848 -0.0015286687855876088 0 -0.0037262621326174337 -0.0016369605766074604 0 -0.0037317376854331288 -0.0015813844856572602 0 -0.0037662106553643872 -0.0016988826891960777 0 -0.0044343207933810096 -0.0004576900971061601 0 -0.0046293776157932077 -0.00052886573942007519 0 -0.0045582934372205642 -0.00032614010695298276 0 -0.0044343207933810096 -0.0004576900971061601 0 -0.0044650821191977892 -0.00062115298087920157 0 -0.0046293776157932077 -0.00052886573942007519 0 -0.0044650821191977892 -0.00062115298087920157 0 -0.0046293776157932077 -0.00052886573942007519 0 -0.0046087455915087509 -0.00073162875935040375 0 -0.0046293776157932077 -0.00052886573942007519 0 -0.0045582934372205642 -0.00032614010695298276 0 -0.0047383689994329918 -0.00034390487056572857 0 -0.0045582934372205642 -0.00032614010695298276 0 -0.0047383689994329918 -0.00034390487056572857 0 -0.0046725411952378898 -0.00010915390000462686 0 -0.0047383689994329918 -0.00034390487056572857 0 -0.0048113435580302366 -0.00050958957789821145 0 -0.0049084493588409939 -0.00026322154856560224 0 -0.0047383689994329918 -0.00034390487056572857 0 -0.0049084493588409939 -0.00026322154856560224 0 -0.0046725411952378898 -0.00010915390000462686 0 -0.0041066307504900382 -0.0010141255430417013 0 -0.0039723872187562553 -0.00075989420555627307 0 -0.0046293776157932077 -0.00052886573942007519 0 -0.0047383689994329918 -0.00034390487056572857 0 -0.0048113435580302366 -0.00050958957789821145 0 -0.0046293776157932077 -0.00052886573942007519 0 -0.0048113435580302366 -0.00050958957789821145 0 -0.0046914610763628172 -0.00063283098348812831 0 -0.0033899122854518515 -0.0015234283274328333 0 -0.0034758246224766147 -0.0015435776856530335 0 -0.003439380762781954 -0.0014037549386314342 0 -0.0033899122854518515 -0.0015234283274328333 0 -0.0034758246224766147 -0.0015435776856530335 0 -0.0034174336637466697 -0.0016052582742393379 0 -0.0034758246224766147 -0.0015435776856530335 0 -0.003439380762781954 -0.0014037549386314342 0 -0.0035102986680558674 -0.0014552166298546997 0 -0.0039723872187562553 -0.00075989420555627307 0 -0.0035005934556479063 -0.0013632474394368363 0 -0.0033785083006126725 -0.0013988155869383097 0 -0.0035102986680558674 -0.0014552166298546997 0 -0.0035250805722203023 -0.0013369931836540875 0 -0.0035102986680558674 -0.0014552166298546997 0 -0.0036154713754799183 -0.0013850872621100016 0 -0.0035790176478425468 -0.0015135257588608769 0 -0.0035102986680558674 -0.0014552166298546997 0 -0.0036154713754799183 -0.0013850872621100016 0 -0.0035250805722203023 -0.0013369931836540875 0 -0.0034758246224766147 -0.0015435776856530335 0 -0.0035790176478425468 -0.0015135257588608769 0 -0.0035567046612268415 -0.0016141526915342973 0 -0.0034758246224766147 -0.0015435776856530335 0 -0.0035102986680558674 -0.0014552166298546997 0 -0.0035790176478425468 -0.0015135257588608769 0 -0.0036519969170170472 -0.0016273552557308885 0 -0.0035790176478425468 -0.0015135257588608769 0 -0.0035567046612268415 -0.0016141526915342973 0 -0.0035567046612268415 -0.0016141526915342973 0 -0.0035912201855014298 -0.0017398087716314881 0 -0.00346380369463647 -0.0016846507924316049 0 -0.0036519969170170472 -0.0016273552557308885 0 -0.0035567046612268415 -0.0016141526915342973 0 -0.0035912201855014298 -0.0017398087716314881 0 -0.0037191713597281863 -0.001808824955453669 0 -0.0036073213366425378 -0.0018378043724654178 0 -0.0038079912331760858 -0.0018800525900995193 0 -0.0039028151457658135 -0.0019293789370942295 0 -0.0038571398155854992 -0.0018349920717711605 0 -0.0039028151457658135 -0.0019293789370942295 0 -0.0039630530789230055 -0.0018629492395465799 0 -0.0038571398155854992 -0.0018349920717711605 0 -0.0034758246224766147 -0.0015435776856530335 0 -0.00346380369463647 -0.0016846507924316049 0 -0.0034174336637466697 -0.0016052582742393379 0 -0.0034758246224766147 -0.0015435776856530335 0 -0.0035567046612268415 -0.0016141526915342973 0 -0.00346380369463647 -0.0016846507924316049 0 -0.0033899122854518515 -0.0015234283274328333 0 -0.0034174336637466697 -0.0016052582742393379 0 -0.0033448721544804077 -0.0016386783241546519 0 -0.00346380369463647 -0.0016846507924316049 0 -0.0034174336637466697 -0.0016052582742393379 0 -0.0033448721544804077 -0.0016386783241546519 0 -0.0036073213366425378 -0.0018378043724654178 0 -0.0041601085735346608 -0.0012706630428015384 0 -0.0048113435580302366 -0.00050958957789821145 0 -0.0047164990392996693 -0.00075985957486381084 0 -0.0046914610763628172 -0.00063283098348812831 0 -0.0041066307504900382 -0.0010141255430417013 0 -0.0041601085735346608 -0.0012706630428015384 0 -0.0040085561982664986 -0.0019651324635926374 0 -0.0040819901631778547 -0.0018533033796366623 0 -0.0039630530789230055 -0.0018629492395465799 0 -0.0039028151457658135 -0.0019293789370942295 0 -0.0040085561982664986 -0.0019651324635926374 0 -0.0039630530789230055 -0.0018629492395465799 0 -0.0047687277702591138 -0.00077977985254449851 0 -0.0045234438300659954 -0.00094444890408854629 0 -0.004566572046968617 -0.0012194969420712899 0 -0.0041601085735346608 -0.0012706630428015384 0 -0.0043501406883801903 -0.0015431505611463259 0 -0.0044571017182818713 -0.0007788073286592133 0 -0.0045234438300659954 -0.00094444890408854629 0 -0.0046087455915087509 -0.00073162875935040375 0 -0.0047687277702591138 -0.00077977985254449851 0 -0.0045234438300659954 -0.00094444890408854629 0 -0.0046087455915087509 -0.00073162875935040375 0 -0.0041601085735346608 -0.0012706630428015384 0 -0.0046080250437687507 -0.0010042854155530437 0 -0.0047164990392996693 -0.00075985957486381084 0 -0.0046914610763628172 -0.00063283098348812831 0 -0.0046087455915087509 -0.00073162875935040375 0 -0.0046293776157932077 -0.00052886573942007519 0 -0.0046914610763628172 -0.00063283098348812831 0 -0.0046087455915087509 -0.00073162875935040375 0 -0.0044571017182818713 -0.0007788073286592133 0 -0.0044650821191977892 -0.00062115298087920157 0 -0.0046087455915087509 -0.00073162875935040375 0 -0.0042128781271039955 -0.0016113796833933231 0 -0.0043501406883801903 -0.0015431505611463259 0 -0.004202177263545423 -0.0016238233360061026 0 -0.0040819901631778547 -0.0018533033796366623 0 -0.0039971027749526955 -0.0017503710532693945 0 -0.0040819901631778547 -0.0018533033796366623 0 -0.0039630530789230055 -0.0018629492395465799 0 -0.0039971027749526955 -0.0017503710532693945 0 -0.0039630530789230055 -0.0018629492395465799 0 -0.0039971027749526955 -0.0017503710532693945 0 -0.0039089981346921952 -0.0017922388265778247 0 -0.0039971027749526955 -0.0017503710532693945 0 -0.0039089981346921952 -0.0017922388265778247 0 -0.0039046772924314433 -0.0017574628846861067 0 -0.0039089981346921952 -0.0017922388265778247 0 -0.0038364078244654395 -0.00178270023100869 0 -0.0039046772924314433 -0.0017574628846861067 0 -0.0039630530789230055 -0.0018629492395465799 0 -0.0039089981346921952 -0.0017922388265778247 0 -0.0038571398155854992 -0.0018349920717711605 0 -0.0038079912331760858 -0.0018800525900995193 0 -0.0038571398155854992 -0.0018349920717711605 0 -0.0037856985136130684 -0.001812731637707587 0 -0.0038571398155854992 -0.0018349920717711605 0 -0.0038364078244654395 -0.00178270023100869 0 -0.0037856985136130684 -0.001812731637707587 0 -0.0039089981346921952 -0.0017922388265778247 0 -0.0038571398155854992 -0.0018349920717711605 0 -0.0038364078244654395 -0.00178270023100869 0 -0.0038364078244654395 -0.00178270023100869 0 -0.0038458075940072116 -0.0017843971427130773 0 -0.0038279514216428483 -0.0018077212370212104 0 -0.0038364078244654395 -0.00178270023100869 0 -0.0038458075940072116 -0.0017843971427130773 0 -0.0039046772924314433 -0.0017574628846861067 0 -0.0038458075940072116 -0.0017843971427130773 0 -0.0039754854172507174 -0.0016939443938491965 0 -0.0038420192451557901 -0.0018177094989168135 0 -0.0038458075940072116 -0.0017843971427130773 0 -0.0039046772924314433 -0.0017574628846861067 0 -0.0039754854172507174 -0.0016939443938491965 0 -0.0039971027749526955 -0.0017503710532693945 0 -0.0039046772924314433 -0.0017574628846861067 0 -0.0039754854172507174 -0.0016939443938491965 0 -0.0039754854172507174 -0.0016939443938491965 0 -0.0041005797082171204 -0.0016372223263249708 0 -0.0041321694473965918 -0.0016606005169519484 0 -0.0039768487331337454 -0.0017114512963739513 0 -0.0039796180210265424 -0.0017551953665378725 0 -0.004202177263545423 -0.0016238233360061026 0 -0.0039754854172507174 -0.0016939443938491965 0 -0.0041005797082171204 -0.0016372223263249708 0 -0.004202177263545423 -0.0016238233360061026 0 -0.0039971027749526955 -0.0017503710532693945 0 -0.0039754854172507174 -0.0016939443938491965 0 -0.0037977006490313961 -0.0017790186232735749 0 -0.0037586932422193548 -0.0018153580482730782 0 -0.0037522443481486502 -0.0018697740734707406 0 -0.0037977006490313961 -0.0017790186232735749 0 -0.0037522443481486502 -0.0018697740734707406 0 -0.003787857043098029 -0.0019097499675699036 0 -0.0037662106553643872 -0.0016988826891960777 0 -0.0037986541830400205 -0.0017738541036555618 0 -0.0038015853199108692 -0.0017623898227877421 0 -0.0037977006490313961 -0.0017790186232735749 0 -0.0037586932422193548 -0.0018153580482730782 0 -0.003733703460162587 -0.001799601214156385 0 -0.0038015853199108692 -0.0017623898227877421 0 -0.0037586932422193548 -0.0018153580482730782 0 -0.003733703460162587 -0.001799601214156385 0 -0.0037586932422193548 -0.0018153580482730782 0 -0.0037412423712861096 -0.0018155195699083096 0 -0.003733703460162587 -0.001799601214156385 0 -0.0037412423712861096 -0.0018155195699083096 0 -0.0037856985136130684 -0.001812731637707587 0 -0.0037412423712861096 -0.0018155195699083096 0 -0.0037856985136130684 -0.001812731637707587 0 -0.0037157380070741595 -0.0018442449146281138 0 -0.0037856451925509832 -0.0018190790577497363 0 -0.0037725689288205066 -0.0018243778561174288 0 -0.0038364078244654395 -0.00178270023100869 0 -0.0037856985136130684 -0.001812731637707587 0 -0.0038237572686573482 -0.0017925863868975592 0 -0.0037586932422193548 -0.0018153580482730782 0 -0.0037412423712861096 -0.0018155195699083096 0 -0.0037157380070741595 -0.0018442449146281138 0 -0.0037586932422193548 -0.0018153580482730782 0 -0.0037157380070741595 -0.0018442449146281138 0 -0.0037522443481486502 -0.0018697740734707406 0 -0.0037157380070741595 -0.0018442449146281138 0 -0.0037175324493472469 -0.0019423007813584802 0 -0.0037522443481486502 -0.0018697740734707406 0 -0.0037725689288205066 -0.0018243778561174288 0 -0.003780545414270598 -0.0018877594273208499 0 -0.0038237572686573482 -0.0017925863868975592 0 -0.0038279514216428483 -0.0018077212370212104 0 -0.0038435525270147852 -0.0018339578562445724 0 -0.0038364078244654395 -0.00178270023100869 0 -0.0038237572686573482 -0.0017925863868975592 0 -0.0038279514216428483 -0.0018077212370212104 0 -0.0038458075940072116 -0.0017843971427130773 0 -0.0038279514216428483 -0.0018077212370212104 0 -0.0038213197955626718 -0.0018571609704328173 0 -0.0038279514216428483 -0.0018077212370212104 0 -0.0038435525270147852 -0.0018339578562445724 0 -0.0038213197955626718 -0.0018571609704328173 0 -0.0037175324493472469 -0.0019423007813584802 0 -0.0037522443481486502 -0.0018697740734707406 0 -0.003787857043098029 -0.0019097499675699036 0 -0.0037175324493472469 -0.0019423007813584802 0 -0.003787857043098029 -0.0019097499675699036 0 -0.0037762805658545016 -0.0020109217834464663 0 -0.0037762805658545016 -0.0020109217834464663 0 -0.003758154710895426 -0.0020152804762614187 0 -0.0037855669720035434 -0.0020160380647986074 0 -0.0038323287179130141 -0.0019155908094505543 0 -0.0038051470266871421 -0.0019427103188267673 0 -0.0037855669720035434 -0.0020160380647986074 0 -0.0037762805658545016 -0.0020109217834464663 0 -0.0037855669720035434 -0.0020160380647986074 0 -0.0038015552314539527 -0.0020666974528813463 0 -0.0037915009822044174 -0.0019618368656260099 0 -0.0037874533233765648 -0.0020057035714685831 0 -0.003780545414270598 -0.0018877594273208499 0 -0.0037915009822044174 -0.0019618368656260099 0 -0.0037175324493472469 -0.0019423007813584802 0 -0.0037762805658545016 -0.0020109217834464663 0 -0.003758154710895426 -0.0020152804762614187 0 -0.0038435525270147852 -0.0018339578562445724 0 -0.0038323287179130141 -0.0019155908094505543 0 -0.0038213197955626718 -0.0018571609704328173 0 -0.0038323287179130141 -0.0019155908094505543 0 -0.0038213197955626718 -0.0018571609704328173 0 -0.0038051470266871421 -0.0019427103188267673 0 -0.0038051470266871421 -0.0019427103188267673 0 -0.0038128013137812399 -0.0018949550436536634 0 -0.0037912270904981631 -0.0019524542858466584 0 -0.0038213197955626718 -0.0018571609704328173 0 -0.0038051470266871421 -0.0019427103188267673 0 -0.0038128013137812399 -0.0018949550436536634 0 -0.0038051470266871421 -0.0019427103188267673 0 -0.0037652365906874026 -0.0020229480516213726 0 -0.0037911114815504117 -0.0019997506665186435 0 -0.0038051470266871421 -0.0019427103188267673 0 -0.0037652365906874026 -0.0020229480516213726 0 -0.0037912270904981631 -0.0019524542858466584 0 -0.0037652365906874026 -0.0020229480516213726 0 -0.0036727386104579221 -0.0021860658334557255 0 -0.0036771651327208569 -0.0021790722123339965 0 -0.0037652365906874026 -0.0020229480516213726 0 -0.0037912270904981631 -0.0019524542858466584 0 -0.0037980446747562045 -0.0019500071580485427 0 -0.0037848395876379733 -0.002026453575302116 0 -0.0037213244644462339 -0.0020724098876696764 0 -0.0037652365906874026 -0.0020229480516213726 0 -0.0037819743470556299 -0.002029685869285011 0 -0.0037911114815504117 -0.0019997506665186435 0 -0.0037652365906874026 -0.0020229480516213726 0 -0.0037819743470556299 -0.002029685869285011 0 -0.0037799291797059285 -0.0020677316675048194 0 -0.0038051470266871421 -0.0019427103188267673 0 -0.0037855669720035434 -0.0020160380647986074 0 -0.0037911114815504117 -0.0019997506665186435 0 -0.0037819743470556299 -0.002029685869285011 0 -0.0037855669720035434 -0.0020160380647986074 0 -0.0037280408198118085 -0.0020275245219411485 0 -0.0037819743470556299 -0.002029685869285011 0 -0.0037855669720035434 -0.0020160380647986074 0 -0.0037911114815504117 -0.0019997506665186435 0 -0.0040979088239746653 -0.001693073137246827 0 -0.0041321694473965918 -0.0016606005169519484 0 -0.0041297846865121423 -0.001781258650990011 0 -0.0040979088239746653 -0.001693073137246827 0 -0.0041005797082171204 -0.0016372223263249708 0 -0.0041321694473965918 -0.0016606005169519484 0 -0.0039754854172507174 -0.0016939443938491965 0 -0.0038256644835281462 -0.0018186192454843154 0 -0.0038420192451557901 -0.0018177094989168135 0 -0.0039796180210265424 -0.0017551953665378725 0 -0.0040092735595879314 -0.0018422458792325522 0 -0.0041321694473965918 -0.0016606005169519484 0 -0.004212960124312895 -0.0017999081027590689 0 -0.0041297846865121423 -0.001781258650990011 0 -0.0038256644835281462 -0.0018186192454843154 0 -0.0038420192451557901 -0.0018177094989168135 0 -0.0038070443587756336 -0.0019112166535494453 0 -0.0038256644835281462 -0.0018186192454843154 0 -0.0038070443587756336 -0.0019112166535494453 0 -0.0037831701234559358 -0.0019098081101293382 0 -0.0038458075940072116 -0.0017843971427130773 0 -0.0038213197955626718 -0.0018571609704328173 0 -0.0038420192451557901 -0.0018177094989168135 0 -0.0038213197955626718 -0.0018571609704328173 0 -0.0038420192451557901 -0.0018177094989168135 0 -0.0038128013137812399 -0.0018949550436536634 0 -0.0038420192451557901 -0.0018177094989168135 0 -0.0038128013137812399 -0.0018949550436536634 0 -0.0038070443587756336 -0.0019112166535494453 0 -0.0038128013137812399 -0.0018949550436536634 0 -0.0037912270904981631 -0.0019524542858466584 0 -0.0038070443587756336 -0.0019112166535494453 0 -0.0037912270904981631 -0.0019524542858466584 0 -0.0037980446747562045 -0.0019500071580485427 0 -0.0038070443587756336 -0.0019112166535494453 0 -0.0036727386104579221 -0.0021860658334557255 0 -0.0038358101340696298 -0.0022156394623983511 0 -0.0037388606239690172 -0.0021780396863223983 0 -0.0037213244644462339 -0.0020724098876696764 0 -0.0039117000560417855 -0.0020280571334082352 0 -0.0037980446747562045 -0.0019500071580485427 0 -0.0037925915626072079 -0.0019322122840804857 0 -0.0037824385159481032 -0.0019472563881749345 0 -0.0037925915626072079 -0.0019322122840804857 0 -0.0038070443587756336 -0.0019112166535494453 0 -0.0037831701234559358 -0.0019098081101293382 0 -0.0037980446747562045 -0.0019500071580485427 0 -0.0037925915626072079 -0.0019322122840804857 0 -0.0038070443587756336 -0.0019112166535494453 0 -0.004212960124312895 -0.0017999081027590689 0 -0.004167254603987175 -0.0018901435084218157 0 -0.0041297846865121423 -0.001781258650990011 0 -0.0037925915626072079 -0.0019322122840804857 0 -0.0037831701234559358 -0.0019098081101293382 0 -0.0037824385159481032 -0.0019472563881749345 0 -0.004212960124312895 -0.0017999081027590689 0 -0.0042468414992486428 -0.0019689974857963221 0 -0.004167254603987175 -0.0018901435084218157 0 -0.0040092735595879314 -0.0018422458792325522 0 -0.0039117000560417855 -0.0020280571334082352 0 -0.0042468414992486428 -0.0019689974857963221 0 -0.004167254603987175 -0.0018901435084218157 0 -0.0041527270413850778 -0.0019954022538681282 0 -0.004031096237064262 -0.0020409954038887153 0 -0.0040894328138117155 -0.0019035839919744068 0 -0.0041527270413850778 -0.0019954022538681282 0 -0.004167254603987175 -0.0018901435084218157 0 -0.0040894328138117155 -0.0019035839919744068 0 -0.0041527270413850778 -0.0019954022538681282 0 -0.004167254603987175 -0.0018901435084218157 0 -0.0040894328138117155 -0.0019035839919744068 0 -0.0041297846865121423 -0.001781258650990011 0 -0.003968365019650393 -0.0020817426962475359 0 -0.0039419031859466791 -0.0020787213091163891 0 -0.0039662415352443641 -0.002076738615641787 0 -0.0039202676514844721 -0.0020872595942535445 0 -0.003968365019650393 -0.0020817426962475359 0 -0.0039419031859466791 -0.0020787213091163891 0 -0.0039202676514844721 -0.0020872595942535445 0 -0.003926582659734076 -0.0020984010373317863 0 -0.003968365019650393 -0.0020817426962475359 0 -0.003926582659734076 -0.0020984010373317863 0 -0.003968365019650393 -0.0020817426962475359 0 -0.0039577306760528504 -0.0020980616250848173 0 -0.004031096237064262 -0.0020409954038887153 0 -0.003968365019650393 -0.0020817426962475359 0 -0.0039577306760528504 -0.0020980616250848173 0 -0.0040188119222204707 -0.0020568892223584703 0 -0.0040571862899412107 -0.0020668480874942202 0 -0.004031096237064262 -0.0020409954038887153 0 -0.0039409734730651205 -0.0021566021208386126 0 -0.0039577306760528504 -0.0020980616250848173 0 -0.003926582659734076 -0.0020984010373317863 0 -0.0039577306760528504 -0.0020980616250848173 0 -0.0039002735303791699 -0.0021253460653253005 0 -0.0039409734730651205 -0.0021566021208386126 0 -0.0039577306760528504 -0.0020980616250848173 0 -0.0039002735303791699 -0.0021253460653253005 0 -0.0038443781478779897 -0.0022032475771994091 0 -0.0039409734730651205 -0.0021566021208386126 0 -0.0038408374196788183 -0.0021719279966379229 0 -0.0039409734730651205 -0.0021566021208386126 0 -0.0039002735303791699 -0.0021253460653253005 0 -0.0038408374196788183 -0.0021719279966379229 0 -0.0039117000560417855 -0.0020280571334082352 0 -0.0040571862899412107 -0.0020668480874942202 0 -0.0038358101340696298 -0.0022156394623983511 0 -0.0038408374196788183 -0.0021719279966379229 0 -0.0037914979134763913 -0.0021638709792865126 0 -0.0039117000560417855 -0.0020280571334082352 0 -0.0038948084518607116 -0.0021421794090121758 0 -0.0038408374196788183 -0.0021719279966379229 0 -0.0038510476924080409 -0.0021347452149715405 0 -0.0037914979134763913 -0.0021638709792865126 0 -0.0039002735303791699 -0.0021253460653253005 0 -0.0038408374196788183 -0.0021719279966379229 0 -0.0038510476924080409 -0.0021347452149715405 0 -0.0038763171426845085 -0.0021062945621305789 0 -0.0038356649051514737 -0.0021029585746243952 0 -0.0038051894453465622 -0.0021314737512587276 0 -0.0038510476924080409 -0.0021347452149715405 0 -0.0038763171426845085 -0.0021062945621305789 0 -0.0038051894453465622 -0.0021314737512587276 0 -0.0039202676514844721 -0.0020872595942535445 0 -0.003926582659734076 -0.0020984010373317863 0 -0.0038763171426845085 -0.0021062945621305789 0 -0.0039002735303791699 -0.0021253460653253005 0 -0.0038510476924080409 -0.0021347452149715405 0 -0.0038763171426845085 -0.0021062945621305789 0 -0.003926582659734076 -0.0020984010373317863 0 -0.0039002735303791699 -0.0021253460653253005 0 -0.0038763171426845085 -0.0021062945621305789 0 -0.0039202676514844721 -0.0020872595942535445 0 -0.0038763171426845085 -0.0021062945621305789 0 -0.0038848438275210255 -0.0020861502237264286 0 -0.0039202676514844721 -0.0020872595942535445 0 -0.0038848438275210255 -0.0020861502237264286 0 -0.0039180300194389664 -0.0020742002566469233 0 -0.0038763171426845085 -0.0021062945621305789 0 -0.0038848438275210255 -0.0020861502237264286 0 -0.0038356649051514737 -0.0021029585746243952 0 -0.0038848438275210255 -0.0020861502237264286 0 -0.0038356649051514737 -0.0021029585746243952 0 -0.0038543533688128306 -0.002080877549998781 0 -0.0038356649051514737 -0.0021029585746243952 0 -0.0037881296010163802 -0.0021039329236970665 0 -0.0038543533688128306 -0.002080877549998781 0 -0.0038356649051514737 -0.0021029585746243952 0 -0.0037881296010163802 -0.0021039329236970665 0 -0.0038051894453465622 -0.0021314737512587276 0 -0.0037881296010163802 -0.0021039329236970665 0 -0.0037634522324589315 -0.0021354201225315238 0 -0.0037037658157914317 -0.0021466571627495471 0 -0.0037634522324589315 -0.0021354201225315238 0 -0.0038051894453465622 -0.0021314737512587276 0 -0.0037366694082995224 -0.0021616715510367778 0 -0.0037634522324589315 -0.0021354201225315238 0 -0.0037366694082995224 -0.0021616715510367778 0 -0.0037037658157914317 -0.0021466571627495471 0 -0.0037881296010163802 -0.0021039329236970665 0 -0.0037634522324589315 -0.0021354201225315238 0 -0.0038051894453465622 -0.0021314737512587276 0 -0.0038510476924080409 -0.0021347452149715405 0 -0.0038051894453465622 -0.0021314737512587276 0 -0.0037914979134763913 -0.0021638709792865126 0 -0.0038051894453465622 -0.0021314737512587276 0 -0.0037914979134763913 -0.0021638709792865126 0 -0.0037366694082995224 -0.0021616715510367778 0 -0.0038358101340696298 -0.0022156394623983511 0 -0.0037914979134763913 -0.0021638709792865126 0 -0.0037388606239690172 -0.0021780396863223983 0 -0.0037914979134763913 -0.0021638709792865126 0 -0.0037388606239690172 -0.0021780396863223983 0 -0.0037366694082995224 -0.0021616715510367778 0 -0.0037366694082995224 -0.0021616715510367778 0 -0.003687808168055081 -0.0021802262412026706 0 -0.0037037658157914317 -0.0021466571627495471 0 -0.0037388606239690172 -0.0021780396863223983 0 -0.0037366694082995224 -0.0021616715510367778 0 -0.003687808168055081 -0.0021802262412026706 0 -0.0036727386104579221 -0.0021860658334557255 0 -0.0037388606239690172 -0.0021780396863223983 0 -0.003687808168055081 -0.0021802262412026706 0 -0.0036727386104579221 -0.0021860658334557255 0 -0.003687808168055081 -0.0021802262412026706 0 -0.0036771651327208569 -0.0021790722123339965 0 -0.003687808168055081 -0.0021802262412026706 0 -0.0036771651327208569 -0.0021790722123339965 0 -0.003643398888776613 -0.0021805657194345837 0 -0.0037037658157914317 -0.0021466571627495471 0 -0.0037096718244916068 -0.0020933755234599223 0 -0.0035826173633458605 -0.0021481908677583898 0 -0.003687808168055081 -0.0021802262412026706 0 -0.0037037658157914317 -0.0021466571627495471 0 -0.003643398888776613 -0.0021805657194345837 0 -0.0037881296010163802 -0.0021039329236970665 0 -0.0037037658157914317 -0.0021466571627495471 0 -0.0037096718244916068 -0.0020933755234599223 0 -0.0037096718244916068 -0.0020933755234599223 0 -0.0037262189036159584 -0.002030702661469539 0 -0.0037731628018614822 -0.0020662150806454393 0 -0.0037096718244916068 -0.0020933755234599223 0 -0.0037262189036159584 -0.002030702661469539 0 -0.0035982816203288036 -0.002074579388168709 0 -0.0037295508264754544 -0.0020310322471629328 0 -0.0036789610916542325 -0.0019250759351556518 0 -0.0037510515714175518 -0.0020153136105315831 0 -0.0037262189036159584 -0.002030702661469539 0 -0.0037473263155412061 -0.0020066009125380003 0 -0.0037510515714175518 -0.0020153136105315831 0 -0.0037906022372180587 -0.0020128505019872023 0 -0.0037477433023028212 -0.0020068481749311567 0 -0.0037510515714175518 -0.0020153136105315831 0 -0.0037262189036159584 -0.002030702661469539 0 -0.0037917939724376342 -0.0020361911100030324 0 -0.0037510515714175518 -0.0020153136105315831 0 -0.0037917939724376342 -0.0020361911100030324 0 -0.0037906022372180587 -0.0020128505019872023 0 -0.0037906022372180587 -0.0020128505019872023 0 -0.0038264861364684564 -0.002024705103151953 0 -0.0038462164137814405 -0.0019838483263116343 0 -0.0037917939724376342 -0.0020361911100030324 0 -0.0038264861364684564 -0.002024705103151953 0 -0.0038477095396540501 -0.0020533255830647028 0 -0.0037917939724376342 -0.0020361911100030324 0 -0.0037906022372180587 -0.0020128505019872023 0 -0.0038264861364684564 -0.002024705103151953 0 -0.0037917939724376342 -0.0020361911100030324 0 -0.0038158434313840285 -0.0020693710642769102 0 -0.0038477095396540501 -0.0020533255830647028 0 -0.0037262189036159584 -0.002030702661469539 0 -0.0037917939724376342 -0.0020361911100030324 0 -0.0037731628018614822 -0.0020662150806454393 0 -0.0037917939724376342 -0.0020361911100030324 0 -0.0038158434313840285 -0.0020693710642769102 0 -0.0037731628018614822 -0.0020662150806454393 0 -0.0037881296010163802 -0.0021039329236970665 0 -0.0037096718244916068 -0.0020933755234599223 0 -0.0037731628018614822 -0.0020662150806454393 0 -0.0037881296010163802 -0.0021039329236970665 0 -0.0038158434313840285 -0.0020693710642769102 0 -0.0038543533688128306 -0.002080877549998781 0 -0.0037881296010163802 -0.0021039329236970665 0 -0.0038158434313840285 -0.0020693710642769102 0 -0.0037731628018614822 -0.0020662150806454393 0 -0.0038848438275210255 -0.0020861502237264286 0 -0.0038854361681735835 -0.0020706431613657229 0 -0.0039180300194389664 -0.0020742002566469233 0 -0.0038848438275210255 -0.0020861502237264286 0 -0.0038543533688128306 -0.002080877549998781 0 -0.0038854361681735835 -0.0020706431613657229 0 -0.0038854361681735835 -0.0020706431613657229 0 -0.0038913676599005194 -0.0020567946055303757 0 -0.0038477095396540501 -0.0020533255830647028 0 -0.0038854361681735835 -0.0020706431613657229 0 -0.0038913676599005194 -0.0020567946055303757 0 -0.0039180300194389664 -0.0020742002566469233 0 -0.0038158434313840285 -0.0020693710642769102 0 -0.0038543533688128306 -0.002080877549998781 0 -0.0038477095396540501 -0.0020533255830647028 0 -0.0038543533688128306 -0.002080877549998781 0 -0.0038854361681735835 -0.0020706431613657229 0 -0.0038477095396540501 -0.0020533255830647028 0 -0.0038913676599005194 -0.0020567946055303757 0 -0.0038477095396540501 -0.0020533255830647028 0 -0.0038644945501218231 -0.0020335805048185287 0 -0.0038264861364684564 -0.002024705103151953 0 -0.0038477095396540501 -0.0020533255830647028 0 -0.0038644945501218231 -0.0020335805048185287 0 -0.0038264861364684564 -0.002024705103151953 0 -0.0038644945501218231 -0.0020335805048185287 0 -0.0038462164137814405 -0.0019838483263116343 0 -0.0038644945501218231 -0.0020335805048185287 0 -0.0039091845247161304 -0.0020399193185583111 0 -0.0038462164137814405 -0.0019838483263116343 0 -0.0038913676599005194 -0.0020567946055303757 0 -0.0038644945501218231 -0.0020335805048185287 0 -0.0039091845247161304 -0.0020399193185583111 0 -0.0039091845247161304 -0.0020399193185583111 0 -0.0039562772407856486 -0.0020626093787791907 0 -0.0039342774528017656 -0.0020648437692521561 0 -0.0038913676599005194 -0.0020567946055303757 0 -0.0039091845247161304 -0.0020399193185583111 0 -0.0039342774528017656 -0.0020648437692521561 0 -0.0039091845247161304 -0.0020399193185583111 0 -0.0039562772407856486 -0.0020626093787791907 0 -0.003959914911348862 -0.0020299026685488154 0 -0.0039680737947900158 -0.0020764391289719098 0 -0.0039562772407856486 -0.0020626093787791907 0 -0.0039342774528017656 -0.0020648437692521561 0 -0.0039680737947900158 -0.0020764391289719098 0 -0.0039342774528017656 -0.0020648437692521561 0 -0.0039447849594443649 -0.0020736920894364103 0 -0.0038913676599005194 -0.0020567946055303757 0 -0.0039342774528017656 -0.0020648437692521561 0 -0.0039180300194389664 -0.0020742002566469233 0 -0.0039342774528017656 -0.0020648437692521561 0 -0.0039180300194389664 -0.0020742002566469233 0 -0.0039447849594443649 -0.0020736920894364103 0 -0.0039202676514844721 -0.0020872595942535445 0 -0.0039180300194389664 -0.0020742002566469233 0 -0.0039419031859466791 -0.0020787213091163891 0 -0.0039180300194389664 -0.0020742002566469233 0 -0.0039419031859466791 -0.0020787213091163891 0 -0.0039447849594443649 -0.0020736920894364103 0 -0.0039419031859466791 -0.0020787213091163891 0 -0.0039662415352443641 -0.002076738615641787 0 -0.0039447849594443649 -0.0020736920894364103 0 -0.0039680737947900158 -0.0020764391289719098 0 -0.0039662415352443641 -0.002076738615641787 0 -0.0039447849594443649 -0.0020736920894364103 0 -0.0034074805825061029 -0.0021391129598784587 0 -0.0035740699322345543 -0.0021815030580026045 0 -0.0030649588558098557 -0.0022665834149704312 0 -0.0033933297877847199 -0.002306855751393637 0 -0.0032459882097997206 -0.00218854275776261 0 -0.0037819743470556299 -0.002029685869285011 0 -0.0037369256701627585 -0.0020224195411995263 0 -0.0037280408198118085 -0.0020275245219411485 0 -0.0037819743470556299 -0.002029685869285011 0 -0.0037369256701627585 -0.0020224195411995263 0 -0.0037799291797059285 -0.0020677316675048194 0 -0.0037652365906874026 -0.0020229480516213726 0 -0.0037799291797059285 -0.0020677316675048194 0 -0.0036771651327208569 -0.0021790722123339965 0 -0.0035740699322345543 -0.0021815030580026045 0 -0.0036548759680620105 -0.0021784449776719238 0 -0.0033933297877847199 -0.002306855751393637 0 -0.0036771651327208569 -0.0021790722123339965 0 -0.003643398888776613 -0.0021805657194345837 0 -0.0037037658157914317 -0.0021466571627495471 0 -0.0035826173633458605 -0.0021481908677583898 0 -0.003643398888776613 -0.0021805657194345837 0 -0.0033933297877847199 -0.002306855751393637 0 -0.0035826173633458605 -0.0021481908677583898 0 -0.003643398888776613 -0.0021805657194345837 0 -0.0033933297877847199 -0.002306855751393637 0 -0.0034276221629607282 -0.0021335159968269234 0 -0.0032459882097997206 -0.00218854275776261 0 -0.0033933297877847199 -0.002306855751393637 0 -0.0035826173633458605 -0.0021481908677583898 0 -0.0034276221629607282 -0.0021335159968269234 0 -0.0034276221629607282 -0.0021335159968269234 0 -0.0034267396768815181 -0.0020294923828980921 0 -0.0032788204059429338 -0.0020883676653811801 0 -0.0035826173633458605 -0.0021481908677583898 0 -0.0034276221629607282 -0.0021335159968269234 0 -0.0035982816203288036 -0.002074579388168709 0 -0.0034276221629607282 -0.0021335159968269234 0 -0.0035982816203288036 -0.002074579388168709 0 -0.0034267396768815181 -0.0020294923828980921 0 -0.0037096718244916068 -0.0020933755234599223 0 -0.0035826173633458605 -0.0021481908677583898 0 -0.0035982816203288036 -0.002074579388168709 0 -0.0037262189036159584 -0.002030702661469539 0 -0.0035615867572346338 -0.0019855991902710261 0 -0.003615664476336693 -0.0018911054334001056 0 -0.0037262189036159584 -0.002030702661469539 0 -0.0035982816203288036 -0.002074579388168709 0 -0.0035615867572346338 -0.0019855991902710261 0 -0.0035982816203288036 -0.002074579388168709 0 -0.0035615867572346338 -0.0019855991902710261 0 -0.0034267396768815181 -0.0020294923828980921 0 -0.0035615867572346338 -0.0019855991902710261 0 -0.0034267396768815181 -0.0020294923828980921 0 -0.0035101857326162674 -0.0018797124613253707 0 -0.0035615867572346338 -0.0019855991902710261 0 -0.0035101857326162674 -0.0018797124613253707 0 -0.003615664476336693 -0.0018911054334001056 0 -0.003445850106271635 -0.0019214162292851885 0 -0.003106815035327247 -0.0020991984636174995 0 -0.0034267396768815181 -0.0020294923828980921 0 -0.0032788204059429338 -0.0020883676653811801 0 -0.0032922999283177602 -0.0019739443556706965 0 -0.0034267396768815181 -0.0020294923828980921 0 -0.0034758888337147417 -0.0018491033295890023 0 -0.0035101857326162674 -0.0018797124613253707 0 -0.0034267396768815181 -0.0020294923828980921 0 -0.0034420848055576113 -0.0019333621917913991 0 -0.0032922999283177602 -0.0019739443556706965 0 -0.0032788204059429338 -0.0020883676653811801 0 -0.0031458522032431972 -0.0020752285016005273 0 -0.0032922999283177602 -0.0019739443556706965 0 -0.0032788204059429338 -0.0020883676653811801 0 -0.0031101178801169163 -0.0021701027111297785 0 -0.0031458522032431972 -0.0020752285016005273 0 -0.0034276221629607282 -0.0021335159968269234 0 -0.0032788204059429338 -0.0020883676653811801 0 -0.0032459882097997206 -0.00218854275776261 0 -0.0032788204059429338 -0.0020883676653811801 0 -0.0032459882097997206 -0.00218854275776261 0 -0.0031101178801169163 -0.0021701027111297785 0 -0.0030649588558098557 -0.0022665834149704312 0 -0.0031101178801169163 -0.0021701027111297785 0 -0.0029710190518777804 -0.002196587403948153 0 -0.0030649588558098557 -0.0022665834149704312 0 -0.0032459882097997206 -0.00218854275776261 0 -0.0031101178801169163 -0.0021701027111297785 0 -0.0031101178801169163 -0.0021701027111297785 0 -0.0030242760126045634 -0.0021795022233090855 0 -0.0029710190518777804 -0.002196587403948153 0 -0.0030242760126045634 -0.0021795022233090855 0 -0.0030424555062097342 -0.0020695419339894468 0 -0.0028740865736111162 -0.0022977311493467376 0 -0.0031101178801169163 -0.0021701027111297785 0 -0.0030242760126045634 -0.0021795022233090855 0 -0.0031458522032431972 -0.0020752285016005273 0 -0.0030242760126045634 -0.0021795022233090855 0 -0.0031458522032431972 -0.0020752285016005273 0 -0.0030424555062097342 -0.0020695419339894468 0 -0.0030242760126045634 -0.0021795022233090855 0 -0.0028740865736111162 -0.0022977311493467376 0 -0.0029710190518777804 -0.002196587403948153 0 -0.0027340122394191018 -0.0026330334394890709 0 -0.0028740865736111162 -0.0022977311493467376 0 -0.0030917982163446143 -0.0022303211134380601 0 -0.0027361992532611954 -0.0026571461356651289 0 -0.0031692696265139091 -0.0027080057130087756 0 -0.0027340122394191018 -0.0026330334394890709 0 -0.0030917982163446143 -0.0022303211134380601 0 -0.0034213674025385817 -0.0024202910299528442 0 -0.0030917982163446143 -0.0022303211134380601 0 -0.0030530611995787738 -0.00209655237200121 0 -0.0035620213744057033 -0.0021265071473036395 0 -0.003372484821969775 -0.00207675481650824 0 -0.0035591898406046726 -0.0021258697067271944 0 -0.0030649588558098557 -0.0022665834149704312 0 -0.0030530611995787738 -0.00209655237200121 0 -0.0029710190518777804 -0.002196587403948153 0 -0.0028740865736111162 -0.0022977311493467376 0 -0.0030917982163446143 -0.0022303211134380601 0 -0.0029710190518777804 -0.002196587403948153 0 -0.0030917982163446143 -0.0022303211134380601 0 -0.0030530611995787738 -0.00209655237200121 0 -0.0029710190518777804 -0.002196587403948153 0 -0.00335865704563442 -0.0027367852609231575 0 -0.0031692696265139091 -0.0027080057130087756 0 -0.0030772206155059096 -0.0032337222030111106 0 -0.0029782885677757049 -0.0030088674609512122 0 -0.0030782297218725913 -0.003195556910318829 0 -0.0030917982163446143 -0.0022303211134380601 0 -0.0034213674025385817 -0.0024202910299528442 0 -0.0035620213744057033 -0.0021265071473036395 0 -0.0036924511282235006 -0.0022397260166072976 0 -0.0034213674025385817 -0.0024202910299528442 0 -0.0035620213744057033 -0.0021265071473036395 0 -0.0036924511282235006 -0.0022397260166072976 0 -0.0035620213744057033 -0.0021265071473036395 0 -0.0036787461529682085 -0.0021519130525111123 0 -0.0035620213744057033 -0.0021265071473036395 0 -0.0036530238208257616 -0.0020958214244591344 0 -0.0036787461529682085 -0.0021519130525111123 0 -0.0036530238208257616 -0.0020958214244591344 0 -0.003627213223766218 -0.0020571529556878379 0 -0.0036654303652202433 -0.0020650985777035764 0 -0.0036547452819189513 -0.0020333342464704651 0 -0.0035620213744057033 -0.0021265071473036395 0 -0.003627213223766218 -0.0020571529556878379 0 -0.0035620213744057033 -0.0021265071473036395 0 -0.0036530238208257616 -0.0020958214244591344 0 -0.003627213223766218 -0.0020571529556878379 0 -0.003627213223766218 -0.0020571529556878379 0 -0.0036661288782041108 -0.0020267803812659699 0 -0.0036539690452648045 -0.0020334043427530928 0 -0.003627213223766218 -0.0020571529556878379 0 -0.0036654303652202433 -0.0020650985777035764 0 -0.0036539690452648045 -0.0020334043427530928 0 -0.0036654303652202433 -0.0020650985777035764 0 -0.0036539690452648045 -0.0020334043427530928 0 -0.0036793520593842938 -0.0020483589601061809 0 -0.0034074805825061029 -0.0021391129598784587 0 -0.003372484821969775 -0.00207675481650824 0 -0.0037369256701627585 -0.0020224195411995263 0 -0.0036547452819189513 -0.0020333342464704651 0 -0.0036793520896833023 -0.0020338456588342266 0 -0.0036547452819189513 -0.0020333342464704651 0 -0.003627213223766218 -0.0020571529556878379 0 -0.0036793520896833023 -0.0020338456588342266 0 -0.003627213223766218 -0.0020571529556878379 0 -0.0036793520896833023 -0.0020338456588342266 0 -0.0036661288782041108 -0.0020267803812659699 0 -0.0036793520896833023 -0.0020338456588342266 0 -0.0037280408198118085 -0.0020275245219411485 0 -0.0036661288782041108 -0.0020267803812659699 0 -0.0037369256701627585 -0.0020224195411995263 0 -0.0036793520896833023 -0.0020338456588342266 0 -0.0037280408198118085 -0.0020275245219411485 0 -0.0037280408198118085 -0.0020275245219411485 0 -0.0037168600061821553 -0.0020113904334132572 0 -0.0036661288782041108 -0.0020267803812659699 0 -0.0037855669720035434 -0.0020160380647986074 0 -0.0037280408198118085 -0.0020275245219411485 0 -0.0037168600061821553 -0.0020113904334132572 0 -0.0037168600061821553 -0.0020113904334132572 0 -0.0036661288782041108 -0.0020267803812659699 0 -0.0036526930780135572 -0.0020135785652174902 0 -0.0036661288782041108 -0.0020267803812659699 0 -0.0036539690452648045 -0.0020334043427530928 0 -0.0036526930780135572 -0.0020135785652174902 0 -0.0036539690452648045 -0.0020334043427530928 0 -0.0036595553398004067 -0.00201250687359964 0 -0.003681762183543158 -0.0020267876353285675 0 -0.0036539690452648045 -0.0020334043427530928 0 -0.0036595553398004067 -0.00201250687359964 0 -0.0036526930780135572 -0.0020135785652174902 0 -0.0037168600061821553 -0.0020113904334132572 0 -0.0036526930780135572 -0.0020135785652174902 0 -0.0036256715389681583 -0.0019960267330399353 0 -0.0036595553398004067 -0.00201250687359964 0 -0.0036526930780135572 -0.0020135785652174902 0 -0.0036256715389681583 -0.0019960267330399353 0 -0.0036256715389681583 -0.0019960267330399353 0 -0.003546883700951874 -0.0021479810532986712 0 -0.0038015552314539527 -0.0020666974528813463 0 -0.0036071660465511741 -0.0019955119257059643 0 -0.0034967156718501047 -0.0019810358170141945 0 -0.0036256715389681583 -0.0019960267330399353 0 -0.003546883700951874 -0.0021479810532986712 0 -0.003298919576737524 -0.0020015540482064037 0 -0.0036595553398004067 -0.00201250687359964 0 -0.0036256715389681583 -0.0019960267330399353 0 -0.0036720680422248435 -0.0019817291360761822 0 -0.0033189256099129512 -0.0022920107252629059 0 -0.003546883700951874 -0.0021479810532986712 0 -0.003298919576737524 -0.0020015540482064037 0 -0.0037855669720035434 -0.0020160380647986074 0 -0.0037168600061821553 -0.0020113904334132572 0 -0.0038015552314539527 -0.0020666974528813463 0 -0.0037168600061821553 -0.0020113904334132572 0 -0.0036256715389681583 -0.0019960267330399353 0 -0.0038015552314539527 -0.0020666974528813463 0 -0.0036342090050276192 -0.0023443331068443759 0 -0.003546883700951874 -0.0021479810532986712 0 -0.0038015552314539527 -0.0020666974528813463 0 -0.0036882633094091769 -0.0020810855829096375 0 -0.0037030732395567393 -0.0020883355371873582 0 -0.0037063104788319246 -0.0020886027576926518 0 -0.0025701194416615971 -0.0023518776080836252 0 -0.0025835826587126596 -0.0023664111341915937 0 -0.0025742963633542666 -0.0023427036807523701 0 -0.002568027071965023 -0.002359853834567628 0 -0.0025701194416615971 -0.0023518776080836252 0 -0.0025835826587126596 -0.0023664111341915937 0 -0.0030710302404466281 -0.0022516963484519583 0 -0.0031461014800399259 -0.002211371074236709 0 -0.002568027071965023 -0.002359853834567628 0 -0.0025701194416615971 -0.0023518776080836252 0 -0.0025618319386062861 -0.0023499593792271588 0 -0.002568027071965023 -0.002359853834567628 0 -0.0025579434271331661 -0.0023657556219342617 0 -0.0025618319386062861 -0.0023499593792271588 0 -0.0025579434271331661 -0.0023657556219342617 0 -0.0025618319386062861 -0.0023499593792271588 0 -0.0025468022993489097 -0.0023583859462052051 0 -0.002568027071965023 -0.002359853834567628 0 -0.0025579434271331661 -0.0023657556219342617 0 -0.0025647557391976351 -0.0023678739472662927 0 -0.0025579434271331661 -0.0023657556219342617 0 -0.0025693110496550447 -0.0023605776947947734 0 -0.0025647557391976351 -0.0023678739472662927 0 -0.0027202789953574961 -0.002364631091934485 0 -0.0025693110496550447 -0.0023605776947947734 0 -0.0027389255473980957 -0.0022318664563320237 0 -0.0026003481944628275 -0.0023383559314248711 0 -0.0026072255457104958 -0.0023190005725799959 0 -0.0027202789953574961 -0.002364631091934485 0 -0.0027389255473980957 -0.0022318664563320237 0 -0.0028398279972348347 -0.0022594598874975543 0 -0.002568027071965023 -0.002359853834567628 0 -0.0025647557391976351 -0.0023678739472662927 0 -0.0025835826587126596 -0.0023664111341915937 0 -0.0026072255457104958 -0.0023190005725799959 0 -0.0030710302404466281 -0.0022516963484519583 0 -0.0027389255473980957 -0.0022318664563320237 0 -0.0029102048829241158 -0.0021618005285391354 0 -0.0028398279972348347 -0.0022594598874975543 0 -0.0029102048829241158 -0.0021618005285391354 0 -0.0028398279972348347 -0.0022594598874975543 0 -0.0029160277563580871 -0.0021840291803510424 0 -0.0028398279972348347 -0.0022594598874975543 0 -0.0029421302775391907 -0.0022613265225381401 0 -0.0029160277563580871 -0.0021840291803510424 0 -0.0028303158037430169 -0.0023622803180283775 0 -0.0028398279972348347 -0.0022594598874975543 0 -0.0029421302775391907 -0.0022613265225381401 0 -0.0029357273533405048 -0.0020792786778917301 0 -0.0031461475069012152 -0.0021481496877499137 0 -0.003298919576737524 -0.0020015540482064037 0 -0.0029421302775391907 -0.0022613265225381401 0 -0.0030270918056173025 -0.0022009300846160991 0 -0.0029357273533405048 -0.0020792786778917301 0 -0.0030744327187762119 -0.0022990709750578564 0 -0.0030270918056173025 -0.0022009300846160991 0 -0.0031461475069012152 -0.0021481496877499137 0 -0.0030744327187762119 -0.0022990709750578564 0 -0.0029421302775391907 -0.0022613265225381401 0 -0.0030270918056173025 -0.0022009300846160991 0 -0.0030270918056173025 -0.0022009300846160991 0 -0.0029357273533405048 -0.0020792786778917301 0 -0.0031461475069012152 -0.0021481496877499137 0 -0.003033697819610584 -0.0022214167871436189 0 -0.0032820848666779731 -0.0021289826576099753 0 -0.0029421302775391907 -0.0022613265225381401 0 -0.0029262993824025634 -0.0021627948006250619 0 -0.0029160277563580871 -0.0021840291803510424 0 -0.0030710302404466281 -0.0022516963484519583 0 -0.0032820848666779731 -0.0021289826576099753 0 -0.0030710302404466281 -0.0022516963484519583 0 -0.0030612170512981525 -0.0022361683612738782 0 -0.0029118057490976502 -0.0021673557205217939 0 -0.0029262993824025634 -0.0021627948006250619 0 -0.0029160277563580871 -0.0021840291803510424 0 -0.0033189256099129512 -0.0022920107252629059 0 -0.0030744327187762119 -0.0022990709750578564 0 -0.0031461475069012152 -0.0021481496877499137 0 -0.0033189256099129512 -0.0022920107252629059 0 -0.0031461475069012152 -0.0021481496877499137 0 -0.003298919576737524 -0.0020015540482064037 0 -0.0036720680422248435 -0.0019817291360761822 0 -0.0036964569757522957 -0.0019898469610339061 0 -0.0036942877278806317 -0.0020064489284077626 0 -0.0036882633094091769 -0.0020810855829096375 0 -0.0036877733146111445 -0.0020812318670750114 0 -0.0037030732395567393 -0.0020883355371873582 0 -0.003708910815233963 -0.001973031597372582 0 -0.0037067129173861163 -0.0019914978099901033 0 -0.0037169434990760629 -0.0020057843726115961 0 -0.003708910815233963 -0.001973031597372582 0 -0.0036720680422248435 -0.0019817291360761822 0 -0.0036964569757522957 -0.0019898469610339061 0 -0.0032820848666779731 -0.0021289826576099753 0 -0.0034967156718501047 -0.0019810358170141945 0 -0.0032820848666779731 -0.0021289826576099753 0 -0.0037454679775456201 -0.0020287473372128267 0 -0.003708910815233963 -0.001973031597372582 0 -0.0036964569757522957 -0.0019898469610339061 0 -0.0037067129173861163 -0.0019914978099901033 0 -0.0036964569757522957 -0.0019898469610339061 0 -0.0037067129173861163 -0.0019914978099901033 0 -0.0037045698938874844 -0.0019974025550603043 0 -0.0037169434990760629 -0.0020057843726115961 0 -0.0037045698938874844 -0.0019974025550603043 0 -0.0036942877278806317 -0.0020064489284077626 0 -0.0037067129173861163 -0.0019914978099901033 0 -0.0037169434990760629 -0.0020057843726115961 0 -0.0037045698938874844 -0.0019974025550603043 0 -0.0036964569757522957 -0.0019898469610339061 0 -0.0037045698938874844 -0.0019974025550603043 0 -0.0036942877278806317 -0.0020064489284077626 0 -0.0036942877278806317 -0.0020064489284077626 0 -0.003681762183543158 -0.0020267876353285675 0 -0.0037060131156239642 -0.0020259846179945546 0 -0.0037169434990760629 -0.0020057843726115961 0 -0.0036942877278806317 -0.0020064489284077626 0 -0.0037060131156239642 -0.0020259846179945546 0 -0.0036595553398004067 -0.00201250687359964 0 -0.0036942877278806317 -0.0020064489284077626 0 -0.003681762183543158 -0.0020267876353285675 0 -0.0036595553398004067 -0.00201250687359964 0 -0.0036720680422248435 -0.0019817291360761822 0 -0.0036942877278806317 -0.0020064489284077626 0 -0.0036539690452648045 -0.0020334043427530928 0 -0.003681762183543158 -0.0020267876353285675 0 -0.0036793520593842938 -0.0020483589601061809 0 -0.003681762183543158 -0.0020267876353285675 0 -0.0037024996038639555 -0.0020471378166571027 0 -0.0036793520593842938 -0.0020483589601061809 0 -0.0037169434990760629 -0.0020057843726115961 0 -0.0037060131156239642 -0.0020259846179945546 0 -0.0037298378489078214 -0.0020455820219022337 0 -0.003681762183543158 -0.0020267876353285675 0 -0.0037060131156239642 -0.0020259846179945546 0 -0.0037024996038639555 -0.0020471378166571027 0 -0.0037060131156239642 -0.0020259846179945546 0 -0.0037024996038639555 -0.0020471378166571027 0 -0.0037298378489078214 -0.0020455820219022337 0 -0.0031381915081718768 -0.0022352932997755149 0 -0.0031461014800399259 -0.002211371074236709 0 -0.0037190766237151594 -0.0020974952427173228 0 -0.0037265171094620067 -0.0020983497121650567 0 -0.0037063104788319246 -0.0020886027576926518 0 -0.0025495383848000426 -0.002344060414024685 0 -0.0025742963633542666 -0.0023427036807523701 0 -0.0025624522051717301 -0.0023405559047433495 0 -0.0037454679775456201 -0.0020287473372128267 0 -0.0037210683959541329 -0.0020757398728490951 0 -0.0037030732395567393 -0.0020883355371873582 0 -0.0037190766237151594 -0.0020974952427173228 0 -0.0037063104788319246 -0.0020886027576926518 0 -0.0025664727339216489 -0.0023430830635452595 0 -0.0025742963633542666 -0.0023427036807523701 0 -0.0025624522051717301 -0.0023405559047433495 0 -0.0025701194416615971 -0.0023518776080836252 0 -0.0025664727339216489 -0.0023430830635452595 0 -0.0025742963633542666 -0.0023427036807523701 0 -0.0025701194416615971 -0.0023518776080836252 0 -0.0025664727339216489 -0.0023430830635452595 0 -0.0025618319386062861 -0.0023499593792271588 0 -0.0025618319386062861 -0.0023499593792271588 0 -0.0025468022993489097 -0.0023583859462052051 0 -0.0025575524302838127 -0.0023432945491075195 0 -0.0025664727339216489 -0.0023430830635452595 0 -0.0025618319386062861 -0.0023499593792271588 0 -0.0025651094685498546 -0.0023395768752052445 0 -0.0025664727339216489 -0.0023430830635452595 0 -0.0025624522051717301 -0.0023405559047433495 0 -0.0025651094685498546 -0.0023395768752052445 0 -0.0025618319386062861 -0.0023499593792271588 0 -0.0025651094685498546 -0.0023395768752052445 0 -0.0025575524302838127 -0.0023432945491075195 0 -0.0025651094685498546 -0.0023395768752052445 0 -0.0025726283806402264 -0.0023444999048187138 0 -0.002580457414437964 -0.0023336646934945774 0 -0.0025624522051717301 -0.0023405559047433495 0 -0.0025651094685498546 -0.0023395768752052445 0 -0.0025726283806402264 -0.0023444999048187138 0 -0.0025495383848000426 -0.002344060414024685 0 -0.0025624522051717301 -0.0023405559047433495 0 -0.0025726283806402264 -0.0023444999048187138 0 -0.0025726283806402264 -0.0023444999048187138 0 -0.0026010382085351136 -0.0023686398211029192 0 -0.002580457414437964 -0.0023336646934945774 0 -0.0025726283806402264 -0.0023444999048187138 0 -0.0026010382085351136 -0.0023686398211029192 0 -0.0025670188214235307 -0.0023770834700548712 0 -0.0025495383848000426 -0.002344060414024685 0 -0.0025670188214235307 -0.0023770834700548712 0 -0.0025248068217895831 -0.002463085146384541 0 -0.0026010382085351136 -0.0023686398211029192 0 -0.0025918531019238243 -0.0024126694184973562 0 -0.0026383972148236543 -0.0024137493747124683 0 -0.0026010382085351136 -0.0023686398211029192 0 -0.0025670188214235307 -0.0023770834700548712 0 -0.0025918531019238243 -0.0024126694184973562 0 -0.0025495383848000426 -0.002344060414024685 0 -0.0025726283806402264 -0.0023444999048187138 0 -0.0025670188214235307 -0.0023770834700548712 0 -0.0037190766237151594 -0.0020974952427173228 0 -0.0037265171094620067 -0.0020983497121650567 0 -0.0037342289914429842 -0.002110460328261904 0 -0.0037265171094620067 -0.0020983497121650567 0 -0.0037342289914429842 -0.002110460328261904 0 -0.0037486566112539255 -0.0021190858149456883 0 -0.0031381915081718768 -0.0022352932997755149 0 -0.0031385157831981068 -0.002253703714659079 0 -0.0037210683959541329 -0.0020757398728490951 0 -0.0037329429425756338 -0.0021052674427018635 0 -0.0037486566112539255 -0.0021190858149456883 0 -0.0037433360948974613 -0.0021413771544953257 0 -0.0037345812927402707 -0.0021307894038289686 0 -0.0037342289914429842 -0.002110460328261904 0 -0.0037486566112539255 -0.0021190858149456883 0 -0.0037345812927402707 -0.0021307894038289686 0 -0.0025670188214235307 -0.0023770834700548712 0 -0.0025248068217895831 -0.002463085146384541 0 -0.0025918531019238243 -0.0024126694184973562 0 -0.0026134211681105141 -0.0024679488139885439 0 -0.0026069913947828587 -0.0025996122469073468 0 -0.0026615888342705865 -0.0025503766294819059 0 -0.0025248068217895831 -0.002463085146384541 0 -0.0026134211681105141 -0.0024679488139885439 0 -0.0026069913947828587 -0.0025996122469073468 0 -0.0025248068217895831 -0.002463085146384541 0 -0.0026134211681105141 -0.0024679488139885439 0 -0.0025918531019238243 -0.0024126694184973562 0 -0.0026134211681105141 -0.0024679488139885439 0 -0.0025918531019238243 -0.0024126694184973562 0 -0.0026383972148236543 -0.0024137493747124683 0 -0.0036654303652202433 -0.0020650985777035764 0 -0.0036793520593842938 -0.0020483589601061809 0 -0.0037007600692153544 -0.0020753663232709759 0 -0.0036654303652202433 -0.0020650985777035764 0 -0.0037007600692153544 -0.0020753663232709759 0 -0.0036877208331617555 -0.0020922189498560357 0 -0.0037024996038639555 -0.0020471378166571027 0 -0.0036793520593842938 -0.0020483589601061809 0 -0.0037007600692153544 -0.0020753663232709759 0 -0.0037342289914429842 -0.002110460328261904 0 -0.0037007600692153544 -0.0020753663232709759 0 -0.003716208696026796 -0.0020692623659334434 0 -0.0037298378489078214 -0.0020455820219022337 0 -0.0037342289914429842 -0.002110460328261904 0 -0.003716208696026796 -0.0020692623659334434 0 -0.0037024996038639555 -0.0020471378166571027 0 -0.0037007600692153544 -0.0020753663232709759 0 -0.003716208696026796 -0.0020692623659334434 0 -0.0037024996038639555 -0.0020471378166571027 0 -0.0037298378489078214 -0.0020455820219022337 0 -0.003716208696026796 -0.0020692623659334434 0 -0.0037342289914429842 -0.002110460328261904 0 -0.0037007600692153544 -0.0020753663232709759 0 -0.0037150134179099225 -0.0021138977012468748 0 -0.0037342289914429842 -0.002110460328261904 0 -0.0037150134179099225 -0.0021138977012468748 0 -0.0037345812927402707 -0.0021307894038289686 0 -0.0037007600692153544 -0.0020753663232709759 0 -0.0037150134179099225 -0.0021138977012468748 0 -0.0036877208331617555 -0.0020922189498560357 0 -0.0036530238208257616 -0.0020958214244591344 0 -0.0036654303652202433 -0.0020650985777035764 0 -0.0036877208331617555 -0.0020922189498560357 0 -0.0037150134179099225 -0.0021138977012468748 0 -0.0036877208331617555 -0.0020922189498560357 0 -0.0037000781905516633 -0.0021285398942263441 0 -0.0036530238208257616 -0.0020958214244591344 0 -0.0036877208331617555 -0.0020922189498560357 0 -0.0037000781905516633 -0.0021285398942263441 0 -0.0036924511282235006 -0.0022397260166072976 0 -0.0036787461529682085 -0.0021519130525111123 0 -0.0037096960055151384 -0.002166678509008793 0 -0.0036530238208257616 -0.0020958214244591344 0 -0.0036787461529682085 -0.0021519130525111123 0 -0.0037000781905516633 -0.0021285398942263441 0 -0.0036787461529682085 -0.0021519130525111123 0 -0.0037000781905516633 -0.0021285398942263441 0 -0.0037096960055151384 -0.002166678509008793 0 -0.0037096960055151384 -0.002166678509008793 0 -0.0037234563941216047 -0.0021457450991899628 0 -0.0037281956799450392 -0.002169603418878546 0 -0.0037000781905516633 -0.0021285398942263441 0 -0.0037096960055151384 -0.002166678509008793 0 -0.0037234563941216047 -0.0021457450991899628 0 -0.0037150134179099225 -0.0021138977012468748 0 -0.0037000781905516633 -0.0021285398942263441 0 -0.0037234563941216047 -0.0021457450991899628 0 -0.0037150134179099225 -0.0021138977012468748 0 -0.0037234563941216047 -0.0021457450991899628 0 -0.0037345812927402707 -0.0021307894038289686 0 -0.0037234563941216047 -0.0021457450991899628 0 -0.0037345812927402707 -0.0021307894038289686 0 -0.0037360986718969293 -0.0021516096937087914 0 -0.0037234563941216047 -0.0021457450991899628 0 -0.0037281956799450392 -0.002169603418878546 0 -0.0037360986718969293 -0.0021516096937087914 0 -0.0030772206155059096 -0.0032337222030111106 0 -0.0028237617040439752 -0.0033414083046991905 0 -0.0028541639609618993 -0.0032788739361556819 0 -0.0028237617040439752 -0.0033414083046991905 0 -0.0028541639609618993 -0.0032788739361556819 0 -0.0028182401204687245 -0.0033277806888934221 0 -0.0036924511282235006 -0.0022397260166072976 0 -0.0037096960055151384 -0.002166678509008793 0 -0.0037281956799450392 -0.002169603418878546 0 -0.00335865704563442 -0.0027367852609231575 0 -0.0033187263386248531 -0.0027605608626821822 0 -0.0030772206155059096 -0.0032337222030111106 0 -0.0028541639609618993 -0.0032788739361556819 0 -0.0030619984413198711 -0.0032269926031129109 0 -0.0031385157831981068 -0.002253703714659079 0 -0.0031155167272542417 -0.0026814066203097778 0 -0.0037486566112539255 -0.0021190858149456883 0 -0.0037433360948974613 -0.0021413771544953257 0 -0.0037562283700348282 -0.002160805959665898 0 -0.0025248068217895831 -0.002463085146384541 0 -0.0026069913947828587 -0.0025996122469073468 0 -0.0025726971658594521 -0.0027834587400021407 0 -0.0026159973582760283 -0.0027531987336204271 0 -0.0026254994587135302 -0.0026807823390887341 0 -0.0025726971658594521 -0.0027834587400021407 0 -0.0026254994587135302 -0.0026807823390887341 0 -0.0026069913947828587 -0.0025996122469073468 0 -0.0025726971658594521 -0.0027834587400021407 0 -0.0026159973582760283 -0.0027531987336204271 0 -0.0026472456721716412 -0.0027336241673578949 0 -0.0026254994587135302 -0.0026807823390887341 0 -0.0026159973582760283 -0.0027531987336204271 0 -0.0026472456721716412 -0.0027336241673578949 0 -0.0026444544415725854 -0.0027869906944075701 0 -0.0026826784168038987 -0.0027543197798635477 0 -0.0026472456721716412 -0.0027336241673578949 0 -0.0026444544415725854 -0.0027869906944075701 0 -0.0026826784168038987 -0.0027543197798635477 0 -0.0026472456721716412 -0.0027336241673578949 0 -0.0026786886414816346 -0.0027047168787701814 0 -0.0026786886414816346 -0.0027047168787701814 0 -0.0026254994587135302 -0.0026807823390887341 0 -0.0026824478944875553 -0.0026239592936702955 0 -0.0026472456721716412 -0.0027336241673578949 0 -0.0026786886414816346 -0.0027047168787701814 0 -0.0026254994587135302 -0.0026807823390887341 0 -0.0026254994587135302 -0.0026807823390887341 0 -0.0026069913947828587 -0.0025996122469073468 0 -0.0026824478944875553 -0.0026239592936702955 0 -0.0026069913947828587 -0.0025996122469073468 0 -0.0026615888342705865 -0.0025503766294819059 0 -0.0026824478944875553 -0.0026239592936702955 0 -0.0037433360948974613 -0.0021413771544953257 0 -0.0037360986718969293 -0.0021516096937087914 0 -0.0037562283700348282 -0.002160805959665898 0 -0.0037433360948974613 -0.0021413771544953257 0 -0.0037345812927402707 -0.0021307894038289686 0 -0.0037360986718969293 -0.0021516096937087914 0 -0.0037281956799450392 -0.002169603418878546 0 -0.0037360986718969293 -0.0021516096937087914 0 -0.0037562283700348282 -0.002160805959665898 0 -0.0028237617040439752 -0.0033414083046991905 0 -0.0028240446800385441 -0.0033360494385516509 0 -0.0028298831590802521 -0.003334302554823964 0 -0.0033187263386248531 -0.0027605608626821822 0 -0.0031155167272542417 -0.0026814066203097778 0 -0.0028237617040439752 -0.0033414083046991905 0 -0.0028298831590802521 -0.003334302554823964 0 -0.0028394282054332531 -0.0033265588954881418 0 -0.0028237617040439752 -0.0033414083046991905 0 -0.0028240446800385441 -0.0033360494385516509 0 -0.0028182401204687245 -0.0033277806888934221 0 -0.0028240446800385441 -0.0033360494385516509 0 -0.0028256402234614641 -0.0033390622294084188 0 -0.0028182401204687245 -0.0033277806888934221 0 -0.0028298831590802521 -0.003334302554823964 0 -0.0028256402234614641 -0.0033390622294084188 0 -0.002835145856392256 -0.0033360942887862718 0 -0.0028240446800385441 -0.0033360494385516509 0 -0.0028298831590802521 -0.003334302554823964 0 -0.0028256402234614641 -0.0033390622294084188 0 -0.0028256402234614641 -0.0033390622294084188 0 -0.002835145856392256 -0.0033360942887862718 0 -0.0028370014263780466 -0.0033450891940010941 0 -0.0028298831590802521 -0.003334302554823964 0 -0.0028382028332947155 -0.0033340003157231396 0 -0.002835145856392256 -0.0033360942887862718 0 -0.0031155167272542417 -0.0026814066203097778 0 -0.0027369285010281764 -0.0034763194849153746 0 -0.0028382028332947155 -0.0033340003157231396 0 -0.0028394282054332531 -0.0033265588954881418 0 -0.0028456127405309026 -0.0033414478531478974 0 -0.0028398037021379018 -0.0033383335432816768 0 -0.002835145856392256 -0.0033360942887862718 0 -0.0028370014263780466 -0.0033450891940010941 0 -0.0025564372972194157 -0.0027929390950133331 0 -0.0028577604347373806 -0.0033502700879591008 0 -0.0027917659350847413 -0.0030525296087169692 0 -0.0028398037021379018 -0.0033383335432816768 0 -0.0028382028332947155 -0.0033340003157231396 0 -0.0028456127405309026 -0.0033414478531478974 0 -0.0028398037021379018 -0.0033383335432816768 0 -0.0028382028332947155 -0.0033340003157231396 0 -0.002835145856392256 -0.0033360942887862718 0 -0.0028298831590802521 -0.003334302554823964 0 -0.0028382028332947155 -0.0033340003157231396 0 -0.0028394282054332531 -0.0033265588954881418 0 -0.00269240627443242 -0.0027987893054457588 0 -0.002654794958574663 -0.0028453786667093799 0 -0.0027283954294329538 -0.0028574392088496561 0 -0.00269240627443242 -0.0027987893054457588 0 -0.0026444544415725854 -0.0027869906944075701 0 -0.002654794958574663 -0.0028453786667093799 0 -0.0026826784168038987 -0.0027543197798635477 0 -0.00269240627443242 -0.0027987893054457588 0 -0.0026444544415725854 -0.0027869906944075701 0 -0.0026159973582760283 -0.0027531987336204271 0 -0.0026444544415725854 -0.0027869906944075701 0 -0.0025934896112094147 -0.0027864616210565695 0 -0.0025934896112094147 -0.0027864616210565695 0 -0.0025564372972194157 -0.0027929390950133331 0 -0.002654794958574663 -0.0028453786667093799 0 -0.0026159973582760283 -0.0027531987336204271 0 -0.0025934896112094147 -0.0027864616210565695 0 -0.0025726971658594521 -0.0027834587400021407 0 -0.0030739057855756029 -0.0026871641957573172 0 -0.0031155167272542417 -0.0026814066203097778 0 -0.0026444544415725854 -0.0027869906944075701 0 -0.0025934896112094147 -0.0027864616210565695 0 -0.002654794958574663 -0.0028453786667093799 0 -0.0025564372972194157 -0.0027929390950133331 0 -0.0027046313955312743 -0.0029122511560303612 0 -0.002654794958574663 -0.0028453786667093799 0 -0.0027046313955312743 -0.0029122511560303612 0 -0.002654794958574663 -0.0028453786667093799 0 -0.0027283954294329538 -0.0028574392088496561 0 -0.0025564372972194157 -0.0027929390950133331 0 -0.0027046313955312743 -0.0029122511560303612 0 -0.0027917659350847413 -0.0030525296087169692 0 -0.0028394282054332531 -0.0033265588954881418 0 -0.0028456127405309026 -0.0033414478531478974 0 -0.0028577604347373806 -0.0033502700879591008 0 -0.0028370014263780466 -0.0033450891940010941 0 -0.0028308305174345847 -0.0033893073801733774 0 -0.0028239038993359386 -0.0033567706786657783 0 -0.0028398037021379018 -0.0033383335432816768 0 -0.0028456127405309026 -0.0033414478531478974 0 -0.0028370014263780466 -0.0033450891940010941 0 -0.0028456127405309026 -0.0033414478531478974 0 -0.0028370014263780466 -0.0033450891940010941 0 -0.0028452272526428238 -0.0033632200728337708 0 -0.0028370014263780466 -0.0033450891940010941 0 -0.0028452272526428238 -0.0033632200728337708 0 -0.0028308305174345847 -0.0033893073801733774 0 -0.0028452272526428238 -0.0033632200728337708 0 -0.0028308305174345847 -0.0033893073801733774 0 -0.0028449304902915533 -0.0034398912513033783 0 -0.0028456127405309026 -0.0033414478531478974 0 -0.0028452272526428238 -0.0033632200728337708 0 -0.0028577604347373806 -0.0033502700879591008 0 -0.0028452272526428238 -0.0033632200728337708 0 -0.0028577604347373806 -0.0033502700879591008 0 -0.0028449304902915533 -0.0034398912513033783 0 -0.0028182401204687245 -0.0033277806888934221 0 -0.0028239038993359386 -0.0033567706786657783 0 -0.0028101185888784927 -0.0033894956940353892 0 -0.0028256402234614641 -0.0033390622294084188 0 -0.0028182401204687245 -0.0033277806888934221 0 -0.0028239038993359386 -0.0033567706786657783 0 -0.0028256402234614641 -0.0033390622294084188 0 -0.0028370014263780466 -0.0033450891940010941 0 -0.0028239038993359386 -0.0033567706786657783 0 -0.0028308305174345847 -0.0033893073801733774 0 -0.0028239038993359386 -0.0033567706786657783 0 -0.0028101185888784927 -0.0033894956940353892 0 -0.0028182401204687245 -0.0033277806888934221 0 -0.0028101185888784927 -0.0033894956940353892 0 -0.0027770837948391559 -0.0034104336383353902 0 -0.0028042050725623699 -0.0034873394337467493 0 -0.0027993795279928984 -0.0036078650511512491 0 -0.0027261721235844333 -0.0035674082796858832 0 -0.0028042050725623699 -0.0034873394337467493 0 -0.0027261721235844333 -0.0035674082796858832 0 -0.0027770837948391559 -0.0034104336383353902 0 -0.0028101185888784927 -0.0033894956940353892 0 -0.0028042050725623699 -0.0034873394337467493 0 -0.0027770837948391559 -0.0034104336383353902 0 -0.0028308305174345847 -0.0033893073801733774 0 -0.0028101185888784927 -0.0033894956940353892 0 -0.0028042050725623699 -0.0034873394337467493 0 -0.0028042050725623699 -0.0034873394337467493 0 -0.0028401434060162903 -0.0035655851931719437 0 -0.0027993795279928984 -0.0036078650511512491 0 -0.0028577604347373806 -0.0033502700879591008 0 -0.0028449304902915533 -0.0034398912513033783 0 -0.0029119675267404474 -0.0035344990049943396 0 -0.0028308305174345847 -0.0033893073801733774 0 -0.0028042050725623699 -0.0034873394337467493 0 -0.0028449304902915533 -0.0034398912513033783 0 -0.0028042050725623699 -0.0034873394337467493 0 -0.0028449304902915533 -0.0034398912513033783 0 -0.0028401434060162903 -0.0035655851931719437 0 -0.0028401434060162903 -0.0035655851931719437 0 -0.0028958972680095435 -0.0037193223264420242 0 -0.0029119675267404474 -0.0035344990049943396 0 -0.0028449304902915533 -0.0034398912513033783 0 -0.0028401434060162903 -0.0035655851931719437 0 -0.0029119675267404474 -0.0035344990049943396 0 -0.0028644143782054089 -0.0037311286476012086 0 -0.0022363223839901528 -0.0040572041617989614 0 -0.0028401434060162903 -0.0035655851931719437 0 -0.0028958972680095435 -0.0037193223264420242 0 -0.0027993795279928984 -0.0036078650511512491 0 -0.0028958972680095435 -0.0037193223264420242 0 -0.0016502868037616089 -0.0044204994135127566 0 -0.0025828247114209921 -0.0044093750315433375 0 -0.0028958972680095435 -0.0037193223264420242 0 -0.0025828247114209921 -0.0044093750315433375 0 -0.0031327201085891727 -0.0039519000757988467 0 -0.0027993795279928984 -0.0036078650511512491 0 -0.002759170325453213 -0.0036967315831599435 0 -0.0027261721235844333 -0.0035674082796858832 0 -0.0028958972680095435 -0.0037193223264420242 0 -0.0027993795279928984 -0.0036078650511512491 0 -0.002759170325453213 -0.0036967315831599435 0 -0.0016502868037616089 -0.0044204994135127566 0 -0.0022580566440560546 -0.0047914834557742777 0 -0.0025828247114209921 -0.0044093750315433375 0 -0.0016502868037616089 -0.0044204994135127566 0 -0.0022580566440560546 -0.0047914834557742777 0 -0.0016941412678260052 -0.0053790525521392922 0 -0.0025828247114209921 -0.0044093750315433375 0 -0.0031327201085891727 -0.0039519000757988467 0 -0.0029757437344020135 -0.0052813139549123117 0 -0.0022580566440560546 -0.0047914834557742777 0 -0.0025828247114209921 -0.0044093750315433375 0 -0.0029757437344020135 -0.0052813139549123117 0 -0.0026004451108221122 -0.0036676764909857364 0 -0.0023820816285649127 -0.0037304202543021201 0 -0.0025263763906963003 -0.0038687262549817951 0 -0.0022363223839901528 -0.0040572041617989614 0 -0.001534057028875603 -0.0045357412483862181 0 -0.002759170325453213 -0.0036967315831599435 0 -0.0026004451108221122 -0.0036676764909857364 0 -0.0025263763906963003 -0.0038687262549817951 0 -0.0016502868037616089 -0.0044204994135127566 0 -0.0016941412678260052 -0.0053790525521392922 0 -0.00064088294589598898 -0.0051818336850783442 0 -0.002759170325453213 -0.0036967315831599435 0 -0.0027261721235844333 -0.0035674082796858832 0 -0.0026004451108221122 -0.0036676764909857364 0 -0.0027261721235844333 -0.0035674082796858832 0 -0.0026004451108221122 -0.0036676764909857364 0 -0.0025634259122248415 -0.0034876962228038108 0 -0.0026004451108221122 -0.0036676764909857364 0 -0.0025634259122248415 -0.0034876962228038108 0 -0.0023820816285649127 -0.0037304202543021201 0 -0.0028288694905991498 -0.0034307056333237182 0 -0.0029794467845056828 -0.0035726607515142433 0 -0.0027261721235844333 -0.0035674082796858832 0 -0.0025634259122248415 -0.0034876962228038108 0 -0.0027770837948391559 -0.0034104336383353902 0 -0.0028541639609618993 -0.0032788739361556819 0 -0.0028182401204687245 -0.0033277806888934221 0 -0.0027770837948391559 -0.0034104336383353902 0 -0.0028541639609618993 -0.0032788739361556819 0 -0.0025634259122248415 -0.0034876962228038108 0 -0.0027770837948391559 -0.0034104336383353902 0 -0.0028541639609618993 -0.0032788739361556819 0 -0.0031760173830879053 -0.0032550197092150318 0 -0.0030619984413198711 -0.0032269926031129109 0 -0.0031760173830879053 -0.0032550197092150318 0 -0.0030619984413198711 -0.0032269926031129109 0 -0.0030782297218725913 -0.003195556910318829 0 -0.0028645096716968586 -0.0032823767180483218 0 -0.0028288694905991498 -0.0034307056333237182 0 -0.0030772206155059096 -0.0032337222030111106 0 -0.0030619984413198711 -0.0032269926031129109 0 -0.0030782297218725913 -0.003195556910318829 0 -0.0029782885677757049 -0.0030088674609512122 0 -0.0030782297218725913 -0.003195556910318829 0 -0.0029571743099896788 -0.0031742905970705984 0 -0.0029571743099896788 -0.0031742905970705984 0 -0.0028084872567273119 -0.0033564049272729029 0 -0.0030689088630912313 -0.0033793560286685289 0 -0.0030782297218725913 -0.003195556910318829 0 -0.0029571743099896788 -0.0031742905970705984 0 -0.0030689088630912313 -0.0033793560286685289 0 -0.0031760173830879053 -0.0032550197092150318 0 -0.0030782297218725913 -0.003195556910318829 0 -0.0030689088630912313 -0.0033793560286685289 0 -0.0027340122394191018 -0.0026330334394890709 0 -0.0028740865736111162 -0.0022977311493467376 0 -0.0023804326774363479 -0.0031159229342623044 0 -0.0030424555062097342 -0.0020695419339894468 0 -0.0028740865736111162 -0.0022977311493467376 0 -0.0029851875636965667 -0.0018557706376339746 0 -0.0028329461557461866 -0.0023459540509509547 0 -0.0027196658020426688 -0.0024147537269390467 0 -0.0027340122394191018 -0.0026330334394890709 0 -0.00264820486025225 -0.0030077804791371404 0 -0.0023804326774363479 -0.0031159229342623044 0 -0.00264820486025225 -0.0030077804791371404 0 -0.0026427713950889298 -0.0031992507153179393 0 -0.0023804326774363479 -0.0031159229342623044 0 -0.0027340122394191018 -0.0026330334394890709 0 -0.00264820486025225 -0.0030077804791371404 0 -0.0028201522447684202 -0.0030492018137217736 0 -0.00264820486025225 -0.0030077804791371404 0 -0.0028201522447684202 -0.0030492018137217736 0 -0.0026427713950889298 -0.0031992507153179393 0 -0.0027340122394191018 -0.0026330334394890709 0 -0.0029782885677757049 -0.0030088674609512122 0 -0.0028201522447684202 -0.0030492018137217736 0 -0.0029782885677757049 -0.0030088674609512122 0 -0.0029571743099896788 -0.0031742905970705984 0 -0.0028201522447684202 -0.0030492018137217736 0 -0.0029571743099896788 -0.0031742905970705984 0 -0.0028201522447684202 -0.0030492018137217736 0 -0.0028084872567273119 -0.0033564049272729029 0 -0.0028201522447684202 -0.0030492018137217736 0 -0.0028084872567273119 -0.0033564049272729029 0 -0.0026427713950889298 -0.0031992507153179393 0 -0.0026427713950889298 -0.0031992507153179393 0 -0.0025315005811218302 -0.0034341426267475582 0 -0.0023804326774363479 -0.0031159229342623044 0 -0.0028084872567273119 -0.0033564049272729029 0 -0.0026427713950889298 -0.0031992507153179393 0 -0.0025315005811218302 -0.0034341426267475582 0 -0.0025315005811218302 -0.0034341426267475582 0 -0.0023758359887501011 -0.0037872258877802876 0 -0.0021916268680441174 -0.0035748787140891932 0 -0.0025315005811218302 -0.0034341426267475582 0 -0.0026595192815599467 -0.0036744053601009867 0 -0.0023758359887501011 -0.0037872258877802876 0 -0.0028084872567273119 -0.0033564049272729029 0 -0.0026595192815599467 -0.0036744053601009867 0 -0.0029357290648794341 -0.00359250475515124 0 -0.0028084872567273119 -0.0033564049272729029 0 -0.0025315005811218302 -0.0034341426267475582 0 -0.0026595192815599467 -0.0036744053601009867 0 -0.0026595192815599467 -0.0036744053601009867 0 -0.0029357290648794341 -0.00359250475515124 0 -0.0028782908378868488 -0.003923750861738534 0 -0.0026595192815599467 -0.0036744053601009867 0 -0.0028782908378868488 -0.003923750861738534 0 -0.0025025671099286346 -0.0040611956579275632 0 -0.0020702183460232951 -0.0036909874599111358 0 -0.0025025671099286346 -0.0040611956579275632 0 -0.0018373781913353436 -0.0040907467196909502 0 -0.0026595192815599467 -0.0036744053601009867 0 -0.0023758359887501011 -0.0037872258877802876 0 -0.0025025671099286346 -0.0040611956579275632 0 -0.0022163650974585916 -0.003734612976111459 0 -0.0024898718425594517 -0.0040269419226158466 0 -0.0031760173830879053 -0.0032550197092150318 0 -0.0030689088630912313 -0.0033793560286685289 0 -0.003256030898645232 -0.0036881031669637704 0 -0.0028084872567273119 -0.0033564049272729029 0 -0.0030689088630912313 -0.0033793560286685289 0 -0.0029357290648794341 -0.00359250475515124 0 -0.0030689088630912313 -0.0033793560286685289 0 -0.0029357290648794341 -0.00359250475515124 0 -0.003256030898645232 -0.0036881031669637704 0 -0.0028782908378868488 -0.003923750861738534 0 -0.003256030898645232 -0.0036881031669637704 0 -0.0031021879009782492 -0.0043612666027101447 0 -0.0029357290648794341 -0.00359250475515124 0 -0.0028782908378868488 -0.003923750861738534 0 -0.003256030898645232 -0.0036881031669637704 0 -0.0023820816285649127 -0.0037304202543021201 0 -0.0021933657276125085 -0.0040510106419876226 0 -0.0025263763906963003 -0.0038687262549817951 0 -0.0017162431585131712 -0.004749259688527057 0 -0.001534057028875603 -0.0045357412483862181 0 -0.0029794467845056828 -0.0035726607515142433 0 -0.0017162431585131712 -0.004749259688527057 0 -0.00061426225146836747 -0.0055607139181172481 0 -0.00062893341779179425 -0.0055284453060815003 0 -0.00064088294589598898 -0.0051818336850783442 0 -0.0028782908378868488 -0.003923750861738534 0 -0.0031021879009782492 -0.0043612666027101447 0 -0.0027722730498387456 -0.004293612119708393 0 -0.0031021879009782492 -0.0043612666027101447 0 -0.0027722730498387456 -0.004293612119708393 0 -0.0026366846515504237 -0.0047379930827800504 0 -0.00061426225146836747 -0.0055607139181172481 0 -0.00075048958248925986 -0.0055728735729086371 0 -0.00065014034096545564 -0.005551313775705397 0 -0.00068801798579065621 -0.005685903824802537 0 -0.00075048958248925986 -0.0055728735729086371 0 -0.00089192530334327607 -0.0056140014514216253 0 -0.0017162431585131712 -0.004749259688527057 0 -0.001771689850843908 -0.005190493214026877 0 -0.0017162431585131712 -0.004749259688527057 0 -0.00064035306509409068 -0.0058833743127564729 0 -0.00075048958248925986 -0.0055728735729086371 0 -0.00065014034096545564 -0.005551313775705397 0 -0.00069356027981752177 -0.0055168788406600132 0 -0.00065014034096545564 -0.005551313775705397 0 -0.00063314518285638292 -0.0055281257269593096 0 -0.00062893341779179425 -0.0055284453060815003 0 -0.00061426225146836747 -0.0055607139181172481 0 -0.00065014034096545564 -0.005551313775705397 0 -0.00062893341779179425 -0.0055284453060815003 0 -0.00065014034096545564 -0.005551313775705397 0 -0.00063314518285638292 -0.0055281257269593096 0 -0.00069356027981752177 -0.0055168788406600132 0 -0.00063314518285638292 -0.0055281257269593096 0 -0.00062893341779179425 -0.0055284453060815003 0 -0.00060641480665549901 -0.0055221425110029074 0 -0.0021558098076129213 -0.004575525134378749 0 -0.0025025671099286346 -0.0040611956579275632 0 -0.0018373781913353436 -0.0040907467196909502 0 -0.0021558098076129213 -0.004575525134378749 0 -0.0025238625836454531 -0.0044141702596534821 0 -0.0025025671099286346 -0.0040611956579275632 0 -0.0028782908378868488 -0.003923750861738534 0 -0.0025025671099286346 -0.0040611956579275632 0 -0.0027722730498387456 -0.004293612119708393 0 -0.0025238625836454531 -0.0044141702596534821 0 -0.0025025671099286346 -0.0040611956579275632 0 -0.0027722730498387456 -0.004293612119708393 0 -0.0025238625836454531 -0.0044141702596534821 0 -0.0027722730498387456 -0.004293612119708393 0 -0.0026366846515504237 -0.0047379930827800504 0 -0.00075048958248925986 -0.0055728735729086371 0 -0.00089192530334327607 -0.0056140014514216253 0 -0.00078744604246198154 -0.0055028599060784706 0 -0.0021558098076129213 -0.004575525134378749 0 -0.0025238625836454531 -0.0044141702596534821 0 -0.0026366846515504237 -0.0047379930827800504 0 -0.0021558098076129213 -0.004575525134378749 0 -0.0026366846515504237 -0.0047379930827800504 0 -0.0020014277357187239 -0.0050902271452568006 0 -0.001771689850843908 -0.005190493214026877 0 -0.0015439958539037646 -0.0052940917566940285 0 -0.0021558098076129213 -0.004575525134378749 0 -0.0020014277357187239 -0.0050902271452568006 0 -0.0016080091137437569 -0.0045736618125281157 0 -0.0011181345345058233 -0.0053802851434109735 0 -0.0011044012599918278 -0.0055312628902620901 0 -0.0009036672202706519 -0.005448932175817928 0 -0.00089192530334327607 -0.0056140014514216253 0 -0.0011044012599918278 -0.0055312628902620901 0 -0.0009036672202706519 -0.005448932175817928 0 -0.00089192530334327607 -0.0056140014514216253 0 -0.0009036672202706519 -0.005448932175817928 0 -0.00078744604246198154 -0.0055028599060784706 0 -0.0009036672202706519 -0.005448932175817928 0 -0.00085146187081850322 -0.0053696071176137332 0 -0.0010377805236994541 -0.0053367363885311065 0 -0.0009036672202706519 -0.005448932175817928 0 -0.00085146187081850322 -0.0053696071176137332 0 -0.00075520788021885552 -0.0054539374278213268 0 -0.0011181345345058233 -0.0053802851434109735 0 -0.0009036672202706519 -0.005448932175817928 0 -0.0010377805236994541 -0.0053367363885311065 0 -0.0011181345345058233 -0.0053802851434109735 0 -0.0010377805236994541 -0.0053367363885311065 0 -0.0012083248125213688 -0.005307259908702751 0 -0.00063314518285638292 -0.0055281257269593096 0 -0.00065443732131297006 -0.0054753226750921683 0 -0.00059403457430903155 -0.0054911064748740862 0 -0.00063314518285638292 -0.0055281257269593096 0 -0.00065443732131297006 -0.0054753226750921683 0 -0.00069356027981752177 -0.0055168788406600132 0 -0.00069356027981752177 -0.0055168788406600132 0 -0.00078744604246198154 -0.0055028599060784706 0 -0.00075520788021885552 -0.0054539374278213268 0 -0.0009036672202706519 -0.005448932175817928 0 -0.00078744604246198154 -0.0055028599060784706 0 -0.00075520788021885552 -0.0054539374278213268 0 -0.00075048958248925986 -0.0055728735729086371 0 -0.00069356027981752177 -0.0055168788406600132 0 -0.00078744604246198154 -0.0055028599060784706 0 -0.00065443732131297006 -0.0054753226750921683 0 -0.00069356027981752177 -0.0055168788406600132 0 -0.00075520788021885552 -0.0054539374278213268 0 -0.00085146187081850322 -0.0053696071176137332 0 -0.00075520788021885552 -0.0054539374278213268 0 -0.00069902896649312357 -0.0054003891112336779 0 -0.00065443732131297006 -0.0054753226750921683 0 -0.00075520788021885552 -0.0054539374278213268 0 -0.00069902896649312357 -0.0054003891112336779 0 -0.00065443732131297006 -0.0054753226750921683 0 -0.00069902896649312357 -0.0054003891112336779 0 -0.00056659871531813293 -0.0054378080063792267 0 -0.00065443732131297006 -0.0054753226750921683 0 -0.00056659871531813293 -0.0054378080063792267 0 -0.00059403457430903155 -0.0054911064748740862 0 -0.00056659871531813293 -0.0054378080063792267 0 -0.00059403457430903155 -0.0054911064748740862 0 -0.00052581342203815906 -0.0054932118811964019 0 -0.00059403457430903155 -0.0054911064748740862 0 -0.00052581342203815906 -0.0054932118811964019 0 -0.00060641480665549901 -0.0055221425110029074 0 -0.00063314518285638292 -0.0055281257269593096 0 -0.00059403457430903155 -0.0054911064748740862 0 -0.00060641480665549901 -0.0055221425110029074 0 -0.00052581342203815906 -0.0054932118811964019 0 -0.00042717271007606465 -0.0055130343688057463 0 -0.00054483759113286895 -0.00552404116645138 0 -0.00052581342203815906 -0.0054932118811964019 0 -0.00040829085228476404 -0.0054403680137099968 0 -0.00042717271007606465 -0.0055130343688057463 0 -0.00056659871531813293 -0.0054378080063792267 0 -0.00052581342203815906 -0.0054932118811964019 0 -0.00040829085228476404 -0.0054403680137099968 0 -0.00040829085228476404 -0.0054403680137099968 0 -0.00031827121084349627 -0.0054639661415535725 0 -0.00042717271007606465 -0.0055130343688057463 0 -0.00040829085228476404 -0.0054403680137099968 0 -0.00031827121084349627 -0.0054639661415535725 0 -0.00023540223593617249 -0.0054118323739798541 0 -0.00031827121084349627 -0.0054639661415535725 0 -0.00042717271007606465 -0.0055130343688057463 0 -0.00034463768835020649 -0.0055258388506533593 0 -0.00024233849611336646 -0.0054417712956989148 0 -0.00010857606333983079 -0.0057578385700002444 0 -0.00042717271007606465 -0.0055130343688057463 0 -0.00046226686127481538 -0.0056064457467187995 0 -0.00054483759113286895 -0.00552404116645138 0 -0.00042717271007606465 -0.0055130343688057463 0 -0.00039317287496780986 -0.0055742393031492643 0 -0.00046226686127481538 -0.0056064457467187995 0 -0.00010857606333983079 -0.0057578385700002444 0 -0.0013157772555782354 -0.0046925169801622603 0 -0.00034463768835020649 -0.0055258388506533593 0 -0.00039317287496780986 -0.0055742393031492643 0 -0.00034172921424711195 -0.0056064109519280399 0 -0.00042717271007606465 -0.0055130343688057463 0 -0.00034463768835020649 -0.0055258388506533593 0 -0.00039317287496780986 -0.0055742393031492643 0 -0.0011497292609030157 -0.0055896957585416353 0 -0.0013157772555782354 -0.0046925169801622603 0 -0.0022580566440560546 -0.0047914834557742777 0 -0.0016941412678260052 -0.0053790525521392922 0 -0.0029757437344020135 -0.0052813139549123117 0 -0.00039317287496780986 -0.0055742393031492643 0 -0.00046226686127481538 -0.0056064457467187995 0 -0.00034172921424711195 -0.0056064109519280399 0 -0.00046226686127481538 -0.0056064457467187995 0 -0.00066776621678734272 -0.0055001020193142184 0 -0.00054483759113286895 -0.00552404116645138 0 -0.0011497292609030157 -0.0055896957585416353 0 -0.00065070008599558569 -0.0054795979924321904 0 -0.0016941412678260052 -0.0053790525521392922 0 -0.00064088294589598898 -0.0051818336850783442 0 -0.00066776621678734272 -0.0055001020193142184 0 -0.00062893341779179425 -0.0055284453060815003 0 -0.00064088294589598898 -0.0051818336850783442 0 -0.00066776621678734272 -0.0055001020193142184 0 -0.00066776621678734272 -0.0055001020193142184 0 -0.00060641480665549901 -0.0055221425110029074 0 -0.00054483759113286895 -0.00552404116645138 0 -0.00062893341779179425 -0.0055284453060815003 0 -0.00066776621678734272 -0.0055001020193142184 0 -0.00060641480665549901 -0.0055221425110029074 0 -0.00052581342203815906 -0.0054932118811964019 0 -0.00060641480665549901 -0.0055221425110029074 0 -0.00054483759113286895 -0.00552404116645138 0 -0.004334601639186959 -0.0030205332587986168 0 -0.0044346307142017084 -0.0028712052235769208 0 -0.0042689246201057353 -0.0028412207613340702 0 -0.0041416724201500093 -0.0029985774268496378 0 -0.004334601639186959 -0.0030205332587986168 0 -0.0042689246201057353 -0.0028412207613340702 0 -0.0043213177161545817 -0.0031618582066742762 0 -0.0043516999300565185 -0.0031639835788182169 0 -0.0044346307142017084 -0.0028712052235769208 0 -0.0044055523774065202 -0.0032028795548205264 0 -0.0044356056894403828 -0.0028698224044026665 0 -0.0044055523774065202 -0.0032028795548205264 0 -0.0043974435493664187 -0.0032009827719411562 0 -0.0043516999300565185 -0.0031639835788182169 0 -0.004523525495940383 -0.0030724612185405722 0 -0.0044346307142017084 -0.0028712052235769208 0 -0.004523525495940383 -0.0030724612185405722 0 -0.0044346307142017084 -0.0028712052235769208 0 -0.004618833580472873 -0.0028119929649193915 0 -0.0044346307142017084 -0.0028712052235769208 0 -0.0044071684833994493 -0.002674847986426563 0 -0.004618833580472873 -0.0028119929649193915 0 -0.004224808698932438 -0.0026297747878252847 0 -0.0044071684833994493 -0.002674847986426563 0 -0.0042689246201057353 -0.0028412207613340702 0 -0.0044346307142017084 -0.0028712052235769208 0 -0.0044071684833994493 -0.002674847986426563 0 -0.0042689246201057353 -0.0028412207613340702 0 -0.004224808698932438 -0.0026297747878252847 0 -0.0044071684833994493 -0.002674847986426563 0 -0.0043330586992904752 -0.00248960799227997 0 -0.0044071684833994493 -0.002674847986426563 0 -0.0043330586992904752 -0.00248960799227997 0 -0.0045120035052532807 -0.0024697997831507126 0 -0.0042210321676980798 -0.0024441068376464571 0 -0.004224808698932438 -0.0026297747878252847 0 -0.0043330586992904752 -0.00248960799227997 0 -0.0043330586992904752 -0.00248960799227997 0 -0.0042511906365947823 -0.0023211212647067593 0 -0.0045120035052532807 -0.0024697997831507126 0 -0.0040198383518446259 -0.0021226564518917767 0 -0.0037889077004700307 -0.001999867071827558 0 -0.0039091845247161304 -0.0020399193185583111 0 -0.003959914911348862 -0.0020299026685488154 0 -0.0038462164137814405 -0.0019838483263116343 0 -0.0040198383518446259 -0.0021226564518917767 0 -0.0041644502464094702 -0.0022590298753456099 0 -0.0042210321676980798 -0.0024441068376464571 0 -0.0043330586992904752 -0.00248960799227997 0 -0.0042511906365947823 -0.0023211212647067593 0 -0.0037847383627363628 -0.002033929586571709 0 -0.0037945989141849796 -0.00200936765427235 0 -0.0037653422045452072 -0.0020151612398694586 0 -0.0038574300847346418 -0.0020385288968547896 0 -0.0037847383627363628 -0.002033929586571709 0 -0.0037945989141849796 -0.00200936765427235 0 -0.0044071684833994493 -0.002674847986426563 0 -0.0045120035052532807 -0.0024697997831507126 0 -0.004618833580472873 -0.0028119929649193915 0 -0.0037945989141849796 -0.00200936765427235 0 -0.0037584079505537725 -0.0020111836086832728 0 -0.0037653422045452072 -0.0020151612398694586 0 -0.0045120035052532807 -0.0024697997831507126 0 -0.0047979199412546449 -0.0026464986493275637 0 -0.004618833580472873 -0.0028119929649193915 0 -0.0041644502464094702 -0.0022590298753456099 0 -0.004278214258170516 -0.0022567113403588923 0 -0.0037584079505537725 -0.0020111836086832728 0 -0.0037653422045452072 -0.0020151612398694586 0 -0.0037559657488833906 -0.0020123432352682452 0 -0.0037889077004700307 -0.001999867071827558 0 -0.0037656243403100258 -0.0020094073382890304 0 -0.0037906022372180587 -0.0020128505019872023 0 -0.0038462164137814405 -0.0019838483263116343 0 -0.0037477433023028212 -0.0020068481749311567 0 -0.0037847383627363628 -0.002033929586571709 0 -0.0037653422045452072 -0.0020151612398694586 0 -0.0037477433023028212 -0.0020068481749311567 0 -0.0037477433023028212 -0.0020068481749311567 0 -0.0037548936317346087 -0.0020135801282124347 0 -0.0037473263155412061 -0.0020066009125380003 0 -0.0037510515714175518 -0.0020153136105315831 0 -0.0037477433023028212 -0.0020068481749311567 0 -0.0037473263155412061 -0.0020066009125380003 0 -0.0037653422045452072 -0.0020151612398694586 0 -0.0037477433023028212 -0.0020068481749311567 0 -0.0037559657488833906 -0.0020123432352682452 0 -0.0037477433023028212 -0.0020068481749311567 0 -0.0037559657488833906 -0.0020123432352682452 0 -0.0037548936317346087 -0.0020135801282124347 0 -0.0037584079505537725 -0.0020111836086832728 0 -0.0037548936317346087 -0.0020135801282124347 0 -0.0037636316468984939 -0.0020301738269228762 0 -0.0037584079505537725 -0.0020111836086832728 0 -0.0037559657488833906 -0.0020123432352682452 0 -0.0037548936317346087 -0.0020135801282124347 0 -0.0047979199412546449 -0.0026464986493275637 0 -0.0048692554586067206 -0.0028958842710433692 0 -0.0050964015205417611 -0.0028142129664590599 0 -0.004278214258170516 -0.0022567113403588923 0 -0.0042977745978720365 -0.0029907433861732168 0 -0.0047979199412546449 -0.0026464986493275637 0 -0.0048692554586067206 -0.0028958842710433692 0 -0.004618833580472873 -0.0028119929649193915 0 -0.004523525495940383 -0.0030724612185405722 0 -0.0047472617968947854 -0.0030728980259206859 0 -0.0045675269176044626 -0.0032698296472609902 0 -0.0048692554586067206 -0.0028958842710433692 0 -0.004618833580472873 -0.0028119929649193915 0 -0.0047472617968947854 -0.0030728980259206859 0 -0.004523525495940383 -0.0030724612185405722 0 -0.004618833580472873 -0.0028119929649193915 0 -0.0047472617968947854 -0.0030728980259206859 0 -0.0048692554586067206 -0.0028958842710433692 0 -0.0047472617968947854 -0.0030728980259206859 0 -0.0050182872489080441 -0.0031043346961897363 0 -0.0048692554586067206 -0.0028958842710433692 0 -0.0050182872489080441 -0.0031043346961897363 0 -0.0050964015205417611 -0.0028142129664590599 0 -0.0045695908384173747 -0.0039486388998868248 0 -0.0046798793350991677 -0.0039176161474209726 0 -0.0046276595068149053 -0.0040820207020678184 0 -0.0048746295653867809 -0.0035772281951619023 0 -0.0042977745978720365 -0.0029907433861732168 0 -0.0045695908384173747 -0.0039486388998868248 0 -0.0044122965273571913 -0.0039873845993244096 0 -0.0045567803111718633 -0.0038101267538589076 0 -0.0045695908384173747 -0.0039486388998868248 0 -0.0044122965273571913 -0.0039873845993244096 0 -0.0046276595068149053 -0.0040820207020678184 0 -0.0034011436699450926 -0.0031454947886086909 0 -0.0033447273885809344 -0.0029894322220858516 0 -0.0034215273646611513 -0.0031125602537323016 0 -0.0028003013942712648 -0.0040382411828353768 0 -0.0042977745978720365 -0.0029907433861732168 0 -0.0034011436699450926 -0.0031454947886086909 0 -0.0033447273885809344 -0.0029894322220858516 0 -0.0032202938290572898 -0.0030444537791252521 0 -0.0029698958410657446 -0.0029806041453210364 0 -0.0025241877995481597 -0.0034162477349957716 0 -0.0042977745978720365 -0.0029907433861732168 0 -0.0032605624337863652 -0.0023093063178665752 0 -0.0037548936317346087 -0.0020135801282124347 0 -0.0037636316468984939 -0.0020301738269228762 0 -0.0037608498584762269 -0.0020157905525462895 0 -0.0033447273885809344 -0.0029894322220858516 0 -0.0032202938290572898 -0.0030444537791252521 0 -0.0032633710367363307 -0.0028639331345643101 0 -0.0032605624337863652 -0.0023093063178665752 0 -0.0036789610916542325 -0.0019250759351556518 0 -0.0037548936317346087 -0.0020135801282124347 0 -0.0037608498584762269 -0.0020157905525462895 0 -0.0037473263155412061 -0.0020066009125380003 0 -0.0035083950831888392 -0.0017524303726881908 0 -0.003482120692464868 -0.0018553958266721206 0 -0.0035101857326162674 -0.0018797124613253707 0 -0.0032605624337863652 -0.0023093063178665752 0 -0.003106815035327247 -0.0020991984636174995 0 -0.0035083950831888392 -0.0017524303726881908 0 -0.0035101857326162674 -0.0018797124613253707 0 -0.003615664476336693 -0.0018911054334001056 0 -0.003106815035327247 -0.0020991984636174995 0 -0.0031960939436152243 -0.0020936066476203081 0 -0.0034420848055576113 -0.0019333621917913991 0 -0.0032700944443574435 -0.0017875116957471867 0 -0.0032922999283177602 -0.0019739443556706965 0 -0.003106815035327247 -0.0020991984636174995 0 -0.0030237145773053852 -0.0022327244051455635 0 -0.0024183970228521365 -0.0026993101867738814 0 -0.0024612642506955437 -0.0025462371469353886 0 -0.0025346811757140345 -0.0027348760539149604 0 -0.0024612642506955437 -0.0025462371469353886 0 -0.0025346811757140345 -0.0027348760539149604 0 -0.0027060714583732417 -0.0027850516255038369 0 -0.0025527744966095693 -0.0029113187080330788 0 -0.0024183970228521365 -0.0026993101867738814 0 -0.0025346811757140345 -0.0027348760539149604 0 -0.0029698958410657446 -0.0029806041453210364 0 -0.0032605624337863652 -0.0023093063178665752 0 -0.0025527744966095693 -0.0029113187080330788 0 -0.0025346811757140345 -0.0027348760539149604 0 -0.0027060714583732417 -0.0027850516255038369 0 -0.0025527744966095693 -0.0029113187080330788 0 -0.0027060714583732417 -0.0027850516255038369 0 -0.0027868865354173139 -0.0029778772854206687 0 -0.0032700944443574435 -0.0017875116957471867 0 -0.0031401408042847196 -0.0019243304524762762 0 -0.0031129767622662145 -0.0017649215266360395 0 -0.0032700944443574435 -0.0017875116957471867 0 -0.0031129767622662145 -0.0017649215266360395 0 -0.0030777499206694372 -0.0016275519329601469 0 -0.0032700944443574435 -0.0017875116957471867 0 -0.0032922999283177602 -0.0019739443556706965 0 -0.0031401408042847196 -0.0019243304524762762 0 -0.0031458522032431972 -0.0020752285016005273 0 -0.0032922999283177602 -0.0019739443556706965 0 -0.0031401408042847196 -0.0019243304524762762 0 -0.0030424555062097342 -0.0020695419339894468 0 -0.0031401408042847196 -0.0019243304524762762 0 -0.0029851875636965667 -0.0018557706376339746 0 -0.0031458522032431972 -0.0020752285016005273 0 -0.0030424555062097342 -0.0020695419339894468 0 -0.0031401408042847196 -0.0019243304524762762 0 -0.0029851875636965667 -0.0018557706376339746 0 -0.0031129767622662145 -0.0017649215266360395 0 -0.0030777499206694372 -0.0016275519329601469 0 -0.0031401408042847196 -0.0019243304524762762 0 -0.0029851875636965667 -0.0018557706376339746 0 -0.0031129767622662145 -0.0017649215266360395 0 -0.0027196658020426688 -0.0024147537269390467 0 -0.0025248134590786144 -0.0029216474003434276 0 -0.0025315005811218302 -0.0034341426267475582 0 -0.0023804326774363479 -0.0031159229342623044 0 -0.0021916268680441174 -0.0035748787140891932 0 -0.0022163650974585916 -0.003734612976111459 0 -0.0025248134590786144 -0.0029216474003434276 0 -0.0027060714583732417 -0.0027850516255038369 0 -0.0029728557908354808 -0.0030390869108588977 0 -0.0027868865354173139 -0.0029778772854206687 0 -0.0030237145773053852 -0.0022327244051455635 0 -0.0025248134590786144 -0.0029216474003434276 0 -0.0025527744966095693 -0.0029113187080330788 0 -0.0027868865354173139 -0.0029778772854206687 0 -0.0026929581026054823 -0.0031242010273447281 0 -0.002808113253533515 -0.0029490767814826075 0 -0.0025241877995481597 -0.0034162477349957716 0 -0.0027868865354173139 -0.0029778772854206687 0 -0.0028199164970442313 -0.0031476334521687997 0 -0.0026657935761516148 -0.0031490076872760933 0 -0.0029728557908354808 -0.0030390869108588977 0 -0.0027868865354173139 -0.0029778772854206687 0 -0.0028199164970442313 -0.0031476334521687997 0 -0.0025241877995481597 -0.0034162477349957716 0 -0.0020277994757832646 -0.0040349477246107686 0 -0.0013505799423514573 -0.0042967839817158295 0 -0.001389288304015888 -0.0043959981292264238 0 -0.0014915342300337066 -0.004535056984577391 0 -0.0028199164970442313 -0.0031476334521687997 0 -0.0026657935761516148 -0.0031490076872760933 0 -0.0028541699039526551 -0.0034287318097435569 0 -0.0028003013942712648 -0.0040382411828353768 0 -0.0025241877995481597 -0.0034162477349957716 0 -0.0028003013942712648 -0.0040382411828353768 0 -0.0017806730990430248 -0.0039209469049734389 0 -0.0013174000750489636 -0.0043512290076656015 0 -0.0013505799423514573 -0.0042967839817158295 0 -0.001389288304015888 -0.0043959981292264238 0 -0.0012927280568480119 -0.0043451827221131101 0 -0.001389288304015888 -0.0043959981292264238 0 -0.0013182299665885481 -0.0045839486229401153 0 -0.001389288304015888 -0.0043959981292264238 0 -0.0014234743733294026 -0.0045433663888066293 0 -0.0013182299665885481 -0.0045839486229401153 0 -0.001389288304015888 -0.0043959981292264238 0 -0.0014234743733294026 -0.0045433663888066293 0 -0.0014915342300337066 -0.004535056984577391 0 -0.0029728557908354808 -0.0030390869108588977 0 -0.0028199164970442313 -0.0031476334521687997 0 -0.0028541699039526551 -0.0034287318097435569 0 -0.0025248134590786144 -0.0029216474003434276 0 -0.0020277994757832646 -0.0040349477246107686 0 -0.0016213189037136443 -0.003268822902886066 0 -0.0018373781913353436 -0.0040907467196909502 0 -0.0013318673966287622 -0.0041641375419050469 0 -0.0020702183460232951 -0.0036909874599111358 0 -0.0016213189037136443 -0.003268822902886066 0 -0.0018373781913353436 -0.0040907467196909502 0 -0.0021558098076129213 -0.004575525134378749 0 -0.0016080091137437569 -0.0045736618125281157 0 -0.0018373781913353436 -0.0040907467196909502 0 -0.0016080091137437569 -0.0045736618125281157 0 -0.0014915342300337066 -0.004535056984577391 0 -0.0014252406063949891 -0.0046456845246722906 0 -0.0016080091137437569 -0.0045736618125281157 0 -0.0018373781913353436 -0.0040907467196909502 0 -0.0013318673966287622 -0.0041641375419050469 0 -0.0016886693773950667 -0.0044347727611272307 0 -0.0020277994757832646 -0.0040349477246107686 0 -0.0014234743733294026 -0.0045433663888066293 0 -0.0014915342300337066 -0.004535056984577391 0 -0.0014252406063949891 -0.0046456845246722906 0 -0.0014234743733294026 -0.0045433663888066293 0 -0.0013182299665885481 -0.0045839486229401153 0 -0.0014252406063949891 -0.0046456845246722906 0 -0.0013182299665885481 -0.0045839486229401153 0 -0.0014252406063949891 -0.0046456845246722906 0 -0.0012769227427538044 -0.0048387678473276775 0 -0.0012769227427538044 -0.0048387678473276775 0 -0.0014733083447410985 -0.0049434307028688009 0 -0.0012761752933088152 -0.0050976101031754055 0 -0.0014252406063949891 -0.0046456845246722906 0 -0.0012769227427538044 -0.0048387678473276775 0 -0.0014733083447410985 -0.0049434307028688009 0 -0.0020014277357187239 -0.0050902271452568006 0 -0.0016080091137437569 -0.0045736618125281157 0 -0.0014733083447410985 -0.0049434307028688009 0 -0.0016080091137437569 -0.0045736618125281157 0 -0.0014252406063949891 -0.0046456845246722906 0 -0.0014733083447410985 -0.0049434307028688009 0 -0.0015439958539037646 -0.0052940917566940285 0 -0.0013764357025932894 -0.0053142122361840207 0 -0.0011181345345058233 -0.0053802851434109735 0 -0.0011044012599918278 -0.0055312628902620901 0 -0.0013528048990795606 -0.0052952205120783032 0 -0.0020014277357187239 -0.0050902271452568006 0 -0.0014733083447410985 -0.0049434307028688009 0 -0.0013528048990795606 -0.0052952205120783032 0 -0.0011181345345058233 -0.0053802851434109735 0 -0.0013528048990795606 -0.0052952205120783032 0 -0.0012083248125213688 -0.005307259908702751 0 -0.0012637797724412091 -0.0052646443434290731 0 -0.0012123623163592773 -0.0052652626892272843 0 -0.0012214158919402441 -0.0052746847425165109 0 -0.0013528048990795606 -0.0052952205120783032 0 -0.0012083248125213688 -0.005307259908702751 0 -0.0012637797724412091 -0.0052646443434290731 0 -0.0012083248125213688 -0.005307259908702751 0 -0.0012637797724412091 -0.0052646443434290731 0 -0.0012214158919402441 -0.0052746847425165109 0 -0.0013528048990795606 -0.0052952205120783032 0 -0.0012637797724412091 -0.0052646443434290731 0 -0.0012761752933088152 -0.0050976101031754055 0 -0.0014733083447410985 -0.0049434307028688009 0 -0.0013528048990795606 -0.0052952205120783032 0 -0.0012761752933088152 -0.0050976101031754055 0 -0.0012008116870880024 -0.0051341935970611588 0 -0.001184426342165579 -0.0052297435068994775 0 -0.0011447254174154202 -0.0051426055929553651 0 -0.0012761752933088152 -0.0050976101031754055 0 -0.0012008116870880024 -0.0051341935970611588 0 -0.0011583923120378891 -0.0050102506398217016 0 -0.0012637797724412091 -0.0052646443434290731 0 -0.0012761752933088152 -0.0050976101031754055 0 -0.0012008116870880024 -0.0051341935970611588 0 -0.0012008116870880024 -0.0051341935970611588 0 -0.0011447254174154202 -0.0051426055929553651 0 -0.0011583923120378891 -0.0050102506398217016 0 -0.0012637797724412091 -0.0052646443434290731 0 -0.001184426342165579 -0.0052297435068994775 0 -0.0012123623163592773 -0.0052652626892272843 0 -0.0012637797724412091 -0.0052646443434290731 0 -0.0012008116870880024 -0.0051341935970611588 0 -0.001184426342165579 -0.0052297435068994775 0 -0.0011740254014975587 -0.0052316602386893816 0 -0.001184426342165579 -0.0052297435068994775 0 -0.0011983510652866158 -0.005253809886446986 0 -0.001184426342165579 -0.0052297435068994775 0 -0.0011466399881588766 -0.0051919003148219681 0 -0.0011447254174154202 -0.0051426055929553651 0 -0.0011740254014975587 -0.0052316602386893816 0 -0.001184426342165579 -0.0052297435068994775 0 -0.0011466399881588766 -0.0051919003148219681 0 -0.0010768327234998614 -0.005092194866012984 0 -0.0011447254174154202 -0.0051426055929553651 0 -0.0011583923120378891 -0.0050102506398217016 0 -0.0011466399881588766 -0.0051919003148219681 0 -0.0010768327234998614 -0.005092194866012984 0 -0.0011447254174154202 -0.0051426055929553651 0 -0.0010768327234998614 -0.005092194866012984 0 -0.0011583923120378891 -0.0050102506398217016 0 -0.0011000298060470381 -0.0047389366378650525 0 -0.0029148907568632442 -0.0043738480397337203 0 -0.0028372527976635075 -0.0042990043048604636 0 -0.0047283638490275889 -0.0036874696776954038 0 -0.0045567803111718633 -0.0038101267538589076 0 -0.0047397257617826727 -0.0037598224347990703 0 -0.0012769227427538044 -0.0048387678473276775 0 -0.0011583923120378891 -0.0050102506398217016 0 -0.0011000298060470381 -0.0047389366378650525 0 -0.0012769227427538044 -0.0048387678473276775 0 -0.0012761752933088152 -0.0050976101031754055 0 -0.0011583923120378891 -0.0050102506398217016 0 -0.0012927280568480119 -0.0043451827221131101 0 -0.0013182299665885481 -0.0045839486229401153 0 -0.0011000298060470381 -0.0047389366378650525 0 -0.0028003013942712648 -0.0040382411828353768 0 -0.0028372527976635075 -0.0042990043048604636 0 -0.0013182299665885481 -0.0045839486229401153 0 -0.0012769227427538044 -0.0048387678473276775 0 -0.0011000298060470381 -0.0047389366378650525 0 -0.0046798793350991677 -0.0039176161474209726 0 -0.0045567803111718633 -0.0038101267538589076 0 -0.0047397257617826727 -0.0037598224347990703 0 -0.0045695908384173747 -0.0039486388998868248 0 -0.0046798793350991677 -0.0039176161474209726 0 -0.0045567803111718633 -0.0038101267538589076 0 -0.0047472617968947854 -0.0030728980259206859 0 -0.0050182872489080441 -0.0031043346961897363 0 -0.0047524583297160732 -0.0032819442571548662 0 -0.0050182872489080441 -0.0031043346961897363 0 -0.0047524583297160732 -0.0032819442571548662 0 -0.0049105985305922216 -0.0033979526611158492 0 -0.0048746295653867809 -0.0035772281951619023 0 -0.0048205312821778899 -0.0035664027918683753 0 -0.0047524583297160732 -0.0032819442571548662 0 -0.0046238602954618751 -0.0034716775684928785 0 -0.0045675269176044626 -0.0032698296472609902 0 -0.0047472617968947854 -0.0030728980259206859 0 -0.0047524583297160732 -0.0032819442571548662 0 -0.0045675269176044626 -0.0032698296472609902 0 -0.0047524583297160732 -0.0032819442571548662 0 -0.0046238602954618751 -0.0034716775684928785 0 -0.0049105985305922216 -0.0033979526611158492 0 -0.0046238602954618751 -0.0034716775684928785 0 -0.0049105985305922216 -0.0033979526611158492 0 -0.0047499735303675869 -0.0037046369196918473 0 -0.0048205312821778899 -0.0035664027918683753 0 -0.0047638069880081681 -0.0036954544974880502 0 -0.0047283638490275889 -0.0036874696776954038 0 -0.0047397257617826727 -0.0037598224347990703 0 -0.0047499735303675869 -0.0037046369196918473 0 -0.0011466399881588766 -0.0051919003148219681 0 -0.0010768327234998614 -0.005092194866012984 0 -0.0011714300973639353 -0.0052296741157541711 0 -0.0029148907568632442 -0.0043738480397337203 0 -0.0028909822143060775 -0.0045695493236816371 0 -0.0047283638490275889 -0.0036874696776954038 0 -0.0047499735303675869 -0.0037046369196918473 0 -0.0047356154507413621 -0.003848387271167875 0 -0.0011740254014975587 -0.0052316602386893816 0 -0.0011466399881588766 -0.0051919003148219681 0 -0.0011714300973639353 -0.0052296741157541711 0 -0.0011740254014975587 -0.0052316602386893816 0 -0.0011714300973639353 -0.0052296741157541711 0 -0.0011938424777240386 -0.0052435999807588117 0 -0.0047499735303675869 -0.0037046369196918473 0 -0.0047356154507413621 -0.003848387271167875 0 -0.0045712780743438989 -0.0037865540796130958 0 -0.0047356154507413621 -0.003848387271167875 0 -0.0045712780743438989 -0.0037865540796130958 0 -0.0045475168530975602 -0.00412935102485802 0 -0.0045712780743438989 -0.0037865540796130958 0 -0.004475005664120589 -0.0039295826474692068 0 -0.0045051164809503247 -0.0040414144150658785 0 -0.0046238602954618751 -0.0034716775684928785 0 -0.0047499735303675869 -0.0037046369196918473 0 -0.0045737115185890036 -0.0036633852444860645 0 -0.0047499735303675869 -0.0037046369196918473 0 -0.0045712780743438989 -0.0037865540796130958 0 -0.0045737115185890036 -0.0036633852444860645 0 -0.0045712780743438989 -0.0037865540796130958 0 -0.0043002424376832752 -0.0036913418020707404 0 -0.0043374870079000826 -0.003824823800766789 0 -0.0046238602954618751 -0.0034716775684928785 0 -0.0045737115185890036 -0.0036633852444860645 0 -0.0043002424376832752 -0.0036913418020707404 0 -0.0046086740983537463 -0.0034787045976295886 0 -0.0043758248709607084 -0.0036250722212455002 0 -0.0045712780743438989 -0.0037865540796130958 0 -0.0045737115185890036 -0.0036633852444860645 0 -0.0043002424376832752 -0.0036913418020707404 0 -0.0045712780743438989 -0.0037865540796130958 0 -0.0043374870079000826 -0.003824823800766789 0 -0.0044060372132116513 -0.0038946255324394242 0 -0.0045712780743438989 -0.0037865540796130958 0 -0.004475005664120589 -0.0039295826474692068 0 -0.0044060372132116513 -0.0038946255324394242 0 -0.0043374870079000826 -0.003824823800766789 0 -0.0043260314795106761 -0.0039522112609514789 0 -0.0042361210790641153 -0.0038798800967540484 0 -0.0043002424376832752 -0.0036913418020707404 0 -0.0043374870079000826 -0.003824823800766789 0 -0.0042361210790641153 -0.0038798800967540484 0 -0.0043374870079000826 -0.003824823800766789 0 -0.0043260314795106761 -0.0039522112609514789 0 -0.0044060372132116513 -0.0038946255324394242 0 -0.0043260314795106761 -0.0039522112609514789 0 -0.0044061767759525396 -0.0039952956337705962 0 -0.0044060372132116513 -0.0038946255324394242 0 -0.0044061767759525396 -0.0039952956337705962 0 -0.004475005664120589 -0.0039295826474692068 0 -0.0044060372132116513 -0.0038946255324394242 0 -0.0044061767759525396 -0.0039952956337705962 0 -0.004475005664120589 -0.0039295826474692068 0 -0.0045051164809503247 -0.0040414144150658785 0 -0.0043758248709607084 -0.0036250722212455002 0 -0.0043348557847043634 -0.0037904247221307794 0 -0.0043002424376832752 -0.0036913418020707404 0 -0.0042361210790641153 -0.0038798800967540484 0 -0.004066434414718917 -0.0038703105625462375 0 -0.0042361210790641153 -0.0038798800967540484 0 -0.004066434414718917 -0.0038703105625462375 0 -0.0041714571107936095 -0.0040046053460670167 0 -0.0042361210790641153 -0.0038798800967540484 0 -0.0042523820553334825 -0.0039962633794582633 0 -0.0041714571107936095 -0.0040046053460670167 0 -0.0043260314795106761 -0.0039522112609514789 0 -0.0042361210790641153 -0.0038798800967540484 0 -0.0042523820553334825 -0.0039962633794582633 0 -0.0044389002540704183 -0.0035670945014597863 0 -0.0044490409137289523 -0.0035715669816461714 0 -0.0044446544976329801 -0.0035550191095647466 0 -0.0044389002540704183 -0.0035670945014597863 0 -0.0044490409137289523 -0.0035715669816461714 0 -0.0044221808949460924 -0.0035465118051595411 0 -0.0044490409137289523 -0.0035715669816461714 0 -0.0044221808949460924 -0.0035465118051595411 0 -0.004464565802406114 -0.0034891484867369958 0 -0.0044158301488920653 -0.0035480072711385857 0 -0.0044389002540704183 -0.0035670945014597863 0 -0.0044221808949460924 -0.0035465118051595411 0 -0.0044158301488920653 -0.0035480072711385857 0 -0.0044221808949460924 -0.0035465118051595411 0 -0.0043802364856826009 -0.0035190537018859945 0 -0.0044221808949460924 -0.0035465118051595411 0 -0.0043802364856826009 -0.0035190537018859945 0 -0.0044125805643161278 -0.0034614812691409159 0 -0.0043802364856826009 -0.0035190537018859945 0 -0.0043690458738989014 -0.0034114480000980007 0 -0.0044125805643161278 -0.0034614812691409159 0 -0.0042755168859293941 -0.0034399589740131738 0 -0.0043802364856826009 -0.0035190537018859945 0 -0.0043690458738989014 -0.0034114480000980007 0 -0.0044125805643161278 -0.0034614812691409159 0 -0.0044743053788349283 -0.0033784105053248103 0 -0.0044023368004353558 -0.0033677794684535724 0 -0.0043690458738989014 -0.0034114480000980007 0 -0.0044125805643161278 -0.0034614812691409159 0 -0.0044023368004353558 -0.0033677794684535724 0 -0.0044221808949460924 -0.0035465118051595411 0 -0.0044125805643161278 -0.0034614812691409159 0 -0.004464565802406114 -0.0034891484867369958 0 -0.0046238602954618751 -0.0034716775684928785 0 -0.004464565802406114 -0.0034891484867369958 0 -0.0044743053788349283 -0.0033784105053248103 0 -0.0046238602954618751 -0.0034716775684928785 0 -0.0044490409137289523 -0.0035715669816461714 0 -0.004464565802406114 -0.0034891484867369958 0 -0.0046238602954618751 -0.0034716775684928785 0 -0.0044743053788349283 -0.0033784105053248103 0 -0.0045675269176044626 -0.0032698296472609902 0 -0.0044125805643161278 -0.0034614812691409159 0 -0.004464565802406114 -0.0034891484867369958 0 -0.0044743053788349283 -0.0033784105053248103 0 -0.0044743053788349283 -0.0033784105053248103 0 -0.0044445549402969591 -0.0032514538276496199 0 -0.0044174860224408556 -0.0033138996000069646 0 -0.0044743053788349283 -0.0033784105053248103 0 -0.0045675269176044626 -0.0032698296472609902 0 -0.0044445549402969591 -0.0032514538276496199 0 -0.004523525495940383 -0.0030724612185405722 0 -0.0045675269176044626 -0.0032698296472609902 0 -0.0044445549402969591 -0.0032514538276496199 0 -0.0043516999300565185 -0.0031639835788182169 0 -0.004523525495940383 -0.0030724612185405722 0 -0.0044445549402969591 -0.0032514538276496199 0 -0.0044507328609589116 -0.0036155268438759413 0 -0.0044055523774065202 -0.0032028795548205264 0 -0.0042755168859293941 -0.0034399589740131738 0 -0.0043348736946622925 -0.0031664872313066366 0 -0.0043719309977416397 -0.0032602516059656115 0 -0.0044445549402969591 -0.0032514538276496199 0 -0.0043719309977416397 -0.0032602516059656115 0 -0.0044174860224408556 -0.0033138996000069646 0 -0.0043516999300565185 -0.0031639835788182169 0 -0.0044445549402969591 -0.0032514538276496199 0 -0.0043719309977416397 -0.0032602516059656115 0 -0.0043348736946622925 -0.0031664872313066366 0 -0.0043516999300565185 -0.0031639835788182169 0 -0.0043719309977416397 -0.0032602516059656115 0 -0.0042755168859293941 -0.0034399589740131738 0 -0.0043690458738989014 -0.0034114480000980007 0 -0.0043719309977416397 -0.0032602516059656115 0 -0.0044743053788349283 -0.0033784105053248103 0 -0.0044023368004353558 -0.0033677794684535724 0 -0.0044174860224408556 -0.0033138996000069646 0 -0.0043719309977416397 -0.0032602516059656115 0 -0.0044023368004353558 -0.0033677794684535724 0 -0.0044174860224408556 -0.0033138996000069646 0 -0.0043690458738989014 -0.0034114480000980007 0 -0.0043719309977416397 -0.0032602516059656115 0 -0.0044023368004353558 -0.0033677794684535724 0 -0.0030641582290213531 -0.0048028649589155091 0 -0.0031026627202668622 -0.0048033610056021853 0 -0.0030631672982392071 -0.0048521592380726779 0 -0.0041241783907841317 -0.0039622221992721245 0 -0.0033028879354821722 -0.0047557354219919237 0 -0.0033937838380639282 -0.0046402733704012994 0 -0.0033028879354821722 -0.0047557354219919237 0 -0.0035699450027439372 -0.0042432330104923482 0 -0.003699093843052365 -0.0044211804579174022 0 -0.0037082690896215738 -0.0046637353559218341 0 -0.0030641582290213531 -0.0048028649589155091 0 -0.0031026627202668622 -0.0048033610056021853 0 -0.0030836966722510928 -0.0047804974675384228 0 -0.0031026627202668622 -0.0048033610056021853 0 -0.0031019306440862506 -0.0047624814541020284 0 -0.0030836966722510928 -0.0047804974675384228 0 -0.0015455713584522583 -0.0052701742667653961 0 -0.0014212544969641903 -0.0053385738073961232 0 -0.0013835961308137879 -0.0051973445949349889 0 -0.0031026627202668622 -0.0048033610056021853 0 -0.0031019306440862506 -0.0047624814541020284 0 -0.003131247952901226 -0.0047357939750693615 0 -0.003066053123467344 -0.0047536537817640875 0 -0.0031335983318909384 -0.0047301894709951171 0 -0.003131247952901226 -0.0047357939750693615 0 -0.0015455713584522583 -0.0052701742667653961 0 -0.0014878972908343709 -0.0053918152669887266 0 -0.0014212544969641903 -0.0053385738073961232 0 -0.0022541095993714195 -0.0050628664027115517 0 -0.0025962656804607337 -0.0051052551607115903 0 -0.0014850054931455198 -0.0054000286526390091 0 -0.0014878972908343709 -0.0053918152669887266 0 -0.0014212544969641903 -0.0053385738073961232 0 -0.0035699450027439372 -0.0042432330104923482 0 -0.003699093843052365 -0.0044211804579174022 0 -0.0036888347852563228 -0.0041791712754342967 0 -0.0031019306440862506 -0.0047624814541020284 0 -0.003066053123467344 -0.0047536537817640875 0 -0.003131247952901226 -0.0047357939750693615 0 -0.0030641582290213531 -0.0048028649589155091 0 -0.0030836966722510928 -0.0047804974675384228 0 -0.003066053123467344 -0.0047536537817640875 0 -0.0033937838380639282 -0.0046402733704012994 0 -0.003845765770941575 -0.004259222788684203 0 -0.0031019306440862506 -0.0047624814541020284 0 -0.0030836966722510928 -0.0047804974675384228 0 -0.003066053123467344 -0.0047536537817640875 0 -0.003845765770941575 -0.004259222788684203 0 -0.0042941734670049105 -0.0038561519121255326 0 -0.0041044338529571721 -0.0045073747664315378 0 -0.0042359177747349321 -0.0043025596553618473 0 -0.0044535904589433845 -0.0043233834573669378 0 -0.0041044338529571721 -0.0045073747664315378 0 -0.0042359177747349321 -0.0043025596553618473 0 -0.0040896063836452596 -0.0041981971665604936 0 -0.0042359177747349321 -0.0043025596553618473 0 -0.0040896063836452596 -0.0041981971665604936 0 -0.0042951809506385349 -0.0041803036670843138 0 -0.0043348557847043634 -0.0037904247221307794 0 -0.0042941734670049105 -0.0038561519121255326 0 -0.004066434414718917 -0.0038703105625462375 0 -0.0040896063836452596 -0.0041981971665604936 0 -0.0041714571107936095 -0.0040046053460670167 0 -0.0042151785005684131 -0.0040775796374161975 0 -0.0043135562411781023 -0.0040668131792930603 0 -0.0042951809506385349 -0.0041803036670843138 0 -0.0040896063836452596 -0.0041981971665604936 0 -0.0042151785005684131 -0.0040775796374161975 0 -0.0042951809506385349 -0.0041803036670843138 0 -0.0042151785005684131 -0.0040775796374161975 0 -0.0042523820553334825 -0.0039962633794582633 0 -0.0043135562411781023 -0.0040668131792930603 0 -0.0042151785005684131 -0.0040775796374161975 0 -0.0042523820553334825 -0.0039962633794582633 0 -0.0041714571107936095 -0.0040046053460670167 0 -0.0040896063836452596 -0.0041981971665604936 0 -0.0042151785005684131 -0.0040775796374161975 0 -0.0041714571107936095 -0.0040046053460670167 0 -0.0044145764980283537 -0.0040854472365732947 0 -0.0044639772282923009 -0.0041240341862659163 0 -0.0045051164809503247 -0.0040414144150658785 0 -0.0044061767759525396 -0.0039952956337705962 0 -0.0044145764980283537 -0.0040854472365732947 0 -0.0045051164809503247 -0.0040414144150658785 0 -0.0043260314795106761 -0.0039522112609514789 0 -0.0044061767759525396 -0.0039952956337705962 0 -0.0043135562411781023 -0.0040668131792930603 0 -0.0043260314795106761 -0.0039522112609514789 0 -0.0042523820553334825 -0.0039962633794582633 0 -0.0043135562411781023 -0.0040668131792930603 0 -0.0044061767759525396 -0.0039952956337705962 0 -0.0044145764980283537 -0.0040854472365732947 0 -0.0043135562411781023 -0.0040668131792930603 0 -0.0044145764980283537 -0.0040854472365732947 0 -0.0043135562411781023 -0.0040668131792930603 0 -0.0042951809506385349 -0.0041803036670843138 0 -0.0044145764980283537 -0.0040854472365732947 0 -0.0042951809506385349 -0.0041803036670843138 0 -0.0044236803154322577 -0.0041852224063091276 0 -0.0044145764980283537 -0.0040854472365732947 0 -0.0044236803154322577 -0.0041852224063091276 0 -0.0044639772282923009 -0.0041240341862659163 0 -0.0044236803154322577 -0.0041852224063091276 0 -0.0044639772282923009 -0.0041240341862659163 0 -0.0045139426867553799 -0.0041818440704584781 0 -0.003066053123467344 -0.0047536537817640875 0 -0.0031402811301836889 -0.0047145131974462599 0 -0.0031335983318909384 -0.0047301894709951171 0 -0.0042359177747349321 -0.0043025596553618473 0 -0.0042951809506385349 -0.0041803036670843138 0 -0.0044535904589433845 -0.0043233834573669378 0 -0.003845765770941575 -0.004259222788684203 0 -0.0034959505543019453 -0.0045959802781474438 0 -0.0042951809506385349 -0.0041803036670843138 0 -0.0044236803154322577 -0.0041852224063091276 0 -0.0044535904589433845 -0.0043233834573669378 0 -0.0044236803154322577 -0.0041852224063091276 0 -0.0044535904589433845 -0.0043233834573669378 0 -0.0045139426867553799 -0.0041818440704584781 0 -0.0034959505543019453 -0.0045959802781474438 0 -0.0029819475253447282 -0.0048248946752263034 0 -0.0034959505543019453 -0.0045959802781474438 0 -0.0027402414140937489 -0.005080684140528635 0 -0.0027402414140937489 -0.005080684140528635 0 -0.0029819475253447282 -0.0048248946752263034 0 -0.0030298294065871788 -0.0046575656301604202 0 -0.0028777937047711317 -0.0050508413638980865 0 -0.0031803408232762035 -0.0045751501146830808 0 -0.0027402414140937489 -0.005080684140528635 0 -0.0025962656804607337 -0.0051052551607115903 0 -0.0014681340940106914 -0.0054284444542790546 0 -0.0014455971050204464 -0.005440610725618405 0 -0.0014212544969641903 -0.0053385738073961232 0 -0.0020684456045009119 -0.0051109533475974236 0 -0.00130584488613107 -0.0053312126793391501 0 -0.0012515653530403401 -0.0052494710476299871 0 -0.0012464962823657477 -0.0052495561391503092 0 -0.0012906630554731303 -0.0052468463034448728 0 -0.0012515653530403401 -0.0052494710476299871 0 -0.001236125268072994 -0.0052486769713289833 0 -0.0012515190519492567 -0.0052497298433725271 0 -0.0012515653530403401 -0.0052494710476299871 0 -0.001237477649977311 -0.0052464751983628561 0 -0.0012464962823657477 -0.0052495561391503092 0 -0.001237477649977311 -0.0052464751983628561 0 -0.001216928696593927 -0.0052465583271218714 0 -0.001236125268072994 -0.0052486769713289833 0 -0.0012515653530403401 -0.0052494710476299871 0 -0.001237477649977311 -0.0052464751983628561 0 -0.001236125268072994 -0.0052486769713289833 0 -0.0014890986457319372 -0.005325726162864375 0 -0.0020684456045009119 -0.0051109533475974236 0 -0.0029819475253447282 -0.0048248946752263034 0 -0.0032473572432588286 -0.0045850578934931874 0 -0.0044098625519363955 -0.0043950128047972039 0 -0.0044536722593459897 -0.0043731505999944648 0 -0.0045139426867553799 -0.0041818440704584781 0 -0.0034959505543019453 -0.0045959802781474438 0 -0.0043278495043125005 -0.0040449552172059297 0 -0.0028230204013841745 -0.0050422057716652058 0 -0.0029405583022248855 -0.00497733225044018 0 -0.0029383045489402466 -0.0048595492746845263 0 -0.0044536722593459897 -0.0043731505999944648 0 -0.0045139426867553799 -0.0041818440704584781 0 -0.004557025546905796 -0.004214359198153694 0 -0.0029819475253447282 -0.0048248946752263034 0 -0.0020684456045009119 -0.0051109533475974236 0 -0.001237477649977311 -0.0052464751983628561 0 -0.0012490049934060965 -0.0052390983441043815 0 -0.0012462061104653844 -0.0052471558655416643 0 -0.0020684456045009119 -0.0051109533475974236 0 -0.0032473572432588286 -0.0045850578934931874 0 -0.0045139426867553799 -0.0041818440704584781 0 -0.004557025546905796 -0.004214359198153694 0 -0.0045051164809503247 -0.0040414144150658785 0 -0.0011714300973639353 -0.0052296741157541711 0 -0.0012462061104653844 -0.0052471558655416643 0 -0.001216928696593927 -0.0052465583271218714 0 -0.0028909822143060775 -0.0045695493236816371 0 -0.0032473572432588286 -0.0045850578934931874 0 -0.004925355091022353 -0.0036269731503366181 0 -0.0032473572432588286 -0.0045850578934931874 0 -0.0045712780743438989 -0.0037865540796130958 0 -0.004557025546905796 -0.004214359198153694 0 -0.0045051164809503247 -0.0040414144150658785 0 -0.0044639772282923009 -0.0041240341862659163 0 -0.0045139426867553799 -0.0041818440704584781 0 -0.0045051164809503247 -0.0040414144150658785 0 -0.001237477649977311 -0.0052464751983628561 0 -0.0012462061104653844 -0.0052471558655416643 0 -0.001216928696593927 -0.0052465583271218714 0 -0.0011714300973639353 -0.0052296741157541711 0 -0.0011938424777240386 -0.0052435999807588117 0 -0.001216928696593927 -0.0052465583271218714 0 -0.0011938424777240386 -0.0052435999807588117 0 -0.001216928696593927 -0.0052465583271218714 0 -0.0012101382659930827 -0.0052508160000185123 0 -0.001216928696593927 -0.0052465583271218714 0 -0.0012101382659930827 -0.0052508160000185123 0 -0.0012290791999053105 -0.0052510739666043749 0 -0.0012101382659930827 -0.0052508160000185123 0 -0.0012290791999053105 -0.0052510739666043749 0 -0.0012176213196588986 -0.00525430406756449 0 -0.001216928696593927 -0.0052465583271218714 0 -0.001236125268072994 -0.0052486769713289833 0 -0.0012290791999053105 -0.0052510739666043749 0 -0.0012290791999053105 -0.0052510739666043749 0 -0.0012515190519492567 -0.0052497298433725271 0 -0.0012387015349996267 -0.0052504365281143116 0 -0.001236125268072994 -0.0052486769713289833 0 -0.0012290791999053105 -0.0052510739666043749 0 -0.0012515190519492567 -0.0052497298433725271 0 -0.0012290791999053105 -0.0052510739666043749 0 -0.0012387015349996267 -0.0052504365281143116 0 -0.0012176213196588986 -0.00525430406756449 0 -0.0012387015349996267 -0.0052504365281143116 0 -0.0012657863791071023 -0.0052402088862127617 0 -0.0012283986499674617 -0.0052371718882380557 0 -0.0012515190519492567 -0.0052497298433725271 0 -0.0012387015349996267 -0.0052504365281143116 0 -0.0012657863791071023 -0.0052402088862127617 0 -0.0012515190519492567 -0.0052497298433725271 0 -0.0012657863791071023 -0.0052402088862127617 0 -0.0012906630554731303 -0.0052468463034448728 0 -0.0012657863791071023 -0.0052402088862127617 0 -0.0012906630554731303 -0.0052468463034448728 0 -0.0013060210799686045 -0.0052263075786390945 0 -0.0014850054931455198 -0.0054000286526390091 0 -0.0014681340940106914 -0.0054284444542790546 0 -0.0014212544969641903 -0.0053385738073961232 0 -0.0012515653530403401 -0.0052494710476299871 0 -0.0012515190519492567 -0.0052497298433725271 0 -0.0012906630554731303 -0.0052468463034448728 0 -0.0012906630554731303 -0.0052468463034448728 0 -0.0013060210799686045 -0.0052263075786390945 0 -0.0013835961308137879 -0.0051973445949349889 0 -0.00130584488613107 -0.0053312126793391501 0 -0.0013837154212277944 -0.0051792288147452089 0 -0.0013060210799686045 -0.0052263075786390945 0 -0.0012823746271228009 -0.0052026732668396976 0 -0.0013835961308137879 -0.0051973445949349889 0 -0.0012657863791071023 -0.0052402088862127617 0 -0.0012823746271228009 -0.0052026732668396976 0 -0.0012451156030047908 -0.0052179705551095518 0 -0.0012657863791071023 -0.0052402088862127617 0 -0.0013060210799686045 -0.0052263075786390945 0 -0.0012823746271228009 -0.0052026732668396976 0 -0.0012823746271228009 -0.0052026732668396976 0 -0.0012451156030047908 -0.0052179705551095518 0 -0.0012471180177522927 -0.0051893956367913699 0 -0.0012657863791071023 -0.0052402088862127617 0 -0.0012451156030047908 -0.0052179705551095518 0 -0.0012283986499674617 -0.0052371718882380557 0 -0.001219505756044363 -0.0052113547570512633 0 -0.0012076027357871891 -0.0052361761365179353 0 -0.0012283986499674617 -0.0052371718882380557 0 -0.0012451156030047908 -0.0052179705551095518 0 -0.001219505756044363 -0.0052113547570512633 0 -0.0012283986499674617 -0.0052371718882380557 0 -0.0012451156030047908 -0.0052179705551095518 0 -0.001219505756044363 -0.0052113547570512633 0 -0.0012471180177522927 -0.0051893956367913699 0 -0.001219505756044363 -0.0052113547570512633 0 -0.0011968081404115244 -0.0052228744173103709 0 -0.0012082380197204552 -0.0051989881368919551 0 -0.0011968081404115244 -0.0052228744173103709 0 -0.0011822305322995818 -0.0052333498089775802 0 -0.001186658329559716 -0.0052054666593625036 0 -0.0011968081404115244 -0.0052228744173103709 0 -0.0011917100210041473 -0.005238578911808062 0 -0.0011822305322995818 -0.0052333498089775802 0 -0.001219505756044363 -0.0052113547570512633 0 -0.0011968081404115244 -0.0052228744173103709 0 -0.0012076027357871891 -0.0052361761365179353 0 -0.0011968081404115244 -0.0052228744173103709 0 -0.0012076027357871891 -0.0052361761365179353 0 -0.0011917100210041473 -0.005238578911808062 0 -0.0012076027357871891 -0.0052361761365179353 0 -0.0011917100210041473 -0.005238578911808062 0 -0.0012088037853280409 -0.0052499126131922043 0 -0.0011917100210041473 -0.005238578911808062 0 -0.0012088037853280409 -0.0052499126131922043 0 -0.0011928358386941176 -0.0052494332724837486 0 -0.0012088037853280409 -0.0052499126131922043 0 -0.0012283986499674617 -0.0052371718882380557 0 -0.0012201848321226354 -0.0052514860874571922 0 -0.0012076027357871891 -0.0052361761365179353 0 -0.0012088037853280409 -0.0052499126131922043 0 -0.0012283986499674617 -0.0052371718882380557 0 -0.0012387015349996267 -0.0052504365281143116 0 -0.0012283986499674617 -0.0052371718882380557 0 -0.0012201848321226354 -0.0052514860874571922 0 -0.0012387015349996267 -0.0052504365281143116 0 -0.0012201848321226354 -0.0052514860874571922 0 -0.0012176213196588986 -0.00525430406756449 0 -0.0012201848321226354 -0.0052514860874571922 0 -0.0012102483462763031 -0.0052585619337699296 0 -0.0012176213196588986 -0.00525430406756449 0 -0.0012088037853280409 -0.0052499126131922043 0 -0.0012201848321226354 -0.0052514860874571922 0 -0.0012102483462763031 -0.0052585619337699296 0 -0.0012102483462763031 -0.0052585619337699296 0 -0.0012176213196588986 -0.00525430406756449 0 -0.0011983510652866158 -0.005253809886446986 0 -0.001184426342165579 -0.0052297435068994775 0 -0.0011983510652866158 -0.005253809886446986 0 -0.0012123623163592773 -0.0052652626892272843 0 -0.0012101382659930827 -0.0052508160000185123 0 -0.0012176213196588986 -0.00525430406756449 0 -0.0011983510652866158 -0.005253809886446986 0 -0.0011938424777240386 -0.0052435999807588117 0 -0.0012101382659930827 -0.0052508160000185123 0 -0.0011983510652866158 -0.005253809886446986 0 -0.0012102483462763031 -0.0052585619337699296 0 -0.0011983510652866158 -0.005253809886446986 0 -0.0012123623163592773 -0.0052652626892272843 0 -0.0011740254014975587 -0.0052316602386893816 0 -0.0011938424777240386 -0.0052435999807588117 0 -0.0011983510652866158 -0.005253809886446986 0 -0.0012123623163592773 -0.0052652626892272843 0 -0.0012055679476970708 -0.005259220012491149 0 -0.0012020896784937795 -0.0052640953703521256 0 -0.0012088037853280409 -0.0052499126131922043 0 -0.0012055679476970708 -0.005259220012491149 0 -0.0011928358386941176 -0.0052494332724837486 0 -0.0012102483462763031 -0.0052585619337699296 0 -0.0012123623163592773 -0.0052652626892272843 0 -0.0012055679476970708 -0.005259220012491149 0 -0.0012088037853280409 -0.0052499126131922043 0 -0.0012102483462763031 -0.0052585619337699296 0 -0.0012055679476970708 -0.005259220012491149 0 -0.0012055679476970708 -0.005259220012491149 0 -0.0012020896784937795 -0.0052640953703521256 0 -0.0011928358386941176 -0.0052494332724837486 0 -0.0012020896784937795 -0.0052640953703521256 0 -0.0011689748838767413 -0.0052753446716397954 0 -0.0011656127534307506 -0.0052482526012384524 0 -0.0012020896784937795 -0.0052640953703521256 0 -0.0011656127534307506 -0.0052482526012384524 0 -0.0011928358386941176 -0.0052494332724837486 0 -0.0012123623163592773 -0.0052652626892272843 0 -0.0012020896784937795 -0.0052640953703521256 0 -0.0012214158919402441 -0.0052746847425165109 0 -0.0012020896784937795 -0.0052640953703521256 0 -0.0012214158919402441 -0.0052746847425165109 0 -0.0011689748838767413 -0.0052753446716397954 0 -0.0010377805236994541 -0.0053367363885311065 0 -0.0012083248125213688 -0.005307259908702751 0 -0.0011689748838767413 -0.0052753446716397954 0 -0.0012083248125213688 -0.005307259908702751 0 -0.0012214158919402441 -0.0052746847425165109 0 -0.0011689748838767413 -0.0052753446716397954 0 -0.0011689748838767413 -0.0052753446716397954 0 -0.0011656127534307506 -0.0052482526012384524 0 -0.0011070207688057324 -0.0052463604620695834 0 -0.0011656127534307506 -0.0052482526012384524 0 -0.0011219519295318429 -0.0052351961042490999 0 -0.0011070207688057324 -0.0052463604620695834 0 -0.0011656127534307506 -0.0052482526012384524 0 -0.0011219519295318429 -0.0052351961042490999 0 -0.001173874718462401 -0.0052381942329772944 0 -0.0011656127534307506 -0.0052482526012384524 0 -0.0011928358386941176 -0.0052494332724837486 0 -0.001173874718462401 -0.0052381942329772944 0 -0.0011917100210041473 -0.005238578911808062 0 -0.0011928358386941176 -0.0052494332724837486 0 -0.001173874718462401 -0.0052381942329772944 0 -0.001173874718462401 -0.0052381942329772944 0 -0.0011822305322995818 -0.0052333498089775802 0 -0.001181446170054056 -0.0052607791710991298 0 -0.0011822305322995818 -0.0052333498089775802 0 -0.001181446170054056 -0.0052607791710991298 0 -0.001186658329559716 -0.0052054666593625036 0 -0.0011917100210041473 -0.005238578911808062 0 -0.001173874718462401 -0.0052381942329772944 0 -0.0011822305322995818 -0.0052333498089775802 0 -0.0011219519295318429 -0.0052351961042490999 0 -0.001173874718462401 -0.0052381942329772944 0 -0.001181446170054056 -0.0052607791710991298 0 -0.0011219519295318429 -0.0052351961042490999 0 -0.001181446170054056 -0.0052607791710991298 0 -0.0011371042869475203 -0.0052497379130145789 0 -0.001181446170054056 -0.0052607791710991298 0 -0.001194960843013129 -0.0052388470202374762 0 -0.0011371042869475203 -0.0052497379130145789 0 -0.001181446170054056 -0.0052607791710991298 0 -0.001194960843013129 -0.0052388470202374762 0 -0.0012835425452016639 -0.0052693534906425501 0 -0.0011977912881411901 -0.0052627081686241828 0 -0.0012738930939226838 -0.0052506626805097966 0 -0.001181446170054056 -0.0052607791710991298 0 -0.0012835425452016639 -0.0052693534906425501 0 -0.0013634333650701669 -0.0053125666677322856 0 -0.0013428108363787597 -0.0052930231835301373 0 -0.0012835425452016639 -0.0052693534906425501 0 -0.0013634333650701669 -0.0053125666677322856 0 -0.0013428108363787597 -0.0052930231835301373 0 -0.0012835425452016639 -0.0052693534906425501 0 -0.001336658165258493 -0.0052580229962439634 0 -0.0012835425452016639 -0.0052693534906425501 0 -0.001292283153789832 -0.0052242736525224135 0 -0.001336658165258493 -0.0052580229962439634 0 -0.001194960843013129 -0.0052388470202374762 0 -0.0012835425452016639 -0.0052693534906425501 0 -0.001292283153789832 -0.0052242736525224135 0 -0.001292283153789832 -0.0052242736525224135 0 -0.001336658165258493 -0.0052580229962439634 0 -0.0013866135630712124 -0.0052302716324379188 0 -0.001292283153789832 -0.0052242736525224135 0 -0.0013866135630712124 -0.0052302716324379188 0 -0.0013512515476130729 -0.0051875486480517279 0 -0.0013866135630712124 -0.0052302716324379188 0 -0.0013512515476130729 -0.0051875486480517279 0 -0.001436588865610267 -0.0051866762050401596 0 -0.001292283153789832 -0.0052242736525224135 0 -0.0012358293171370965 -0.0051851229075995063 0 -0.0012943671407584913 -0.0051646777752461905 0 -0.001292283153789832 -0.0052242736525224135 0 -0.0013512515476130729 -0.0051875486480517279 0 -0.0012943671407584913 -0.0051646777752461905 0 -0.001194960843013129 -0.0052388470202374762 0 -0.0011789619600647131 -0.0051905813801774257 0 -0.0011152280073124688 -0.0052234214619063368 0 -0.001194960843013129 -0.0052388470202374762 0 -0.001292283153789832 -0.0052242736525224135 0 -0.0012358293171370965 -0.0051851229075995063 0 -0.001194960843013129 -0.0052388470202374762 0 -0.0012358293171370965 -0.0051851229075995063 0 -0.0011789619600647131 -0.0051905813801774257 0 -0.0012358293171370965 -0.0051851229075995063 0 -0.0011789619600647131 -0.0051905813801774257 0 -0.0012089587157309407 -0.0051286541155540384 0 -0.0011789619600647131 -0.0051905813801774257 0 -0.0012089587157309407 -0.0051286541155540384 0 -0.001146908008440166 -0.0051483468085153205 0 -0.0012089587157309407 -0.0051286541155540384 0 -0.0012533910442949212 -0.0051429242107225567 0 -0.0012794044338561579 -0.0051001534122087676 0 -0.0012358293171370965 -0.0051851229075995063 0 -0.0012089587157309407 -0.0051286541155540384 0 -0.0012533910442949212 -0.0051429242107225567 0 -0.0012358293171370965 -0.0051851229075995063 0 -0.0012533910442949212 -0.0051429242107225567 0 -0.0012943671407584913 -0.0051646777752461905 0 -0.0012089587157309407 -0.0051286541155540384 0 -0.0012449838785852285 -0.0050697588937928771 0 -0.0012794044338561579 -0.0051001534122087676 0 -0.0012089587157309407 -0.0051286541155540384 0 -0.001184400273747066 -0.0050747728653316058 0 -0.001146908008440166 -0.0051483468085153205 0 -0.0012089587157309407 -0.0051286541155540384 0 -0.0012449838785852285 -0.0050697588937928771 0 -0.001184400273747066 -0.0050747728653316058 0 -0.0013298669277039983 -0.0050237217782534895 0 -0.0011226654023161421 -0.0050523806273028429 0 -0.0013945898402896826 -0.0050615927537132907 0 -0.0014113892870339223 -0.0049999994662110929 0 -0.0011301017081404596 -0.0049999944071201542 0 -0.001184400273747066 -0.0050747728653316058 0 -0.0012592682168493573 -0.0049881744989891414 0 -0.0011488534008256951 -0.0050593520336390087 0 -0.0012592682168493573 -0.0049881744989891414 0 -0.0011017131742669906 -0.005028162831435568 0 -0.0011488534008256951 -0.0050593520336390087 0 -0.0012449838785852285 -0.0050697588937928771 0 -0.001184400273747066 -0.0050747728653316058 0 -0.0012592682168493573 -0.0049881744989891414 0 -0.0012449838785852285 -0.0050697588937928771 0 -0.0012592682168493573 -0.0049881744989891414 0 -0.0013024592161484186 -0.0050519931902530315 0 -0.0013298669277039983 -0.0050237217782534895 0 -0.0015839898817059832 -0.00499462541600153 0 -0.0013945898402896826 -0.0050615927537132907 0 -0.0014113892870339223 -0.0049999994662110929 0 -0.001644081762682428 -0.0050389626759749073 0 -0.0012592682168493573 -0.0049881744989891414 0 -0.0013882325582869727 -0.0050302457443475636 0 -0.0015160564233059218 -0.0049372356922381616 0 -0.0012592682168493573 -0.0049881744989891414 0 -0.0013024592161484186 -0.0050519931902530315 0 -0.0013882325582869727 -0.0050302457443475636 0 -0.0013024592161484186 -0.0050519931902530315 0 -0.0013882325582869727 -0.0050302457443475636 0 -0.0013460563578610082 -0.00508873343809062 0 -0.0013882325582869727 -0.0050302457443475636 0 -0.0014243144601104997 -0.0050931533223632442 0 -0.0014341663496759986 -0.0050485436865080804 0 -0.0013882325582869727 -0.0050302457443475636 0 -0.0013460563578610082 -0.00508873343809062 0 -0.0014243144601104997 -0.0050931533223632442 0 -0.0013460563578610082 -0.00508873343809062 0 -0.0013358348339929916 -0.0051336640528779828 0 -0.0013925483497177029 -0.0051416513014989123 0 -0.0013460563578610082 -0.00508873343809062 0 -0.0013925483497177029 -0.0051416513014989123 0 -0.0014243144601104997 -0.0050931533223632442 0 -0.0012449838785852285 -0.0050697588937928771 0 -0.0013024592161484186 -0.0050519931902530315 0 -0.0012794044338561579 -0.0051001534122087676 0 -0.0013024592161484186 -0.0050519931902530315 0 -0.0013460563578610082 -0.00508873343809062 0 -0.0012794044338561579 -0.0051001534122087676 0 -0.0013460563578610082 -0.00508873343809062 0 -0.0012794044338561579 -0.0051001534122087676 0 -0.0013358348339929916 -0.0051336640528779828 0 -0.0012533910442949212 -0.0051429242107225567 0 -0.0012794044338561579 -0.0051001534122087676 0 -0.0012943671407584913 -0.0051646777752461905 0 -0.0012794044338561579 -0.0051001534122087676 0 -0.0013358348339929916 -0.0051336640528779828 0 -0.0012943671407584913 -0.0051646777752461905 0 -0.0013512515476130729 -0.0051875486480517279 0 -0.0013358348339929916 -0.0051336640528779828 0 -0.0012943671407584913 -0.0051646777752461905 0 -0.0013512515476130729 -0.0051875486480517279 0 -0.0013925483497177029 -0.0051416513014989123 0 -0.001436588865610267 -0.0051866762050401596 0 -0.0013512515476130729 -0.0051875486480517279 0 -0.0013358348339929916 -0.0051336640528779828 0 -0.0013925483497177029 -0.0051416513014989123 0 -0.0013925483497177029 -0.0051416513014989123 0 -0.001436588865610267 -0.0051866762050401596 0 -0.0014761944132373082 -0.0051258839972270608 0 -0.001436588865610267 -0.0051866762050401596 0 -0.0015127441217102878 -0.0051747471536112543 0 -0.0014761944132373082 -0.0051258839972270608 0 -0.001436588865610267 -0.0051866762050401596 0 -0.0015127441217102878 -0.0051747471536112543 0 -0.0015115876800118947 -0.0052368803693876387 0 -0.0015790895125031951 -0.0051876799484790572 0 -0.0016379733216311655 -0.0052323747267511329 0 -0.0015115876800118947 -0.0052368803693876387 0 -0.0015127441217102878 -0.0051747471536112543 0 -0.0015790895125031951 -0.0051876799484790572 0 -0.0015115876800118947 -0.0052368803693876387 0 -0.0015127441217102878 -0.0051747471536112543 0 -0.0015790895125031951 -0.0051876799484790572 0 -0.0015508994559236796 -0.0051295319469284442 0 -0.0015508994559236796 -0.0051295319469284442 0 -0.0015838282162626463 -0.0050861327357165382 0 -0.0016362357829343402 -0.0051481770662047425 0 -0.0015790895125031951 -0.0051876799484790572 0 -0.0015508994559236796 -0.0051295319469284442 0 -0.0016362357829343402 -0.0051481770662047425 0 -0.0015127441217102878 -0.0051747471536112543 0 -0.0015508994559236796 -0.0051295319469284442 0 -0.0014761944132373082 -0.0051258839972270608 0 -0.0015508994559236796 -0.0051295319469284442 0 -0.0015838282162626463 -0.0050861327357165382 0 -0.0015045036158613551 -0.005064487469529871 0 -0.0013925483497177029 -0.0051416513014989123 0 -0.0014761944132373082 -0.0051258839972270608 0 -0.0014243144601104997 -0.0050931533223632442 0 -0.0014761944132373082 -0.0051258839972270608 0 -0.0014243144601104997 -0.0050931533223632442 0 -0.0015045036158613551 -0.005064487469529871 0 -0.0015508994559236796 -0.0051295319469284442 0 -0.0014761944132373082 -0.0051258839972270608 0 -0.0015045036158613551 -0.005064487469529871 0 -0.0014243144601104997 -0.0050931533223632442 0 -0.0014341663496759986 -0.0050485436865080804 0 -0.0015045036158613551 -0.005064487469529871 0 -0.0013882325582869727 -0.0050302457443475636 0 -0.0014341663496759986 -0.0050485436865080804 0 -0.0014723850137737149 -0.0050170225333045779 0 -0.0014113892870339223 -0.0049999994662110929 0 -0.0016926377072501292 -0.0050000004594571122 0 -0.001644081762682428 -0.0050389626759749073 0 -0.0013882325582869727 -0.0050302457443475636 0 -0.0014723850137737149 -0.0050170225333045779 0 -0.0015160564233059218 -0.0049372356922381616 0 -0.0014723850137737149 -0.0050170225333045779 0 -0.0015045036158613551 -0.005064487469529871 0 -0.0015229174280002298 -0.005001228111519089 0 -0.0014341663496759986 -0.0050485436865080804 0 -0.0014723850137737149 -0.0050170225333045779 0 -0.0015045036158613551 -0.005064487469529871 0 -0.0015838282162626463 -0.0050861327357165382 0 -0.0015045036158613551 -0.005064487469529871 0 -0.0015862949401587892 -0.0050294946591094274 0 -0.0015838282162626463 -0.0050861327357165382 0 -0.0015862949401587892 -0.0050294946591094274 0 -0.0016579971102393079 -0.0050875862079545172 0 -0.0015045036158613551 -0.005064487469529871 0 -0.0015862949401587892 -0.0050294946591094274 0 -0.0015229174280002298 -0.005001228111519089 0 -0.0015862949401587892 -0.0050294946591094274 0 -0.0015160564233059218 -0.0049372356922381616 0 -0.0017045458505231276 -0.0050307705830340858 0 -0.0015862949401587892 -0.0050294946591094274 0 -0.0015229174280002298 -0.005001228111519089 0 -0.0015160564233059218 -0.0049372356922381616 0 -0.0014723850137737149 -0.0050170225333045779 0 -0.0015229174280002298 -0.005001228111519089 0 -0.0015160564233059218 -0.0049372356922381616 0 -0.0015839898817059832 -0.00499462541600153 0 -0.0018608833359937613 -0.0049972716738331691 0 -0.0015160564233059218 -0.0049372356922381616 0 -0.0017045458505231276 -0.0050307705830340858 0 -0.0018884524770724897 -0.0050050604530526687 0 -0.0016926377072501292 -0.0050000004594571122 0 -0.0019737818718417758 -0.0049999072672164109 0 -0.0018884524770724897 -0.0050050604530526687 0 -0.0016926377072501292 -0.0050000004594571122 0 -0.001644081762682428 -0.0050389626759749073 0 -0.0018884524770724897 -0.0050050604530526687 0 -0.0017045458505231276 -0.0050307705830340858 0 -0.0018155347461010329 -0.0050514084096024495 0 -0.0018884524770724897 -0.0050050604530526687 0 -0.0015862949401587892 -0.0050294946591094274 0 -0.0017045458505231276 -0.0050307705830340858 0 -0.0016579971102393079 -0.0050875862079545172 0 -0.0017045458505231276 -0.0050307705830340858 0 -0.0016579971102393079 -0.0050875862079545172 0 -0.0017783943939124675 -0.0051085518514910533 0 -0.0017045458505231276 -0.0050307705830340858 0 -0.0018155347461010329 -0.0050514084096024495 0 -0.0017783943939124675 -0.0051085518514910533 0 -0.0018155347461010329 -0.0050514084096024495 0 -0.0017783943939124675 -0.0051085518514910533 0 -0.0018863480364693366 -0.0050649695663388412 0 -0.0017783943939124675 -0.0051085518514910533 0 -0.0017174416450551927 -0.0051675231866743021 0 -0.001806815801130085 -0.0051745183676016439 0 -0.0016579971102393079 -0.0050875862079545172 0 -0.0017783943939124675 -0.0051085518514910533 0 -0.0017174416450551927 -0.0051675231866743021 0 -0.0015838282162626463 -0.0050861327357165382 0 -0.0016579971102393079 -0.0050875862079545172 0 -0.0016362357829343402 -0.0051481770662047425 0 -0.0016579971102393079 -0.0050875862079545172 0 -0.0017174416450551927 -0.0051675231866743021 0 -0.0016362357829343402 -0.0051481770662047425 0 -0.0015790895125031951 -0.0051876799484790572 0 -0.0016362357829343402 -0.0051481770662047425 0 -0.0016379733216311655 -0.0052323747267511329 0 -0.0017174416450551927 -0.0051675231866743021 0 -0.0016379733216311655 -0.0052323747267511329 0 -0.0017488831893082792 -0.0052219772528515106 0 -0.0017174416450551927 -0.0051675231866743021 0 -0.0016362357829343402 -0.0051481770662047425 0 -0.0016379733216311655 -0.0052323747267511329 0 -0.0017488831893082792 -0.0052219772528515106 0 -0.001721857255280344 -0.0052736274923945257 0 -0.0018630646545841336 -0.0052412505743202383 0 -0.0016379733216311655 -0.0052323747267511329 0 -0.0017488831893082792 -0.0052219772528515106 0 -0.001721857255280344 -0.0052736274923945257 0 -0.0017174416450551927 -0.0051675231866743021 0 -0.001806815801130085 -0.0051745183676016439 0 -0.0017488831893082792 -0.0052219772528515106 0 -0.001726522873044437 -0.0053585605486623526 0 -0.0016041110555666193 -0.0052785594759552634 0 -0.0014319532187886115 -0.0052795833272178119 0 -0.001721857255280344 -0.0052736274923945257 0 -0.001726522873044437 -0.0053585605486623526 0 -0.0018630646545841336 -0.0052412505743202383 0 -0.0014338506226301395 -0.0051812613786577106 0 -0.0013966069033301714 -0.0052509116125408137 0 -0.0014463988923571394 -0.0052168026021075986 0 -0.001721857255280344 -0.0052736274923945257 0 -0.001726522873044437 -0.0053585605486623526 0 -0.0016041110555666193 -0.0052785594759552634 0 -0.0016379733216311655 -0.0052323747267511329 0 -0.001721857255280344 -0.0052736274923945257 0 -0.0016041110555666193 -0.0052785594759552634 0 -0.0013428108363787597 -0.0052930231835301373 0 -0.001726522873044437 -0.0053585605486623526 0 -0.0014319532187886115 -0.0052795833272178119 0 -0.0016379733216311655 -0.0052323747267511329 0 -0.0016041110555666193 -0.0052785594759552634 0 -0.0015115876800118947 -0.0052368803693876387 0 -0.0013428108363787597 -0.0052930231835301373 0 -0.0014338506226301395 -0.0051812613786577106 0 -0.0013966069033301714 -0.0052509116125408137 0 -0.0013690876296037313 -0.005295571807021629 0 -0.0015837173312534555 -0.0052598721909293969 0 -0.0016041110555666193 -0.0052785594759552634 0 -0.0015115876800118947 -0.0052368803693876387 0 -0.0014319532187886115 -0.0052795833272178119 0 -0.0013866135630712124 -0.0052302716324379188 0 -0.0015115876800118947 -0.0052368803693876387 0 -0.0014319532187886115 -0.0052795833272178119 0 -0.0013866135630712124 -0.0052302716324379188 0 -0.001436588865610267 -0.0051866762050401596 0 -0.0015115876800118947 -0.0052368803693876387 0 -0.001336658165258493 -0.0052580229962439634 0 -0.0013866135630712124 -0.0052302716324379188 0 -0.0014319532187886115 -0.0052795833272178119 0 -0.0013428108363787597 -0.0052930231835301373 0 -0.001336658165258493 -0.0052580229962439634 0 -0.0014319532187886115 -0.0052795833272178119 0 -0.0013428108363787597 -0.0052930231835301373 0 -0.0013966069033301714 -0.0052509116125408137 0 -0.0013634333650701669 -0.0053125666677322856 0 -0.0011968081404115244 -0.0052228744173103709 0 -0.001186658329559716 -0.0052054666593625036 0 -0.0012082380197204552 -0.0051989881368919551 0 -0.001219505756044363 -0.0052113547570512633 0 -0.0012082380197204552 -0.0051989881368919551 0 -0.0012349263493809293 -0.0051471995125558301 0 -0.001219505756044363 -0.0052113547570512633 0 -0.0012471180177522927 -0.0051893956367913699 0 -0.0012349263493809293 -0.0051471995125558301 0 -0.001186658329559716 -0.0052054666593625036 0 -0.0012082380197204552 -0.0051989881368919551 0 -0.0012349263493809293 -0.0051471995125558301 0 -0.0013966069033301714 -0.0052509116125408137 0 -0.0013634333650701669 -0.0053125666677322856 0 -0.0014463988923571394 -0.0052168026021075986 0 -0.0012738930939226838 -0.0052506626805097966 0 -0.0013402099235428591 -0.0051833042372715623 0 -0.0012823746271228009 -0.0052026732668396976 0 -0.0013094216938893987 -0.0051411086328369089 0 -0.0013835961308137879 -0.0051973445949349889 0 -0.0012349263493809293 -0.0051471995125558301 0 -0.0013094216938893987 -0.0051411086328369089 0 -0.0013741625660220909 -0.0050650043144599595 0 -0.0012349263493809293 -0.0051471995125558301 0 -0.0013094216938893987 -0.0051411086328369089 0 -0.0012679495830986412 -0.0051706461499475996 0 -0.0012471180177522927 -0.0051893956367913699 0 -0.0012349263493809293 -0.0051471995125558301 0 -0.0012679495830986412 -0.0051706461499475996 0 -0.0012823746271228009 -0.0052026732668396976 0 -0.0012471180177522927 -0.0051893956367913699 0 -0.0012679495830986412 -0.0051706461499475996 0 -0.0012823746271228009 -0.0052026732668396976 0 -0.0013094216938893987 -0.0051411086328369089 0 -0.0012679495830986412 -0.0051706461499475996 0 -0.0013835961308137879 -0.0051973445949349889 0 -0.0014099825271252496 -0.0051271232105839061 0 -0.0015266468472743279 -0.0051314749103513477 0 -0.0013094216938893987 -0.0051411086328369089 0 -0.0014099825271252496 -0.0051271232105839061 0 -0.0013741625660220909 -0.0050650043144599595 0 -0.0013094216938893987 -0.0051411086328369089 0 -0.0013835961308137879 -0.0051973445949349889 0 -0.0014099825271252496 -0.0051271232105839061 0 -0.0014099825271252496 -0.0051271232105839061 0 -0.0013741625660220909 -0.0050650043144599595 0 -0.0014786400838052432 -0.0050955435125617761 0 -0.0015258295723796112 -0.0051277554832547126 0 -0.0015493486039611086 -0.0050727799306596729 0 -0.0015228005472923015 -0.005079693027574288 0 -0.0015258295723796112 -0.0051277554832547126 0 -0.0014823023966840454 -0.0051513670120483359 0 -0.0015228005472923015 -0.005079693027574288 0 -0.0013402099235428591 -0.0051833042372715623 0 -0.0014507613587596173 -0.005098891394993049 0 -0.0014463988923571394 -0.0052168026021075986 0 -0.0015258295723796112 -0.0051277554832547126 0 -0.0014823023966840454 -0.0051513670120483359 0 -0.0015837173312534555 -0.0052598721909293969 0 -0.0018044953825396921 -0.0051957820174062756 0 -0.0014338506226301395 -0.0051812613786577106 0 -0.0014823023966840454 -0.0051513670120483359 0 -0.0015228005472923015 -0.005079693027574288 0 -0.001726522873044437 -0.0053585605486623526 0 -0.0018630646545841336 -0.0052412505743202383 0 -0.0020756796918148242 -0.0052889196902783722 0 -0.0014338506226301395 -0.0051812613786577106 0 -0.0014463988923571394 -0.0052168026021075986 0 -0.0014823023966840454 -0.0051513670120483359 0 -0.001806815801130085 -0.0051745183676016439 0 -0.0017488831893082792 -0.0052219772528515106 0 -0.0018630646545841336 -0.0052412505743202383 0 -0.0018630646545841336 -0.0052412505743202383 0 -0.0020086176466168693 -0.0051854749428466244 0 -0.0020756796918148242 -0.0052889196902783722 0 -0.001885545136513406 -0.0051508049925989511 0 -0.0019742155085357405 -0.0051085013095312779 0 -0.0020086176466168693 -0.0051854749428466244 0 -0.0018630646545841336 -0.0052412505743202383 0 -0.001885545136513406 -0.0051508049925989511 0 -0.0020086176466168693 -0.0051854749428466244 0 -0.0017783943939124675 -0.0051085518514910533 0 -0.001806815801130085 -0.0051745183676016439 0 -0.001885545136513406 -0.0051508049925989511 0 -0.001806815801130085 -0.0051745183676016439 0 -0.0018630646545841336 -0.0052412505743202383 0 -0.001885545136513406 -0.0051508049925989511 0 -0.001885545136513406 -0.0051508049925989511 0 -0.0018863480364693366 -0.0050649695663388412 0 -0.0019742155085357405 -0.0051085013095312779 0 -0.0017783943939124675 -0.0051085518514910533 0 -0.001885545136513406 -0.0051508049925989511 0 -0.0018863480364693366 -0.0050649695663388412 0 -0.0018863480364693366 -0.0050649695663388412 0 -0.0019742155085357405 -0.0051085013095312779 0 -0.0019737818718417758 -0.0049999072672164109 0 -0.0018863480364693366 -0.0050649695663388412 0 -0.0019737818718417758 -0.0049999072672164109 0 -0.0018884524770724897 -0.0050050604530526687 0 -0.0018155347461010329 -0.0050514084096024495 0 -0.0018863480364693366 -0.0050649695663388412 0 -0.0018884524770724897 -0.0050050604530526687 0 -0.0019737818718417758 -0.0049999072672164109 0 -0.0021140489356269287 -0.0051132469074149037 0 -0.0022551140405594693 -0.0050000036654970752 0 -0.0019742155085357405 -0.0051085013095312779 0 -0.0019737818718417758 -0.0049999072672164109 0 -0.0021140489356269287 -0.0051132469074149037 0 -0.0021140489356269287 -0.0051132469074149037 0 -0.0020970720045316764 -0.0051919091375506633 0 -0.0021881422091374826 -0.0051833966044796094 0 -0.0021140489356269287 -0.0051132469074149037 0 -0.0020970720045316764 -0.0051919091375506633 0 -0.0020086176466168693 -0.0051854749428466244 0 -0.0019742155085357405 -0.0051085013095312779 0 -0.0021140489356269287 -0.0051132469074149037 0 -0.0020086176466168693 -0.0051854749428466244 0 -0.0020970720045316764 -0.0051919091375506633 0 -0.0020086176466168693 -0.0051854749428466244 0 -0.0020756796918148242 -0.0052889196902783722 0 -0.0020756796918148242 -0.0052889196902783722 0 -0.0021754654826261276 -0.0052586349481058472 0 -0.0021881422091374826 -0.0051833966044796094 0 -0.0015493486039611086 -0.0050727799306596729 0 -0.0015228005472923015 -0.005079693027574288 0 -0.0015477229882176809 -0.0050502077404835513 0 -0.0018044953825396921 -0.0051957820174062756 0 -0.0019551425195353297 -0.0051983935292025524 0 -0.0020970720045316764 -0.0051919091375506633 0 -0.0020756796918148242 -0.0052889196902783722 0 -0.0021881422091374826 -0.0051833966044796094 0 -0.0015477229882176809 -0.0050502077404835513 0 -0.0016158130101207942 -0.0050201665018790005 0 -0.0016017549714053983 -0.0050313013861855186 0 -0.0015477229882176809 -0.0050502077404835513 0 -0.0016463502303047416 -0.0049781126464863972 0 -0.0016158130101207942 -0.0050201665018790005 0 -0.0021569564354107958 -0.0052742850722410466 0 -0.0023558993013161095 -0.0052033368475991361 0 -0.0024137486722582038 -0.0052764416887714676 0 -0.0019551425195353297 -0.0051983935292025524 0 -0.0020225943801379024 -0.0051266045836632678 0 -0.0019551425195353297 -0.0051983935292025524 0 -0.0023986132662794589 -0.0051933248344678629 0 -0.0021881422091374826 -0.0051833966044796094 0 -0.0022722929542198672 -0.0051146052398332274 0 -0.0023558993013161095 -0.0052033368475991361 0 -0.0021754654826261276 -0.0052586349481058472 0 -0.0021881422091374826 -0.0051833966044796094 0 -0.0023558993013161095 -0.0052033368475991361 0 -0.0021140489356269287 -0.0051132469074149037 0 -0.0021881422091374826 -0.0051833966044796094 0 -0.0022722929542198672 -0.0051146052398332274 0 -0.0021140489356269287 -0.0051132469074149037 0 -0.0022722929542198672 -0.0051146052398332274 0 -0.0022551140405594693 -0.0050000036654970752 0 -0.0022722929542198672 -0.0051146052398332274 0 -0.0022551140405594693 -0.0050000036654970752 0 -0.0023985512345438883 -0.005109706407701183 0 -0.0025299980532373259 -0.0051669178141352549 0 -0.0025363538275366862 -0.0049999940053064556 0 -0.0023985512345438883 -0.005109706407701183 0 -0.0025363538275366862 -0.0049999940053064556 0 -0.0022551140405594693 -0.0050000036654970752 0 -0.0023985512345438883 -0.005109706407701183 0 -0.0022722929542198672 -0.0051146052398332274 0 -0.0023985512345438883 -0.005109706407701183 0 -0.0023558993013161095 -0.0052033368475991361 0 -0.0025299980532373259 -0.0051669178141352549 0 -0.0024407579001481596 -0.005184469518007319 0 -0.0024137486722582038 -0.0052764416887714676 0 -0.0025299980532373259 -0.0051669178141352549 0 -0.0023985512345438883 -0.005109706407701183 0 -0.0024407579001481596 -0.005184469518007319 0 -0.0025689903924079856 -0.0049584490498012831 0 -0.0016463502303047416 -0.0049781126464863972 0 -0.0017096443112214301 -0.0050078449155233793 0 -0.0023985512345438883 -0.005109706407701183 0 -0.0024407579001481596 -0.005184469518007319 0 -0.0023558993013161095 -0.0052033368475991361 0 -0.0024407579001481596 -0.005184469518007319 0 -0.0023558993013161095 -0.0052033368475991361 0 -0.0024137486722582038 -0.0052764416887714676 0 -0.0016463502303047416 -0.0049781126464863972 0 -0.0016571329608173117 -0.0050329413734235707 0 -0.0016158130101207942 -0.0050201665018790005 0 -0.0016463502303047416 -0.0049781126464863972 0 -0.0017096443112214301 -0.0050078449155233793 0 -0.0016571329608173117 -0.0050329413734235707 0 -0.0017096443112214301 -0.0050078449155233793 0 -0.0016925224062077683 -0.0050821069578654097 0 -0.0016571329608173117 -0.0050329413734235707 0 -0.0022058068538693969 -0.005015557354874382 0 -0.002548451526463658 -0.0047692601953194325 0 -0.002548451526463658 -0.0047692601953194325 0 -0.002941038390127789 -0.004626232467373979 0 -0.0036405271021311427 -0.0043804437075426464 0 -0.0036489017355431533 -0.0043950100340651704 0 -0.0036416286246313198 -0.004410580716035682 0 -0.0037195371561187227 -0.0044487186768648861 0 -0.0036489017355431533 -0.0043950100340651704 0 -0.0036446322847072431 -0.0044088243455220324 0 -0.003011228299115929 -0.0045436668527035467 0 -0.002941038390127789 -0.004626232467373979 0 -0.002941038390127789 -0.004626232467373979 0 -0.0026390013609938405 -0.0049162590919988713 0 -0.0016314645436970702 -0.0051054080779198594 0 -0.0015840323497450307 -0.0050800642555453379 0 -0.0016153476528201567 -0.0050443772266145779 0 -0.0026390013609938405 -0.0049162590919988713 0 -0.0020276452737702151 -0.0048174627217770312 0 -0.0024923559152268859 -0.0048097762519496556 0 -0.0024865737949027258 -0.0048251005805170083 0 -0.0024757021760189414 -0.0047977009281602642 0 -0.0016314645436970702 -0.0051054080779198594 0 -0.0015840323497450307 -0.0050800642555453379 0 -0.0015266468472743279 -0.0051314749103513477 0 -0.0015840323497450307 -0.0050800642555453379 0 -0.0016064239434537316 -0.0050463832917490882 0 -0.0016153476528201567 -0.0050443772266145779 0 -0.0019757280144676631 -0.0048269910299796794 0 -0.0020276452737702151 -0.0048174627217770312 0 -0.002548451526463658 -0.0047692601953194325 0 -0.0020276452737702151 -0.0048174627217770312 0 -0.0024913297467710309 -0.0047967759036455677 0 -0.0024923559152268859 -0.0048097762519496556 0 -0.0024757021760189414 -0.0047977009281602642 0 -0.0016925224062077683 -0.0050821069578654097 0 -0.0016349990929000074 -0.0050822533373235017 0 -0.0016571329608173117 -0.0050329413734235707 0 -0.0016349990929000074 -0.0050822533373235017 0 -0.0016571329608173117 -0.0050329413734235707 0 -0.0016158130101207942 -0.0050201665018790005 0 -0.0020276452737702151 -0.0048174627217770312 0 -0.0019387626894017786 -0.0048954562714111647 0 -0.0016064239434537316 -0.0050463832917490882 0 -0.0016164480415281597 -0.0050457274549488467 0 -0.0016158130101207942 -0.0050201665018790005 0 -0.0016064239434537316 -0.0050463832917490882 0 -0.0016158130101207942 -0.0050201665018790005 0 -0.0016017549714053983 -0.0050313013861855186 0 -0.0015258295723796112 -0.0051277554832547126 0 -0.0015493486039611086 -0.0050727799306596729 0 -0.0016017549714053983 -0.0050313013861855186 0 -0.0013741625660220909 -0.0050650043144599595 0 -0.0014786400838052432 -0.0050955435125617761 0 -0.0015378077407054189 -0.0050749587752427555 0 -0.0015493486039611086 -0.0050727799306596729 0 -0.0015477229882176809 -0.0050502077404835513 0 -0.0016017549714053983 -0.0050313013861855186 0 -0.0013741625660220909 -0.0050650043144599595 0 -0.0016017549714053983 -0.0050313013861855186 0 -0.0015378077407054189 -0.0050749587752427555 0 -0.0016064239434537316 -0.0050463832917490882 0 -0.0016017549714053983 -0.0050313013861855186 0 -0.0015378077407054189 -0.0050749587752427555 0 -0.0014507613587596173 -0.005098891394993049 0 -0.0015870901756375965 -0.0050384510025845465 0 -0.0014786400838052432 -0.0050955435125617761 0 -0.0015378077407054189 -0.0050749587752427555 0 -0.0015266468472743279 -0.0051314749103513477 0 -0.0015840323497450307 -0.0050800642555453379 0 -0.0016064239434537316 -0.0050463832917490882 0 -0.0015378077407054189 -0.0050749587752427555 0 -0.0015840323497450307 -0.0050800642555453379 0 -0.0015378077407054189 -0.0050749587752427555 0 -0.0015266468472743279 -0.0051314749103513477 0 -0.0015455713584522583 -0.0052701742667653961 0 -0.0013835961308137879 -0.0051973445949349889 0 -0.0015266468472743279 -0.0051314749103513477 0 -0.0015455713584522583 -0.0052701742667653961 0 -0.0016314645436970702 -0.0051054080779198594 0 -0.0015266468472743279 -0.0051314749103513477 0 -0.0014099825271252496 -0.0051271232105839061 0 -0.0014786400838052432 -0.0050955435125617761 0 -0.0015266468472743279 -0.0051314749103513477 0 -0.0031026627202668622 -0.0048033610056021853 0 -0.0030700323258791322 -0.0048778567447120245 0 -0.0030631672982392071 -0.0048521592380726779 0 -0.0022541095993714195 -0.0050628664027115517 0 -0.0026390013609938405 -0.0049162590919988713 0 -0.0037195371561187227 -0.0044487186768648861 0 -0.0036446322847072431 -0.0044088243455220324 0 -0.0036563152078909482 -0.0044874469621403804 0 -0.002941038390127789 -0.004626232467373979 0 -0.0033028879354821722 -0.0047557354219919237 0 -0.0030465744433571351 -0.004728903435361081 0 -0.0030346765059744204 -0.0047603046210089959 0 -0.0030524168974674559 -0.0048078658535640161 0 -0.0026390013609938405 -0.0049162590919988713 0 -0.0033028879354821722 -0.0047557354219919237 0 -0.00037277629795970342 -0.0052762587227977147 0 -0.00049890789132536913 -0.0052331781838152467 0 -0.00046464976238366632 -0.0053484926971958703 0 -0.00037277629795970342 -0.0052762587227977147 0 -0.00049890789132536913 -0.0052331781838152467 0 -0.00041054687010979316 -0.0051936067321779206 0 -0.00049890789132536913 -0.0052331781838152467 0 -0.00041054687010979316 -0.0051936067321779206 0 -0.00052530400101879083 -0.0051729919790783696 0 -0.00041054687010979316 -0.0051936067321779206 0 -0.00028454672359183982 -0.0052329472413156098 0 -0.00028985692409293814 -0.0051812089366725673 0 -0.00037277629795970342 -0.0052762587227977147 0 -0.00041054687010979316 -0.0051936067321779206 0 -0.00028454672359183982 -0.0052329472413156098 0 -0.00028454672359183982 -0.0052329472413156098 0 -0.00019917307290318574 -0.0052923685673000346 0 -0.00017826396645493996 -0.0052045147832913488 0 -0.00019917307290318574 -0.0052923685673000346 0 -0.00017826396645493996 -0.0052045147832913488 0 -4.54157692039716e-05 -0.005248785549247975 0 -0.00037277629795970342 -0.0052762587227977147 0 -0.00028454672359183982 -0.0052329472413156098 0 -0.00019917307290318574 -0.0052923685673000346 0 -0.00037277629795970342 -0.0052762587227977147 0 -0.00019917307290318574 -0.0052923685673000346 0 -0.00034610750450643924 -0.0053575901639299362 0 -0.00019917307290318574 -0.0052923685673000346 0 -0.00034610750450643924 -0.0053575901639299362 0 -0.00023540223593617249 -0.0054118323739798541 0 -0.00019917307290318574 -0.0052923685673000346 0 -0.00023540223593617249 -0.0054118323739798541 0 -8.129729441594909e-05 -0.0053295552087216144 0 -0.00024233849611336646 -0.0054417712956989148 0 -0.00023366366426768846 -0.0054275811898278166 0 -0.00013848283476116462 -0.0055317046400126238 0 -0.00023540223593617249 -0.0054118323739798541 0 -9.6058881612689489e-05 -0.0054705971650386934 0 -0.00040829085228476404 -0.0054403680137099968 0 -0.00034610750450643924 -0.0053575901639299362 0 -0.00023540223593617249 -0.0054118323739798541 0 -0.00056659871531813293 -0.0054378080063792267 0 -0.00040829085228476404 -0.0054403680137099968 0 -0.00046464976238366632 -0.0053484926971958703 0 -0.00040829085228476404 -0.0054403680137099968 0 -0.00034610750450643924 -0.0053575901639299362 0 -0.00046464976238366632 -0.0053484926971958703 0 -0.00037277629795970342 -0.0052762587227977147 0 -0.00034610750450643924 -0.0053575901639299362 0 -0.00046464976238366632 -0.0053484926971958703 0 -0.00049890789132536913 -0.0052331781838152467 0 -0.00046464976238366632 -0.0053484926971958703 0 -0.00060818624121295817 -0.0053327673414544814 0 -0.00056659871531813293 -0.0054378080063792267 0 -0.00046464976238366632 -0.0053484926971958703 0 -0.00060818624121295817 -0.0053327673414544814 0 -0.00069902896649312357 -0.0054003891112336779 0 -0.00056659871531813293 -0.0054378080063792267 0 -0.00060818624121295817 -0.0053327673414544814 0 -0.00069902896649312357 -0.0054003891112336779 0 -0.00080137452872831134 -0.005297198261883759 0 -0.00060818624121295817 -0.0053327673414544814 0 -0.00085146187081850322 -0.0053696071176137332 0 -0.00069902896649312357 -0.0054003891112336779 0 -0.00080137452872831134 -0.005297198261883759 0 -0.00080137452872831134 -0.005297198261883759 0 -0.00066060991931096843 -0.0052374382769291173 0 -0.00083223700806038785 -0.0051671718587041875 0 -0.00049890789132536913 -0.0052331781838152467 0 -0.00060818624121295817 -0.0053327673414544814 0 -0.00066060991931096843 -0.0052374382769291173 0 -0.00080137452872831134 -0.005297198261883759 0 -0.00060818624121295817 -0.0053327673414544814 0 -0.00066060991931096843 -0.0052374382769291173 0 -0.0010377805236994541 -0.0053367363885311065 0 -0.0011689748838767413 -0.0052753446716397954 0 -0.00099401024350715024 -0.0052920307484523232 0 -0.00085146187081850322 -0.0053696071176137332 0 -0.00080137452872831134 -0.005297198261883759 0 -0.00099401024350715024 -0.0052920307484523232 0 -0.00085146187081850322 -0.0053696071176137332 0 -0.0010377805236994541 -0.0053367363885311065 0 -0.00099401024350715024 -0.0052920307484523232 0 -0.00080137452872831134 -0.005297198261883759 0 -0.0010240362617920378 -0.0052229210872989026 0 -0.00083223700806038785 -0.0051671718587041875 0 -0.00080137452872831134 -0.005297198261883759 0 -0.00099401024350715024 -0.0052920307484523232 0 -0.0010240362617920378 -0.0052229210872989026 0 -0.00099401024350715024 -0.0052920307484523232 0 -0.0011070207688057324 -0.0052463604620695834 0 -0.0010240362617920378 -0.0052229210872989026 0 -0.0011689748838767413 -0.0052753446716397954 0 -0.00099401024350715024 -0.0052920307484523232 0 -0.0011070207688057324 -0.0052463604620695834 0 -0.0011219519295318429 -0.0052351961042490999 0 -0.0011070207688057324 -0.0052463604620695834 0 -0.0010240362617920378 -0.0052229210872989026 0 -0.0011219519295318429 -0.0052351961042490999 0 -0.0010240362617920378 -0.0052229210872989026 0 -0.0010821780390179582 -0.0052487507686894653 0 -0.0010240362617920378 -0.0052229210872989026 0 -0.00088721190548033562 -0.0050794282826935383 0 -0.00083223700806038785 -0.0051671718587041875 0 -0.0010208001858620301 -0.0052282162094894171 0 -0.00098492886709473058 -0.0051696779783287992 0 -0.0011219519295318429 -0.0052351961042490999 0 -0.0010821780390179582 -0.0052487507686894653 0 -0.0011371042869475203 -0.0052497379130145789 0 -0.00049890789132536913 -0.0052331781838152467 0 -0.00066060991931096843 -0.0052374382769291173 0 -0.00052530400101879083 -0.0051729919790783696 0 -0.00066060991931096843 -0.0052374382769291173 0 -0.00083223700806038785 -0.0051671718587041875 0 -0.00074615841226810314 -0.0050499679116589235 0 -0.00088721190548033562 -0.0050794282826935383 0 -0.00083223700806038785 -0.0051671718587041875 0 -0.00074615841226810314 -0.0050499679116589235 0 -0.00065718697356519226 -0.0052413808056519092 0 -0.00063806848161725486 -0.0051218720290716821 0 -0.00063806848161725486 -0.0051218720290716821 0 -0.00063303410278536018 -0.0050582349812212917 0 -0.00088721190548033562 -0.0050794282826935383 0 -0.00074615841226810314 -0.0050499679116589235 0 -0.00082429482425018139 -0.0050262266582739414 0 -0.00074615841226810314 -0.0050499679116589235 0 -0.00080010565804400217 -0.0050297878130733864 0 -0.00082429482425018139 -0.0050262266582739414 0 -0.00080010565804400217 -0.0050297878130733864 0 -0.00082429482425018139 -0.0050262266582739414 0 -0.00079681120472402053 -0.0050422712860555639 0 -0.00080010565804400217 -0.0050297878130733864 0 -0.00078770017745387485 -0.0050329661219143925 0 -0.00079547183582884154 -0.0050364840257971595 0 -0.00052530400101879083 -0.0051729919790783696 0 -0.00047914078947314747 -0.0050875480154668465 0 -0.00043366241217553732 -0.0051220813374763426 0 -0.00074615841226810314 -0.0050499679116589235 0 -0.00080010565804400217 -0.0050297878130733864 0 -0.00078770017745387485 -0.0050329661219143925 0 -0.00047914078947314747 -0.0050875480154668465 0 -0.00044413373341771728 -0.0050757825133848789 0 -0.00043366241217553732 -0.0051220813374763426 0 -0.0010821780390179582 -0.0052487507686894653 0 -0.0011371042869475203 -0.0052497379130145789 0 -0.0011152280073124688 -0.0052234214619063368 0 -0.001194960843013129 -0.0052388470202374762 0 -0.0011371042869475203 -0.0052497379130145789 0 -0.0011152280073124688 -0.0052234214619063368 0 -0.00098492886709473058 -0.0051696779783287992 0 -0.00093233509590858311 -0.0051243569390718316 0 -0.0010821780390179582 -0.0052487507686894653 0 -0.0010420788419486854 -0.0052219427566451721 0 -0.0011152280073124688 -0.0052234214619063368 0 -0.00093233509590858311 -0.0051243569390718316 0 -0.00087973893370128548 -0.0050822692489568954 0 -0.0010420788419486854 -0.0052219427566451721 0 -0.0010801675298975845 -0.0051607520258912997 0 -0.0010252726090040024 -0.005144514757373638 0 -0.0010420788419486854 -0.0052219427566451721 0 -0.0011152280073124688 -0.0052234214619063368 0 -0.0010801675298975845 -0.0051607520258912997 0 -0.0010420788419486854 -0.0052219427566451721 0 -0.0010252726090040024 -0.005144514757373638 0 -0.00095807306324602098 -0.0051387364296267436 0 -0.0011789619600647131 -0.0051905813801774257 0 -0.0011152280073124688 -0.0052234214619063368 0 -0.001146908008440166 -0.0051483468085153205 0 -0.0011152280073124688 -0.0052234214619063368 0 -0.001146908008440166 -0.0051483468085153205 0 -0.0010801675298975845 -0.0051607520258912997 0 -0.001184400273747066 -0.0050747728653316058 0 -0.0011234551952227594 -0.0051050127366879883 0 -0.001146908008440166 -0.0051483468085153205 0 -0.001184400273747066 -0.0050747728653316058 0 -0.0011234551952227594 -0.0051050127366879883 0 -0.0011488534008256951 -0.0050593520336390087 0 -0.0011234551952227594 -0.0051050127366879883 0 -0.0010780305212517226 -0.0050943861829896011 0 -0.0011488534008256951 -0.0050593520336390087 0 -0.0011234551952227594 -0.0051050127366879883 0 -0.001146908008440166 -0.0051483468085153205 0 -0.0010801675298975845 -0.0051607520258912997 0 -0.0011234551952227594 -0.0051050127366879883 0 -0.0010801675298975845 -0.0051607520258912997 0 -0.0010780305212517226 -0.0050943861829896011 0 -0.0010780305212517226 -0.0050943861829896011 0 -0.001015071710058891 -0.0050913271179427117 0 -0.0010252726090040024 -0.005144514757373638 0 -0.0010801675298975845 -0.0051607520258912997 0 -0.0010780305212517226 -0.0050943861829896011 0 -0.0010252726090040024 -0.005144514757373638 0 -0.001015071710058891 -0.0050913271179427117 0 -0.00095807306324602098 -0.0051387364296267436 0 -0.00091574482783553766 -0.0050685852167981875 0 -0.001015071710058891 -0.0050913271179427117 0 -0.0010252726090040024 -0.005144514757373638 0 -0.00095807306324602098 -0.0051387364296267436 0 -0.0011301017081404596 -0.0049999944071201542 0 -0.001145968744924393 -0.0050792451221251481 0 -0.00091574482783553766 -0.0050685852167981875 0 -0.0011301017081404596 -0.0049999944071201542 0 -0.00091574482783553766 -0.0050685852167981875 0 -0.0008490161426717136 -0.004999965911935223 0 -0.0011226654023161421 -0.0050523806273028429 0 -0.00093194770778079158 -0.005068291927378182 0 -0.001015071710058891 -0.0050913271179427117 0 -0.0011017131742669906 -0.005028162831435568 0 -0.00091574482783553766 -0.0050685852167981875 0 -0.0010780305212517226 -0.0050943861829896011 0 -0.001015071710058891 -0.0050913271179427117 0 -0.0011017131742669906 -0.005028162831435568 0 -0.0013945898402896826 -0.0050615927537132907 0 -0.0011301017081404596 -0.0049999944071201542 0 -0.001145968744924393 -0.0050792451221251481 0 -0.0010780305212517226 -0.0050943861829896011 0 -0.0011017131742669906 -0.005028162831435568 0 -0.0011488534008256951 -0.0050593520336390087 0 -0.00047974146616436037 -0.0050305453080929157 0 -0.00044413373341771728 -0.0050757825133848789 0 -0.0003933784170360931 -0.0050686100102893799 0 -0.00078770017745387485 -0.0050329661219143925 0 -0.00078006276871972577 -0.0050410942990027352 0 -0.00079403719888055529 -0.005042336096416019 0 -0.00047914078947314747 -0.0050875480154668465 0 -0.00047974146616436037 -0.0050305453080929157 0 -0.00044413373341771728 -0.0050757825133848789 0 -0.00078770017745387485 -0.0050329661219143925 0 -0.00079547183582884154 -0.0050364840257971595 0 -0.00079403719888055529 -0.005042336096416019 0 -0.00063303410278536018 -0.0050582349812212917 0 -0.00063714926184278036 -0.0050580405897370931 0 -0.00080010565804400217 -0.0050297878130733864 0 -0.00079547183582884154 -0.0050364840257971595 0 -0.00079681120472402053 -0.0050422712860555639 0 -0.00079681120472402053 -0.0050422712860555639 0 -0.00079403719888055529 -0.005042336096416019 0 -0.00080293309236613008 -0.0050305626534639363 0 -0.00079547183582884154 -0.0050364840257971595 0 -0.00079681120472402053 -0.0050422712860555639 0 -0.00079403719888055529 -0.005042336096416019 0 -0.00095807306324602098 -0.0051387364296267436 0 -0.00091574482783553766 -0.0050685852167981875 0 -0.0008490161426717136 -0.004999965911935223 0 -0.00087973893370128548 -0.0050822692489568954 0 -0.00084889544396643556 -0.0049999972830774069 0 -0.00079681120472402053 -0.0050422712860555639 0 -0.00080293309236613008 -0.0050305626534639363 0 -0.00084877452880984514 -0.0049999780606081344 0 -0.00080293309236613008 -0.0050305626534639363 0 -0.00084877452880984514 -0.0049999780606081344 0 -0.00072304382606202839 -0.0050188727169310212 0 -0.00078006276871972577 -0.0050410942990027352 0 -0.00079403719888055529 -0.005042336096416019 0 -0.00072304382606202839 -0.0050188727169310212 0 -0.00084877452880984514 -0.0049999780606081344 0 -0.00072304382606202839 -0.0050188727169310212 0 -0.00063360054241874838 -0.0049999867193408444 0 -0.00079403719888055529 -0.005042336096416019 0 -0.00080293309236613008 -0.0050305626534639363 0 -0.00072304382606202839 -0.0050188727169310212 0 -0.00072359973033929036 -0.0051884969460247619 0 -0.00072304382606202839 -0.0050188727169310212 0 -0.00064016175826373575 -0.0050965304121805043 0 -0.00063714926184278036 -0.0050580405897370931 0 -0.00072838592650493073 -0.0050435259517673707 0 -0.00072304382606202839 -0.0050188727169310212 0 -0.00064016175826373575 -0.0050965304121805043 0 -0.00063360054241874838 -0.0049999867193408444 0 -0.00072359973033929036 -0.0051884969460247619 0 -0.00064016175826373575 -0.0050965304121805043 0 -0.00045751210424444791 -0.0050932145394725556 0 -0.00064016175826373575 -0.0050965304121805043 0 -0.00063360054241874838 -0.0049999867193408444 0 -0.00054589620392974487 -0.0050548542152805539 0 -0.00063360054241874838 -0.0049999867193408444 0 -0.00054589620392974487 -0.0050548542152805539 0 -0.00041812992881900673 -0.0050000027571825813 0 -0.00063714926184278036 -0.0050580405897370931 0 -0.00039572883195830236 -0.0050539128288901456 0 -0.00064016175826373575 -0.0050965304121805043 0 -0.00054589620392974487 -0.0050548542152805539 0 -0.00045751210424444791 -0.0050932145394725556 0 -0.00054589620392974487 -0.0050548542152805539 0 -0.00041812992881900673 -0.0050000027571825813 0 -0.00045751210424444791 -0.0050932145394725556 0 -0.00041812992881900673 -0.0050000027571825813 0 -0.00045751210424444791 -0.0050932145394725556 0 -0.00020279323144355754 -0.0049999982896491071 0 -0.0003424172775624198 -0.0049981229471694347 0 -0.00026934824698616046 -0.0050324458272182999 0 -0.0002026627687663926 -0.0049998581537106374 0 -0.00039572883195830236 -0.0050539128288901456 0 -0.00020283392590337047 -0.0050000041357710252 0 -0.0003424172775624198 -0.0049981229471694347 0 -0.00026934824698616046 -0.0050324458272182999 0 -0.00031797334947275606 -0.0050601885791468878 0 -0.0003424172775624198 -0.0049981229471694347 0 -0.00031797334947275606 -0.0050601885791468878 0 -0.0003933784170360931 -0.0050686100102893799 0 -0.00026934824698616046 -0.0050324458272182999 0 -0.00031797334947275606 -0.0050601885791468878 0 -0.00021762835090979564 -0.0050776064965839087 0 -0.00031797334947275606 -0.0050601885791468878 0 -0.0003933784170360931 -0.0050686100102893799 0 -0.00033249307645368741 -0.0051213495548056449 0 -0.00031797334947275606 -0.0050601885791468878 0 -0.00033249307645368741 -0.0051213495548056449 0 -0.00021762835090979564 -0.0050776064965839087 0 -0.00047974146616436037 -0.0050305453080929157 0 -0.0003424172775624198 -0.0049981229471694347 0 -0.0003933784170360931 -0.0050686100102893799 0 -0.0003933784170360931 -0.0050686100102893799 0 -0.00043366241217553732 -0.0051220813374763426 0 -0.00033249307645368741 -0.0051213495548056449 0 -0.00044413373341771728 -0.0050757825133848789 0 -0.0003933784170360931 -0.0050686100102893799 0 -0.00043366241217553732 -0.0051220813374763426 0 -0.00041054687010979316 -0.0051936067321779206 0 -0.00033249307645368741 -0.0051213495548056449 0 -0.00028985692409293814 -0.0051812089366725673 0 -0.00041054687010979316 -0.0051936067321779206 0 -0.00043366241217553732 -0.0051220813374763426 0 -0.00033249307645368741 -0.0051213495548056449 0 -0.00041054687010979316 -0.0051936067321779206 0 -0.00052530400101879083 -0.0051729919790783696 0 -0.00043366241217553732 -0.0051220813374763426 0 -6.9297419607221213e-05 -0.0051890495879700349 0 -0.00017826396645493996 -0.0052045147832913488 0 -0.00019493292912861035 -0.0051527733836371874 0 -6.9297419607221213e-05 -0.0051890495879700349 0 -0.00017826396645493996 -0.0052045147832913488 0 -4.54157692039716e-05 -0.005248785549247975 0 -0.00028454672359183982 -0.0052329472413156098 0 -0.00017826396645493996 -0.0052045147832913488 0 -0.00028985692409293814 -0.0051812089366725673 0 -0.00017826396645493996 -0.0052045147832913488 0 -0.00028985692409293814 -0.0051812089366725673 0 -0.00019493292912861035 -0.0051527733836371874 0 -0.00033249307645368741 -0.0051213495548056449 0 -0.00028985692409293814 -0.0051812089366725673 0 -0.00019493292912861035 -0.0051527733836371874 0 -0.00033249307645368741 -0.0051213495548056449 0 -0.00019493292912861035 -0.0051527733836371874 0 -0.00021762835090979564 -0.0050776064965839087 0 -6.9297419607221213e-05 -0.0051890495879700349 0 -0.00019493292912861035 -0.0051527733836371874 0 -6.0609555448673732e-05 -0.0051357777275218442 0 -0.00019493292912861035 -0.0051527733836371874 0 -6.0609555448673732e-05 -0.0051357777275218442 0 -0.00021762835090979564 -0.0050776064965839087 0 -6.0609555448673732e-05 -0.0051357777275218442 0 -5.6399920017875549e-05 -0.0050729709779644165 0 -0.00021762835090979564 -0.0050776064965839087 0 -0.00026934824698616046 -0.0050324458272182999 0 -0.00021762835090979564 -0.0050776064965839087 0 -0.0002026627687663926 -0.0049998581537106374 0 -5.6399920017875549e-05 -0.0050729709779644165 0 -0.00021762835090979564 -0.0050776064965839087 0 -0.0002026627687663926 -0.0049998581537106374 0 -5.6399920017875549e-05 -0.0050729709779644165 0 -0.0002026627687663926 -0.0049998581537106374 0 7.9520729033805097e-05 -0.0049999448275446874 0 -5.6399920017875549e-05 -0.0050729709779644165 0 7.9520729033805097e-05 -0.0049999448275446874 0 0.00013231821682793031 -0.0051258217391770729 0 7.9520729033805097e-05 -0.0049999448275446874 0 0.00013231821682793031 -0.0051258217391770729 0 0.00036187018044851022 -0.004999955376792143 0 -6.0609555448673732e-05 -0.0051357777275218442 0 -5.6399920017875549e-05 -0.0050729709779644165 0 0.00013231821682793031 -0.0051258217391770729 0 0.00036187018044851022 -0.004999955376792143 0 0.00038049433993478572 -0.0051540651591001248 0 0.00064433253133013978 -0.0049999163933957431 0 0.00038049433993478572 -0.0051540651591001248 0 0.00068544947490631997 -0.0051395677354131091 0 0.00064433253133013978 -0.0049999163933957431 0 0.00013231821682793031 -0.0051258217391770729 0 0.00036187018044851022 -0.004999955376792143 0 0.00038049433993478572 -0.0051540651591001248 0 0.00037404605980027075 -0.0051560205566040778 0 0.00041007478712057468 -0.0052819484440563844 0 0.00038049433993478572 -0.0051540651591001248 0 0.00056945662152454969 -0.0053840894673320818 0 0.00068544947490631997 -0.0051395677354131091 0 0.00038049433993478572 -0.0051540651591001248 0 0.00019862385724951059 -0.0052166687529516852 0 0.00025618499768906218 -0.0052087357384615722 0 0.00013231821682793031 -0.0051258217391770729 0 0.00038049433993478572 -0.0051540651591001248 0 0.00019862385724951059 -0.0052166687529516852 0 0.00019862385724951059 -0.0052166687529516852 0 0.00025618499768906218 -0.0052087357384615722 0 0.00016939463462410458 -0.0052664554899473307 0 0.00019862385724951059 -0.0052166687529516852 0 8.8866130625464654e-05 -0.0052481852414064268 0 0.00016939463462410458 -0.0052664554899473307 0 -6.0609555448673732e-05 -0.0051357777275218442 0 0.00013231821682793031 -0.0051258217391770729 0 5.9030140855136063e-05 -0.0051964385285969061 0 -6.9297419607221213e-05 -0.0051890495879700349 0 -6.0609555448673732e-05 -0.0051357777275218442 0 5.9030140855136063e-05 -0.0051964385285969061 0 0.00013231821682793031 -0.0051258217391770729 0 0.00019862385724951059 -0.0052166687529516852 0 5.9030140855136063e-05 -0.0051964385285969061 0 5.9030140855136063e-05 -0.0051964385285969061 0 -4.54157692039716e-05 -0.005248785549247975 0 8.8866130625464654e-05 -0.0052481852414064268 0 0.00019862385724951059 -0.0052166687529516852 0 5.9030140855136063e-05 -0.0051964385285969061 0 8.8866130625464654e-05 -0.0052481852414064268 0 -6.9297419607221213e-05 -0.0051890495879700349 0 5.9030140855136063e-05 -0.0051964385285969061 0 -4.54157692039716e-05 -0.005248785549247975 0 -4.54157692039716e-05 -0.005248785549247975 0 -8.129729441594909e-05 -0.0053295552087216144 0 3.5591417513607412e-05 -0.0053016433290885377 0 -0.00019917307290318574 -0.0052923685673000346 0 -4.54157692039716e-05 -0.005248785549247975 0 -8.129729441594909e-05 -0.0053295552087216144 0 -8.129729441594909e-05 -0.0053295552087216144 0 3.5591417513607412e-05 -0.0053016433290885377 0 2.1023143962597511e-05 -0.0053705042346508178 0 3.5591417513607412e-05 -0.0053016433290885377 0 0.00012329183028948689 -0.0053386749145678683 0 2.1023143962597511e-05 -0.0053705042346508178 0 -4.54157692039716e-05 -0.005248785549247975 0 3.5591417513607412e-05 -0.0053016433290885377 0 8.8866130625464654e-05 -0.0052481852414064268 0 3.5591417513607412e-05 -0.0053016433290885377 0 8.8866130625464654e-05 -0.0052481852414064268 0 0.00016939463462410458 -0.0052664554899473307 0 0.00025618499768906218 -0.0052087357384615722 0 0.00016939463462410458 -0.0052664554899473307 0 0.00024240484262303742 -0.0052605037005406452 0 0.00016939463462410458 -0.0052664554899473307 0 0.00021605904205916607 -0.0053108250651998064 0 0.00024240484262303742 -0.0052605037005406452 0 0.00016939463462410458 -0.0052664554899473307 0 0.00021605904205916607 -0.0053108250651998064 0 0.00012329183028948689 -0.0053386749145678683 0 3.5591417513607412e-05 -0.0053016433290885377 0 0.00016939463462410458 -0.0052664554899473307 0 0.00012329183028948689 -0.0053386749145678683 0 0.00012329183028948689 -0.0053386749145678683 0 7.1008234644663747e-05 -0.0054239945479174463 0 2.1023143962597511e-05 -0.0053705042346508178 0 0.00012329183028948689 -0.0053386749145678683 0 0.00016200691229149944 -0.005388725118469633 0 7.1008234644663747e-05 -0.0054239945479174463 0 0.00021605904205916607 -0.0053108250651998064 0 0.00012329183028948689 -0.0053386749145678683 0 0.00016200691229149944 -0.005388725118469633 0 0.00021605904205916607 -0.0053108250651998064 0 0.00016200691229149944 -0.005388725118469633 0 0.00026006850768583973 -0.0053443967924003428 0 0.00016200691229149944 -0.005388725118469633 0 0.00021775752412797801 -0.0054346281323513811 0 0.00026006850768583973 -0.0053443967924003428 0 0.00016200691229149944 -0.005388725118469633 0 0.00013381663941562893 -0.0054769620574168119 0 7.1008234644663747e-05 -0.0054239945479174463 0 0.00016200691229149944 -0.005388725118469633 0 0.00013381663941562893 -0.0054769620574168119 0 0.00021775752412797801 -0.0054346281323513811 0 0.00013381663941562893 -0.0054769620574168119 0 0.00023241701458088046 -0.0055122223664563633 0 0.00021775752412797801 -0.0054346281323513811 0 0.00013381663941562893 -0.0054769620574168119 0 7.1008234644663747e-05 -0.0054239945479174463 0 4.9316970432724027e-05 -0.0055021639580623794 0 7.1008234644663747e-05 -0.0054239945479174463 0 -5.456218013029904e-06 -0.0054519704312531274 0 4.9316970432724027e-05 -0.0055021639580623794 0 -5.456218013029904e-06 -0.0054519704312531274 0 -9.6058881612689489e-05 -0.0054705971650386934 0 -2.5606131053929344e-05 -0.0055135575361961366 0 -0.00023540223593617249 -0.0054118323739798541 0 -9.6058881612689489e-05 -0.0054705971650386934 0 -6.868099646866885e-05 -0.00540427706517919 0 -5.456218013029904e-06 -0.0054519704312531274 0 -9.6058881612689489e-05 -0.0054705971650386934 0 -6.868099646866885e-05 -0.00540427706517919 0 -8.129729441594909e-05 -0.0053295552087216144 0 -6.868099646866885e-05 -0.00540427706517919 0 2.1023143962597511e-05 -0.0053705042346508178 0 -0.00023540223593617249 -0.0054118323739798541 0 -8.129729441594909e-05 -0.0053295552087216144 0 -6.868099646866885e-05 -0.00540427706517919 0 7.1008234644663747e-05 -0.0054239945479174463 0 -5.456218013029904e-06 -0.0054519704312531274 0 2.1023143962597511e-05 -0.0053705042346508178 0 -5.456218013029904e-06 -0.0054519704312531274 0 -6.868099646866885e-05 -0.00540427706517919 0 2.1023143962597511e-05 -0.0053705042346508178 0 0.00059436200141494355 -0.0052263219692900396 0 0.00076188467366125829 -0.005354937908791939 0 0.00065654617873638858 -0.00549198796777111 0 0.00059436200141494355 -0.0052263219692900396 0 0.00065654617873638858 -0.00549198796777111 0 0.00048812466101511595 -0.0053776494881802609 0 0.00059436200141494355 -0.0052263219692900396 0 0.00076188467366125829 -0.005354937908791939 0 0.00091490995602188155 -0.0052248106466683177 0 0.00080458474228429252 -0.0054989619319839528 0 0.0010100571499961268 -0.0054969110828738676 0 0.00076188467366125829 -0.005354937908791939 0 0.00091490995602188155 -0.0052248106466683177 0 0.0008986090988561047 -0.0054816475384437229 0 0.0008986090988561047 -0.0054816475384437229 0 0.00065654617873638858 -0.00549198796777111 0 0.00083503091123755206 -0.0057197551745822887 0 0.00076188467366125829 -0.005354937908791939 0 0.0008986090988561047 -0.0054816475384437229 0 0.00065654617873638858 -0.00549198796777111 0 0.00065654617873638858 -0.00549198796777111 0 0.00051743604101604952 -0.0055166038285964407 0 0.00053188727675111214 -0.0056960136192822954 0 0.00065654617873638858 -0.00549198796777111 0 0.00051743604101604952 -0.0055166038285964407 0 0.00048812466101511595 -0.0053776494881802609 0 0.00051743604101604952 -0.0055166038285964407 0 0.00039538074553560566 -0.0055062306815527448 0 0.00053188727675111214 -0.0056960136192822954 0 0.00039538074553560566 -0.0055062306815527448 0 0.00031518648188922721 -0.0054108152759298617 0 0.00038802404657250355 -0.0053983136738376724 0 0.00039538074553560566 -0.0055062306815527448 0 0.00048812466101511595 -0.0053776494881802609 0 0.00038802404657250355 -0.0053983136738376724 0 0.00051743604101604952 -0.0055166038285964407 0 0.00039538074553560566 -0.0055062306815527448 0 0.00048812466101511595 -0.0053776494881802609 0 0.00039538074553560566 -0.0055062306815527448 0 0.00023241701458088046 -0.0055122223664563633 0 0.00031518648188922721 -0.0054108152759298617 0 0.00023241701458088046 -0.0055122223664563633 0 0.00031518648188922721 -0.0054108152759298617 0 0.00021775752412797801 -0.0054346281323513811 0 0.00021605904205916607 -0.0053108250651998064 0 0.00026006850768583973 -0.0053443967924003428 0 0.00033003985913655158 -0.0052780351587547293 0 0.00031518648188922721 -0.0054108152759298617 0 0.00021775752412797801 -0.0054346281323513811 0 0.00026006850768583973 -0.0053443967924003428 0 0.00031518648188922721 -0.0054108152759298617 0 0.00026006850768583973 -0.0053443967924003428 0 0.00035486918414123249 -0.005301986405294376 0 0.00026006850768583973 -0.0053443967924003428 0 0.00035486918414123249 -0.005301986405294376 0 0.00033003985913655158 -0.0052780351587547293 0 0.00059436200141494355 -0.0052263219692900396 0 0.00035486918414123249 -0.005301986405294376 0 0.00032425797933356221 -0.0052378454405582718 0 0.00059436200141494355 -0.0052263219692900396 0 0.00048812466101511595 -0.0053776494881802609 0 0.00035486918414123249 -0.005301986405294376 0 0.00031518648188922721 -0.0054108152759298617 0 0.00038802404657250355 -0.0053983136738376724 0 0.00035486918414123249 -0.005301986405294376 0 0.00048812466101511595 -0.0053776494881802609 0 0.00038802404657250355 -0.0053983136738376724 0 0.00035486918414123249 -0.005301986405294376 0 0.00040680508200137877 -0.0053169180077678839 0 0.00048467127211428206 -0.005442304606092547 0 0.00080458474228429252 -0.0054989619319839528 0 0.00048467127211428206 -0.005442304606092547 0 0.00097118501066268466 -0.0057598529061549438 0 0.00088476510670648287 -0.0056927205356826363 0 0.00078958255348059061 -0.0057454856581432949 0 0.00088476510670648287 -0.0056927205356826363 0 0.00078958255348059061 -0.0057454856581432949 0 0.00081802650074434791 -0.0056432438516797051 0 0.00088476510670648287 -0.0056927205356826363 0 0.00081802650074434791 -0.0056432438516797051 0 0.00089064982062370558 -0.0056350001016482187 0 0.00088476510670648287 -0.0056927205356826363 0 0.00089064982062370558 -0.0056350001016482187 0 0.00096311793022986535 -0.0056661510797732162 0 0.00021605904205916607 -0.0053108250651998064 0 0.00026402868150287039 -0.0053182556811123801 0 0.00024240484262303742 -0.0052605037005406452 0 0.00048467127211428206 -0.005442304606092547 0 0.00047574374621460767 -0.0054336318496472392 0 0.00078958255348059061 -0.0057454856581432949 0 0.00081802650074434791 -0.0056432438516797051 0 0.00069149102903171542 -0.0055701382480526918 0 0.00016650584514082267 -0.0053009551562341979 0 0.00048467127211428206 -0.005442304606092547 0 0.00069149102903171542 -0.0055701382480526918 0 0.00082726493135770187 -0.0055697174661219675 0 0.00084036314262671253 -0.0054790989625240908 0 0.00081802650074434791 -0.0056432438516797051 0 0.00069149102903171542 -0.0055701382480526918 0 0.00082726493135770187 -0.0055697174661219675 0 0.00089064982062370558 -0.0056350001016482187 0 0.00082726493135770187 -0.0055697174661219675 0 0.00093769114727606064 -0.0055724599202744574 0 0.00081802650074434791 -0.0056432438516797051 0 0.00089064982062370558 -0.0056350001016482187 0 0.00082726493135770187 -0.0055697174661219675 0 0.00082726493135770187 -0.0055697174661219675 0 0.00093769114727606064 -0.0055724599202744574 0 0.00084036314262671253 -0.0054790989625240908 0 0.00093769114727606064 -0.0055724599202744574 0 0.00099580200193055625 -0.0054833640470873593 0 0.00084036314262671253 -0.0054790989625240908 0 0.0010299696248750397 -0.0056137933846078115 0 0.00093769114727606064 -0.0055724599202744574 0 0.00099580200193055625 -0.0054833640470873593 0 0.0010299696248750397 -0.0056137933846078115 0 0.00093769114727606064 -0.0055724599202744574 0 0.00096311793022986535 -0.0056661510797732162 0 0.00089064982062370558 -0.0056350001016482187 0 0.00093769114727606064 -0.0055724599202744574 0 0.00096311793022986535 -0.0056661510797732162 0 0.0010299696248750397 -0.0056137933846078115 0 0.00096311793022986535 -0.0056661510797732162 0 0.0010638625085328604 -0.0057015599673668751 0 0.00097118501066268466 -0.0057598529061549438 0 0.00096311793022986535 -0.0056661510797732162 0 0.0010638625085328604 -0.0057015599673668751 0 0.00097118501066268466 -0.0057598529061549438 0 0.00088476510670648287 -0.0056927205356826363 0 0.00096311793022986535 -0.0056661510797732162 0 0.00097118501066268466 -0.0057598529061549438 0 0.0011421474954278329 -0.0057718057559813119 0 0.0010638625085328604 -0.0057015599673668751 0 0.0010299696248750397 -0.0056137933846078115 0 0.0010638625085328604 -0.0057015599673668751 0 0.0011504202395547748 -0.0056431709884031643 0 0.0011421474954278329 -0.0057718057559813119 0 0.0010638625085328604 -0.0057015599673668751 0 0.0011504202395547748 -0.0056431709884031643 0 0.0010299696248750397 -0.0056137933846078115 0 0.0011504202395547748 -0.0056431709884031643 0 0.00099580200193055625 -0.0054833640470873593 0 0.0013322402738766106 -0.005366836742009282 0 0.0013101398647899143 -0.0052702689298837375 0 0.0010773398707036035 -0.0052778321129417632 0 0.0012546199228204917 -0.0055264453656184197 0 0.0010239628337357922 -0.0053713008772691816 0 0.0011943960427393198 -0.0052085190915902241 0 0.0011745448226123222 -0.0052019591758339818 0 0.0012219386520144983 -0.0052144442453627739 0 0.0013101398647899143 -0.0052702689298837375 0 0.0011943960427393198 -0.0052085190915902241 0 0.0010773398707036035 -0.0052778321129417632 0 0.0011943960427393198 -0.0052085190915902241 0 0.0010773398707036035 -0.0052778321129417632 0 0.0010651661843381862 -0.0052176253912560241 0 0.0010773398707036035 -0.0052778321129417632 0 0.0010651661843381862 -0.0052176253912560241 0 0.00083495649076752892 -0.0052842852169363895 0 0.0011943960427393198 -0.0052085190915902241 0 0.0010651661843381862 -0.0052176253912560241 0 0.0011745448226123222 -0.0052019591758339818 0 0.0010651661843381862 -0.0052176253912560241 0 0.0011745448226123222 -0.0052019591758339818 0 0.0011350168224392345 -0.005131975079708178 0 0.0011745448226123222 -0.0052019591758339818 0 0.0011350168224392345 -0.005131975079708178 0 0.001226445211318211 -0.0051661955161811258 0 0.00056945662152454969 -0.0053840894673320818 0 0.00084036314262671253 -0.0054790989625240908 0 0.00083495649076752892 -0.0052842852169363895 0 0.00041007478712057468 -0.0052819484440563844 0 0.00047574374621460767 -0.0054336318496472392 0 0.00056945662152454969 -0.0053840894673320818 0 0.00069149102903171542 -0.0055701382480526918 0 0.00084036314262671253 -0.0054790989625240908 0 0.00099580200193055625 -0.0054833640470873593 0 0.00084036314262671253 -0.0054790989625240908 0 0.00083495649076752892 -0.0052842852169363895 0 0.0010239628337357922 -0.0053713008772691816 0 0.00084472229688017713 -0.0052785605578483247 0 0.0010651661843381862 -0.0052176253912560241 0 0.00083495649076752892 -0.0052842852169363895 0 0.00093985579564193099 -0.0051544322001183841 0 0.00056945662152454969 -0.0053840894673320818 0 0.00083495649076752892 -0.0052842852169363895 0 0.00068544947490631997 -0.0051395677354131091 0 0.00083495649076752892 -0.0052842852169363895 0 0.00068544947490631997 -0.0051395677354131091 0 0.00093985579564193099 -0.0051544322001183841 0 0.00068544947490631997 -0.0051395677354131091 0 0.00093985579564193099 -0.0051544322001183841 0 0.00092683008265720911 -0.0049999503581201615 0 0.00068544947490631997 -0.0051395677354131091 0 0.00092683008265720911 -0.0049999503581201615 0 0.00064433253133013978 -0.0049999163933957431 0 0.0010651661843381862 -0.0052176253912560241 0 0.00093985579564193099 -0.0051544322001183841 0 0.0011350168224392345 -0.005131975079708178 0 0.00093985579564193099 -0.0051544322001183841 0 0.00092683008265720911 -0.0049999503581201615 0 0.0011350168224392345 -0.005131975079708178 0 0.0011350168224392345 -0.005131975079708178 0 0.0012089452693044526 -0.0049999769271951303 0 0.0012498662544509543 -0.005099334055068531 0 0.00092683008265720911 -0.0049999503581201615 0 0.0011350168224392345 -0.005131975079708178 0 0.0012089452693044526 -0.0049999769271951303 0 0.0012091446040843107 -0.0050000126080034426 0 0.0012975391688104976 -0.0051518160781396805 0 0.0012091368943016206 -0.0049999998314541189 0 0.0013640115494558641 -0.0051671125225888712 0 0.0014361921118163517 -0.0049999979810013192 0 0.0011350168224392345 -0.005131975079708178 0 0.0012498662544509543 -0.005099334055068531 0 0.001226445211318211 -0.0051661955161811258 0 0.0012498662544509543 -0.005099334055068531 0 0.001226445211318211 -0.0051661955161811258 0 0.0013057992871609804 -0.0051751130317825196 0 0.0013640115494558641 -0.0051671125225888712 0 0.0015091630801048806 -0.0052148886497743628 0 0.0015457264418752589 -0.0050928254084828175 0 0.0013640115494558641 -0.0051671125225888712 0 0.0015091630801048806 -0.0052148886497743628 0 0.0015174446458148419 -0.0053324069646306779 0 0.0012975391688104976 -0.0051518160781396805 0 0.0015663070430169104 -0.0050489606069154796 0 0.0015457264418752589 -0.0050928254084828175 0 0.0014361921118163517 -0.0049999979810013192 0 0.0016632476915938148 -0.0049999982618907698 0 0.0013640115494558641 -0.0051671125225888712 0 0.0015457264418752589 -0.0050928254084828175 0 0.0014361921118163517 -0.0049999979810013192 0 0.0015457264418752589 -0.0050928254084828175 0 0.0016632476915938148 -0.0049999982618907698 0 0.0016967083228438022 -0.0052234849277944398 0 0.0017875842098992907 -0.0050651939386945318 0 0.0019796760854951211 -0.0050364559440575322 0 0.0016967083228438022 -0.0052234849277944398 0 0.0018903005338559294 -0.0049999988221366186 0 0.0019512822672171396 -0.0050662228773110263 0 0.0016632476915938148 -0.0049999982618907698 0 0.0016967083228438022 -0.0052234849277944398 0 0.0018903005338559294 -0.0049999988221366186 0 0.0018862138566076811 -0.0047422916153890861 0 0.0019585188403061743 -0.0048819997796430712 0 0.0021037995748255079 -0.0047648131015603527 0 0.0017875842098992907 -0.0050651939386945318 0 0.002062173903500848 -0.0048952163989575874 0 0.0018362992157551889 -0.0050416910172774929 0 0.0020370983739712418 -0.0049167724742456053 0 0.0020002794579951732 -0.0050478440492610155 0 0.0015091630801048806 -0.0052148886497743628 0 0.0015457264418752589 -0.0050928254084828175 0 0.0016967083228438022 -0.0052234849277944398 0 0.0014970125861069993 -0.0052230101218585052 0 0.0017875842098992907 -0.0050651939386945318 0 0.0015091630801048806 -0.0052148886497743628 0 0.0016974146654892275 -0.0052196380001014895 0 0.0015174446458148419 -0.0053324069646306779 0 0.0017875842098992907 -0.0050651939386945318 0 0.0015663070430169104 -0.0050489606069154796 0 0.0018862138566076811 -0.0047422916153890861 0 0.0017890571119398319 -0.0049477102906810254 0 0.0019585188403061743 -0.0048819997796430712 0 0.0018862138566076811 -0.0047422916153890861 0 0.0017890571119398319 -0.0049477102906810254 0 0.0017008641833986232 -0.0048505380024302276 0 0.0017890571119398319 -0.0049477102906810254 0 0.0019585188403061743 -0.0048819997796430712 0 0.0019060221654980381 -0.0050062954610647888 0 0.0019585188403061743 -0.0048819997796430712 0 0.0021037995748255079 -0.0047648131015603527 0 0.0020939809768853682 -0.004910566714056242 0 0.0019585188403061743 -0.0048819997796430712 0 0.0020303631192400179 -0.0049837734905129024 0 0.0019060221654980381 -0.0050062954610647888 0 0.0019585188403061743 -0.0048819997796430712 0 0.0020303631192400179 -0.0049837734905129024 0 0.0020939809768853682 -0.004910566714056242 0 0.0020303631192400179 -0.0049837734905129024 0 0.001997215603198431 -0.0050797915625080247 0 0.0020780516963372054 -0.0050375453528098127 0 0.0020303631192400179 -0.0049837734905129024 0 0.001997215603198431 -0.0050797915625080247 0 0.0019060221654980381 -0.0050062954610647888 0 0.001997215603198431 -0.0050797915625080247 0 0.0018638811990105508 -0.0051077733857611846 0 0.0019302322726674332 -0.0051598269569206158 0 0.001997215603198431 -0.0050797915625080247 0 0.0019060221654980381 -0.0050062954610647888 0 0.0018638811990105508 -0.0051077733857611846 0 0.0017890571119398319 -0.0049477102906810254 0 0.0017882246348657892 -0.0050490901308265007 0 0.0016526649699536878 -0.0049893643816674195 0 0.0017890571119398319 -0.0049477102906810254 0 0.0017882246348657892 -0.0050490901308265007 0 0.0019060221654980381 -0.0050062954610647888 0 0.0017882246348657892 -0.0050490901308265007 0 0.0019060221654980381 -0.0050062954610647888 0 0.0018638811990105508 -0.0051077733857611846 0 0.0017882246348657892 -0.0050490901308265007 0 0.001680380586064404 -0.0050927779332111556 0 0.0017643473096475245 -0.0051578356593279676 0 0.0017882246348657892 -0.0050490901308265007 0 0.0018638811990105508 -0.0051077733857611846 0 0.0017643473096475245 -0.0051578356593279676 0 0.0016526649699536878 -0.0049893643816674195 0 0.0015680355677463868 -0.0050866856811388307 0 0.0014465111490275617 -0.0049657447369064484 0 0.001680380586064404 -0.0050927779332111556 0 0.0016256412574664036 -0.0051763466618949625 0 0.0017643473096475245 -0.0051578356593279676 0 0.001680380586064404 -0.0050927779332111556 0 0.0016526649699536878 -0.0049893643816674195 0 0.0015680355677463868 -0.0050866856811388307 0 0.0017882246348657892 -0.0050490901308265007 0 0.001680380586064404 -0.0050927779332111556 0 0.0016526649699536878 -0.0049893643816674195 0 0.001680380586064404 -0.0050927779332111556 0 0.0015680355677463868 -0.0050866856811388307 0 0.0016256412574664036 -0.0051763466618949625 0 0.0015680355677463868 -0.0050866856811388307 0 0.0014532794483237928 -0.0051951423024271881 0 0.0016256412574664036 -0.0051763466618949625 0 0.0012122813650730009 -0.0051891931015961984 0 0.0013278475674778781 -0.0050937903695837212 0 0.0011943960427393198 -0.0052085190915902241 0 0.0014532794483237928 -0.0051951423024271881 0 0.0014465111490275617 -0.0049657447369064484 0 0.0015680355677463868 -0.0050866856811388307 0 0.0014532794483237928 -0.0051951423024271881 0 0.0014465111490275617 -0.0049657447369064484 0 0.0013101398647899143 -0.0052702689298837375 0 0.0011943960427393198 -0.0052085190915902241 0 0.0014532794483237928 -0.0051951423024271881 0 0.0012219386520144983 -0.0052144442453627739 0 0.001226445211318211 -0.0051661955161811258 0 0.0013057992871609804 -0.0051751130317825196 0 0.0011745448226123222 -0.0052019591758339818 0 0.0012219386520144983 -0.0052144442453627739 0 0.001226445211318211 -0.0051661955161811258 0 0.0013278475674778781 -0.0050937903695837212 0 0.0015663070430169104 -0.0050489606069154796 0 0.0016526649699536878 -0.0049893643816674195 0 0.0014465111490275617 -0.0049657447369064484 0 0.0016721452601903123 -0.0048181006885519287 0 0.001729781604286023 -0.0049403707956181177 0 0.0015663070430169104 -0.0050489606069154796 0 0.0017890571119398319 -0.0049477102906810254 0 0.0016526649699536878 -0.0049893643816674195 0 0.0016721452601903123 -0.0048181006885519287 0 0.0024279525617153428 -0.0050378108699615041 0 0.0024777242968678252 -0.0050294337196205904 0 0.0025243235676648858 -0.0050238011003223325 0 0.0024777242968678252 -0.0050294337196205904 0 0.0023235074408257824 -0.0049999390575435473 0 0.002587581342792774 -0.0049999121309505764 0 0.0024279525617153428 -0.0050378108699615041 0 0.0024777242968678252 -0.0050294337196205904 0 0.0023235074408257824 -0.0049999390575435473 0 0.0024279525617153428 -0.0050378108699615041 0 0.0022488651507765259 -0.0050496007927911448 0 0.0023235074408257824 -0.0049999390575435473 0 0.0022488651507765259 -0.0050496007927911448 0 0.0023235074408257824 -0.0049999390575435473 0 0.0020590705547591519 -0.0049999015093771049 0 0.0024279525617153428 -0.0050378108699615041 0 0.0023875559618366797 -0.0049139348553587326 0 0.0023940067667351096 -0.0049322241969868563 0 0.0024279525617153428 -0.0050378108699615041 0 0.0022488651507765259 -0.0050496007927911448 0 0.0021523516049226921 -0.0051508745976627957 0 0.0024146174111956712 -0.0050468881468396266 0 0.0022410338834121103 -0.0049879013027306924 0 0.0022410338834121103 -0.0049879013027306924 0 0.0023420499826276369 -0.0049476179628019992 0 0.0022488651507765259 -0.0050496007927911448 0 0.0021523516049226921 -0.0051508745976627957 0 0.0020590705547591519 -0.0049999015093771049 0 0.0022410338834121103 -0.0049879013027306924 0 0.0019796760854951211 -0.0050364559440575322 0 0.0021523516049226921 -0.0051508745976627957 0 0.0020590705547591519 -0.0049999015093771049 0 0.0019967153817486778 -0.0050427316096726777 0 0.002058927378000642 -0.0049999998214296489 0 0.0018903038058648753 -0.0049999997238654535 0 0.0019517563214321914 -0.0050668873756659861 0 0.002058887575923454 -0.0050000210562037746 0 0.0019796760854951211 -0.0050364559440575322 0 0.0018903611365900493 -0.0050000145350905731 0 0.0019796760854951211 -0.0050364559440575322 0 0.0021642551806750039 -0.0050538492111844285 0 0.0020370983739712418 -0.0049167724742456053 0 0.0020002794579951732 -0.0050478440492610155 0 0.0023150498141386636 -0.0048128058191254678 0 0.0021037995748255079 -0.0047648131015603527 0 0.0022316298109703314 -0.004920848946114712 0 0.0022410338834121103 -0.0049879013027306924 0 0.002062173903500848 -0.0048952163989575874 0 0.0021037995748255079 -0.0047648131015603527 0 0.0020939809768853682 -0.004910566714056242 0 0.0022316298109703314 -0.004920848946114712 0 0.0020939809768853682 -0.004910566714056242 0 0.0022316298109703314 -0.004920848946114712 0 0.002152193137700265 -0.0049989782135461914 0 0.0022316298109703314 -0.004920848946114712 0 0.002152193137700265 -0.0049989782135461914 0 0.0022775051318519981 -0.0049916468004196704 0 0.0020303631192400179 -0.0049837734905129024 0 0.0020939809768853682 -0.004910566714056242 0 0.002152193137700265 -0.0049989782135461914 0 0.0020303631192400179 -0.0049837734905129024 0 0.0020780516963372054 -0.0050375453528098127 0 0.002152193137700265 -0.0049989782135461914 0 0.0020780516963372054 -0.0050375453528098127 0 0.0021283317699326144 -0.0050857219584592127 0 0.002152193137700265 -0.0049989782135461914 0 0.001997215603198431 -0.0050797915625080247 0 0.0020780516963372054 -0.0050375453528098127 0 0.0021283317699326144 -0.0050857219584592127 0 0.0021283317699326144 -0.0050857219584592127 0 0.0022292815874449352 -0.0050388709834921245 0 0.0022320314494925914 -0.0050948228470521859 0 0.0021283317699326144 -0.0050857219584592127 0 0.002152193137700265 -0.0049989782135461914 0 0.0022292815874449352 -0.0050388709834921245 0 0.002152193137700265 -0.0049989782135461914 0 0.0022775051318519981 -0.0049916468004196704 0 0.0022292815874449352 -0.0050388709834921245 0 0.0022775051318519981 -0.0049916468004196704 0 0.0022292815874449352 -0.0050388709834921245 0 0.0023102788832113914 -0.0050372227815177438 0 0.0023102788832113914 -0.0050372227815177438 0 0.002319634499037188 -0.0050786587318106162 0 0.0022320314494925914 -0.0050948228470521859 0 0.0022292815874449352 -0.0050388709834921245 0 0.0023102788832113914 -0.0050372227815177438 0 0.0022320314494925914 -0.0050948228470521859 0 0.0023102788832113914 -0.0050372227815177438 0 0.002381796940245181 -0.0050467646683104647 0 0.002319634499037188 -0.0050786587318106162 0 0.0023102788832113914 -0.0050372227815177438 0 0.0023798789054855977 -0.0049919991344767149 0 0.002381796940245181 -0.0050467646683104647 0 0.0022775051318519981 -0.0049916468004196704 0 0.0023102788832113914 -0.0050372227815177438 0 0.0023798789054855977 -0.0049919991344767149 0 0.0023316558142474951 -0.0049526552964830528 0 0.0023940067667351096 -0.0049322241969868563 0 0.0023798789054855977 -0.0049919991344767149 0 0.0022775051318519981 -0.0049916468004196704 0 0.0023316558142474951 -0.0049526552964830528 0 0.0023798789054855977 -0.0049919991344767149 0 0.0022316298109703314 -0.004920848946114712 0 0.0022775051318519981 -0.0049916468004196704 0 0.0023316558142474951 -0.0049526552964830528 0 0.0023150498141386636 -0.0048128058191254678 0 0.0022316298109703314 -0.004920848946114712 0 0.0023316558142474951 -0.0049526552964830528 0 0.0023150498141386636 -0.0048128058191254678 0 0.0023316558142474951 -0.0049526552964830528 0 0.0023940067667351096 -0.0049322241969868563 0 0.0024279525617153428 -0.0050378108699615041 0 0.0023940067667351096 -0.0049322241969868563 0 0.0024437391266270312 -0.0049867480527055197 0 0.0023940067667351096 -0.0049322241969868563 0 0.0024437391266270312 -0.0049867480527055197 0 0.0023798789054855977 -0.0049919991344767149 0 0.0023798789054855977 -0.0049919991344767149 0 0.002381796940245181 -0.0050467646683104647 0 0.0024508374779758208 -0.0050130339427093239 0 0.0024508374779758208 -0.0050130339427093239 0 0.0025148837043074859 -0.0050204863924040374 0 0.0024405978159223259 -0.0050616085077852405 0 0.002381796940245181 -0.0050467646683104647 0 0.0024508374779758208 -0.0050130339427093239 0 0.0024405978159223259 -0.0050616085077852405 0 0.0024437391266270312 -0.0049867480527055197 0 0.0023798789054855977 -0.0049919991344767149 0 0.0024508374779758208 -0.0050130339427093239 0 0.0024437391266270312 -0.0049867480527055197 0 0.0024508374779758208 -0.0050130339427093239 0 0.0025191801625323806 -0.0049966826210230244 0 0.0024508374779758208 -0.0050130339427093239 0 0.0025148837043074859 -0.0050204863924040374 0 0.0025191801625323806 -0.0049966826210230244 0 0.0025148837043074859 -0.0050204863924040374 0 0.0025191801625323806 -0.0049966826210230244 0 0.0025987060214049764 -0.0050046612177634597 0 0.0024279525617153428 -0.0050378108699615041 0 0.0025191801625323806 -0.0049966826210230244 0 0.0025243235676648858 -0.0050238011003223325 0 0.0024279525617153428 -0.0050378108699615041 0 0.0024437391266270312 -0.0049867480527055197 0 0.0025191801625323806 -0.0049966826210230244 0 0.0025910589657374187 -0.0051075200294266165 0 0.0025364305100228778 -0.0050643175721314703 0 0.0026902919908617018 -0.0050126203898713763 0 0.0024972342705827984 -0.0051529829961289081 0 0.0025910589657374187 -0.0051075200294266165 0 0.0025600925445965661 -0.0051920870635544947 0 0.0025910589657374187 -0.0051075200294266165 0 0.0025600925445965661 -0.0051920870635544947 0 0.0026789017331892923 -0.0051305495642885385 0 0.0024972342705827984 -0.0051529829961289081 0 0.0024736720622048295 -0.0052455702920554004 0 0.0025600925445965661 -0.0051920870635544947 0 0.0024972342705827984 -0.0051529829961289081 0 0.0025364305100228778 -0.0050643175721314703 0 0.0024202825553116965 -0.0051314438479508088 0 0.0024972342705827984 -0.0051529829961289081 0 0.0025910589657374187 -0.0051075200294266165 0 0.0025364305100228778 -0.0050643175721314703 0 0.0025148837043074859 -0.0050204863924040374 0 0.0025364305100228778 -0.0050643175721314703 0 0.0025987060214049764 -0.0050046612177634597 0 0.0025148837043074859 -0.0050204863924040374 0 0.0025364305100228778 -0.0050643175721314703 0 0.0024405978159223259 -0.0050616085077852405 0 0.0025364305100228778 -0.0050643175721314703 0 0.0024405978159223259 -0.0050616085077852405 0 0.0024202825553116965 -0.0051314438479508088 0 0.002381796940245181 -0.0050467646683104647 0 0.0024405978159223259 -0.0050616085077852405 0 0.0023656559788517075 -0.0050996067328972425 0 0.002381796940245181 -0.0050467646683104647 0 0.0023656559788517075 -0.0050996067328972425 0 0.002319634499037188 -0.0050786587318106162 0 0.0023656559788517075 -0.0050996067328972425 0 0.0024202825553116965 -0.0051314438479508088 0 0.0023333714027325776 -0.0051559287630923781 0 0.0024405978159223259 -0.0050616085077852405 0 0.0023656559788517075 -0.0050996067328972425 0 0.0024202825553116965 -0.0051314438479508088 0 0.002354938675670781 -0.0051962419415442886 0 0.0024202825553116965 -0.0051314438479508088 0 0.0023333714027325776 -0.0051559287630923781 0 0.002354938675670781 -0.0051962419415442886 0 0.0024202825553116965 -0.0051314438479508088 0 0.0024132011077442552 -0.0052099299219780393 0 0.0024972342705827984 -0.0051529829961289081 0 0.0024202825553116965 -0.0051314438479508088 0 0.0024132011077442552 -0.0052099299219780393 0 0.0024972342705827984 -0.0051529829961289081 0 0.0024132011077442552 -0.0052099299219780393 0 0.0024736720622048295 -0.0052455702920554004 0 0.002354938675670781 -0.0051962419415442886 0 0.0024132011077442552 -0.0052099299219780393 0 0.0023359597758213484 -0.0052601942338729533 0 0.002354938675670781 -0.0051962419415442886 0 0.0022754476127256986 -0.0052448914543707448 0 0.0023359597758213484 -0.0052601942338729533 0 0.0022754476127256986 -0.0052448914543707448 0 0.0023359597758213484 -0.0052601942338729533 0 0.0022861499404101147 -0.0052953430381961087 0 0.0022754476127256986 -0.0052448914543707448 0 0.002230128128329859 -0.005318127084348835 0 0.0022861499404101147 -0.0052953430381961087 0 0.0022754476127256986 -0.0052448914543707448 0 0.0022021294005102701 -0.0052560133909604076 0 0.002230128128329859 -0.005318127084348835 0 0.0022021294005102701 -0.0052560133909604076 0 0.0022580474420584532 -0.0051879868239111098 0 0.0021806997605078788 -0.0052090685985048193 0 0.0022754476127256986 -0.0052448914543707448 0 0.0022021294005102701 -0.0052560133909604076 0 0.0022580474420584532 -0.0051879868239111098 0 0.0022754476127256986 -0.0052448914543707448 0 0.0022580474420584532 -0.0051879868239111098 0 0.0023050146047209077 -0.0051972190188527721 0 0.0022580474420584532 -0.0051879868239111098 0 0.0023050146047209077 -0.0051972190188527721 0 0.0023333714027325776 -0.0051559287630923781 0 0.002354938675670781 -0.0051962419415442886 0 0.0022754476127256986 -0.0052448914543707448 0 0.0023050146047209077 -0.0051972190188527721 0 0.002354938675670781 -0.0051962419415442886 0 0.0023050146047209077 -0.0051972190188527721 0 0.0023333714027325776 -0.0051559287630923781 0 0.0023656559788517075 -0.0050996067328972425 0 0.0023333714027325776 -0.0051559287630923781 0 0.0022907226706900545 -0.0051312557676844849 0 0.0022580474420584532 -0.0051879868239111098 0 0.0023333714027325776 -0.0051559287630923781 0 0.0022907226706900545 -0.0051312557676844849 0 0.0023656559788517075 -0.0050996067328972425 0 0.0022907226706900545 -0.0051312557676844849 0 0.002319634499037188 -0.0050786587318106162 0 0.0022907226706900545 -0.0051312557676844849 0 0.002319634499037188 -0.0050786587318106162 0 0.0022320314494925914 -0.0050948228470521859 0 0.0022907226706900545 -0.0051312557676844849 0 0.0022320314494925914 -0.0050948228470521859 0 0.0022021552408838436 -0.0051511556883158376 0 0.0022580474420584532 -0.0051879868239111098 0 0.0022907226706900545 -0.0051312557676844849 0 0.0022021552408838436 -0.0051511556883158376 0 0.0022580474420584532 -0.0051879868239111098 0 0.0022021552408838436 -0.0051511556883158376 0 0.0021806997605078788 -0.0052090685985048193 0 0.0022021552408838436 -0.0051511556883158376 0 0.0021146571999560936 -0.0052013410973952507 0 0.0021806997605078788 -0.0052090685985048193 0 0.0022021552408838436 -0.0051511556883158376 0 0.0021260701587339412 -0.0051448851638259685 0 0.0021146571999560936 -0.0052013410973952507 0 0.0022320314494925914 -0.0050948228470521859 0 0.0022021552408838436 -0.0051511556883158376 0 0.0021260701587339412 -0.0051448851638259685 0 0.0021283317699326144 -0.0050857219584592127 0 0.0022320314494925914 -0.0050948228470521859 0 0.0021260701587339412 -0.0051448851638259685 0 0.0021283317699326144 -0.0050857219584592127 0 0.0021260701587339412 -0.0051448851638259685 0 0.0020370754519136833 -0.0051686705194246693 0 0.0021146571999560936 -0.0052013410973952507 0 0.0020370754519136833 -0.0051686705194246693 0 0.0020140812445380613 -0.0052678718384374284 0 0.0021260701587339412 -0.0051448851638259685 0 0.0021146571999560936 -0.0052013410973952507 0 0.0020370754519136833 -0.0051686705194246693 0 0.0021146571999560936 -0.0052013410973952507 0 0.0021226182563751118 -0.0052647463367381572 0 0.0020140812445380613 -0.0052678718384374284 0 0.0021146571999560936 -0.0052013410973952507 0 0.0021806997605078788 -0.0052090685985048193 0 0.0021226182563751118 -0.0052647463367381572 0 0.0022021294005102701 -0.0052560133909604076 0 0.0021806997605078788 -0.0052090685985048193 0 0.0021226182563751118 -0.0052647463367381572 0 0.0022021294005102701 -0.0052560133909604076 0 0.0021226182563751118 -0.0052647463367381572 0 0.0021433869010206979 -0.0053227838750603785 0 0.0022021294005102701 -0.0052560133909604076 0 0.0021433869010206979 -0.0053227838750603785 0 0.002230128128329859 -0.005318127084348835 0 0.0021226182563751118 -0.0052647463367381572 0 0.0020415465844570188 -0.0053380090666606487 0 0.0021433869010206979 -0.0053227838750603785 0 0.0021226182563751118 -0.0052647463367381572 0 0.0020415465844570188 -0.0053380090666606487 0 0.0020140812445380613 -0.0052678718384374284 0 0.0020415465844570188 -0.0053380090666606487 0 0.0021433869010206979 -0.0053227838750603785 0 0.0020737949373880005 -0.0054046091798726449 0 0.0021433869010206979 -0.0053227838750603785 0 0.0021668108401382753 -0.0053808905052326588 0 0.002230128128329859 -0.005318127084348835 0 0.0021433869010206979 -0.0053227838750603785 0 0.0021668108401382753 -0.0053808905052326588 0 0.0020737949373880005 -0.0054046091798726449 0 0.0021668108401382753 -0.0053808905052326588 0 0.0020737949373880005 -0.0054046091798726449 0 0.0021780927393041222 -0.005441464148974195 0 0.0020737949373880005 -0.0054046091798726449 0 0.0020701491188522061 -0.0054786327866357867 0 0.0019897279542711922 -0.0054619903857481443 0 0.0020737949373880005 -0.0054046091798726449 0 0.0020701491188522061 -0.0054786327866357867 0 0.0021780927393041222 -0.005441464148974195 0 0.0021831876737137446 -0.0056654068026578824 0 0.0022500717934395989 -0.0055885891620873658 0 0.0018248181793619012 -0.0055572294443263625 0 0.0020701491188522061 -0.0054786327866357867 0 0.0021660352658074708 -0.0055307122124017873 0 0.0021780927393041222 -0.005441464148974195 0 0.0021660352658074708 -0.0055307122124017873 0 0.0021780927393041222 -0.005441464148974195 0 0.0022231463188935748 -0.0054660431786669773 0 0.0022112642968244349 -0.005575158756860865 0 0.002397629893058059 -0.0052697236062331397 0 0.0021780927393041222 -0.005441464148974195 0 0.0022477578940388499 -0.0054348843595144877 0 0.0022231463188935748 -0.0054660431786669773 0 0.0021660352658074708 -0.0055307122124017873 0 0.0022231463188935748 -0.0054660431786669773 0 0.0022982613321030111 -0.0054550651160252565 0 0.0020753999897858747 -0.0051431083643028747 0 0.002397629893058059 -0.0052697236062331397 0 0.0019613753484446989 -0.0046598956238113297 0 0.0022837027080770769 -0.0046354818515307239 0 0.0021015038994139606 -0.0047057779144455527 0 0.0022477578940388499 -0.0054348843595144877 0 0.0022231463188935748 -0.0054660431786669773 0 0.0022982613321030111 -0.0054550651160252565 0 0.0021831876737137446 -0.0056654068026578824 0 0.0022500717934395989 -0.0055885891620873658 0 0.0025445234174094923 -0.0056005409903600598 0 0.0021660352658074708 -0.0055307122124017873 0 0.0022982613321030111 -0.0054550651160252565 0 0.0023490989861495453 -0.0054886827278441781 0 0.0022477578940388499 -0.0054348843595144877 0 0.0022982613321030111 -0.0054550651160252565 0 0.0023044937135359217 -0.0053931611746622869 0 0.0022982613321030111 -0.0054550651160252565 0 0.0023044937135359217 -0.0053931611746622869 0 0.0023543449235226134 -0.0054103753914148157 0 0.0023044937135359217 -0.0053931611746622869 0 0.0022481577140368511 -0.0053700900189638228 0 0.0023194689104451697 -0.0053285918036374367 0 0.0023044937135359217 -0.0053931611746622869 0 0.0023194689104451697 -0.0053285918036374367 0 0.0023557046881922841 -0.005354150189183845 0 0.0022477578940388499 -0.0054348843595144877 0 0.0023044937135359217 -0.0053931611746622869 0 0.0022481577140368511 -0.0053700900189638228 0 0.0021668108401382753 -0.0053808905052326588 0 0.0021780927393041222 -0.005441464148974195 0 0.0022481577140368511 -0.0053700900189638228 0 0.0021780927393041222 -0.005441464148974195 0 0.0022477578940388499 -0.0054348843595144877 0 0.0022481577140368511 -0.0053700900189638228 0 0.0021668108401382753 -0.0053808905052326588 0 0.0022481577140368511 -0.0053700900189638228 0 0.002230128128329859 -0.005318127084348835 0 0.0022481577140368511 -0.0053700900189638228 0 0.002230128128329859 -0.005318127084348835 0 0.0022861499404101147 -0.0052953430381961087 0 0.0023359597758213484 -0.0052601942338729533 0 0.0022861499404101147 -0.0052953430381961087 0 0.0023194689104451697 -0.0053285918036374367 0 0.0022481577140368511 -0.0053700900189638228 0 0.0022861499404101147 -0.0052953430381961087 0 0.0023194689104451697 -0.0053285918036374367 0 0.0023359597758213484 -0.0052601942338729533 0 0.0023194689104451697 -0.0053285918036374367 0 0.0023894070469271632 -0.0053000693051277036 0 0.0024132011077442552 -0.0052099299219780393 0 0.0023359597758213484 -0.0052601942338729533 0 0.0023894070469271632 -0.0053000693051277036 0 0.0023894070469271632 -0.0053000693051277036 0 0.0024489701767370989 -0.00533239221589441 0 0.0024736720622048295 -0.0052455702920554004 0 0.0024132011077442552 -0.0052099299219780393 0 0.0023894070469271632 -0.0053000693051277036 0 0.0024736720622048295 -0.0052455702920554004 0 0.0023894070469271632 -0.0053000693051277036 0 0.0024489701767370989 -0.00533239221589441 0 0.0023927459750362028 -0.0053605345242099239 0 0.0024489701767370989 -0.00533239221589441 0 0.0023927459750362028 -0.0053605345242099239 0 0.0024164320210914073 -0.0054062146471328945 0 0.0023194689104451697 -0.0053285918036374367 0 0.0023894070469271632 -0.0053000693051277036 0 0.0023557046881922841 -0.005354150189183845 0 0.0023927459750362028 -0.0053605345242099239 0 0.0023557046881922841 -0.005354150189183845 0 0.0023543449235226134 -0.0054103753914148157 0 0.0023894070469271632 -0.0053000693051277036 0 0.0023927459750362028 -0.0053605345242099239 0 0.0023557046881922841 -0.005354150189183845 0 0.0023044937135359217 -0.0053931611746622869 0 0.0023557046881922841 -0.005354150189183845 0 0.0023543449235226134 -0.0054103753914148157 0 0.0022982613321030111 -0.0054550651160252565 0 0.0023543449235226134 -0.0054103753914148157 0 0.0023695236511407005 -0.0054379494504391366 0 0.0023543449235226134 -0.0054103753914148157 0 0.0023695236511407005 -0.0054379494504391366 0 0.0024164320210914073 -0.0054062146471328945 0 0.0023927459750362028 -0.0053605345242099239 0 0.0023543449235226134 -0.0054103753914148157 0 0.0024164320210914073 -0.0054062146471328945 0 0.0022982613321030111 -0.0054550651160252565 0 0.0023490989861495453 -0.0054886827278441781 0 0.0024097951679089265 -0.0054796295262361655 0 0.0022982613321030111 -0.0054550651160252565 0 0.0023695236511407005 -0.0054379494504391366 0 0.0024097951679089265 -0.0054796295262361655 0 0.0022837027080770769 -0.0046354818515307239 0 0.0023760559927126488 -0.004649447121965476 0 0.0023247943372156467 -0.0047151651115242901 0 0.002397629893058059 -0.0052697236062331397 0 0.0023952465087182704 -0.005113004000196617 0 0.0023695236511407005 -0.0054379494504391366 0 0.0024097951679089265 -0.0054796295262361655 0 0.0024164320210914073 -0.0054062146471328945 0 0.0024097951679089265 -0.0054796295262361655 0 0.0024164320210914073 -0.0054062146471328945 0 0.0024728436122539838 -0.0053854746832581995 0 0.0024489701767370989 -0.00533239221589441 0 0.0024164320210914073 -0.0054062146471328945 0 0.0024728436122539838 -0.0053854746832581995 0 0.0024097951679089265 -0.0054796295262361655 0 0.0025540781907784304 -0.0054022258834218601 0 0.0026898131308869303 -0.0054877622002775057 0 0.0024728436122539838 -0.0053854746832581995 0 0.0025540781907784304 -0.0054022258834218601 0 0.0025408894783497241 -0.0052979222962836253 0 0.0023952465087182704 -0.005113004000196617 0 0.0026339865131460379 -0.0051439045618743356 0 0.0024097951679089265 -0.0054796295262361655 0 0.0024728436122539838 -0.0053854746832581995 0 0.0025540781907784304 -0.0054022258834218601 0 0.0025540781907784304 -0.0054022258834218601 0 0.0025408894783497241 -0.0052979222962836253 0 0.0026642367009088144 -0.0053305276836678774 0 0.0025408894783497241 -0.0052979222962836253 0 0.0026642367009088144 -0.0053305276836678774 0 0.0026391269947493869 -0.0052310437648118149 0 0.0024489701767370989 -0.00533239221589441 0 0.0025408894783497241 -0.0052979222962836253 0 0.0024736720622048295 -0.0052455702920554004 0 0.0024489701767370989 -0.00533239221589441 0 0.0024728436122539838 -0.0053854746832581995 0 0.0025408894783497241 -0.0052979222962836253 0 0.0025408894783497241 -0.0052979222962836253 0 0.0024736720622048295 -0.0052455702920554004 0 0.0025600925445965661 -0.0051920870635544947 0 0.0025408894783497241 -0.0052979222962836253 0 0.0025600925445965661 -0.0051920870635544947 0 0.0026391269947493869 -0.0052310437648118149 0 0.0016502219962946279 -0.0053264141438998007 0 0.0015296635632836555 -0.0053538739413906333 0 0.0015707287219229962 -0.0052715144498680661 0 0.0016502219962946279 -0.0053264141438998007 0 0.0016246887223761001 -0.005393282682003531 0 0.0015296635632836555 -0.0053538739413906333 0 0.0016502219962946279 -0.0053264141438998007 0 0.0017148614861040221 -0.0053897926056754109 0 0.0017673126749616964 -0.0053137066483570335 0 0.0016502219962946279 -0.0053264141438998007 0 0.001708432431150021 -0.0052439240117649593 0 0.0017673126749616964 -0.0053137066483570335 0 0.0016502219962946279 -0.0053264141438998007 0 0.0017148614861040221 -0.0053897926056754109 0 0.0016246887223761001 -0.005393282682003531 0 0.0017148614861040221 -0.0053897926056754109 0 0.0016246887223761001 -0.005393282682003531 0 0.0016607016606720556 -0.0054453372399608886 0 0.0016246887223761001 -0.005393282682003531 0 0.0015507262166826693 -0.005413742288295869 0 0.0016607016606720556 -0.0054453372399608886 0 0.0016246887223761001 -0.005393282682003531 0 0.0015507262166826693 -0.005413742288295869 0 0.0015296635632836555 -0.0053538739413906333 0 0.0013322402738766106 -0.005366836742009282 0 0.0015507262166826693 -0.005413742288295869 0 0.0015296635632836555 -0.0053538739413906333 0 0.0013322402738766106 -0.005366836742009282 0 0.0015296635632836555 -0.0053538739413906333 0 0.0014378675598580679 -0.0052939553243788401 0 0.0011421474954278329 -0.0057718057559813119 0 0.0011504202395547748 -0.0056431709884031643 0 0.0013054290704203578 -0.0057876213750202897 0 0.0013322402738766106 -0.005366836742009282 0 0.0015507262166826693 -0.005413742288295869 0 0.0016020191126544544 -0.0055073563809141454 0 0.0012546199228204917 -0.0055264453656184197 0 0.0013949328496964701 -0.0055312029710731297 0 0.0015296635632836555 -0.0053538739413906333 0 0.0014378675598580679 -0.0052939553243788401 0 0.0015707287219229962 -0.0052715144498680661 0 0.0013322402738766106 -0.005366836742009282 0 0.0013101398647899143 -0.0052702689298837375 0 0.0014378675598580679 -0.0052939553243788401 0 0.0013101398647899143 -0.0052702689298837375 0 0.0014532794483237928 -0.0051951423024271881 0 0.0014378675598580679 -0.0052939553243788401 0 0.0014532794483237928 -0.0051951423024271881 0 0.0014378675598580679 -0.0052939553243788401 0 0.0015707287219229962 -0.0052715144498680661 0 0.0014532794483237928 -0.0051951423024271881 0 0.0016256412574664036 -0.0051763466618949625 0 0.0015707287219229962 -0.0052715144498680661 0 0.0016502219962946279 -0.0053264141438998007 0 0.0015707287219229962 -0.0052715144498680661 0 0.001708432431150021 -0.0052439240117649593 0 0.0016256412574664036 -0.0051763466618949625 0 0.0015707287219229962 -0.0052715144498680661 0 0.001708432431150021 -0.0052439240117649593 0 0.0016256412574664036 -0.0051763466618949625 0 0.001708432431150021 -0.0052439240117649593 0 0.0017643473096475245 -0.0051578356593279676 0 0.001708432431150021 -0.0052439240117649593 0 0.0017643473096475245 -0.0051578356593279676 0 0.0018380304577469498 -0.0052178301563848813 0 0.0018638811990105508 -0.0051077733857611846 0 0.0018380304577469498 -0.0052178301563848813 0 0.0019302322726674332 -0.0051598269569206158 0 0.0018638811990105508 -0.0051077733857611846 0 0.0017643473096475245 -0.0051578356593279676 0 0.0018380304577469498 -0.0052178301563848813 0 0.0018380304577469498 -0.0052178301563848813 0 0.0019403102603267189 -0.0052288075443834865 0 0.0018766153812739366 -0.005310609208014903 0 0.001708432431150021 -0.0052439240117649593 0 0.0018380304577469498 -0.0052178301563848813 0 0.0017673126749616964 -0.0053137066483570335 0 0.001997215603198431 -0.0050797915625080247 0 0.0021283317699326144 -0.0050857219584592127 0 0.0020370754519136833 -0.0051686705194246693 0 0.001997215603198431 -0.0050797915625080247 0 0.0019302322726674332 -0.0051598269569206158 0 0.0020370754519136833 -0.0051686705194246693 0 0.0019302322726674332 -0.0051598269569206158 0 0.0019403102603267189 -0.0052288075443834865 0 0.0020370754519136833 -0.0051686705194246693 0 0.0018380304577469498 -0.0052178301563848813 0 0.0019302322726674332 -0.0051598269569206158 0 0.0019403102603267189 -0.0052288075443834865 0 0.0019403102603267189 -0.0052288075443834865 0 0.0020370754519136833 -0.0051686705194246693 0 0.0020140812445380613 -0.0052678718384374284 0 0.0019403102603267189 -0.0052288075443834865 0 0.0020140812445380613 -0.0052678718384374284 0 0.0018766153812739366 -0.005310609208014903 0 0.0020140812445380613 -0.0052678718384374284 0 0.0019337680994594817 -0.0053471123303706234 0 0.0018766153812739366 -0.005310609208014903 0 0.0020415465844570188 -0.0053380090666606487 0 0.0020140812445380613 -0.0052678718384374284 0 0.0019337680994594817 -0.0053471123303706234 0 0.0018380304577469498 -0.0052178301563848813 0 0.0017673126749616964 -0.0053137066483570335 0 0.0018766153812739366 -0.005310609208014903 0 0.0019337680994594817 -0.0053471123303706234 0 0.0018766153812739366 -0.005310609208014903 0 0.0018316399706960371 -0.0053846261386215864 0 0.0017673126749616964 -0.0053137066483570335 0 0.0018766153812739366 -0.005310609208014903 0 0.0018316399706960371 -0.0053846261386215864 0 0.0017148614861040221 -0.0053897926056754109 0 0.0017673126749616964 -0.0053137066483570335 0 0.0018316399706960371 -0.0053846261386215864 0 0.0017148614861040221 -0.0053897926056754109 0 0.0018316399706960371 -0.0053846261386215864 0 0.0017814768659306229 -0.0054794586626971311 0 0.0017118850592479204 -0.0053981599086380108 0 0.0018864391837261566 -0.0054125032271899742 0 0.0018316399706960371 -0.0053846261386215864 0 0.0017814768659306229 -0.0054794586626971311 0 0.0019279191552677201 -0.0054159724381851919 0 0.0016428449252926551 -0.0053082880943856273 0 0.0019279191552677201 -0.0054159724381851919 0 0.0016894926207517281 -0.005469256114963887 0 0.0016428449252926551 -0.0053082880943856273 0 0.0016894926207517281 -0.005469256114963887 0 0.0013945916426727472 -0.0054258484220754194 0 0.0020415465844570188 -0.0053380090666606487 0 0.0019337680994594817 -0.0053471123303706234 0 0.0019279191552677201 -0.0054159724381851919 0 0.0020415465844570188 -0.0053380090666606487 0 0.0020737949373880005 -0.0054046091798726449 0 0.0019279191552677201 -0.0054159724381851919 0 0.0019337680994594817 -0.0053471123303706234 0 0.0018316399706960371 -0.0053846261386215864 0 0.0019279191552677201 -0.0054159724381851919 0 0.0020737949373880005 -0.0054046091798726449 0 0.0019279191552677201 -0.0054159724381851919 0 0.0019897279542711922 -0.0054619903857481443 0 0.0020701491188522061 -0.0054786327866357867 0 0.0021660352658074708 -0.0055307122124017873 0 0.0018248181793619012 -0.0055572294443263625 0 0.0022112642968244349 -0.005575158756860865 0 0.0018371222638531384 -0.0055492919343568901 0 0.0020701491188522061 -0.0054786327866357867 0 0.0019897279542711922 -0.0054619903857481443 0 0.0018248181793619012 -0.0055572294443263625 0 0.0021831876737137446 -0.0056654068026578824 0 0.0018248181793619012 -0.0055572294443263625 0 0.0017919465060775254 -0.0057330676598485288 0 0.0019279191552677201 -0.0054159724381851919 0 0.0019897279542711922 -0.0054619903857481443 0 0.0018248181793619012 -0.0055572294443263625 0 0.0016894926207517281 -0.005469256114963887 0 0.0016117144873680515 -0.0056228334434873743 0 0.0014413146292254955 -0.0055719590925335421 0 0.0016894926207517281 -0.005469256114963887 0 0.0018248181793619012 -0.0055572294443263625 0 0.0016117144873680515 -0.0056228334434873743 0 0.0019279191552677201 -0.0054159724381851919 0 0.0016894926207517281 -0.005469256114963887 0 0.0018248181793619012 -0.0055572294443263625 0 0.0018248181793619012 -0.0055572294443263625 0 0.0016117144873680515 -0.0056228334434873743 0 0.0017919465060775254 -0.0057330676598485288 0 0.0016117144873680515 -0.0056228334434873743 0 0.0014413146292254955 -0.0055719590925335421 0 0.0012967023128070136 -0.005799742997326651 0 0.0014413146292254955 -0.0055719590925335421 0 0.0011700074350673949 -0.005549602321205137 0 0.0012967023128070136 -0.005799742997326651 0 0.0014413146292254955 -0.0055719590925335421 0 0.0013945916426727472 -0.0054258484220754194 0 0.0011700074350673949 -0.005549602321205137 0 0.0013945916426727472 -0.0054258484220754194 0 0.0012486271925736278 -0.0053982218469837678 0 0.0011700074350673949 -0.005549602321205137 0 0.0016894926207517281 -0.005469256114963887 0 0.0014413146292254955 -0.0055719590925335421 0 0.0013945916426727472 -0.0054258484220754194 0 0.0016428449252926551 -0.0053082880943856273 0 0.0013470351209954865 -0.005278826083338988 0 0.0013148310991301976 -0.0052459102131541023 0 0.0016428449252926551 -0.0053082880943856273 0 0.0013945916426727472 -0.0054258484220754194 0 0.0013470351209954865 -0.005278826083338988 0 0.0017814768659306229 -0.0054794586626971311 0 0.0016020191126544544 -0.0055073563809141454 0 0.0016607016606720556 -0.0054453372399608886 0 0.0017118850592479204 -0.0053981599086380108 0 0.0013949328496964701 -0.0055312029710731297 0 0.0013945916426727472 -0.0054258484220754194 0 0.0013215060232961936 -0.0053615743416224517 0 0.0012486271925736278 -0.0053982218469837678 0 0.0013945916426727472 -0.0054258484220754194 0 0.0013215060232961936 -0.0053615743416224517 0 0.0013470351209954865 -0.005278826083338988 0 0.0013215060232961936 -0.0053615743416224517 0 0.0012486271925736278 -0.0053982218469837678 0 0.0012630370244122206 -0.0053260294963258905 0 0.0013215060232961936 -0.0053615743416224517 0 0.0012630370244122206 -0.0053260294963258905 0 0.0013470351209954865 -0.005278826083338988 0 0.0012630370244122206 -0.0053260294963258905 0 0.0013470351209954865 -0.005278826083338988 0 0.001311465435493841 -0.0052494826790421764 0 0.0015507262166826693 -0.005413742288295869 0 0.0016020191126544544 -0.0055073563809141454 0 0.0016607016606720556 -0.0054453372399608886 0 0.0013717738076350927 -0.0054991823857714209 0 0.0013949328496964701 -0.0055312029710731297 0 0.0017148614861040221 -0.0053897926056754109 0 0.0017814768659306229 -0.0054794586626971311 0 0.0016607016606720556 -0.0054453372399608886 0 0.00091490995602188155 -0.0052248106466683177 0 0.001311465435493841 -0.0052494826790421764 0 0.0010952837970198779 -0.0053430709775213461 0 0.00091490995602188155 -0.0052248106466683177 0 0.0008986090988561047 -0.0054816475384437229 0 0.0010952837970198779 -0.0053430709775213461 0 0.0010100571499961268 -0.0054969110828738676 0 0.0013949328496964701 -0.0055312029710731297 0 0.0012486271925736278 -0.0053982218469837678 0 0.0012630370244122206 -0.0053260294963258905 0 0.0010952837970198779 -0.0053430709775213461 0 0.0012630370244122206 -0.0053260294963258905 0 0.001311465435493841 -0.0052494826790421764 0 0.0010952837970198779 -0.0053430709775213461 0 0.0008986090988561047 -0.0054816475384437229 0 0.0011700074350673949 -0.005549602321205137 0 0.00083503091123755206 -0.0057197551745822887 0 0.0008986090988561047 -0.0054816475384437229 0 0.0010952837970198779 -0.0053430709775213461 0 0.0011700074350673949 -0.005549602321205137 0 0.0012486271925736278 -0.0053982218469837678 0 0.0010952837970198779 -0.0053430709775213461 0 0.0011700074350673949 -0.005549602321205137 0 0.0012353474184323703 -0.0052614470490008657 0 0.00067170619000202529 -0.0054802335892856924 0 0.0011629063458101043 -0.0056295436664869081 0 0.00067170619000202529 -0.0054802335892856924 0 0.0011700074350673949 -0.005549602321205137 0 0.0012967023128070136 -0.005799742997326651 0 0.0007711050253295617 -0.0058508238715056877 0 0.00095979017485669984 -0.0049777338723709244 0 0.0011331200730728705 -0.0047602531210406982 0 0.0007285630592878253 -0.0048255804183981593 0 0.00095979017485669984 -0.0049777338723709244 0 0.00089495653602896799 -0.005155583725818055 0 0.00071553468425770094 -0.0050903587945998205 0 0.00095979017485669984 -0.0049777338723709244 0 0.001078226258241857 -0.0050799036932935027 0 0.001197786894659764 -0.0049402683582693641 0 0.001078226258241857 -0.0050799036932935027 0 0.00089495653602896799 -0.005155583725818055 0 0.0010350635958876961 -0.005216521252663333 0 0.00095979017485669984 -0.0049777338723709244 0 0.001078226258241857 -0.0050799036932935027 0 0.00089495653602896799 -0.005155583725818055 0 0.0012082162505058351 -0.0051253201104606173 0 0.0013324405516876097 -0.0049998474928357106 0 0.001378493548372869 -0.0051157579033918842 0 0.0012082162505058351 -0.0051253201104606173 0 0.001378493548372869 -0.0051157579033918842 0 0.0012740691223737026 -0.0052211906658840004 0 0.001078226258241857 -0.0050799036932935027 0 0.0012082162505058351 -0.0051253201104606173 0 0.0010350635958876961 -0.005216521252663333 0 0.001078226258241857 -0.0050799036932935027 0 0.0012082162505058351 -0.0051253201104606173 0 0.001197786894659764 -0.0049402683582693641 0 0.001197786894659764 -0.0049402683582693641 0 0.0013324405516876097 -0.0049998474928357106 0 0.0013860458405879276 -0.0048701850733807077 0 0.0012082162505058351 -0.0051253201104606173 0 0.001197786894659764 -0.0049402683582693641 0 0.0013324405516876097 -0.0049998474928357106 0 0.001197786894659764 -0.0049402683582693641 0 0.0011331200730728705 -0.0047602531210406982 0 0.0013860458405879276 -0.0048701850733807077 0 0.00095979017485669984 -0.0049777338723709244 0 0.001197786894659764 -0.0049402683582693641 0 0.0011331200730728705 -0.0047602531210406982 0 0.0016117144873680515 -0.0056228334434873743 0 0.0012967023128070136 -0.005799742997326651 0 0.0017919465060775254 -0.0057330676598485288 0 0.0011331200730728705 -0.0047602531210406982 0 0.0015556431512752697 -0.0046965022106478403 0 0.0013860458405879276 -0.0048701850733807077 0 0.0012353474184323703 -0.0052614470490008657 0 0.0016659778059236491 -0.0052202425577711703 0 0.0015556431512752697 -0.0046965022106478403 0 0.0015766449751455527 -0.0048696246021682158 0 0.0013860458405879276 -0.0048701850733807077 0 0.0015766449751455527 -0.0048696246021682158 0 0.0013860458405879276 -0.0048701850733807077 0 0.0014847593646237181 -0.0049843674618857414 0 0.0020753999897858747 -0.0051431083643028747 0 0.0016659778059236491 -0.0052202425577711703 0 0.0019613753484446989 -0.0046598956238113297 0 0.0015556431512752697 -0.0046965022106478403 0 0.0017771265631317142 -0.0048107332691683657 0 0.0015766449751455527 -0.0048696246021682158 0 0.0017771265631317142 -0.0048107332691683657 0 0.0016762310959925297 -0.0049867303407770472 0 0.0015556431512752697 -0.0046965022106478403 0 0.0015766449751455527 -0.0048696246021682158 0 0.0017771265631317142 -0.0048107332691683657 0 0.0017771265631317142 -0.0048107332691683657 0 0.0016762310959925297 -0.0049867303407770472 0 0.0019903155007914442 -0.0049183580002295389 0 0.0016762310959925297 -0.0049867303407770472 0 0.001656616905691766 -0.0052289135049250332 0 0.0019903155007914442 -0.0049183580002295389 0 0.0017518056125762948 -0.0050922127089923523 0 0.0019681401027626553 -0.0049469187183388327 0 0.0016762310959925297 -0.0049867303407770472 0 0.0015237964622587018 -0.005116431302836036 0 0.001656616905691766 -0.0052289135049250332 0 0.0013324405516876097 -0.0049998474928357106 0 0.0014847593646237181 -0.0049843674618857414 0 0.001378493548372869 -0.0051157579033918842 0 0.0013324405516876097 -0.0049998474928357106 0 0.0013860458405879276 -0.0048701850733807077 0 0.0014847593646237181 -0.0049843674618857414 0 0.0016762310959925297 -0.0049867303407770472 0 0.0014847593646237181 -0.0049843674618857414 0 0.0015237964622587018 -0.005116431302836036 0 0.0015766449751455527 -0.0048696246021682158 0 0.0016762310959925297 -0.0049867303407770472 0 0.0014847593646237181 -0.0049843674618857414 0 0.0014847593646237181 -0.0049843674618857414 0 0.0015237964622587018 -0.005116431302836036 0 0.001378493548372869 -0.0051157579033918842 0 0.0015237964622587018 -0.005116431302836036 0 0.001378493548372869 -0.0051157579033918842 0 0.0014044108855129779 -0.0052398677744520707 0 0.0013652309872542591 -0.0053494560361962871 0 0.001656616905691766 -0.0052289135049250332 0 0.0013114570550271458 -0.0054990520674532547 0 0.001378493548372869 -0.0051157579033918842 0 0.0014044108855129779 -0.0052398677744520707 0 0.0012740691223737026 -0.0052211906658840004 0 0.0014044108855129779 -0.0052398677744520707 0 0.0013652309872542591 -0.0053494560361962871 0 0.001656616905691766 -0.0052289135049250332 0 0.0017518056125762948 -0.0050922127089923523 0 0.0014923860827604234 -0.005567365098184591 0 0.0015237964622587018 -0.005116431302836036 0 0.0014044108855129779 -0.0052398677744520707 0 0.001656616905691766 -0.0052289135049250332 0 0.0014044108855129779 -0.0052398677744520707 0 0.0013652309872542591 -0.0053494560361962871 0 0.001241059770663027 -0.0053394988716655026 0 0.0019045475058994167 -0.0051182386196332499 0 0.0018219222771302314 -0.0050440785722770084 0 0.0019903155007914442 -0.0049183580002295389 0 0.0019045475058994167 -0.0051182386196332499 0 0.0018219222771302314 -0.0050440785722770084 0 0.0016962301385801124 -0.0051817156432242628 0 0.0018847904412682373 -0.0039849883484956846 0 0.0017882132104162743 -0.0040832180867289083 0 0.0019267150419426907 -0.0041497207606706315 0 0.0018847904412682373 -0.0039849883484956846 0 0.0017882132104162743 -0.0040832180867289083 0 0.0016061391058003001 -0.0040802361851226109 0 0.0018687249374215564 -0.0045098145951781021 0 0.0017529564976344137 -0.0047441439656698203 0 0.0016890136298108956 -0.0041146817956046163 0 0.0019969849597971257 -0.0041163089156629187 0 0.0018293216744614408 -0.0041885047203444022 0 0.0017412578676065636 -0.004118951250147127 0 0.0018838992604211849 -0.0041219296805019984 0 0.0017882132104162743 -0.0040832180867289083 0 0.0016890136298108956 -0.0041146817956046163 0 0.0019267150419426907 -0.0041497207606706315 0 0.0017882132104162743 -0.0040832180867289083 0 0.0016890136298108956 -0.0041146817956046163 0 0.0016061391058003001 -0.0040802361851226109 0 0.0018219222771302314 -0.0050440785722770084 0 0.0016962301385801124 -0.0051817156432242628 0 0.0016586246500846342 -0.0051478702468650524 0 0.0016890136298108956 -0.0041146817956046163 0 0.0016061391058003001 -0.0040802361851226109 0 0.0016037903645738465 -0.0042680841321517055 0 0.0014923860827604234 -0.005567365098184591 0 0.00078810268906257691 -0.0039290613694644089 0 0.0016962301385801124 -0.0051817156432242628 0 0.0016586246500846342 -0.0051478702468650524 0 0.0014900195485332 -0.0052170741412487951 0 0.0013114570550271458 -0.0054990520674532547 0 0.0011264413975592266 -0.0055345106953526412 0 0.00096218420234591741 -0.0057503721791059611 0 0.0012173667076288044 -0.0054391566686470948 0 0.0013114570550271458 -0.0054990520674532547 0 0.0011264413975592266 -0.0055345106953526412 0 0.0013652309872542591 -0.0053494560361962871 0 0.0012173667076288044 -0.0054391566686470948 0 0.0013114570550271458 -0.0054990520674532547 0 0.0011264413975592266 -0.0055345106953526412 0 0.0010864654692737045 -0.0054225887587639465 0 0.0010248589322785248 -0.005565790777184219 0 0.0012173667076288044 -0.0054391566686470948 0 0.0011264413975592266 -0.0055345106953526412 0 0.0010864654692737045 -0.0054225887587639465 0 0.0011264413975592266 -0.0055345106953526412 0 0.0010248589322785248 -0.005565790777184219 0 0.00096218420234591741 -0.0057503721791059611 0 0.0010248589322785248 -0.005565790777184219 0 0.0009193395933894691 -0.0056389797249504535 0 0.00096218420234591741 -0.0057503721791059611 0 0.0010248589322785248 -0.005565790777184219 0 0.0009193395933894691 -0.0056389797249504535 0 0.00097034216038873703 -0.0055058967195383514 0 0.0009193395933894691 -0.0056389797249504535 0 0.00086715982928331253 -0.0055314528705603175 0 0.00097034216038873703 -0.0055058967195383514 0 0.0009193395933894691 -0.0056389797249504535 0 0.00086715982928331253 -0.0055314528705603175 0 0.00077176104185988734 -0.0056254756320496717 0 0.00086715982928331253 -0.0055314528705603175 0 0.00093471128308013492 -0.0054105628140380165 0 0.00082770758675135866 -0.0054366171120938502 0 0.00086715982928331253 -0.0055314528705603175 0 0.00097034216038873703 -0.0055058967195383514 0 0.00093471128308013492 -0.0054105628140380165 0 0.0010864654692737045 -0.0054225887587639465 0 0.0010248589322785248 -0.005565790777184219 0 0.00097034216038873703 -0.0055058967195383514 0 0.0010864654692737045 -0.0054225887587639465 0 0.00097034216038873703 -0.0055058967195383514 0 0.00093471128308013492 -0.0054105628140380165 0 0.0010864654692737045 -0.0054225887587639465 0 0.0010063796198598572 -0.0053274949664229116 0 0.00093471128308013492 -0.0054105628140380165 0 0.0010864654692737045 -0.0054225887587639465 0 0.0010063796198598572 -0.0053274949664229116 0 0.0011402776313740029 -0.005284471478272869 0 0.00093471128308013492 -0.0054105628140380165 0 0.00087265639909008962 -0.0053057387078619088 0 0.00082770758675135866 -0.0054366171120938502 0 0.0010063796198598572 -0.0053274949664229116 0 0.00093471128308013492 -0.0054105628140380165 0 0.00087265639909008962 -0.0053057387078619088 0 0.00089495653602896799 -0.005155583725818055 0 0.00087265639909008962 -0.0053057387078619088 0 0.0010350635958876961 -0.005216521252663333 0 0.0010063796198598572 -0.0053274949664229116 0 0.00087265639909008962 -0.0053057387078619088 0 0.0010350635958876961 -0.005216521252663333 0 0.0010063796198598572 -0.0053274949664229116 0 0.0010350635958876961 -0.005216521252663333 0 0.0011402776313740029 -0.005284471478272869 0 0.0012082162505058351 -0.0051253201104606173 0 0.0010350635958876961 -0.005216521252663333 0 0.0011402776313740029 -0.005284471478272869 0 0.0011402776313740029 -0.005284471478272869 0 0.0012740691223737026 -0.0052211906658840004 0 0.001241059770663027 -0.0053394988716655026 0 0.0012082162505058351 -0.0051253201104606173 0 0.0011402776313740029 -0.005284471478272869 0 0.0012740691223737026 -0.0052211906658840004 0 0.0014044108855129779 -0.0052398677744520707 0 0.0012740691223737026 -0.0052211906658840004 0 0.001241059770663027 -0.0053394988716655026 0 0.0013652309872542591 -0.0053494560361962871 0 0.0012173667076288044 -0.0054391566686470948 0 0.001241059770663027 -0.0053394988716655026 0 0.0012173667076288044 -0.0054391566686470948 0 0.0010864654692737045 -0.0054225887587639465 0 0.001241059770663027 -0.0053394988716655026 0 0.0010864654692737045 -0.0054225887587639465 0 0.0011402776313740029 -0.005284471478272869 0 0.001241059770663027 -0.0053394988716655026 0 0.002460338002951366 -0.0047969437456238636 0 0.002401176278843428 -0.0049435359882311954 0 0.0026051832141964154 -0.0048064479290668904 0 0.0025317878226117419 -0.004887498841973475 0 0.0025925159077373051 -0.0048167954802296456 0 0.0026140821627659229 -0.0048064724397261175 0 0.0026237809659012648 -0.0048109666982442262 0 0.0026051832141964154 -0.0048064479290668904 0 0.0024995654820585715 -0.0047395232679898905 0 0.0026352516868236712 -0.0047066208420205738 0 0.0026051832141964154 -0.0048064479290668904 0 0.0024995654820585715 -0.0047395232679898905 0 0.002460338002951366 -0.0047969437456238636 0 0.0026051832141964154 -0.0048064479290668904 0 0.0023760559927126488 -0.004649447121965476 0 0.0024995654820585715 -0.0047395232679898905 0 0.0026352516868236712 -0.0047066208420205738 0 0.0024995654820585715 -0.0047395232679898905 0 0.002460338002951366 -0.0047969437456238636 0 0.0024092477420500692 -0.0047360977002952245 0 0.002460338002951366 -0.0047969437456238636 0 0.002313782601585651 -0.0048001269558252705 0 0.002401176278843428 -0.0049435359882311954 0 0.002460338002951366 -0.0047969437456238636 0 0.0024092477420500692 -0.0047360977002952245 0 0.002313782601585651 -0.0048001269558252705 0 0.0024092477420500692 -0.0047360977002952245 0 0.0023247943372156467 -0.0047151651115242901 0 0.002313782601585651 -0.0048001269558252705 0 0.0023760559927126488 -0.004649447121965476 0 0.0024995654820585715 -0.0047395232679898905 0 0.0024092477420500692 -0.0047360977002952245 0 0.0023760559927126488 -0.004649447121965476 0 0.0024092477420500692 -0.0047360977002952245 0 0.0023247943372156467 -0.0047151651115242901 0 0.0022837027080770769 -0.0046354818515307239 0 0.0023247943372156467 -0.0047151651115242901 0 0.0022517402034170062 -0.0047437678861510001 0 0.0023247943372156467 -0.0047151651115242901 0 0.002313782601585651 -0.0048001269558252705 0 0.0022517402034170062 -0.0047437678861510001 0 0.002313782601585651 -0.0048001269558252705 0 0.002195782468324112 -0.0048133051517251953 0 0.0022517402034170062 -0.0047437678861510001 0 0.002313782601585651 -0.0048001269558252705 0 0.002401176278843428 -0.0049435359882311954 0 0.0021589408939203508 -0.0049183354478824735 0 0.0025317878226117419 -0.004887498841973475 0 0.0022152058943523583 -0.0046602683720178241 0 0.0026140821627659229 -0.0048064724397261175 0 0.0026237809659012648 -0.0048109666982442262 0 0.0026303639288321637 -0.0047941046699228806 0 0.002401176278843428 -0.0049435359882311954 0 0.0021589408939203508 -0.0049183354478824735 0 0.0021673056076971617 -0.0050598059785171073 0 0.0021796870143350393 -0.0050152305042806119 0 0.0022152058943523583 -0.0046602683720178241 0 0.0021589408939203508 -0.0049183354478824735 0 0.0020559042791274693 -0.0049851111967378096 0 0.0021439091086423315 -0.0050375176042121916 0 0.0021589408939203508 -0.0049183354478824735 0 0.0020937322143284691 -0.0048659186936359164 0 0.0020559042791274693 -0.0049851111967378096 0 0.002313782601585651 -0.0048001269558252705 0 0.0021589408939203508 -0.0049183354478824735 0 0.002195782468324112 -0.0048133051517251953 0 0.0022837027080770769 -0.0046354818515307239 0 0.0021400398640320432 -0.0047473484356488783 0 0.0021015038994139606 -0.0047057779144455527 0 0.0022837027080770769 -0.0046354818515307239 0 0.0022517402034170062 -0.0047437678861510001 0 0.0021400398640320432 -0.0047473484356488783 0 0.002195782468324112 -0.0048133051517251953 0 0.0022517402034170062 -0.0047437678861510001 0 0.0021400398640320432 -0.0047473484356488783 0 0.0021400398640320432 -0.0047473484356488783 0 0.0021015038994139606 -0.0047057779144455527 0 0.0020200495889680305 -0.0047799173730192343 0 0.0021589408939203508 -0.0049183354478824735 0 0.002195782468324112 -0.0048133051517251953 0 0.0020937322143284691 -0.0048659186936359164 0 0.002195782468324112 -0.0048133051517251953 0 0.0021400398640320432 -0.0047473484356488783 0 0.0020937322143284691 -0.0048659186936359164 0 0.0021400398640320432 -0.0047473484356488783 0 0.0020937322143284691 -0.0048659186936359164 0 0.0020200495889680305 -0.0047799173730192343 0 0.0020200495889680305 -0.0047799173730192343 0 0.0019380104030930552 -0.0047926272173438077 0 0.0019903155007914442 -0.0049183580002295389 0 0.0020937322143284691 -0.0048659186936359164 0 0.0020200495889680305 -0.0047799173730192343 0 0.0019903155007914442 -0.0049183580002295389 0 0.0019613753484446989 -0.0046598956238113297 0 0.0020200495889680305 -0.0047799173730192343 0 0.0019380104030930552 -0.0047926272173438077 0 0.0019613753484446989 -0.0046598956238113297 0 0.0021015038994139606 -0.0047057779144455527 0 0.0020200495889680305 -0.0047799173730192343 0 0.0019613753484446989 -0.0046598956238113297 0 0.0017771265631317142 -0.0048107332691683657 0 0.0019380104030930552 -0.0047926272173438077 0 0.0017771265631317142 -0.0048107332691683657 0 0.0019380104030930552 -0.0047926272173438077 0 0.0019903155007914442 -0.0049183580002295389 0 0.0019045475058994167 -0.0051182386196332499 0 0.0019903155007914442 -0.0049183580002295389 0 0.0020559042791274693 -0.0049851111967378096 0 0.0020937322143284691 -0.0048659186936359164 0 0.0019903155007914442 -0.0049183580002295389 0 0.0020559042791274693 -0.0049851111967378096 0 0.0019045475058994167 -0.0051182386196332499 0 0.0020559042791274693 -0.0049851111967378096 0 0.0021439091086423315 -0.0050375176042121916 0 0.0018687249374215564 -0.0045098145951781021 0 0.0022152058943523583 -0.0046602683720178241 0 0.0018847904412682373 -0.0039849883484956846 0 0.0019267150419426907 -0.0041497207606706315 0 0.0020438026755994591 -0.0041001945866145804 0 0.0018847904412682373 -0.0039849883484956846 0 0.0020438026755994591 -0.0041001945866145804 0 0.0021413129090374892 -0.0040246810910531941 0 0.0018838992604211849 -0.0041219296805019984 0 0.002580956047589874 -0.0042388505054235942 0 0.0019267150419426907 -0.0041497207606706315 0 0.0020438026755994591 -0.0041001945866145804 0 0.0021518298039707134 -0.0041707084122352299 0 0.0020438026755994591 -0.0041001945866145804 0 0.0021413129090374892 -0.0040246810910531941 0 0.0021518298039707134 -0.0041707084122352299 0 0.0023958128014256621 -0.0043871427751215218 0 0.002580956047589874 -0.0042388505054235942 0 0.0026518279730869815 -0.0047784199064493573 0 0.0026358109826006004 -0.0047739822747291426 0 0.0026537427564421513 -0.0047497243923970492 0 0.0018847904412682373 -0.0039849883484956846 0 0.0021413129090374892 -0.0040246810910531941 0 0.0021331087137312649 -0.0038847214724705677 0 0.0026518279730869815 -0.0047784199064493573 0 0.0026483462662878297 -0.0048013928335951953 0 0.0026303639288321637 -0.0047941046699228806 0 0.0023958128014256621 -0.0043871427751215218 0 0.0022152058943523583 -0.0046602683720178241 0 0.0026237809659012648 -0.0048109666982442262 0 0.0026483462662878297 -0.0048013928335951953 0 0.0026303639288321637 -0.0047941046699228806 0 0.0026303639288321637 -0.0047941046699228806 0 0.0026358109826006004 -0.0047739822747291426 0 0.0026118882651573971 -0.004797348248063279 0 0.0026518279730869815 -0.0047784199064493573 0 0.0026303639288321637 -0.0047941046699228806 0 0.0026358109826006004 -0.0047739822747291426 0 0.0028469456953786713 -0.0046237779155052817 0 0.0030189654553490052 -0.0042946047407853086 0 0.0026358109826006004 -0.0047739822747291426 0 0.0026118882651573971 -0.004797348248063279 0 0.0026365485785753606 -0.0047491409407633238 0 0.0026358109826006004 -0.0047739822747291426 0 0.0026365485785753606 -0.0047491409407633238 0 0.0026537427564421513 -0.0047497243923970492 0 0.0031454180759435974 -0.0043362559970823653 0 0.0031400142889881823 -0.0043388212834816657 0 0.0031482777813760317 -0.0043384821956051122 0 0.0026140821627659229 -0.0048064724397261175 0 0.0026303639288321637 -0.0047941046699228806 0 0.0026118882651573971 -0.004797348248063279 0 0.0034329723206659624 -0.0039965947022014203 0 0.0033327512681035538 -0.0041162961401377011 0 0.0035133097046717667 -0.004072102831758467 0 0.0034597634486078096 -0.0040458585100643825 0 0.0034904542973022297 -0.0041119417656721585 0 0.0033807914988624363 -0.0039897828662079577 0 0.0033571070071770977 -0.0039170267578795713 0 0.0033330324042276471 -0.0039597874500977978 0 0.0035133097046717667 -0.004072102831758467 0 0.0034597634486078096 -0.0040458585100643825 0 0.003534535875436509 -0.0040454480326144841 0 0.0034597634486078096 -0.0040458585100643825 0 0.0035409426197364237 -0.0039884493616143251 0 0.003534535875436509 -0.0040454480326144841 0 0.0034329723206659624 -0.0039965947022014203 0 0.0033983707121305893 -0.0040478256201305239 0 0.0033571070071770977 -0.0039170267578795713 0 0.0032727518300939831 -0.0038595593512420101 0 0.0034518476050560908 -0.00387770738476672 0 0.0030189654553490052 -0.0042946047407853086 0 0.0033983707121305893 -0.0040478256201305239 0 0.0033807914988624363 -0.0039897828662079577 0 0.0033571070071770977 -0.0039170267578795713 0 0.0034518476050560908 -0.00387770738476672 0 0.0033571070071770977 -0.0039170267578795713 0 0.0032907612062751186 -0.0039109168439981036 0 0.0033330324042276471 -0.0039597874500977978 0 0.0032907612062751186 -0.0039109168439981036 0 0.0033330324042276471 -0.0039597874500977978 0 0.003202669409473214 -0.0039534863960605845 0 0.0033571070071770977 -0.0039170267578795713 0 0.0032907612062751186 -0.0039109168439981036 0 0.0032727518300939831 -0.0038595593512420101 0 0.0032532865672655381 -0.0038763449881195357 0 0.0032705041717311909 -0.0038593333550132948 0 0.0031963639011872891 -0.0038534750882965227 0 0.0030189654553490052 -0.0042946047407853086 0 0.002580956047589874 -0.0042388505054235942 0 0.0031326227747687091 -0.0041587303407542133 0 0.0030189654553490052 -0.0042946047407853086 0 0.0032907612062751186 -0.0039109168439981036 0 0.0032532865672655381 -0.0038763449881195357 0 0.0032727518300939831 -0.0038595593512420101 0 0.0032907612062751186 -0.0039109168439981036 0 0.0032532865672655381 -0.0038763449881195357 0 0.003202669409473214 -0.0039534863960605845 0 0.0033807914988624363 -0.0039897828662079577 0 0.0033214057069882378 -0.0040160911905949247 0 0.0033304611816020739 -0.0041052172485185811 0 0.003472767325277622 -0.0039768034262034372 0 0.0027797550686146496 -0.0037259255789573432 0 0.0033214057069882378 -0.0040160911905949247 0 0.0032258768146277068 -0.0039434222904640949 0 0.003231866793222279 -0.0040466084907860951 0 0.0033330324042276471 -0.0039597874500977978 0 0.0033214057069882378 -0.0040160911905949247 0 0.0032258768146277068 -0.0039434222904640949 0 0.0033807914988624363 -0.0039897828662079577 0 0.0033330324042276471 -0.0039597874500977978 0 0.0033214057069882378 -0.0040160911905949247 0 0.0032743107089288686 -0.0039792706769371071 0 0.0031213447336292553 -0.0035786240275107787 0 0.0029096042104487579 -0.002687735359004015 0 0.0024724579799785922 -0.0029625903652970957 0 0.0029357006441601543 -0.0031816637316512152 0 0.0027797550686146496 -0.0037259255789573432 0 0.0031213447336292553 -0.0035786240275107787 0 0.0023361174743864377 -0.0043342139891641256 0 0.0023243215452080973 -0.0041350128924421692 0 0.0019530564161420712 -0.0043002262056097843 0 0.0027797550686146496 -0.0037259255789573432 0 0.002580956047589874 -0.0042388505054235942 0 0.0032532865672655381 -0.0038763449881195357 0 0.003202669409473214 -0.0039534863960605845 0 0.0031963639011872891 -0.0038534750882965227 0 0.0019969849597971257 -0.0041163089156629187 0 0.0023243215452080973 -0.0041350128924421692 0 0.0019530564161420712 -0.0043002262056097843 0 0.0027797550686146496 -0.0037259255789573432 0 0.0019919061322869647 -0.0034270303984773459 0 0.0021068470527940818 -0.0025921285167046309 0 0.0024724579799785922 -0.0029625903652970957 0 0.0018075319487253325 -0.0030478939140600476 0 0.0029096042104487579 -0.002687735359004015 0 0.0021068470527940818 -0.0025921285167046309 0 0.0024724579799785922 -0.0029625903652970957 0 0.0024724579799785922 -0.0029625903652970957 0 0.0023285399771787257 -0.003407494797431845 0 0.0018075319487253325 -0.0030478939140600476 0 0.0025350633650329511 -0.0034103392913912224 0 0.0025110854139030214 -0.0040140797324472984 0 0.0022190210148826574 -0.0038170194922686491 0 0.0025350633650329511 -0.0034103392913912224 0 0.0025110854139030214 -0.0040140797324472984 0 0.0028583358869689146 -0.0039452132819425235 0 0.0028583358869689146 -0.0039452132819425235 0 0.0031600367323309322 -0.0036842424626269059 0 0.0031679371537841308 -0.0042105011621092316 0 0.0031883993945612059 -0.0039304865293080683 0 0.0031807000306008624 -0.0041744411469952936 0 0.0025350633650329511 -0.0034103392913912224 0 0.0028583358869689146 -0.0039452132819425235 0 0.0031600367323309322 -0.0036842424626269059 0 0.0024336426552147732 -0.0033763245080771008 0 0.0031213447336292553 -0.0035786240275107787 0 0.0025350633650329511 -0.0034103392913912224 0 0.0031600367323309322 -0.0036842424626269059 0 0.0031345752094879965 -0.0031940701304882012 0 0.0024724579799785922 -0.0029625903652970957 0 0.0023285399771787257 -0.003407494797431845 0 0.0029357006441601543 -0.0031816637316512152 0 0.0031883993945612059 -0.0039304865293080683 0 0.0031213447336292553 -0.0035786240275107787 0 0.003229768189098421 -0.0041457482479478449 0 0.0032331773122057168 -0.0040429860424265598 0 0.0033304611816020739 -0.0041052172485185811 0 0.0033214057069882378 -0.0040160911905949247 0 0.0032331773122057168 -0.0040429860424265598 0 0.0033304611816020739 -0.0041052172485185811 0 0.003229768189098421 -0.0041457482479478449 0 0.0033304611816020739 -0.0041052172485185811 0 0.0033124417217496919 -0.0041898021334373205 0 0.003229768189098421 -0.0041457482479478449 0 0.0033124417217496919 -0.0041898021334373205 0 0.0031679371537841308 -0.0042105011621092316 0 0.0033304611816020739 -0.0041052172485185811 0 0.0033124417217496919 -0.0041898021334373205 0 0.0034160928088578964 -0.0041663652379598896 0 0.0033124417217496919 -0.0041898021334373205 0 0.0034160928088578964 -0.0041663652379598896 0 0.0034509522273925021 -0.0042668420012414408 0 0.0034160928088578964 -0.0041663652379598896 0 0.0034509522273925021 -0.0042668420012414408 0 0.0035152448930302568 -0.0041963280569393586 0 0.0034597634486078096 -0.0040458585100643825 0 0.0033304611816020739 -0.0041052172485185811 0 0.0034904542973022297 -0.0041119417656721585 0 0.0034160928088578964 -0.0041663652379598896 0 0.0034904542973022297 -0.0041119417656721585 0 0.0035152448930302568 -0.0041963280569393586 0 0.0033304611816020739 -0.0041052172485185811 0 0.0034160928088578964 -0.0041663652379598896 0 0.0034904542973022297 -0.0041119417656721585 0 0.00077794563015896152 -0.0028075182305164321 0 0.0012851896124420504 -0.0024863415172113341 0 0.0011856976252912557 -0.0029966931112495104 0 0.00077794563015896152 -0.0028075182305164321 0 0.0011856976252912557 -0.0029966931112495104 0 0.00066288897693625372 -0.0031728286090918394 0 0.00077794563015896152 -0.0028075182305164321 0 0.000419096133561301 -0.0028183569617702422 0 0.00066288897693625372 -0.0031728286090918394 0 0.00020107383038945036 -0.0030166243153414568 0 0.000419096133561301 -0.0028183569617702422 0 0.00066288897693625372 -0.0031728286090918394 0 0.00020107383038945036 -0.0030166243153414568 0 0.000419096133561301 -0.0028183569617702422 0 -2.725069577694361e-05 -0.0027273294068550159 0 0.00077794563015896152 -0.0028075182305164321 0 0.000419096133561301 -0.0028183569617702422 0 0.00041374921843033224 -0.0023798893012966834 0 0.000419096133561301 -0.0028183569617702422 0 0.00041374921843033224 -0.0023798893012966834 0 -2.725069577694361e-05 -0.0027273294068550159 0 0.00078810268906257691 -0.0039290613694644089 0 -8.6020057636333534e-06 -0.0027063190460180713 0 8.2463538299904434e-05 -0.0025916796035561438 0 0.00024084102420502865 -0.0025254605870134277 0 -0.00013163345458402955 -0.0028142844269372583 0 0.00057822127611790769 -0.0035042975060874735 0 0.00078810268906257691 -0.0039290613694644089 0 0.0009193395933894691 -0.0056389797249504535 0 0.00096218420234591741 -0.0057503721791059611 0 0.00077176104185988734 -0.0056254756320496717 0 0.00078810268906257691 -0.0039290613694644089 0 0.0014546908072474599 -0.0033006810306245153 0 0.0016061391058003001 -0.0040802361851226109 0 0.0012497641886655148 -0.0042305515531980611 0 0.0016037903645738465 -0.0042680841321517055 0 0.0017529564976344137 -0.0047441439656698203 0 0.00078810268906257691 -0.0039290613694644089 0 0.00077794563015896152 -0.0028075182305164321 0 0.00041374921843033224 -0.0023798893012966834 0 0.0012851896124420504 -0.0024863415172113341 0 0.0016890136298108956 -0.0041146817956046163 0 0.0016037903645738465 -0.0042680841321517055 0 0.0018293216744614408 -0.0041885047203444022 0 0.0019530564161420712 -0.0043002262056097843 0 0.0016037903645738465 -0.0042680841321517055 0 0.0018293216744614408 -0.0041885047203444022 0 0.0019919061322869647 -0.0034270303984773459 0 0.0014546908072474599 -0.0033006810306245153 0 0.0019969849597971257 -0.0041163089156629187 0 0.0019530564161420712 -0.0043002262056097843 0 0.0018293216744614408 -0.0041885047203444022 0 0.0021068470527940818 -0.0025921285167046309 0 0.0012851896124420504 -0.0024863415172113341 0 0.0018075319487253325 -0.0030478939140600476 0 0.0018075319487253325 -0.0030478939140600476 0 0.0011856976252912557 -0.0029966931112495104 0 0.0014638027786227008 -0.0033194938652920595 0 0.0012851896124420504 -0.0024863415172113341 0 0.0018075319487253325 -0.0030478939140600476 0 0.0011856976252912557 -0.0029966931112495104 0 0.001174285350644112 -0.0033206664804995129 0 0.0014638027786227008 -0.0033194938652920595 0 0.0012804369027566019 -0.003540779256948037 0 0.0011856976252912557 -0.0029966931112495104 0 0.001174285350644112 -0.0033206664804995129 0 0.0014638027786227008 -0.0033194938652920595 0 0.0014638027786227008 -0.0033194938652920595 0 0.0012804369027566019 -0.003540779256948037 0 0.0017127180393404385 -0.0036389657463641411 0 0.0024336426552147732 -0.0033763245080771008 0 0.0017991439804733991 -0.0036288308189147953 0 0.0023285399771787257 -0.003407494797431845 0 0.0018075319487253325 -0.0030478939140600476 0 0.0017127180393404385 -0.0036389657463641411 0 0.0025350633650329511 -0.0034103392913912224 0 0.0022190210148826574 -0.0038170194922686491 0 0.0019224065609534399 -0.0035964804473592443 0 0.0018075319487253325 -0.0030478939140600476 0 0.0014638027786227008 -0.0033194938652920595 0 0.0017127180393404385 -0.0036389657463641411 0 0.0022190210148826574 -0.0038170194922686491 0 0.0019224065609534399 -0.0035964804473592443 0 0.0019475952259549658 -0.0039321744402827921 0 0.0019224065609534399 -0.0035964804473592443 0 0.0019475952259549658 -0.0039321744402827921 0 0.0016172055305657446 -0.0038183774169115426 0 0.0025110854139030214 -0.0040140797324472984 0 0.0022190210148826574 -0.0038170194922686491 0 0.0021572893755478031 -0.0041383051754330467 0 0.0022190210148826574 -0.0038170194922686491 0 0.0019475952259549658 -0.0039321744402827921 0 0.0021572893755478031 -0.0041383051754330467 0 0.0012804369027566019 -0.003540779256948037 0 0.0017127180393404385 -0.0036389657463641411 0 0.0011127559131770461 -0.0038773185857653744 0 0.0019224065609534399 -0.0035964804473592443 0 0.0016172055305657446 -0.0038183774169115426 0 0.0011127559131770461 -0.0038773185857653744 0 0.0017991439804733991 -0.0036288308189147953 0 0.0011696631541418842 -0.0038568695873352661 0 0.0019475952259549658 -0.0039321744402827921 0 0.0016172055305657446 -0.0038183774169115426 0 0.0018647358759207578 -0.0042502822136727845 0 0.0016172055305657446 -0.0038183774169115426 0 0.0011127559131770461 -0.0038773185857653744 0 0.0012339223280935893 -0.004166772821221406 0 0.0011127559131770461 -0.0038773185857653744 0 0.00054205442040930528 -0.0036962265923396864 0 0.000702160926947144 -0.0042595133970534374 0 0.0011127559131770461 -0.0038773185857653744 0 0.00091909775958067908 -0.0035404503054718918 0 0.00054205442040930528 -0.0036962265923396864 0 0.0011127559131770461 -0.0038773185857653744 0 0.000702160926947144 -0.0042595133970534374 0 0.0012339223280935893 -0.004166772821221406 0 0.0012804369027566019 -0.003540779256948037 0 0.0011127559131770461 -0.0038773185857653744 0 0.00091909775958067908 -0.0035404503054718918 0 0.001174285350644112 -0.0033206664804995129 0 0.00091909775958067908 -0.0035404503054718918 0 0.00066288897693625372 -0.0031728286090918394 0 0.00091909775958067908 -0.0035404503054718918 0 0.00066288897693625372 -0.0031728286090918394 0 0.00054205442040930528 -0.0036962265923396864 0 0.0011856976252912557 -0.0029966931112495104 0 0.001174285350644112 -0.0033206664804995129 0 0.00066288897693625372 -0.0031728286090918394 0 0.001174285350644112 -0.0033206664804995129 0 0.0012804369027566019 -0.003540779256948037 0 0.00091909775958067908 -0.0035404503054718918 0 0.00066288897693625372 -0.0031728286090918394 0 0.00013906421691950796 -0.0033463763284288283 0 0.00054205442040930528 -0.0036962265923396864 0 0.00020107383038945036 -0.0030166243153414568 0 0.00066288897693625372 -0.0031728286090918394 0 0.00013906421691950796 -0.0033463763284288283 0 0.00013906421691950796 -0.0033463763284288283 0 0.00054205442040930528 -0.0036962265923396864 0 -6.2093452548722661e-05 -0.0038674346061301399 0 -0.00094270106533524264 -0.0031540315193298984 0 -0.00062006568405666889 -0.0033536796445728157 0 0.00054205442040930528 -0.0036962265923396864 0 -6.2093452548722661e-05 -0.0038674346061301399 0 0.000702160926947144 -0.0042595133970534374 0 -0.00094270106533524264 -0.0031540315193298984 0 -0.0014341335201447092 -0.002958883077653364 0 -0.0018943085873543582 -0.0024179518339363382 0 -0.002081332591530735 -0.0024343235545239471 0 -0.0020741025824098248 -0.0025091755231404513 0 -0.00078936121515896034 -0.003477492294885053 0 -0.00026604073820936006 -0.0033836862720951827 0 -0.00049461464932820849 -0.0031009359365291407 0 -0.00078936121515896034 -0.003477492294885053 0 -0.00049461464932820849 -0.0031009359365291407 0 -0.00093590921949489921 -0.0030620200416605859 0 -6.2093452548722661e-05 -0.0038674346061301399 0 -0.00078936121515896034 -0.003477492294885053 0 -0.00026604073820936006 -0.0033836862720951827 0 0.00013906421691950796 -0.0033463763284288283 0 -6.2093452548722661e-05 -0.0038674346061301399 0 -0.00026604073820936006 -0.0033836862720951827 0 -0.00026604073820936006 -0.0033836862720951827 0 -0.000101387545791795 -0.0031193691810907148 0 -0.00049461464932820849 -0.0031009359365291407 0 0.00020107383038945036 -0.0030166243153414568 0 0.00013906421691950796 -0.0033463763284288283 0 -0.000101387545791795 -0.0031193691810907148 0 0.00013906421691950796 -0.0033463763284288283 0 -0.00026604073820936006 -0.0033836862720951827 0 -0.000101387545791795 -0.0031193691810907148 0 0.00020107383038945036 -0.0030166243153414568 0 -0.000101387545791795 -0.0031193691810907148 0 -2.725069577694361e-05 -0.0027273294068550159 0 -0.00013163345458402955 -0.0028142844269372583 0 -0.00049461464932820849 -0.0031009359365291407 0 -0.00046030638487575242 -0.0027927905590711638 0 -8.6020057636333534e-06 -0.0027063190460180713 0 -0.00047480378008343533 -0.0030876085034234903 0 -0.000101387545791795 -0.0031193691810907148 0 -2.725069577694361e-05 -0.0027273294068550159 0 -0.00049461464932820849 -0.0031009359365291407 0 -0.00049461464932820849 -0.0031009359365291407 0 -0.0007843594992690496 -0.0028133209829839662 0 -0.00093590921949489921 -0.0030620200416605859 0 -0.00049461464932820849 -0.0031009359365291407 0 -0.0007843594992690496 -0.0028133209829839662 0 -0.00046030638487575242 -0.0027927905590711638 0 -0.00043735798864356966 -0.0024369888964302748 0 -0.0011516379692298813 -0.0024055356837759277 0 -0.00098755663261686829 -0.0026028148699033375 0 -0.0007843594992690496 -0.0028133209829839662 0 -0.00043735798864356966 -0.0024369888964302748 0 -0.00098755663261686829 -0.0026028148699033375 0 -0.0007843594992690496 -0.0028133209829839662 0 -0.00046030638487575242 -0.0027927905590711638 0 -0.00043735798864356966 -0.0024369888964302748 0 3.3830521253470291e-05 -0.0040928912503091705 0 -0.00042698876826635028 -0.0040330726497686967 0 8.2463538299904434e-05 -0.0025916796035561438 0 0.00024132485949582622 -0.0025234271867291482 0 -0.00043735798864356966 -0.0024369888964302748 0 8.2463538299904434e-05 -0.0025916796035561438 0 -0.00013163345458402955 -0.0028142844269372583 0 -0.00043735798864356966 -0.0024369888964302748 0 0.00096218420234591741 -0.0057503721791059611 0 0.0005859461921401334 -0.0057070880545347117 0 0.00077176104185988734 -0.0056254756320496717 0 0.00078810268906257691 -0.0039290613694644089 0 3.3830521253470291e-05 -0.0040928912503091705 0 -0.00013163345458402955 -0.0028142844269372583 0 -0.00046030638487575242 -0.0027927905590711638 0 -0.00043735798864356966 -0.0024369888964302748 0 -0.0012969568339867108 -0.0025066505386221122 0 -0.00159969804549936 -0.0025009916432688463 0 -0.0012487644627447306 -0.0025077718569228476 0 -0.0015942435062945121 -0.0027347272785811891 0 -0.0017795684022400733 -0.0025926415831711248 0 -0.00042698876826635028 -0.0040330726497686967 0 -0.00068294911549601647 -0.0040485370361452748 0 -0.0012487644627447306 -0.0025077718569228476 0 -0.0011516379692298813 -0.0024055356837759277 0 -0.0013798429453603159 -0.002514406900091355 0 -0.0012487644627447306 -0.0025077718569228476 0 -0.0013826605000002332 -0.0025272171394236198 0 -0.0013798429453603159 -0.002514406900091355 0 -0.0012487644627447306 -0.0025077718569228476 0 -0.0017795684022400733 -0.0025926415831711248 0 -0.001916592271502321 -0.0024269685607083971 0 -0.0012487644627447306 -0.0025077718569228476 0 -0.001165926555988682 -0.0028111601760228561 0 -0.0015942435062945121 -0.0027347272785811891 0 -0.0012487644627447306 -0.0025077718569228476 0 -0.0011516379692298813 -0.0024055356837759277 0 -0.00098755663261686829 -0.0026028148699033375 0 -0.0012487644627447306 -0.0025077718569228476 0 -0.00098755663261686829 -0.0026028148699033375 0 -0.001165926555988682 -0.0028111601760228561 0 -0.001165926555988682 -0.0028111601760228561 0 -0.00093590921949489921 -0.0030620200416605859 0 -0.0014344829594648437 -0.0031184723647462885 0 -0.0007843594992690496 -0.0028133209829839662 0 -0.001165926555988682 -0.0028111601760228561 0 -0.00093590921949489921 -0.0030620200416605859 0 -0.0007843594992690496 -0.0028133209829839662 0 -0.00098755663261686829 -0.0026028148699033375 0 -0.001165926555988682 -0.0028111601760228561 0 -0.0014344829594648437 -0.0031184723647462885 0 -0.0015942435062945121 -0.0027347272785811891 0 -0.0020507492250607627 -0.0026686041798668252 0 -0.001165926555988682 -0.0028111601760228561 0 -0.0014344829594648437 -0.0031184723647462885 0 -0.0015942435062945121 -0.0027347272785811891 0 -0.0021596076581362565 -0.0025313932102157704 0 -0.0021435941584002373 -0.0024934413604145397 0 -0.002140452197616825 -0.0025220720868191914 0 -0.00078936121515896034 -0.003477492294885053 0 -0.00093590921949489921 -0.0030620200416605859 0 -0.0014344829594648437 -0.0031184723647462885 0 -0.002081332591530735 -0.0024343235545239471 0 -0.0021596076581362565 -0.0025313932102157704 0 -0.0021435941584002373 -0.0024934413604145397 0 -0.0014341335201447092 -0.002958883077653364 0 -0.0017865997319616168 -0.0028219286075747908 0 -0.0021157165111553877 -0.0024850719946495447 0 -0.0021435941584002373 -0.0024934413604145397 0 -0.0021644281031184642 -0.0025041297471851401 0 -0.002081332591530735 -0.0024343235545239471 0 -0.0021157165111553877 -0.0024850719946495447 0 -0.0021435941584002373 -0.0024934413604145397 0 -0.0021157165111553877 -0.0024850719946495447 0 -0.0021644281031184642 -0.0025041297471851401 0 -0.0020741025824098248 -0.0025091755231404513 0 -0.002081332591530735 -0.0024343235545239471 0 -0.0021157165111553877 -0.0024850719946495447 0 -0.0020741025824098248 -0.0025091755231404513 0 -0.0021435941584002373 -0.0024934413604145397 0 -0.002140452197616825 -0.0025220720868191914 0 -0.0021644281031184642 -0.0025041297471851401 0 -0.002140452197616825 -0.0025220720868191914 0 -0.0021609157225815725 -0.0025099716049584316 0 -0.0021644281031184642 -0.0025041297471851401 0 -0.0021221206495950591 -0.0025225427529776659 0 -0.002140452197616825 -0.0025220720868191914 0 -0.0021609157225815725 -0.0025099716049584316 0 -0.0021221206495950591 -0.0025225427529776659 0 -0.0021103081894276155 -0.0025562569555011177 0 -0.002073868830525591 -0.0026079958417116671 0 -0.0021125610067118067 -0.002598771805668905 0 -0.0020821446813693691 -0.002608085485483727 0 -0.0021221206495950591 -0.0025225427529776659 0 -0.0021103081894276155 -0.0025562569555011177 0 -0.002140452197616825 -0.0025220720868191914 0 -0.0020980614205672785 -0.002665505336730135 0 -0.0021025278347387133 -0.0026276665656700324 0 -0.002073868830525591 -0.0026079958417116671 0 -0.0021103081894276155 -0.0025562569555011177 0 -0.0021029655100773832 -0.0025723918965436378 0 -0.002073868830525591 -0.0026079958417116671 0 -0.0021596076581362565 -0.0025313932102157704 0 -0.0021029655100773832 -0.0025723918965436378 0 -0.002140452197616825 -0.0025220720868191914 0 -0.0021103081894276155 -0.0025562569555011177 0 -0.0021029655100773832 -0.0025723918965436378 0 -0.002140452197616825 -0.0025220720868191914 0 -0.0025696649313822176 -0.0030640447690829264 0 -0.0025514050817343043 -0.0028184979976720731 0 -0.0028577604347373806 -0.0033502700879591008 0 -0.0030406449956165774 -0.0033783616888357865 0 -0.0027917659350847413 -0.0030525296087169692 0 -0.0030406449956165774 -0.0033783616888357865 0 -0.0029521956259089717 -0.0029026744553648219 0 -0.0027917659350847413 -0.0030525296087169692 0 -0.0021256158633424001 -0.0026753139259598755 0 -0.0021464346721189131 -0.0026534225788107644 0 -0.0021398409977074436 -0.0027014305758867358 0 -0.0020980614205672785 -0.002665505336730135 0 -0.0021256158633424001 -0.0026753139259598755 0 -0.0021213590214342309 -0.0027055042791926309 0 -0.0021256158633424001 -0.0026753139259598755 0 -0.0021208784319458654 -0.0026448499995637654 0 -0.0021464346721189131 -0.0026534225788107644 0 -0.0020980614205672785 -0.002665505336730135 0 -0.0021256158633424001 -0.0026753139259598755 0 -0.0021208784319458654 -0.0026448499995637654 0 -0.0020980614205672785 -0.002665505336730135 0 -0.0021025278347387133 -0.0026276665656700324 0 -0.0021208784319458654 -0.0026448499995637654 0 -0.0021025278347387133 -0.0026276665656700324 0 -0.0021208784319458654 -0.0026448499995637654 0 -0.0021185216769727651 -0.0026185946472125137 0 -0.0021208784319458654 -0.0026448499995637654 0 -0.0021339231201335557 -0.0026323636497709662 0 -0.0021185216769727651 -0.0026185946472125137 0 -0.0021464346721189131 -0.0026534225788107644 0 -0.0021339231201335557 -0.0026323636497709662 0 -0.0021421644247950787 -0.0026002618154816279 0 -0.0030406449956165774 -0.0033783616888357865 0 -0.0029119675267404474 -0.0035344990049943396 0 -0.0031327201085891727 -0.0039519000757988467 0 -0.0025696649313822176 -0.0030640447690829264 0 -0.0027993024295701039 -0.0031046420792316845 0 -0.0021208784319458654 -0.0026448499995637654 0 -0.0021464346721189131 -0.0026534225788107644 0 -0.0021339231201335557 -0.0026323636497709662 0 -0.0028577604347373806 -0.0033502700879591008 0 -0.0030406449956165774 -0.0033783616888357865 0 -0.0029119675267404474 -0.0035344990049943396 0 -0.0021339231201335557 -0.0026323636497709662 0 -0.0021421644247950787 -0.0026002618154816279 0 -0.0021311964925439662 -0.0026129282862873784 0 -0.0028958972680095435 -0.0037193223264420242 0 -0.0029119675267404474 -0.0035344990049943396 0 -0.0031327201085891727 -0.0039519000757988467 0 -0.0021421644247950787 -0.0026002618154816279 0 -0.0021287357414668312 -0.0026015305276206016 0 -0.0021310682783989769 -0.0025939300386195641 0 -0.0021421644247950787 -0.0026002618154816279 0 -0.0021311964925439662 -0.0026129282862873784 0 -0.0021287357414668312 -0.0026015305276206016 0 -0.0021287357414668312 -0.0026015305276206016 0 -0.0021185216769727651 -0.0026185946472125137 0 -0.002116264187005102 -0.0026045659766460567 0 -0.0021287357414668312 -0.0026015305276206016 0 -0.002116264187005102 -0.0026045659766460567 0 -0.0021235017470986133 -0.0025952821390331548 0 -0.0021339231201335557 -0.0026323636497709662 0 -0.0021311964925439662 -0.0026129282862873784 0 -0.0021185216769727651 -0.0026185946472125137 0 -0.0021311964925439662 -0.0026129282862873784 0 -0.0021287357414668312 -0.0026015305276206016 0 -0.0021185216769727651 -0.0026185946472125137 0 -0.0021025278347387133 -0.0026276665656700324 0 -0.0021185216769727651 -0.0026185946472125137 0 -0.0020982049619331453 -0.0026104290476557726 0 -0.0021185216769727651 -0.0026185946472125137 0 -0.0020982049619331453 -0.0026104290476557726 0 -0.002116264187005102 -0.0026045659766460567 0 -0.0020982049619331453 -0.0026104290476557726 0 -0.0021152467787420642 -0.0025914125000984539 0 -0.0020973518148621781 -0.0026009163298500366 0 -0.0020982049619331453 -0.0026104290476557726 0 -0.002116264187005102 -0.0026045659766460567 0 -0.0021152467787420642 -0.0025914125000984539 0 -0.002116264187005102 -0.0026045659766460567 0 -0.0021152467787420642 -0.0025914125000984539 0 -0.0021235017470986133 -0.0025952821390331548 0 -0.0021152467787420642 -0.0025914125000984539 0 -0.0021167788644600462 -0.0025725188032997299 0 -0.0021225448281467305 -0.0025777940167958542 0 -0.0021152467787420642 -0.0025914125000984539 0 -0.0021225448281467305 -0.0025777940167958542 0 -0.0021258260551964511 -0.0025859750451655622 0 -0.0021152467787420642 -0.0025914125000984539 0 -0.0021167788644600462 -0.0025725188032997299 0 -0.0021056637913575934 -0.0025783120364956764 0 -0.0021167788644600462 -0.0025725188032997299 0 -0.0021235192550538118 -0.0025680538927910527 0 -0.0021144174062172807 -0.0025591245284672169 0 -0.0021235192550538118 -0.0025680538927910527 0 -0.0021144174062172807 -0.0025591245284672169 0 -0.0021225179940030292 -0.0025439734444437545 0 -0.0021167788644600462 -0.0025725188032997299 0 -0.0021235192550538118 -0.0025680538927910527 0 -0.0021225448281467305 -0.0025777940167958542 0 -0.0021235192550538118 -0.0025680538927910527 0 -0.0021225448281467305 -0.0025777940167958542 0 -0.0021254402637164906 -0.0025796679204101217 0 -0.0021225448281467305 -0.0025777940167958542 0 -0.0021254402637164906 -0.0025796679204101217 0 -0.0021258260551964511 -0.0025859750451655622 0 -0.0021254402637164906 -0.0025796679204101217 0 -0.0021258260551964511 -0.0025859750451655622 0 -0.0021275828808300702 -0.0025888813110737673 0 -0.0021152467787420642 -0.0025914125000984539 0 -0.0021258260551964511 -0.0025859750451655622 0 -0.0021235017470986133 -0.0025952821390331548 0 -0.0021258260551964511 -0.0025859750451655622 0 -0.0021235017470986133 -0.0025952821390331548 0 -0.0021310682783989769 -0.0025939300386195641 0 -0.0021287357414668312 -0.0026015305276206016 0 -0.0021235017470986133 -0.0025952821390331548 0 -0.0021310682783989769 -0.0025939300386195641 0 -0.0027993024295701039 -0.0031046420792316845 0 -0.0013157772555782354 -0.0046925169801622603 0 -0.0021421644247950787 -0.0026002618154816279 0 -0.0021304630228908611 -0.002596958878728291 0 -0.0021176509019905461 -0.0026018782718650133 0 -0.0021258260551964511 -0.0025859750451655622 0 -0.0021310682783989769 -0.0025939300386195641 0 -0.0021275828808300702 -0.0025888813110737673 0 -0.0021421644247950787 -0.0026002618154816279 0 -0.0021310682783989769 -0.0025939300386195641 0 -0.0021304630228908611 -0.002596958878728291 0 -0.0021310682783989769 -0.0025939300386195641 0 -0.0021275828808300702 -0.0025888813110737673 0 -0.0021304630228908611 -0.002596958878728291 0 -0.0021254402637164906 -0.0025796679204101217 0 -0.0021275828808300702 -0.0025888813110737673 0 -0.0021239113064829888 -0.0025970137176931666 0 -0.0021275828808300702 -0.0025888813110737673 0 -0.0021304630228908611 -0.002596958878728291 0 -0.002124958170206854 -0.002595961532217713 0 -0.0017865997319616168 -0.0028219286075747908 0 -0.0020308846015797276 -0.0026854440604846125 0 -0.0021596076581362565 -0.0025313932102157704 0 -0.0021029655100773832 -0.0025723918965436378 0 -0.0020507492250607627 -0.0026686041798668252 0 -0.0021029655100773832 -0.0025723918965436378 0 -0.0020507492250607627 -0.0026686041798668252 0 -0.002073868830525591 -0.0026079958417116671 0 -0.0021025278347387133 -0.0026276665656700324 0 -0.0020982049619331453 -0.0026104290476557726 0 -0.002073868830525591 -0.0026079958417116671 0 -0.0020982049619331453 -0.0026104290476557726 0 -0.002073868830525591 -0.0026079958417116671 0 -0.0020756452697190024 -0.0026210315121146595 0 -0.0020982049619331453 -0.0026104290476557726 0 -0.0020756452697190024 -0.0026210315121146595 0 -0.0020973518148621781 -0.0026009163298500366 0 -0.0020507492250607627 -0.0026686041798668252 0 -0.002073868830525591 -0.0026079958417116671 0 -0.0020756452697190024 -0.0026210315121146595 0 -0.0020507492250607627 -0.0026686041798668252 0 -0.0020756452697190024 -0.0026210315121146595 0 -0.0020530689264904676 -0.0026031084218295802 0 -0.00159969804549936 -0.0025009916432688463 0 -0.0018384586991919214 -0.0024800186122501218 0 -0.0020643628864555731 -0.0025397406233829589 0 -0.001916592271502321 -0.0024269685607083971 0 -0.0021225179940030292 -0.0025439734444437545 0 -0.0020756452697190024 -0.0026210315121146595 0 -0.0020530689264904676 -0.0026031084218295802 0 -0.0020795077209920217 -0.0025850758899947563 0 -0.0020795077209920217 -0.0025850758899947563 0 -0.0020279425931745902 -0.0025437250533201592 0 -0.0020643628864555731 -0.0025397406233829589 0 -0.0020530689264904676 -0.0026031084218295802 0 -0.0020795077209920217 -0.0025850758899947563 0 -0.0020279425931745902 -0.0025437250533201592 0 -0.0021152467787420642 -0.0025914125000984539 0 -0.0020973518148621781 -0.0026009163298500366 0 -0.0021056637913575934 -0.0025783120364956764 0 -0.0020795077209920217 -0.0025850758899947563 0 -0.0020973518148621781 -0.0026009163298500366 0 -0.0021056637913575934 -0.0025783120364956764 0 -0.0020756452697190024 -0.0026210315121146595 0 -0.0020795077209920217 -0.0025850758899947563 0 -0.0020973518148621781 -0.0026009163298500366 0 -0.0020795077209920217 -0.0025850758899947563 0 -0.0021056637913575934 -0.0025783120364956764 0 -0.0020972652821469712 -0.0025598618804894939 0 -0.0020972652821469712 -0.0025598618804894939 0 -0.0021036822102076446 -0.0025507694013032619 0 -0.0021144174062172807 -0.0025591245284672169 0 -0.0021167788644600462 -0.0025725188032997299 0 -0.0021056637913575934 -0.0025783120364956764 0 -0.0021144174062172807 -0.0025591245284672169 0 -0.0021056637913575934 -0.0025783120364956764 0 -0.0020972652821469712 -0.0025598618804894939 0 -0.0021144174062172807 -0.0025591245284672169 0 -0.0020972652821469712 -0.0025598618804894939 0 -0.0021036822102076446 -0.0025507694013032619 0 -0.0020643628864555731 -0.0025397406233829589 0 -0.0021036822102076446 -0.0025507694013032619 0 -0.0020643628864555731 -0.0025397406233829589 0 -0.0021225179940030292 -0.0025439734444437545 0 -0.0021036822102076446 -0.0025507694013032619 0 -0.0021144174062172807 -0.0025591245284672169 0 -0.0021225179940030292 -0.0025439734444437545 0 -0.0020795077209920217 -0.0025850758899947563 0 -0.0020972652821469712 -0.0025598618804894939 0 -0.0020643628864555731 -0.0025397406233829589 0 -0.0020279425931745902 -0.0025437250533201592 0 -0.00198541449105348 -0.0025602885514367261 0 -0.001916592271502321 -0.0024269685607083971 0 -0.0020279425931745902 -0.0025437250533201592 0 -0.0020643628864555731 -0.0025397406233829589 0 -0.001916592271502321 -0.0024269685607083971 0 -0.0015942435062945121 -0.0027347272785811891 0 -0.0020507492250607627 -0.0026686041798668252 0 -0.0017795684022400733 -0.0025926415831711248 0 -0.0020530689264904676 -0.0026031084218295802 0 -0.0020279425931745902 -0.0025437250533201592 0 -0.00198541449105348 -0.0025602885514367261 0 -0.0020507492250607627 -0.0026686041798668252 0 -0.0020530689264904676 -0.0026031084218295802 0 -0.00198541449105348 -0.0025602885514367261 0 -0.0020507492250607627 -0.0026686041798668252 0 -0.00198541449105348 -0.0025602885514367261 0 -0.0017795684022400733 -0.0025926415831711248 0 -0.00198541449105348 -0.0025602885514367261 0 -0.0017795684022400733 -0.0025926415831711248 0 -0.001916592271502321 -0.0024269685607083971 0 4.4327097742087005e-05 -0.0055933840952611443 0 2.5993809108130484e-05 -0.0055884100874190566 0 1.1026180116132864e-05 -0.0055946535160583746 0 4.4327097742087005e-05 -0.0055933840952611443 0 4.8450151947224522e-05 -0.0055769599497433988 0 3.5373973992051496e-05 -0.0055850441804379623 0 -0.00068294911549601647 -0.0040485370361452748 0 -0.00052687236238382386 -0.0041749211070212979 0 -0.0013826605000002332 -0.0025272171394236198 0 -0.0013798429453603159 -0.002514406900091355 0 -0.0013102865185205136 -0.0026340352188127013 0 4.8450151947224522e-05 -0.0055769599497433988 0 4.9767594626869905e-05 -0.0055641556351523477 0 3.5373973992051496e-05 -0.0055850441804379623 0 4.4327097742087005e-05 -0.0055933840952611443 0 4.8450151947224522e-05 -0.0055769599497433988 0 7.1009170624270244e-05 -0.0055633763138491638 0 4.8450151947224522e-05 -0.0055769599497433988 0 4.9767594626869905e-05 -0.0055641556351523477 0 7.1009170624270244e-05 -0.0055633763138491638 0 4.9767594626869905e-05 -0.0055641556351523477 0 5.815378246890349e-05 -0.0055544940186922215 0 7.0634220339197315e-05 -0.0055312943819064691 0 4.9767594626869905e-05 -0.0055641556351523477 0 7.0634220339197315e-05 -0.0055312943819064691 0 7.1009170624270244e-05 -0.0055633763138491638 0 4.9767594626869905e-05 -0.0055641556351523477 0 3.6975968753891333e-05 -0.0055738378201772402 0 5.815378246890349e-05 -0.0055544940186922215 0 4.9767594626869905e-05 -0.0055641556351523477 0 3.6975968753891333e-05 -0.0055738378201772402 0 3.5373973992051496e-05 -0.0055850441804379623 0 3.6975968753891333e-05 -0.0055738378201772402 0 3.5373973992051496e-05 -0.0055850441804379623 0 2.5993809108130484e-05 -0.0055884100874190566 0 4.4327097742087005e-05 -0.0055933840952611443 0 3.5373973992051496e-05 -0.0055850441804379623 0 2.5993809108130484e-05 -0.0055884100874190566 0 1.7732447201041358e-05 -0.0055895905226094004 0 2.5993809108130484e-05 -0.0055884100874190566 0 1.1026180116132864e-05 -0.0055946535160583746 0 -0.0013826605000002332 -0.0025272171394236198 0 -0.0012991881781470045 -0.0026272996034913064 0 -0.0013102865185205136 -0.0026340352188127013 0 1.7732447201041358e-05 -0.0055895905226094004 0 2.5993809108130484e-05 -0.0055884100874190566 0 2.188604807847527e-05 -0.0055848090988253026 0 1.7732447201041358e-05 -0.0055895905226094004 0 1.1026180116132864e-05 -0.0055946535160583746 0 1.326736310543614e-05 -0.0055884939994493609 0 1.1026180116132864e-05 -0.0055946535160583746 0 1.326736310543614e-05 -0.0055884939994493609 0 -5.2168150706664121e-06 -0.0055914032634035282 0 1.326736310543614e-05 -0.0055884939994493609 0 1.7381139794626648e-05 -0.0055807254392726061 0 -5.2168150706664121e-06 -0.0055914032634035282 0 1.7732447201041358e-05 -0.0055895905226094004 0 1.326736310543614e-05 -0.0055884939994493609 0 2.188604807847527e-05 -0.0055848090988253026 0 1.326736310543614e-05 -0.0055884939994493609 0 1.7381139794626648e-05 -0.0055807254392726061 0 2.188604807847527e-05 -0.0055848090988253026 0 3.6975968753891333e-05 -0.0055738378201772402 0 1.7381139794626648e-05 -0.0055807254392726061 0 2.188604807847527e-05 -0.0055848090988253026 0 3.6975968753891333e-05 -0.0055738378201772402 0 2.5993809108130484e-05 -0.0055884100874190566 0 2.188604807847527e-05 -0.0055848090988253026 0 3.968680550903677e-05 -0.0055683964078675815 0 1.0258856481893551e-05 -0.0055720577014207922 0 6.1103798567135095e-05 -0.0055624830394468703 0 3.6975968753891333e-05 -0.0055738378201772402 0 1.7381139794626648e-05 -0.0055807254392726061 0 3.968680550903677e-05 -0.0055683964078675815 0 1.7381139794626648e-05 -0.0055807254392726061 0 3.968680550903677e-05 -0.0055683964078675815 0 1.0258856481893551e-05 -0.0055720577014207922 0 5.815378246890349e-05 -0.0055544940186922215 0 7.3980530983770997e-05 -0.0055530117444684661 0 7.0634220339197315e-05 -0.0055312943819064691 0 5.815378246890349e-05 -0.0055544940186922215 0 6.1103798567135095e-05 -0.0055624830394468703 0 7.3980530983770997e-05 -0.0055530117444684661 0 3.968680550903677e-05 -0.0055683964078675815 0 5.815378246890349e-05 -0.0055544940186922215 0 6.1103798567135095e-05 -0.0055624830394468703 0 3.6975968753891333e-05 -0.0055738378201772402 0 3.968680550903677e-05 -0.0055683964078675815 0 5.815378246890349e-05 -0.0055544940186922215 0 -7.5811960918544696e-05 -0.0056036098334761829 0 -5.4035190549819244e-05 -0.0056065679320470903 0 -5.8086500600049274e-05 -0.0055865375411688709 0 -0.0021304630228908611 -0.002596958878728291 0 -0.0021176509019905461 -0.0026018782718650133 0 -0.002124958170206854 -0.002595961532217713 0 -0.0013157772555782354 -0.0046925169801622603 0 -0.0011090623511433833 -0.0036675510768077266 0 -0.0021176509019905461 -0.0026018782718650133 0 -0.0021239113064829888 -0.0025970137176931666 0 -0.002124958170206854 -0.002595961532217713 0 -0.0021275828808300702 -0.0025888813110737673 0 -0.0021239113064829888 -0.0025970137176931666 0 -0.002124958170206854 -0.002595961532217713 0 -5.4035190549819244e-05 -0.0056065679320470903 0 -3.8683264844038995e-05 -0.0055900856690735768 0 -5.8086500600049274e-05 -0.0055865375411688709 0 -0.0012991881781470045 -0.0026272996034913064 0 -0.0013102865185205136 -0.0026340352188127013 0 -0.0011320149226829994 -0.0027647037682038485 0 -0.0021235192550538118 -0.0025680538927910527 0 -0.0021225179940030292 -0.0025439734444437545 0 -0.0021239113064829888 -0.0025970137176931666 0 -0.00052687236238382386 -0.0041749211070212979 0 -0.0011090623511433833 -0.0036675510768077266 0 -0.0018384586991919214 -0.0024800186122501218 0 -0.0011090623511433833 -0.0036675510768077266 0 1.1026180116132864e-05 -0.0055946535160583746 0 -5.4035190549819244e-05 -0.0056065679320470903 0 -5.2168150706664121e-06 -0.0055914032634035282 0 -5.4035190549819244e-05 -0.0056065679320470903 0 -5.2168150706664121e-06 -0.0055914032634035282 0 -1.5486310402279669e-05 -0.0055870786963111889 0 -5.4035190549819244e-05 -0.0056065679320470903 0 -1.5486310402279669e-05 -0.0055870786963111889 0 -3.8683264844038995e-05 -0.0055900856690735768 0 -0.0021235192550538118 -0.0025680538927910527 0 -0.0021254402637164906 -0.0025796679204101217 0 -0.0021239113064829888 -0.0025970137176931666 0 1.7381139794626648e-05 -0.0055807254392726061 0 -5.2168150706664121e-06 -0.0055914032634035282 0 -1.5486310402279669e-05 -0.0055870786963111889 0 1.0258856481893551e-05 -0.0055720577014207922 0 -2.8557873591808631e-05 -0.0055806831073315346 0 -4.1175194584868168e-05 -0.0055648429843288697 0 -1.5486310402279669e-05 -0.0055870786963111889 0 1.0258856481893551e-05 -0.0055720577014207922 0 -2.8557873591808631e-05 -0.0055806831073315346 0 1.7381139794626648e-05 -0.0055807254392726061 0 -1.5486310402279669e-05 -0.0055870786963111889 0 1.0258856481893551e-05 -0.0055720577014207922 0 -1.5486310402279669e-05 -0.0055870786963111889 0 -3.8683264844038995e-05 -0.0055900856690735768 0 -2.8557873591808631e-05 -0.0055806831073315346 0 -9.1307876590331272e-05 -0.0055760892167592974 0 -7.5811960918544696e-05 -0.0056036098334761829 0 -5.8086500600049274e-05 -0.0055865375411688709 0 -9.1307876590331272e-05 -0.0055760892167592974 0 -5.8086500600049274e-05 -0.0055865375411688709 0 -4.1175194584868168e-05 -0.0055648429843288697 0 -3.8683264844038995e-05 -0.0055900856690735768 0 -2.8557873591808631e-05 -0.0055806831073315346 0 -5.8086500600049274e-05 -0.0055865375411688709 0 -2.8557873591808631e-05 -0.0055806831073315346 0 -5.8086500600049274e-05 -0.0055865375411688709 0 -4.1175194584868168e-05 -0.0055648429843288697 0 -0.00013848283476116462 -0.0055317046400126238 0 -9.1307876590331272e-05 -0.0055760892167592974 0 -4.1175194584868168e-05 -0.0055648429843288697 0 -4.1175194584868168e-05 -0.0055648429843288697 0 -2.5606131053929344e-05 -0.0055135575361961366 0 2.8560963540498241e-05 -0.0055509546040354027 0 1.0258856481893551e-05 -0.0055720577014207922 0 -4.1175194584868168e-05 -0.0055648429843288697 0 2.8560963540498241e-05 -0.0055509546040354027 0 -5.456218013029904e-06 -0.0054519704312531274 0 -2.5606131053929344e-05 -0.0055135575361961366 0 4.9316970432724027e-05 -0.0055021639580623794 0 -2.5606131053929344e-05 -0.0055135575361961366 0 2.8560963540498241e-05 -0.0055509546040354027 0 4.9316970432724027e-05 -0.0055021639580623794 0 -0.00013848283476116462 -0.0055317046400126238 0 -4.1175194584868168e-05 -0.0055648429843288697 0 -2.5606131053929344e-05 -0.0055135575361961366 0 -0.00013848283476116462 -0.0055317046400126238 0 -9.6058881612689489e-05 -0.0054705971650386934 0 -2.5606131053929344e-05 -0.0055135575361961366 0 6.1103798567135095e-05 -0.0055624830394468703 0 9.4065637184060738e-05 -0.0055685031956733133 0 7.3980530983770997e-05 -0.0055530117444684661 0 6.1103798567135095e-05 -0.0055624830394468703 0 2.8560963540498241e-05 -0.0055509546040354027 0 9.4065637184060738e-05 -0.0055685031956733133 0 1.0258856481893551e-05 -0.0055720577014207922 0 6.1103798567135095e-05 -0.0055624830394468703 0 2.8560963540498241e-05 -0.0055509546040354027 0 2.8560963540498241e-05 -0.0055509546040354027 0 4.9316970432724027e-05 -0.0055021639580623794 0 9.4065637184060738e-05 -0.0055685031956733133 0 0.00013381663941562893 -0.0054769620574168119 0 4.9316970432724027e-05 -0.0055021639580623794 0 9.4065637184060738e-05 -0.0055685031956733133 0 0.00013381663941562893 -0.0054769620574168119 0 0.00023241701458088046 -0.0055122223664563633 0 9.4065637184060738e-05 -0.0055685031956733133 0 0.00039538074553560566 -0.0055062306815527448 0 0.00023241701458088046 -0.0055122223664563633 0 0.00029198613634633271 -0.0056458567525804297 0 0.00010523697284403368 -0.0055767027009101487 0 0.00019804027282718095 -0.005592989449274062 0 0.00023241701458088046 -0.0055122223664563633 0 9.4065637184060738e-05 -0.0055685031956733133 0 0.00029198613634633271 -0.0056458567525804297 0 9.4065637184060738e-05 -0.0055685031956733133 0 7.7050742274406886e-05 -0.0055483151872728629 0 7.3980530983770997e-05 -0.0055530117444684661 0 7.3980530983770997e-05 -0.0055530117444684661 0 8.8273224604471279e-05 -0.0055481378136058839 0 8.0304727871484855e-05 -0.0055552694595849723 0 7.7050742274406886e-05 -0.0055483151872728629 0 7.3980530983770997e-05 -0.0055530117444684661 0 8.8273224604471279e-05 -0.0055481378136058839 0 0.00028258519645478134 -0.0052748358926428558 0 0.00016132680199378195 -0.0054225046441063549 0 8.8273224604471279e-05 -0.0055481378136058839 0 0.00012018695692636714 -0.0055523467258453488 0 8.0304727871484855e-05 -0.0055552694595849723 0 0.00039538074553560566 -0.0055062306815527448 0 0.00029198613634633271 -0.0056458567525804297 0 0.00053188727675111214 -0.0056960136192822954 0 0.00019804027282718095 -0.005592989449274062 0 0.0002921925710917025 -0.005621792583396068 0 7.7050742274406886e-05 -0.0055483151872728629 0 8.8273224604471279e-05 -0.0055481378136058839 0 0.00010800869808898626 -0.0055239936355569339 0 0.00010800869808898626 -0.0055239936355569339 0 0.00018656890486232178 -0.0055108571857591607 0 0.00012018695692636714 -0.0055523467258453488 0 0.0002921925710917025 -0.005621792583396068 0 0.00067170619000202529 -0.0054802335892856924 0 0.00065654617873638858 -0.00549198796777111 0 0.00053188727675111214 -0.0056960136192822954 0 0.00083503091123755206 -0.0057197551745822887 0 0.00067170619000202529 -0.0054802335892856924 0 0.00028258519645478134 -0.0052748358926428558 0 0.00095979017485669984 -0.0049777338723709244 0 0.0007285630592878253 -0.0048255804183981593 0 0.00071553468425770094 -0.0050903587945998205 0 0.0007285630592878253 -0.0048255804183981593 0 0.00071553468425770094 -0.0050903587945998205 0 0.00046565146458119744 -0.0050499663638367718 0 0.00071553468425770094 -0.0050903587945998205 0 0.00056124542528502707 -0.0052004964566786513 0 0.00071381349893978271 -0.0052606852179195992 0 0.00089495653602896799 -0.005155583725818055 0 0.00071553468425770094 -0.0050903587945998205 0 0.00071381349893978271 -0.0052606852179195992 0 0.00071553468425770094 -0.0050903587945998205 0 0.00046565146458119744 -0.0050499663638367718 0 0.00056124542528502707 -0.0052004964566786513 0 0.00046565146458119744 -0.0050499663638367718 0 0.00042968263329797127 -0.0052767616272316664 0 0.00022879021064522098 -0.0052855282912829434 0 8.8273224604471279e-05 -0.0055481378136058839 0 0.00010800869808898626 -0.0055239936355569339 0 0.00012018695692636714 -0.0055523467258453488 0 0.00046565146458119744 -0.0050499663638367718 0 0.00056124542528502707 -0.0052004964566786513 0 0.00042968263329797127 -0.0052767616272316664 0 0.00056124542528502707 -0.0052004964566786513 0 0.00042968263329797127 -0.0052767616272316664 0 0.00053248356309927092 -0.0053901865074997522 0 0.00042968263329797127 -0.0052767616272316664 0 0.00053248356309927092 -0.0053901865074997522 0 0.00037407151771918958 -0.0054295192737223484 0 0.00089495653602896799 -0.005155583725818055 0 0.00087265639909008962 -0.0053057387078619088 0 0.00071381349893978271 -0.0052606852179195992 0 0.00056124542528502707 -0.0052004964566786513 0 0.00053248356309927092 -0.0053901865074997522 0 0.00071381349893978271 -0.0052606852179195992 0 0.00053248356309927092 -0.0053901865074997522 0 0.00071381349893978271 -0.0052606852179195992 0 0.00071564208114297911 -0.0054114378050554969 0 0.00087265639909008962 -0.0053057387078619088 0 0.00071381349893978271 -0.0052606852179195992 0 0.00071564208114297911 -0.0054114378050554969 0 0.00087265639909008962 -0.0053057387078619088 0 0.00071564208114297911 -0.0054114378050554969 0 0.00082770758675135866 -0.0054366171120938502 0 0.00086715982928331253 -0.0055314528705603175 0 0.00082770758675135866 -0.0054366171120938502 0 0.00076141886522269463 -0.0055083295487194511 0 0.00071564208114297911 -0.0054114378050554969 0 0.00082770758675135866 -0.0054366171120938502 0 0.00076141886522269463 -0.0055083295487194511 0 0.00071564208114297911 -0.0054114378050554969 0 0.00076141886522269463 -0.0055083295487194511 0 0.00062637333421806192 -0.0055363386314775205 0 0.00053248356309927092 -0.0053901865074997522 0 0.00071564208114297911 -0.0054114378050554969 0 0.00062637333421806192 -0.0055363386314775205 0 0.0005859461921401334 -0.0057070880545347117 0 0.00062637333421806192 -0.0055363386314775205 0 0.00077176104185988734 -0.0056254756320496717 0 0.00076141886522269463 -0.0055083295487194511 0 0.00062637333421806192 -0.0055363386314775205 0 0.00077176104185988734 -0.0056254756320496717 0 0.00086715982928331253 -0.0055314528705603175 0 0.00076141886522269463 -0.0055083295487194511 0 0.00077176104185988734 -0.0056254756320496717 0 0.0005859461921401334 -0.0057070880545347117 0 0.00024070433862346819 -0.0056518875736493463 0 0.00041430232523166985 -0.0055631143967717379 0 0.00053248356309927092 -0.0053901865074997522 0 0.00041430232523166985 -0.0055631143967717379 0 0.00037407151771918958 -0.0054295192737223484 0 0.00053248356309927092 -0.0053901865074997522 0 0.00062637333421806192 -0.0055363386314775205 0 0.00041430232523166985 -0.0055631143967717379 0 0.0005859461921401334 -0.0057070880545347117 0 0.00062637333421806192 -0.0055363386314775205 0 0.00041430232523166985 -0.0055631143967717379 0 0.00024070433862346819 -0.0056518875736493463 0 0.00041430232523166985 -0.0055631143967717379 0 0.00029799912405948059 -0.0055400610063659483 0 0.00041430232523166985 -0.0055631143967717379 0 0.00029799912405948059 -0.0055400610063659483 0 0.00037407151771918958 -0.0054295192737223484 0 0.00029799912405948059 -0.0055400610063659483 0 0.00025257549826607662 -0.0054821490422618784 0 0.00037407151771918958 -0.0054295192737223484 0 0.00025257549826607662 -0.0054821490422618784 0 0.00021392804538748763 -0.0055616689696345112 0 0.0001556205195737951 -0.0055143401984722954 0 0.00029799912405948059 -0.0055400610063659483 0 0.00025257549826607662 -0.0054821490422618784 0 0.00021392804538748763 -0.0055616689696345112 0 0.00024070433862346819 -0.0056518875736493463 0 0.00021392804538748763 -0.0055616689696345112 0 0.0001422044357496344 -0.0055823685669048034 0 0.00024070433862346819 -0.0056518875736493463 0 0.00029799912405948059 -0.0055400610063659483 0 0.00021392804538748763 -0.0055616689696345112 0 0.00024070433862346819 -0.0056518875736493463 0 4.4327097742087005e-05 -0.0055933840952611443 0 0.0001422044357496344 -0.0055823685669048034 0 4.4327097742087005e-05 -0.0055933840952611443 0 0.0001422044357496344 -0.0055823685669048034 0 7.1009170624270244e-05 -0.0055633763138491638 0 7.0634220339197315e-05 -0.0055312943819064691 0 7.1009170624270244e-05 -0.0055633763138491638 0 0.0001556205195737951 -0.0055143401984722954 0 0.00021392804538748763 -0.0055616689696345112 0 0.0001422044357496344 -0.0055823685669048034 0 0.0001556205195737951 -0.0055143401984722954 0 0.0001422044357496344 -0.0055823685669048034 0 7.1009170624270244e-05 -0.0055633763138491638 0 0.0001556205195737951 -0.0055143401984722954 0 7.3980530983770997e-05 -0.0055530117444684661 0 7.0634220339197315e-05 -0.0055312943819064691 0 8.0304727871484855e-05 -0.0055552694595849723 0 7.8908079073334547e-05 -0.0055129268029121313 0 0.00016132680199378195 -0.0054225046441063549 0 7.0634220339197315e-05 -0.0055312943819064691 0 0.0001556205195737951 -0.0055143401984722954 0 0.00022879021064522098 -0.0052855282912829434 0 0.00042968263329797127 -0.0052767616272316664 0 0.00022879021064522098 -0.0052855282912829434 0 0.00037407151771918958 -0.0054295192737223484 0 0.00025257549826607662 -0.0054821490422618784 0 0.00022879021064522098 -0.0052855282912829434 0 0.00037407151771918958 -0.0054295192737223484 0 0.00025257549826607662 -0.0054821490422618784 0 0.0001556205195737951 -0.0055143401984722954 0 0.00022879021064522098 -0.0052855282912829434 0 0.0049999717635772168 -0.0039290179821150264 0 0.0051158385340743301 -0.0040265619790024205 0 0.0050768156767659143 -0.0041069742735726873 0 0.0049999717635772168 -0.0039290179821150264 0 0.0050815297820267884 -0.0038872605956955806 0 0.0051158385340743301 -0.0040265619790024205 0 0.0049999717635772168 -0.0039290179821150264 0 0.0050815297820267884 -0.0038872605956955806 0 0.0049999078462328412 -0.0036451221635118575 0 0.0050815297820267884 -0.0038872605956955806 0 0.0051158385340743301 -0.0040265619790024205 0 0.0051092600302773562 -0.0039659563267194584 0 0.0050634783642868834 -0.0040647289810962859 0 0.0051158385340743301 -0.0040265619790024205 0 0.0051092600302773562 -0.0039659563267194584 0 0.0050634783642868834 -0.0040647289810962859 0 0.005084434024207391 -0.004046893722629682 0 0.0051092600302773562 -0.0039659563267194584 0 0.0049795688671654412 -0.0041153731452003642 0 0.0048578615922173444 -0.0041875916887985608 0 0.0050027589688615539 -0.0041216355274075892 0 0.0050634783642868834 -0.0040647289810962859 0 0.005084434024207391 -0.004046893722629682 0 0.0050027589688615539 -0.0041216355274075892 0 0.0050634783642868834 -0.0040647289810962859 0 0.0049795688671654412 -0.0041153731452003642 0 0.0050027589688615539 -0.0041216355274075892 0 0.0050634783642868834 -0.0040647289810962859 0 0.0049795688671654412 -0.0041153731452003642 0 0.0050447695593037059 -0.0040831118416804939 0 0.0049795688671654412 -0.0041153731452003642 0 0.0050447695593037059 -0.0040831118416804939 0 0.0048977683446370665 -0.0041265723150605048 0 0.0050447695593037059 -0.0040831118416804939 0 0.0049675114431108943 -0.0040619967307149035 0 0.0048977683446370665 -0.0041265723150605048 0 0.0050447695593037059 -0.0040831118416804939 0 0.0051158385340743301 -0.0040265619790024205 0 0.0051401397161528958 -0.0040830471961758857 0 0.0050634783642868834 -0.0040647289810962859 0 0.0050447695593037059 -0.0040831118416804939 0 0.0051158385340743301 -0.0040265619790024205 0 0.0051401397161528958 -0.0040830471961758857 0 0.0049675114431108943 -0.0040619967307149035 0 0.0049733846297852005 -0.0039199091661787809 0 0.0050447695593037059 -0.0040831118416804939 0 0.0051401397161528958 -0.0040830471961758857 0 0.0049675114431108943 -0.0040619967307149035 0 0.0049675114431108943 -0.0040619967307149035 0 0.0049733846297852005 -0.0039199091661787809 0 0.0048349607014233388 -0.0039966886623916172 0 0.0051427343823481362 -0.0041280274815313784 0 0.0051847563239822477 -0.0040248039654250892 0 0.0051401397161528958 -0.0040830471961758857 0 0.0049733846297852005 -0.0039199091661787809 0 0.0051235712892099671 -0.0038722405924100107 0 0.0051401397161528958 -0.0040830471961758857 0 0.0052092210032875438 -0.0043606326940349308 0 0.0050717773024756673 -0.0043222945472390873 0 0.0051401397161528958 -0.0040830471961758857 0 0.0050717773024756673 -0.0043222945472390873 0 0.0050768156767659143 -0.0041069742735726873 0 0.0051158385340743301 -0.0040265619790024205 0 0.0051401397161528958 -0.0040830471961758857 0 0.0050768156767659143 -0.0041069742735726873 0 0.0049999717635772168 -0.0039290179821150264 0 0.0050768156767659143 -0.0041069742735726873 0 0.004999907003260801 -0.0042129111122534667 0 0.0050717773024756673 -0.0043222945472390873 0 0.0050768156767659143 -0.0041069742735726873 0 0.004999907003260801 -0.0042129111122534667 0 0.0050717773024756673 -0.0043222945472390873 0 0.004999907003260801 -0.0042129111122534667 0 0.0049998945151710755 -0.0044971005467425943 0 0.0050717773024756673 -0.0043222945472390873 0 0.0049998945151710755 -0.0044971005467425943 0 0.0050368760136882832 -0.0045471361328396727 0 0.0050717773024756673 -0.0043222945472390873 0 0.0051022226669958804 -0.0045150058265611128 0 0.0050368760136882832 -0.0045471361328396727 0 0.0052092210032875438 -0.0043606326940349308 0 0.0050717773024756673 -0.0043222945472390873 0 0.0051022226669958804 -0.0045150058265611128 0 0.0050368760136882832 -0.0045471361328396727 0 0.005028676418741859 -0.004664674539566426 0 0.0049824617480326129 -0.0047358730688147645 0 0.0051022226669958804 -0.0045150058265611128 0 0.0050631860254011013 -0.0045881178733780757 0 0.0050368760136882832 -0.0045471361328396727 0 0.0050631860254011013 -0.0045881178733780757 0 0.005028676418741859 -0.004664674539566426 0 0.0050894625469324623 -0.0046525906024179721 0 0.0051022226669958804 -0.0045150058265611128 0 0.0050631860254011013 -0.0045881178733780757 0 0.0050894625469324623 -0.0046525906024179721 0 0.0050631860254011013 -0.0045881178733780757 0 0.0050368760136882832 -0.0045471361328396727 0 0.005028676418741859 -0.004664674539566426 0 0.005028676418741859 -0.004664674539566426 0 0.0049970534297572762 -0.0047435707978238173 0 0.0050894625469324623 -0.0046525906024179721 0 0.005028676418741859 -0.004664674539566426 0 0.0049824617480326129 -0.0047358730688147645 0 0.0049970534297572762 -0.0047435707978238173 0 0.0049998945151710755 -0.0044971005467425943 0 0.00499975625274431 -0.0047809086561127409 0 0.0049824617480326129 -0.0047358730688147645 0 0.0049998945151710755 -0.0044971005467425943 0 0.0050368760136882832 -0.0045471361328396727 0 0.0049824617480326129 -0.0047358730688147645 0 0.00499975625274431 -0.0047809086561127409 0 0.0049824617480326129 -0.0047358730688147645 0 0.0049076300184497578 -0.0048343777762249861 0 0.0049999291977354376 -0.0047810925147346627 0 0.00490211199546984 -0.0049156484106919751 0 0.0049824617480326129 -0.0047358730688147645 0 0.0049970534297572762 -0.0047435707978238173 0 0.00485299483711173 -0.0048842002447112972 0 0.0049824617480326129 -0.0047358730688147645 0 0.00485299483711173 -0.0048842002447112972 0 0.0049076300184497578 -0.0048343777762249861 0 0.00485299483711173 -0.0048842002447112972 0 0.0046985390695139231 -0.0049996280930360501 0 0.0049076300184497578 -0.0048343777762249861 0 0.0046986844784737067 -0.0049999574888863838 0 0.00490211199546984 -0.0049156484106919751 0 0.0049999123635584468 -0.0047814202222260342 0 0.0049999156103593782 -0.004999821512329531 0 0.0049121190998598048 -0.0049967619790592822 0 0.0046988224813132749 -0.0049999726625361693 0 0.0049999156103593782 -0.004999821512329531 0 0.0049121190998598048 -0.0049967619790592822 0 0.0044781731914489064 -0.0051284590502486457 0 0.004355851241760144 -0.0051950991121290195 0 0.0043296823215247821 -0.0049999879399348617 0 0.0044781731914489064 -0.0051284590502486457 0 0.004608323449524639 -0.0049999986714205549 0 0.0043296823215247821 -0.0049999879399348617 0 0.00485299483711173 -0.0048842002447112972 0 0.0046088564960876316 -0.0050001294821784949 0 0.0049607316632635538 -0.0048364642335814818 0 0.0044781731914489064 -0.0051284590502486457 0 0.004608323449524639 -0.0049999986714205549 0 0.0045946580074175333 -0.0051765132744147051 0 0.0046084369507584733 -0.0049998548586507536 0 0.0047647337931092737 -0.0050582248733318956 0 0.00485299483711173 -0.0048842002447112972 0 0.0046985390695139231 -0.0049996280930360501 0 0.0046088564960876316 -0.0050001294821784949 0 0.0049970534297572762 -0.0047435707978238173 0 0.00485299483711173 -0.0048842002447112972 0 0.0049607316632635538 -0.0048364642335814818 0 0.0045946580074175333 -0.0051765132744147051 0 0.0044960394859096236 -0.0052520832569812256 0 0.004591681990149807 -0.0053364169334943323 0 0.0049970534297572762 -0.0047435707978238173 0 0.0049607316632635538 -0.0048364642335814818 0 0.0051162862507246505 -0.0046550966158992327 0 0.0047647337931092737 -0.0050582248733318956 0 0.0048645589250121083 -0.0045819728059124896 0 0.0044960394859096236 -0.0052520832569812256 0 0.0044148088748022724 -0.0053425809356665802 0 0.004355851241760144 -0.0051950991121290195 0 0.0044781731914489064 -0.0051284590502486457 0 0.0045946580074175333 -0.0051765132744147051 0 0.0044960394859096236 -0.0052520832569812256 0 0.0044781731914489064 -0.0051284590502486457 0 0.0044960394859096236 -0.0052520832569812256 0 0.004355851241760144 -0.0051950991121290195 0 0.0049387547049052991 -0.0036861847106987814 0 0.0051109960183738012 -0.0036818539825117275 0 0.0050071061415848913 -0.0037864449861789991 0 0.0044960394859096236 -0.0052520832569812256 0 0.0044148088748022724 -0.0053425809356665802 0 0.004591681990149807 -0.0053364169334943323 0 0.0046625587623530798 -0.0045259496698704079 0 0.0048645589250121083 -0.0045819728059124896 0 0.0049970534297572762 -0.0047435707978238173 0 0.0050894625469324623 -0.0046525906024179721 0 0.0051162862507246505 -0.0046550966158992327 0 0.0050239902235253014 -0.0045947282167436076 0 0.0048645589250121083 -0.0045819728059124896 0 0.0051022226669958804 -0.0045150058265611128 0 0.0050894625469324623 -0.0046525906024179721 0 0.0051703605368902108 -0.0046410060231769435 0 0.0051235712892099671 -0.0038722405924100107 0 0.0051109960183738012 -0.0036818539825117275 0 0.0050071061415848913 -0.0037864449861789991 0 0.0052092210032875438 -0.0043606326940349308 0 0.0051022226669958804 -0.0045150058265611128 0 0.0051703605368902108 -0.0046410060231769435 0 0.0051847563239822477 -0.0040248039654250892 0 0.0048645589250121083 -0.0045819728059124896 0 0.0049733846297852005 -0.0039199091661787809 0 0.0051235712892099671 -0.0038722405924100107 0 0.0050071061415848913 -0.0037864449861789991 0 0.0049733846297852005 -0.0039199091661787809 0 0.0050071061415848913 -0.0037864449861789991 0 0.0048882279374808258 -0.0037791970823014935 0 0.0049387547049052991 -0.0036861847106987814 0 0.0050071061415848913 -0.0037864449861789991 0 0.0048882279374808258 -0.0037791970823014935 0 0.0049733846297852005 -0.0039199091661787809 0 0.0048882279374808258 -0.0037791970823014935 0 0.0048224047624271169 -0.0038881846741059527 0 0.0047575925631745892 -0.0037863058626074553 0 0.0048882279374808258 -0.0037791970823014935 0 0.0048224047624271169 -0.0038881846741059527 0 0.0047575925631745892 -0.0037863058626074553 0 0.0046949601387306274 -0.0038669156006205024 0 0.0048224047624271169 -0.0038881846741059527 0 0.0047575925631745892 -0.0037863058626074553 0 0.0048882279374808258 -0.0037791970823014935 0 0.00473790183957171 -0.0036434016143467806 0 0.0046949601387306274 -0.0038669156006205024 0 0.0046083441367484254 -0.0037741542495498817 0 0.0045578882872315367 -0.0039384101987348288 0 0.0047575925631745892 -0.0037863058626074553 0 0.0046949601387306274 -0.0038669156006205024 0 0.0046083441367484254 -0.0037741542495498817 0 0.0047575925631745892 -0.0037863058626074553 0 0.0046083441367484254 -0.0037741542495498817 0 0.00473790183957171 -0.0036434016143467806 0 0.0045740639655292544 -0.0042396828932796142 0 0.0038127415236390559 -0.0043786261933489376 0 0.0043445709297896739 -0.0044853766578141011 0 0.0041538301042063977 -0.0043376634453336522 0 0.0038536985847164745 -0.0045081673746643668 0 0.0046083441367484254 -0.0037741542495498817 0 0.00473790183957171 -0.0036434016143467806 0 0.0044600608601459823 -0.0036413528193250571 0 0.0042528562405174308 -0.0053413095462354126 0 0.004188566826724271 -0.0052901529683326235 0 0.0043089651250993333 -0.0052894911126978566 0 0.0045740639655292544 -0.0042396828932796142 0 0.0039555926921707226 -0.0049609177392336183 0 0.0044148088748022724 -0.0053425809356665802 0 0.0042528562405174308 -0.0053413095462354126 0 0.0043089651250993333 -0.0052894911126978566 0 0.0049387547049052991 -0.0036861847106987814 0 0.0048882279374808258 -0.0037791970823014935 0 0.0047746984246022075 -0.0036981050618593823 0 0.0046625587623530798 -0.0045259496698704079 0 0.0045740639655292544 -0.0042396828932796142 0 0.0044148088748022724 -0.0053425809356665802 0 0.0043089651250993333 -0.0052894911126978566 0 0.004355851241760144 -0.0051950991121290195 0 0.0048286461195380416 -0.0037071122922464443 0 0.0045740639655292544 -0.0042396828932796142 0 0.004188566826724271 -0.0052901529683326235 0 0.0043089651250993333 -0.0052894911126978566 0 0.004355851241760144 -0.0051950991121290195 0 0.0039555926921707226 -0.0049609177392336183 0 0.0043920213299095019 -0.0052851963225904628 0 0.0041172468424819485 -0.0053340592834284451 0 0.004355851241760144 -0.0051950991121290195 0 0.0041656520301113064 -0.0051495257246906281 0 0.0041172468424819485 -0.0053340592834284451 0 0.0041656520301113064 -0.0051495257246906281 0 0.0039166687203542111 -0.0051822612287067693 0 0.0041656520301113064 -0.0051495257246906281 0 0.0043296823215247821 -0.0049999879399348617 0 0.0040510782087300572 -0.0050000076415983672 0 0.004355851241760144 -0.0051950991121290195 0 0.0041656520301113064 -0.0051495257246906281 0 0.0043296823215247821 -0.0049999879399348617 0 0.0037721194617340386 -0.0049999619428345429 0 0.0039166687203542111 -0.0051822612287067693 0 0.0036826329193065882 -0.0050147740192974912 0 0.0035874557842749191 -0.0050346279006160642 0 0.0036860448249266147 -0.0050230648897079061 0 0.0033528812870943564 -0.0049031571990824849 0 0.0035425928965253112 -0.0049094865301394924 0 0.0036826329193065882 -0.0050147740192974912 0 0.0041656520301113064 -0.0051495257246906281 0 0.0040510782087300572 -0.0050000076415983672 0 0.0039166687203542111 -0.0051822612287067693 0 0.0037721194617340386 -0.0049999619428345429 0 0.0040510782087300572 -0.0050000076415983672 0 0.0039166687203542111 -0.0051822612287067693 0 0.0039555926921707226 -0.0049609177392336183 0 0.0035874557842749191 -0.0050346279006160642 0 0.0033528812870943564 -0.0049031571990824849 0 0.0034374017871789632 -0.004805212753397326 0 0.0035425928965253112 -0.0049094865301394924 0 0.0033528812870943564 -0.0049031571990824849 0 0.0034374017871789632 -0.004805212753397326 0 0.0033011911740671797 -0.0047051760012250697 0 0.0032259757172896837 -0.0047066005537586093 0 0.0038127415236390559 -0.0043786261933489376 0 0.0034374017871789632 -0.004805212753397326 0 0.0034126226220037048 -0.0046942521586338841 0 0.0035059703021524716 -0.0047212542292431716 0 0.0034374017871789632 -0.004805212753397326 0 0.0034126226220037048 -0.0046942521586338841 0 0.0033011911740671797 -0.0047051760012250697 0 0.0031964109492613004 -0.0047713445740258272 0 0.0033528812870943564 -0.0049031571990824849 0 0.0033011911740671797 -0.0047051760012250697 0 0.0039555926921707226 -0.0049609177392336183 0 0.0038127415236390559 -0.0043786261933489376 0 0.0046083441367484254 -0.0037741542495498817 0 0.0043989146690346648 -0.0038828602848816839 0 0.0045578882872315367 -0.0039384101987348288 0 0.0046083441367484254 -0.0037741542495498817 0 0.0044600608601459823 -0.0036413528193250571 0 0.0043989146690346648 -0.0038828602848816839 0 0.0043989146690346648 -0.0038828602848816839 0 0.004210430827475342 -0.0040495509122501581 0 0.0041085419111415323 -0.0038406509120620831 0 0.0044600608601459823 -0.0036413528193250571 0 0.0043989146690346648 -0.0038828602848816839 0 0.0041085419111415323 -0.0038406509120620831 0 0.0034126226220037048 -0.0046942521586338841 0 0.0033099267485025979 -0.0047088794757209028 0 0.0034295088608957574 -0.0045784365968495775 0 0.0038127415236390559 -0.0043786261933489376 0 0.0038046541200073667 -0.0041799014507850046 0 0.004210430827475342 -0.0040495509122501581 0 0.0041568494394809089 -0.0042280038987093042 0 0.0043830594956906291 -0.0040577917995763728 0 0.0043989146690346648 -0.0038828602848816839 0 0.004210430827475342 -0.0040495509122501581 0 0.0043830594956906291 -0.0040577917995763728 0 0.0041568494394809089 -0.0042280038987093042 0 0.0044296550826192216 -0.0042125928933658243 0 0.0043830594956906291 -0.0040577917995763728 0 0.0044296550826192216 -0.0042125928933658243 0 0.0045392347048904842 -0.0040648899279622864 0 0.0043830594956906291 -0.0040577917995763728 0 0.0045780285269773962 -0.0041477622657643456 0 0.0044296550826192216 -0.0042125928933658243 0 0.0045392347048904842 -0.0040648899279622864 0 0.0045392347048904842 -0.0040648899279622864 0 0.0043830594956906291 -0.0040577917995763728 0 0.0045578882872315367 -0.0039384101987348288 0 0.0043989146690346648 -0.0038828602848816839 0 0.0043830594956906291 -0.0040577917995763728 0 0.0045578882872315367 -0.0039384101987348288 0 0.0046949601387306274 -0.0038669156006205024 0 0.0045578882872315367 -0.0039384101987348288 0 0.0046962991447064752 -0.0039806820027475228 0 0.0046949601387306274 -0.0038669156006205024 0 0.0046962991447064752 -0.0039806820027475228 0 0.0048224047624271169 -0.0038881846741059527 0 0.0045392347048904842 -0.0040648899279622864 0 0.0045578882872315367 -0.0039384101987348288 0 0.0046962991447064752 -0.0039806820027475228 0 0.0049733846297852005 -0.0039199091661787809 0 0.0048224047624271169 -0.0038881846741059527 0 0.0048349607014233388 -0.0039966886623916172 0 0.0046962991447064752 -0.0039806820027475228 0 0.0048224047624271169 -0.0038881846741059527 0 0.0048349607014233388 -0.0039966886623916172 0 0.0049675114431108943 -0.0040619967307149035 0 0.0048349607014233388 -0.0039966886623916172 0 0.004840618972819794 -0.0040888043533421027 0 0.0048349607014233388 -0.0039966886623916172 0 0.004840618972819794 -0.0040888043533421027 0 0.0047075454198174816 -0.0040951298575965757 0 0.004840618972819794 -0.0040888043533421027 0 0.0047075454198174816 -0.0040951298575965757 0 0.0047682091531373602 -0.0041473310343614908 0 0.0045392347048904842 -0.0040648899279622864 0 0.0046962991447064752 -0.0039806820027475228 0 0.0047075454198174816 -0.0040951298575965757 0 0.0045780285269773962 -0.0041477622657643456 0 0.0045392347048904842 -0.0040648899279622864 0 0.0047075454198174816 -0.0040951298575965757 0 0.0046962991447064752 -0.0039806820027475228 0 0.0048349607014233388 -0.0039966886623916172 0 0.0047075454198174816 -0.0040951298575965757 0 0.0045780285269773962 -0.0041477622657643456 0 0.0047075454198174816 -0.0040951298575965757 0 0.0046275089777623119 -0.0042117494537229887 0 0.0047075454198174816 -0.0040951298575965757 0 0.0046275089777623119 -0.0042117494537229887 0 0.0047682091531373602 -0.0041473310343614908 0 0.0046275089777623119 -0.0042117494537229887 0 0.0047682091531373602 -0.0041473310343614908 0 0.004754242457645946 -0.0042058135536772673 0 0.0046275089777623119 -0.0042117494537229887 0 0.0046328264091114414 -0.0042797809612702964 0 0.004754242457645946 -0.0042058135536772673 0 0.0049675114431108943 -0.0040619967307149035 0 0.004840618972819794 -0.0040888043533421027 0 0.0048977683446370665 -0.0041265723150605048 0 0.004840618972819794 -0.0040888043533421027 0 0.0047682091531373602 -0.0041473310343614908 0 0.0048977683446370665 -0.0041265723150605048 0 0.0047682091531373602 -0.0041473310343614908 0 0.0048977683446370665 -0.0041265723150605048 0 0.004754242457645946 -0.0042058135536772673 0 0.0049795688671654412 -0.0041153731452003642 0 0.0048977683446370665 -0.0041265723150605048 0 0.0048578615922173444 -0.0041875916887985608 0 0.0048977683446370665 -0.0041265723150605048 0 0.0048578615922173444 -0.0041875916887985608 0 0.004754242457645946 -0.0042058135536772673 0 0.0048578615922173444 -0.0041875916887985608 0 0.004754242457645946 -0.0042058135536772673 0 0.0047075177932818764 -0.0042816912453152106 0 0.0048578615922173444 -0.0041875916887985608 0 0.0047075177932818764 -0.0042816912453152106 0 0.0048022849896473506 -0.0042413020343255465 0 0.0048578615922173444 -0.0041875916887985608 0 0.0048760008873579503 -0.0042116626410866262 0 0.0050027589688615539 -0.0041216355274075892 0 0.0046328264091114414 -0.0042797809612702964 0 0.0047075177932818764 -0.0042816912453152106 0 0.0045652351791126726 -0.0043686770186392408 0 0.0046328264091114414 -0.0042797809612702964 0 0.004754242457645946 -0.0042058135536772673 0 0.0047075177932818764 -0.0042816912453152106 0 0.0045652351791126726 -0.0043686770186392408 0 0.0042128826724573626 -0.004419595771853144 0 0.0044991913457093254 -0.0043015894305848037 0 0.0046328264091114414 -0.0042797809612702964 0 0.0045652351791126726 -0.0043686770186392408 0 0.0044991913457093254 -0.0043015894305848037 0 0.0040860687243583103 -0.0040428608320909288 0 0.0038439602515071302 -0.0041840179673860254 0 0.0039427071031608255 -0.0041405098244572678 0 0.0043326150453442038 -0.0042151271581230042 0 0.0040284827922846232 -0.0042992206321352932 0 0.0038439602515071302 -0.0041840179673860254 0 0.0038830988560128133 -0.0041029750763172286 0 0.0039427071031608255 -0.0041405098244572678 0 0.0044296550826192216 -0.0042125928933658243 0 0.0042128826724573626 -0.004419595771853144 0 0.0044991913457093254 -0.0043015894305848037 0 0.0041568494394809089 -0.0042280038987093042 0 0.0044296550826192216 -0.0042125928933658243 0 0.0042128826724573626 -0.004419595771853144 0 0.0044296550826192216 -0.0042125928933658243 0 0.0046275089777623119 -0.0042117494537229887 0 0.0044991913457093254 -0.0043015894305848037 0 0.0045780285269773962 -0.0041477622657643456 0 0.0044296550826192216 -0.0042125928933658243 0 0.0046275089777623119 -0.0042117494537229887 0 0.0046275089777623119 -0.0042117494537229887 0 0.0046328264091114414 -0.0042797809612702964 0 0.0044991913457093254 -0.0043015894305848037 0 0.0038188150039200558 -0.0043767246755265178 0 0.0038294628002485962 -0.0042403547389315713 0 0.0038024153026275723 -0.0043588053860313808 0 0.0041568494394809089 -0.0042280038987093042 0 0.0042128826724573626 -0.004419595771853144 0 0.0038188150039200558 -0.0043767246755265178 0 0.0038439602515071302 -0.0041840179673860254 0 0.0038188150039200558 -0.0043767246755265178 0 0.0038294628002485962 -0.0042403547389315713 0 0.0040284827922846232 -0.0042992206321352932 0 0.0038400652991115352 -0.0043571304277201222 0 0.0038439602515071302 -0.0041840179673860254 0 0.0038294628002485962 -0.0042403547389315713 0 0.0038830988560128133 -0.0041029750763172286 0 0.0038294628002485962 -0.0042403547389315713 0 0.0038060787090675005 -0.0043060218548275405 0 0.0038024153026275723 -0.0043588053860313808 0 0.0038060787090675005 -0.0043060218548275405 0 0.0037818568422389579 -0.0044130495189812899 0 0.0038033233049229519 -0.0043545824672162588 0 0.0038060787090675005 -0.0043060218548275405 0 0.0037818568422389579 -0.0044130495189812899 0 0.0038024153026275723 -0.0043588053860313808 0 0.003825209047251902 -0.0043902533446313488 0 0.0038033233049229519 -0.0043545824672162588 0 0.0037800056345453584 -0.0044734920691575789 0 0.003825209047251902 -0.0043902533446313488 0 0.0038033233049229519 -0.0043545824672162588 0 0.0038560276720062642 -0.0042907218434711462 0 0.0037818568422389579 -0.0044130495189812899 0 0.0037800056345453584 -0.0044734920691575789 0 0.0037602234209588286 -0.0045184388128507724 0 0.0037818568422389579 -0.0044130495189812899 0 0.0038033233049229519 -0.0043545824672162588 0 0.0037800056345453584 -0.0044734920691575789 0 0.0037602234209588286 -0.0045184388128507724 0 0.0037444893813093519 -0.0046121490144355373 0 0.0037572319176886974 -0.0045915215280373884 0 0.0037800056345453584 -0.0044734920691575789 0 0.0037602234209588286 -0.0045184388128507724 0 0.0037572319176886974 -0.0045915215280373884 0 0.0037602234209588286 -0.0045184388128507724 0 0.0037803952682658286 -0.0044393252732045285 0 0.0037496032763753699 -0.0045130209491796953 0 0.0037444893813093519 -0.0046121490144355373 0 0.0037295466507657319 -0.0045486950365788989 0 0.0036962215059643672 -0.0046745127570817779 0 0.0037602234209588286 -0.0045184388128507724 0 0.0037444893813093519 -0.0046121490144355373 0 0.0037496032763753699 -0.0045130209491796953 0 0.0037444893813093519 -0.0046121490144355373 0 0.0037295466507657319 -0.0045486950365788989 0 0.0037496032763753699 -0.0045130209491796953 0 0.0038188150039200558 -0.0043767246755265178 0 0.0038024153026275723 -0.0043588053860313808 0 0.0037803952682658286 -0.0044393252732045285 0 0.0037818568422389579 -0.0044130495189812899 0 0.0037602234209588286 -0.0045184388128507724 0 0.0037803952682658286 -0.0044393252732045285 0 0.0037818568422389579 -0.0044130495189812899 0 0.0038024153026275723 -0.0043588053860313808 0 0.0037803952682658286 -0.0044393252732045285 0 0.0038188150039200558 -0.0043767246755265178 0 0.0037803952682658286 -0.0044393252732045285 0 0.0037315451693007702 -0.0044422976461714076 0 0.0037803952682658286 -0.0044393252732045285 0 0.0037315451693007702 -0.0044422976461714076 0 0.0037496032763753699 -0.0045130209491796953 0 0.0037315451693007702 -0.0044422976461714076 0 0.0037295466507657319 -0.0045486950365788989 0 0.0036941171571232647 -0.004532900530235094 0 0.0037315451693007702 -0.0044422976461714076 0 0.0037295466507657319 -0.0045486950365788989 0 0.0037496032763753699 -0.0045130209491796953 0 0.0037315451693007702 -0.0044422976461714076 0 0.0036948604602073127 -0.0044895050409592104 0 0.0036658974556514384 -0.0045493738299432918 0 0.0037315451693007702 -0.0044422976461714076 0 0.0036948604602073127 -0.0044895050409592104 0 0.0036941171571232647 -0.004532900530235094 0 0.0037315451693007702 -0.0044422976461714076 0 0.0037086540664618591 -0.0043286365221242417 0 0.0036658974556514384 -0.0045493738299432918 0 0.0038188150039200558 -0.0043767246755265178 0 0.0037086540664618591 -0.0043286365221242417 0 0.0039711556568676728 -0.0042016921535611984 0 0.0038188150039200558 -0.0043767246755265178 0 0.0037315451693007702 -0.0044422976461714076 0 0.0037086540664618591 -0.0043286365221242417 0 0.0041568494394809089 -0.0042280038987093042 0 0.0038188150039200558 -0.0043767246755265178 0 0.0039711556568676728 -0.0042016921535611984 0 0.0037082423112049603 -0.0043171652171733448 0 0.0038046541200073667 -0.0041799014507850046 0 0.0037086540664618591 -0.0043286365221242417 0 0.0039711556568676728 -0.0042016921535611984 0 0.0041085419111415323 -0.0038406509120620831 0 0.004210430827475342 -0.0040495509122501581 0 0.0039711556568676728 -0.0042016921535611984 0 0.0041085419111415323 -0.0038406509120620831 0 0.004210430827475342 -0.0040495509122501581 0 0.0041568494394809089 -0.0042280038987093042 0 0.0039711556568676728 -0.0042016921535611984 0 0.0034295088608957574 -0.0045784365968495775 0 0.0035913314117812828 -0.0046025464733848945 0 0.0035059703021524716 -0.0047212542292431716 0 0.0037086540664618591 -0.0043286365221242417 0 0.0035913314117812828 -0.0046025464733848945 0 0.0036658974556514384 -0.0045493738299432918 0 0.0037086540664618591 -0.0043286365221242417 0 0.0034295088608957574 -0.0045784365968495775 0 0.0035913314117812828 -0.0046025464733848945 0 0.0035913314117812828 -0.0046025464733848945 0 0.0035497008710576503 -0.0047849874401979303 0 0.0035059703021524716 -0.0047212542292431716 0 0.0035497008710576503 -0.0047849874401979303 0 0.0035059703021524716 -0.0047212542292431716 0 0.0035247953453058567 -0.004857394455760564 0 0.0034126226220037048 -0.0046942521586338841 0 0.0034295088608957574 -0.0045784365968495775 0 0.0035059703021524716 -0.0047212542292431716 0 0.0034374017871789632 -0.004805212753397326 0 0.0035059703021524716 -0.0047212542292431716 0 0.0035247953453058567 -0.004857394455760564 0 0.0034374017871789632 -0.004805212753397326 0 0.0035425928965253112 -0.0049094865301394924 0 0.0035247953453058567 -0.004857394455760564 0 0.0035425928965253112 -0.0049094865301394924 0 0.0035247953453058567 -0.004857394455760564 0 0.0035486031332191991 -0.0049564222385055697 0 0.0035497008710576503 -0.0047849874401979303 0 0.0035486031332191991 -0.0049564222385055697 0 0.0034666133733876154 -0.0049271976462095905 0 0.0035497008710576503 -0.0047849874401979303 0 0.0035247953453058567 -0.004857394455760564 0 0.0035486031332191991 -0.0049564222385055697 0 0.0035486031332191991 -0.0049564222385055697 0 0.0034934829940226702 -0.0049998353768421558 0 0.0034666133733876154 -0.0049271976462095905 0 0.0035486031332191991 -0.0049564222385055697 0 0.0034934829940226702 -0.0049998353768421558 0 0.0036826329193065882 -0.0050147740192974912 0 0.0035425928965253112 -0.0049094865301394924 0 0.0035486031332191991 -0.0049564222385055697 0 0.0036826329193065882 -0.0050147740192974912 0 0.0037721194617340386 -0.0049999619428345429 0 0.0034934829940226702 -0.0049998353768421558 0 0.0036826329193065882 -0.0050147740192974912 0 0.0032150795281282508 -0.0049999318448213457 0 0.0033180648358434365 -0.0049544421009506193 0 0.0032159990010935295 -0.0049998890676639443 0 0.0034666133733876154 -0.0049271976462095905 0 0.0036079930224974712 -0.0048408477638851909 0 0.0034934829940226702 -0.0049998353768421558 0 0.0032159990010935295 -0.0049998890676639443 0 0.0034666133733876154 -0.0049271976462095905 0 0.0035497008710576503 -0.0047849874401979303 0 0.0034666133733876154 -0.0049271976462095905 0 0.0035970713323365557 -0.0047337387466566136 0 0.0034666133733876154 -0.0049271976462095905 0 0.0036079930224974712 -0.0048408477638851909 0 0.0035970713323365557 -0.0047337387466566136 0 0.0036079930224974712 -0.0048408477638851909 0 0.0035970713323365557 -0.0047337387466566136 0 0.0037182983327031468 -0.0045835504828732861 0 0.0035970713323365557 -0.0047337387466566136 0 0.0036658974556514384 -0.0045493738299432918 0 0.0037182983327031468 -0.0045835504828732861 0 0.0035913314117812828 -0.0046025464733848945 0 0.0035497008710576503 -0.0047849874401979303 0 0.0036658974556514384 -0.0045493738299432918 0 0.0035497008710576503 -0.0047849874401979303 0 0.0035970713323365557 -0.0047337387466566136 0 0.0036658974556514384 -0.0045493738299432918 0 0.0036948604602073127 -0.0044895050409592104 0 0.0036658974556514384 -0.0045493738299432918 0 0.0037182983327031468 -0.0045835504828732861 0 0.0036948604602073127 -0.0044895050409592104 0 0.0037182983327031468 -0.0045835504828732861 0 0.0035976652160663652 -0.004438685362607081 0 0.0033182631717281175 -0.0048501005444114937 0 0.0032541294045159222 -0.004748444089811666 0 0.0029180227318193804 -0.0051124623568824029 0 0.0029807207470027878 -0.0050436881284853571 0 0.0029211806853583306 -0.005009990253235768 0 0.0029180227318193804 -0.0051124623568824029 0 0.0029279998473265229 -0.0051195550456510207 0 0.0029211806853583306 -0.005009990253235768 0 0.0029180227318193804 -0.0051124623568824029 0 0.0029279998473265229 -0.0051195550456510207 0 0.0029169323152149259 -0.0051118938016419691 0 0.0033180648358434365 -0.0049544421009506193 0 0.0033182631717281175 -0.0048501005444114937 0 0.0030379801147273782 -0.0051185628750043946 0 0.0029279998473265229 -0.0051195550456510207 0 0.0029169323152149259 -0.0051118938016419691 0 0.0029169323152149259 -0.0051118938016419691 0 0.0030059390973633938 -0.0049999692339051417 0 0.0027969221502682539 -0.0049999999272574043 0 0.0032148610477236248 -0.0049999708730073082 0 0.0030379801147273782 -0.0051185628750043946 0 0.0030059390973633938 -0.0049999692339051417 0 0.0030379801147273782 -0.0051185628750043946 0 0.0029169323152149259 -0.0051118938016419691 0 0.0030059390973633938 -0.0049999692339051417 0 0.002587870206103906 -0.0049999722555486657 0 0.0026735613677408049 -0.0050658304545909841 0 0.0024777242968678252 -0.0050294337196205904 0 0.002587581342792774 -0.0049999121309505764 0 0.0025243235676648858 -0.0050238011003223325 0 0.0025881064297014612 -0.0049999379701358869 0 0.0027969221502682539 -0.0049999999272574043 0 0.002817556070098111 -0.0051392568446614597 0 0.0029169323152149259 -0.0051118938016419691 0 0.0027969221502682539 -0.0049999999272574043 0 0.002817556070098111 -0.0051392568446614597 0 0.0025191801625323806 -0.0049966826210230244 0 0.0025243235676648858 -0.0050238011003223325 0 0.0026249522860221286 -0.004980409429427928 0 0.0029180227318193804 -0.0051124623568824029 0 0.0029169323152149259 -0.0051118938016419691 0 0.002817556070098111 -0.0051392568446614597 0 0.0026735613677408049 -0.0050658304545909841 0 0.0028057408481494033 -0.0050193392445729091 0 0.0029180227318193804 -0.0051124623568824029 0 0.002817556070098111 -0.0051392568446614597 0 0.0029807207470027878 -0.0050436881284853571 0 0.0025191801625323806 -0.0049966826210230244 0 0.0026249522860221286 -0.004980409429427928 0 0.0025987060214049764 -0.0050046612177634597 0 0.0026249522860221286 -0.004980409429427928 0 0.0025987060214049764 -0.0050046612177634597 0 0.0026902919908617018 -0.0050126203898713763 0 0.0025364305100228778 -0.0050643175721314703 0 0.0025987060214049764 -0.0050046612177634597 0 0.0026902919908617018 -0.0050126203898713763 0 0.0026902919908617018 -0.0050126203898713763 0 0.0027998208220902246 -0.0050758028478079141 0 0.0026789017331892923 -0.0051305495642885385 0 0.0026902919908617018 -0.0050126203898713763 0 0.0027998208220902246 -0.0050758028478079141 0 0.0029303304735420819 -0.0049562228818447879 0 0.0025910589657374187 -0.0051075200294266165 0 0.0026902919908617018 -0.0050126203898713763 0 0.0026789017331892923 -0.0051305495642885385 0 0.0029303304735420819 -0.0049562228818447879 0 0.0031502966380680497 -0.0048349322972477708 0 0.0030586490630779371 -0.0050004817946959126 0 0.0027998208220902246 -0.0050758028478079141 0 0.0029303304735420819 -0.0049562228818447879 0 0.0029200270573092142 -0.0051207724009628601 0 0.0026249522860221286 -0.004980409429427928 0 0.0026902919908617018 -0.0050126203898713763 0 0.0029303304735420819 -0.0049562228818447879 0 0.0029807207470027878 -0.0050436881284853571 0 0.0029303304735420819 -0.0049562228818447879 0 0.0030062967423395274 -0.0049425572290467774 0 0.0028057408481494033 -0.0050193392445729091 0 0.002913313511918 -0.0049782978932525479 0 0.0029807207470027878 -0.0050436881284853571 0 0.0029211806853583306 -0.005009990253235768 0 0.0030062967423395274 -0.0049425572290467774 0 0.0036948604602073127 -0.0044895050409592104 0 0.0035976652160663652 -0.004438685362607081 0 0.0036941171571232647 -0.004532900530235094 0 0.0035976652160663652 -0.004438685362607081 0 0.0036941171571232647 -0.004532900530235094 0 0.0035148070374010632 -0.0046974301651921306 0 0.0036941171571232647 -0.004532900530235094 0 0.0035148070374010632 -0.0046974301651921306 0 0.0036962215059643672 -0.0046745127570817779 0 0.0037295466507657319 -0.0045486950365788989 0 0.0036941171571232647 -0.004532900530235094 0 0.0036962215059643672 -0.0046745127570817779 0 0.0032541294045159222 -0.004748444089811666 0 0.0031570045530802237 -0.0048509372361721422 0 0.0029211806853583306 -0.005009990253235768 0 0.0030062967423395274 -0.0049425572290467774 0 0.0031502966380680497 -0.0048349322972477708 0 0.0035976652160663652 -0.004438685362607081 0 0.0035148070374010632 -0.0046974301651921306 0 0.0031502966380680497 -0.0048349322972477708 0 0.0029303304735420819 -0.0049562228818447879 0 0.0030062967423395274 -0.0049425572290467774 0 0.0031502966380680497 -0.0048349322972477708 0 0.0035148070374010632 -0.0046974301651921306 0 0.0031502966380680497 -0.0048349322972477708 0 0.0032954974033138104 -0.0049758436965840064 0 0.0031502966380680497 -0.0048349322972477708 0 0.0032954974033138104 -0.0049758436965840064 0 0.0030586490630779371 -0.0050004817946959126 0 0.0035148070374010632 -0.0046974301651921306 0 0.0032954974033138104 -0.0049758436965840064 0 0.0035575088611089658 -0.0048119212018031144 0 0.0032954974033138104 -0.0049758436965840064 0 0.0034468610844479463 -0.0050283911824784335 0 0.0032475586027087967 -0.0052577231092696452 0 0.0032954974033138104 -0.0049758436965840064 0 0.0034468610844479463 -0.0050283911824784335 0 0.0035575088611089658 -0.0048119212018031144 0 0.0032954974033138104 -0.0049758436965840064 0 0.0030586490630779371 -0.0050004817946959126 0 0.003067892812006247 -0.005193873426370621 0 0.0032954974033138104 -0.0049758436965840064 0 0.0032475586027087967 -0.0052577231092696452 0 0.003067892812006247 -0.005193873426370621 0 0.0036962215059643672 -0.0046745127570817779 0 0.003751251126030078 -0.0047842550689547346 0 0.0037459106870651542 -0.0046778504891164807 0 0.0037444893813093519 -0.0046121490144355373 0 0.0036962215059643672 -0.0046745127570817779 0 0.0037459106870651542 -0.0046778504891164807 0 0.0035148070374010632 -0.0046974301651921306 0 0.0036962215059643672 -0.0046745127570817779 0 0.0035575088611089658 -0.0048119212018031144 0 0.0036962215059643672 -0.0046745127570817779 0 0.0035575088611089658 -0.0048119212018031144 0 0.003751251126030078 -0.0047842550689547346 0 0.0037476370003415873 -0.0048047213068719632 0 0.003721588649191197 -0.0047199213447187182 0 0.0037661973255598488 -0.00466169120718568 0 0.003751251126030078 -0.0047842550689547346 0 0.0040889006189423361 -0.0043750047261431569 0 0.0034468610844479463 -0.0050283911824784335 0 0.003751251126030078 -0.0047842550689547346 0 0.0034919487156851491 -0.0053108622058201226 0 0.0034468610844479463 -0.0050283911824784335 0 0.0035575088611089658 -0.0048119212018031144 0 0.003751251126030078 -0.0047842550689547346 0 0.0037661973255598488 -0.00466169120718568 0 0.003751251126030078 -0.0047842550689547346 0 0.0037459106870651542 -0.0046778504891164807 0 0.0037661973255598488 -0.00466169120718568 0 0.0037572319176886974 -0.0045915215280373884 0 0.0038015998283154897 -0.0045423977567564944 0 0.0037444893813093519 -0.0046121490144355373 0 0.0037572319176886974 -0.0045915215280373884 0 0.0037459106870651542 -0.0046778504891164807 0 0.0037661973255598488 -0.00466169120718568 0 0.0037572319176886974 -0.0045915215280373884 0 0.0037459106870651542 -0.0046778504891164807 0 0.0037800056345453584 -0.0044734920691575789 0 0.0038015998283154897 -0.0045423977567564944 0 0.0038532218422962553 -0.0044640485819192272 0 0.0037800056345453584 -0.0044734920691575789 0 0.0037572319176886974 -0.0045915215280373884 0 0.0038015998283154897 -0.0045423977567564944 0 0.003825209047251902 -0.0043902533446313488 0 0.0037800056345453584 -0.0044734920691575789 0 0.0038532218422962553 -0.0044640485819192272 0 0.0038015998283154897 -0.0045423977567564944 0 0.0038532218422962553 -0.0044640485819192272 0 0.0039915580645562328 -0.0044794392360083561 0 0.0037661973255598488 -0.00466169120718568 0 0.0038015998283154897 -0.0045423977567564944 0 0.0039915580645562328 -0.0044794392360083561 0 0.0038828405353620644 -0.0045576276544274808 0 0.003721588649191197 -0.0047199213447187182 0 0.0038532218422962553 -0.0044640485819192272 0 0.0039915580645562328 -0.0044794392360083561 0 0.0039438308993381957 -0.0043560993544909587 0 0.0038532218422962553 -0.0044640485819192272 0 0.0039438308993381957 -0.0043560993544909587 0 0.0038964428321775022 -0.0042294674587004272 0 0.0038538543036041812 -0.0044501517250947441 0 0.0038540597515920138 -0.0041502692960106065 0 0.003825209047251902 -0.0043902533446313488 0 0.003865510764985793 -0.0043628533788740631 0 0.0038560276720062642 -0.0042907218434711462 0 0.0038532218422962553 -0.0044640485819192272 0 0.003865510764985793 -0.0043628533788740631 0 0.003930181040203669 -0.0043036553090979573 0 0.003825209047251902 -0.0043902533446313488 0 0.0038532218422962553 -0.0044640485819192272 0 0.003865510764985793 -0.0043628533788740631 0 0.0032475586027087967 -0.0052577231092696452 0 0.0030841895323384725 -0.0053586620458360747 0 0.003067892812006247 -0.005193873426370621 0 0.0034468610844479463 -0.0050283911824784335 0 0.0034919487156851491 -0.0053108622058201226 0 0.0032475586027087967 -0.0052577231092696452 0 0.003721588649191197 -0.0047199213447187182 0 0.0031023535737903056 -0.0047531828301752852 0 0.0035824117621483112 -0.0045906300151695211 0 0.0035032984892824511 -0.0046636584371671317 0 0.003531591007979111 -0.0046663228966686079 0 0.0039915580645562328 -0.0044794392360083561 0 0.0039438308993381957 -0.0043560993544909587 0 0.0041215850059403538 -0.0042513687392287305 0 0.0034919487156851491 -0.0053108622058201226 0 0.0032475586027087967 -0.0052577231092696452 0 0.0031552731445596964 -0.0055622581441426627 0 0.003721588649191197 -0.0047199213447187182 0 0.0036225792984934443 -0.0043380769528909707 0 0.0032475586027087967 -0.0052577231092696452 0 0.0030841895323384725 -0.0053586620458360747 0 0.0031552731445596964 -0.0055622581441426627 0 0.0030841895323384725 -0.0053586620458360747 0 0.0028745218617701367 -0.0053764234849177205 0 0.0031552731445596964 -0.0055622581441426627 0 0.0028745218617701367 -0.0053764234849177205 0 0.0026898131308869303 -0.0054877622002775057 0 0.0031552731445596964 -0.0055622581441426627 0 0.0030841895323384725 -0.0053586620458360747 0 0.0028745218617701367 -0.0053764234849177205 0 0.003067892812006247 -0.005193873426370621 0 0.0025540781907784304 -0.0054022258834218601 0 0.0026898131308869303 -0.0054877622002775057 0 0.0026642367009088144 -0.0053305276836678774 0 0.0028745218617701367 -0.0053764234849177205 0 0.0026642367009088144 -0.0053305276836678774 0 0.0027720649426605961 -0.0052131273584542972 0 0.0028745218617701367 -0.0053764234849177205 0 0.0026898131308869303 -0.0054877622002775057 0 0.0026642367009088144 -0.0053305276836678774 0 0.0026642367009088144 -0.0053305276836678774 0 0.0027720649426605961 -0.0052131273584542972 0 0.0026391269947493869 -0.0052310437648118149 0 0.0026789017331892923 -0.0051305495642885385 0 0.0027720649426605961 -0.0052131273584542972 0 0.0026391269947493869 -0.0052310437648118149 0 0.0025600925445965661 -0.0051920870635544947 0 0.0026789017331892923 -0.0051305495642885385 0 0.0026391269947493869 -0.0052310437648118149 0 0.0027998208220902246 -0.0050758028478079141 0 0.0026789017331892923 -0.0051305495642885385 0 0.0027720649426605961 -0.0052131273584542972 0 0.0027998208220902246 -0.0050758028478079141 0 0.0027720649426605961 -0.0052131273584542972 0 0.0029200270573092142 -0.0051207724009628601 0 0.0029303304735420819 -0.0049562228818447879 0 0.0029200270573092142 -0.0051207724009628601 0 0.0030586490630779371 -0.0050004817946959126 0 0.0028745218617701367 -0.0053764234849177205 0 0.0029200270573092142 -0.0051207724009628601 0 0.003067892812006247 -0.005193873426370621 0 0.0029200270573092142 -0.0051207724009628601 0 0.0030586490630779371 -0.0050004817946959126 0 0.003067892812006247 -0.005193873426370621 0 0.0028745218617701367 -0.0053764234849177205 0 0.0027720649426605961 -0.0052131273584542972 0 0.0029200270573092142 -0.0051207724009628601 0 0.0031545528493347099 -0.0043349999121163737 0 0.003151440183695712 -0.0043351049347960663 0 0.0031582501534835224 -0.0043374397288474288 0 0.0031545528493347099 -0.0043349999121163737 0 0.003151440183695712 -0.0043351049347960663 0 0.003150990767910557 -0.0043357819014421765 0 0.0026140821627659229 -0.0048064724397261175 0 0.0026524828103126788 -0.0048181660440748389 0 0.0026051832141964154 -0.0048064479290668904 0 0.0026140821627659229 -0.0048064724397261175 0 0.0026118882651573971 -0.004797348248063279 0 0.0026524828103126788 -0.0048181660440748389 0 0.0026524828103126788 -0.0048181660440748389 0 0.00266271788500398 -0.0047674951734997017 0 0.0026051832141964154 -0.0048064479290668904 0 0.0026352516868236712 -0.0047066208420205738 0 0.00266271788500398 -0.0047674951734997017 0 0.0026051832141964154 -0.0048064479290668904 0 0.0026352516868236712 -0.0047066208420205738 0 0.00266271788500398 -0.0047674951734997017 0 0.0027705143355643467 -0.0047327882836291123 0 0.0026524828103126788 -0.0048181660440748389 0 0.00266271788500398 -0.0047674951734997017 0 0.0027705143355643467 -0.0047327882836291123 0 0.0026339865131460379 -0.0051439045618743356 0 0.0031023535737903056 -0.0047531828301752852 0 0.0028960485089827271 -0.0045292966222839695 0 0.0031023535737903056 -0.0047531828301752852 0 0.0034092200881263319 -0.0040517372240660475 0 0.0036225792984934443 -0.0043380769528909707 0 0.0031545528493347099 -0.0043349999121163737 0 0.0031582501534835224 -0.0043374397288474288 0 0.0031594012338499438 -0.0043375077134016156 0 0.0036829505448407488 -0.0038574403838283456 0 0.0037218545343630275 -0.0038119566294757511 0 0.0037203732086993689 -0.0038432760265432377 0 0.0031023535737903056 -0.0047531828301752852 0 0.0036225792984934443 -0.0043380769528909707 0 0.0037218545343630275 -0.0038119566294757511 0 0.0037528435615650046 -0.0038147810154786923 0 0.0037203732086993689 -0.0038432760265432377 0 0.0036225792984934443 -0.0043380769528909707 0 0.0038540597515920138 -0.0041502692960106065 0 0.0038540597515920138 -0.0041502692960106065 0 0.0038198512802865635 -0.0039968461503940306 0 0.0038560276720062642 -0.0042907218434711462 0 0.0038963327323199388 -0.0042924113007449761 0 0.0038967459798525256 -0.0041562099421459742 0 0.003865510764985793 -0.0043628533788740631 0 0.0038560276720062642 -0.0042907218434711462 0 0.003930181040203669 -0.0043036553090979573 0 0.0038799594109393777 -0.0042213206681517021 0 0.0038540597515920138 -0.0041502692960106065 0 0.0039438308993381957 -0.0043560993544909587 0 0.0041215850059403538 -0.0042513687392287305 0 0.0038964428321775022 -0.0042294674587004272 0 0.0038560276720062642 -0.0042907218434711462 0 0.0038967459798525256 -0.0041562099421459742 0 0.0038490934457743216 -0.0041848511005837677 0 0.0037528435615650046 -0.0038147810154786923 0 0.0037489186503692823 -0.0038702450053149698 0 0.0037203732086993689 -0.0038432760265432377 0 0.0036829505448407488 -0.0038574403838283456 0 0.0037489186503692823 -0.0038702450053149698 0 0.0036947302238806933 -0.0039080225466879663 0 0.0036829505448407488 -0.0038574403838283456 0 0.0037489186503692823 -0.0038702450053149698 0 0.0037203732086993689 -0.0038432760265432377 0 0.0037489186503692823 -0.0038702450053149698 0 0.0036947302238806933 -0.0039080225466879663 0 0.0037561881663657321 -0.0039481812935574642 0 0.0038198512802865635 -0.0039968461503940306 0 0.0037991033445056413 -0.0040354030591382706 0 0.0038967459798525256 -0.0041562099421459742 0 0.0038458828498303009 -0.0040991166651502611 0 0.0038573907332770559 -0.0041228416888960725 0 0.0036947302238806933 -0.0039080225466879663 0 0.0037561881663657321 -0.0039481812935574642 0 0.0036692036001482039 -0.0039764238973171119 0 0.0037561881663657321 -0.0039481812935574642 0 0.0036692036001482039 -0.0039764238973171119 0 0.0037692529353004758 -0.004087245967910479 0 0.0036692036001482039 -0.0039764238973171119 0 0.0036215989058877231 -0.0039205472661799938 0 0.0035855565700871365 -0.0039990596006644671 0 0.0036947302238806933 -0.0039080225466879663 0 0.0036692036001482039 -0.0039764238973171119 0 0.0036215989058877231 -0.0039205472661799938 0 0.0034092200881263319 -0.0040517372240660475 0 0.0033731018439081485 -0.0041606864274202713 0 0.0036829505448407488 -0.0038574403838283456 0 0.0036947302238806933 -0.0039080225466879663 0 0.0036215989058877231 -0.0039205472661799938 0 0.0031454180759435974 -0.0043362559970823653 0 0.003151440183695712 -0.0043351049347960663 0 0.003150990767910557 -0.0043357819014421765 0 0.0028469456953786713 -0.0046237779155052817 0 0.0028960485089827271 -0.0045292966222839695 0 0.0036215989058877231 -0.0039205472661799938 0 0.0035533770476339696 -0.0039968016679515043 0 0.0035855565700871365 -0.0039990596006644671 0 0.0031454180759435974 -0.0043362559970823653 0 0.003150990767910557 -0.0043357819014421765 0 0.0031482777813760317 -0.0043384821956051122 0 0.0033731018439081485 -0.0041606864274202713 0 0.0033983707121305893 -0.0040478256201305239 0 0.0033983707121305893 -0.0040478256201305239 0 0.0035599871058444419 -0.0040314732131791677 0 0.0035409426197364237 -0.0039884493616143251 0 0.0035855565700871365 -0.0039990596006644671 0 0.0035818237253663144 -0.0040373463909764862 0 0.0035855565700871365 -0.0039990596006644671 0 0.0035818237253663144 -0.0040373463909764862 0 0.0036438162887408761 -0.0040528409280484049 0 0.0035409426197364237 -0.0039884493616143251 0 0.0035818237253663144 -0.0040373463909764862 0 0.003534535875436509 -0.0040454480326144841 0 0.0036692036001482039 -0.0039764238973171119 0 0.0035855565700871365 -0.0039990596006644671 0 0.0036438162887408761 -0.0040528409280484049 0 0.0036692036001482039 -0.0039764238973171119 0 0.0036438162887408761 -0.0040528409280484049 0 0.0037692529353004758 -0.004087245967910479 0 0.0036438162887408761 -0.0040528409280484049 0 0.0036648550532133741 -0.0041186278026106461 0 0.0037692529353004758 -0.004087245967910479 0 0.0036438162887408761 -0.0040528409280484049 0 0.0036648550532133741 -0.0041186278026106461 0 0.0035777605036445312 -0.0040846250698832803 0 0.0035818237253663144 -0.0040373463909764862 0 0.003534535875436509 -0.0040454480326144841 0 0.0035777605036445312 -0.0040846250698832803 0 0.0035133097046717667 -0.004072102831758467 0 0.003534535875436509 -0.0040454480326144841 0 0.0035777605036445312 -0.0040846250698832803 0 0.0035818237253663144 -0.0040373463909764862 0 0.0036438162887408761 -0.0040528409280484049 0 0.0035777605036445312 -0.0040846250698832803 0 0.0035133097046717667 -0.004072102831758467 0 0.0034904542973022297 -0.0041119417656721585 0 0.0035777605036445312 -0.0040846250698832803 0 0.0034904542973022297 -0.0041119417656721585 0 0.0035777605036445312 -0.0040846250698832803 0 0.0036030299313347357 -0.0041562768361733523 0 0.0034904542973022297 -0.0041119417656721585 0 0.0036030299313347357 -0.0041562768361733523 0 0.0035152448930302568 -0.0041963280569393586 0 0.0036648550532133741 -0.0041186278026106461 0 0.0035777605036445312 -0.0040846250698832803 0 0.0036030299313347357 -0.0041562768361733523 0 0.0036165877174473633 -0.0041589154639702641 0 0.0037511859861245681 -0.0041558215813103727 0 0.0036648550532133741 -0.0041186278026106461 0 0.0036030299313347357 -0.0041562768361733523 0 0.0037369114333671576 -0.0041792976727385595 0 0.0036030299313347357 -0.0041562768361733523 0 0.0037238384359682755 -0.0042328370970261637 0 0.0037697814925830341 -0.0041332569993356308 0 0.0036030299313347357 -0.0041562768361733523 0 0.0037238384359682755 -0.0042328370970261637 0 0.0036181573124624568 -0.0043008772668819764 0 0.0036030299313347357 -0.0041562768361733523 0 0.0035152448930302568 -0.0041963280569393586 0 0.0036181573124624568 -0.0043008772668819764 0 0.0034509522273925021 -0.0042668420012414408 0 0.0035152448930302568 -0.0041963280569393586 0 0.0036181573124624568 -0.0043008772668819764 0 0.0037238384359682755 -0.0042328370970261637 0 0.0038604455938218143 -0.0042283806717340775 0 0.0037536955565330007 -0.0043399123169051181 0 0.0037238384359682755 -0.0042328370970261637 0 0.0038604455938218143 -0.0042283806717340775 0 0.0037697814925830341 -0.0041332569993356308 0 0.0038604455938218143 -0.0042283806717340775 0 0.0037697814925830341 -0.0041332569993356308 0 0.0039077035070453339 -0.0041363392460002021 0 0.0037511859861245681 -0.0041558215813103727 0 0.0038686279467927223 -0.004160447602025919 0 0.0038326445691103644 -0.0041815448523253524 0 0.0037692529353004758 -0.004087245967910479 0 0.0038331847239154249 -0.004120923016847293 0 0.0036648550532133741 -0.0041186278026106461 0 0.0037369114333671576 -0.0041792976727385595 0 0.0037692529353004758 -0.004087245967910479 0 0.0037369114333671576 -0.0041792976727385595 0 0.0038326445691103644 -0.0041815448523253524 0 0.0037692529353004758 -0.004087245967910479 0 0.0037991033445056413 -0.0040354030591382706 0 0.003773397866104086 -0.0040872302798247925 0 0.0038458828498303009 -0.0040991166651502611 0 0.0037692529353004758 -0.004087245967910479 0 0.0038331847239154249 -0.004120923016847293 0 0.0038458828498303009 -0.0040991166651502611 0 0.0038331847239154249 -0.004120923016847293 0 0.0038625457059757859 -0.0041158647742332828 0 0.0038331847239154249 -0.004120923016847293 0 0.0038625457059757859 -0.0041158647742332828 0 0.0038964962081328254 -0.004191440770589046 0 0.0038625457059757859 -0.0041158647742332828 0 0.0038964962081328254 -0.004191440770589046 0 0.0039286018667507002 -0.004144138323909495 0 0.0038625457059757859 -0.0041158647742332828 0 0.0039286018667507002 -0.004144138323909495 0 0.0038845189119471593 -0.0041147659849713582 0 0.0038326445691103644 -0.0041815448523253524 0 0.0038331847239154249 -0.004120923016847293 0 0.0038964962081328254 -0.004191440770589046 0 0.0038686279467927223 -0.004160447602025919 0 0.0039498820237585854 -0.0041792932526252911 0 0.0039077035070453339 -0.0041363392460002021 0 0.0040047527322411474 -0.0041661078443206235 0 0.0039699498227842552 -0.0041985239786724322 0 0.0038604455938218143 -0.0042283806717340775 0 0.0039077035070453339 -0.0041363392460002021 0 0.0039699498227842552 -0.0041985239786724322 0 0.0040047527322411474 -0.0041661078443206235 0 0.0039699498227842552 -0.0041985239786724322 0 0.0040596379319682747 -0.0042209437577314145 0 0.0039699498227842552 -0.0041985239786724322 0 0.0040596379319682747 -0.0042209437577314145 0 0.0039664268585034223 -0.0042621130737575293 0 0.0038604455938218143 -0.0042283806717340775 0 0.0039699498227842552 -0.0041985239786724322 0 0.0039664268585034223 -0.0042621130737575293 0 0.0040596379319682747 -0.0042209437577314145 0 0.0040739966392805164 -0.004239110622447315 0 0.0040986513014411767 -0.0042363184740522386 0 0.0040047527322411474 -0.0041661078443206235 0 0.0040596379319682747 -0.0042209437577314145 0 0.0040093775215391519 -0.0042010087722702165 0 0.0040596379319682747 -0.0042209437577314145 0 0.0040093775215391519 -0.0042010087722702165 0 0.0040739966392805164 -0.004239110622447315 0 0.0040093775215391519 -0.0042010087722702165 0 0.0040729914317914192 -0.0042217829069270685 0 0.0040739966392805164 -0.004239110622447315 0 0.0040093775215391519 -0.0042010087722702165 0 0.0040456896731814332 -0.0041757472118988895 0 0.0040729914317914192 -0.0042217829069270685 0 0.0040093775215391519 -0.0042010087722702165 0 0.0039886689518985287 -0.0041626962742962181 0 0.0040456896731814332 -0.0041757472118988895 0 0.0038964962081328254 -0.004191440770589046 0 0.0040093775215391519 -0.0042010087722702165 0 0.0039286018667507002 -0.004144138323909495 0 0.0039498820237585854 -0.0041792932526252911 0 0.004004717764554638 -0.0041952326578595534 0 0.0040093775215391519 -0.0042010087722702165 0 0.0039286018667507002 -0.004144138323909495 0 0.0039886689518985287 -0.0041626962742962181 0 0.0039286018667507002 -0.004144138323909495 0 0.0039886689518985287 -0.0041626962742962181 0 0.0039453124427559312 -0.0041229219514608891 0 0.0039886689518985287 -0.0041626962742962181 0 0.0039453124427559312 -0.0041229219514608891 0 0.0040456896731814332 -0.0041757472118988895 0 0.0039453124427559312 -0.0041229219514608891 0 0.0039847282449522242 -0.004090729838404669 0 0.0040456896731814332 -0.0041757472118988895 0 0.0039453124427559312 -0.0041229219514608891 0 0.0039077876124592953 -0.0040894019619557046 0 0.0039847282449522242 -0.004090729838404669 0 0.0039077876124592953 -0.0040894019619557046 0 0.0039723401857591619 -0.0040186313974251179 0 0.0039847282449522242 -0.004090729838404669 0 0.0039077876124592953 -0.0040894019619557046 0 0.0038845189119471593 -0.0041147659849713582 0 0.0038563617561705251 -0.0041384412299130769 0 0.0039286018667507002 -0.004144138323909495 0 0.0039453124427559312 -0.0041229219514608891 0 0.0038845189119471593 -0.0041147659849713582 0 0.0039453124427559312 -0.0041229219514608891 0 0.0039077876124592953 -0.0040894019619557046 0 0.0038845189119471593 -0.0041147659849713582 0 0.0038625457059757859 -0.0041158647742332828 0 0.0038845189119471593 -0.0041147659849713582 0 0.0038573907332770559 -0.0041228416888960725 0 0.0038458828498303009 -0.0040991166651502611 0 0.0038625457059757859 -0.0041158647742332828 0 0.0038573907332770559 -0.0041228416888960725 0 0.0038573907332770559 -0.0041228416888960725 0 0.0038563617561705251 -0.0041384412299130769 0 0.0038490934457743216 -0.0041848511005837677 0 0.0038845189119471593 -0.0041147659849713582 0 0.0038573907332770559 -0.0041228416888960725 0 0.0038563617561705251 -0.0041384412299130769 0 0.0038563617561705251 -0.0041384412299130769 0 0.0038298649161163842 -0.0042121999960491093 0 0.0038606236527542219 -0.0041472701682184849 0 0.0038563617561705251 -0.0041384412299130769 0 0.0038490934457743216 -0.0041848511005837677 0 0.0038298649161163842 -0.0042121999960491093 0 0.0038967459798525256 -0.0041562099421459742 0 0.0038573907332770559 -0.0041228416888960725 0 0.0038490934457743216 -0.0041848511005837677 0 0.0038560276720062642 -0.0042907218434711462 0 0.0038490934457743216 -0.0041848511005837677 0 0.0038235832650105276 -0.0042651753101259583 0 0.0038490934457743216 -0.0041848511005837677 0 0.0038235832650105276 -0.0042651753101259583 0 0.0038298649161163842 -0.0042121999960491093 0 0.0038060787090675005 -0.0043060218548275405 0 0.0038033233049229519 -0.0043545824672162588 0 0.0038235832650105276 -0.0042651753101259583 0 0.0038033233049229519 -0.0043545824672162588 0 0.0038560276720062642 -0.0042907218434711462 0 0.0038235832650105276 -0.0042651753101259583 0 0.0038294628002485962 -0.0042403547389315713 0 0.0038060787090675005 -0.0043060218548275405 0 0.0038298649161163842 -0.0042121999960491093 0 0.0038060787090675005 -0.0043060218548275405 0 0.0038235832650105276 -0.0042651753101259583 0 0.0038298649161163842 -0.0042121999960491093 0 0.0038294628002485962 -0.0042403547389315713 0 0.0038298649161163842 -0.0042121999960491093 0 0.0038606236527542219 -0.0041472701682184849 0 0.0038294628002485962 -0.0042403547389315713 0 0.0038830988560128133 -0.0041029750763172286 0 0.0038606236527542219 -0.0041472701682184849 0 0.0039077876124592953 -0.0040894019619557046 0 0.0038830988560128133 -0.0041029750763172286 0 0.0039723401857591619 -0.0040186313974251179 0 0.0039077876124592953 -0.0040894019619557046 0 0.0038830988560128133 -0.0041029750763172286 0 0.0038606236527542219 -0.0041472701682184849 0 0.0039077876124592953 -0.0040894019619557046 0 0.0038563617561705251 -0.0041384412299130769 0 0.0038606236527542219 -0.0041472701682184849 0 0.0040998711406054385 -0.0039265878051290507 0 0.0042743523465755004 -0.0037541805233979242 0 0.0042314431127055494 -0.0039609101446319616 0 0.0040998711406054385 -0.0039265878051290507 0 0.0039973167730054686 -0.0039536153420185929 0 0.0040856148845337583 -0.0037717145344176657 0 0.0040998711406054385 -0.0039265878051290507 0 0.0040856148845337583 -0.0037717145344176657 0 0.0042743523465755004 -0.0037541805233979242 0 0.0040998711406054385 -0.0039265878051290507 0 0.0039973167730054686 -0.0039536153420185929 0 0.0039723401857591619 -0.0040186313974251179 0 0.0038830988560128133 -0.0041029750763172286 0 0.0039973167730054686 -0.0039536153420185929 0 0.0039723401857591619 -0.0040186313974251179 0 0.0039208688409503581 -0.0040902125764605652 0 0.0041086966275289925 -0.0040354743126508616 0 0.0038830988560128133 -0.0041029750763172286 0 0.0039427071031608255 -0.0041405098244572678 0 0.0040645360848007833 -0.0043038671649493808 0 0.0038830988560128133 -0.0041029750763172286 0 0.0039973167730054686 -0.0039536153420185929 0 0.0040856148845337583 -0.0037717145344176657 0 0.0040860687243583103 -0.0040428608320909288 0 0.0039427071031608255 -0.0041405098244572678 0 0.0040645360848007833 -0.0043038671649493808 0 0.0047075177932818764 -0.0042816912453152106 0 0.0045652351791126726 -0.0043686770186392408 0 0.0047678906604583281 -0.0042942536435971734 0 0.0041086966275289925 -0.0040354743126508616 0 0.004614079558535154 -0.0039272864022419944 0 0.0043326150453442038 -0.0042151271581230042 0 0.0047325915174446708 -0.0043003039008563141 0 0.0040860687243583103 -0.0040428608320909288 0 0.0040645360848007833 -0.0043038671649493808 0 0.004724980452399552 -0.0043471545528301053 0 0.0040860687243583103 -0.0040428608320909288 0 0.004724980452399552 -0.0043471545528301053 0 0.0047678906604583281 -0.0042942536435971734 0 0.004724980452399552 -0.0043471545528301053 0 0.0047678906604583281 -0.0042942536435971734 0 0.0049736896744844404 -0.0042148774478636209 0 0.004724980452399552 -0.0043471545528301053 0 0.0049736896744844404 -0.0042148774478636209 0 0.0051012054767069952 -0.0042256351781462601 0 0.004614079558535154 -0.0039272864022419944 0 0.0050537350807819898 -0.0039090773430546441 0 0.0047075177932818764 -0.0042816912453152106 0 0.0048022849896473506 -0.0042413020343255465 0 0.0047678906604583281 -0.0042942536435971734 0 0.0048760008873579503 -0.0042116626410866262 0 0.0048022849896473506 -0.0042413020343255465 0 0.0047678906604583281 -0.0042942536435971734 0 0.0048578615922173444 -0.0041875916887985608 0 0.0048760008873579503 -0.0042116626410866262 0 0.0048022849896473506 -0.0042413020343255465 0 0.0048760008873579503 -0.0042116626410866262 0 0.0047678906604583281 -0.0042942536435971734 0 0.0049736896744844404 -0.0042148774478636209 0 0.0047716333202352012 -0.0035937465955034409 0 0.0044288797228463619 -0.00379109541712819 0 0.0043858629531471488 -0.0040071555039416567 0 0.0045074914830234908 -0.0035185311839062835 0 0.0047716333202352012 -0.0035937465955034409 0 0.0050019297853159984 -0.003441991621461775 0 0.0045074914830234908 -0.0035185311839062835 0 0.0047716333202352012 -0.0035937465955034409 0 0.0044254675572030742 -0.0036771976885640206 0 0.0047716333202352012 -0.0035937465955034409 0 0.0044254675572030742 -0.0036771976885640206 0 0.0044288797228463619 -0.00379109541712819 0 0.0040856148845337583 -0.0037717145344176657 0 0.0045074914830234908 -0.0035185311839062835 0 0.0042743523465755004 -0.0037541805233979242 0 0.0042743523465755004 -0.0037541805233979242 0 0.0044288797228463619 -0.00379109541712819 0 0.0042314431127055494 -0.0039609101446319616 0 0.0042743523465755004 -0.0037541805233979242 0 0.0044254675572030742 -0.0036771976885640206 0 0.0044288797228463619 -0.00379109541712819 0 0.0045074914830234908 -0.0035185311839062835 0 0.0042743523465755004 -0.0037541805233979242 0 0.0044254675572030742 -0.0036771976885640206 0 0.0042314431127055494 -0.0039609101446319616 0 0.0043858629531471488 -0.0040071555039416567 0 0.0042064695215418288 -0.0040898887367956851 0 0.0044288797228463619 -0.00379109541712819 0 0.0042314431127055494 -0.0039609101446319616 0 0.0043858629531471488 -0.0040071555039416567 0 0.0047716333202352012 -0.0035937465955034409 0 0.0043858629531471488 -0.0040071555039416567 0 0.0045333362958551475 -0.0040463200395344946 0 0.0047786412737865509 -0.0035658065260530986 0 0.0048236883646296403 -0.003675805264215226 0 0.004321451910658785 -0.0041379281983921585 0 0.0043903854290359944 -0.0041684091235115687 0 0.0045333362958551475 -0.0040463200395344946 0 0.0043858629531471488 -0.0040071555039416567 0 0.004321451910658785 -0.0041379281983921585 0 0.0045333362958551475 -0.0040463200395344946 0 0.0043858629531471488 -0.0040071555039416567 0 0.0042064695215418288 -0.0040898887367956851 0 0.004321451910658785 -0.0041379281983921585 0 0.0042064695215418288 -0.0040898887367956851 0 0.0040928283025545645 -0.0041234103158236338 0 0.0040856264457363144 -0.0040425077989713768 0 0.0042064695215418288 -0.0040898887367956851 0 0.0040928283025545645 -0.0041234103158236338 0 0.0041662994614829066 -0.0041760222730530859 0 0.0042314431127055494 -0.0039609101446319616 0 0.0042064695215418288 -0.0040898887367956851 0 0.0040856264457363144 -0.0040425077989713768 0 0.0040998711406054385 -0.0039265878051290507 0 0.0040856264457363144 -0.0040425077989713768 0 0.0039723401857591619 -0.0040186313974251179 0 0.0040998711406054385 -0.0039265878051290507 0 0.0042314431127055494 -0.0039609101446319616 0 0.0040856264457363144 -0.0040425077989713768 0 0.0040856264457363144 -0.0040425077989713768 0 0.0039723401857591619 -0.0040186313974251179 0 0.0039847282449522242 -0.004090729838404669 0 0.0040928283025545645 -0.0041234103158236338 0 0.0039847282449522242 -0.004090729838404669 0 0.0040456896731814332 -0.0041757472118988895 0 0.0040928283025545645 -0.0041234103158236338 0 0.0040856264457363144 -0.0040425077989713768 0 0.0039847282449522242 -0.004090729838404669 0 0.0040928283025545645 -0.0041234103158236338 0 0.0040456896731814332 -0.0041757472118988895 0 0.0041662994614829066 -0.0041760222730530859 0 0.0040456896731814332 -0.0041757472118988895 0 0.0041662994614829066 -0.0041760222730530859 0 0.0041352907322456337 -0.0042241318068791415 0 0.0040456896731814332 -0.0041757472118988895 0 0.0041352907322456337 -0.0042241318068791415 0 0.0040729914317914192 -0.0042217829069270685 0 0.0040729914317914192 -0.0042217829069270685 0 0.0041085406854568319 -0.0042495071104945471 0 0.0040739966392805164 -0.004239110622447315 0 0.0041352907322456337 -0.0042241318068791415 0 0.0041085406854568319 -0.0042495071104945471 0 0.0041825802829484702 -0.0042526101948389787 0 0.0041352907322456337 -0.0042241318068791415 0 0.0040729914317914192 -0.0042217829069270685 0 0.0041085406854568319 -0.0042495071104945471 0 0.0041085406854568319 -0.0042495071104945471 0 0.00413711389430323 -0.0042809602901384605 0 0.0040815604309242699 -0.0042495380256215637 0 0.0041085406854568319 -0.0042495071104945471 0 0.0040739966392805164 -0.004239110622447315 0 0.0040815604309242699 -0.0042495380256215637 0 0.0040739966392805164 -0.004239110622447315 0 0.0040815604309242699 -0.0042495380256215637 0 0.0040986513014411767 -0.0042363184740522386 0 0.0038572788594478193 -0.0042898827553456377 0 0.0037705389228018045 -0.0042388252323938306 0 0.0038442821198752413 -0.0041667855982593476 0 0.0042505842088422325 -0.0042813862315151672 0 0.0041825802829484702 -0.0042526101948389787 0 0.00413711389430323 -0.0042809602901384605 0 0.0039210976329550062 -0.0044091733459116584 0 0.0040713806865459827 -0.0042304375563372168 0 0.0041085406854568319 -0.0042495071104945471 0 0.0041825802829484702 -0.0042526101948389787 0 0.00413711389430323 -0.0042809602901384605 0 0.0041352907322456337 -0.0042241318068791415 0 0.0041825802829484702 -0.0042526101948389787 0 0.0042615738322060587 -0.0042170324013272448 0 0.0042505842088422325 -0.0042813862315151672 0 0.0041825802829484702 -0.0042526101948389787 0 0.0042615738322060587 -0.0042170324013272448 0 0.0039210976329550062 -0.0044091733459116584 0 0.0046812196980018659 -0.0035745677377637284 0 0.0042505842088422325 -0.0042813862315151672 0 0.0042615738322060587 -0.0042170324013272448 0 0.0043477308570282957 -0.0042457322294554272 0 0.0042615738322060587 -0.0042170324013272448 0 0.0043903854290359944 -0.0041684091235115687 0 0.0043477308570282957 -0.0042457322294554272 0 0.0041662994614829066 -0.0041760222730530859 0 0.0041352907322456337 -0.0042241318068791415 0 0.0042615738322060587 -0.0042170324013272448 0 0.0042064695215418288 -0.0040898887367956851 0 0.0041662994614829066 -0.0041760222730530859 0 0.004321451910658785 -0.0041379281983921585 0 0.0041662994614829066 -0.0041760222730530859 0 0.0042615738322060587 -0.0042170324013272448 0 0.004321451910658785 -0.0041379281983921585 0 0.0042615738322060587 -0.0042170324013272448 0 0.004321451910658785 -0.0041379281983921585 0 0.0043903854290359944 -0.0041684091235115687 0 0.0052166609175233816 -0.0031398841887809721 0 0.0051613817292952974 -0.0030521130345926538 0 0.0051143078997706549 -0.0032852058804135483 0 0.0051613817292952974 -0.0030521130345926538 0 0.0050817072505186817 -0.0032304401781302352 0 0.0051143078997706549 -0.0032852058804135483 0 0.0051613817292952974 -0.0030521130345926538 0 0.0053549772819373618 -0.0028528228972763492 0 0.0051745639517534374 -0.0028585968530885366 0 0.0054330168526301138 -0.0027913290724746634 0 0.0046812196980018659 -0.0035745677377637284 0 0.0052166609175233816 -0.0031398841887809721 0 0.0051613817292952974 -0.0030521130345926538 0 0.0052055159626070054 -0.0030534383080106139 0 0.0048160954979968177 -0.0036688501739092854 0 0.0046812196980018659 -0.0035745677377637284 0 0.0053549772819373618 -0.0028528228972763492 0 0.00521584235546565 -0.0027566458704598386 0 0.0051745639517534374 -0.0028585968530885366 0 0.00521584235546565 -0.0027566458704598386 0 0.0052980474087491397 -0.002692672117023591 0 0.0052273299090018288 -0.0026525032474226684 0 0.00521584235546565 -0.0027566458704598386 0 0.0051770125550801259 -0.0027068308570089498 0 0.0052273299090018288 -0.0026525032474226684 0 0.0053549772819373618 -0.0028528228972763492 0 0.00521584235546565 -0.0027566458704598386 0 0.0052980474087491397 -0.002692672117023591 0 0.0038572788594478193 -0.0042898827553456377 0 0.0038004091346289736 -0.0043308542758259691 0 0.0037705389228018045 -0.0042388252323938306 0 0.0046812196980018659 -0.0035745677377637284 0 0.0045270289196208159 -0.0034568615791712954 0 0.0050873683178527538 -0.0025821985357905738 0 0.0049999519458262332 -0.0027682970488122397 0 0.0049999717527337267 -0.0024718808759852176 0 0.0050873683178527538 -0.0025821985357905738 0 0.0051236337712559522 -0.0027421009708009998 0 0.0051853678672650746 -0.0024538983292790415 0 0.00521584235546565 -0.0027566458704598386 0 0.0051770125550801259 -0.0027068308570089498 0 0.0051236337712559522 -0.0027421009708009998 0 0.0051770125550801259 -0.0027068308570089498 0 0.0051236337712559522 -0.0027421009708009998 0 0.0051422879366719784 -0.0026735226059228135 0 0.0051301895273827836 -0.0027295186586706343 0 0.005159279820251962 -0.0025643647144398657 0 0.0051745639517534374 -0.0028585968530885366 0 0.0051236337712559522 -0.0027421009708009998 0 0.0050899690515165616 -0.0028989075729077248 0 0.00521584235546565 -0.0027566458704598386 0 0.0051745639517534374 -0.0028585968530885366 0 0.0051236337712559522 -0.0027421009708009998 0 0.0050873683178527538 -0.0025821985357905738 0 0.0051236337712559522 -0.0027421009708009998 0 0.0049999519458262332 -0.0027682970488122397 0 0.0051236337712559522 -0.0027421009708009998 0 0.0049999519458262332 -0.0027682970488122397 0 0.0050899690515165616 -0.0028989075729077248 0 0.0051613817292952974 -0.0030521130345926538 0 0.0050899690515165616 -0.0028989075729077248 0 0.0049999179325306547 -0.0030646601044712423 0 0.0051613817292952974 -0.0030521130345926538 0 0.0049999179325306547 -0.0030646601044712423 0 0.0050817072505186817 -0.0032304401781302352 0 0.0049999519458262332 -0.0027682970488122397 0 0.0050899690515165616 -0.0028989075729077248 0 0.0049999179325306547 -0.0030646601044712423 0 0.0051613817292952974 -0.0030521130345926538 0 0.0051745639517534374 -0.0028585968530885366 0 0.0050899690515165616 -0.0028989075729077248 0 0.0049999179325306547 -0.0030646601044712423 0 0.0049999270425749205 -0.0033607068066178474 0 0.0050817072505186817 -0.0032304401781302352 0 0.0049999770763140368 -0.003360921868835842 0 0.0050802160273946441 -0.0035111093673164959 0 0.0049999270425749205 -0.0033607068066178474 0 0.0050743288754107165 -0.0033421101944585661 0 0.0050671426855373302 -0.0033958078287961214 0 0.0049999270425749205 -0.0033607068066178474 0 0.0050743288754107165 -0.0033421101944585661 0 0.0050817072505186817 -0.0032304401781302352 0 0.0050743288754107165 -0.0033421101944585661 0 0.0050817072505186817 -0.0032304401781302352 0 0.0051143078997706549 -0.0032852058804135483 0 0.0052166609175233816 -0.0031398841887809721 0 0.0051143078997706549 -0.0032852058804135483 0 0.0051432266620745895 -0.003374575992570046 0 0.0048160954979968177 -0.0036688501739092854 0 0.0048236883646296403 -0.003675805264215226 0 0.0051143078997706549 -0.0032852058804135483 0 0.0051432266620745895 -0.003374575992570046 0 0.0050445944899553362 -0.0034352395285675839 0 0.0051432266620745895 -0.003374575992570046 0 0.0050445944899553362 -0.0034352395285675839 0 0.0049699169666546708 -0.0035003436994183353 0 0.0047716333202352012 -0.0035937465955034409 0 0.0051432266620745895 -0.003374575992570046 0 0.0049699169666546708 -0.0035003436994183353 0 0.0050743288754107165 -0.0033421101944585661 0 0.0051143078997706549 -0.0032852058804135483 0 0.0050445944899553362 -0.0034352395285675839 0 0.0050743288754107165 -0.0033421101944585661 0 0.0050445944899553362 -0.0034352395285675839 0 0.0050671426855373302 -0.0033958078287961214 0 0.0051395552038631725 -0.0039090106452884929 0 0.0052054577919742129 -0.0039920541634884147 0 0.0051121861130265034 -0.0036897589958404986 0 0.0050445944899553362 -0.0034352395285675839 0 0.0050019297853159984 -0.003441991621461775 0 0.0050671426855373302 -0.0033958078287961214 0 0.0050537350807819898 -0.0039090773430546441 0 0.0050802160273946441 -0.0035111093673164959 0 0.0051429183617508964 -0.0039501680993875741 0 0.0050537350807819898 -0.0039090773430546441 0 0.0050445944899553362 -0.0034352395285675839 0 0.0049699169666546708 -0.0035003436994183353 0 0.0050019297853159984 -0.003441991621461775 0 0.0047716333202352012 -0.0035937465955034409 0 0.0049699169666546708 -0.0035003436994183353 0 0.0050019297853159984 -0.003441991621461775 0 0.0050536835688666636 -0.0040690833051750192 0 0.0050537350807819898 -0.0039090773430546441 0 0.0050313759822445767 -0.0041253777593560116 0 0.0049736896744844404 -0.0042148774478636209 0 0.0050529410281017362 -0.0041132028505934393 0 0.0051395552038631725 -0.0039090106452884929 0 0.0050529410281017362 -0.0041132028505934393 0 0.005084434024207391 -0.004046893722629682 0 0.0050313759822445767 -0.0041253777593560116 0 0.0050529410281017362 -0.0041132028505934393 0 0.005084434024207391 -0.004046893722629682 0 0.0050313759822445767 -0.0041253777593560116 0 0.005084434024207391 -0.004046893722629682 0 0.0050027589688615539 -0.0041216355274075892 0 0.0050313759822445767 -0.0041253777593560116 0 0.0049736896744844404 -0.0042148774478636209 0 0.0050027589688615539 -0.0041216355274075892 0 0.0048760008873579503 -0.0042116626410866262 0 0.0049736896744844404 -0.0042148774478636209 0 0.0050027589688615539 -0.0041216355274075892 0 0.0051395552038631725 -0.0039090106452884929 0 0.0051092600302773562 -0.0039659563267194584 0 0.0050908732944342713 -0.003797666781944951 0 0.0051395552038631725 -0.0039090106452884929 0 0.005084434024207391 -0.004046893722629682 0 0.0051092600302773562 -0.0039659563267194584 0 0.0050815297820267884 -0.0038872605956955806 0 0.0051092600302773562 -0.0039659563267194584 0 0.0050908732944342713 -0.003797666781944951 0 0.0050815297820267884 -0.0038872605956955806 0 0.0050908732944342713 -0.003797666781944951 0 0.0049999078462328412 -0.0036451221635118575 0 0.0050908732944342713 -0.003797666781944951 0 0.0049999078462328412 -0.0036451221635118575 0 0.0050510098009823833 -0.0036316275286935561 0 0.0049999757624335011 -0.0033610632819749183 0 0.0049999078462328412 -0.0036451221635118575 0 0.0050510098009823833 -0.0036316275286935561 0 0.0049999757624335011 -0.0033610632819749183 0 0.0050510098009823833 -0.0036316275286935561 0 0.0051121861130265034 -0.0036897589958404986 0 0.0050908732944342713 -0.003797666781944951 0 0.0050510098009823833 -0.0036316275286935561 0 0.0051121861130265034 -0.0036897589958404986 0 0.0051395552038631725 -0.0039090106452884929 0 0.0050908732944342713 -0.003797666781944951 0 0.0051121861130265034 -0.0036897589958404986 0 0.0051504769677587128 -0.0014672136040931147 0 0.0052058574440954821 -0.0014450149599107708 0 0.0051877300375782927 -0.0014936196978000084 0 0.0051504769677587128 -0.0014672136040931147 0 0.0052058574440954821 -0.0014450149599107708 0 0.0051573020827871347 -0.0014094016086024913 0 0.0052513914104272939 -0.0014190526547109374 0 0.0052576002834229833 -0.0014955200677775594 0 0.0053110264220828695 -0.0014015939139833899 0 0.0052058574440954821 -0.0014450149599107708 0 0.0052513914104272939 -0.0014190526547109374 0 0.0052155023190786605 -0.0013748305182611665 0 0.0052058574440954821 -0.0014450149599107708 0 0.0052513914104272939 -0.0014190526547109374 0 0.0052576002834229833 -0.0014955200677775594 0 0.0052058574440954821 -0.0014450149599107708 0 0.0052576002834229833 -0.0014955200677775594 0 0.0051877300375782927 -0.0014936196978000084 0 0.0052576002834229833 -0.0014955200677775594 0 0.0053551732186464945 -0.0015690614606009893 0 0.0052418405652541571 -0.0015786882848571159 0 0.0052576002834229833 -0.0014955200677775594 0 0.0051921038700188538 -0.0015454642752977914 0 0.0052418405652541571 -0.0015786882848571159 0 0.0052576002834229833 -0.0014955200677775594 0 0.0051921038700188538 -0.0015454642752977914 0 0.0051877300375782927 -0.0014936196978000084 0 0.0051921038700188538 -0.0015454642752977914 0 0.0051877300375782927 -0.0014936196978000084 0 0.0051327798387275541 -0.001515898416779019 0 0.0051504769677587128 -0.0014672136040931147 0 0.0051877300375782927 -0.0014936196978000084 0 0.0051327798387275541 -0.001515898416779019 0 0.0051921038700188538 -0.0015454642752977914 0 0.0051415978964738209 -0.0015616311831207277 0 0.0051327798387275541 -0.001515898416779019 0 0.0050285574085631611 -0.0013597967647686643 0 0.005024402497295989 -0.0015929455937857123 0 0.0051009744541393939 -0.0015577511886494773 0 0.0050786631945602427 -0.0015267088278704286 0 0.0051327798387275541 -0.001515898416779019 0 0.0050307713779133177 -0.0013419776327328996 0 0.005000001484066533 -0.0015828356185888836 0 0.0050372161016603153 -0.0015891289850174899 0 0.0051415978964738209 -0.0015616311831207277 0 0.0051009744541393939 -0.0015577511886494773 0 0.0051327798387275541 -0.001515898416779019 0 0.0050427944710148631 -0.0014577697138525576 0 0.0050307713779133177 -0.0013419776327328996 0 0.0050083919325668936 -0.0016020423419554194 0 0.0051009744541393939 -0.0015577511886494773 0 0.0050786631945602427 -0.0015267088278704286 0 0.0050574575022365644 -0.0015759601174203984 0 0.0050786631945602427 -0.0015267088278704286 0 0.0050434497595424456 -0.0015325437710225437 0 0.0050574575022365644 -0.0015759601174203984 0 0.0050786631945602427 -0.0015267088278704286 0 0.0050646985972345104 -0.0014999510576761193 0 0.0050939213066751188 -0.001483275623038619 0 0.0050786631945602427 -0.0015267088278704286 0 0.0050646985972345104 -0.0014999510576761193 0 0.0050434497595424456 -0.0015325437710225437 0 0.0050786631945602427 -0.0015267088278704286 0 0.0051327798387275541 -0.001515898416779019 0 0.0050939213066751188 -0.001483275623038619 0 0.0050434497595424456 -0.0015325437710225437 0 0.0050427944710148631 -0.0014577697138525576 0 0.0050083919325668936 -0.0016020423419554194 0 0.0050434497595424456 -0.0015325437710225437 0 0.0050083919325668936 -0.0016020423419554194 0 0.0050574575022365644 -0.0015759601174203984 0 0.0050646985972345104 -0.0014999510576761193 0 0.0050434497595424456 -0.0015325437710225437 0 0.0050427944710148631 -0.0014577697138525576 0 0.0051504769677587128 -0.0014672136040931147 0 0.0051327798387275541 -0.001515898416779019 0 0.0050939213066751188 -0.001483275623038619 0 0.0051504769677587128 -0.0014672136040931147 0 0.0050939213066751188 -0.001483275623038619 0 0.0051015660849749638 -0.0014332272930810805 0 0.0050646985972345104 -0.0014999510576761193 0 0.0050427944710148631 -0.0014577697138525576 0 0.0050939213066751188 -0.001483275623038619 0 0.0050427944710148631 -0.0014577697138525576 0 0.0050939213066751188 -0.001483275623038619 0 0.0051015660849749638 -0.0014332272930810805 0 0.0050427944710148631 -0.0014577697138525576 0 0.0051015660849749638 -0.0014332272930810805 0 0.005072092298016191 -0.0013936497687949518 0 0.0051504769677587128 -0.0014672136040931147 0 0.0051015660849749638 -0.0014332272930810805 0 0.0051573020827871347 -0.0014094016086024913 0 0.0051015660849749638 -0.0014332272930810805 0 0.0051108197306027692 -0.0013873827109055542 0 0.0051573020827871347 -0.0014094016086024913 0 0.0051108197306027692 -0.0013873827109055542 0 0.0051424600225509313 -0.0013532358701432601 0 0.0051573020827871347 -0.0014094016086024913 0 0.0050307713779133177 -0.0013419776327328996 0 0.0049999818756436016 -0.0012865118387658866 0 0.005000001484066533 -0.0015828356185888836 0 0.0051108197306027692 -0.0013873827109055542 0 0.005072092298016191 -0.0013936497687949518 0 0.0050839072147900238 -0.0013519880920842165 0 0.0051015660849749638 -0.0014332272930810805 0 0.0051108197306027692 -0.0013873827109055542 0 0.005072092298016191 -0.0013936497687949518 0 0.0050839072147900238 -0.0013519880920842165 0 0.0050307713779133177 -0.0013419776327328996 0 0.0050980991946447691 -0.0013020782007319787 0 0.0051108197306027692 -0.0013873827109055542 0 0.0050839072147900238 -0.0013519880920842165 0 0.0051424600225509313 -0.0013532358701432601 0 0.0050839072147900238 -0.0013519880920842165 0 0.0050980991946447691 -0.0013020782007319787 0 0.0051424600225509313 -0.0013532358701432601 0 0.0050427944710148631 -0.0014577697138525576 0 0.005072092298016191 -0.0013936497687949518 0 0.0050307713779133177 -0.0013419776327328996 0 0.005072092298016191 -0.0013936497687949518 0 0.0050839072147900238 -0.0013519880920842165 0 0.0050307713779133177 -0.0013419776327328996 0 0.0050307713779133177 -0.0013419776327328996 0 0.0049999818756436016 -0.0012865118387658866 0 0.0050980991946447691 -0.0013020782007319787 0 0.0049999818756436016 -0.0012865118387658866 0 0.0050980991946447691 -0.0013020782007319787 0 0.0051250338877078605 -0.001201102368358442 0 0.0050980991946447691 -0.0013020782007319787 0 0.0051884700222774253 -0.0012954805303558355 0 0.0051250338877078605 -0.001201102368358442 0 0.0050980991946447691 -0.0013020782007319787 0 0.0051884700222774253 -0.0012954805303558355 0 0.0051424600225509313 -0.0013532358701432601 0 0.0051884700222774253 -0.0012954805303558355 0 0.0051424600225509313 -0.0013532358701432601 0 0.0052155023190786605 -0.0013748305182611665 0 0.0051424600225509313 -0.0013532358701432601 0 0.0051573020827871347 -0.0014094016086024913 0 0.0052155023190786605 -0.0013748305182611665 0 0.0052058574440954821 -0.0014450149599107708 0 0.0051573020827871347 -0.0014094016086024913 0 0.0052155023190786605 -0.0013748305182611665 0 0.0052513914104272939 -0.0014190526547109374 0 0.0052647456133262417 -0.0013812505193888495 0 0.0053110264220828695 -0.0014015939139833899 0 0.0052513914104272939 -0.0014190526547109374 0 0.0052647456133262417 -0.0013812505193888495 0 0.0052155023190786605 -0.0013748305182611665 0 0.0052647456133262417 -0.0013812505193888495 0 0.0052155023190786605 -0.0013748305182611665 0 0.0052745677567009311 -0.0013326340443489864 0 0.0051884700222774253 -0.0012954805303558355 0 0.0052745677567009311 -0.0013326340443489864 0 0.005231777856368019 -0.0012406690852675671 0 0.0051884700222774253 -0.0012954805303558355 0 0.0052155023190786605 -0.0013748305182611665 0 0.0052745677567009311 -0.0013326340443489864 0 0.0053027271411435119 -0.0014579953739268965 0 0.0053301488263160354 -0.0012901753063839295 0 0.0052594992213442597 -0.0015252836258282984 0 0.0054306748881988599 -0.0014088275077127721 0 0.0054009560304532434 -0.0016698239140185975 0 0.0052745677567009311 -0.0013326340443489864 0 0.0053396529547418145 -0.0012606950521288586 0 0.005231777856368019 -0.0012406690852675671 0 0.0052745677567009311 -0.0013326340443489864 0 0.0053435128131907204 -0.0013942871690643354 0 0.0053396529547418145 -0.0012606950521288586 0 0.0052594992213442597 -0.0015252836258282984 0 0.0054306748881988599 -0.0014088275077127721 0 0.0053396529547418145 -0.0012606950521288586 0 0.0052745677567009311 -0.0013326340443489864 0 0.0053435128131907204 -0.0013942871690643354 0 0.0053110264220828695 -0.0014015939139833899 0 0.0052647456133262417 -0.0013812505193888495 0 0.0052745677567009311 -0.0013326340443489864 0 0.0053110264220828695 -0.0014015939139833899 0 0.0054306748881988599 -0.0014088275077127721 0 0.0055993931517457057 -0.0015258857090820976 0 0.0054009560304532434 -0.0016698239140185975 0 0.0054306748881988599 -0.0014088275077127721 0 0.0055993931517457057 -0.0015258857090820976 0 0.0056248053653624756 -0.0013100981340333127 0 0.0055993931517457057 -0.0015258857090820976 0 0.0054009560304532434 -0.0016698239140185975 0 0.005701425040230159 -0.0018056913908327797 0 0.0053088881620688188 -0.0013848752638276475 0 0.0052700770150802181 -0.0016889917241263259 0 0.0052594992213442597 -0.0015252836258282984 0 0.0054009560304532434 -0.0016698239140185975 0 0.0052057784198328285 -0.0017991471318360558 0 0.0052576002834229833 -0.0014955200677775594 0 0.0053110264220828695 -0.0014015939139833899 0 0.0053551732186464945 -0.0015690614606009893 0 0.0053435128131907204 -0.0013942871690643354 0 0.0053110264220828695 -0.0014015939139833899 0 0.0053311892676090782 -0.0015469886333882962 0 0.0053027271411435119 -0.0014579953739268965 0 0.0052700770150802181 -0.0016889917241263259 0 0.0053551732186464945 -0.0015690614606009893 0 0.0053460797345333145 -0.0018566620312357957 0 0.0052449394640098962 -0.0017766430822605214 0 0.0054009560304532434 -0.0016698239140185975 0 0.0052057784198328285 -0.0017991471318360558 0 0.0054149568797912783 -0.0019312530855846203 0 0.0052700770150802181 -0.0016889917241263259 0 0.0052539584475066641 -0.0019780271304030831 0 0.0052057784198328285 -0.0017991471318360558 0 0.0054149568797912783 -0.0019312530855846203 0 0.0052377613007653871 -0.0021979380708306586 0 0.0052700770150802181 -0.0016889917241263259 0 0.0052646477868547037 -0.0020993456582397399 0 0.0054009560304532434 -0.0016698239140185975 0 0.0054149568797912783 -0.0019312530855846203 0 0.005701425040230159 -0.0018056913908327797 0 0.0045586890335602617 -0.0031131162302017118 0 0.0047675648413257202 -0.0027121402591050838 0 0.0054149568797912783 -0.0019312530855846203 0 0.0055154481224101862 -0.0022042811891674233 0 0.005701425040230159 -0.0018056913908327797 0 0.0054149568797912783 -0.0019312530855846203 0 0.0055154481224101862 -0.0022042811891674233 0 0.0052377613007653871 -0.0021979380708306586 0 0.0055154481224101862 -0.0022042811891674233 0 0.0052377613007653871 -0.0021979380708306586 0 0.0052914025375811712 -0.0026241546420161781 0 0.005194603883067481 -0.0017559649009861414 0 0.0052445380957542847 -0.0021118247536367975 0 0.005161651433191904 -0.0021171436569006902 0 0.0052445380957542847 -0.0021118247536367975 0 0.005161651433191904 -0.0021171436569006902 0 0.0052913424978141294 -0.0024534564438722928 0 0.0053460797345333145 -0.0018566620312357957 0 0.0052449394640098962 -0.0017766430822605214 0 0.0051778977715037401 -0.0021411371779498211 0 0.0052449394640098962 -0.0017766430822605214 0 0.0051648455216592414 -0.0019068429643216839 0 0.0052212024834421399 -0.0020027578651691208 0 0.0052395099905498009 -0.001798137520113127 0 0.0052015989486616848 -0.0020691102197382969 0 0.0051652876509176359 -0.0018036210437546341 0 0.0051275253300407187 -0.0018401415187613113 0 0.0051648455216592414 -0.0019068429643216839 0 0.0051652876509176359 -0.0018036210437546341 0 0.0052449394640098962 -0.0017766430822605214 0 0.0051648455216592414 -0.0019068429643216839 0 0.0051652876509176359 -0.0018036210437546341 0 0.0051683016512685627 -0.0017141622384097093 0 0.0051194085114310006 -0.0017732522492266147 0 0.0051652876509176359 -0.0018036210437546341 0 0.0052449394640098962 -0.0017766430822605214 0 0.0051683016512685627 -0.0017141622384097093 0 0.0051652876509176359 -0.0018036210437546341 0 0.0051194085114310006 -0.0017732522492266147 0 0.0051275253300407187 -0.0018401415187613113 0 0.0052449394640098962 -0.0017766430822605214 0 0.0052359653723916049 -0.0016631964697384387 0 0.0051683016512685627 -0.0017141622384097093 0 0.0053551732186464945 -0.0015690614606009893 0 0.0052449394640098962 -0.0017766430822605214 0 0.0052359653723916049 -0.0016631964697384387 0 0.0051683016512685627 -0.0017141622384097093 0 0.0051732067186504582 -0.0016226126447868791 0 0.0051254652177481009 -0.0016477364658245806 0 0.0052359653723916049 -0.0016631964697384387 0 0.0051683016512685627 -0.0017141622384097093 0 0.0051732067186504582 -0.0016226126447868791 0 0.0051683016512685627 -0.0017141622384097093 0 0.0051254652177481009 -0.0016477364658245806 0 0.0051076171306616283 -0.0016989055666775392 0 0.0051732067186504582 -0.0016226126447868791 0 0.0051198964534059782 -0.0016027643538566673 0 0.0051254652177481009 -0.0016477364658245806 0 0.0051921038700188538 -0.0015454642752977914 0 0.0051415978964738209 -0.0015616311831207277 0 0.0051732067186504582 -0.0016226126447868791 0 0.0051415978964738209 -0.0015616311831207277 0 0.0051732067186504582 -0.0016226126447868791 0 0.0051198964534059782 -0.0016027643538566673 0 0.0051921038700188538 -0.0015454642752977914 0 0.0051732067186504582 -0.0016226126447868791 0 0.0052418405652541571 -0.0015786882848571159 0 0.0053551732186464945 -0.0015690614606009893 0 0.0052359653723916049 -0.0016631964697384387 0 0.0052418405652541571 -0.0015786882848571159 0 0.0052359653723916049 -0.0016631964697384387 0 0.0051732067186504582 -0.0016226126447868791 0 0.0052418405652541571 -0.0015786882848571159 0 0.005000001484066533 -0.0015828356185888836 0 0.0050372161016603153 -0.0015891289850174899 0 0.0050396314675483587 -0.0018364682663899901 0 0.0050083919325668936 -0.0016020423419554194 0 0.0050532985512317906 -0.0016925443881552131 0 0.0050183476233515139 -0.0018659852883020284 0 0.005024402497295989 -0.0015929455937857123 0 0.0050290931788605905 -0.0018501578403793686 0 0.0050083919325668936 -0.0016020423419554194 0 0.0050565369703177432 -0.0016180423226601381 0 0.0050532985512317906 -0.0016925443881552131 0 0.0050083919325668936 -0.0016020423419554194 0 0.0050574575022365644 -0.0015759601174203984 0 0.0050565369703177432 -0.0016180423226601381 0 0.0051009744541393939 -0.0015577511886494773 0 0.0050574575022365644 -0.0015759601174203984 0 0.0050842620275580929 -0.0015988226841669485 0 0.0050574575022365644 -0.0015759601174203984 0 0.0050842620275580929 -0.0015988226841669485 0 0.0050565369703177432 -0.0016180423226601381 0 0.0051415978964738209 -0.0015616311831207277 0 0.0051009744541393939 -0.0015577511886494773 0 0.0051198964534059782 -0.0016027643538566673 0 0.0051009744541393939 -0.0015577511886494773 0 0.0050842620275580929 -0.0015988226841669485 0 0.0051198964534059782 -0.0016027643538566673 0 0.0050842620275580929 -0.0015988226841669485 0 0.0051198964534059782 -0.0016027643538566673 0 0.0050862257947218029 -0.0016397910150114407 0 0.0051198964534059782 -0.0016027643538566673 0 0.0051254652177481009 -0.0016477364658245806 0 0.0050862257947218029 -0.0016397910150114407 0 0.0050565369703177432 -0.0016180423226601381 0 0.0050862257947218029 -0.0016397910150114407 0 0.0050532985512317906 -0.0016925443881552131 0 0.0050842620275580929 -0.0015988226841669485 0 0.0050565369703177432 -0.0016180423226601381 0 0.0050862257947218029 -0.0016397910150114407 0 0.0050862257947218029 -0.0016397910150114407 0 0.0050532985512317906 -0.0016925443881552131 0 0.0051076171306616283 -0.0016989055666775392 0 0.0051254652177481009 -0.0016477364658245806 0 0.0050862257947218029 -0.0016397910150114407 0 0.0051076171306616283 -0.0016989055666775392 0 0.0051683016512685627 -0.0017141622384097093 0 0.0051076171306616283 -0.0016989055666775392 0 0.0051194085114310006 -0.0017732522492266147 0 0.0050532985512317906 -0.0016925443881552131 0 0.0051076171306616283 -0.0016989055666775392 0 0.0050722065580550996 -0.0017571033040598414 0 0.005000001484066533 -0.0015828356185888836 0 0.0050396314675483587 -0.0018364682663899901 0 0.0049999984784615649 -0.0018791782687747158 0 0.0050532985512317906 -0.0016925443881552131 0 0.0050722065580550996 -0.0017571033040598414 0 0.0050183476233515139 -0.0018659852883020284 0 0.0050722065580550996 -0.0017571033040598414 0 0.0050849615163083952 -0.0018248636976795859 0 0.0050183476233515139 -0.0018659852883020284 0 0.0051076171306616283 -0.0016989055666775392 0 0.0051194085114310006 -0.0017732522492266147 0 0.0050722065580550996 -0.0017571033040598414 0 0.0051194085114310006 -0.0017732522492266147 0 0.0050722065580550996 -0.0017571033040598414 0 0.0050849615163083952 -0.0018248636976795859 0 0.0051194085114310006 -0.0017732522492266147 0 0.0051275253300407187 -0.0018401415187613113 0 0.0050849615163083952 -0.0018248636976795859 0 0.0051275253300407187 -0.0018401415187613113 0 0.0050849615163083952 -0.0018248636976795859 0 0.0050943652592954271 -0.0018865225532887124 0 0.0050849615163083952 -0.0018248636976795859 0 0.0050943652592954271 -0.0018865225532887124 0 0.0050183476233515139 -0.0018659852883020284 0 0.0051275253300407187 -0.0018401415187613113 0 0.0050943652592954271 -0.0018865225532887124 0 0.0051648455216592414 -0.0019068429643216839 0 0.0050183476233515139 -0.0018659852883020284 0 0.0050944086940019973 -0.0019744096533585633 0 0.0050327951378566728 -0.002103156075496744 0 0.0050396314675483587 -0.0018364682663899901 0 0.0049999984784615649 -0.0018791782687747158 0 0.0050423598315784517 -0.0020835813003065077 0 0.0050290931788605905 -0.0018501578403793686 0 0.0050373025572450977 -0.0020959628241831165 0 0.0050943652592954271 -0.0018865225532887124 0 0.0050183476233515139 -0.0018659852883020284 0 0.0050944086940019973 -0.0019744096533585633 0 0.0050943652592954271 -0.0018865225532887124 0 0.0050944086940019973 -0.0019744096533585633 0 0.0051648455216592414 -0.0019068429643216839 0 0.0050944086940019973 -0.0019744096533585633 0 0.0051648455216592414 -0.0019068429643216839 0 0.0051450703286913188 -0.0020070810089518137 0 0.0051051643923132918 -0.0020480071946042803 0 0.0051450703286913188 -0.0020070810089518137 0 0.0051399781819056554 -0.0021012997392384825 0 0.0050944086940019973 -0.0019744096533585633 0 0.0051051643923132918 -0.0020480071946042803 0 0.0050327951378566728 -0.002103156075496744 0 0.0050944086940019973 -0.0019744096533585633 0 0.0051051643923132918 -0.0020480071946042803 0 0.0051450703286913188 -0.0020070810089518137 0 0.0053460797345333145 -0.0018566620312357957 0 0.0051778977715037401 -0.0021411371779498211 0 0.0052982220512327758 -0.0022276309160465888 0 0.0051648455216592414 -0.0019068429643216839 0 0.0051450703286913188 -0.0020070810089518137 0 0.0052212024834421399 -0.0020027578651691208 0 0.0051450703286913188 -0.0020070810089518137 0 0.0052212024834421399 -0.0020027578651691208 0 0.0051399781819056554 -0.0021012997392384825 0 0.005138682479767496 -0.0024894878604261464 0 0.0052373895094383191 -0.0025479577277758374 0 0.0052982220512327758 -0.0022276309160465888 0 0.0052212024834421399 -0.0020027578651691208 0 0.0051399781819056554 -0.0021012997392384825 0 0.0052024473752523056 -0.0022249147567664691 0 0.0051778977715037401 -0.0021411371779498211 0 0.005138682479767496 -0.0024894878604261464 0 0.0052982220512327758 -0.0022276309160465888 0 0.0052015989486616848 -0.0020691102197382969 0 0.0051725010467043517 -0.0023549283007174245 0 0.0051399781819056554 -0.0021012997392384825 0 0.0051092295476038302 -0.0022109204286342755 0 0.0052024473752523056 -0.0022249147567664691 0 0.0049999984784615649 -0.0018791782687747158 0 0.0050000036931964779 -0.0021755138177998634 0 0.0050423598315784517 -0.0020835813003065077 0 0.0051051643923132918 -0.0020480071946042803 0 0.0050327951378566728 -0.002103156075496744 0 0.0051399781819056554 -0.0021012997392384825 0 0.0050327951378566728 -0.002103156075496744 0 0.0051399781819056554 -0.0021012997392384825 0 0.0051092295476038302 -0.0022109204286342755 0 0.0050000036931964779 -0.0021755138177998634 0 0.0050423598315784517 -0.0020835813003065077 0 0.0050427002571425423 -0.0023327021527111257 0 0.0050327951378566728 -0.002103156075496744 0 0.0050427002571425423 -0.0023327021527111257 0 0.0051092295476038302 -0.0022109204286342755 0 0.0050000036931964779 -0.0021755138177998634 0 0.0050427002571425423 -0.0023327021527111257 0 0.0049999717527337267 -0.0024718808759852176 0 0.0050373025572450977 -0.0020959628241831165 0 0.005042059854251553 -0.0023171127614471446 0 0.0050427002571425423 -0.0023327021527111257 0 0.0051345593449570364 -0.0023051666090248414 0 0.0051092295476038302 -0.0022109204286342755 0 0.005138682479767496 -0.0024894878604261464 0 0.0051980844857114081 -0.0025875289023288462 0 0.0051801673366379183 -0.0026358758369980986 0 0.0051345593449570364 -0.0023051666090248414 0 0.0051092295476038302 -0.0022109204286342755 0 0.0052024473752523056 -0.0022249147567664691 0 0.0051725010467043517 -0.0023549283007174245 0 0.005159279820251962 -0.0025643647144398657 0 0.0051345593449570364 -0.0023051666090248414 0 0.0052024473752523056 -0.0022249147567664691 0 0.0051853678672650746 -0.0024538983292790415 0 0.005138682479767496 -0.0024894878604261464 0 0.0052373895094383191 -0.0025479577277758374 0 0.0051980844857114081 -0.0025875289023288462 0 0.0052104256140995016 -0.0025911502696000328 0 0.0051980844857114081 -0.0025875289023288462 0 0.0052066643517098476 -0.0025926015975498481 0 0.0052419433018402817 -0.0025586590566382514 0 0.0052253962451247827 -0.0025780770162692652 0 0.0052419433018402817 -0.0025586590566382514 0 0.0052368457832132993 -0.0025727647826380806 0 0.0051980844857114081 -0.0025875289023288462 0 0.0052066643517098476 -0.0025926015975498481 0 0.0052105894666614836 -0.002612413266307248 0 0.0051770125550801259 -0.0027068308570089498 0 0.0051801673366379183 -0.0026358758369980986 0 0.0051422879366719784 -0.0026735226059228135 0 0.0051770125550801259 -0.0027068308570089498 0 0.0051801673366379183 -0.0026358758369980986 0 0.0052273299090018288 -0.0026525032474226684 0 0.005138682479767496 -0.0024894878604261464 0 0.0051801673366379183 -0.0026358758369980986 0 0.0051422879366719784 -0.0026735226059228135 0 0.0051980844857114081 -0.0025875289023288462 0 0.0051801673366379183 -0.0026358758369980986 0 0.0052105894666614836 -0.002612413266307248 0 0.0050427002571425423 -0.0023327021527111257 0 0.0051853678672650746 -0.0024538983292790415 0 0.0049999717527337267 -0.0024718808759852176 0 0.0050873683178527538 -0.0025821985357905738 0 0.0051853678672650746 -0.0024538983292790415 0 0.0049999717527337267 -0.0024718808759852176 0 0.0050427002571425423 -0.0023327021527111257 0 0.0051345593449570364 -0.0023051666090248414 0 0.0051853678672650746 -0.0024538983292790415 0 0.0037705389228018045 -0.0042388252323938306 0 0.003731804039522355 -0.004116637670578272 0 0.0038442821198752413 -0.0041667855982593476 0 0.0045270289196208159 -0.0034568615791712954 0 0.0044512968347163138 -0.0034183884030123666 0 0.0052980474087491397 -0.002692672117023591 0 0.0052273299090018288 -0.0026525032474226684 0 0.0052531503314176466 -0.0025947757761009553 0 0.0051801673366379183 -0.0026358758369980986 0 0.0052273299090018288 -0.0026525032474226684 0 0.0052105894666614836 -0.002612413266307248 0 0.0052273299090018288 -0.0026525032474226684 0 0.0052105894666614836 -0.002612413266307248 0 0.0052302997610296715 -0.0025980043441960437 0 0.0052273299090018288 -0.0026525032474226684 0 0.0052302997610296715 -0.0025980043441960437 0 0.0052531503314176466 -0.0025947757761009553 0 0.0052302997610296715 -0.0025980043441960437 0 0.0052531503314176466 -0.0025947757761009553 0 0.0052353003418775064 -0.0025532111772952285 0 0.0052108855920993498 -0.0025908609548239746 0 0.0052302997610296715 -0.0025980043441960437 0 0.0052353003418775064 -0.0025532111772952285 0 0.0052108855920993498 -0.0025908609548239746 0 0.0052066643517098476 -0.0025926015975498481 0 0.0052302997610296715 -0.0025980043441960437 0 0.0052066643517098476 -0.0025926015975498481 0 0.0052105894666614836 -0.002612413266307248 0 0.0052302997610296715 -0.0025980043441960437 0 0.003731804039522355 -0.004116637670578272 0 0.0037889234920193897 -0.0040482490371261323 0 0.0038442821198752413 -0.0041667855982593476 0 0.0037889234920193897 -0.0040482490371261323 0 0.0036998759061949754 -0.0039720220851323764 0 0.0037960408991625002 -0.0039542152273324737 0 0.003731804039522355 -0.004116637670578272 0 0.0037889234920193897 -0.0040482490371261323 0 0.0036998759061949754 -0.0039720220851323764 0 0.0044512968347163138 -0.0034183884030123666 0 0.0049180527457128882 -0.002937522669647509 0 0.0052419433018402817 -0.0025586590566382514 0 0.0049180527457128882 -0.002937522669647509 0 0.0051059261896714654 -0.0027900597073057067 0 0.0051335075044012584 -0.0024621086109881392 0 0.0052913424978141294 -0.0024534564438722928 0 0.0052419433018402817 -0.0025586590566382514 0 0.0052075612506514669 -0.0023665729764406696 0 0.0052539584475066641 -0.0019780271304030831 0 0.0052075612506514669 -0.0023665729764406696 0 0.0052646477868547037 -0.0020993456582397399 0 0.0049180527457128882 -0.002937522669647509 0 0.005161651433191904 -0.0021171436569006902 0 0.0051335075044012584 -0.0024621086109881392 0 0.0052913424978141294 -0.0024534564438722928 0 0.0045586890335602617 -0.0031131162302017118 0 0.0049180527457128882 -0.002937522669647509 0 0.0037543364021074637 -0.0038382003877842747 0 0.0036998759061949754 -0.0039720220851323764 0 0.0037960408991625002 -0.0039542152273324737 0 0.0037543364021074637 -0.0038382003877842747 0 0.0037960408991625002 -0.0039542152273324737 0 0.0038737118021363952 -0.0039014990280241669 0 0.0037960408991625002 -0.0039542152273324737 0 0.0038737118021363952 -0.0039014990280241669 0 0.003878399497484402 -0.0040421148718021169 0 0.0038737118021363952 -0.0039014990280241669 0 0.0039353516722728582 -0.0039837023114014823 0 0.0039994428695557275 -0.0039195781805395104 0 0.0038737118021363952 -0.0039014990280241669 0 0.0039353516722728582 -0.0039837023114014823 0 0.003878399497484402 -0.0040421148718021169 0 0.003878399497484402 -0.0040421148718021169 0 0.0039353125155502794 -0.004149402078336516 0 0.0039960741717920134 -0.0040714607278845684 0 0.0039353516722728582 -0.0039837023114014823 0 0.003878399497484402 -0.0040421148718021169 0 0.0039960741717920134 -0.0040714607278845684 0 0.0037889234920193897 -0.0040482490371261323 0 0.0037960408991625002 -0.0039542152273324737 0 0.003878399497484402 -0.0040421148718021169 0 0.0037889234920193897 -0.0040482490371261323 0 0.003878399497484402 -0.0040421148718021169 0 0.0038442821198752413 -0.0041667855982593476 0 0.003878399497484402 -0.0040421148718021169 0 0.0039353125155502794 -0.004149402078336516 0 0.0038442821198752413 -0.0041667855982593476 0 0.0039353125155502794 -0.004149402078336516 0 0.0039345915747017327 -0.0042456011442482825 0 0.0040452891655237489 -0.0042084546008959696 0 0.0039353125155502794 -0.004149402078336516 0 0.0039345915747017327 -0.0042456011442482825 0 0.0038442821198752413 -0.0041667855982593476 0 0.0038572788594478193 -0.0042898827553456377 0 0.0039345915747017327 -0.0042456011442482825 0 0.0038442821198752413 -0.0041667855982593476 0 0.0040815604309242699 -0.0042495380256215637 0 0.0040986513014411767 -0.0042363184740522386 0 0.0040452891655237489 -0.0042084546008959696 0 0.0040713806865459827 -0.0042304375563372168 0 0.0040444090912563416 -0.0042212155037832013 0 0.00413711389430323 -0.0042809602901384605 0 0.0040815604309242699 -0.0042495380256215637 0 0.0040452891655237489 -0.0042084546008959696 0 0.0040452891655237489 -0.0042084546008959696 0 0.0040836340104798731 -0.0040950047805616095 0 0.0039960741717920134 -0.0040714607278845684 0 0.0039353125155502794 -0.004149402078336516 0 0.0040452891655237489 -0.0042084546008959696 0 0.0039960741717920134 -0.0040714607278845684 0 0.0040986513014411767 -0.0042363184740522386 0 0.0040452891655237489 -0.0042084546008959696 0 0.0040836340104798731 -0.0040950047805616095 0 0.0040836340104798731 -0.0040950047805616095 0 0.0039960741717920134 -0.0040714607278845684 0 0.0039994428695557275 -0.0039195781805395104 0 0.0039353516722728582 -0.0039837023114014823 0 0.0039960741717920134 -0.0040714607278845684 0 0.0039994428695557275 -0.0039195781805395104 0 0.0040836340104798731 -0.0040950047805616095 0 0.0039994428695557275 -0.0039195781805395104 0 0.004115051005403032 -0.0039509390221780967 0 0.0039994428695557275 -0.0039195781805395104 0 0.0040233420916816311 -0.0037987812927163288 0 0.0041203574229503647 -0.0038347433859411365 0 0.0039994428695557275 -0.0039195781805395104 0 0.0041203574229503647 -0.0038347433859411365 0 0.004115051005403032 -0.0039509390221780967 0 0.004123584166852573 -0.0037134191891096185 0 0.0040233420916816311 -0.0037987812927163288 0 0.0040265941738200665 -0.003687656352241928 0 0.004123584166852573 -0.0037134191891096185 0 0.0040233420916816311 -0.0037987812927163288 0 0.0041203574229503647 -0.0038347433859411365 0 0.0039262336108052964 -0.0037806478055944239 0 0.0039244947298594374 -0.0036539158824978935 0 0.0040265941738200665 -0.003687656352241928 0 0.0040233420916816311 -0.0037987812927163288 0 0.0039262336108052964 -0.0037806478055944239 0 0.0040265941738200665 -0.003687656352241928 0 0.0039994428695557275 -0.0039195781805395104 0 0.0040233420916816311 -0.0037987812927163288 0 0.0039262336108052964 -0.0037806478055944239 0 0.0038737118021363952 -0.0039014990280241669 0 0.0039994428695557275 -0.0039195781805395104 0 0.0039262336108052964 -0.0037806478055944239 0 0.0038737118021363952 -0.0039014990280241669 0 0.0038396831034531254 -0.0038026396029798206 0 0.0039262336108052964 -0.0037806478055944239 0 0.0037543364021074637 -0.0038382003877842747 0 0.0038737118021363952 -0.0039014990280241669 0 0.0038396831034531254 -0.0038026396029798206 0 0.0037543364021074637 -0.0038382003877842747 0 0.0038396831034531254 -0.0038026396029798206 0 0.0038106031894074213 -0.0036909377473449104 0 0.0038396831034531254 -0.0038026396029798206 0 0.0038106031894074213 -0.0036909377473449104 0 0.0039262336108052964 -0.0037806478055944239 0 0.0038106031894074213 -0.0036909377473449104 0 0.0039262336108052964 -0.0037806478055944239 0 0.0039244947298594374 -0.0036539158824978935 0 0.0038106031894074213 -0.0036909377473449104 0 0.0039244947298594374 -0.0036539158824978935 0 0.0038749510182099385 -0.0035354480440427656 0 0.0055993931517457057 -0.0015258857090820976 0 0.005701425040230159 -0.0018056913908327797 0 0.0058369707885307385 -0.0014625061140346759 0 0.0047675648413257202 -0.0027121402591050838 0 0.0048931386012847069 -0.0025981217999199138 0 0.0058369707885307385 -0.0014625061140346759 0 0.0058077873517127458 -0.001274230359145396 0 0.0056248053653624756 -0.0013100981340333127 0 0.0055993931517457057 -0.0015258857090820976 0 0.0058369707885307385 -0.0014625061140346759 0 0.0056248053653624756 -0.0013100981340333127 0 0.0039244947298594374 -0.0036539158824978935 0 0.0038749510182099385 -0.0035354480440427656 0 0.0039904209510494464 -0.0035393507382913982 0 0.0038749510182099385 -0.0035354480440427656 0 0.0039904209510494464 -0.0035393507382913982 0 0.0039500223387156086 -0.0033783209361746146 0 0.0039904209510494464 -0.0035393507382913982 0 0.004107059565766397 -0.003598122296750396 0 0.0040814054957461739 -0.0034668089294301327 0 0.0039904209510494464 -0.0035393507382913982 0 0.004107059565766397 -0.003598122296750396 0 0.0040265941738200665 -0.003687656352241928 0 0.004123584166852573 -0.0037134191891096185 0 0.004107059565766397 -0.003598122296750396 0 0.0040265941738200665 -0.003687656352241928 0 0.0039244947298594374 -0.0036539158824978935 0 0.0039904209510494464 -0.0035393507382913982 0 0.0040265941738200665 -0.003687656352241928 0 0.004216775294966774 -0.0036520151771964392 0 0.0043296901610411507 -0.0036310917915295259 0 0.0042863892927785495 -0.0036806278887446383 0 0.004216775294966774 -0.0036520151771964392 0 0.0042038740728398607 -0.003547665690292212 0 0.0043296901610411507 -0.0036310917915295259 0 0.004123584166852573 -0.0037134191891096185 0 0.004107059565766397 -0.003598122296750396 0 0.004216775294966774 -0.0036520151771964392 0 0.004107059565766397 -0.003598122296750396 0 0.004216775294966774 -0.0036520151771964392 0 0.0042038740728398607 -0.003547665690292212 0 0.004107059565766397 -0.003598122296750396 0 0.0042038740728398607 -0.003547665690292212 0 0.0040814054957461739 -0.0034668089294301327 0 0.0040619216263058696 -0.0021685735989046295 0 0.0040864892785336514 -0.0022517056354221603 0 0.0039141974297914077 -0.00080399379861838738 0 0.0037045121586028146 -0.00079455818625470437 0 0.003756210065630961 -0.00093806463932803014 0 0.0040619216263058696 -0.0021685735989046295 0 0.0039949210087855142 -0.0021715820146314367 0 0.0039141974297914077 -0.00080399379861838738 0 0.0037045121586028146 -0.00079455818625470437 0 0.003653343376994573 -0.0006826095624337204 0 0.0035823746718641322 -0.00085400922652299901 0 0.0037045121586028146 -0.00079455818625470437 0 0.003756210065630961 -0.00093806463932803014 0 0.0035823746718641322 -0.00085400922652299901 0 0.0035901145796525891 -0.00076153583160561643 0 0.0035211372874395471 -0.00077897033382251502 0 0.0035901145796525891 -0.00076153583160561643 0 0.0035211372874395471 -0.00077897033382251502 0 0.0035314516722679936 -0.00072811898259719668 0 0.0035823746718641322 -0.00085400922652299901 0 0.0035901145796525891 -0.00076153583160561643 0 0.0037045121586028146 -0.00079455818625470437 0 0.0035901145796525891 -0.00076153583160561643 0 0.0037045121586028146 -0.00079455818625470437 0 0.0036376881540257731 -0.00073832149352537151 0 0.0033932044487833637 -0.00086105844500329945 0 0.0034770031197910952 -0.00089918533065528445 0 0.0033785169338642184 -0.0009229196421376521 0 0.0033932044487833637 -0.00086105844500329945 0 0.0034189967334016724 -0.00081434329825501338 0 0.0033600175883987844 -0.00081325711336465269 0 0.0033932044487833637 -0.00086105844500329945 0 0.0033600175883987844 -0.00081325711336465269 0 0.0033343922160244308 -0.00086443778700708278 0 0.0033932044487833637 -0.00086105844500329945 0 0.0033343922160244308 -0.00086443778700708278 0 0.0033785169338642184 -0.0009229196421376521 0 0.0033932044487833637 -0.00086105844500329945 0 0.0034460553377791527 -0.000851080927170255 0 0.0034770031197910952 -0.00089918533065528445 0 0.0033932044487833637 -0.00086105844500329945 0 0.0034460553377791527 -0.000851080927170255 0 0.0034189967334016724 -0.00081434329825501338 0 0.0035823746718641322 -0.00085400922652299901 0 0.0034822277141910159 -0.00082541935149821116 0 0.0034770031197910952 -0.00089918533065528445 0 0.0034822277141910159 -0.00082541935149821116 0 0.0034460553377791527 -0.000851080927170255 0 0.0034770031197910952 -0.00089918533065528445 0 0.0034822277141910159 -0.00082541935149821116 0 0.0034460553377791527 -0.000851080927170255 0 0.0034189967334016724 -0.00081434329825501338 0 0.0035823746718641322 -0.00085400922652299901 0 0.0034822277141910159 -0.00082541935149821116 0 0.0035211372874395471 -0.00077897033382251502 0 0.0035211372874395471 -0.00077897033382251502 0 0.0034479472807198396 -0.00076956437997398406 0 0.0034733235510339077 -0.0007176717540178034 0 0.0034822277141910159 -0.00082541935149821116 0 0.0035211372874395471 -0.00077897033382251502 0 0.0034479472807198396 -0.00076956437997398406 0 0.0034822277141910159 -0.00082541935149821116 0 0.0034479472807198396 -0.00076956437997398406 0 0.0034189967334016724 -0.00081434329825501338 0 0.0034479472807198396 -0.00076956437997398406 0 0.0034189967334016724 -0.00081434329825501338 0 0.0033841610391977315 -0.00076601079699687477 0 0.0034479472807198396 -0.00076956437997398406 0 0.0033841610391977315 -0.00076601079699687477 0 0.0034124546860439917 -0.00072035243618427127 0 0.0034189967334016724 -0.00081434329825501338 0 0.0033841610391977315 -0.00076601079699687477 0 0.0033600175883987844 -0.00081325711336465269 0 0.0033841610391977315 -0.00076601079699687477 0 0.0033600175883987844 -0.00081325711336465269 0 0.0033287640484905446 -0.0007700430049080065 0 0.0039949210087855142 -0.0021715820146314367 0 0.0036325320926145245 -0.0018937798165647593 0 0.0034905259673890946 -0.00065503186499025882 0 0.003653343376994573 -0.0006826095624337204 0 0.0033926739963540419 -0.00057820226573592187 0 0.0043168821561188307 -0.0036128791495252449 0 0.0039366863936063454 -0.0034489741213429613 0 0.0040473794336961851 -0.0033844251364714929 0 0.0033804408561555299 -0.00067537791894608807 0 0.0034124546860439917 -0.00072035243618427127 0 0.0033528889991874871 -0.00072356786386503294 0 0.0033841610391977315 -0.00076601079699687477 0 0.0034124546860439917 -0.00072035243618427127 0 0.0033528889991874871 -0.00072356786386503294 0 0.0033804408561555299 -0.00067537791894608807 0 0.0034124546860439917 -0.00072035243618427127 0 0.0034431421842378465 -0.00067846712289129218 0 0.0034431421842378465 -0.00067846712289129218 0 0.0034983295000514661 -0.00069338744730249914 0 0.0034905259673890946 -0.00065503186499025882 0 0.0034431421842378465 -0.00067846712289129218 0 0.0034733235510339077 -0.0007176717540178034 0 0.0034983295000514661 -0.00069338744730249914 0 0.0034479472807198396 -0.00076956437997398406 0 0.0034124546860439917 -0.00072035243618427127 0 0.0034733235510339077 -0.0007176717540178034 0 0.0034124546860439917 -0.00072035243618427127 0 0.0034431421842378465 -0.00067846712289129218 0 0.0034733235510339077 -0.0007176717540178034 0 0.0034733235510339077 -0.0007176717540178034 0 0.0034983295000514661 -0.00069338744730249914 0 0.0035314516722679936 -0.00072811898259719668 0 0.0035211372874395471 -0.00077897033382251502 0 0.0034733235510339077 -0.0007176717540178034 0 0.0035314516722679936 -0.00072811898259719668 0 0.0034983295000514661 -0.00069338744730249914 0 0.0035314516722679936 -0.00072811898259719668 0 0.0035539590910963837 -0.00068792955966917623 0 0.0034983295000514661 -0.00069338744730249914 0 0.0034905259673890946 -0.00065503186499025882 0 0.0035539590910963837 -0.00068792955966917623 0 0.0034431421842378465 -0.00067846712289129218 0 0.0034905259673890946 -0.00065503186499025882 0 0.0034107094718778801 -0.00064345657483841888 0 0.0034905259673890946 -0.00065503186499025882 0 0.0034107094718778801 -0.00064345657483841888 0 0.0033926739963540419 -0.00057820226573592187 0 0.0033804408561555299 -0.00067537791894608807 0 0.0034431421842378465 -0.00067846712289129218 0 0.0034107094718778801 -0.00064345657483841888 0 0.0034107094718778801 -0.00064345657483841888 0 0.0033926739963540419 -0.00057820226573592187 0 0.0033494255233968251 -0.00063031319049046137 0 0.0033804408561555299 -0.00067537791894608807 0 0.0034107094718778801 -0.00064345657483841888 0 0.0033494255233968251 -0.00063031319049046137 0 0.0043296901610411507 -0.0036310917915295259 0 0.0043168821561188307 -0.0036128791495252449 0 0.0039366863936063454 -0.0034489741213429613 0 0.0037045121586028146 -0.00079455818625470437 0 0.003653343376994573 -0.0006826095624337204 0 0.0036376881540257731 -0.00073832149352537151 0 0.003653343376994573 -0.0006826095624337204 0 0.0036376881540257731 -0.00073832149352537151 0 0.0036032282868515377 -0.00071453891330767571 0 0.0034905259673890946 -0.00065503186499025882 0 0.003653343376994573 -0.0006826095624337204 0 0.0035539590910963837 -0.00068792955966917623 0 0.0035901145796525891 -0.00076153583160561643 0 0.0036032282868515377 -0.00071453891330767571 0 0.0035665194836432567 -0.00071566183866435837 0 0.0036032282868515377 -0.00071453891330767571 0 0.0035665194836432567 -0.00071566183866435837 0 0.0035539590910963837 -0.00068792955966917623 0 0.0035901145796525891 -0.00076153583160561643 0 0.0036376881540257731 -0.00073832149352537151 0 0.0036032282868515377 -0.00071453891330767571 0 0.003653343376994573 -0.0006826095624337204 0 0.0036032282868515377 -0.00071453891330767571 0 0.0035539590910963837 -0.00068792955966917623 0 0.0035314516722679936 -0.00072811898259719668 0 0.0035665194836432567 -0.00071566183866435837 0 0.0035539590910963837 -0.00068792955966917623 0 0.0035901145796525891 -0.00076153583160561643 0 0.0035314516722679936 -0.00072811898259719668 0 0.0035665194836432567 -0.00071566183866435837 0 0.0043054802023732575 -0.0036053771626181593 0 0.004267697001299601 -0.0035510772375852949 0 0.0043168821561188307 -0.0036128791495252449 0 0.0043532455929085733 -0.0036821938255305253 0 0.0044428087024553815 -0.0037190235637038515 0 0.0043137820738036476 -0.0036499498847035986 0 0.0043240770678749261 -0.0036942037093258689 0 0.0043532455929085733 -0.0036821938255305253 0 0.0043296901610411507 -0.0036310917915295259 0 0.0043137820738036476 -0.0036499498847035986 0 0.0042863892927785495 -0.0036806278887446383 0 0.0043168821561188307 -0.0036128791495252449 0 0.0043137820738036476 -0.0036499498847035986 0 0.0043532455929085733 -0.0036821938255305253 0 0.0043296901610411507 -0.0036310917915295259 0 0.0043168821561188307 -0.0036128791495252449 0 0.0043137820738036476 -0.0036499498847035986 0 0.0043137820738036476 -0.0036499498847035986 0 0.0043240770678749261 -0.0036942037093258689 0 0.0042863892927785495 -0.0036806278887446383 0 0.0043240770678749261 -0.0036942037093258689 0 0.0043752987014366715 -0.0037335154314526754 0 0.0043098596236962761 -0.003755517743342878 0 0.0043240770678749261 -0.0036942037093258689 0 0.0043098596236962761 -0.003755517743342878 0 0.0042863892927785495 -0.0036806278887446383 0 0.0043532455929085733 -0.0036821938255305253 0 0.0043752987014366715 -0.0037335154314526754 0 0.0044428087024553815 -0.0037190235637038515 0 0.0043240770678749261 -0.0036942037093258689 0 0.0043532455929085733 -0.0036821938255305253 0 0.0043752987014366715 -0.0037335154314526754 0 0.0043752987014366715 -0.0037335154314526754 0 0.0044146234465777725 -0.0037842884285903045 0 0.0043504725960318109 -0.0038264744179272291 0 0.0043752987014366715 -0.0037335154314526754 0 0.0043098596236962761 -0.003755517743342878 0 0.0043504725960318109 -0.0038264744179272291 0 0.0039366863936063454 -0.0034489741213429613 0 0.0040473794336961851 -0.0033844251364714929 0 0.0038408749192803608 -0.0033245334334984517 0 0.0043752987014366715 -0.0037335154314526754 0 0.0044428087024553815 -0.0037190235637038515 0 0.0044146234465777725 -0.0037842884285903045 0 0.0044428087024553815 -0.0037190235637038515 0 0.0044146234465777725 -0.0037842884285903045 0 0.00447888303670127 -0.0037838404501951126 0 0.0044428087024553815 -0.0037190235637038515 0 0.00447888303670127 -0.0037838404501951126 0 0.0045417081686586949 -0.0038162439239208413 0 0.004267697001299601 -0.0035510772375852949 0 0.0039006264621542514 -0.0036726505890391156 0 0.0040473794336961851 -0.0033844251364714929 0 0.0037803180312201631 -0.0031613976628227206 0 0.0038408749192803608 -0.0033245334334984517 0 0.0044184204075817289 -0.0038588099989874352 0 0.0044906804106723541 -0.0038581682471608234 0 0.0044436719923161673 -0.0039765983421092372 0 0.0044906804106723541 -0.0038581682471608234 0 0.0044436719923161673 -0.0039765983421092372 0 0.0045557695265048001 -0.0038565047916348243 0 0.00447888303670127 -0.0037838404501951126 0 0.0044906804106723541 -0.0038581682471608234 0 0.0045087769990126529 -0.0038233637523537888 0 0.00447888303670127 -0.0037838404501951126 0 0.0044184204075817289 -0.0038588099989874352 0 0.0044906804106723541 -0.0038581682471608234 0 0.0044906804106723541 -0.0038581682471608234 0 0.0045235123207954383 -0.0038354524022025586 0 0.0045087769990126529 -0.0038233637523537888 0 0.0044146234465777725 -0.0037842884285903045 0 0.00447888303670127 -0.0037838404501951126 0 0.0044184204075817289 -0.0038588099989874352 0 0.0043504725960318109 -0.0038264744179272291 0 0.0042339201048580384 -0.0038632617597114515 0 0.0043321885137494664 -0.0039269154874991691 0 0.0044146234465777725 -0.0037842884285903045 0 0.0044184204075817289 -0.0038588099989874352 0 0.0043504725960318109 -0.0038264744179272291 0 0.0044184204075817289 -0.0038588099989874352 0 0.0043504725960318109 -0.0038264744179272291 0 0.0043321885137494664 -0.0039269154874991691 0 0.0043098596236962761 -0.003755517743342878 0 0.0043504725960318109 -0.0038264744179272291 0 0.0042339201048580384 -0.0038632617597114515 0 0.0043098596236962761 -0.003755517743342878 0 0.0042339201048580384 -0.0038632617597114515 0 0.0042228755503687081 -0.0037512512193261 0 0.004216775294966774 -0.0036520151771964392 0 0.0042228755503687081 -0.0037512512193261 0 0.0042863892927785495 -0.0036806278887446383 0 0.0043098596236962761 -0.003755517743342878 0 0.0042228755503687081 -0.0037512512193261 0 0.0042863892927785495 -0.0036806278887446383 0 0.004123584166852573 -0.0037134191891096185 0 0.0042228755503687081 -0.0037512512193261 0 0.0041203574229503647 -0.0038347433859411365 0 0.004123584166852573 -0.0037134191891096185 0 0.004216775294966774 -0.0036520151771964392 0 0.0042228755503687081 -0.0037512512193261 0 0.0042339201048580384 -0.0038632617597114515 0 0.0042228755503687081 -0.0037512512193261 0 0.0041203574229503647 -0.0038347433859411365 0 0.0042339201048580384 -0.0038632617597114515 0 0.0041203574229503647 -0.0038347433859411365 0 0.004115051005403032 -0.0039509390221780967 0 0.0042339201048580384 -0.0038632617597114515 0 0.004115051005403032 -0.0039509390221780967 0 0.0041949604672057083 -0.0040130976195743217 0 0.0042339201048580384 -0.0038632617597114515 0 0.0041949604672057083 -0.0040130976195743217 0 0.0043321885137494664 -0.0039269154874991691 0 0.0041949604672057083 -0.0040130976195743217 0 0.004319098546322799 -0.0041039926562112033 0 0.0043321885137494664 -0.0039269154874991691 0 0.0041949604672057083 -0.0040130976195743217 0 0.0041367343891775907 -0.0042425323153489165 0 0.004319098546322799 -0.0041039926562112033 0 0.0040836340104798731 -0.0040950047805616095 0 0.0041949604672057083 -0.0040130976195743217 0 0.0041367343891775907 -0.0042425323153489165 0 0.0040836340104798731 -0.0040950047805616095 0 0.004115051005403032 -0.0039509390221780967 0 0.0041949604672057083 -0.0040130976195743217 0 0.0040986513014411767 -0.0042363184740522386 0 0.0040836340104798731 -0.0040950047805616095 0 0.0041367343891775907 -0.0042425323153489165 0 0.0041367343891775907 -0.0042425323153489165 0 0.0040343694922911934 -0.0042837678194739132 0 0.0040406099024580446 -0.0043926197864428721 0 0.0041460924026322085 -0.0042448399722001687 0 0.0041686358786977695 -0.0042509273073672669 0 0.0040596379319682747 -0.0042209437577314145 0 0.0041367343891775907 -0.0042425323153489165 0 0.0040343694922911934 -0.0042837678194739132 0 0.0040596379319682747 -0.0042209437577314145 0 0.0040986513014411767 -0.0042363184740522386 0 0.0041367343891775907 -0.0042425323153489165 0 0.0039664268585034223 -0.0042621130737575293 0 0.0039413762342003786 -0.0043591191667848644 0 0.0038886274467636963 -0.0043069319714773794 0 0.0040596379319682747 -0.0042209437577314145 0 0.0039664268585034223 -0.0042621130737575293 0 0.0040343694922911934 -0.0042837678194739132 0 0.0040343694922911934 -0.0042837678194739132 0 0.0039413762342003786 -0.0043591191667848644 0 0.0040406099024580446 -0.0043926197864428721 0 0.0039664268585034223 -0.0042621130737575293 0 0.0040343694922911934 -0.0042837678194739132 0 0.0039413762342003786 -0.0043591191667848644 0 0.0039413762342003786 -0.0043591191667848644 0 0.0040406099024580446 -0.0043926197864428721 0 0.0039511080221412021 -0.0044801313010025328 0 0.0039413762342003786 -0.0043591191667848644 0 0.0039511080221412021 -0.0044801313010025328 0 0.0038877782517992296 -0.0044235939568180891 0 0.0041686358786977695 -0.0042509273073672669 0 0.0042378629085739567 -0.0042106929962197909 0 0.0044184204075817289 -0.0038588099989874352 0 0.0043321885137494664 -0.0039269154874991691 0 0.0044436719923161673 -0.0039765983421092372 0 0.004319098546322799 -0.0041039926562112033 0 0.0043321885137494664 -0.0039269154874991691 0 0.0044436719923161673 -0.0039765983421092372 0 0.0042378629085739567 -0.0042106929962197909 0 0.0039637065717855417 -0.0042213044749626755 0 0.0039511080221412021 -0.0044801313010025328 0 0.0038842584200688623 -0.0044714577190547722 0 0.0038877782517992296 -0.0044235939568180891 0 0.0039511080221412021 -0.0044801313010025328 0 0.0038842584200688623 -0.0044714577190547722 0 0.0038743740410082579 -0.0045492916323264763 0 0.0037975121979008921 -0.0045556832214278496 0 0.0039637065717855417 -0.0042213044749626755 0 0.0038842584200688623 -0.0044714577190547722 0 0.003827508642319477 -0.0044326766273269976 0 0.0038743740410082579 -0.0045492916323264763 0 0.0037377536749162955 -0.0045868149401359793 0 0.0037852805525522455 -0.0045183651687092114 0 0.0038228867844847564 -0.0046368419049455612 0 0.0037125306192229185 -0.0045148007345394581 0 0.0037852805525522455 -0.0045183651687092114 0 0.0036860954110950399 -0.004445366815744701 0 0.0037377536749162955 -0.0045868149401359793 0 0.0037125306192229185 -0.0045148007345394581 0 0.0037852805525522455 -0.0045183651687092114 0 0.0038842584200688623 -0.0044714577190547722 0 0.003827508642319477 -0.0044326766273269976 0 0.0038877782517992296 -0.0044235939568180891 0 0.003827508642319477 -0.0044326766273269976 0 0.0038877782517992296 -0.0044235939568180891 0 0.0038601586921156289 -0.004374186552518664 0 0.0039413762342003786 -0.0043591191667848644 0 0.0038601586921156289 -0.004374186552518664 0 0.0038886274467636963 -0.0043069319714773794 0 0.0039413762342003786 -0.0043591191667848644 0 0.0038877782517992296 -0.0044235939568180891 0 0.0038601586921156289 -0.004374186552518664 0 0.0038601586921156289 -0.004374186552518664 0 0.0037536955565330007 -0.0043399123169051181 0 0.0038886274467636963 -0.0043069319714773794 0 0.0037975121979008921 -0.0045556832214278496 0 0.0037535790809359645 -0.0043078058485669021 0 0.003827508642319477 -0.0044326766273269976 0 0.0038601586921156289 -0.004374186552518664 0 0.0037536955565330007 -0.0043399123169051181 0 0.0037852805525522455 -0.0045183651687092114 0 0.0037536955565330007 -0.0043399123169051181 0 0.0036860954110950399 -0.004445366815744701 0 0.0038604455938218143 -0.0042283806717340775 0 0.0037536955565330007 -0.0043399123169051181 0 0.0038886274467636963 -0.0043069319714773794 0 0.0038604455938218143 -0.0042283806717340775 0 0.0039664268585034223 -0.0042621130737575293 0 0.0038886274467636963 -0.0043069319714773794 0 0.0034509522273925021 -0.0042668420012414408 0 0.0036181573124624568 -0.0043008772668819764 0 0.0034863654060772161 -0.0043746925687393919 0 0.0036181573124624568 -0.0043008772668819764 0 0.0035622322507992844 -0.0044596373648822006 0 0.0034863654060772161 -0.0043746925687393919 0 0.0037238384359682755 -0.0042328370970261637 0 0.0037536955565330007 -0.0043399123169051181 0 0.0036181573124624568 -0.0043008772668819764 0 0.0037536955565330007 -0.0043399123169051181 0 0.0036181573124624568 -0.0043008772668819764 0 0.0036860954110950399 -0.004445366815744701 0 0.0036860954110950399 -0.004445366815744701 0 0.0035622322507992844 -0.0044596373648822006 0 0.003635580939020605 -0.0045091768912967189 0 0.0036181573124624568 -0.0043008772668819764 0 0.0036860954110950399 -0.004445366815744701 0 0.0035622322507992844 -0.0044596373648822006 0 0.0035476584034913059 -0.004412149446054915 0 0.0036645189980242989 -0.0047111098207217967 0 0.0035622322507992844 -0.0044596373648822006 0 0.003494953620688229 -0.004627795054030691 0 0.003610456384498932 -0.0046793126290190284 0 0.0035622322507992844 -0.0044596373648822006 0 0.003635580939020605 -0.0045091768912967189 0 0.0036406211143092345 -0.0045079576715396199 0 0.0037377536749162955 -0.0045868149401359793 0 0.0037125306192229185 -0.0045148007345394581 0 0.003635580939020605 -0.0045091768912967189 0 0.0037125306192229185 -0.0045148007345394581 0 0.0036860954110950399 -0.004445366815744701 0 0.003635580939020605 -0.0045091768912967189 0 0.0036645189980242989 -0.0047111098207217967 0 0.0034561595459882536 -0.0040240359556228409 0 0.0036383086233196119 -0.0045642517793041482 0 0.0036293894712377938 -0.0044974466637237153 0 0.003610456384498932 -0.0046793126290190284 0 0.0035915368117650634 -0.0047459601453002116 0 0.0036475147152287726 -0.0048130966349764709 0 0.0035425073051861085 -0.0044543557313629929 0 0.003635580939020605 -0.0045091768912967189 0 0.0036406211143092345 -0.0045079576715396199 0 0.0035425073051861085 -0.0044543557313629929 0 0.0036406211143092345 -0.0045079576715396199 0 0.0036053519795093605 -0.0043583343607514428 0 0.003494953620688229 -0.004627795054030691 0 0.0035341722571471407 -0.0047121145877022661 0 0.0034497840489475522 -0.0047372140238133333 0 0.003494953620688229 -0.004627795054030691 0 0.003610456384498932 -0.0046793126290190284 0 0.0035341722571471407 -0.0047121145877022661 0 0.003610456384498932 -0.0046793126290190284 0 0.0035341722571471407 -0.0047121145877022661 0 0.0035915368117650634 -0.0047459601453002116 0 0.0035341722571471407 -0.0047121145877022661 0 0.0035915368117650634 -0.0047459601453002116 0 0.003564459041961125 -0.0047750895812864848 0 0.0034351551407405534 -0.0042181808521886384 0 0.0031792869135090079 -0.0041639474056515188 0 0.0035341722571471407 -0.0047121145877022661 0 0.003564459041961125 -0.0047750895812864848 0 0.0034497840489475522 -0.0047372140238133333 0 0.0027493104421438645 -0.0031360164480636055 0 0.0031792869135090079 -0.0041639474056515188 0 0.0032424314038667435 -0.0036263175793267957 0 0.0032074466838181328 -0.0033348517217783131 0 0.0036755032925000781 -0.0038616764065242939 0 0.0032424314038667435 -0.0036263175793267957 0 0.0032074466838181328 -0.0033348517217783131 0 0.0027962263014081733 -0.0033935574713331203 0 0.002366700321638705 -0.002980252840229505 0 0.0024099153420979276 -0.0028161574549592098 0 0.0024659655614211883 -0.0029199081601059083 0 0.002366700321638705 -0.002980252840229505 0 0.0022622380144426669 -0.0028581173992086257 0 0.0024099153420979276 -0.0028161574549592098 0 0.0037082913189692012 -0.0033228682227101078 0 0.0031660140617008089 -0.0025545937544923241 0 0.0033925527044066867 -0.0024869328413957164 0 0.0027493104421438645 -0.0031360164480636055 0 0.0026215939159291131 -0.0021985500183385747 0 0.0034561595459882536 -0.0040240359556228409 0 0.0029769927672684943 -0.0020323310377123858 0 0.0027205928481923245 -0.0027944247546838118 0 0.0027962263014081733 -0.0033935574713331203 0 0.0025866170508540729 -0.0028339167013186435 0 0.0026215939159291131 -0.0021985500183385747 0 0.0029769927672684943 -0.0020323310377123858 0 0.0027476822332894654 -0.0018219840401678571 0 0.0028667201684266386 -0.0018533323112992245 0 0.0029306503870281672 -0.0017670100054953083 0 0.0027476822332894654 -0.0018219840401678571 0 0.0028667201684266386 -0.0018533323112992245 0 0.002878625951085797 -0.0019607266887134776 0 0.0028667201684266386 -0.0018533323112992245 0 0.0029701868317764 -0.001870195618191109 0 0.002878625951085797 -0.0019607266887134776 0 0.0026215939159291131 -0.0021985500183385747 0 0.0027911423616289975 -0.0013360275227380608 0 0.0032074466838181328 -0.0033348517217783131 0 0.0027205928481923245 -0.0027944247546838118 0 0.0027962263014081733 -0.0033935574713331203 0 0.0035915368117650634 -0.0047459601453002116 0 0.003564459041961125 -0.0047750895812864848 0 0.0036475147152287726 -0.0048130966349764709 0 0.0034351551407405534 -0.0042181808521886384 0 0.0034561595459882536 -0.0040240359556228409 0 0.0036383086233196119 -0.0045642517793041482 0 0.0037730881515454506 -0.0041089707799363212 0 0.0036053519795093605 -0.0043583343607514428 0 0.0035139541259288057 -0.0043601243724896337 0 0.0034838167719964891 -0.0042807888019759004 0 0.0034561595459882536 -0.0040240359556228409 0 0.0033300404461274564 -0.0027939240233048634 0 0.0035425073051861085 -0.0044543557313629929 0 0.0035139541259288057 -0.0043601243724896337 0 0.0034206212984772438 -0.0043463641579449611 0 0.0035425073051861085 -0.0044543557313629929 0 0.0036053519795093605 -0.0043583343607514428 0 0.0035139541259288057 -0.0043601243724896337 0 0.0035139541259288057 -0.0043601243724896337 0 0.0034206212984772438 -0.0043463641579449611 0 0.0034838167719964891 -0.0042807888019759004 0 0.0037377536749162955 -0.0045868149401359793 0 0.0038228867844847564 -0.0046368419049455612 0 0.0038137926369466528 -0.004645333248047008 0 0.0044906804106723541 -0.0038581682471608234 0 0.0045557695265048001 -0.0038565047916348243 0 0.0045235123207954383 -0.0038354524022025586 0 0.0037730881515454506 -0.0041089707799363212 0 0.0033300404461274564 -0.0027939240233048634 0 0.003702780224312073 -0.0032084427314758275 0 0.003706026065504233 -0.0030957195853260856 0 0.0035446969218445932 -0.0032499839979964816 0 0.003702780224312073 -0.0032084427314758275 0 0.003706026065504233 -0.0030957195853260856 0 0.0037789661426341037 -0.0031577711648471765 0 0.0039637065717855417 -0.0042213044749626755 0 0.0037730881515454506 -0.0041089707799363212 0 0.00447888303670127 -0.0037838404501951126 0 0.0045417081686586949 -0.0038162439239208413 0 0.0045087769990126529 -0.0038233637523537888 0 0.0039674287602642546 -0.0040721127670494978 0 0.0040471714291104265 -0.0039925500647660806 0 0.0038901253512008977 -0.0038555087681868016 0 0.0039637065717855417 -0.0042213044749626755 0 0.0039006264621542514 -0.0036726505890391156 0 0.0037730881515454506 -0.0041089707799363212 0 0.0039006264621542514 -0.0036726505890391156 0 0.0045557695265048001 -0.0038565047916348243 0 0.0045417081686586949 -0.0038162439239208413 0 0.0045235123207954383 -0.0038354524022025586 0 0.0045417081686586949 -0.0038162439239208413 0 0.0045235123207954383 -0.0038354524022025586 0 0.0045087769990126529 -0.0038233637523537888 0 0.0033926739963540419 -0.00057820226573592187 0 0.0032934303497085169 -0.00058730264328129276 0 0.0031668717163765782 -0.00049598027417419954 0 0.003702780224312073 -0.0032084427314758275 0 0.0038408749192803608 -0.0033245334334984517 0 0.0035446969218445932 -0.0032499839979964816 0 0.0036325320926145245 -0.0018937798165647593 0 0.0033300404461274564 -0.0027939240233048634 0 0.0039366863936063454 -0.0034489741213429613 0 0.0038408749192803608 -0.0033245334334984517 0 0.0035446969218445932 -0.0032499839979964816 0 0.0039006264621542514 -0.0036726505890391156 0 0.0037835938094248314 -0.0032331724391486431 0 0.003702780224312073 -0.0032084427314758275 0 0.0037789661426341037 -0.0031577711648471765 0 0.0038408749192803608 -0.0033245334334984517 0 0.0032178277363463649 -0.00056927793364161842 0 0.0032934303497085169 -0.00058730264328129276 0 0.0031668717163765782 -0.00049598027417419954 0 0.0032178277363463649 -0.00056927793364161842 0 0.003182249390123678 -0.00057879251856287673 0 0.0032286116611860032 -0.00061530802146202135 0 0.0032178277363463649 -0.00056927793364161842 0 0.0032934303497085169 -0.00058730264328129276 0 0.0032286116611860032 -0.00061530802146202135 0 0.0037082913189692012 -0.0033228682227101078 0 0.0028478556977065994 -0.0028731771993071925 0 0.0031660140617008089 -0.0025545937544923241 0 0.0031668717163765782 -0.00049598027417419954 0 0.0031499276395311805 -0.00054257417649759951 0 0.003182249390123678 -0.00057879251856287673 0 0.0031668717163765782 -0.00049598027417419954 0 0.0031499276395311805 -0.00054257417649759951 0 0.0031054209795019299 -0.00055847000043854442 0 0.0033300404461274564 -0.0027939240233048634 0 0.0031550788096572427 -0.0015325356600085517 0 0.0032513866467699377 -0.0012727267434357065 0 0.0031550788096572427 -0.0015325356600085517 0 0.0032178277363463649 -0.00056927793364161842 0 0.0031668717163765782 -0.00049598027417419954 0 0.003182249390123678 -0.00057879251856287673 0 0.0031499276395311805 -0.00054257417649759951 0 0.003182249390123678 -0.00057879251856287673 0 0.0031418299818082849 -0.00057634876778134075 0 0.0031499276395311805 -0.00054257417649759951 0 0.0031418299818082849 -0.00057634876778134075 0 0.0031066561105427448 -0.00055580267421113103 0 0.003182249390123678 -0.00057879251856287673 0 0.0031418299818082849 -0.00057634876778134075 0 0.0031528268613680061 -0.00060943116050869066 0 0.0031418299818082849 -0.00057634876778134075 0 0.0031135056790347121 -0.00059561597868943545 0 0.0031528268613680061 -0.00060943116050869066 0 0.0031135056790347121 -0.00059561597868943545 0 0.0031066561105427448 -0.00055580267421113103 0 0.0030725469239098156 -0.0005897261081457306 0 0.0031418299818082849 -0.00057634876778134075 0 0.0031135056790347121 -0.00059561597868943545 0 0.0031066561105427448 -0.00055580267421113103 0 0.0031414890457358057 -0.0015982732760824625 0 0.002756538527380449 -0.0017129013711444775 0 0.0028305481975369516 -0.0019065059809814273 0 0.0031550788096572427 -0.0015325356600085517 0 0.0029769927672684943 -0.0020323310377123858 0 0.0031550788096572427 -0.0015325356600085517 0 0.0029231546731582664 -0.0014102826742803966 0 0.0028667201684266386 -0.0018533323112992245 0 0.0029306503870281672 -0.0017670100054953083 0 0.0029701868317764 -0.001870195618191109 0 0.0029769927672684943 -0.0020323310377123858 0 0.0029231546731582664 -0.0014102826742803966 0 0.0029231546731582664 -0.0014102826742803966 0 0.0027911423616289975 -0.0013360275227380608 0 0.0029194357880878994 -0.0008451654178361802 0 0.0027911423616289975 -0.0013360275227380608 0 0.0030587509167654073 -0.00061898374295971321 0 0.0030283342397493221 -0.00068057807298041537 0 0.0029993166119671247 -0.00055932691892458103 0 0.0029231546731582664 -0.0014102826742803966 0 0.0029194357880878994 -0.0008451654178361802 0 0.0029516357725358601 -0.0013034236849076149 0 0.0028376378230615291 -0.0010031704748678808 0 0.0030371369604004941 -0.0012182176606198403 0 0.0031135056790347121 -0.00059561597868943545 0 0.0030953980743306246 -0.00065180025547194266 0 0.0031528268613680061 -0.00060943116050869066 0 0.0031135056790347121 -0.00059561597868943545 0 0.0030725469239098156 -0.0005897261081457306 0 0.0030953980743306246 -0.00065180025547194266 0 0.0031528268613680061 -0.00060943116050869066 0 0.0031819240712199826 -0.00062674349713367702 0 0.003147293471749405 -0.0006513919990426254 0 0.003182249390123678 -0.00057879251856287673 0 0.0031528268613680061 -0.00060943116050869066 0 0.0031819240712199826 -0.00062674349713367702 0 0.0031819240712199826 -0.00062674349713367702 0 0.003147293471749405 -0.0006513919990426254 0 0.0031912845821508639 -0.00067033417202084383 0 0.0030953980743306246 -0.00065180025547194266 0 0.003147293471749405 -0.0006513919990426254 0 0.0031271380124109007 -0.00069194717404266141 0 0.0030953980743306246 -0.00065180025547194266 0 0.0031528268613680061 -0.00060943116050869066 0 0.003147293471749405 -0.0006513919990426254 0 0.003147293471749405 -0.0006513919990426254 0 0.0031271380124109007 -0.00069194717404266141 0 0.0031912845821508639 -0.00067033417202084383 0 0.0031271380124109007 -0.00069194717404266141 0 0.0031912845821508639 -0.00067033417202084383 0 0.0031566766619231228 -0.00072061412827045855 0 0.0031912845821508639 -0.00067033417202084383 0 0.0031566766619231228 -0.00072061412827045855 0 0.0032025212347216395 -0.00073014722765923023 0 0.0031566766619231228 -0.00072061412827045855 0 0.0032025212347216395 -0.00073014722765923023 0 0.0031522416993552313 -0.00075977242551900201 0 0.0031271380124109007 -0.00069194717404266141 0 0.0031566766619231228 -0.00072061412827045855 0 0.0031103075738927108 -0.00073403394717588106 0 0.0030587509167654073 -0.00061898374295971321 0 0.0031103075738927108 -0.00073403394717588106 0 0.0030283342397493221 -0.00068057807298041537 0 0.0029194357880878994 -0.0008451654178361802 0 0.0030236217719859715 -0.00072251898224786238 0 0.0031103075738927108 -0.00073403394717588106 0 0.0030283342397493221 -0.00068057807298041537 0 0.0030295064994455634 -0.00075948170415727665 0 0.0030913504485009244 -0.00064905801154569039 0 0.0031271380124109007 -0.00069194717404266141 0 0.0031103075738927108 -0.00073403394717588106 0 0.0029194357880878994 -0.0008451654178361802 0 0.0029942417635744601 -0.00078929215321556678 0 0.0033926739963540419 -0.00057820226573592187 0 0.0032934303497085169 -0.00058730264328129276 0 0.0033494255233968251 -0.00063031319049046137 0 0.0033804408561555299 -0.00067537791894608807 0 0.0033494255233968251 -0.00063031319049046137 0 0.0033194632235731937 -0.0006877237708360675 0 0.0033494255233968251 -0.00063031319049046137 0 0.003300162189147398 -0.00064998961412946268 0 0.0033194632235731937 -0.0006877237708360675 0 0.0032934303497085169 -0.00058730264328129276 0 0.0033494255233968251 -0.00063031319049046137 0 0.003300162189147398 -0.00064998961412946268 0 0.0032934303497085169 -0.00058730264328129276 0 0.003300162189147398 -0.00064998961412946268 0 0.0032538101206302894 -0.00064747377034033847 0 0.003300162189147398 -0.00064998961412946268 0 0.0032538101206302894 -0.00064747377034033847 0 0.0032544116445068069 -0.00069372924586467728 0 0.0032934303497085169 -0.00058730264328129276 0 0.0032538101206302894 -0.00064747377034033847 0 0.0032286116611860032 -0.00061530802146202135 0 0.003182249390123678 -0.00057879251856287673 0 0.0031819240712199826 -0.00062674349713367702 0 0.0032286116611860032 -0.00061530802146202135 0 0.0031912845821508639 -0.00067033417202084383 0 0.0032538101206302894 -0.00064747377034033847 0 0.0032286116611860032 -0.00061530802146202135 0 0.0031819240712199826 -0.00062674349713367702 0 0.0031912845821508639 -0.00067033417202084383 0 0.0032286116611860032 -0.00061530802146202135 0 0.0031912845821508639 -0.00067033417202084383 0 0.0032025212347216395 -0.00073014722765923023 0 0.0032544116445068069 -0.00069372924586467728 0 0.0032025212347216395 -0.00073014722765923023 0 0.0032544116445068069 -0.00069372924586467728 0 0.0032481515595957937 -0.00074632497578310376 0 0.0032544116445068069 -0.00069372924586467728 0 0.0032955299347340785 -0.00073003485366463883 0 0.0032481515595957937 -0.00074632497578310376 0 0.0031912845821508639 -0.00067033417202084383 0 0.0032538101206302894 -0.00064747377034033847 0 0.0032544116445068069 -0.00069372924586467728 0 0.0032544116445068069 -0.00069372924586467728 0 0.0032955299347340785 -0.00073003485366463883 0 0.0033194632235731937 -0.0006877237708360675 0 0.003300162189147398 -0.00064998961412946268 0 0.0032544116445068069 -0.00069372924586467728 0 0.0033194632235731937 -0.0006877237708360675 0 0.0032955299347340785 -0.00073003485366463883 0 0.0033528889991874871 -0.00072356786386503294 0 0.0033287640484905446 -0.0007700430049080065 0 0.0032955299347340785 -0.00073003485366463883 0 0.0033528889991874871 -0.00072356786386503294 0 0.0033194632235731937 -0.0006877237708360675 0 0.0033804408561555299 -0.00067537791894608807 0 0.0033528889991874871 -0.00072356786386503294 0 0.0033194632235731937 -0.0006877237708360675 0 0.0033600175883987844 -0.00081325711336465269 0 0.0033287640484905446 -0.0007700430049080065 0 0.0032991432381218413 -0.00081314699741379722 0 0.0033841610391977315 -0.00076601079699687477 0 0.0033528889991874871 -0.00072356786386503294 0 0.0033287640484905446 -0.0007700430049080065 0 0.0032955299347340785 -0.00073003485366463883 0 0.0032815978905983193 -0.00077224765467069276 0 0.0032481515595957937 -0.00074632497578310376 0 0.0032955299347340785 -0.00073003485366463883 0 0.0033287640484905446 -0.0007700430049080065 0 0.0032815978905983193 -0.00077224765467069276 0 0.0033287640484905446 -0.0007700430049080065 0 0.0032815978905983193 -0.00077224765467069276 0 0.0032991432381218413 -0.00081314699741379722 0 0.0032815978905983193 -0.00077224765467069276 0 0.0032991432381218413 -0.00081314699741379722 0 0.0032343849567967797 -0.00079934852079954798 0 0.0032815978905983193 -0.00077224765467069276 0 0.0032343849567967797 -0.00079934852079954798 0 0.0032481515595957937 -0.00074632497578310376 0 0.0032025212347216395 -0.00073014722765923023 0 0.0032481515595957937 -0.00074632497578310376 0 0.0031950044585750481 -0.00076914811624687876 0 0.0032343849567967797 -0.00079934852079954798 0 0.0032481515595957937 -0.00074632497578310376 0 0.0031950044585750481 -0.00076914811624687876 0 0.0032343849567967797 -0.00079934852079954798 0 0.0031950044585750481 -0.00076914811624687876 0 0.0031606409473856093 -0.00080597614939404371 0 0.0032343849567967797 -0.00079934852079954798 0 0.0031894440408433014 -0.00085962561455268222 0 0.0031606409473856093 -0.00080597614939404371 0 0.0031894440408433014 -0.00085962561455268222 0 0.0032647823785677738 -0.00086536952632258475 0 0.0032261760548913743 -0.00093920803636459653 0 0.0032343849567967797 -0.00079934852079954798 0 0.0031894440408433014 -0.00085962561455268222 0 0.0032647823785677738 -0.00086536952632258475 0 0.0032991432381218413 -0.00081314699741379722 0 0.0032343849567967797 -0.00079934852079954798 0 0.0032647823785677738 -0.00086536952632258475 0 0.0032991432381218413 -0.00081314699741379722 0 0.0032647823785677738 -0.00086536952632258475 0 0.0033343922160244308 -0.00086443778700708278 0 0.0032647823785677738 -0.00086536952632258475 0 0.0033343922160244308 -0.00086443778700708278 0 0.0033049494807896032 -0.00091811013712048974 0 0.0033600175883987844 -0.00081325711336465269 0 0.0032991432381218413 -0.00081314699741379722 0 0.0033343922160244308 -0.00086443778700708278 0 0.0030840951899047011 -0.000803440542717498 0 0.0030295064994455634 -0.00075948170415727665 0 0.0029940710891613229 -0.00083747598590385721 0 0.0031103075738927108 -0.00073403394717588106 0 0.0030840951899047011 -0.000803440542717498 0 0.0030295064994455634 -0.00075948170415727665 0 0.0031103075738927108 -0.00073403394717588106 0 0.0030840951899047011 -0.000803440542717498 0 0.0031522416993552313 -0.00075977242551900201 0 0.0031566766619231228 -0.00072061412827045855 0 0.0031103075738927108 -0.00073403394717588106 0 0.0031522416993552313 -0.00075977242551900201 0 0.0032025212347216395 -0.00073014722765923023 0 0.0031950044585750481 -0.00076914811624687876 0 0.0031522416993552313 -0.00075977242551900201 0 0.0031950044585750481 -0.00076914811624687876 0 0.0031522416993552313 -0.00075977242551900201 0 0.0031606409473856093 -0.00080597614939404371 0 0.0030840951899047011 -0.000803440542717498 0 0.0031522416993552313 -0.00075977242551900201 0 0.0031606409473856093 -0.00080597614939404371 0 0.0030840951899047011 -0.000803440542717498 0 0.0031606409473856093 -0.00080597614939404371 0 0.0031239599743139762 -0.00085373507363868738 0 0.0031894440408433014 -0.00085962561455268222 0 0.0031606409473856093 -0.00080597614939404371 0 0.0031239599743139762 -0.00085373507363868738 0 0.0031894440408433014 -0.00085962561455268222 0 0.0031239599743139762 -0.00085373507363868738 0 0.0031316803197392199 -0.0009169969909813315 0 0.0031239599743139762 -0.00085373507363868738 0 0.0030529142364916495 -0.00088273886595062912 0 0.0031316803197392199 -0.0009169969909813315 0 0.0030529142364916495 -0.00088273886595062912 0 0.0029940710891613229 -0.00083747598590385721 0 0.0029900452679309845 -0.00092230487749600813 0 0.0030840951899047011 -0.000803440542717498 0 0.0031239599743139762 -0.00085373507363868738 0 0.0030529142364916495 -0.00088273886595062912 0 0.0030840951899047011 -0.000803440542717498 0 0.0030529142364916495 -0.00088273886595062912 0 0.0029940710891613229 -0.00083747598590385721 0 0.0029940710891613229 -0.00083747598590385721 0 0.0028749360078931699 -0.00090012507864569487 0 0.0029900452679309845 -0.00092230487749600813 0 0.0029940710891613229 -0.00083747598590385721 0 0.0029343899247269096 -0.00073874454408375326 0 0.0028749360078931699 -0.00090012507864569487 0 0.0030295064994455634 -0.00075948170415727665 0 0.0029940710891613229 -0.00083747598590385721 0 0.0029343899247269096 -0.00073874454408375326 0 0.0029343899247269096 -0.00073874454408375326 0 0.0027649751133852515 -0.00078357871470462225 0 0.0028749360078931699 -0.00090012507864569487 0 0.0027649751133852515 -0.00078357871470462225 0 0.0027363868543948682 -0.00098477896337943651 0 0.0028749360078931699 -0.00090012507864569487 0 0.0023093730096079099 -0.0013062528336726601 0 0.0023184356419702662 -0.001335069359719879 0 0.0023383075857696875 -0.0012985483516853523 0 0.0022936805391982873 -0.0013467939682928541 0 0.0023093730096079099 -0.0013062528336726601 0 0.0023184356419702662 -0.001335069359719879 0 0.0022936805391982873 -0.0013467939682928541 0 0.0023093730096079099 -0.0013062528336726601 0 0.0022900472981131023 -0.0013417488815047208 0 0.0029343899247269096 -0.00073874454408375326 0 0.0027649751133852515 -0.00078357871470462225 0 0.0029993166119671247 -0.00055932691892458103 0 0.0030283342397493221 -0.00068057807298041537 0 0.0029343899247269096 -0.00073874454408375326 0 0.0029993166119671247 -0.00055932691892458103 0 0.0026215939159291131 -0.0021985500183385747 0 0.0022952866666225247 -0.0020739625686213986 0 0.0025283157007237674 -0.00097988256382836167 0 0.0027911423616289975 -0.0013360275227380608 0 0.0030283342397493221 -0.00068057807298041537 0 0.0030295064994455634 -0.00075948170415727665 0 0.0029343899247269096 -0.00073874454408375326 0 0.00283207424397411 -0.0011022773799222315 0 0.0029919069112872079 -0.0011232838629576215 0 0.002967042141299463 -0.0010245199606364625 0 0.0029919069112872079 -0.0011232838629576215 0 0.0029071930839878871 -0.0012082034778805458 0 0.0030650883058481997 -0.0012497754385893743 0 0.00283207424397411 -0.0011022773799222315 0 0.0029919069112872079 -0.0011232838629576215 0 0.0029071930839878871 -0.0012082034778805458 0 0.00283207424397411 -0.0011022773799222315 0 0.0029071930839878871 -0.0012082034778805458 0 0.0027485002031971037 -0.0012523357429317242 0 0.00283207424397411 -0.0011022773799222315 0 0.002688472573836434 -0.0011182012957220949 0 0.0027485002031971037 -0.0012523357429317242 0 0.002688472573836434 -0.0011182012957220949 0 0.0027485002031971037 -0.0012523357429317242 0 0.0025841113212532211 -0.0012408390977111535 0 0.00283207424397411 -0.0011022773799222315 0 0.002688472573836434 -0.0011182012957220949 0 0.0027363868543948682 -0.00098477896337943651 0 0.0027649751133852515 -0.00078357871470462225 0 0.0027363868543948682 -0.00098477896337943651 0 0.0025449358249523576 -0.0010050341711359825 0 0.002688472573836434 -0.0011182012957220949 0 0.0027363868543948682 -0.00098477896337943651 0 0.0025449358249523576 -0.0010050341711359825 0 0.00283207424397411 -0.0011022773799222315 0 0.0027363868543948682 -0.00098477896337943651 0 0.0028749360078931699 -0.00090012507864569487 0 0.00283207424397411 -0.0011022773799222315 0 0.0028749360078931699 -0.00090012507864569487 0 0.002967042141299463 -0.0010245199606364625 0 0.0028749360078931699 -0.00090012507864569487 0 0.002967042141299463 -0.0010245199606364625 0 0.0029900452679309845 -0.00092230487749600813 0 0.0030529142364916495 -0.00088273886595062912 0 0.0029900452679309845 -0.00092230487749600813 0 0.0030617542141864618 -0.00096560315257528768 0 0.0030529142364916495 -0.00088273886595062912 0 0.0030617542141864618 -0.00096560315257528768 0 0.0031316803197392199 -0.0009169969909813315 0 0.002967042141299463 -0.0010245199606364625 0 0.0029900452679309845 -0.00092230487749600813 0 0.0030617542141864618 -0.00096560315257528768 0 0.0031316803197392199 -0.0009169969909813315 0 0.0031356157862667609 -0.0010050221700398561 0 0.0032261760548913743 -0.00093920803636459653 0 0.0030617542141864618 -0.00096560315257528768 0 0.0031316803197392199 -0.0009169969909813315 0 0.0031356157862667609 -0.0010050221700398561 0 0.0031356157862667609 -0.0010050221700398561 0 0.0032257166632359462 -0.0010373585052251728 0 0.0031299311226283422 -0.0011131384993452189 0 0.0031356157862667609 -0.0010050221700398561 0 0.0030553311212281791 -0.0010483308198401958 0 0.0031299311226283422 -0.0011131384993452189 0 0.0030617542141864618 -0.00096560315257528768 0 0.0031356157862667609 -0.0010050221700398561 0 0.0030553311212281791 -0.0010483308198401958 0 0.002967042141299463 -0.0010245199606364625 0 0.0030617542141864618 -0.00096560315257528768 0 0.0030553311212281791 -0.0010483308198401958 0 0.0033049494807896032 -0.00091811013712048974 0 0.0032261760548913743 -0.00093920803636459653 0 0.0033206961953517432 -0.00098883657939304232 0 0.0033049494807896032 -0.00091811013712048974 0 0.0033206961953517432 -0.00098883657939304232 0 0.0033785169338642184 -0.0009229196421376521 0 0.0033343922160244308 -0.00086443778700708278 0 0.0033049494807896032 -0.00091811013712048974 0 0.0033785169338642184 -0.0009229196421376521 0 0.0031894440408433014 -0.00085962561455268222 0 0.0031316803197392199 -0.0009169969909813315 0 0.0032261760548913743 -0.00093920803636459653 0 0.0032647823785677738 -0.00086536952632258475 0 0.0033049494807896032 -0.00091811013712048974 0 0.0032261760548913743 -0.00093920803636459653 0 0.0032261760548913743 -0.00093920803636459653 0 0.0032257166632359462 -0.0010373585052251728 0 0.0033206961953517432 -0.00098883657939304232 0 0.0031356157862667609 -0.0010050221700398561 0 0.0032261760548913743 -0.00093920803636459653 0 0.0032257166632359462 -0.0010373585052251728 0 0.0032257166632359462 -0.0010373585052251728 0 0.0033206961953517432 -0.00098883657939304232 0 0.0033035461543066136 -0.0010835062317407684 0 0.0033206961953517432 -0.00098883657939304232 0 0.0033035461543066136 -0.0010835062317407684 0 0.0033839826568214785 -0.0010581075407307781 0 0.0033035461543066136 -0.0010835062317407684 0 0.0032224132703779535 -0.0011242856727951627 0 0.0032954904736753037 -0.0011804573361865636 0 0.0033035461543066136 -0.0010835062317407684 0 0.0032954904736753037 -0.0011804573361865636 0 0.0033850691172483292 -0.0011467465178902822 0 0.0032257166632359462 -0.0010373585052251728 0 0.0032224132703779535 -0.0011242856727951627 0 0.0031299311226283422 -0.0011131384993452189 0 0.0032257166632359462 -0.0010373585052251728 0 0.0033035461543066136 -0.0010835062317407684 0 0.0032224132703779535 -0.0011242856727951627 0 0.0032224132703779535 -0.0011242856727951627 0 0.0031994658436937089 -0.0012074864382244943 0 0.0031299311226283422 -0.0011131384993452189 0 0.0032224132703779535 -0.0011242856727951627 0 0.0031994658436937089 -0.0012074864382244943 0 0.0032954904736753037 -0.0011804573361865636 0 0.0031994658436937089 -0.0012074864382244943 0 0.0032954904736753037 -0.0011804573361865636 0 0.003289102364296395 -0.0012698633611817882 0 0.0029919069112872079 -0.0011232838629576215 0 0.002967042141299463 -0.0010245199606364625 0 0.0030553311212281791 -0.0010483308198401958 0 0.0029919069112872079 -0.0011232838629576215 0 0.0030553311212281791 -0.0010483308198401958 0 0.0031299311226283422 -0.0011131384993452189 0 0.0031994658436937089 -0.0012074864382244943 0 0.0031299311226283422 -0.0011131384993452189 0 0.0030650883058481997 -0.0012497754385893743 0 0.0029919069112872079 -0.0011232838629576215 0 0.0031299311226283422 -0.0011131384993452189 0 0.0030650883058481997 -0.0012497754385893743 0 0.0030650883058481997 -0.0012497754385893743 0 0.003127089239684713 -0.0013997888411782203 0 0.0029110525992425292 -0.0013833742609225068 0 0.0031994658436937089 -0.0012074864382244943 0 0.0030650883058481997 -0.0012497754385893743 0 0.0031894491481087896 -0.0013022084375193853 0 0.0030650883058481997 -0.0012497754385893743 0 0.0031894491481087896 -0.0013022084375193853 0 0.003127089239684713 -0.0013997888411782203 0 0.0032954904736753037 -0.0011804573361865636 0 0.003289102364296395 -0.0012698633611817882 0 0.0033938207581159213 -0.0012512115939840656 0 0.0031994658436937089 -0.0012074864382244943 0 0.003289102364296395 -0.0012698633611817882 0 0.0031894491481087896 -0.0013022084375193853 0 0.0031894491481087896 -0.0013022084375193853 0 0.0032664040161573286 -0.0013846501702796425 0 0.003127089239684713 -0.0013997888411782203 0 0.003289102364296395 -0.0012698633611817882 0 0.0031894491481087896 -0.0013022084375193853 0 0.0032664040161573286 -0.0013846501702796425 0 0.003289102364296395 -0.0012698633611817882 0 0.0032664040161573286 -0.0013846501702796425 0 0.0033880403711905802 -0.0013581478259398218 0 0.0032664040161573286 -0.0013846501702796425 0 0.0033556173116228698 -0.0014791244855455045 0 0.0033880403711905802 -0.0013581478259398218 0 0.0032664040161573286 -0.0013846501702796425 0 0.0032324805474203727 -0.0014984144012098401 0 0.0033556173116228698 -0.0014791244855455045 0 0.0032664040161573286 -0.0013846501702796425 0 0.0032324805474203727 -0.0014984144012098401 0 0.003127089239684713 -0.0013997888411782203 0 0.0032324805474203727 -0.0014984144012098401 0 0.0031187599039589082 -0.0015496325631798589 0 0.0032405776601306304 -0.0016200426447134887 0 0.0032324805474203727 -0.0014984144012098401 0 0.0033244455376278954 -0.0015864234234772229 0 0.0033556173116228698 -0.0014791244855455045 0 0.0032324805474203727 -0.0014984144012098401 0 0.0032405776601306304 -0.0016200426447134887 0 0.0033244455376278954 -0.0015864234234772229 0 0.003127089239684713 -0.0013997888411782203 0 0.0031187599039589082 -0.0015496325631798589 0 0.0029110525992425292 -0.0013833742609225068 0 0.0031187599039589082 -0.0015496325631798589 0 0.0029110525992425292 -0.0013833742609225068 0 0.0029407773923770622 -0.0016153699737035258 0 0.0032324805474203727 -0.0014984144012098401 0 0.003127089239684713 -0.0013997888411782203 0 0.0031187599039589082 -0.0015496325631798589 0 0.0029110525992425292 -0.0013833742609225068 0 0.0026319273334656527 -0.0014049730944992842 0 0.0029407773923770622 -0.0016153699737035258 0 0.0029071930839878871 -0.0012082034778805458 0 0.0030650883058481997 -0.0012497754385893743 0 0.0029110525992425292 -0.0013833742609225068 0 0.0029071930839878871 -0.0012082034778805458 0 0.0029110525992425292 -0.0013833742609225068 0 0.0027485002031971037 -0.0012523357429317242 0 0.0027485002031971037 -0.0012523357429317242 0 0.0026319273334656527 -0.0014049730944992842 0 0.0025841113212532211 -0.0012408390977111535 0 0.0029110525992425292 -0.0013833742609225068 0 0.0027485002031971037 -0.0012523357429317242 0 0.0026319273334656527 -0.0014049730944992842 0 0.0026470070316564919 -0.0014015004858156886 0 0.002821358066066309 -0.0015767978629276766 0 0.0026319273334656527 -0.0014049730944992842 0 0.0026364646805191751 -0.0014997387807139659 0 0.0027380201434487107 -0.0014518152843739033 0 0.0026364646805191751 -0.0014997387807139659 0 0.0027380201434487107 -0.0014518152843739033 0 0.0027127671569181738 -0.0015246665217469274 0 0.0027380201434487107 -0.0014518152843739033 0 0.0027127671569181738 -0.0015246665217469274 0 0.0027810346639108802 -0.0015471282580550524 0 0.0027127671569181738 -0.0015246665217469274 0 0.0027225380178733595 -0.0015779813083965364 0 0.0027810346639108802 -0.0015471282580550524 0 0.0027127671569181738 -0.0015246665217469274 0 0.0026413222539314585 -0.0015787533419082927 0 0.0027225380178733595 -0.0015779813083965364 0 0.0026364646805191751 -0.0014997387807139659 0 0.0026413222539314585 -0.0015787533419082927 0 0.0025274658614496399 -0.0015939653907956852 0 0.0026364646805191751 -0.0014997387807139659 0 0.0027127671569181738 -0.0015246665217469274 0 0.0026413222539314585 -0.0015787533419082927 0 0.0026413222539314585 -0.0015787533419082927 0 0.0027043173288802133 -0.0016674634014395518 0 0.0026183311512958671 -0.0016616459790844708 0 0.0026413222539314585 -0.0015787533419082927 0 0.0027225380178733595 -0.0015779813083965364 0 0.0027043173288802133 -0.0016674634014395518 0 0.002749733567706828 -0.0015591978400861812 0 0.0027762915161066107 -0.0015374038696333531 0 0.0027225380178733595 -0.0015779813083965364 0 0.0027043173288802133 -0.0016674634014395518 0 0.0028593290570694497 -0.0016732530473180735 0 0.0027043173288802133 -0.0016674634014395518 0 0.0028593290570694497 -0.0016732530473180735 0 0.0027162615504868612 -0.0017627036304845702 0 0.0023783232975581703 -0.0015152769731983007 0 0.0023831178826174888 -0.001505195739772292 0 0.0023656156371985818 -0.001482291118064778 0 0.0025317567111763331 -0.001708173832369384 0 0.0027910266398033165 -0.00062467902180051208 0 0.0024825174671042711 -0.0004394301643702953 0 0.0027910266398033165 -0.00062467902180051208 0 0.0027043173288802133 -0.0016674634014395518 0 0.0026183311512958671 -0.0016616459790844708 0 0.0027162615504868612 -0.0017627036304845702 0 0.0028593290570694497 -0.0016732530473180735 0 0.0030902994345311475 -0.0017330636267397909 0 0.0029387837602302173 -0.001832286725106978 0 0.0028593290570694497 -0.0016732530473180735 0 0.0030262433353498617 -0.001568980267950262 0 0.0030902994345311475 -0.0017330636267397909 0 0.0028593290570694497 -0.0016732530473180735 0 0.0029387837602302173 -0.001832286725106978 0 0.0027162615504868612 -0.0017627036304845702 0 0.0028593290570694497 -0.0016732530473180735 0 0.0030262433353498617 -0.001568980267950262 0 0.0028642897155922498 -0.0014735212469055414 0 0.0027225380178733595 -0.0015779813083965364 0 0.0028593290570694497 -0.0016732530473180735 0 0.0028642897155922498 -0.0014735212469055414 0 0.0030262433353498617 -0.001568980267950262 0 0.0030055463912944708 -0.0013851681229266281 0 0.0028642897155922498 -0.0014735212469055414 0 0.0030262433353498617 -0.001568980267950262 0 0.0030055463912944708 -0.0013851681229266281 0 0.0031934717888607547 -0.0014744211791646298 0 0.0027380201434487107 -0.0014518152843739033 0 0.0028541709038413651 -0.0015065554225207978 0 0.0027810346639108802 -0.0015471282580550524 0 0.0031873497457517923 -0.001325844497329362 0 0.0027762915161066107 -0.0015374038696333531 0 0.0031187599039589082 -0.0015496325631798589 0 0.0029407773923770622 -0.0016153699737035258 0 0.0032416498744378074 -0.0017754724355056276 0 0.002821358066066309 -0.0015767978629276766 0 0.0031873497457517923 -0.001325844497329362 0 0.0031187599039589082 -0.0015496325631798589 0 0.0032416498744378074 -0.0017754724355056276 0 0.0032405776601306304 -0.0016200426447134887 0 0.0032416498744378074 -0.0017754724355056276 0 0.0032841563387941068 -0.0016928150819436746 0 0.0033718570985621257 -0.0017012411998192417 0 0.0031873497457517923 -0.001325844497329362 0 0.003550615844939813 -0.0014302785149877711 0 0.003352195824992619 -0.001528358910956022 0 0.003550615844939813 -0.0014302785149877711 0 0.0032416498744378074 -0.0017754724355056276 0 0.0032841563387941068 -0.0016928150819436746 0 0.0032405776601306304 -0.0016200426447134887 0 0.0032841563387941068 -0.0016928150819436746 0 0.0033244455376278954 -0.0015864234234772229 0 0.0033694855454694831 -0.0017031217541259071 0 0.0032841563387941068 -0.0016928150819436746 0 0.0032405776601306304 -0.0016200426447134887 0 0.0033244455376278954 -0.0015864234234772229 0 0.0033694855454694831 -0.0017031217541259071 0 0.0035952103574998012 -0.0015820069221305574 0 0.0034340071230826367 -0.0015593301537510866 0 0.0033244455376278954 -0.0015864234234772229 0 0.0033694855454694831 -0.0017031217541259071 0 0.0034340071230826367 -0.0015593301537510866 0 0.003550615844939813 -0.0014302785149877711 0 0.0036120165376939276 -0.0015813040584642898 0 0.003550615844939813 -0.0014302785149877711 0 0.0039437080848378162 -0.0011407018451013854 0 0.0035106515189737208 -0.0016178195724556577 0 0.0036927501854404697 -0.0015168823128124877 0 0.0037714385785509981 -0.0016522076093790042 0 0.0040591291490186324 -0.00071610885142614109 0 0.0040542568778043986 -0.00081414065035165402 0 0.0038932724983949821 -0.00084216797867326385 0 0.003686084962962926 -0.00074887283057463764 0 0.003793258483587969 -0.00068683678096576409 0 0.0038932724983949821 -0.00084216797867326385 0 0.003793258483587969 -0.00068683678096576409 0 0.0040591291490186324 -0.00071610885142614109 0 0.0038932724983949821 -0.00084216797867326385 0 0.0031873497457517923 -0.001325844497329362 0 0.0035216154869811269 -0.0011481017826872613 0 0.0030262433353498617 -0.001568980267950262 0 0.0031934717888607547 -0.0014744211791646298 0 0.0031865918894936974 -0.0016207866998455142 0 0.0031934717888607547 -0.0014744211791646298 0 0.0031865918894936974 -0.0016207866998455142 0 0.0033833931363220081 -0.0015649742595434874 0 0.0040542568778043986 -0.00081414065035165402 0 0.0038932724983949821 -0.00084216797867326385 0 0.0040790927331800066 -0.00092230235292507551 0 0.0035216154869811269 -0.0011481017826872613 0 0.0039954687447658717 -0.0010265935411409538 0 0.0031865918894936974 -0.0016207866998455142 0 0.003274922715911789 -0.0017355588142203048 0 0.0033833931363220081 -0.0015649742595434874 0 0.0037028531761929663 -0.001407100069514647 0 0.0039954687447658717 -0.0010265935411409538 0 0.0042453120934213637 -0.00077552500690432065 0 0.0042115415723336233 -0.00078144736397964233 0 0.0042178938798377412 -0.00081400650310756205 0 0.0042453120934213637 -0.00077552500690432065 0 0.0042115415723336233 -0.00078144736397964233 0 0.0042273994599997377 -0.00075079253677082626 0 0.0031865918894936974 -0.0016207866998455142 0 0.003274922715911789 -0.0017355588142203048 0 0.0030902994345311475 -0.0017330636267397909 0 0.0030262433353498617 -0.001568980267950262 0 0.0031865918894936974 -0.0016207866998455142 0 0.0030902994345311475 -0.0017330636267397909 0 0.0045614267361426255 -0.00025463674612708658 0 0.0047743319901807704 -0.00012631928178013992 0 0.0049646871063034259 0.0001790326597759352 0 0.0049279302681062313 0.00055340745268647143 0 0.0053173536809816985 0.00061239615258705765 0 0.0041915917915202041 -0.00079091339308737035 0 0.0042071119430028671 -0.00079558831471753476 0 0.0041905492145233774 -0.00076901723616214647 0 0.0041915917915202041 -0.00079091339308737035 0 0.0042115415723336233 -0.00078144736397964233 0 0.0041905492145233774 -0.00076901723616214647 0 0.0041915917915202041 -0.00079091339308737035 0 0.0042115415723336233 -0.00078144736397964233 0 0.0042178938798377412 -0.00081400650310756205 0 0.0039954687447658717 -0.0010265935411409538 0 0.0041885728219155519 -0.00071849303027941836 0 0.0041915917915202041 -0.00079091339308737035 0 0.004155021916450956 -0.00079331903248890958 0 0.0041864167821844397 -0.0007870291183349798 0 0.004155021916450956 -0.00079331903248890958 0 0.0041864167821844397 -0.0007870291183349798 0 0.0041480795812246993 -0.00077338676263215332 0 0.004221703861071003 -0.00078332268866623605 0 0.0039954687447658717 -0.0010265935411409538 0 0.0041915917915202041 -0.00079091339308737035 0 0.0041864167821844397 -0.0007870291183349798 0 0.0042071119430028671 -0.00079558831471753476 0 0.0041864167821844397 -0.0007870291183349798 0 0.0042149506957097245 -0.00077247163303677041 0 0.0042071119430028671 -0.00079558831471753476 0 0.0041864167821844397 -0.0007870291183349798 0 0.004204966550698499 -0.00075134964373335385 0 0.0042149506957097245 -0.00077247163303677041 0 0.0041864167821844397 -0.0007870291183349798 0 0.004204966550698499 -0.00075134964373335385 0 0.0041480795812246993 -0.00077338676263215332 0 0.0040591291490186324 -0.00071610885142614109 0 0.004204966550698499 -0.00075134964373335385 0 0.0041480795812246993 -0.00077338676263215332 0 0.0040542568778043986 -0.00081414065035165402 0 0.0040790927331800066 -0.00092230235292507551 0 0.0041480795812246993 -0.00077338676263215332 0 0.0039437080848378162 -0.0011407018451013854 0 0.0040702546331801747 -0.0012987540142695095 0 0.0040591291490186324 -0.00071610885142614109 0 0.0040542568778043986 -0.00081414065035165402 0 0.0041480795812246993 -0.00077338676263215332 0 0.0036927501854404697 -0.0015168823128124877 0 0.0037714385785509981 -0.0016522076093790042 0 0.0039164691490702628 -0.0015756090471315928 0 0.0037714385785509981 -0.0016522076093790042 0 0.0040361242144088877 -0.0017070035731791956 0 0.0039164691490702628 -0.0015756090471315928 0 0.0040361242144088877 -0.0017070035731791956 0 0.0040360203023321753 -0.0014521496502002296 0 0.0041772508330562537 -0.0015384892111677739 0 0.0040361242144088877 -0.0017070035731791956 0 0.0039164691490702628 -0.0015756090471315928 0 0.0040360203023321753 -0.0014521496502002296 0 0.0040360203023321753 -0.0014521496502002296 0 0.0040653214237625435 -0.0013164749513684619 0 0.0038875492324142195 -0.001404040932740511 0 0.0039164691490702628 -0.0015756090471315928 0 0.0040360203023321753 -0.0014521496502002296 0 0.0038875492324142195 -0.001404040932740511 0 0.0040653214237625435 -0.0013164749513684619 0 0.0038573493015428028 -0.0012574009430055804 0 0.0038268561651192169 -0.0014587759678439892 0 0.0040653214237625435 -0.0013164749513684619 0 0.0038573493015428028 -0.0012574009430055804 0 0.0041316919387929451 -0.0011294956029090637 0 0.0040456173319769933 -0.0013270583963078003 0 0.0038677312673704571 -0.0014243618078828171 0 0.0038573493015428028 -0.0012574009430055804 0 0.0038268561651192169 -0.0014587759678439892 0 0.0036501856112095251 -0.0013792157280391011 0 0.0036927501854404697 -0.0015168823128124877 0 0.0039164691490702628 -0.0015756090471315928 0 0.0038875492324142195 -0.001404040932740511 0 0.0035952103574998012 -0.0015820069221305574 0 0.0038268561651192169 -0.0014587759678439892 0 0.0036501856112095251 -0.0013792157280391011 0 0.0035952103574998012 -0.0015820069221305574 0 0.0034940988563052599 -0.0014529135834330815 0 0.0036501856112095251 -0.0013792157280391011 0 0.0036120165376939276 -0.0015813040584642898 0 0.0038677312673704571 -0.0014243618078828171 0 0.0034340071230826367 -0.0015593301537510866 0 0.0034940988563052599 -0.0014529135834330815 0 0.0033556173116228698 -0.0014791244855455045 0 0.0033244455376278954 -0.0015864234234772229 0 0.0034340071230826367 -0.0015593301537510866 0 0.0033556173116228698 -0.0014791244855455045 0 0.0035952103574998012 -0.0015820069221305574 0 0.0034340071230826367 -0.0015593301537510866 0 0.0034940988563052599 -0.0014529135834330815 0 0.0034940988563052599 -0.0014529135834330815 0 0.0033556173116228698 -0.0014791244855455045 0 0.0033880403711905802 -0.0013581478259398218 0 0.0034940988563052599 -0.0014529135834330815 0 0.0033880403711905802 -0.0013581478259398218 0 0.0035275150898166096 -0.0013182537072918298 0 0.0035275150898166096 -0.0013182537072918298 0 0.0033938207581159213 -0.0012512115939840656 0 0.0034853557298962401 -0.001206831146262969 0 0.0033880403711905802 -0.0013581478259398218 0 0.0035275150898166096 -0.0013182537072918298 0 0.0033938207581159213 -0.0012512115939840656 0 0.003289102364296395 -0.0012698633611817882 0 0.0033880403711905802 -0.0013581478259398218 0 0.0033938207581159213 -0.0012512115939840656 0 0.0035275150898166096 -0.0013182537072918298 0 0.0036501856112095251 -0.0013792157280391011 0 0.0036300189231529205 -0.0011978522656248757 0 0.0038573493015428028 -0.0012574009430055804 0 0.0036501856112095251 -0.0013792157280391011 0 0.0036300189231529205 -0.0011978522656248757 0 0.0034940988563052599 -0.0014529135834330815 0 0.0035275150898166096 -0.0013182537072918298 0 0.0036501856112095251 -0.0013792157280391011 0 0.0035275150898166096 -0.0013182537072918298 0 0.0036300189231529205 -0.0011978522656248757 0 0.0034853557298962401 -0.001206831146262969 0 0.0036300189231529205 -0.0011978522656248757 0 0.0034879908089151561 -0.001093617184002738 0 0.0035928740181091221 -0.001003248339105874 0 0.0036300189231529205 -0.0011978522656248757 0 0.0035928740181091221 -0.001003248339105874 0 0.0038242155867388721 -0.0010863013235963084 0 0.0036300189231529205 -0.0011978522656248757 0 0.0034853557298962401 -0.001206831146262969 0 0.0034879908089151561 -0.001093617184002738 0 0.0032954904736753037 -0.0011804573361865636 0 0.0033938207581159213 -0.0012512115939840656 0 0.0033850691172483292 -0.0011467465178902822 0 0.0033938207581159213 -0.0012512115939840656 0 0.0033850691172483292 -0.0011467465178902822 0 0.0034853557298962401 -0.001206831146262969 0 0.0033850691172483292 -0.0011467465178902822 0 0.0034853557298962401 -0.001206831146262969 0 0.0034879908089151561 -0.001093617184002738 0 0.0033850691172483292 -0.0011467465178902822 0 0.0034879908089151561 -0.001093617184002738 0 0.0033839826568214785 -0.0010581075407307781 0 0.0033035461543066136 -0.0010835062317407684 0 0.0033850691172483292 -0.0011467465178902822 0 0.0033839826568214785 -0.0010581075407307781 0 0.0034879908089151561 -0.001093617184002738 0 0.0034366798822777897 -0.0009931919934234 0 0.0033839826568214785 -0.0010581075407307781 0 0.0033206961953517432 -0.00098883657939304232 0 0.0034366798822777897 -0.0009931919934234 0 0.0033839826568214785 -0.0010581075407307781 0 0.0034879908089151561 -0.001093617184002738 0 0.0034366798822777897 -0.0009931919934234 0 0.0035928740181091221 -0.001003248339105874 0 0.0034770031197910952 -0.00089918533065528445 0 0.0034366798822777897 -0.0009931919934234 0 0.0035928740181091221 -0.001003248339105874 0 0.0033206961953517432 -0.00098883657939304232 0 0.0034366798822777897 -0.0009931919934234 0 0.0033785169338642184 -0.0009229196421376521 0 0.0034770031197910952 -0.00089918533065528445 0 0.0034366798822777897 -0.0009931919934234 0 0.0033785169338642184 -0.0009229196421376521 0 0.0035823746718641322 -0.00085400922652299901 0 0.0034770031197910952 -0.00089918533065528445 0 0.0035928740181091221 -0.001003248339105874 0 0.0035823746718641322 -0.00085400922652299901 0 0.0035928740181091221 -0.001003248339105874 0 0.003756210065630961 -0.00093806463932803014 0 0.0035928740181091221 -0.001003248339105874 0 0.003756210065630961 -0.00093806463932803014 0 0.0038242155867388721 -0.0010863013235963084 0 0.003756210065630961 -0.00093806463932803014 0 0.0039920977322403812 -0.0010014257911440357 0 0.0038242155867388721 -0.0010863013235963084 0 0.0039141974297914077 -0.00080399379861838738 0 0.003756210065630961 -0.00093806463932803014 0 0.0039920977322403812 -0.0010014257911440357 0 0.0039141974297914077 -0.00080399379861838738 0 0.0039920977322403812 -0.0010014257911440357 0 0.0041669575577249693 -0.00093090674519232702 0 0.0039920977322403812 -0.0010014257911440357 0 0.0038242155867388721 -0.0010863013235963084 0 0.0041316919387929451 -0.0011294956029090637 0 0.0038573493015428028 -0.0012574009430055804 0 0.0038242155867388721 -0.0010863013235963084 0 0.0041316919387929451 -0.0011294956029090637 0 0.0038573493015428028 -0.0012574009430055804 0 0.0036300189231529205 -0.0011978522656248757 0 0.0038242155867388721 -0.0010863013235963084 0 0.0043297549890564538 -0.0011766080044730081 0 0.0041316919387929451 -0.0011294956029090637 0 0.0044003172281529782 -0.0010528563586085361 0 0.0043297549890564538 -0.0011766080044730081 0 0.0044024622013617348 -0.0010470283319338703 0 0.0044212969209892162 -0.0011549717169687087 0 0.004455302194986 -0.0010506788051381556 0 0.0044756957199904293 -0.0017134986838029888 0 0.0043297549890564538 -0.0011766080044730081 0 0.0044212969209892162 -0.0011549717169687087 0 0.0044045930577652753 -0.0012754668452785198 0 0.0043297549890564538 -0.0011766080044730081 0 0.0041316919387929451 -0.0011294956029090637 0 0.0042414167538538279 -0.0012644865506420326 0 0.0041316919387929451 -0.0011294956029090637 0 0.0041669575577249693 -0.00093090674519232702 0 0.0044003172281529782 -0.0010528563586085361 0 0.0039920977322403812 -0.0010014257911440357 0 0.0041316919387929451 -0.0011294956029090637 0 0.0041669575577249693 -0.00093090674519232702 0 0.0040864892785336514 -0.0022517056354221603 0 0.0044756957199904293 -0.0017134986838029888 0 0.0039904209510494464 -0.0035393507382913982 0 0.0040814054957461739 -0.0034668089294301327 0 0.0039500223387156086 -0.0033783209361746146 0 0.0058369707885307385 -0.0014625061140346759 0 0.0058077873517127458 -0.001274230359145396 0 0.0059448871300138185 -0.0011976965378628413 0 0.0048931386012847069 -0.0025981217999199138 0 0.0044756957199904293 -0.0017134986838029888 0 0.0058077873517127458 -0.001274230359145396 0 0.0059448871300138185 -0.0011976965378628413 0 0.0058028265949366577 -0.0011222082255485431 0 0.0057559084749772326 -0.0012810235728760765 0 0.0053598224200635198 -0.0010074183999980945 0 0.0056248053653624756 -0.0013100981340333127 0 0.005814505457894875 -0.0010666167462997026 0 0.0056018288009871634 -0.0011203287560599534 0 0.0058077873517127458 -0.001274230359145396 0 0.0056248053653624756 -0.0013100981340333127 0 0.0058028265949366577 -0.0011222082255485431 0 0.0053598224200635198 -0.0010074183999980945 0 0.0054967160154104945 -0.0008246536574583838 0 0.005814505457894875 -0.0010666167462997026 0 0.0055780609100485601 -0.00095328827685869097 0 0.0056018288009871634 -0.0011203287560599534 0 0.0050544136343381079 -0.00048691415734924666 0 0.0052699163696598847 -0.00073802760833268451 0 0.0054355319744994234 -0.00074404241673054232 0 0.0050544136343381079 -0.00048691415734924666 0 0.0050603138083637122 -0.00070278405319034484 0 0.0052699163696598847 -0.00073802760833268451 0 0.0044756957199904293 -0.0017134986838029888 0 0.0053598224200635198 -0.0010074183999980945 0 0.0044024622013617348 -0.0010470283319338703 0 0.0045491223787077536 -0.0011192724520815032 0 0.0044212969209892162 -0.0011549717169687087 0 0.0050544136343381079 -0.00048691415734924666 0 0.0050603138083637122 -0.00070278405319034484 0 0.0047432432253154922 -0.00081724455042763745 0 0.0045491223787077536 -0.0011192724520815032 0 0.0044212969209892162 -0.0011549717169687087 0 0.0044045930577652753 -0.0012754668452785198 0 0.0053598224200635198 -0.0010074183999980945 0 0.004527165471968457 -0.0010588894637406962 0 0.0047432432253154922 -0.00081724455042763745 0 0.0049316932027668641 -0.0010414745194817047 0 0.0047260885058208598 -0.0012293026357228962 0 0.0050603138083637122 -0.00070278405319034484 0 0.0047432432253154922 -0.00081724455042763745 0 0.0050701966494379374 -0.00085258052638873384 0 0.0050701966494379374 -0.00085258052638873384 0 0.0049316932027668641 -0.0010414745194817047 0 0.0050996081338115663 -0.0009914724900097825 0 0.0047432432253154922 -0.00081724455042763745 0 0.0050701966494379374 -0.00085258052638873384 0 0.0049316932027668641 -0.0010414745194817047 0 0.0052699163696598847 -0.00073802760833268451 0 0.0054254745426069338 -0.00078152105056563358 0 0.0054355319744994234 -0.00074404241673054232 0 0.0052699163696598847 -0.00073802760833268451 0 0.0052034594744259696 -0.00090098031723185104 0 0.0054254745426069338 -0.00078152105056563358 0 0.0050603138083637122 -0.00070278405319034484 0 0.0050701966494379374 -0.00085258052638873384 0 0.0052699163696598847 -0.00073802760833268451 0 0.0050701966494379374 -0.00085258052638873384 0 0.0052699163696598847 -0.00073802760833268451 0 0.0052034594744259696 -0.00090098031723185104 0 0.0050996081338115663 -0.0009914724900097825 0 0.0052034594744259696 -0.00090098031723185104 0 0.0051496371897204506 -0.0011714220302935104 0 0.0050701966494379374 -0.00085258052638873384 0 0.0050996081338115663 -0.0009914724900097825 0 0.0052034594744259696 -0.00090098031723185104 0 0.0052034594744259696 -0.00090098031723185104 0 0.0051496371897204506 -0.0011714220302935104 0 0.0054254745426069338 -0.00078152105056563358 0 0.0053278294451557561 -0.00092126097019240192 0 0.0054196329549257493 -0.00080000242708785517 0 0.0055171264685465009 -0.00068317621493547162 0 0.0054459725475661585 -0.00069458210970652935 0 0.0054254745426069338 -0.00078152105056563358 0 0.0055171264685465009 -0.00068317621493547162 0 0.0054981031961512201 -0.00063823375852082415 0 0.0055140258325234795 -0.00062590262256854979 0 0.0055171264685465009 -0.00068317621493547162 0 0.0054981031961512201 -0.00063823375852082415 0 0.0054459725475661585 -0.00069458210970652935 0 0.0054981031961512201 -0.00063823375852082415 0 0.0054526950716629738 -0.00062352444035426345 0 0.0054459725475661585 -0.00069458210970652935 0 0.0049316932027668641 -0.0010414745194817047 0 0.0047260885058208598 -0.0012293026357228962 0 0.0049078082837224462 -0.0012413177829347379 0 0.0049316932027668641 -0.0010414745194817047 0 0.0051496371897204506 -0.0011714220302935104 0 0.0049078082837224462 -0.0012413177829347379 0 0.0049316932027668641 -0.0010414745194817047 0 0.0050996081338115663 -0.0009914724900097825 0 0.0051496371897204506 -0.0011714220302935104 0 0.0055171264685465009 -0.00068317621493547162 0 0.0055371409067398025 -0.00062149330268082667 0 0.0055140258325234795 -0.00062590262256854979 0 0.0051496371897204506 -0.0011714220302935104 0 0.0049078082837224462 -0.0012413177829347379 0 0.0048251248727616478 -0.0015209299087213452 0 0.0053278294451557561 -0.00092126097019240192 0 0.00519951622995717 -0.0010964258247772951 0 0.0047260885058208598 -0.0012293026357228962 0 0.0049078082837224462 -0.0012413177829347379 0 0.0048251248727616478 -0.0015209299087213452 0 0.0044393462483210133 -0.0011755924089979618 0 0.0041772508330562537 -0.0015384892111677739 0 0.0045084560255174676 -0.0014978467760717285 0 0.0047432432253154922 -0.00081724455042763745 0 0.0047260885058208598 -0.0012293026357228962 0 0.0044393462483210133 -0.0011755924089979618 0 0.0047260885058208598 -0.0012293026357228962 0 0.0044393462483210133 -0.0011755924089979618 0 0.0045084560255174676 -0.0014978467760717285 0 0.0044045930577652753 -0.0012754668452785198 0 0.0042730141861379188 -0.0014165061057848844 0 0.0042414167538538279 -0.0012644865506420326 0 0.004527165471968457 -0.0010588894637406962 0 0.0043636490932437875 -0.0012950063810395008 0 0.0043297549890564538 -0.0011766080044730081 0 0.0044045930577652753 -0.0012754668452785198 0 0.0042414167538538279 -0.0012644865506420326 0 0.0040653214237625435 -0.0013164749513684619 0 0.0042730141861379188 -0.0014165061057848844 0 0.0042414167538538279 -0.0012644865506420326 0 0.0040653214237625435 -0.0013164749513684619 0 0.0041316919387929451 -0.0011294956029090637 0 0.0042414167538538279 -0.0012644865506420326 0 0.0040360203023321753 -0.0014521496502002296 0 0.0042730141861379188 -0.0014165061057848844 0 0.0041772508330562537 -0.0015384892111677739 0 0.0040360203023321753 -0.0014521496502002296 0 0.0040653214237625435 -0.0013164749513684619 0 0.0042730141861379188 -0.0014165061057848844 0 0.0043636490932437875 -0.0012950063810395008 0 0.0041889942810807764 -0.0015155483782687681 0 0.0040361242144088877 -0.0017070035731791956 0 0.0041772508330562537 -0.0015384892111677739 0 0.0045094623210870021 -0.001815803548454811 0 0.0041772508330562537 -0.0015384892111677739 0 0.0045084560255174676 -0.0014978467760717285 0 0.0045094623210870021 -0.001815803548454811 0 0.0045084560255174676 -0.0014978467760717285 0 0.0045094623210870021 -0.001815803548454811 0 0.0048251248727616478 -0.0015209299087213452 0 0.0047260885058208598 -0.0012293026357228962 0 0.0045084560255174676 -0.0014978467760717285 0 0.0048251248727616478 -0.0015209299087213452 0 0.0055408641278831099 -0.00060020453141014388 0 0.0055467238802198674 -0.00059064499579265144 0 0.0055371409067398025 -0.00062149330268082667 0 0.0046246461141274666 -0.00079595049806812713 0 0.00519951622995717 -0.0010964258247772951 0 0.0044747031530750327 -0.00024761413631856283 0 0.0045938153613080982 -0.00026098399634553294 0 0.0046273802497712535 0.00032941240538857965 0 0.0055403147341075284 -0.00059091058297741877 0 0.0055408641278831099 -0.00060020453141014388 0 0.0055467238802198674 -0.00059064499579265144 0 0.0052134326274542236 -0.00028491753330587357 0 0.0052777824551005232 -0.00045786170480676921 0 0.0052134326274542236 -0.00028491753330587357 0 0.0046246461141274666 -0.00079595049806812713 0 0.004204966550698499 -0.00075134964373335385 0 0.0042551760619652995 -0.00075851827447853605 0 0.0042149506957097245 -0.00077247163303677041 0 0.0040702546331801747 -0.0012987540142695095 0 0.0046246461141274666 -0.00079595049806812713 0 0.0042551760619652995 -0.00075851827447853605 0 0.0042149506957097245 -0.00077247163303677041 0 0.0042071119430028671 -0.00079558831471753476 0 0.0046246461141274666 -0.00079595049806812713 0 0.0045614267361426255 -0.00025463674612708658 0 0.0052583407874017239 0.00018770292554230676 0 0.0052832424280894793 0.00028293036616568347 0 0.005227618986814335 0.00024903358752143565 0 0.0052134326274542236 -0.00028491753330587357 0 0.0049087875648101149 0.00035605359077797179 0 0.0045938153613080982 -0.00026098399634553294 0 0.0049646871063034259 0.0001790326597759352 0 0.0046273802497712535 0.00032941240538857965 0 0.0049646871063034259 0.0001790326597759352 0 0.0046273802497712535 0.00032941240538857965 0 0.0049279302681062313 0.00055340745268647143 0 0.0051884399047141209 0.00027464622231364555 0 0.0051404659979921294 0.0002672667783883947 0 0.0051738150242464555 0.00033470663918427662 0 0.0051884399047141209 0.00027464622231364555 0 0.0052251077838868648 0.00029835846944066378 0 0.0051738150242464555 0.00033470663918427662 0 0.0052832424280894793 0.00028293036616568347 0 0.0052251077838868648 0.00029835846944066378 0 0.005227618986814335 0.00024903358752143565 0 0.0052832424280894793 0.00028293036616568347 0 0.0052251077838868648 0.00029835846944066378 0 0.0052383242788302652 0.00035150178148213545 0 0.0051884399047141209 0.00027464622231364555 0 0.0052251077838868648 0.00029835846944066378 0 0.005227618986814335 0.00024903358752143565 0 0.0051884399047141209 0.00027464622231364555 0 0.005227618986814335 0.00024903358752143565 0 0.0051852571999090906 0.00020047612727334206 0 0.0051884399047141209 0.00027464622231364555 0 0.0051852571999090906 0.00020047612727334206 0 0.0051404659979921294 0.0002672667783883947 0 0.0054977762935780545 -0.00057342823182343486 0 0.0055202702435830902 -0.00059801400533806355 0 0.0054994551359509279 -0.00060732864371437008 0 0.0054977762935780545 -0.00057342823182343486 0 0.0054994551359509279 -0.00060732864371437008 0 0.0054603577520399545 -0.00060282241112787256 0 0.0052134326274542236 -0.00028491753330587357 0 0.0053739806201008244 -0.00016969569838939282 0 0.0052583407874017239 0.00018770292554230676 0 0.005227618986814335 0.00024903358752143565 0 0.0051852571999090906 0.00020047612727334206 0 0.005544458349319336 -0.00058899805744219258 0 0.0054977762935780545 -0.00057342823182343486 0 0.0055202702435830902 -0.00059801400533806355 0 0.005544458349319336 -0.00058899805744219258 0 0.0055408641278831099 -0.00060020453141014388 0 0.0055202702435830902 -0.00059801400533806355 0 0.0055408641278831099 -0.00060020453141014388 0 0.0055202702435830902 -0.00059801400533806355 0 0.0055371409067398025 -0.00062149330268082667 0 0.0055202702435830902 -0.00059801400533806355 0 0.0055371409067398025 -0.00062149330268082667 0 0.0055140258325234795 -0.00062590262256854979 0 0.0054981031961512201 -0.00063823375852082415 0 0.0054994551359509279 -0.00060732864371437008 0 0.0054603577520399545 -0.00060282241112787256 0 0.0055202702435830902 -0.00059801400533806355 0 0.0054994551359509279 -0.00060732864371437008 0 0.0055140258325234795 -0.00062590262256854979 0 0.0054981031961512201 -0.00063823375852082415 0 0.0054994551359509279 -0.00060732864371437008 0 0.0055140258325234795 -0.00062590262256854979 0 0.0054853301486751807 -0.00061409511227179402 0 0.0054856168382737634 -0.00059659740312878538 0 0.0054526950716629738 -0.00062352444035426345 0 0.005405219040302103 -0.00062304739824501243 0 0.0054604451670451221 -0.00052784101113951913 0 0.0054981031961512201 -0.00063823375852082415 0 0.0054526950716629738 -0.00062352444035426345 0 0.0054604451670451221 -0.00052784101113951913 0 0.005405219040302103 -0.00062304739824501243 0 0.0054604451670451221 -0.00052784101113951913 0 0.0053261937531145524 -0.0005623441713593527 0 0.0054604451670451221 -0.00052784101113951913 0 0.0053261937531145524 -0.0005623441713593527 0 0.0053401498451548434 -0.0004614140706549192 0 0.0053261937531145524 -0.0005623441713593527 0 0.0053401498451548434 -0.0004614140706549192 0 0.0051909277790400847 -0.00050185350256045909 0 0.0053401498451548434 -0.0004614140706549192 0 0.0053047107443903955 -0.00036551126164408769 0 0.0051909277790400847 -0.00050185350256045909 0 0.0053401498451548434 -0.0004614140706549192 0 0.005393728820057786 -0.00040085820352339028 0 0.0053047107443903955 -0.00036551126164408769 0 0.0052882280453073064 -0.00027429189163734568 0 0.0053546283818623327 -0.00035518432573626406 0 0.0053739806201008244 -0.00016969569838939282 0 0.0052882280453073064 -0.00027429189163734568 0 0.0054604451670451221 -0.00052784101113951913 0 0.0053401498451548434 -0.0004614140706549192 0 0.005393728820057786 -0.00040085820352339028 0 0.0054977762935780545 -0.00057342823182343486 0 0.0054603577520399545 -0.00060282241112787256 0 0.0054233459667045528 -0.0005582301344854467 0 0.0054856168382737634 -0.00059659740312878538 0 0.0052882280453073064 -0.00027429189163734568 0 0.0051852571999090906 0.00020047612727334206 0 0.0051208495717237623 0.0002097955134144885 0 0.0051404659979921294 0.0002672667783883947 0 0.0052882280453073064 -0.00027429189163734568 0 0.0051736290167372044 6.7665424260558011e-05 0 0.0054354429714599745 -0.00038015828435374347 0 0.0053047107443903955 -0.00036551126164408769 0 0.0052870886021112286 -0.00018381839215997179 0 0.0051208495717237623 0.0002097955134144885 0 0.0051404659979921294 0.0002672667783883947 0 0.00508521463219847 0.00025572503968530083 0 0.0051404659979921294 0.0002672667783883947 0 0.00508521463219847 0.00025572503968530083 0 0.0051095783243240989 0.00031759933472385004 0 0.0051404659979921294 0.0002672667783883947 0 0.0051095783243240989 0.00031759933472385004 0 0.0051738150242464555 0.00033470663918427662 0 0.0051443631933716163 -0.000142507390712116 0 0.0049999875075211484 -0.00010116428835484678 0 0.0051482881680307291 7.6829440049798737e-06 0 0.0051443631933716163 -0.000142507390712116 0 0.0052870886021112286 -0.00018381839215997179 0 0.0051482881680307291 7.6829440049798737e-06 0 0.0051736290167372044 6.7665424260558011e-05 0 0.0050987310519270204 0.00013544919685651332 0 0.00508521463219847 0.00025572503968530083 0 0.0050544835421125981 0.00027471423839625051 0 0.0051095783243240989 0.00031759933472385004 0 0.0053047107443903955 -0.00036551126164408769 0 0.0052870886021112286 -0.00018381839215997179 0 0.0051408403796042905 -0.00029299341679416539 0 0.0051443631933716163 -0.000142507390712116 0 0.0052870886021112286 -0.00018381839215997179 0 0.0051408403796042905 -0.00029299341679416539 0 0.0049999875075211484 -0.00010116428835484678 0 0.0051408403796042905 -0.00029299341679416539 0 0.0049999856739277324 -0.00039751464096194288 0 0.0051443631933716163 -0.000142507390712116 0 0.0049999875075211484 -0.00010116428835484678 0 0.0051408403796042905 -0.00029299341679416539 0 0.0051408403796042905 -0.00029299341679416539 0 0.0049999856739277324 -0.00039751464096194288 0 0.0051909277790400847 -0.00050185350256045909 0 0.0053047107443903955 -0.00036551126164408769 0 0.0051408403796042905 -0.00029299341679416539 0 0.0051909277790400847 -0.00050185350256045909 0 0.0053261937531145524 -0.0005623441713593527 0 0.0051909277790400847 -0.00050185350256045909 0 0.0051925399522479865 -0.00073609804735953451 0 0.0049999856739277324 -0.00039751464096194288 0 0.0051909277790400847 -0.00050185350256045909 0 0.0049999967579205792 -0.00069380800889869739 0 0.0051909277790400847 -0.00050185350256045909 0 0.0049999967579205792 -0.00069380800889869739 0 0.0051925399522479865 -0.00073609804735953451 0 0.0049999967579205792 -0.00069380800889869739 0 0.0051925399522479865 -0.00073609804735953451 0 0.004999976860033231 -0.00099018681066391197 0 0.0052262627415145336 -0.00093649755357722909 0 0.0051925399522479865 -0.00073609804735953451 0 0.004999976860033231 -0.00099018681066391197 0 0.0052262627415145336 -0.00093649755357722909 0 0.0051925399522479865 -0.00073609804735953451 0 0.0053764657744329427 -0.00085072679728899502 0 0.0052031306791640473 -0.00073879033615429377 0 0.0053594752159313048 -0.00080815135651552468 0 0.0053261937531145524 -0.0005623441713593527 0 0.0051925399522479865 -0.00073609804735953451 0 0.0053363960344839185 -0.00068890990438962355 0 0.0051925399522479865 -0.00073609804735953451 0 0.0053363960344839185 -0.00068890990438962355 0 0.0053493516877903182 -0.00077179227321480721 0 0.005405219040302103 -0.00062304739824501243 0 0.0053261937531145524 -0.0005623441713593527 0 0.0053363960344839185 -0.00068890990438962355 0 0.005405219040302103 -0.00062304739824501243 0 0.0054459725475661585 -0.00069458210970652935 0 0.0054000521071091035 -0.00075078501210953691 0 0.005405219040302103 -0.00062304739824501243 0 0.0053363960344839185 -0.00068890990438962355 0 0.0054000521071091035 -0.00075078501210953691 0 0.0054526950716629738 -0.00062352444035426345 0 0.005405219040302103 -0.00062304739824501243 0 0.0054459725475661585 -0.00069458210970652935 0 0.0053594752159313048 -0.00080815135651552468 0 0.0054967160154104945 -0.0008246536574583838 0 0.0053764657744329427 -0.00085072679728899502 0 0.0055780609100485601 -0.00095328827685869097 0 0.005455166909704926 -0.00097918934458113348 0 0.0054000521071091035 -0.00075078501210953691 0 0.0053493516877903182 -0.00077179227321480721 0 0.0054355319744994234 -0.00074404241673054232 0 0.0054459725475661585 -0.00069458210970652935 0 0.0054000521071091035 -0.00075078501210953691 0 0.0054254745426069338 -0.00078152105056563358 0 0.0054000521071091035 -0.00075078501210953691 0 0.0054254745426069338 -0.00078152105056563358 0 0.0054355319744994234 -0.00074404241673054232 0 0.0052262627415145336 -0.00093649755357722909 0 0.0053764657744329427 -0.00085072679728899502 0 0.0053703568452189293 -0.0010538708525421655 0 0.0053363960344839185 -0.00068890990438962355 0 0.0054000521071091035 -0.00075078501210953691 0 0.0053493516877903182 -0.00077179227321480721 0 0.0053764657744329427 -0.00085072679728899502 0 0.0053703568452189293 -0.0010538708525421655 0 0.005455166909704926 -0.00097918934458113348 0 0.0053703568452189293 -0.0010538708525421655 0 0.005455166909704926 -0.00097918934458113348 0 0.0054980970470686749 -0.0010603019349643566 0 0.0055780609100485601 -0.00095328827685869097 0 0.005455166909704926 -0.00097918934458113348 0 0.0054980970470686749 -0.0010603019349643566 0 0.0053703568452189293 -0.0010538708525421655 0 0.0054980970470686749 -0.0010603019349643566 0 0.005473427935248752 -0.0011957038445120796 0 0.0054980970470686749 -0.0010603019349643566 0 0.0056018288009871634 -0.0011203287560599534 0 0.005473427935248752 -0.0011957038445120796 0 0.0055780609100485601 -0.00095328827685869097 0 0.0054980970470686749 -0.0010603019349643566 0 0.0056018288009871634 -0.0011203287560599534 0 0.0054306748881988599 -0.0014088275077127721 0 0.0056248053653624756 -0.0013100981340333127 0 0.005473427935248752 -0.0011957038445120796 0 0.0056248053653624756 -0.0013100981340333127 0 0.0056018288009871634 -0.0011203287560599534 0 0.005473427935248752 -0.0011957038445120796 0 0.0053703568452189293 -0.0010538708525421655 0 0.0053396529547418145 -0.0012606950521288586 0 0.0052203418910896603 -0.0011072891061279875 0 0.0053703568452189293 -0.0010538708525421655 0 0.005473427935248752 -0.0011957038445120796 0 0.0053396529547418145 -0.0012606950521288586 0 0.0054306748881988599 -0.0014088275077127721 0 0.005473427935248752 -0.0011957038445120796 0 0.0053396529547418145 -0.0012606950521288586 0 0.0053396529547418145 -0.0012606950521288586 0 0.005231777856368019 -0.0012406690852675671 0 0.0052203418910896603 -0.0011072891061279875 0 0.005231777856368019 -0.0012406690852675671 0 0.0051250338877078605 -0.001201102368358442 0 0.0052203418910896603 -0.0011072891061279875 0 0.0051884700222774253 -0.0012954805303558355 0 0.005231777856368019 -0.0012406690852675671 0 0.0051250338877078605 -0.001201102368358442 0 0.0049999818756436016 -0.0012865118387658866 0 0.0051250338877078605 -0.001201102368358442 0 0.004999976860033231 -0.00099018681066391197 0 0.0051250338877078605 -0.001201102368358442 0 0.004999976860033231 -0.00099018681066391197 0 0.0052203418910896603 -0.0011072891061279875 0 0.0052262627415145336 -0.00093649755357722909 0 0.0053703568452189293 -0.0010538708525421655 0 0.0052203418910896603 -0.0011072891061279875 0 0.0052262627415145336 -0.00093649755357722909 0 0.004999976860033231 -0.00099018681066391197 0 0.0052203418910896603 -0.0011072891061279875 0 -0.0022294338490363996 -0.0023561346000565333 0 -0.0022118325195039112 -0.0023650680041234595 0 -0.0022102651362513825 -0.0023649322551438376 0 -0.0022294338490363996 -0.0023561346000565333 0 -0.0022116009702355241 -0.002377782802255605 0 -0.0022118325195039112 -0.0023650680041234595 0 -0.0022578606862496326 -0.0024155155246290074 0 -0.0022702415028405701 -0.0024049955573007061 0 -0.0023013644883189367 -0.0023792524417656476 0 -0.0022457720409122714 -0.0023634483295308993 0 -0.0022294338490363996 -0.0023561346000565333 0 -0.0023013644883189367 -0.0023792524417656476 0 -0.0022457720409122714 -0.0023634483295308993 0 -0.0022294338490363996 -0.0023561346000565333 0 -0.0022102651362513825 -0.0023649322551438376 0 -0.0022432115117454023 -0.0023619946853654667 0 -0.0022204919168927698 -0.0023827641690513531 0 -0.0022452764821123375 -0.0023851934822841547 0 -0.0022935167614439125 -0.0023817745220697482 0 -0.0022578606862496326 -0.0024155155246290074 0 -0.0022702415028405701 -0.0024049955573007061 0 -0.0022555978092779084 -0.0024190587678441476 0 -0.0022702415028405701 -0.0024049955573007061 0 -0.0022555978092779084 -0.0024190587678441476 0 -0.0022672972733765316 -0.002406864633219799 0 -0.0022578606862496326 -0.0024155155246290074 0 -0.0022555978092779084 -0.0024190587678441476 0 -0.0022552533234540943 -0.0024259395470555131 0 -0.0022452764821123375 -0.0023851934822841547 0 -0.0022377580868527562 -0.0024026560358116509 0 -0.0022578606862496326 -0.0024155155246290074 0 -0.0022552533234540943 -0.0024259395470555131 0 -0.0022601088618356166 -0.0024279786367012034 0 -0.0022552533234540943 -0.0024259395470555131 0 -0.0022601088618356166 -0.0024279786367012034 0 -0.0022597282635620284 -0.0024346015387099905 0 -0.0022116009702355241 -0.002377782802255605 0 -0.0022275880823802011 -0.0023765931644589115 0 -0.0022496489733017226 -0.0024150381189745186 0 -0.0022377580868527562 -0.0024026560358116509 0 -0.002250431929603731 -0.0024142285661211578 0 -0.0022275880823802011 -0.0023765931644589115 0 -0.0022194839628202245 -0.0023577766100993953 0 -0.0022450861106322658 -0.002374321924167326 0 -0.0022116009702355241 -0.002377782802255605 0 -0.0022275880823802011 -0.0023765931644589115 0 -0.0022118325195039112 -0.0023650680041234595 0 -0.0022275880823802011 -0.0023765931644589115 0 -0.0022118325195039112 -0.0023650680041234595 0 -0.0022194839628202245 -0.0023577766100993953 0 -0.0022118325195039112 -0.0023650680041234595 0 -0.0022088240189448295 -0.0023547050837442263 0 -0.0022194839628202245 -0.0023577766100993953 0 -0.0022111799944747618 -0.0023354243600740253 0 -0.0022232805600073216 -0.0023423116181261502 0 -0.0022245676460669831 -0.002324879348656396 0 -0.0022194839628202245 -0.0023577766100993953 0 -0.0022111799944747618 -0.0023354243600740253 0 -0.0022232805600073216 -0.0023423116181261502 0 -0.0022088240189448295 -0.0023547050837442263 0 -0.0022194839628202245 -0.0023577766100993953 0 -0.0022111799944747618 -0.0023354243600740253 0 -0.0022088240189448295 -0.0023547050837442263 0 -0.0022111799944747618 -0.0023354243600740253 0 -0.0021991607322085034 -0.0023399367426885226 0 -0.002194214283790429 -0.002394799230523219 0 -0.0022204919168927698 -0.0023827641690513531 0 -0.0021917173339378528 -0.0024585788730846765 0 -0.0022284000133161569 -0.0024025509060599708 0 -0.0022409130926316556 -0.0024607112264797798 0 -0.0022088240189448295 -0.0023547050837442263 0 -0.0021991607322085034 -0.0023399367426885226 0 -0.0022102651362513825 -0.0023649322551438376 0 -0.0022118325195039112 -0.0023650680041234595 0 -0.0022088240189448295 -0.0023547050837442263 0 -0.0022102651362513825 -0.0023649322551438376 0 -0.0022457720409122714 -0.0023634483295308993 0 -0.0022284000133161569 -0.0024025509060599708 0 -0.0022757781279810416 -0.0023960581200527481 0 -0.0022284000133161569 -0.0024025509060599708 0 -0.0022757781279810416 -0.0023960581200527481 0 -0.0022836232153663717 -0.0024319099355290309 0 -0.0022284000133161569 -0.0024025509060599708 0 -0.0022836232153663717 -0.0024319099355290309 0 -0.0022409130926316556 -0.0024607112264797798 0 -0.0022836232153663717 -0.0024319099355290309 0 -0.0022409130926316556 -0.0024607112264797798 0 -0.0022841622803659702 -0.0024683399269903785 0 -0.0022836232153663717 -0.0024319099355290309 0 -0.0023352384777438799 -0.0024482180403578016 0 -0.0022841622803659702 -0.0024683399269903785 0 -0.0022836232153663717 -0.0024319099355290309 0 -0.0023352384777438799 -0.0024482180403578016 0 -0.0023549413629419236 -0.0024080729387385251 0 -0.0023932710859943867 -0.002433043507977138 0 -0.0023549413629419236 -0.0024080729387385251 0 -0.0024505942131389288 -0.0023994684521387029 0 -0.0023352384777438799 -0.0024482180403578016 0 -0.0023932710859943867 -0.002433043507977138 0 -0.0023722516681487023 -0.0024663670552909581 0 -0.0023352384777438799 -0.0024482180403578016 0 -0.0023932710859943867 -0.002433043507977138 0 -0.0023549413629419236 -0.0024080729387385251 0 -0.0023549413629419236 -0.0024080729387385251 0 -0.0024156902722749459 -0.0023576382532573994 0 -0.0023013644883189367 -0.0023792524417656476 0 -0.0022757781279810416 -0.0023960581200527481 0 -0.0022836232153663717 -0.0024319099355290309 0 -0.0023549413629419236 -0.0024080729387385251 0 -0.0022757781279810416 -0.0023960581200527481 0 -0.0023549413629419236 -0.0024080729387385251 0 -0.0023013644883189367 -0.0023792524417656476 0 -0.0024505942131389288 -0.0023994684521387029 0 -0.0025291119706979241 -0.0023725608433953502 0 -0.0025050971970212244 -0.0024173029904556642 0 -0.0025693110496550447 -0.0023605776947947734 0 -0.0025291119706979241 -0.0023725608433953502 0 -0.0025050971970212244 -0.0024173029904556642 0 -0.0025579434271331661 -0.0023657556219342617 0 -0.0025693110496550447 -0.0023605776947947734 0 -0.0025291119706979241 -0.0023725608433953502 0 -0.0024505942131389288 -0.0023994684521387029 0 -0.0025050971970212244 -0.0024173029904556642 0 -0.0024356470427892023 -0.0024502630775626194 0 -0.0023932710859943867 -0.002433043507977138 0 -0.0024505942131389288 -0.0023994684521387029 0 -0.0024356470427892023 -0.0024502630775626194 0 -0.0024505942131389288 -0.0023994684521387029 0 -0.0025032839787534995 -0.0023660283808275605 0 -0.0024156902722749459 -0.0023576382532573994 0 -0.0023549413629419236 -0.0024080729387385251 0 -0.0024505942131389288 -0.0023994684521387029 0 -0.0024156902722749459 -0.0023576382532573994 0 -0.0024505942131389288 -0.0023994684521387029 0 -0.0025032839787534995 -0.0023660283808275605 0 -0.0025291119706979241 -0.0023725608433953502 0 -0.0025032839787534995 -0.0023660283808275605 0 -0.0025468022993489097 -0.0023583859462052051 0 -0.0025291119706979241 -0.0023725608433953502 0 -0.0025579434271331661 -0.0023657556219342617 0 -0.0025468022993489097 -0.0023583859462052051 0 -0.0025291119706979241 -0.0023725608433953502 0 -0.0025032839787534995 -0.0023660283808275605 0 -0.0025575524302838127 -0.0023432945491075195 0 -0.0024156902722749459 -0.0023576382532573994 0 -0.0025575524302838127 -0.0023432945491075195 0 -0.0024156902722749459 -0.0023576382532573994 0 -0.002580457414437964 -0.0023336646934945774 0 -0.0025032839787534995 -0.0023660283808275605 0 -0.0025468022993489097 -0.0023583859462052051 0 -0.0025575524302838127 -0.0023432945491075195 0 -0.0024156902722749459 -0.0023576382532573994 0 -0.0023003583691213838 -0.0023828784051793321 0 -0.0022469972911536994 -0.0024052821745944547 0 -0.0024156902722749459 -0.0023576382532573994 0 -0.002580457414437964 -0.0023336646934945774 0 -0.0026061050877936595 -0.0023443218485010263 0 -0.0024121090468754102 -0.0023821548286879395 0 -0.0024346218081626684 -0.0023727215409069368 0 -0.0025651094685498546 -0.0023395768752052445 0 -0.0025575524302838127 -0.0023432945491075195 0 -0.002580457414437964 -0.0023336646934945774 0 -0.0022457720409122714 -0.0023634483295308993 0 -0.0022757781279810416 -0.0023960581200527481 0 -0.0023013644883189367 -0.0023792524417656476 0 -0.0024156902722749459 -0.0023576382532573994 0 -0.0023013644883189367 -0.0023792524417656476 0 -0.0023003583691213838 -0.0023828784051793321 0 -0.0023003583691213838 -0.0023828784051793321 0 -0.0022587412897241014 -0.0024192907451787409 0 -0.0022469972911536994 -0.0024052821745944547 0 -0.0022702415028405701 -0.0024049955573007061 0 -0.0023013644883189367 -0.0023792524417656476 0 -0.0022672972733765316 -0.002406864633219799 0 -0.0023013644883189367 -0.0023792524417656476 0 -0.0023003583691213838 -0.0023828784051793321 0 -0.0022672972733765316 -0.002406864633219799 0 -0.0023003583691213838 -0.0023828784051793321 0 -0.0022672972733765316 -0.002406864633219799 0 -0.0022511572336131529 -0.0024259829165058006 0 -0.0022511572336131529 -0.0024259829165058006 0 -0.0022191323730979288 -0.0024714894143036408 0 -0.0022436026753978196 -0.0024358576465752495 0 -0.0022672972733765316 -0.002406864633219799 0 -0.0022511572336131529 -0.0024259829165058006 0 -0.0022436026753978196 -0.0024358576465752495 0 -0.0022511572336131529 -0.0024259829165058006 0 -0.002231914197420849 -0.0024488598069903442 0 -0.0022191323730979288 -0.0024714894143036408 0 -0.0022587412897241014 -0.0024192907451787409 0 -0.0022269860400758947 -0.0024449014652582813 0 -0.0022469972911536994 -0.0024052821745944547 0 -0.0023003583691213838 -0.0023828784051793321 0 -0.0022511572336131529 -0.0024259829165058006 0 -0.0022587412897241014 -0.0024192907451787409 0 -0.0022511572336131529 -0.0024259829165058006 0 -0.0022587412897241014 -0.0024192907451787409 0 -0.002231914197420849 -0.0024488598069903442 0 -0.0022587412897241014 -0.0024192907451787409 0 -0.002231914197420849 -0.0024488598069903442 0 -0.0022269860400758947 -0.0024449014652582813 0 -0.002231914197420849 -0.0024488598069903442 0 -0.0022269860400758947 -0.0024449014652582813 0 -0.0022062053565097932 -0.0024767230221840156 0 -0.0022269860400758947 -0.0024449014652582813 0 -0.0022029829450064052 -0.0024692576605082521 0 -0.0022062053565097932 -0.0024767230221840156 0 -0.002231914197420849 -0.0024488598069903442 0 -0.0022062053565097932 -0.0024767230221840156 0 -0.0022191323730979288 -0.0024714894143036408 0 -0.0026010382085351136 -0.0023686398211029192 0 -0.002580457414437964 -0.0023336646934945774 0 -0.0026412899312554207 -0.0023784709159541356 0 -0.002580457414437964 -0.0023336646934945774 0 -0.0026412899312554207 -0.0023784709159541356 0 -0.0026061050877936595 -0.0023443218485010263 0 -0.0026010382085351136 -0.0023686398211029192 0 -0.0026412899312554207 -0.0023784709159541356 0 -0.0026383972148236543 -0.0024137493747124683 0 -0.0026412899312554207 -0.0023784709159541356 0 -0.0026898257924830868 -0.0024346762816561478 0 -0.0026383972148236543 -0.0024137493747124683 0 -0.0022269860400758947 -0.0024449014652582813 0 -0.0022469972911536994 -0.0024052821745944547 0 -0.0021831567038844255 -0.0024698928092682635 0 -0.0024346218081626684 -0.0023727215409069368 0 -0.0024336747473217625 -0.0025466572425896523 0 -0.0026412899312554207 -0.0023784709159541356 0 -0.0026061050877936595 -0.0023443218485010263 0 -0.0027262193669850177 -0.0024333982873249544 0 -0.0026061050877936595 -0.0023443218485010263 0 -0.0027680257832601897 -0.0024613486590554677 0 -0.0027262193669850177 -0.0024333982873249544 0 -0.0022269860400758947 -0.0024449014652582813 0 -0.0022029829450064052 -0.0024692576605082521 0 -0.0021831567038844255 -0.0024698928092682635 0 -0.0022029829450064052 -0.0024692576605082521 0 -0.0021831567038844255 -0.0024698928092682635 0 -0.0021886596247053013 -0.0024839423471380998 0 -0.0024336747473217625 -0.0025466572425896523 0 -0.0025609033132036659 -0.0025181640471133256 0 -0.0026412899312554207 -0.0023784709159541356 0 -0.0027262193669850177 -0.0024333982873249544 0 -0.0026898257924830868 -0.0024346762816561478 0 -0.0027262193669850177 -0.0024333982873249544 0 -0.0026898257924830868 -0.0024346762816561478 0 -0.0027426779971983302 -0.0024845397381463106 0 -0.0028285381274811587 -0.002503766918090275 0 -0.0027426779971983302 -0.0024845397381463106 0 -0.0027688247761784826 -0.0025861621316940081 0 -0.0028285381274811587 -0.002503766918090275 0 -0.0027262193669850177 -0.0024333982873249544 0 -0.0027426779971983302 -0.0024845397381463106 0 -0.0027426779971983302 -0.0024845397381463106 0 -0.0026944840264689382 -0.0024942603588102787 0 -0.0027688247761784826 -0.0025861621316940081 0 -0.0026898257924830868 -0.0024346762816561478 0 -0.0027426779971983302 -0.0024845397381463106 0 -0.0026944840264689382 -0.0024942603588102787 0 -0.0026134211681105141 -0.0024679488139885439 0 -0.0026944840264689382 -0.0024942603588102787 0 -0.0026615888342705865 -0.0025503766294819059 0 -0.0026944840264689382 -0.0024942603588102787 0 -0.0026615888342705865 -0.0025503766294819059 0 -0.0027097333491446977 -0.0025791795958750138 0 -0.0026944840264689382 -0.0024942603588102787 0 -0.0027097333491446977 -0.0025791795958750138 0 -0.0027688247761784826 -0.0025861621316940081 0 -0.0026898257924830868 -0.0024346762816561478 0 -0.0026944840264689382 -0.0024942603588102787 0 -0.0026383972148236543 -0.0024137493747124683 0 -0.0026134211681105141 -0.0024679488139885439 0 -0.0026944840264689382 -0.0024942603588102787 0 -0.0026383972148236543 -0.0024137493747124683 0 -0.0028285381274811587 -0.002503766918090275 0 -0.0027688247761784826 -0.0025861621316940081 0 -0.0028298785272244651 -0.0027514684944431379 0 -0.0028285381274811587 -0.002503766918090275 0 -0.0028298785272244651 -0.0027514684944431379 0 -0.0029521956259089717 -0.0029026744553648219 0 -0.002721717003591034 -0.0027556437743650845 0 -0.0027705302565759989 -0.0027487317754265111 0 -0.0027247678200750451 -0.0026914486374554369 0 -0.002721717003591034 -0.0027556437743650845 0 -0.0027705302565759989 -0.0027487317754265111 0 -0.0027736152509630478 -0.002825476672715791 0 -0.0026786886414816346 -0.0027047168787701814 0 -0.002721717003591034 -0.0027556437743650845 0 -0.0027247678200750451 -0.0026914486374554369 0 -0.0026826784168038987 -0.0027543197798635477 0 -0.0026786886414816346 -0.0027047168787701814 0 -0.002721717003591034 -0.0027556437743650845 0 -0.0026826784168038987 -0.0027543197798635477 0 -0.00269240627443242 -0.0027987893054457588 0 -0.002721717003591034 -0.0027556437743650845 0 -0.0027705302565759989 -0.0027487317754265111 0 -0.0027605457996065109 -0.0026694847329176846 0 -0.0028298785272244651 -0.0027514684944431379 0 -0.0027705302565759989 -0.0027487317754265111 0 -0.0028298785272244651 -0.0027514684944431379 0 -0.0027736152509630478 -0.002825476672715791 0 -0.0027705302565759989 -0.0027487317754265111 0 -0.0027605457996065109 -0.0026694847329176846 0 -0.0027247678200750451 -0.0026914486374554369 0 -0.0026786886414816346 -0.0027047168787701814 0 -0.0027247678200750451 -0.0026914486374554369 0 -0.0026824478944875553 -0.0026239592936702955 0 -0.0027605457996065109 -0.0026694847329176846 0 -0.0027247678200750451 -0.0026914486374554369 0 -0.0026824478944875553 -0.0026239592936702955 0 -0.0026615888342705865 -0.0025503766294819059 0 -0.0026824478944875553 -0.0026239592936702955 0 -0.0027097333491446977 -0.0025791795958750138 0 -0.0027605457996065109 -0.0026694847329176846 0 -0.0027097333491446977 -0.0025791795958750138 0 -0.0027688247761784826 -0.0025861621316940081 0 -0.0027605457996065109 -0.0026694847329176846 0 -0.0026824478944875553 -0.0026239592936702955 0 -0.0027097333491446977 -0.0025791795958750138 0 -0.0027605457996065109 -0.0026694847329176846 0 -0.0027688247761784826 -0.0025861621316940081 0 -0.0028298785272244651 -0.0027514684944431379 0 -0.0021831567038844255 -0.0024698928092682635 0 -0.0021886596247053013 -0.0024839423471380998 0 -0.0021663571461910569 -0.0025033839408517512 0 -0.0024336747473217625 -0.0025466572425896523 0 -0.0025514050817343043 -0.0028184979976720731 0 -0.0021382549344769785 -0.002733921491648464 0 -0.0021213590214342309 -0.0027055042791926309 0 -0.0021398409977074436 -0.0027014305758867358 0 -0.0024336747473217625 -0.0025466572425896523 0 -0.0021156343991442631 -0.0026072032698321538 0 -0.0021256158633424001 -0.0026753139259598755 0 -0.0021213590214342309 -0.0027055042791926309 0 -0.0021398409977074436 -0.0027014305758867358 0 -0.0021125610067118067 -0.002598771805668905 0 -0.0021156343991442631 -0.0026072032698321538 0 -0.0028298785272244651 -0.0027514684944431379 0 -0.0029521956259089717 -0.0029026744553648219 0 -0.002809156099665101 -0.0029061805732272859 0 -0.0029521956259089717 -0.0029026744553648219 0 -0.0027917659350847413 -0.0030525296087169692 0 -0.002809156099665101 -0.0029061805732272859 0 -0.0027046313955312743 -0.0029122511560303612 0 -0.0027917659350847413 -0.0030525296087169692 0 -0.002809156099665101 -0.0029061805732272859 0 -0.0027283954294329538 -0.0028574392088496561 0 -0.002809156099665101 -0.0029061805732272859 0 -0.0027736152509630478 -0.002825476672715791 0 -0.0028298785272244651 -0.0027514684944431379 0 -0.002809156099665101 -0.0029061805732272859 0 -0.0027736152509630478 -0.002825476672715791 0 -0.0027046313955312743 -0.0029122511560303612 0 -0.0027283954294329538 -0.0028574392088496561 0 -0.002809156099665101 -0.0029061805732272859 0 -0.00269240627443242 -0.0027987893054457588 0 -0.002721717003591034 -0.0027556437743650845 0 -0.0027736152509630478 -0.002825476672715791 0 -0.00269240627443242 -0.0027987893054457588 0 -0.0027283954294329538 -0.0028574392088496561 0 -0.0027736152509630478 -0.002825476672715791 0 -0.0022062053565097932 -0.0024767230221840156 0 -0.0021924148754352683 -0.0025090699623177841 0 -0.0021754483955185627 -0.0025023107367703841 0 -0.0022062053565097932 -0.0024767230221840156 0 -0.0022191323730979288 -0.0024714894143036408 0 -0.0021924148754352683 -0.0025090699623177841 0 -0.0022062053565097932 -0.0024767230221840156 0 -0.0021886596247053013 -0.0024839423471380998 0 -0.0021754483955185627 -0.0025023107367703841 0 -0.0022029829450064052 -0.0024692576605082521 0 -0.0022062053565097932 -0.0024767230221840156 0 -0.0021886596247053013 -0.0024839423471380998 0 -0.0021886596247053013 -0.0024839423471380998 0 -0.0021663571461910569 -0.0025033839408517512 0 -0.0021754483955185627 -0.0025023107367703841 0 -0.0021221206495950591 -0.0025225427529776659 0 -0.0021754483955185627 -0.0025023107367703841 0 -0.0021609157225815725 -0.0025099716049584316 0 -0.0021221206495950591 -0.0025225427529776659 0 -0.0021663571461910569 -0.0025033839408517512 0 -0.0021754483955185627 -0.0025023107367703841 0 -0.0021924148754352683 -0.0025090699623177841 0 -0.0021754483955185627 -0.0025023107367703841 0 -0.0021609157225815725 -0.0025099716049584316 0 -0.0021924148754352683 -0.0025090699623177841 0 -0.0021609157225815725 -0.0025099716049584316 0 -0.0021644281031184642 -0.0025041297471851401 0 -0.0021924148754352683 -0.0025090699623177841 0 -0.0021644281031184642 -0.0025041297471851401 0 -0.0021997520485437677 -0.002543616427776685 0 -0.0021644281031184642 -0.0025041297471851401 0 -0.0021997520485437677 -0.002543616427776685 0 -0.0020741025824098248 -0.0025091755231404513 0 -0.0021997520485437677 -0.002543616427776685 0 -0.0020589922535769068 -0.0025956611490315735 0 -0.0020741025824098248 -0.0025091755231404513 0 -0.0021997520485437677 -0.002543616427776685 0 -0.0020206829467644388 -0.0027620799518303057 0 -0.0020589922535769068 -0.0025956611490315735 0 -0.0022191323730979288 -0.0024714894143036408 0 -0.0021924148754352683 -0.0025090699623177841 0 -0.0021997520485437677 -0.002543616427776685 0 -0.0022191323730979288 -0.0024714894143036408 0 -0.0021997520485437677 -0.002543616427776685 0 -0.0022405612452498069 -0.0024482801252850525 0 -0.0021997520485437677 -0.002543616427776685 0 -0.0022405612452498069 -0.0024482801252850525 0 -0.0022703672106961898 -0.0024590857068841603 0 -0.0021736572885978789 -0.0025548706557430097 0 -0.0021924656791066821 -0.0026196737102093591 0 -0.0022405612452498069 -0.0024482801252850525 0 -0.0022597282635620284 -0.0024346015387099905 0 -0.0022703672106961898 -0.0024590857068841603 0 -0.0022555978092779084 -0.0024190587678441476 0 -0.0022552533234540943 -0.0024259395470555131 0 -0.0022405612452498069 -0.0024482801252850525 0 -0.0022552533234540943 -0.0024259395470555131 0 -0.0022405612452498069 -0.0024482801252850525 0 -0.0022597282635620284 -0.0024346015387099905 0 -0.0022555978092779084 -0.0024190587678441476 0 -0.0022405612452498069 -0.0024482801252850525 0 -0.0022436026753978196 -0.0024358576465752495 0 -0.0022191323730979288 -0.0024714894143036408 0 -0.0022405612452498069 -0.0024482801252850525 0 -0.0022436026753978196 -0.0024358576465752495 0 -0.0022555978092779084 -0.0024190587678441476 0 -0.0022672972733765316 -0.002406864633219799 0 -0.0022436026753978196 -0.0024358576465752495 0 -0.0022496489733017226 -0.0024150381189745186 0 -0.0022595753206777567 -0.0024324428007979531 0 -0.0022564980182636575 -0.0024275764546272329 0 -0.0022595753206777567 -0.0024324428007979531 0 -0.0022703672106961898 -0.0024590857068841603 0 -0.0022564980182636575 -0.0024275764546272329 0 -0.0022601088618356166 -0.0024279786367012034 0 -0.0022496489733017226 -0.0024150381189745186 0 -0.0022595753206777567 -0.0024324428007979531 0 -0.0022601088618356166 -0.0024279786367012034 0 -0.0022595753206777567 -0.0024324428007979531 0 -0.0022597282635620284 -0.0024346015387099905 0 -0.0022595753206777567 -0.0024324428007979531 0 -0.0022597282635620284 -0.0024346015387099905 0 -0.0022703672106961898 -0.0024590857068841603 0 -0.0020206829467644388 -0.0027620799518303057 0 -0.001817682798880877 -0.002808603398298264 0 -0.001817772875567394 -0.0026901420893373491 0 -0.0021924656791066821 -0.0026196737102093591 0 -0.0017434847145025637 -0.0025366259395222523 0 -0.0020206829467644388 -0.0027620799518303057 0 -0.001817682798880877 -0.002808603398298264 0 -0.0017893937485359477 -0.0029206687876765182 0 -0.0019334097680744856 -0.002583431770770262 0 -0.001817772875567394 -0.0026901420893373491 0 -0.0017716070885845879 -0.0025578957776655228 0 -0.0020206829467644388 -0.0027620799518303057 0 -0.0019334097680744856 -0.002583431770770262 0 -0.001817772875567394 -0.0026901420893373491 0 -0.0020206829467644388 -0.0027620799518303057 0 -0.0019334097680744856 -0.002583431770770262 0 -0.0020589922535769068 -0.0025956611490315735 0 -0.0019334097680744856 -0.002583431770770262 0 -0.0020589922535769068 -0.0025956611490315735 0 -0.0020741025824098248 -0.0025091755231404513 0 -0.0018943085873543582 -0.0024179518339363382 0 -0.0019334097680744856 -0.002583431770770262 0 -0.0017716070885845879 -0.0025578957776655228 0 -0.0018943085873543582 -0.0024179518339363382 0 -0.0019334097680744856 -0.002583431770770262 0 -0.0020741025824098248 -0.0025091755231404513 0 -0.0018943085873543582 -0.0024179518339363382 0 -0.0017716070885845879 -0.0025578957776655228 0 -0.0016406063390386244 -0.0024712999083773288 0 -0.0017716070885845879 -0.0025578957776655228 0 -0.0015825538777990977 -0.0025908904663474292 0 -0.0016406063390386244 -0.0024712999083773288 0 -0.001817772875567394 -0.0026901420893373491 0 -0.0016511831296489483 -0.0026734944607181002 0 -0.0017064940597182894 -0.0027691149404878808 0 -0.0017716070885845879 -0.0025578957776655228 0 -0.0016511831296489483 -0.0026734944607181002 0 -0.0015825538777990977 -0.0025908904663474292 0 -0.001817772875567394 -0.0026901420893373491 0 -0.0017716070885845879 -0.0025578957776655228 0 -0.0016511831296489483 -0.0026734944607181002 0 -0.0014987265712536584 -0.0026800851204738011 0 -0.0015825538777990977 -0.0025908904663474292 0 -0.0013826140171687737 -0.0025797038380249411 0 -0.0014987265712536584 -0.0026800851204738011 0 -0.0016511831296489483 -0.0026734944607181002 0 -0.0015479971411558454 -0.0028025533165053581 0 -0.0014987265712536584 -0.0026800851204738011 0 -0.0016511831296489483 -0.0026734944607181002 0 -0.0015825538777990977 -0.0025908904663474292 0 -0.0015825538777990977 -0.0025908904663474292 0 -0.0016406063390386244 -0.0024712999083773288 0 -0.0013826140171687737 -0.0025797038380249411 0 0.000702160926947144 -0.0042595133970534374 0 0.0012339223280935893 -0.004166772821221406 0 0.0015286406974040915 -0.0046957024734980146 0 -0.00062006568405666889 -0.0033536796445728157 0 0.00087186264816043249 -0.0035024114226958405 0 0.0017550142431853179 -0.0042995930809767114 0 0.00087186264816043249 -0.0035024114226958405 0 0.0016172055305657446 -0.0038183774169115426 0 0.0012339223280935893 -0.004166772821221406 0 0.0015286406974040915 -0.0046957024734980146 0 0.0016172055305657446 -0.0038183774169115426 0 0.001686674935577606 -0.004514455164566708 0 0.0018647358759207578 -0.0042502822136727845 0 0.0017926818088793769 -0.0045139465979684972 0 0.001686674935577606 -0.004514455164566708 0 0.0018647358759207578 -0.0042502822136727845 0 0.0017926818088793769 -0.0045139465979684972 0 0.0019081846770243444 -0.0044346045227147499 0 0.0018245301855859986 -0.0045804984161083567 0 0.0019475952259549658 -0.0039321744402827921 0 0.0021572893755478031 -0.0041383051754330467 0 0.0018647358759207578 -0.0042502822136727845 0 0.0021572893755478031 -0.0041383051754330467 0 0.0018647358759207578 -0.0042502822136727845 0 0.0021255508969505585 -0.0044350192074850553 0 0.0017926818088793769 -0.0045139465979684972 0 0.0018647358759207578 -0.0042502822136727845 0 0.0019081846770243444 -0.0044346045227147499 0 0.0019081846770243444 -0.0044346045227147499 0 0.0021255508969505585 -0.0044350192074850553 0 0.0018245301855859986 -0.0045804984161083567 0 0.0018647358759207578 -0.0042502822136727845 0 0.0019081846770243444 -0.0044346045227147499 0 0.0021255508969505585 -0.0044350192074850553 0 0.0021572893755478031 -0.0041383051754330467 0 0.0021255508969505585 -0.0044350192074850553 0 0.0024160137347365527 -0.0043679434381879104 0 0.0017729422015255077 -0.0032027447650385572 0 0.0018257532006204957 -0.00305831815458693 0 0.0016970264272918906 -0.0029648104119297598 0 0.0021193325097124478 -0.0037037490067925124 0 0.0022940655738777375 -0.0029825533508576973 0 0.0021193325097124478 -0.0037037490067925124 0 0.0027322279438462081 -0.0041130036798802906 0 0.0029063997864671809 -0.0033384750245129026 0 0.0028597824390968504 -0.0031820886611273287 0 0.002775419749527218 -0.0032624114478848202 0 0.0021255508969505585 -0.0044350192074850553 0 0.0018245301855859986 -0.0045804984161083567 0 0.0025593202616766599 -0.0048658171589276425 0 0.00087186264816043249 -0.0035024114226958405 0 0.00031029961742313128 -0.0028243611598742046 0 -0.0014987265712536584 -0.0026800851204738011 0 -0.0013826140171687737 -0.0025797038380249411 0 -0.0013987718128354776 -0.0027508995842874988 0 0.0018131378519068778 -0.0032253387758450309 0 0.0017729422015255077 -0.0032027447650385572 0 0.0018257532006204957 -0.00305831815458693 0 0.0017926818088793769 -0.0045139465979684972 0 0.001686674935577606 -0.004514455164566708 0 0.0018188212178939587 -0.0045749017436811394 0 0.00087186264816043249 -0.0035024114226958405 0 0.0021193325097124478 -0.0037037490067925124 0 0.0021377225855255476 -0.0038494069743685885 0 0.0021193325097124478 -0.0037037490067925124 0 -0.0014987265712536584 -0.0026800851204738011 0 -0.0013987718128354776 -0.0027508995842874988 0 -0.0013995890930765256 -0.0027652422719064516 0 0.0018266844189452492 -0.003044035087123159 0 0.0018388344870496026 -0.0028781948581658558 0 0.0017710137102578242 -0.0029284327470959926 0 0.0018257532006204957 -0.00305831815458693 0 0.0018266844189452492 -0.003044035087123159 0 0.0016970264272918906 -0.0029648104119297598 0 0.00033992621800487771 -0.0029171442053806209 0 -0.00048377738639145021 -0.002988481586206316 0 0.00033992621800487771 -0.0029171442053806209 0 0.0011944537858055097 -0.002858819641493795 0 -0.0013995890930765256 -0.0027652422719064516 0 -0.0014304212600052568 -0.0029287385094947513 0 -0.0015479971411558454 -0.0028025533165053581 0 -0.0014987265712536584 -0.0026800851204738011 0 -0.0013995890930765256 -0.0027652422719064516 0 -0.0015479971411558454 -0.0028025533165053581 0 0.00031029961742313128 -0.0028243611598742046 0 0.00033992621800487771 -0.0029171442053806209 0 0.0018266844189452492 -0.003044035087123159 0 0.0016970264272918906 -0.0029648104119297598 0 0.0017710137102578242 -0.0029284327470959926 0 0.0016970264272918906 -0.0029648104119297598 0 0.0017237325146247247 -0.0028305264762833828 0 0.0016406784504395524 -0.0027643055238640354 0 0.0022940655738777375 -0.0029825533508576973 0 0.0022330401292380447 -0.0029357093712342416 0 0.0016970264272918906 -0.0029648104119297598 0 0.0017237325146247247 -0.0028305264762833828 0 0.0017710137102578242 -0.0029284327470959926 0 0.00055677965798156038 -0.0027720689138705265 0 0.00051095915476849572 -0.0027454346886149395 0 0.00062893850280431902 -0.0024370358294701503 0 -0.00048377738639145021 -0.002988481586206316 0 0.00023621722841361058 -0.0022031404129466926 0 -0.0014304212600052568 -0.0029287385094947513 0 -0.0015435759619512794 -0.0029294789789038531 0 -0.001453797070446233 -0.003093371729558576 0 0.0017237325146247247 -0.0028305264762833828 0 0.0018388344870496026 -0.0028781948581658558 0 0.0018543620064168796 -0.0027052474972051976 0 0.00048966547124631673 -0.0030892249462281681 0 0.00055677965798156038 -0.0027720689138705265 0 0.00051095915476849572 -0.0027454346886149395 0 0.0017237325146247247 -0.0028305264762833828 0 0.0018388344870496026 -0.0028781948581658558 0 0.0017710137102578242 -0.0029284327470959926 0 -0.0015903855688128039 -0.0029953187027931495 0 -0.0011724376602175476 -0.0025208582031490067 0 -0.0015435759619512794 -0.0029294789789038531 0 -0.0016515322631265354 -0.002877334336984263 0 -0.0015875172381832245 -0.0030267104676722847 0 -0.0015435759619512794 -0.0029294789789038531 0 -0.0015875172381832245 -0.0030267104676722847 0 -0.001453797070446233 -0.003093371729558576 0 -0.0014304212600052568 -0.0029287385094947513 0 -0.0015435759619512794 -0.0029294789789038531 0 -0.0015479971411558454 -0.0028025533165053581 0 -0.0017434847145025637 -0.0025366259395222523 0 -0.0011724376602175476 -0.0025208582031490067 0 -0.0017821215834480282 -0.0029335182822814282 0 -0.0016515322631265354 -0.002877334336984263 0 -0.0015966891427550266 -0.0030320746737526193 0 -0.0017573643515319216 -0.002890290226166221 0 -0.0017434847145025637 -0.0025366259395222523 0 -0.001817682798880877 -0.002808603398298264 0 -0.0017821215834480282 -0.0029335182822814282 0 -0.0016515322631265354 -0.002877334336984263 0 -0.001817682798880877 -0.002808603398298264 0 -0.0016515322631265354 -0.002877334336984263 0 -0.0017064940597182894 -0.0027691149404878808 0 -0.001817682798880877 -0.002808603398298264 0 -0.001817772875567394 -0.0026901420893373491 0 -0.0017064940597182894 -0.0027691149404878808 0 -0.0016511831296489483 -0.0026734944607181002 0 -0.0017064940597182894 -0.0027691149404878808 0 -0.0015479971411558454 -0.0028025533165053581 0 -0.0016515322631265354 -0.002877334336984263 0 -0.0017064940597182894 -0.0027691149404878808 0 -0.0015479971411558454 -0.0028025533165053581 0 -0.0015435759619512794 -0.0029294789789038531 0 -0.0016515322631265354 -0.002877334336984263 0 -0.0015479971411558454 -0.0028025533165053581 0 0.0035622322507992844 -0.0044596373648822006 0 0.0034182501850194332 -0.0045382752307189392 0 0.0034863654060772161 -0.0043746925687393919 0 0.0034182501850194332 -0.0045382752307189392 0 0.0033573093151375525 -0.0044486768883699544 0 0.0034863654060772161 -0.0043746925687393919 0 0.0034182501850194332 -0.0045382752307189392 0 0.0033573093151375525 -0.0044486768883699544 0 0.0032994462266033135 -0.0045279502172730964 0 0.0034509522273925021 -0.0042668420012414408 0 0.0034863654060772161 -0.0043746925687393919 0 0.0033477572040136339 -0.0043187488282404275 0 0.0033124417217496919 -0.0041898021334373205 0 0.0034509522273925021 -0.0042668420012414408 0 0.0033477572040136339 -0.0043187488282404275 0 0.0033573093151375525 -0.0044486768883699544 0 0.0034863654060772161 -0.0043746925687393919 0 0.0033477572040136339 -0.0043187488282404275 0 0.0032672868833280295 -0.0044165958678251769 0 0.0031186127074292404 -0.004557357155569472 0 0.0031679371537841308 -0.0042105011621092316 0 0.0033477572040136339 -0.0043187488282404275 0 0.0032672868833280295 -0.0044165958678251769 0 0.0031679371537841308 -0.0042105011621092316 0 0.0033573093151375525 -0.0044486768883699544 0 0.0033477572040136339 -0.0043187488282404275 0 0.0032672868833280295 -0.0044165958678251769 0 0.0033124417217496919 -0.0041898021334373205 0 0.0033477572040136339 -0.0043187488282404275 0 0.0031679371537841308 -0.0042105011621092316 0 0.0032994462266033135 -0.0045279502172730964 0 0.0031186127074292404 -0.004557357155569472 0 0.0033176413010205623 -0.0046391778284145448 0 0.0032672868833280295 -0.0044165958678251769 0 0.0032994462266033135 -0.0045279502172730964 0 0.0031186127074292404 -0.004557357155569472 0 0.0033573093151375525 -0.0044486768883699544 0 0.0032672868833280295 -0.0044165958678251769 0 0.0032994462266033135 -0.0045279502172730964 0 0.0030193550219834598 -0.0045959025794167756 0 0.002752786378788371 -0.0043551308139125021 0 0.0029968458944422379 -0.0047152145675456282 0 0.0027180808262798673 -0.0043329273190301299 0 0.0025593202616766599 -0.0048658171589276425 0 0.0031186127074292404 -0.004557357155569472 0 0.0031679371537841308 -0.0042105011621092316 0 0.0027180808262798673 -0.0043329273190301299 0 0.0028583358869689146 -0.0039452132819425235 0 0.0031679371537841308 -0.0042105011621092316 0 0.0027180808262798673 -0.0043329273190301299 0 0.0025110854139030214 -0.0040140797324472984 0 0.0028583358869689146 -0.0039452132819425235 0 0.0027180808262798673 -0.0043329273190301299 0 0.0025110854139030214 -0.0040140797324472984 0 0.0027180808262798673 -0.0043329273190301299 0 0.0024160137347365527 -0.0043679434381879104 0 0.0025110854139030214 -0.0040140797324472984 0 0.0021572893755478031 -0.0041383051754330467 0 0.0024160137347365527 -0.0043679434381879104 0 0.0021255508969505585 -0.0044350192074850553 0 0.0024160137347365527 -0.0043679434381879104 0 0.0025593202616766599 -0.0048658171589276425 0 0.0027180808262798673 -0.0043329273190301299 0 0.0024160137347365527 -0.0043679434381879104 0 0.0025593202616766599 -0.0048658171589276425 0 0.0028597824390968504 -0.0031820886611273287 0 0.002775419749527218 -0.0032624114478848202 0 0.0027510780026622993 -0.0031406442799362315 0 0.0028597824390968504 -0.0031820886611273287 0 0.0027510780026622993 -0.0031406442799362315 0 0.0028079272285463528 -0.0030123452970325917 0 0.0027510780026622993 -0.0031406442799362315 0 0.0026803525815201719 -0.0030545399746248411 0 0.0028079272285463528 -0.0030123452970325917 0 0.0027510780026622993 -0.0031406442799362315 0 0.0026298768646468981 -0.0031856718139448388 0 0.0026803525815201719 -0.0030545399746248411 0 0.0029968458944422379 -0.0047152145675456282 0 0.0025593202616766599 -0.0048658171589276425 0 0.0030699187610742492 -0.0050401503049091285 0 0.0027322279438462081 -0.0041130036798802906 0 0.002780881235762919 -0.0040887423164515137 0 0.002775419749527218 -0.0032624114478848202 0 0.0027510780026622993 -0.0031406442799362315 0 0.0026298768646468981 -0.0031856718139448388 0 0.0030193550219834598 -0.0045959025794167756 0 0.0033485036244573435 -0.0049377963753470151 0 0.0030699187610742492 -0.0050401503049091285 0 0.0032134770582142968 -0.0049898026954312393 0 0.0034035958736848898 -0.0051604668714539791 0 0.0029968458944422379 -0.0047152145675456282 0 0.0030699187610742492 -0.0050401503049091285 0 0.0032134770582142968 -0.0049898026954312393 0 0.0034182501850194332 -0.0045382752307189392 0 0.0032994462266033135 -0.0045279502172730964 0 0.0033176413010205623 -0.0046391778284145448 0 0.0026298768646468981 -0.0031856718139448388 0 0.0025838158316419898 -0.0030683292436236506 0 0.002474671050078051 -0.003104242912398838 0 0.0026298768646468981 -0.0031856718139448388 0 0.0025838158316419898 -0.0030683292436236506 0 0.0026803525815201719 -0.0030545399746248411 0 0.002780881235762919 -0.0040887423164515137 0 0.0031792869135090079 -0.0041639474056515188 0 0.0025838158316419898 -0.0030683292436236506 0 0.002474671050078051 -0.003104242912398838 0 0.0025289207082314514 -0.0030073448368090738 0 0.0033485036244573435 -0.0049377963753470151 0 0.0031792869135090079 -0.0041639474056515188 0 0.003494953620688229 -0.004627795054030691 0 0.0034497840489475522 -0.0047372140238133333 0 0.0034203665842841209 -0.0046382207426983613 0 0.0035622322507992844 -0.0044596373648822006 0 0.003494953620688229 -0.004627795054030691 0 0.0034182501850194332 -0.0045382752307189392 0 0.0033176413010205623 -0.0046391778284145448 0 0.0034497840489475522 -0.0047372140238133333 0 0.0034203665842841209 -0.0046382207426983613 0 0.0034182501850194332 -0.0045382752307189392 0 0.0033176413010205623 -0.0046391778284145448 0 0.0034203665842841209 -0.0046382207426983613 0 0.003494953620688229 -0.004627795054030691 0 0.0034182501850194332 -0.0045382752307189392 0 0.0034203665842841209 -0.0046382207426983613 0 0.0024099153420979276 -0.0028161574549592098 0 0.0024659655614211883 -0.0029199081601059083 0 0.0025518472273075004 -0.0028804299538987168 0 0.0024659655614211883 -0.0029199081601059083 0 0.0025289207082314514 -0.0030073448368090738 0 0.0025518472273075004 -0.0028804299538987168 0 0.002366700321638705 -0.002980252840229505 0 0.0024659655614211883 -0.0029199081601059083 0 0.0025289207082314514 -0.0030073448368090738 0 0.002366700321638705 -0.002980252840229505 0 0.002474671050078051 -0.003104242912398838 0 0.0025289207082314514 -0.0030073448368090738 0 0.0025838158316419898 -0.0030683292436236506 0 0.0026064455051480365 -0.0029640191639737764 0 0.0026803525815201719 -0.0030545399746248411 0 0.0025289207082314514 -0.0030073448368090738 0 0.0026064455051480365 -0.0029640191639737764 0 0.0025518472273075004 -0.0028804299538987168 0 0.0025838158316419898 -0.0030683292436236506 0 0.0025289207082314514 -0.0030073448368090738 0 0.0026064455051480365 -0.0029640191639737764 0 0.0026064455051480365 -0.0029640191639737764 0 0.0025518472273075004 -0.0028804299538987168 0 0.0026324990714989122 -0.0028647436482766835 0 0.0026324990714989122 -0.0028647436482766835 0 0.0026977163324513405 -0.0028516160202703626 0 0.0026945457215732092 -0.0029260031849946762 0 0.0026977163324513405 -0.0028516160202703626 0 0.0026945457215732092 -0.0029260031849946762 0 0.0027471515686604687 -0.0028330383392441679 0 0.0026064455051480365 -0.0029640191639737764 0 0.0026324990714989122 -0.0028647436482766835 0 0.0026945457215732092 -0.0029260031849946762 0 0.0026064455051480365 -0.0029640191639737764 0 0.0026945457215732092 -0.0029260031849946762 0 0.0026803525815201719 -0.0030545399746248411 0 0.0026945457215732092 -0.0029260031849946762 0 0.0026803525815201719 -0.0030545399746248411 0 0.0028079272285463528 -0.0030123452970325917 0 0.0016406784504395524 -0.0027643055238640354 0 0.0016680647111677015 -0.0026409917954263516 0 0.0015882950384892821 -0.0025909178593401506 0 0.0022330401292380447 -0.0029357093712342416 0 0.0021367124867949297 -0.0025756688815989294 0 0.0026945457215732092 -0.0029260031849946762 0 0.0028079272285463528 -0.0030123452970325917 0 0.0027471515686604687 -0.0028330383392441679 0 0.0019047609734586318 -0.0020830757091647076 0 0.0021367124867949297 -0.0025756688815989294 0 0.0021294865976459309 -0.0019611445544222834 0 0.0021660573349484161 -0.0017701238131919807 0 0.0020691469967489174 -0.0018002430921222952 0 0.0019047609734586318 -0.0020830757091647076 0 0.0022124734127454506 -0.0012684061778768911 0 0.002256800436698422 -0.0020355100283826854 0 0.0021294865976459309 -0.0019611445544222834 0 0.0021660573349484161 -0.0017701238131919807 0 0.002053430795643935 -0.0012543711305576929 0 0.0020214513359358625 -0.0011431769952706253 0 0.002079130101174408 -0.0011715228962269693 0 0.0022124734127454506 -0.0012684061778768911 0 0.0020905767527077497 -0.0011148465847599688 0 0.0021908528162850119 -0.0010736841414702651 0 0.0021099270032426975 -0.0011174062650851396 0 0.0021647037113032208 -0.0011210509931768478 0 0.0022124734127454506 -0.0012684061778768911 0 0.0024584337487471878 -0.0017653019624993063 0 0.002377262916547091 -0.0012667100831285107 0 0.0023661247798333705 -0.0012712568787984439 0 0.0023595565047965024 -0.0012496227683323406 0 0.0024584337487471878 -0.0017653019624993063 0 0.0023418566137471796 -0.0011843443470346507 0 0.0024001057902756202 -0.0013136306780660884 0 0.0023653260480108983 -0.0012952441503883024 0 0.0023855544056333383 -0.0012752598806715118 0 0.0027041789963458186 -0.0027189832699084909 0 0.0026721399264285173 -0.0028034878797509283 0 0.0025554599758046926 -0.0027706707549142854 0 0.0021367124867949297 -0.0025756688815989294 0 0.0024584337487471878 -0.0017653019624993063 0 0.0027471515686604687 -0.0028330383392441679 0 0.0027041789963458186 -0.0027189832699084909 0 0.0026721399264285173 -0.0028034878797509283 0 0.0026977163324513405 -0.0028516160202703626 0 0.0027471515686604687 -0.0028330383392441679 0 0.0026721399264285173 -0.0028034878797509283 0 0.0026324990714989122 -0.0028647436482766835 0 0.0026977163324513405 -0.0028516160202703626 0 0.0026721399264285173 -0.0028034878797509283 0 0.0025518472273075004 -0.0028804299538987168 0 0.0026324990714989122 -0.0028647436482766835 0 0.0025554599758046926 -0.0027706707549142854 0 0.0026324990714989122 -0.0028647436482766835 0 0.0026721399264285173 -0.0028034878797509283 0 0.0025554599758046926 -0.0027706707549142854 0 0.0024584337487471878 -0.0017653019624993063 0 0.0024798329651919597 -0.002069197298135646 0 0.0023540731867025089 -0.0013242247099681972 0 0.0023653260480108983 -0.0012952441503883024 0 0.0023383075857696875 -0.0012985483516853523 0 0.0024001057902756202 -0.0013136306780660884 0 0.0023540731867025089 -0.0013242247099681972 0 0.0023653260480108983 -0.0012952441503883024 0 0.0023653260480108983 -0.0012952441503883024 0 0.0023383075857696875 -0.0012985483516853523 0 0.0023574250772434246 -0.0012663957525906838 0 0.0023093730096079099 -0.0013062528336726601 0 0.0023383075857696875 -0.0012985483516853523 0 0.0023380150778782717 -0.0012598811676794333 0 0.0025283157007237674 -0.00097988256382836167 0 0.0024408934326307897 -0.0011452727453233091 0 0.0024099153420979276 -0.0028161574549592098 0 0.0025518472273075004 -0.0028804299538987168 0 0.0025554599758046926 -0.0027706707549142854 0 0.0023184356419702662 -0.001335069359719879 0 0.0023540731867025089 -0.0013242247099681972 0 0.0023383075857696875 -0.0012985483516853523 0 0.0022952866666225247 -0.0020739625686213986 0 0.0024798329651919597 -0.002069197298135646 0 -0.0012660323811511519 -0.0021058930330760022 0 -0.0011806131994046652 -0.0021234806540604738 0 -0.0012127658304326397 -0.0019686726606379518 0 -0.000312795622350901 -0.0019285386698121726 0 -0.00031019243287217245 -0.0017556776127604721 0 -0.00037890561223911896 -0.0020843611759809059 0 0.00041825535016502157 -0.0013902822718660697 0 0.00023621722841361058 -0.0022031404129466926 0 -0.000312795622350901 -0.0019285386698121726 0 -0.0002814947439967606 -0.0018494221616157003 0 -0.00031019243287217245 -0.0017556776127604721 0 -0.00032290989129382289 -0.0018482330642004257 0 -0.00030743337922998511 -0.001774402823051366 0 -0.00030743337922998511 -0.001774402823051366 0 0.00041825535016502157 -0.0013902822718660697 0 0.0021661262665878013 -0.0012404011437761684 0 0.0021617955168155381 -0.0012285908002189086 0 0.0021624006009477417 -0.0012219326113533636 0 0.00041825535016502157 -0.0013902822718660697 0 0.0012196430279086258 -0.0012568825328339635 0 -0.0011509475393867658 -0.0022763232331381158 0 -0.0011806131994046652 -0.0021234806540604738 0 -0.001234092448223632 -0.0022229446380867945 0 -0.0022275880823802011 -0.0023765931644589115 0 -0.0022496489733017226 -0.0024150381189745186 0 -0.0022450861106322658 -0.002374321924167326 0 -0.0017434847145025637 -0.0025366259395222523 0 -0.0018198626421946098 -0.0022511490683574989 0 -0.0022496489733017226 -0.0024150381189745186 0 -0.0022564980182636575 -0.0024275764546272329 0 -0.0022450861106322658 -0.002374321924167326 0 -0.00030743337922998511 -0.001774402823051366 0 -0.0011724376602175476 -0.0025208582031490067 0 -0.000312795622350901 -0.0019285386698121726 0 -0.0002829628553214578 -0.0018506374475872815 0 -0.00017938019141649201 -0.002203010428190765 0 -0.0012660323811511519 -0.0021058930330760022 0 -0.0011806131994046652 -0.0021234806540604738 0 -0.001234092448223632 -0.0022229446380867945 0 -0.000312795622350901 -0.0019285386698121726 0 -0.00017938019141649201 -0.002203010428190765 0 -0.00037890561223911896 -0.0020843611759809059 0 -0.0011724376602175476 -0.0025208582031490067 0 0.00023621722841361058 -0.0022031404129466926 0 0.0011944537858055097 -0.002858819641493795 0 0.0014147136882822178 -0.002408470258062971 0 0.00051095915476849572 -0.0027454346886149395 0 0.00062893850280431902 -0.0024370358294701503 0 0.00053509646715788289 -0.0023822708866184138 0 0.0021418713998396888 -0.001325243673581787 0 0.0021269224175305148 -0.0013115474789705251 0 0.002143295353902167 -0.0012590698064434487 0 0.00023621722841361058 -0.0022031404129466926 0 0.0014147136882822178 -0.002408470258062971 0 0.0016725951770808008 -0.003024291121410172 0 0.0019047609734586318 -0.0020830757091647076 0 0.0017237325146247247 -0.0028305264762833828 0 0.0016406784504395524 -0.0027643055238640354 0 0.0016680647111677015 -0.0026409917954263516 0 0.0017237325146247247 -0.0028305264762833828 0 0.0016283126531054122 -0.0025671966163579858 0 0.0018543620064168796 -0.0027052474972051976 0 0.0019047609734586318 -0.0020830757091647076 0 0.0014147136882822178 -0.002408470258062971 0 0.002053430795643935 -0.0012543711305576929 0 0.0021269224175305148 -0.0013115474789705251 0 0.0020997715360857989 -0.0012356773404968808 0 0.002053430795643935 -0.0012543711305576929 0 0.0020997715360857989 -0.0012356773404968808 0 0.0021037282265423318 -0.0011914441156106092 0 0.0021661262665878013 -0.0012404011437761684 0 0.0021418713998396888 -0.001325243673581787 0 0.002143295353902167 -0.0012590698064434487 0 0.0021269224175305148 -0.0013115474789705251 0 0.0020997715360857989 -0.0012356773404968808 0 0.0021258232027766555 -0.0012585113089071691 0 0.0021269224175305148 -0.0013115474789705251 0 0.0021258232027766555 -0.0012585113089071691 0 0.002143295353902167 -0.0012590698064434487 0 0.0020997715360857989 -0.0012356773404968808 0 0.0021258232027766555 -0.0012585113089071691 0 0.002132258396758473 -0.0012225356994005881 0 0.0021617955168155381 -0.0012285908002189086 0 0.002143295353902167 -0.0012590698064434487 0 0.002132258396758473 -0.0012225356994005881 0 0.0021258232027766555 -0.0012585113089071691 0 0.002143295353902167 -0.0012590698064434487 0 0.002132258396758473 -0.0012225356994005881 0 0.0021661262665878013 -0.0012404011437761684 0 0.0021617955168155381 -0.0012285908002189086 0 0.002143295353902167 -0.0012590698064434487 0 0.002132258396758473 -0.0012225356994005881 0 0.0021288879083415516 -0.0011826884768967574 0 0.0021631843881400616 -0.0012214388671338283 0 0.002113421811317144 -0.00109403236035719 0 0.0012196430279086258 -0.0012568825328339635 0 0.0021617955168155381 -0.0012285908002189086 0 0.002132258396758473 -0.0012225356994005881 0 0.0021631843881400616 -0.0012214388671338283 0 0.0021288879083415516 -0.0011826884768967574 0 0.0021346623809590324 -0.0011357766827576948 0 0.0021631843881400616 -0.0012214388671338283 0 0.0020997715360857989 -0.0012356773404968808 0 0.002132258396758473 -0.0012225356994005881 0 0.0021037282265423318 -0.0011914441156106092 0 0.002132258396758473 -0.0012225356994005881 0 0.0021288879083415516 -0.0011826884768967574 0 0.0021037282265423318 -0.0011914441156106092 0 0.0021288879083415516 -0.0011826884768967574 0 0.0021037282265423318 -0.0011914441156106092 0 0.0021154433711780204 -0.0011473475789389332 0 0.002053430795643935 -0.0012543711305576929 0 0.0021037282265423318 -0.0011914441156106092 0 0.002079130101174408 -0.0011715228962269693 0 0.0021037282265423318 -0.0011914441156106092 0 0.002079130101174408 -0.0011715228962269693 0 0.0021154433711780204 -0.0011473475789389332 0 0.0020214513359358625 -0.0011431769952706253 0 0.002079130101174408 -0.0011715228962269693 0 0.0021099270032426975 -0.0011174062650851396 0 0.002079130101174408 -0.0011715228962269693 0 0.0021154433711780204 -0.0011473475789389332 0 0.0021099270032426975 -0.0011174062650851396 0 0.0021154433711780204 -0.0011473475789389332 0 0.0021138504816612868 -0.0011273624233692926 0 0.0021099270032426975 -0.0011174062650851396 0 0.0021138504816612868 -0.0011273624233692926 0 0.0021099270032426975 -0.0011174062650851396 0 0.002129060770549428 -0.0011344570914338919 0 0.0019634354385228447 -0.0010417333010711296 0 0.0019316868223553051 -0.001066416956698257 0 0.001927357977622319 -0.00097664403314969071 0 0.0019634354385228447 -0.0010417333010711296 0 0.0019316868223553051 -0.001066416956698257 0 0.0019608826025896537 -0.0011140256632036054 0 0.0021288879083415516 -0.0011826884768967574 0 0.0021154433711780204 -0.0011473475789389332 0 0.0021346623809590324 -0.0011357766827576948 0 0.0021154433711780204 -0.0011473475789389332 0 0.0021138504816612868 -0.0011273624233692926 0 0.0021346623809590324 -0.0011357766827576948 0 -0.00094834747609634615 -0.0019007307114025796 0 6.6836612207002414e-05 -0.0016738421669098076 0 -0.0022194839628202245 -0.0023577766100993953 0 -0.0022450861106322658 -0.002374321924167326 0 -0.0022232805600073216 -0.0023423116181261502 0 -0.00017001837181190963 -0.0015877103213749696 0 -0.00012823374646571238 -0.0016410167094879397 0 -0.0001281258351400081 -0.0017806178014145371 0 -0.0022450861106322658 -0.002374321924167326 0 -0.0022345563549748468 -0.002343204170065295 0 -0.0022232805600073216 -0.0023423116181261502 0 -9.1667063277537075e-05 -0.0016715739859861796 0 -0.00012823374646571238 -0.0016410167094879397 0 -3.079915604156567e-05 -0.0014185702062794949 0 -0.00011335548446803047 -0.0014365167693420999 0 -0.00010177606139445245 -0.0014696981242734856 0 -0.00017001837181190963 -0.0015877103213749696 0 0.00087868982297308279 -0.0013862353952682829 0 0.0012196430279086258 -0.0012568825328339635 0 -0.00010177606139445245 -0.0014696981242734856 0 -0.00017001837181190963 -0.0015877103213749696 0 -0.00012823374646571238 -0.0016410167094879397 0 -3.8959728776514699e-05 -0.0013793554806916233 0 -0.00012823374646571238 -0.0016410167094879397 0 -3.079915604156567e-05 -0.0014185702062794949 0 0.00041825535016502157 -0.0013902822718660697 0 -0.00026043867201759157 -0.0016644498779956377 0 -0.00030743337922998511 -0.001774402823051366 0 -0.00094834747609634615 -0.0019007307114025796 0 0.0012428717299433434 -0.0012489496305784289 0 0.0012196430279086258 -0.0012568825328339635 0 -0.0018198626421946098 -0.0022511490683574989 0 -0.00094834747609634615 -0.0019007307114025796 0 -0.0022345563549748468 -0.002343204170065295 0 -0.0022232805600073216 -0.0023423116181261502 0 -0.0022245676460669831 -0.002324879348656396 0 -0.00094834747609634615 -0.0019007307114025796 0 -0.0012499252113998603 -0.0020284777847887716 0 -0.0022245676460669831 -0.002324879348656396 0 -0.0022125664677128832 -0.002301514540370129 0 -0.0022108855341720504 -0.0023191807421329503 0 -0.00024439106125144727 -0.0017294420620816394 0 -0.00020682916826891476 -0.0018399616580259822 0 -0.00030231147251949167 -0.0018725257714898764 0 -0.0012499252113998603 -0.0020284777847887716 0 -0.001322173621512555 -0.0021943008007325941 0 -0.00020682916826891476 -0.0018399616580259822 0 -0.00030231147251949167 -0.0018725257714898764 0 -0.00023781246381759507 -0.0019490660698760402 0 0.0019199053149097417 -0.0011899897892129105 0 0.0019608826025896537 -0.0011140256632036054 0 0.0019627512561960713 -0.001163728481624359 0 0.00094690640490328762 -0.0013893999856557809 0 5.1239145194741045e-05 -0.001531930067023779 0 -0.00020682916826891476 -0.0018399616580259822 0 -0.0001215485851624907 -0.0018683048262726179 0 -0.00023781246381759507 -0.0019490660698760402 0 -0.00020682916826891476 -0.0018399616580259822 0 -0.0001215485851624907 -0.0018683048262726179 0 -0.0001281258351400081 -0.0017806178014145371 0 0.00094690640490328762 -0.0013893999856557809 0 0.0019159345309697348 -0.00099427769305486958 0 -0.00019997075066160251 -0.0015911433424718598 0 -0.00024439106125144727 -0.0017294420620816394 0 -0.0001281258351400081 -0.0017806178014145371 0 0.0019316868223553051 -0.001066416956698257 0 0.0019199053149097417 -0.0011899897892129105 0 0.0019608826025896537 -0.0011140256632036054 0 -9.1667063277537075e-05 -0.0016715739859861796 0 -0.00012823374646571238 -0.0016410167094879397 0 -0.0001281258351400081 -0.0017806178014145371 0 0.00087868982297308279 -0.0013862353952682829 0 0.00094690640490328762 -0.0013893999856557809 0 -9.1667063277537075e-05 -0.0016715739859861796 0 -0.0001215485851624907 -0.0018683048262726179 0 -0.0001281258351400081 -0.0017806178014145371 0 -0.00024439106125144727 -0.0017294420620816394 0 -0.00020682916826891476 -0.0018399616580259822 0 -0.0001281258351400081 -0.0017806178014145371 0 0.0021138504816612868 -0.0011273624233692926 0 0.0021346623809590324 -0.0011357766827576948 0 0.0020974442864414747 -0.0011400417300599058 0 0.0019634354385228447 -0.0010417333010711296 0 0.0020156706687106461 -0.0011215850102167272 0 0.0019608826025896537 -0.0011140256632036054 0 0.002113421811317144 -0.00109403236035719 0 0.0020539656867354017 -0.0011353679143369787 0 0.0020156706687106461 -0.0011215850102167272 0 0.0019608826025896537 -0.0011140256632036054 0 0.0019627512561960713 -0.001163728481624359 0 0.0020974442864414747 -0.0011400417300599058 0 0.002129060770549428 -0.0011344570914338919 0 0.0021439890073589526 -0.0011853632651057844 0 0.002129060770549428 -0.0011344570914338919 0 0.0021439890073589526 -0.0011853632651057844 0 0.0021780772434306464 -0.0011491924497544605 0 0.0021099270032426975 -0.0011174062650851396 0 0.002129060770549428 -0.0011344570914338919 0 0.0021647037113032208 -0.0011210509931768478 0 0.0021138504816612868 -0.0011273624233692926 0 0.0020974442864414747 -0.0011400417300599058 0 0.002129060770549428 -0.0011344570914338919 0 0.0020974442864414747 -0.0011400417300599058 0 0.0021439890073589526 -0.0011853632651057844 0 0.0020894738290021999 -0.0012362403826366604 0 0.0020539656867354017 -0.0011353679143369787 0 0.0020892129200691407 -0.0012325202199540215 0 0.0019627512561960713 -0.001163728481624359 0 0.0019816837794599212 -0.0012724655485353716 0 0.0020894738290021999 -0.0012362403826366604 0 0.0019143288229186146 -0.0011962856523781828 0 0.0019627512561960713 -0.001163728481624359 0 0.0019816837794599212 -0.0012724655485353716 0 0.0020156706687106461 -0.0011215850102167272 0 0.0019627512561960713 -0.001163728481624359 0 0.0020894738290021999 -0.0012362403826366604 0 0.0019816837794599212 -0.0012724655485353716 0 0.0020894738290021999 -0.0012362403826366604 0 0.0020686327205653244 -0.0013562212653057475 0 0.0019816837794599212 -0.0012724655485353716 0 0.0019815938409803655 -0.0013492569526256668 0 0.001900116863734373 -0.001340110689277815 0 0.0020894738290021999 -0.0012362403826366604 0 0.0020686327205653244 -0.0013562212653057475 0 0.0021671821678841451 -0.0012783975435612851 0 0.0021439890073589526 -0.0011853632651057844 0 0.0020894738290021999 -0.0012362403826366604 0 0.0021671821678841451 -0.0012783975435612851 0 0.0020686327205653244 -0.0013562212653057475 0 0.0020506067206827235 -0.0014794525024513373 0 0.0021720911558759121 -0.0014311526042003391 0 0.0021592720602805386 -0.0013559602574036566 0 0.0020686327205653244 -0.0013562212653057475 0 0.0021671821678841451 -0.0012783975435612851 0 0.0021592720602805386 -0.0013559602574036566 0 0.0020686327205653244 -0.0013562212653057475 0 0.0021720911558759121 -0.0014311526042003391 0 0.0020686327205653244 -0.0013562212653057475 0 0.0019634238862032195 -0.0014165179255190444 0 0.0020506067206827235 -0.0014794525024513373 0 0.0019815938409803655 -0.0013492569526256668 0 0.001900116863734373 -0.001340110689277815 0 0.0019760118418234072 -0.0014326049161408709 0 0.0019816837794599212 -0.0012724655485353716 0 0.0020686327205653244 -0.0013562212653057475 0 0.0019815938409803655 -0.0013492569526256668 0 0.0020408382414702215 -0.0013745805028734317 0 0.0020082459828165236 -0.0013889283689430209 0 0.0020686327205653244 -0.0013562212653057475 0 0.0019815938409803655 -0.0013492569526256668 0 0.0019760118418234072 -0.0014326049161408709 0 0.00044627652984132837 -0.0011599008749705526 0 0.00036815184001766642 -0.0012266073865179398 0 0.00043916731080214381 -0.0012944246380078195 0 0.001170443129626974 -0.0011767496261903172 0 0.0014664894290505302 -0.0014915404793581163 0 0.001900116863734373 -0.001340110689277815 0 0.0018807984364018473 -0.0015040467018963342 0 0.0019760118418234072 -0.0014326049161408709 0 0.00036815184001766642 -0.0012266073865179398 0 0.00031858420480171753 -0.0011958069936896958 0 0.00036441830274527409 -0.0011650646225825026 0 0.00036815184001766642 -0.0012266073865179398 0 0.00031858420480171753 -0.0011958069936896958 0 0.00029782438996232027 -0.0012384695332202851 0 0.00031858420480171753 -0.0011958069936896958 0 0.00031541072095820906 -0.001156113879696397 0 0.00036441830274527409 -0.0011650646225825026 0 0.00031858420480171753 -0.0011958069936896958 0 0.00031541072095820906 -0.001156113879696397 0 0.00029687618124080162 -0.0011771019879750896 0 0.00044627652984132837 -0.0011599008749705526 0 0.00036815184001766642 -0.0012266073865179398 0 0.00036441830274527409 -0.0011650646225825026 0 0.00031541072095820906 -0.001156113879696397 0 0.00036633749435373248 -0.0010872727365333129 0 0.00026602513004439303 -0.0011402982402043515 0 5.1239145194741045e-05 -0.001531930067023779 0 -0.00070734524924638141 -0.0016717760501949719 0 0.00044627652984132837 -0.0011599008749705526 0 0.00036441830274527409 -0.0011650646225825026 0 0.00036633749435373248 -0.0010872727365333129 0 -0.00030231147251949167 -0.0018725257714898764 0 -0.00023781246381759507 -0.0019490660698760402 0 -0.00036287180862849811 -0.0020173829759781601 0 0.00031541072095820906 -0.001156113879696397 0 0.00036441830274527409 -0.0011650646225825026 0 0.00036633749435373248 -0.0010872727365333129 0 0.0019143288229186146 -0.0011962856523781828 0 0.0019816837794599212 -0.0012724655485353716 0 0.001900116863734373 -0.001340110689277815 0 0.00094690640490328762 -0.0013893999856557809 0 0.001170443129626974 -0.0011767496261903172 0 0.00045919510441442114 -0.0010286717344975228 0 0.00044627652984132837 -0.0011599008749705526 0 0.00036633749435373248 -0.0010872727365333129 0 0.0025449358249523576 -0.0010050341711359825 0 0.0024595549790512017 -0.0012322041433524423 0 0.0025841113212532211 -0.0012408390977111535 0 0.002688472573836434 -0.0011182012957220949 0 0.0025449358249523576 -0.0010050341711359825 0 0.0025841113212532211 -0.0012408390977111535 0 0.0023383075857696875 -0.0012985483516853523 0 0.0023380150778782717 -0.0012598811676794333 0 0.0023574250772434246 -0.0012663957525906838 0 0.0023380150778782717 -0.0012598811676794333 0 0.0023574250772434246 -0.0012663957525906838 0 0.0023610770422212452 -0.0012376864603955546 0 0.0023574250772434246 -0.0012663957525906838 0 0.0023610770422212452 -0.0012376864603955546 0 0.0023855544056333383 -0.0012752598806715118 0 0.0023653260480108983 -0.0012952441503883024 0 0.0023574250772434246 -0.0012663957525906838 0 0.0023855544056333383 -0.0012752598806715118 0 0.0024408934326307897 -0.0011452727453233091 0 0.0023661671659744544 -0.0012138601977565533 0 0.0023380150778782717 -0.0012598811676794333 0 0.0023610770422212452 -0.0012376864603955546 0 0.0023605703521592516 -0.001224525422498648 0 0.0025449358249523576 -0.0010050341711359825 0 0.0023605703521592516 -0.001224525422498648 0 0.0024595549790512017 -0.0012322041433524423 0 0.0023115137115449587 -0.0011786391386916961 0 0.0023408565940131777 -0.0012424356108585838 0 0.0022667264074794509 -0.0012139274040186322 0 0.0022430893955579555 -0.0011429763465887264 0 0.0023451008831658986 -0.0012335114729720776 0 0.0023610770422212452 -0.0012376864603955546 0 0.0023662517326379865 -0.0012411407956192248 0 0.0023451008831658986 -0.0012335114729720776 0 0.0023610770422212452 -0.0012376864603955546 0 0.0023605703521592516 -0.001224525422498648 0 0.0023451008831658986 -0.0012335114729720776 0 0.0023736388085460985 -0.0012679904159368671 0 0.0023418566137471796 -0.0011843443470346507 0 0.002377262916547091 -0.0012667100831285107 0 0.0023595565047965024 -0.0012496227683323406 0 0.0023662517326379865 -0.0012411407956192248 0 0.0023610770422212452 -0.0012376864603955546 0 0.0023595565047965024 -0.0012496227683323406 0 0.0023662517326379865 -0.0012411407956192248 0 0.0022430893955579555 -0.0011429763465887264 0 0.0021647037113032208 -0.0011210509931768478 0 0.0021780772434306464 -0.0011491924497544605 0 0.0022124734127454506 -0.0012684061778768911 0 0.0023115137115449587 -0.0011786391386916961 0 0.0022430893955579555 -0.0011429763465887264 0 0.0021780772434306464 -0.0011491924497544605 0 0.0022085251255917686 -0.001181925306283974 0 0.0021908528162850119 -0.0010736841414702651 0 0.0022430893955579555 -0.0011429763465887264 0 0.0021647037113032208 -0.0011210509931768478 0 0.002129060770549428 -0.0011344570914338919 0 0.0021647037113032208 -0.0011210509931768478 0 0.0021780772434306464 -0.0011491924497544605 0 0.0021439890073589526 -0.0011853632651057844 0 0.0021780772434306464 -0.0011491924497544605 0 0.0022085251255917686 -0.001181925306283974 0 0.0022667264074794509 -0.0012139274040186322 0 0.0022430893955579555 -0.0011429763465887264 0 0.0022085251255917686 -0.001181925306283974 0 0.0021439890073589526 -0.0011853632651057844 0 0.0022147749237729215 -0.0012255439485338818 0 0.0021671821678841451 -0.0012783975435612851 0 0.0022667264074794509 -0.0012139274040186322 0 0.0022085251255917686 -0.001181925306283974 0 0.0022147749237729215 -0.0012255439485338818 0 0.0021439890073589526 -0.0011853632651057844 0 0.0022085251255917686 -0.001181925306283974 0 0.0022147749237729215 -0.0012255439485338818 0 0.0022147749237729215 -0.0012255439485338818 0 0.002252395112601151 -0.001266513820149617 0 0.0021671821678841451 -0.0012783975435612851 0 0.0022667264074794509 -0.0012139274040186322 0 0.0022147749237729215 -0.0012255439485338818 0 0.002252395112601151 -0.001266513820149617 0 0.002252395112601151 -0.001266513820149617 0 0.0021671821678841451 -0.0012783975435612851 0 0.002245955264074857 -0.0013410888170181762 0 0.002245955264074857 -0.0013410888170181762 0 0.0023032768808281655 -0.0014104063885141509 0 0.0021720911558759121 -0.0014311526042003391 0 0.0021592720602805386 -0.0013559602574036566 0 0.0021671821678841451 -0.0012783975435612851 0 0.002245955264074857 -0.0013410888170181762 0 0.0021592720602805386 -0.0013559602574036566 0 0.002245955264074857 -0.0013410888170181762 0 0.0021720911558759121 -0.0014311526042003391 0 0.002245955264074857 -0.0013410888170181762 0 0.002353181231091139 -0.001354202345181587 0 0.0023232214282870125 -0.0012866395091759475 0 0.002245955264074857 -0.0013410888170181762 0 0.0023032768808281655 -0.0014104063885141509 0 0.002353181231091139 -0.001354202345181587 0 0.0023032768808281655 -0.0014104063885141509 0 0.002353181231091139 -0.001354202345181587 0 0.0023868948933631101 -0.0014312093042998591 0 0.0023232214282870125 -0.0012866395091759475 0 0.0023748377313811218 -0.0012561695332898701 0 0.002400528996069737 -0.0012945984937716027 0 0.002353181231091139 -0.001354202345181587 0 0.0023232214282870125 -0.0012866395091759475 0 0.002400528996069737 -0.0012945984937716027 0 0.002252395112601151 -0.001266513820149617 0 0.002245955264074857 -0.0013410888170181762 0 0.0023232214282870125 -0.0012866395091759475 0 0.0022667264074794509 -0.0012139274040186322 0 0.002252395112601151 -0.001266513820149617 0 0.002295457850912952 -0.0012503868876279538 0 0.0022667264074794509 -0.0012139274040186322 0 0.002295457850912952 -0.0012503868876279538 0 0.0023451008831658986 -0.0012335114729720776 0 0.0023232214282870125 -0.0012866395091759475 0 0.002295457850912952 -0.0012503868876279538 0 0.0023451008831658986 -0.0012335114729720776 0 0.002252395112601151 -0.001266513820149617 0 0.0023232214282870125 -0.0012866395091759475 0 0.002295457850912952 -0.0012503868876279538 0 0.0023232214282870125 -0.0012866395091759475 0 0.0023451008831658986 -0.0012335114729720776 0 0.0023748377313811218 -0.0012561695332898701 0 0.0023605703521592516 -0.001224525422498648 0 0.0023451008831658986 -0.0012335114729720776 0 0.0023748377313811218 -0.0012561695332898701 0 0.0024595549790512017 -0.0012322041433524423 0 0.002400528996069737 -0.0012945984937716027 0 0.0024700758892688673 -0.0013491827113397323 0 0.0023605703521592516 -0.001224525422498648 0 0.0023748377313811218 -0.0012561695332898701 0 0.0024595549790512017 -0.0012322041433524423 0 0.0023748377313811218 -0.0012561695332898701 0 0.0024595549790512017 -0.0012322041433524423 0 0.002400528996069737 -0.0012945984937716027 0 0.002353181231091139 -0.001354202345181587 0 0.002400528996069737 -0.0012945984937716027 0 0.0024700758892688673 -0.0013491827113397323 0 0.0024700758892688673 -0.0013491827113397323 0 0.0025240419421758207 -0.0014595922349369052 0 0.0023868948933631101 -0.0014312093042998591 0 0.002353181231091139 -0.001354202345181587 0 0.0024700758892688673 -0.0013491827113397323 0 0.0023868948933631101 -0.0014312093042998591 0 0.0026319273334656527 -0.0014049730944992842 0 0.0024700758892688673 -0.0013491827113397323 0 0.0025240419421758207 -0.0014595922349369052 0 0.0026319273334656527 -0.0014049730944992842 0 0.0024700758892688673 -0.0013491827113397323 0 0.0025841113212532211 -0.0012408390977111535 0 0.0024595549790512017 -0.0012322041433524423 0 0.0024700758892688673 -0.0013491827113397323 0 0.0025841113212532211 -0.0012408390977111535 0 0.0026364646805191751 -0.0014997387807139659 0 0.0025240419421758207 -0.0014595922349369052 0 0.0025274658614496399 -0.0015939653907956852 0 0.0026319273334656527 -0.0014049730944992842 0 0.0026364646805191751 -0.0014997387807139659 0 0.0025240419421758207 -0.0014595922349369052 0 0.0025240419421758207 -0.0014595922349369052 0 0.0023868948933631101 -0.0014312093042998591 0 0.0023984453143696596 -0.0015115855763238155 0 0.0025240419421758207 -0.0014595922349369052 0 0.0023984453143696596 -0.0015115855763238155 0 0.0025274658614496399 -0.0015939653907956852 0 0.0023984453143696596 -0.0015115855763238155 0 0.0023682706413591238 -0.0015269248167108296 0 0.0023846558914603988 -0.0015225466304729935 0 0.002407752356221233 -0.0015190455045885783 0 0.0024400255967337919 -0.001536293724525794 0 0.0023984453143696596 -0.0015115855763238155 0 0.0023371899296998557 -0.001513054241026892 0 0.0023682706413591238 -0.0015269248167108296 0 0.0023984453143696596 -0.0015115855763238155 0 0.0023371899296998557 -0.001513054241026892 0 0.0022968363190454338 -0.0014843134403908539 0 0.0023371899296998557 -0.001513054241026892 0 0.0023359076654976478 -0.0015315738424431242 0 0.0023682706413591238 -0.0015269248167108296 0 0.0023371899296998557 -0.001513054241026892 0 0.0023038291487316085 -0.0015190220056781696 0 0.0023359076654976478 -0.0015315738424431242 0 0.0023868948933631101 -0.0014312093042998591 0 0.0023984453143696596 -0.0015115855763238155 0 0.0022968363190454338 -0.0014843134403908539 0 0.0023032768808281655 -0.0014104063885141509 0 0.0023868948933631101 -0.0014312093042998591 0 0.0022968363190454338 -0.0014843134403908539 0 0.0022968363190454338 -0.0014843134403908539 0 0.0021720911558759121 -0.0014311526042003391 0 0.0021285541671836202 -0.0015679997764747498 0 0.0023032768808281655 -0.0014104063885141509 0 0.0022968363190454338 -0.0014843134403908539 0 0.0021720911558759121 -0.0014311526042003391 0 0.00229009970940785 -0.0014722630347011234 0 0.0021956381364835269 -0.001606645826244639 0 0.0022968363190454338 -0.0014843134403908539 0 0.0022894392475373815 -0.0015035939062060855 0 0.0022445381490853893 -0.0014842332650020565 0 0.0023371899296998557 -0.001513054241026892 0 0.0022968363190454338 -0.0014843134403908539 0 0.0022894392475373815 -0.0015035939062060855 0 0.0023371899296998557 -0.001513054241026892 0 0.0023038291487316085 -0.0015190220056781696 0 0.0022894392475373815 -0.0015035939062060855 0 0.0023038291487316085 -0.0015190220056781696 0 0.0022894392475373815 -0.0015035939062060855 0 0.0022499376851323216 -0.001533213818744023 0 0.001260944801193001 0.001008059484063369 0 0.001148430169736461 0.00090386929634484348 0 0.0013241513327480893 0.00084931261444407859 0 0.0019984176374535549 -0.00016694203290350311 0 0.0017360611513266742 -0.00031511571349746693 0 0.0023335649711839416 -0.0015504293608650883 0 0.0023359076654976478 -0.0015315738424431242 0 0.0022499376851323216 -0.001533213818744023 0 0.0023038291487316085 -0.0015190220056781696 0 0.0023359076654976478 -0.0015315738424431242 0 0.0022499376851323216 -0.001533213818744023 0 0.001260944801193001 0.001008059484063369 0 0.0011496534125296103 0.0010412502302638675 0 0.001148430169736461 0.00090386929634484348 0 0.0019984176374535549 -0.00016694203290350311 0 0.0024652898933324413 -0.00046794373719478359 0 0.001793236638372938 0.00076775106169026499 0 0.0019984176374535549 -0.00016694203290350311 0 0.0021745010123965501 0.00052615218888954073 0 0.0022551906497791001 0.00064579109972699429 0 0.0021854934394216169 0.00072130893492024673 0 0.0022551906497791001 0.00064579109972699429 0 0.0021854934394216169 0.00072130893492024673 0 0.0024231053643986016 0.00065246119664904667 0 0.001793236638372938 0.00076775106169026499 0 0.0021467374785753327 0.00068394596005648791 0 0.0021791192675762851 0.00053311615791900289 0 0.0022551906497791001 0.00064579109972699429 0 0.0023472952176039684 0.00054852054729488805 0 0.002341303214604201 -0.0015378974493965255 0 0.0023682706413591238 -0.0015269248167108296 0 0.0023788203894258768 -0.0015263853524101973 0 0.0019984176374535549 -0.00016694203290350311 0 0.0020984413008204041 -0.0013276108230503318 0 0.002341303214604201 -0.0015378974493965255 0 0.0023359076654976478 -0.0015315738424431242 0 0.0023682706413591238 -0.0015269248167108296 0 0.0023682706413591238 -0.0015269248167108296 0 0.0023788203894258768 -0.0015263853524101973 0 0.0023846558914603988 -0.0015225466304729935 0 0.0022551906497791001 0.00064579109972699429 0 0.0023472952176039684 0.00054852054729488805 0 0.0024231053643986016 0.00065246119664904667 0 0.0023472952176039684 0.00054852054729488805 0 0.0024941182924387325 0.0005230215330048007 0 0.0024231053643986016 0.00065246119664904667 0 0.0024941182924387325 0.0005230215330048007 0 0.0024231053643986016 0.00065246119664904667 0 0.0026702135094430401 0.00058404940555565254 0 0.0024652898933324413 -0.00046794373719478359 0 0.0024825174671042711 -0.0004394301643702953 0 0.0023788203894258768 -0.0015263853524101973 0 0.0023831178826174888 -0.001505195739772292 0 0.0023823479745200384 -0.001519072450354672 0 0.0023783232975581703 -0.0015152769731983007 0 0.0023831178826174888 -0.001505195739772292 0 0.0023823479745200384 -0.001519072450354672 0 0.0026413222539314585 -0.0015787533419082927 0 0.0026183311512958671 -0.0016616459790844708 0 0.0025274658614496399 -0.0015939653907956852 0 0.0023788203894258768 -0.0015263853524101973 0 0.0023823479745200384 -0.001519072450354672 0 0.0023846558914603988 -0.0015225466304729935 0 0.0023783232975581703 -0.0015152769731983007 0 0.0023823479745200384 -0.001519072450354672 0 0.0023846558914603988 -0.0015225466304729935 0 0.0025317567111763331 -0.001708173832369384 0 0.0024400255967337919 -0.001536293724525794 0 0.0012345156861306732 -0.00026429534566441761 0 0.0011874498011871146 -0.00020610059484819346 0 0.0013580111493299441 -0.00026087812330750465 0 0.0017264842425061191 -0.0015730462755911574 0 0.001842628677334774 -0.0015028673475347236 0 0.0019549523398172276 -0.0016399861771574018 0 0.00091094446218558615 -0.0012294574860523052 0 0.0018058812072856672 -0.00068127799091964461 0 0.001842628677334774 -0.0015028673475347236 0 0.0019349953269967692 -0.0015046456445349497 0 0.0019549523398172276 -0.0016399861771574018 0 0.0012535402025874727 -0.00031264782690045603 0 0.00089275317307212633 -0.00057262997896192439 0 0.0012345156861306732 -0.00026429534566441761 0 0.0011462814040440492 -0.00023921775694115357 0 0.0011820932926651475 -0.00027565471843762326 0 0.0012345156861306732 -0.00026429534566441761 0 0.0011364904902220099 -0.00024596326463353446 0 0.0011874498011871146 -0.00020610059484819346 0 0.00035382114465005115 -0.001384377020689945 0 0.0003607497687510453 -0.0013495022874209016 0 0.00032250319516789885 -0.0013742223399659747 0 0.00035382114465005115 -0.001384377020689945 0 0.0003607497687510453 -0.0013495022874209016 0 0.0004103785739189346 -0.0013432976884006525 0 0.00089275317307212633 -0.00057262997896192439 0 0.00091094446218558615 -0.0012294574860523052 0 0.00036193870882868961 -0.0013534283617508652 0 0.00035031436290742368 -0.0012866480490465652 0 0.00043916731080214381 -0.0012944246380078195 0 0.00036193870882868961 -0.0013534283617508652 0 0.00035031436290742368 -0.0012866480490465652 0 0.00029093032118002795 -0.0012918345665819282 0 0.00035031436290742368 -0.0012866480490465652 0 0.00029093032118002795 -0.0012918345665819282 0 0.00029782438996232027 -0.0012384695332202851 0 0.00036815184001766642 -0.0012266073865179398 0 0.00035031436290742368 -0.0012866480490465652 0 0.00029782438996232027 -0.0012384695332202851 0 0.00036815184001766642 -0.0012266073865179398 0 0.00035031436290742368 -0.0012866480490465652 0 0.00043916731080214381 -0.0012944246380078195 0 0.0017264842425061191 -0.0015730462755911574 0 0.0018437340075148948 -0.001488920567005263 0 0.001842628677334774 -0.0015028673475347236 0 0.00091094446218558615 -0.0012294574860523052 0 0.0014664894290505302 -0.0014915404793581163 0 0.0014664894290505302 -0.0014915404793581163 0 0.0014760924307445212 -0.0014901339885722452 0 0.0018445404974088337 -0.0014897499009005858 0 0.001842628677334774 -0.0015028673475347236 0 0.0019349953269967692 -0.0015046456445349497 0 0.0014664894290505302 -0.0014915404793581163 0 0.0020082459828165236 -0.0013889283689430209 0 0.0018445404974088337 -0.0014897499009005858 0 0.0019634238862032195 -0.0014165179255190444 0 0.0019349953269967692 -0.0015046456445349497 0 0.0019634238862032195 -0.0014165179255190444 0 0.0020506067206827235 -0.0014794525024513373 0 0.0019349953269967692 -0.0015046456445349497 0 0.0020506067206827235 -0.0014794525024513373 0 0.0021720911558759121 -0.0014311526042003391 0 0.0021285541671836202 -0.0015679997764747498 0 0.0022894392475373815 -0.0015035939062060855 0 0.0022445381490853893 -0.0014842332650020565 0 0.0022499376851323216 -0.001533213818744023 0 0.0022445381490853893 -0.0014842332650020565 0 0.0021634476344145454 -0.0015005231077222941 0 0.0022499376851323216 -0.001533213818744023 0 0.0020506067206827235 -0.0014794525024513373 0 0.0019349953269967692 -0.0015046456445349497 0 0.0019549523398172276 -0.0016399861771574018 0 0.0020506067206827235 -0.0014794525024513373 0 0.0021285541671836202 -0.0015679997764747498 0 0.0019549523398172276 -0.0016399861771574018 0 0.0021956381364835269 -0.001606645826244639 0 0.0018058812072856672 -0.00068127799091964461 0 0.001499872427338453 0.00079011727623536814 0 0.0014873567520407309 0.00093179249277000988 0 0.0013241513327480893 0.00084931261444407859 0 0.0018058812072856672 -0.00068127799091964461 0 0.0017360611513266742 -0.00031511571349746693 0 0.001260944801193001 0.001008059484063369 0 0.0013241513327480893 0.00084931261444407859 0 0.001401185470927399 0.0010409163606942885 0 0.0014873567520407309 0.00093179249277000988 0 0.0013241513327480893 0.00084931261444407859 0 0.001401185470927399 0.0010409163606942885 0 0.0014873567520407309 0.00093179249277000988 0 0.001401185470927399 0.0010409163606942885 0 0.0015894715261590908 0.0010710975830800829 0 0.0014873567520407309 0.00093179249277000988 0 0.0015894715261590908 0.0010710975830800829 0 0.0016624271618718338 0.00086068772121211245 0 0.001499872427338453 0.00079011727623536814 0 0.0014873567520407309 0.00093179249277000988 0 0.0016624271618718338 0.00086068772121211245 0 0.0018058812072856672 -0.00068127799091964461 0 0.0013803776041376146 0.00035634797129373904 0 0.0012345156861306732 -0.00026429534566441761 0 0.0013580111493299441 -0.00026087812330750465 0 0.0012140489531487367 -0.00030678244113889751 0 0.0016624271618718338 0.00086068772121211245 0 0.0017237814490452194 0.0010197655635566139 0 0.0018460291958364767 0.00092882857455973879 0 0.0012140489531487367 -0.00030678244113889751 0 0.0011348213497141904 -0.00029148366368428877 0 0.0010852801608780358 -0.00033736760784701039 0 0.0013803776041376146 0.00035634797129373904 0 0.0016072101042157417 0.0002967115176579282 0 0.0011462814040440492 -0.00023921775694115357 0 0.0011820932926651475 -0.00027565471843762326 0 0.0011348213497141904 -0.00029148366368428877 0 0.0011820932926651475 -0.00027565471843762326 0 0.0012140489531487367 -0.00030678244113889751 0 0.0011348213497141904 -0.00029148366368428877 0 0.0012345156861306732 -0.00026429534566441761 0 0.0011820932926651475 -0.00027565471843762326 0 0.0012140489531487367 -0.00030678244113889751 0 0.0015894715261590908 0.0010710975830800829 0 0.0016624271618718338 0.00086068772121211245 0 0.0017237814490452194 0.0010197655635566139 0 0.0017237814490452194 0.0010197655635566139 0 0.0018460291958364767 0.00092882857455973879 0 0.0019132053473002251 0.0010961363171855681 0 0.00082219450220596003 0.00050571968316383319 0 0.0016072101042157417 0.0002967115176579282 0 0.0020683973151334424 0.0010075315472271593 0 0.0018460291958364767 0.00092882857455973879 0 0.0019132053473002251 0.0010961363171855681 0 0.00099595459484794462 -0.00035420869739031705 0 0.0010265089821750667 -0.00032808625608306746 0 0.0010852801608780358 -0.00033736760784701039 0 0.00046224276091456651 8.560155505428458e-05 0 0.00016626290361256769 -0.00027255417380143987 0 0.00099595459484794462 -0.00035420869739031705 0 0.00099959150833008308 -0.00034607718409420117 0 0.0010265089821750667 -0.00032808625608306746 0 0.00082219450220596003 0.00050571968316383319 0 0.00046224276091456651 8.560155505428458e-05 0 0.0010169392976249541 -0.00033425216388894544 0 0.0010681399965888079 -0.00029788759619406665 0 0.0010265089821750667 -0.00032808625608306746 0 0.0010195299433082851 -0.00032740054817806326 0 0.0010104652206202114 -0.00035336997657411582 0 0.00028497304351152343 -0.00061844603038590205 0 0.0003166985736934574 -0.00060092815531732999 0 0.00029022929635515941 -0.00056817666317375516 0 0.00099959150833008308 -0.00034607718409420117 0 0.0010265089821750667 -0.00032808625608306746 0 0.0010195299433082851 -0.00032740054817806326 0 0.00023203187818193332 7.1016729220917685e-05 0 0.0001790051634432394 -0.00033638056534713413 0 0.00029574794244525846 -0.00026008743644768408 0 0.00016626290361256769 -0.00027255417380143987 0 -0.00034267811532006596 -0.00017377318590099282 0 0.00016626290361256769 -0.00027255417380143987 0 0.00072626618745429735 -0.00042798215071212505 0 0.0010265089821750667 -0.00032808625608306746 0 0.0010104652206202114 -0.00035336997657411582 0 0.00098617001342122135 -0.00034649935206351805 0 0.0010802306224057575 -0.00028899813624660937 0 0.0011348213497141904 -0.00029148366368428877 0 0.0010852801608780358 -0.00033736760784701039 0 0.0011462814040440492 -0.00023921775694115357 0 0.0010802306224057575 -0.00028899813624660937 0 0.0011348213497141904 -0.00029148366368428877 0 0.0010265089821750667 -0.00032808625608306746 0 0.0010802306224057575 -0.00028899813624660937 0 0.0010852801608780358 -0.00033736760784701039 0 -0.0011720847707158357 0.00018536551463883399 0 -0.0016091219641707892 -0.00011906569200753379 0 -0.0015561283048768687 -4.5333135345757533e-07 0 -0.0015940776597245681 1.1990625073700655e-05 0 -0.0016170895650322262 -5.4166188777111472e-05 0 -0.0015561283048768687 -4.5333135345757533e-07 0 -0.0015940776597245681 1.1990625073700655e-05 0 -0.0015324548103597614 2.3111873165912518e-05 0 -0.0011720847707158357 0.00018536551463883399 0 -0.0016309905543508009 -5.4122651167038064e-05 0 0.00082219450220596003 0.00050571968316383319 0 -0.00010617204453004903 0.00033520717885052534 0 9.4423986332769502e-06 0.00036528130249734305 0 9.3367369196374728e-05 0.00047711128607394682 0 0.00021100847043276704 0.0004424747365306301 0 -3.8678469041813952e-05 0.00034245479955724182 0 0.0002230101043132824 0.00036285588116349567 0 0.00021100847043276704 0.0004424747365306301 0 -4.4417802670980733e-05 0.00030273527806522232 0 0.0002230101043132824 0.00036285588116349567 0 -2.5385074090929842e-05 0.00019282309679490058 0 -0.0011720847707158357 0.00018536551463883399 0 -0.00034267811532006596 -0.00017377318590099282 0 -3.8678469041813952e-05 0.00034245479955724182 0 -4.4417802670980733e-05 0.00030273527806522232 0 0.0002230101043132824 0.00036285588116349567 0 0.00046224276091456651 8.560155505428458e-05 0 -0.00034267811532006596 -0.00017377318590099282 0 -0.00050849996431098971 -0.00032203143213444625 0 -0.00048790827164507699 -0.00030832644934283485 0 -0.00045645479599541738 -0.00050740424232136136 0 -0.0016578739398836735 -9.5895743483244888e-05 0 -0.0016187130732004313 -0.00010436156794842528 0 -0.0016306344174837682 -0.00014467297123975506 0 -0.0016115768764176656 -6.2673898092777163e-05 0 -0.0016578739398836735 -9.5895743483244888e-05 0 -0.0016187130732004313 -0.00010436156794842528 0 -0.0016170895650322262 -5.4166188777111472e-05 0 -0.0016306344174837682 -0.00014467297123975506 0 -0.0015675031794999479 -9.4046085670958948e-05 0 -0.0015561283048768687 -4.5333135345757533e-07 0 -0.0016170895650322262 -5.4166188777111472e-05 0 -0.0015474408741647815 -2.5643190171016089e-05 0 -0.0016091219641707892 -0.00011906569200753379 0 -0.0016256776158911105 -0.00012425462161893555 0 -0.0016170895650322262 -5.4166188777111472e-05 0 -0.0015474408741647815 -2.5643190171016089e-05 0 -0.0015675031794999479 -9.4046085670958948e-05 0 -0.0016148645169536764 -0.00018033760025265187 0 -0.0016306344174837682 -0.00014467297123975506 0 -0.0015820564917386156 -0.00016190431986226147 0 -0.0016306344174837682 -0.00014467297123975506 0 -0.0015820564917386156 -0.00016190431986226147 0 -0.0015675031794999479 -9.4046085670958948e-05 0 -0.0016148645169536764 -0.00018033760025265187 0 -0.0016306344174837682 -0.00014467297123975506 0 -0.0016448149851048472 -0.00017533697411197113 0 -0.0016578739398836735 -9.5895743483244888e-05 0 -0.0016306344174837682 -0.00014467297123975506 0 -0.0016601897503563075 -0.00016682291499258621 0 -0.00050849996431098971 -0.00032203143213444625 0 -0.00045645479599541738 -0.00050740424232136136 0 -0.00053340938835461148 -0.00048790503713953977 0 -0.00034267811532006596 -0.00017377318590099282 0 -0.00126188299980501 -0.0003647053651905893 0 -0.0016306344174837682 -0.00014467297123975506 0 -0.0016601897503563075 -0.00016682291499258621 0 -0.0016448149851048472 -0.00017533697411197113 0 -0.00126188299980501 -0.0003647053651905893 0 -0.00015645474116920467 -0.00083360073026578284 0 -0.0009528664675311205 -0.00067022877092196118 0 -0.00096116494480285859 -0.00063208066738847329 0 -0.00088742577575838262 -0.00068693360289589502 0 -0.00126188299980501 -0.0003647053651905893 0 -0.0016045527560766342 -0.00037506584569949064 0 -0.0016045527560766342 -0.00037506584569949064 0 -0.0009123101238234278 -0.00080065095410103372 0 -0.00126188299980501 -0.0003647053651905893 0 -0.0016733627928010254 -0.00026674829008571091 0 -0.0014899316649511251 -0.00032317499221838516 0 -0.0015010804252375332 -0.00026890562156328711 0 -0.0015552543871571408 -0.00030666408212651067 0 -0.0018842177907380723 -0.00024339972128257381 0 -0.0018123940959004815 -0.0001939821590527505 0 -0.0017982336496136276 -0.00032163488701749993 0 -0.0016045527560766342 -0.00037506584569949064 0 -0.0016733627928010254 -0.00026674829008571091 0 -0.0016733627928010254 -0.00026674829008571091 0 -0.0015974266311980802 -0.00022225276732796694 0 -0.0018123940959004815 -0.0001939821590527505 0 -0.0017149484914900522 -0.00029414830422946366 0 -0.0015667281286731688 -0.00024850731300677 0 -0.0016148645169536764 -0.00018033760025265187 0 -0.0016448149851048472 -0.00017533697411197113 0 -0.0015667281286731688 -0.00024850731300677 0 -0.0017982336496136276 -0.00032163488701749993 0 -0.0017149484914900522 -0.00029414830422946366 0 -0.0017471618318823062 -0.00036409942459181922 0 -0.0018123940959004815 -0.0001939821590527505 0 -0.0017982336496136276 -0.00032163488701749993 0 -0.0017149484914900522 -0.00029414830422946366 0 -0.0017149484914900522 -0.00029414830422946366 0 -0.0016485078409099511 -0.00034023090595623875 0 -0.0017471618318823062 -0.00036409942459181922 0 0.00030807425122360966 -0.0013841288003143631 0 0.0001330865083016205 -0.0013406061489172178 0 0.0002118104982599329 -0.0012988749521633616 0 0.0003607497687510453 -0.0013495022874209016 0 0.00030807425122360966 -0.0013841288003143631 0 0.0002118104982599329 -0.0012988749521633616 0 0.0003166985736934574 -0.00060092815531732999 0 0.00034965271740441646 -0.00058251300170701148 0 0.00029022929635515941 -0.00056817666317375516 0 0.00091094446218558615 -0.0012294574860523052 0 1.8576620834913636e-05 -0.0013004447443037343 0 0.0003607497687510453 -0.0013495022874209016 0 0.0004103785739189346 -0.0013432976884006525 0 0.0002118104982599329 -0.0012988749521633616 0 0.00058148667844226112 -0.00083276271041805069 0 -0.00015645474116920467 -0.00083360073026578284 0 0.00028512191278740951 -0.0011788178370768371 0 0.00058148667844226112 -0.00083276271041805069 0 0.00092558903219204514 -0.00039485090786173352 0 0.00098617001342122135 -0.00034649935206351805 0 0.00095128984807420593 -0.00040076963077651916 0 0.00089275317307212633 -0.00057262997896192439 0 0.0010681399965888079 -0.00029788759619406665 0 0.00089275317307212633 -0.00057262997896192439 0 0.00058148667844226112 -0.00083276271041805069 0 0.0010104652206202114 -0.00035336997657411582 0 0.00098617001342122135 -0.00034649935206351805 0 0.00095128984807420593 -0.00040076963077651916 0 0.00072626618745429735 -0.00042798215071212505 0 0.00058148667844226112 -0.00083276271041805069 0 0.00016626290361256769 -0.00027255417380143987 0 -0.00015645474116920467 -0.00083360073026578284 0 0.0001330865083016205 -0.0013406061489172178 0 0.0002118104982599329 -0.0012988749521633616 0 0.00015458045938751197 -0.0012155740874339584 0 -0.00015645474116920467 -0.00083360073026578284 0 -0.0009123101238234278 -0.00080065095410103372 0 -0.00096116494480285859 -0.00063208066738847329 0 -0.00088742577575838262 -0.00068693360289589502 0 -0.00087510232839699015 -0.00057446805328436809 0 0.00024012926426486794 -0.001259711895744606 0 0.0002118104982599329 -0.0012988749521633616 0 0.00015458045938751197 -0.0012155740874339584 0 0.00024012926426486794 -0.001259711895744606 0 0.00023631746949825247 -0.00121423756079296 0 0.00015458045938751197 -0.0012155740874339584 0 0.00036193870882868961 -0.0013534283617508652 0 0.0002118104982599329 -0.0012988749521633616 0 0.00029093032118002795 -0.0012918345665819282 0 0.00024012926426486794 -0.001259711895744606 0 0.0002118104982599329 -0.0012988749521633616 0 0.00029093032118002795 -0.0012918345665819282 0 0.00024012926426486794 -0.001259711895744606 0 0.00029782438996232027 -0.0012384695332202851 0 0.00023631746949825247 -0.00121423756079296 0 0.00024012926426486794 -0.001259711895744606 0 0.00029093032118002795 -0.0012918345665819282 0 0.00029782438996232027 -0.0012384695332202851 0 0.00029782438996232027 -0.0012384695332202851 0 0.00027953375504431065 -0.001191512384265967 0 0.00023631746949825247 -0.00121423756079296 0 0.00023631746949825247 -0.00121423756079296 0 0.000257116662575191 -0.0011516026393689062 0 0.00015458045938751197 -0.0012155740874339584 0 0.00031858420480171753 -0.0011958069936896958 0 0.00029782438996232027 -0.0012384695332202851 0 0.00027953375504431065 -0.001191512384265967 0 -0.00038157831236176616 -0.0013850205036534931 0 -0.0009123101238234278 -0.00080065095410103372 0 -0.0013653870651023259 -0.0013242513087016643 0 -0.0012328119889890193 -0.0013498401650891287 0 -0.0010410126248582938 -0.0010907659895970667 0 -0.0013653870651023259 -0.0013242513087016643 0 -0.0013818042383867274 -0.0013680216381301779 0 -0.0012328119889890193 -0.0013498401650891287 0 0.00015231942354567695 -0.0010740364985469921 0 -0.00038157831236176616 -0.0013850205036534931 0 0.00027953375504431065 -0.001191512384265967 0 0.00023631746949825247 -0.00121423756079296 0 0.00026245860433275406 -0.0011540463236901931 0 0.00031858420480171753 -0.0011958069936896958 0 0.00027953375504431065 -0.001191512384265967 0 0.00029687618124080162 -0.0011771019879750896 0 0.00027953375504431065 -0.001191512384265967 0 0.00029687618124080162 -0.0011771019879750896 0 0.00027840497618866235 -0.0011594082360269426 0 0.00027953375504431065 -0.001191512384265967 0 0.00026245860433275406 -0.0011540463236901931 0 0.00027840497618866235 -0.0011594082360269426 0 -0.00038157831236176616 -0.0013850205036534931 0 -0.00070734524924638141 -0.0016717760501949719 0 0.00026245860433275406 -0.0011540463236901931 0 0.00027840497618866235 -0.0011594082360269426 0 0.00026576614633001605 -0.0011421490849843723 0 -0.00057127326830803981 -0.0016078487818003394 0 -0.00070734524924638141 -0.0016717760501949719 0 0.00031541072095820906 -0.001156113879696397 0 0.00029687618124080162 -0.0011771019879750896 0 0.00027840497618866235 -0.0011594082360269426 0 0.00031541072095820906 -0.001156113879696397 0 0.00027840497618866235 -0.0011594082360269426 0 0.00026602513004439303 -0.0011402982402043515 0 -0.0022125664677128832 -0.002301514540370129 0 -0.0021945314753517259 -0.0022793507967111925 0 -0.0021931449620664211 -0.0022677026206344079 0 -0.001322173621512555 -0.0021943008007325941 0 -0.00070734524924638141 -0.0016717760501949719 0 -0.0021945314753517259 -0.0022793507967111925 0 -0.0021931449620664211 -0.0022677026206344079 0 -0.0021901394909237229 -0.0022788200899575626 0 -0.00070734524924638141 -0.0016717760501949719 0 -0.0017637627137683861 -0.0021129863004024224 0 -0.0018305757414500137 -0.0021239001196437656 0 -0.0017637627137683861 -0.0021129863004024224 0 -0.0017637627137683861 -0.0021129863004024224 0 -0.0018843140439977926 -0.0015577019188288746 0 -0.0013818042383867274 -0.0013680216381301779 0 -0.0012328119889890193 -0.0013498401650891287 0 -0.0013218225721430079 -0.001480152489330562 0 -0.0012328119889890193 -0.0013498401650891287 0 -0.0013218225721430079 -0.001480152489330562 0 -0.0010911938047191 -0.0014600881605748288 0 -0.0022125664677128832 -0.002301514540370129 0 -0.0021945314753517259 -0.0022793507967111925 0 -0.0021923388078798549 -0.0022795435711034785 0 -0.0021821910177594445 -0.0025351908245779043 0 -0.0021774456594920721 -0.0025345245028418183 0 -0.002179865325263289 -0.0025227908146649171 0 -0.0021578384195463443 -0.0025336748967916532 0 -0.0021723060126450601 -0.0025319045178181735 0 -0.0021664233806382412 -0.0025132145681713886 0 -0.0019221327355291554 -0.00055664349186195091 0 -0.001883786037439119 -0.00052224830346582105 0 -0.0018554714078358699 -0.0005486083324436759 0 -0.0018843140439977926 -0.0015577019188288746 0 -0.0020213083925810504 -0.0015300374965833328 0 -0.0021821910177594445 -0.0025351908245779043 0 -0.0021886589746066198 -0.0025422778364584181 0 -0.0021807179899478945 -0.0025281649111056647 0 -0.0021821910177594445 -0.0025351908245779043 0 -0.0021723060126450601 -0.0025319045178181735 0 -0.0021807179899478945 -0.0025281649111056647 0 -0.0021821910177594445 -0.0025351908245779043 0 -0.0021723060126450601 -0.0025319045178181735 0 -0.0021774456594920721 -0.0025345245028418183 0 -0.0021578384195463443 -0.0025336748967916532 0 -0.0021723060126450601 -0.0025319045178181735 0 -0.0021718762288877214 -0.0025342773753330799 0 -0.0019939552005629932 -0.0021440658735036745 0 -0.0018843140439977926 -0.0015577019188288746 0 -0.0012328119889890193 -0.0013498401650891287 0 -0.0010911938047191 -0.0014600881605748288 0 -0.0010410126248582938 -0.0010907659895970667 0 -0.001883786037439119 -0.00052224830346582105 0 -0.0019076402959944355 -0.00046570924235145105 0 -0.0018614572968305813 -0.00048888925330378176 0 -0.0019221327355291554 -0.00055664349186195091 0 -0.001883786037439119 -0.00052224830346582105 0 -0.0019076402959944355 -0.00046570924235145105 0 -0.0018843140439977926 -0.0015577019188288746 0 -0.0009123101238234278 -0.00080065095410103372 0 -0.0018453394304583494 -0.00041990289350782387 0 -0.0019076402959944355 -0.00046570924235145105 0 -0.0018614572968305813 -0.00048888925330378176 0 -0.0018453394304583494 -0.00041990289350782387 0 -0.0018614572968305813 -0.00048888925330378176 0 -0.0018172649410604827 -0.00052290190951682512 0 -0.0016045527560766342 -0.00037506584569949064 0 -0.0018874017334802118 -0.00048625969533458701 0 -0.0018842177907380723 -0.00024339972128257381 0 -0.0017982336496136276 -0.00032163488701749993 0 -0.0018172649410604827 -0.00052290190951682512 0 -0.0018559940249884253 -0.00052037565902472607 0 -0.0018614572968305813 -0.00048888925330378176 0 -0.0018172649410604827 -0.00052290190951682512 0 -0.001883786037439119 -0.00052224830346582105 0 -0.0018559940249884253 -0.00052037565902472607 0 -0.0018614572968305813 -0.00048888925330378176 0 -0.0017982336496136276 -0.00032163488701749993 0 -0.0017471618318823062 -0.00036409942459181922 0 -0.0018172649410604827 -0.00052290190951682512 0 -0.0016485078409099511 -0.00034023090595623875 0 -0.0016929442798047113 -0.00041089070694444056 0 -0.0016155887115256473 -0.00039292864380310763 0 -0.0016485078409099511 -0.00034023090595623875 0 -0.0016929442798047113 -0.00041089070694444056 0 -0.0017471618318823062 -0.00036409942459181922 0 -0.0016929442798047113 -0.00041089070694444056 0 -0.0017471618318823062 -0.00036409942459181922 0 -0.0017401597002646566 -0.00045753334716636324 0 -0.0017471618318823062 -0.00036409942459181922 0 -0.0017401597002646566 -0.00045753334716636324 0 -0.0018172649410604827 -0.00052290190951682512 0 -0.0016929442798047113 -0.00041089070694444056 0 -0.0017401597002646566 -0.00045753334716636324 0 -0.0017053691781947263 -0.00053210249032351856 0 -0.0016929442798047113 -0.00041089070694444056 0 -0.0017053691781947263 -0.00053210249032351856 0 -0.0016155887115256473 -0.00039292864380310763 0 -0.0017053691781947263 -0.00053210249032351856 0 -0.0018172649410604827 -0.00052290190951682512 0 -0.0018554714078358699 -0.0005486083324436759 0 -0.0022608116291019035 -0.0026092235757849223 0 -0.0021886589746066198 -0.0025422778364584181 0 -0.0022415016205614021 -0.0025483707197640785 0 -0.0019986567802045938 -0.0020980287075637663 0 -0.0020213083925810504 -0.0015300374965833328 0 -0.0017401597002646566 -0.00045753334716636324 0 -0.0017053691781947263 -0.00053210249032351856 0 -0.0018172649410604827 -0.00052290190951682512 0 -0.0022608116291019035 -0.0026092235757849223 0 -0.0022734108644857222 -0.0025718104524200913 0 -0.0022415016205614021 -0.0025483707197640785 0 -0.0022608116291019035 -0.0026092235757849223 0 -0.0022734108644857222 -0.0025718104524200913 0 -0.0023100941009184688 -0.0025836253555459564 0 -0.0019986567802045938 -0.0020980287075637663 0 -0.0023045926876875534 -0.0026764899819066647 0 -0.002139558043003564 -0.0025138492772362707 0 -0.002179865325263289 -0.0025227908146649171 0 -0.0021886589746066198 -0.0025422778364584181 0 -0.001883786037439119 -0.00052224830346582105 0 -0.0018559940249884253 -0.00052037565902472607 0 -0.0018554714078358699 -0.0005486083324436759 0 -0.0018559940249884253 -0.00052037565902472607 0 -0.0018172649410604827 -0.00052290190951682512 0 -0.0018554714078358699 -0.0005486083324436759 0 -0.0021821910177594445 -0.0025351908245779043 0 -0.002179865325263289 -0.0025227908146649171 0 -0.0021886589746066198 -0.0025422778364584181 0 -0.0022127026157930927 -0.0025282399163871145 0 -0.0022565240058592022 -0.0025057250961838451 0 -0.0022044231396979239 -0.0025009978538967064 0 -0.0021886589746066198 -0.0025422778364584181 0 -0.0022127026157930927 -0.0025282399163871145 0 -0.0021807179899478945 -0.0025281649111056647 0 -0.0021886589746066198 -0.0025422778364584181 0 -0.0022127026157930927 -0.0025282399163871145 0 -0.0022415016205614021 -0.0025483707197640785 0 -0.0022127026157930927 -0.0025282399163871145 0 -0.0022044231396979239 -0.0025009978538967064 0 -0.0021807179899478945 -0.0025281649111056647 0 -0.0022734108644857222 -0.0025718104524200913 0 -0.0022415016205614021 -0.0025483707197640785 0 -0.0022900088126210491 -0.00254109383855229 0 -0.0022127026157930927 -0.0025282399163871145 0 -0.0022415016205614021 -0.0025483707197640785 0 -0.0022565240058592022 -0.0025057250961838451 0 -0.0022415016205614021 -0.0025483707197640785 0 -0.0022565240058592022 -0.0025057250961838451 0 -0.0022900088126210491 -0.00254109383855229 0 -0.0022565240058592022 -0.0025057250961838451 0 -0.0022409130926316556 -0.0024607112264797798 0 -0.0022841622803659702 -0.0024683399269903785 0 -0.0021917173339378528 -0.0024585788730846765 0 -0.0022409130926316556 -0.0024607112264797798 0 -0.0022044231396979239 -0.0025009978538967064 0 -0.0022565240058592022 -0.0025057250961838451 0 -0.0022409130926316556 -0.0024607112264797798 0 -0.0022044231396979239 -0.0025009978538967064 0 -0.002194214283790429 -0.002394799230523219 0 -0.0022148010116101427 -0.002443780170018223 0 -0.0021917173339378528 -0.0024585788730846765 0 -0.0022044231396979239 -0.0025009978538967064 0 -0.0021664233806382412 -0.0025132145681713886 0 -0.0022111799944747618 -0.0023354243600740253 0 -0.0021991607322085034 -0.0023399367426885226 0 -0.0021946464889424553 -0.0023137703774796189 0 -0.0022111799944747618 -0.0023354243600740253 0 -0.0022108855341720504 -0.0023191807421329503 0 -0.0021946464889424553 -0.0023137703774796189 0 -0.0022111799944747618 -0.0023354243600740253 0 -0.0022245676460669831 -0.002324879348656396 0 -0.0022108855341720504 -0.0023191807421329503 0 -0.0022125664677128832 -0.002301514540370129 0 -0.0022108855341720504 -0.0023191807421329503 0 -0.0021946464889424553 -0.0023137703774796189 0 -0.0017637627137683861 -0.0021129863004024224 0 -0.0022148010116101427 -0.002443780170018223 0 -0.0022125664677128832 -0.002301514540370129 0 -0.0021923388078798549 -0.0022795435711034785 0 -0.0021946464889424553 -0.0023137703774796189 0 -0.0021723060126450601 -0.0025319045178181735 0 -0.0021664233806382412 -0.0025132145681713886 0 -0.0021807179899478945 -0.0025281649111056647 0 -0.0022044231396979239 -0.0025009978538967064 0 -0.0021664233806382412 -0.0025132145681713886 0 -0.0021807179899478945 -0.0025281649111056647 0 -0.0024883407649056678 -0.0025153606532182849 0 -0.002404795046423022 -0.0025902453053555196 0 -0.0025155161559674839 -0.0026107964823745659 0 -0.0024883407649056678 -0.0025153606532182849 0 -0.0024043495622045738 -0.0025120040853370169 0 -0.002404795046423022 -0.0025902453053555196 0 -0.0025966235214539618 -0.0024529171145355722 0 -0.0026162303674781445 -0.0025717679151502333 0 -0.0024883407649056678 -0.0025153606532182849 0 -0.0026162303674781445 -0.0025717679151502333 0 -0.0024883407649056678 -0.0025153606532182849 0 -0.0025155161559674839 -0.0026107964823745659 0 -0.0025966235214539618 -0.0024529171145355722 0 -0.0025693110496550447 -0.0023605776947947734 0 -0.0025050971970212244 -0.0024173029904556642 0 -0.0025966235214539618 -0.0024529171145355722 0 -0.0024883407649056678 -0.0025153606532182849 0 -0.0025050971970212244 -0.0024173029904556642 0 -0.0024883407649056678 -0.0025153606532182849 0 -0.0025050971970212244 -0.0024173029904556642 0 -0.0024356470427892023 -0.0024502630775626194 0 -0.0024883407649056678 -0.0025153606532182849 0 -0.0024356470427892023 -0.0024502630775626194 0 -0.0024043495622045738 -0.0025120040853370169 0 -0.0023932710859943867 -0.002433043507977138 0 -0.0024356470427892023 -0.0024502630775626194 0 -0.0023722516681487023 -0.0024663670552909581 0 -0.0023722516681487023 -0.0024663670552909581 0 -0.0023616431974996638 -0.0025032227078122405 0 -0.0023200262024392661 -0.0024930587571338324 0 -0.0024356470427892023 -0.0024502630775626194 0 -0.0023722516681487023 -0.0024663670552909581 0 -0.0024043495622045738 -0.0025120040853370169 0 -0.0023722516681487023 -0.0024663670552909581 0 -0.0023616431974996638 -0.0025032227078122405 0 -0.0024043495622045738 -0.0025120040853370169 0 -0.0022565240058592022 -0.0025057250961838451 0 -0.0022841622803659702 -0.0024683399269903785 0 -0.0023200262024392661 -0.0024930587571338324 0 -0.0023352384777438799 -0.0024482180403578016 0 -0.0022841622803659702 -0.0024683399269903785 0 -0.0023200262024392661 -0.0024930587571338324 0 -0.0023352384777438799 -0.0024482180403578016 0 -0.0023722516681487023 -0.0024663670552909581 0 -0.0023200262024392661 -0.0024930587571338324 0 -0.0022565240058592022 -0.0025057250961838451 0 -0.0023200262024392661 -0.0024930587571338324 0 -0.0022900088126210491 -0.00254109383855229 0 -0.0023200262024392661 -0.0024930587571338324 0 -0.0022900088126210491 -0.00254109383855229 0 -0.0023482659854501256 -0.0025438642952717062 0 -0.0023616431974996638 -0.0025032227078122405 0 -0.0023200262024392661 -0.0024930587571338324 0 -0.0023482659854501256 -0.0025438642952717062 0 -0.0022900088126210491 -0.00254109383855229 0 -0.0023482659854501256 -0.0025438642952717062 0 -0.0023100941009184688 -0.0025836253555459564 0 -0.0022734108644857222 -0.0025718104524200913 0 -0.0022900088126210491 -0.00254109383855229 0 -0.0023100941009184688 -0.0025836253555459564 0 -0.0024043495622045738 -0.0025120040853370169 0 -0.0023482659854501256 -0.0025438642952717062 0 -0.002404795046423022 -0.0025902453053555196 0 -0.0023616431974996638 -0.0025032227078122405 0 -0.0024043495622045738 -0.0025120040853370169 0 -0.0023482659854501256 -0.0025438642952717062 0 -0.0023482659854501256 -0.0025438642952717062 0 -0.002404795046423022 -0.0025902453053555196 0 -0.0023525588774907561 -0.0025882760051680904 0 -0.002404795046423022 -0.0025902453053555196 0 -0.0023491389308712462 -0.0026358281517983081 0 -0.0024533477669854238 -0.0026682559363692378 0 -0.0023306590397181633 -0.0026740490851929078 0 -0.0024271790461060086 -0.0026536573972200227 0 -0.002404795046423022 -0.0025902453053555196 0 -0.0023525588774907561 -0.0025882760051680904 0 -0.0023491389308712462 -0.0026358281517983081 0 -0.0019986567802045938 -0.0020980287075637663 0 -0.0023306590397181633 -0.0026740490851929078 0 -0.0022608116291019035 -0.0026092235757849223 0 -0.0023491389308712462 -0.0026358281517983081 0 -0.0023100941009184688 -0.0025836253555459564 0 -0.0023482659854501256 -0.0025438642952717062 0 -0.0023525588774907561 -0.0025882760051680904 0 -0.0023100941009184688 -0.0025836253555459564 0 -0.0023525588774907561 -0.0025882760051680904 0 -0.0023491389308712462 -0.0026358281517983081 0 -0.0023100941009184688 -0.0025836253555459564 0 -0.0017053691781947263 -0.00053210249032351856 0 -0.0016155887115256473 -0.00039292864380310763 0 -0.0014829637934341126 -0.00037918168731150749 0 -0.0019986567802045938 -0.0020980287075637663 0 -0.0018130760037232225 -0.001458747048366566 0 -0.0020023994436643719 -0.0025934110761928822 0 -0.0022390467265097163 -0.0026231968622744328 0 -0.0022561171770530256 -0.0027309754598423617 0 -0.0015464073334982859 -0.00033422260445343767 0 -0.0016155887115256473 -0.00039292864380310763 0 -0.0014829637934341126 -0.00037918168731150749 0 -0.0016485078409099511 -0.00034023090595623875 0 -0.0015464073334982859 -0.00033422260445343767 0 -0.0016155887115256473 -0.00039292864380310763 0 -0.0022390467265097163 -0.0026231968622744328 0 -0.0022561171770530256 -0.0027309754598423617 0 -0.0024533477669854238 -0.0026682559363692378 0 -0.0024533477669854238 -0.0026682559363692378 0 -0.002545106194449137 -0.0027348212758900488 0 -0.0024730846031360979 -0.0028381795553422988 0 -0.0022561171770530256 -0.0027309754598423617 0 -0.0024533477669854238 -0.0026682559363692378 0 -0.0024730846031360979 -0.0028381795553422988 0 -0.002404795046423022 -0.0025902453053555196 0 -0.0024533477669854238 -0.0026682559363692378 0 -0.0025155161559674839 -0.0026107964823745659 0 -0.0024533477669854238 -0.0026682559363692378 0 -0.0025155161559674839 -0.0026107964823745659 0 -0.002545106194449137 -0.0027348212758900488 0 -0.002644393748935118 -0.0026984963775953707 0 -0.0025155161559674839 -0.0026107964823745659 0 -0.002545106194449137 -0.0027348212758900488 0 -0.0026162303674781445 -0.0025717679151502333 0 -0.002644393748935118 -0.0026984963775953707 0 -0.0025155161559674839 -0.0026107964823745659 0 -0.002545106194449137 -0.0027348212758900488 0 -0.0026205570876279239 -0.0028015291663898022 0 -0.0024730846031360979 -0.0028381795553422988 0 -0.002644393748935118 -0.0026984963775953707 0 -0.002545106194449137 -0.0027348212758900488 0 -0.0026205570876279239 -0.0028015291663898022 0 -0.0026511399107293017 -0.0029202269318776104 0 -0.0026205570876279239 -0.0028015291663898022 0 -0.0024730846031360979 -0.0028381795553422988 0 -0.0019169554637925861 -0.001010260016810922 0 -0.0019409118684305237 -0.0016505346142897616 0 -0.0013356127553380667 -0.00027126343539535941 0 -0.0013321694204276231 -0.0001220529776363166 0 -0.001451723457280838 -0.00024416232053494654 0 -0.0015913479687390977 6.4926663854749351e-05 0 -0.0015861747585469582 4.3434292164515791e-05 0 -0.0015415036948546012 5.0331568210842523e-05 0 -0.0019169554637925861 -0.001010260016810922 0 -0.0013684426001367891 6.6074900164622818e-05 0 -0.0012019803758289622 -0.00019755215732985805 0 -0.0013356127553380667 -0.00027126343539535941 0 -0.0013321694204276231 -0.0001220529776363166 0 -0.0015464073334982859 -0.00033422260445343767 0 -0.0015667281286731688 -0.00024850731300677 0 -0.001451723457280838 -0.00024416232053494654 0 -0.0016148645169536764 -0.00018033760025265187 0 -0.0015667281286731688 -0.00024850731300677 0 -0.0015820564917386156 -0.00016190431986226147 0 -0.0017149484914900522 -0.00029414830422946366 0 -0.0016485078409099511 -0.00034023090595623875 0 -0.0015667281286731688 -0.00024850731300677 0 -0.0016485078409099511 -0.00034023090595623875 0 -0.0015464073334982859 -0.00033422260445343767 0 -0.0015667281286731688 -0.00024850731300677 0 -0.0015667281286731688 -0.00024850731300677 0 -0.001451723457280838 -0.00024416232053494654 0 -0.0015068202385955206 -0.00014671812596585537 0 -0.0015464073334982859 -0.00033422260445343767 0 -0.0014829637934341126 -0.00037918168731150749 0 -0.001451723457280838 -0.00024416232053494654 0 -0.0014829637934341126 -0.00037918168731150749 0 -0.0013356127553380667 -0.00027126343539535941 0 -0.001451723457280838 -0.00024416232053494654 0 -0.0018130760037232225 -0.001458747048366566 0 -0.0019409118684305237 -0.0016505346142897616 0 -0.0013321694204276231 -0.0001220529776363166 0 -0.001451723457280838 -0.00024416232053494654 0 -0.0015068202385955206 -0.00014671812596585537 0 -0.0013321694204276231 -0.0001220529776363166 0 -0.0015068202385955206 -0.00014671812596585537 0 -0.0014978974228541805 -2.5504999967228323e-05 0 -0.0015068202385955206 -0.00014671812596585537 0 -0.0015675031794999479 -9.4046085670958948e-05 0 -0.0014978974228541805 -2.5504999967228323e-05 0 -0.0015667281286731688 -0.00024850731300677 0 -0.0015068202385955206 -0.00014671812596585537 0 -0.0015820564917386156 -0.00016190431986226147 0 -0.0015068202385955206 -0.00014671812596585537 0 -0.0015820564917386156 -0.00016190431986226147 0 -0.0015675031794999479 -9.4046085670958948e-05 0 -0.0015474408741647815 -2.5643190171016089e-05 0 -0.0015675031794999479 -9.4046085670958948e-05 0 -0.0014978974228541805 -2.5504999967228323e-05 0 -0.0014978974228541805 -2.5504999967228323e-05 0 -0.0015109415489162298 4.5299093892728171e-06 0 -0.0015240909115005921 1.3176166002790629e-05 0 -0.0013684426001367891 6.6074900164622818e-05 0 -0.0015186963792753862 -4.3344501466798733e-05 0 -0.0014978974228541805 -2.5504999967228323e-05 0 -0.0015109415489162298 4.5299093892728171e-06 0 -0.0015188326840005436 1.3269072666803223e-05 0 -0.0015109415489162298 4.5299093892728171e-06 0 -0.001516329535536639 1.533331499163422e-05 0 -0.0015188326840005436 1.3269072666803223e-05 0 -0.0015474408741647815 -2.5643190171016089e-05 0 -0.0014978974228541805 -2.5504999967228323e-05 0 -0.0015188326840005436 1.3269072666803223e-05 0 -0.0015561283048768687 -4.5333135345757533e-07 0 -0.0015188326840005436 1.3269072666803223e-05 0 -0.0015324548103597614 2.3111873165912518e-05 0 -0.0015561283048768687 -4.5333135345757533e-07 0 -0.0015474408741647815 -2.5643190171016089e-05 0 -0.0015188326840005436 1.3269072666803223e-05 0 -0.0015861747585469582 4.3434292164515791e-05 0 -0.0015415036948546012 5.0331568210842523e-05 0 -0.0015538791356646462 2.8845647579097357e-05 0 -0.0015861747585469582 4.3434292164515791e-05 0 -0.0015538791356646462 2.8845647579097357e-05 0 -0.001570425806107535 2.7413956937745089e-05 0 -0.0015415036948546012 5.0331568210842523e-05 0 -0.0014978974228541805 -2.5504999967228323e-05 0 -0.0015240909115005921 1.3176166002790629e-05 0 -0.0015415036948546012 5.0331568210842523e-05 0 -0.0015538791356646462 2.8845647579097357e-05 0 -0.0015240909115005921 1.3176166002790629e-05 0 -0.0015538791356646462 2.8845647579097357e-05 0 -0.0015240909115005921 1.3176166002790629e-05 0 -0.0015324429139766519 1.7111553153136481e-05 0 -0.0015109415489162298 4.5299093892728171e-06 0 -0.0015240909115005921 1.3176166002790629e-05 0 -0.0015324429139766519 1.7111553153136481e-05 0 -0.0015109415489162298 4.5299093892728171e-06 0 -0.001516329535536639 1.533331499163422e-05 0 -0.0015324429139766519 1.7111553153136481e-05 0 -0.0015538791356646462 2.8845647579097357e-05 0 -0.0015324429139766519 1.7111553153136481e-05 0 -0.001570425806107535 2.7413956937745089e-05 0 -0.0015324429139766519 1.7111553153136481e-05 0 -0.001570425806107535 2.7413956937745089e-05 0 -0.0015497415709704776 1.8253698283305482e-05 0 -0.001570425806107535 2.7413956937745089e-05 0 -0.0015497415709704776 1.8253698283305482e-05 0 -0.0015857623306042561 2.2005269008646722e-05 0 -0.0015504253422188967 5.8333745347093639e-06 0 -0.001552657392269154 -5.0704685677883124e-06 0 -0.0015857623306042561 2.2005269008646722e-05 0 -0.0015504253422188967 5.8333745347093639e-06 0 -0.0015497415709704776 1.8253698283305482e-05 0 -0.0015857623306042561 2.2005269008646722e-05 0 -0.0015504253422188967 5.8333745347093639e-06 0 -0.001527712126034248 1.476061939777605e-05 0 -0.0015477599632934291 1.3792784330686e-06 0 -0.0015504253422188967 5.8333745347093639e-06 0 -0.0015497415709704776 1.8253698283305482e-05 0 -0.001527712126034248 1.476061939777605e-05 0 -0.0015324429139766519 1.7111553153136481e-05 0 -0.0015497415709704776 1.8253698283305482e-05 0 -0.001527712126034248 1.476061939777605e-05 0 -0.001516329535536639 1.533331499163422e-05 0 -0.0015324429139766519 1.7111553153136481e-05 0 -0.001527712126034248 1.476061939777605e-05 0 -0.001527712126034248 1.476061939777605e-05 0 -0.0015477599632934291 1.3792784330686e-06 0 -0.0015130508918064262 1.4122237189306829e-05 0 0.0011024695286082861 0.0015588062642820321 0 0.00099403499128422287 0.0015824935536385746 0 0.0010544637941071586 0.0016777215459500461 0 -0.00062738423127294918 0.00064194010171153971 0 -0.00019899899340283236 0.00078509822872800921 0 -0.00080850323005693967 0.00029848073032532854 0 -0.00062738423127294918 0.00064194010171153971 0 -0.0015186263032405734 2.870636527951078e-05 0 -0.0015122802364827949 2.8766363104037372e-05 0 -0.0015253048926638338 4.3706483788195355e-05 0 -0.0015324548103597614 2.3111873165912518e-05 0 -0.0015186263032405734 2.870636527951078e-05 0 -0.0015253048926638338 4.3706483788195355e-05 0 -0.0015188326840005436 1.3269072666803223e-05 0 -0.0015324548103597614 2.3111873165912518e-05 0 -0.0015186263032405734 2.870636527951078e-05 0 -0.0015188326840005436 1.3269072666803223e-05 0 -0.0015186263032405734 2.870636527951078e-05 0 -0.0015136666562017905 2.2703954138873351e-05 0 -0.0015186263032405734 2.870636527951078e-05 0 -0.0015122802364827949 2.8766363104037372e-05 0 -0.0015136666562017905 2.2703954138873351e-05 0 -0.001516329535536639 1.533331499163422e-05 0 -0.001527712126034248 1.476061939777605e-05 0 -0.0015136666562017905 2.2703954138873351e-05 0 -0.001527712126034248 1.476061939777605e-05 0 -0.0015136666562017905 2.2703954138873351e-05 0 -0.0015130508918064262 1.4122237189306829e-05 0 -0.001516329535536639 1.533331499163422e-05 0 -0.0015188326840005436 1.3269072666803223e-05 0 -0.0015136666562017905 2.2703954138873351e-05 0 -0.00019899899340283236 0.00078509822872800921 0 -0.00022509095630328119 0.0010260815583484743 0 -0.0015122802364827949 2.8766363104037372e-05 0 -0.0015136666562017905 2.2703954138873351e-05 0 -0.0015130508918064262 1.4122237189306829e-05 0 -0.0015122802364827949 2.8766363104037372e-05 0 -0.0015130508918064262 1.4122237189306829e-05 0 -0.001504046552349836 2.7990919967125931e-05 0 -0.0015122802364827949 2.8766363104037372e-05 0 -0.001504046552349836 2.7990919967125931e-05 0 -0.0015253048926638338 4.3706483788195355e-05 0 -0.0013542266459907865 0.00031833016218967155 0 -0.0015134500725709013 0.00021472645287227916 0 -0.0015253048926638338 4.3706483788195355e-05 0 -0.00022509095630328119 0.0010260815583484743 0 -0.0018561510832194991 -0.00036438596980085497 0 -0.00022509095630328119 0.0010260815583484743 0 0.0012592011176400389 0.002012395033633747 0 0.0011294088907078015 0.0018490556069655959 0 0.0011316597743384301 0.0018676599943834038 0 0.0011373381545105902 0.0018814199446300511 0 0.0011294088907078015 0.0018490556069655959 0 0.0011316597743384301 0.0018676599943834038 0 0.0011149100080177789 0.0018520802334116638 0 0.00099403499128422287 0.0015824935536385746 0 0.00086662794762337454 0.0016006527912493167 0 0.00095921517526225948 0.0017489290824274702 0 0.00099403499128422287 0.0015824935536385746 0 0.00095921517526225948 0.0017489290824274702 0 0.0010544637941071586 0.0016777215459500461 0 0.0011373381545105902 0.0018814199446300511 0 0.0011403483990889936 0.0018752131523954692 0 0.0011456922132654793 0.0018747902525113862 0 0.0011316597743384301 0.0018676599943834038 0 0.0011373381545105902 0.0018814199446300511 0 0.0011403483990889936 0.0018752131523954692 0 -0.0016968656749211085 3.6877654807221276e-05 0 -0.0016955590284863616 0.00014365262057659646 0 -0.0016503961891365874 8.3355329879360079e-05 0 0.0011024695286082861 0.0015588062642820321 0 0.0011310251737298115 0.0017056598289716697 0 0.0010544637941071586 0.0016777215459500461 0 -0.00062738423127294918 0.00064194010171153971 0 -0.00024241729266935748 0.00096489766221774422 0 0.00095921517526225948 0.0017489290824274702 0 0.0010544637941071586 0.0016777215459500461 0 0.0010820135231776179 0.0017877671814038505 0 -0.00024241729266935748 0.00096489766221774422 0 -0.0002983217373466811 0.0010398167114741117 0 0.0011310251737298115 0.0017056598289716697 0 0.0010820135231776179 0.0017877671814038505 0 0.0011210477667952955 0.0018279347568810373 0 0.0011310251737298115 0.0017056598289716697 0 0.0010544637941071586 0.0016777215459500461 0 0.0010820135231776179 0.0017877671814038505 0 0.00109858997108305 0.0018342703039251622 0 0.0011210477667952955 0.0018279347568810373 0 0.0010967452978471416 0.0018398356849796253 0 0.0010820135231776179 0.0017877671814038505 0 0.00109858997108305 0.0018342703039251622 0 0.0011210477667952955 0.0018279347568810373 0 0.0011210477667952955 0.0018279347568810373 0 0.0010967452978471416 0.0018398356849796253 0 0.0010601991986899388 0.0018231311626876105 0 0.0010967452978471416 0.0018398356849796253 0 0.0010977977448707787 0.0018597710800150413 0 0.0011342942031808258 0.0018645566242189964 0 0.00109858997108305 0.0018342703039251622 0 0.0010967452978471416 0.0018398356849796253 0 0.0010977977448707787 0.0018597710800150413 0 0.0010820135231776179 0.0017877671814038505 0 0.00109858997108305 0.0018342703039251622 0 0.0010977977448707787 0.0018597710800150413 0 0.0012592011176400389 0.002012395033633747 0 0.0010168220299853724 0.0017597510875481861 0 0.0011373381545105902 0.0018814199446300511 0 0.0011456922132654793 0.0018747902525113862 0 0.0010977977448707787 0.0018597710800150413 0 0.00095921517526225948 0.0017489290824274702 0 0.0010820135231776179 0.0017877671814038505 0 0.0010977977448707787 0.0018597710800150413 0 0.0011403483990889936 0.0018752131523954692 0 0.0011456922132654793 0.0018747902525113862 0 0.0011542961727070075 0.0018698090692562982 0 0.0011456922132654793 0.0018747902525113862 0 0.0011574010973648481 0.0018714718106914016 0 0.0011652615436670202 0.0018776388374761443 0 0.0011574010973648481 0.0018714718106914016 0 0.0010977977448707787 0.0018597710800150413 0 0.0011342942031808258 0.0018645566242189964 0 0.0011456922132654793 0.0018747902525113862 0 0.0011574010973648481 0.0018714718106914016 0 0.0010977977448707787 0.0018597710800150413 0 0.0011342942031808258 0.0018645566242189964 0 0.0011810149898825782 0.0018754856916415282 0 0.0011661074226240104 0.0018722908215887237 0 0.0011574010973648481 0.0018714718106914016 0 0.0011810149898825782 0.0018754856916415282 0 0.0012092494117045723 0.0018816132262099139 0 0.0011574010973648481 0.0018714718106914016 0 0.0011342942031808258 0.0018645566242189964 0 0.0011810149898825782 0.0018754856916415282 0 0.0011810149898825782 0.0018754856916415282 0 0.0012109363567513885 0.0018906280803982359 0 0.0012011678143217003 0.0018777436338938693 0 0.0011342942031808258 0.0018645566242189964 0 0.0011661074226240104 0.0018722908215887237 0 0.0011376108953368308 0.0018659658860676403 0 0.0011810149898825782 0.0018754856916415282 0 0.0011661074226240104 0.0018722908215887237 0 0.0012011678143217003 0.0018777436338938693 0 0.0011661074226240104 0.0018722908215887237 0 0.0011376108953368308 0.0018659658860676403 0 0.0011704531690953294 0.0018550738046511097 0 0.0010976587502050121 0.0017849467889536393 0 0.0010181015803908833 0.0017576494677466244 0 0.0010601991986899388 0.0018231311626876105 0 0.0010976587502050121 0.0017849467889536393 0 0.0010761755283326055 0.0017348220980056236 0 0.0010181015803908833 0.0017576494677466244 0 0.0010967452978471416 0.0018398356849796253 0 0.0010976587502050121 0.0017849467889536393 0 0.0010601991986899388 0.0018231311626876105 0 0.0010986202555649974 0.0018373379182312435 0 0.0011150108391985894 0.0018410431465903979 0 0.0010967452978471416 0.0018398356849796253 0 0.0011342942031808258 0.0018645566242189964 0 0.0011376108953368308 0.0018659658860676403 0 0.0012056962121258571 0.0018815133380668308 0 0.0012225460347876902 0.0018724988458313073 0 0.0012143209444483193 0.0018982630160919666 0 0.0012056962121258571 0.0018815133380668308 0 0.0012225460347876902 0.0018724988458313073 0 0.0012137532289896137 0.0018626518802099803 0 0.0013299360337977757 0.0019529857484770622 0 0.0012576141717965154 0.0020776767417586828 0 0.0013495799465305515 0.0022520664955550012 0 0.0013387236382123974 0.0022072451098584319 0 0.0013765312574536971 0.0022188041333365736 0 0.0012056962121258571 0.0018815133380668308 0 0.0011880973509229668 0.0018675480411400561 0 0.0012137532289896137 0.0018626518802099803 0 0.0012056962121258571 0.0018815133380668308 0 0.0011880973509229668 0.0018675480411400561 0 0.0011878269260400523 0.0019035721127907651 0 0.0012056962121258571 0.0018815133380668308 0 0.0011878269260400523 0.0019035721127907651 0 0.0012143209444483193 0.0018982630160919666 0 0.0011878269260400523 0.0019035721127907651 0 0.0012143209444483193 0.0018982630160919666 0 0.001212729038359792 0.0019294308073885768 0 0.0012143209444483193 0.0018982630160919666 0 0.0012109363567513885 0.0018906280803982359 0 0.0012092494117045723 0.0018816132262099139 0 0.0011810149898825782 0.0018754856916415282 0 0.0012109363567513885 0.0018906280803982359 0 0.0012092494117045723 0.0018816132262099139 0 0.0012225460347876902 0.0018724988458313073 0 0.0012092494117045723 0.0018816132262099139 0 0.0012581644944713937 0.0018412030256140834 0 0.0012225460347876902 0.0018724988458313073 0 0.0012143209444483193 0.0018982630160919666 0 0.0012092494117045723 0.0018816132262099139 0 0.0012106502608659414 0.0018827762297569715 0 0.0012027420011911599 0.0018362702573207774 0 0.0012225460347876902 0.0018724988458313073 0 0.0012581644944713937 0.0018412030256140834 0 0.0012412775637566408 0.0018405631810253259 0 0.0011574010973648481 0.0018714718106914016 0 0.0012092494117045723 0.0018816132262099139 0 0.0011652615436670202 0.0018776388374761443 0 0.0012092494117045723 0.0018816132262099139 0 0.0011606698638627216 0.001880161574359445 0 0.0011652615436670202 0.0018776388374761443 0 0.0011456922132654793 0.0018747902525113862 0 0.0011652615436670202 0.0018776388374761443 0 0.0011542961727070075 0.0018698090692562982 0 0.0011606698638627216 0.001880161574359445 0 0.0011652615436670202 0.0018776388374761443 0 0.0011542961727070075 0.0018698090692562982 0 0.0012581644944713937 0.0018412030256140834 0 0.0012625972791326283 0.0018207664111789849 0 0.0012412775637566408 0.0018405631810253259 0 0.0011606698638627216 0.001880161574359445 0 0.0011542961727070075 0.0018698090692562982 0 0.0011190500171226795 0.0018475384223884952 0 0.0012027420011911599 0.0018362702573207774 0 0.0012299106146864795 0.0019151393363791816 0 0.0012581644944713937 0.0018412030256140834 0 0.0012625972791326283 0.0018207664111789849 0 0.0012720508238185913 0.0018074331518642308 0 0.0012625972791326283 0.0018207664111789849 0 0.0012761622833087347 0.0018037303819178369 0 0.0012720508238185913 0.0018074331518642308 0 0.0012761622833087347 0.0018037303819178369 0 0.0012412775637566408 0.0018405631810253259 0 0.0012123920874790659 0.0018372955456124938 0 0.0012625972791326283 0.0018207664111789849 0 0.0012761622833087347 0.0018037303819178369 0 0.0012412775637566408 0.0018405631810253259 0 0.0012761622833087347 0.0018037303819178369 0 0.0013408137981123654 0.0017930863904499932 0 0.001329665306092508 0.0017994866475831944 0 0.0012717183016646089 0.0018142942694164268 0 0.0012801225786695813 0.0018083365420824235 0 0.0012225460347876902 0.0018724988458313073 0 0.0012412775637566408 0.0018405631810253259 0 0.0012137532289896137 0.0018626518802099803 0 0.0012412775637566408 0.0018405631810253259 0 0.0012137532289896137 0.0018626518802099803 0 0.0012123920874790659 0.0018372955456124938 0 0.0013665636482054159 0.0018096315779081485 0 0.0013643050905436359 0.0018101093855427668 0 0.0013408137981123654 0.0017930863904499932 0 0.0013299360337977757 0.0019529857484770622 0 0.0013375904016570046 0.0018241245849724944 0 0.0011880973509229668 0.0018675480411400561 0 0.0012137532289896137 0.0018626518802099803 0 0.0012123920874790659 0.0018372955456124938 0 0.0013299360337977757 0.0019529857484770622 0 0.0012801225786695813 0.0018083365420824235 0 0.0013643050905436359 0.0018101093855427668 0 0.0013408137981123654 0.0017930863904499932 0 0.0013528817754664367 0.0017997909530992641 0 0.0013528817754664367 0.0017997909530992641 0 0.001329665306092508 0.0017994866475831944 0 0.0013534618622678238 0.001795692381272568 0 0.0013408137981123654 0.0017930863904499932 0 0.0013528817754664367 0.0017997909530992641 0 0.001329665306092508 0.0017994866475831944 0 0.001329665306092508 0.0017994866475831944 0 0.0013298633280363174 0.0018012198065489105 0 0.0013534618622678238 0.001795692381272568 0 0.001329665306092508 0.0017994866475831944 0 0.0013298633280363174 0.0018012198065489105 0 0.001303601724722572 0.0018080119537292451 0 0.0012761622833087347 0.0018037303819178369 0 0.001303601724722572 0.0018080119537292451 0 0.0012860546258922506 0.0018123596572516148 0 0.0012761622833087347 0.0018037303819178369 0 0.001329665306092508 0.0017994866475831944 0 0.001303601724722572 0.0018080119537292451 0 0.0012761622833087347 0.0018037303819178369 0 0.0012860546258922506 0.0018123596572516148 0 0.0012720508238185913 0.0018074331518642308 0 0.0013298633280363174 0.0018012198065489105 0 0.001303601724722572 0.0018080119537292451 0 0.0013011819648178311 0.0018223424369687364 0 0.001303601724722572 0.0018080119537292451 0 0.0012860546258922506 0.0018123596572516148 0 0.0013011819648178311 0.0018223424369687364 0 0.001373595250460495 0.0016990011995695437 0 0.0014200663053936156 0.0015234192211051245 0 0.0013011819648178311 0.0018223424369687364 0 0.0012841308647332053 0.0018199142192693444 0 0.0012978820909537387 0.0018292087125286315 0 0.0012860546258922506 0.0018123596572516148 0 0.0013011819648178311 0.0018223424369687364 0 0.0012841308647332053 0.0018199142192693444 0 0.0012841308647332053 0.0018199142192693444 0 0.0012978820909537387 0.0018292087125286315 0 0.0012744018910136969 0.0018292646703789229 0 0.0014200663053936156 0.0015234192211051245 0 0.00088456109393190757 0.0013863953909887608 0 0.0014200663053936156 0.0015234192211051245 0 0.0015394013780974578 0.0017410799892308743 0 0.0013011819648178311 0.0018223424369687364 0 0.0012996524580386507 0.0018318572862008578 0 0.0013500250284378787 0.0017990990124847296 0 0.0019880725292177157 0.0015755105326694064 0 0.0017952691613926863 0.0014968088938952513 0 0.0016459347242648128 0.0016540424306180947 0 0.0013298633280363174 0.0018012198065489105 0 0.0013011819648178311 0.0018223424369687364 0 0.0013500250284378787 0.0017990990124847296 0 0.0011403483990889936 0.0018752131523954692 0 0.0011542961727070075 0.0018698090692562982 0 0.0011302452049820014 0.0018713940190561906 0 0.0011501089206590518 0.0018200758437779117 0 0.0011532730452782295 0.0019721736340232994 0 0.0011542961727070075 0.0018698090692562982 0 0.0011598094886497022 0.0018134758340558755 0 0.0011190500171226795 0.0018475384223884952 0 0.0011316597743384301 0.0018676599943834038 0 0.0011403483990889936 0.0018752131523954692 0 0.0011302452049820014 0.0018713940190561906 0 0.0011598094886497022 0.0018134758340558755 0 0.0011190500171226795 0.0018475384223884952 0 0.0010914575991043283 0.0017506260642818974 0 0.0012860546258922506 0.0018123596572516148 0 0.0012841308647332053 0.0018199142192693444 0 0.0012720508238185913 0.0018074331518642308 0 0.0012841308647332053 0.0018199142192693444 0 0.0012720508238185913 0.0018074331518642308 0 0.0012744018910136969 0.0018292646703789229 0 0.00088456109393190757 0.0013863953909887608 0 0.00014258193505271583 0.0010834220586158311 0 0.0012299106146864795 0.0019151393363791816 0 0.00088456109393190757 0.0013863953909887608 0 0.0011532730452782295 0.0019721736340232994 0 0.00014258193505271583 0.0010834220586158311 0 0.0011316597743384301 0.0018676599943834038 0 0.0011302452049820014 0.0018713940190561906 0 0.0011149100080177789 0.0018520802334116638 0 0.0011598094886497022 0.0018134758340558755 0 0.0010914575991043283 0.0017506260642818974 0 0.0011531265855615888 0.0017366438340285749 0 -0.0015938320162304156 0.00036534139355891309 0 -0.0015134500725709013 0.00021472645287227916 0 -0.0016036175338362908 0.00011335736383468409 0 0.00014258193505271583 0.0010834220586158311 0 -0.0006938985940627818 0.00026073900238227142 0 -0.0013542266459907865 0.00031833016218967155 0 -0.0015938320162304156 0.00036534139355891309 0 -0.0015134500725709013 0.00021472645287227916 0 0.00024582167779505854 0.00080648151863547892 0 0.00014551749522033269 0.00070863124172464154 0 0.00023502797845651339 0.00058927674244691657 0 -0.00022509095630328119 0.0010260815583484743 0 0.00014258193505271583 0.0010834220586158311 0 0.00088456109393190757 0.0013863953909887608 0 0.00053932355399192674 0.00069661107223219644 0 6.6439996923703696e-05 0.00084240057523918288 0 0.00014551749522033269 0.00070863124172464154 0 3.3685971232485089e-05 0.00059747309912909518 0 0.0011685423015378551 0.001290216621588856 0 0.0011237934367136217 0.00094399074113396401 0 0.00099311636225534036 0.00096464874532285435 0 6.6439996923703696e-05 0.00084240057523918288 0 0.00024582167779505854 0.00080648151863547892 0 0.00014551749522033269 0.00070863124172464154 0 0.00014551749522033269 0.00070863124172464154 0 3.3685971232485089e-05 0.00059747309912909518 0 0.00023502797845651339 0.00058927674244691657 0 3.3685971232485089e-05 0.00059747309912909518 0 9.3367369196374728e-05 0.00047711128607394682 0 0.00023502797845651339 0.00058927674244691657 0 9.4423986332769502e-06 0.00036528130249734305 0 3.3685971232485089e-05 0.00059747309912909518 0 9.3367369196374728e-05 0.00047711128607394682 0 0.00082219450220596003 0.00050571968316383319 0 0.00053932355399192674 0.00069661107223219644 0 -0.0015933546228209291 -3.6150204400033382e-05 0 -0.0016036175338362908 0.00011335736383468409 0 -0.0015253048926638338 4.3706483788195355e-05 0 -0.0011720847707158357 0.00018536551463883399 0 -0.0006938985940627818 0.00026073900238227142 0 0.0002230101043132824 0.00036285588116349567 0 0.00023502797845651339 0.00058927674244691657 0 0.00021100847043276704 0.0004424747365306301 0 9.3367369196374728e-05 0.00047711128607394682 0 0.00023502797845651339 0.00058927674244691657 0 0.00021100847043276704 0.0004424747365306301 0 -0.0015933546228209291 -3.6150204400033382e-05 0 -0.0015324548103597614 2.3111873165912518e-05 0 -0.0015253048926638338 4.3706483788195355e-05 0 -0.0015134500725709013 0.00021472645287227916 0 -0.0016036175338362908 0.00011335736383468409 0 -0.0015253048926638338 4.3706483788195355e-05 0 0.0019062041969786538 0.0012954358350317392 0 0.0017952691613926863 0.0014968088938952513 0 0.0015532342248940185 0.0014029093318157588 0 0.0018928421911380633 0.0012969879190471646 0 0.0016331501349376289 0.0013281038177963009 0 0.0019880725292177157 0.0015755105326694064 0 0.0017952691613926863 0.0014968088938952513 0 0.0019342450358927018 0.0014031073020460848 0 0.0019062041969786538 0.0012954358350317392 0 0.0017952691613926863 0.0014968088938952513 0 0.0019342450358927018 0.0014031073020460848 0 0.0014200663053936156 0.0015234192211051245 0 0.0015810812261536312 0.0011329501327608951 0 0.00092424177640667508 0.0013364592707576638 0 0.0011685423015378551 0.001290216621588856 0 0.00099311636225534036 0.00096464874532285435 0 0.0019880725292177157 0.0015755105326694064 0 0.0019342450358927018 0.0014031073020460848 0 0.0020348459242111611 0.0012502754985893795 0 0.0019062041969786538 0.0012954358350317392 0 0.0019342450358927018 0.0014031073020460848 0 0.0020348459242111611 0.0012502754985893795 0 0.0010761627964409692 0.00059389596757393676 0 0.0011237934367136217 0.00094399074113396401 0 0.00099311636225534036 0.00096464874532285435 0 0.0020683973151334424 0.0010075315472271593 0 0.0020348459242111611 0.0012502754985893795 0 0.0019132053473002251 0.0010961363171855681 0 0.00082219450220596003 0.00050571968316383319 0 0.0015810812261536312 0.0011329501327608951 0 0.0019062041969786538 0.0012954358350317392 0 0.0020348459242111611 0.0012502754985893795 0 0.0019132053473002251 0.0010961363171855681 0 0.0017237814490452194 0.0010197655635566139 0 0.0019132053473002251 0.0010961363171855681 0 0.001759404377755051 0.0011533020762240528 0 0.0019062041969786538 0.0012954358350317392 0 0.001759404377755051 0.0011533020762240528 0 0.0016746062821361982 0.0012517588506391769 0 0.0019062041969786538 0.0012954358350317392 0 0.0019132053473002251 0.0010961363171855681 0 0.001759404377755051 0.0011533020762240528 0 0.0015894715261590908 0.0010710975830800829 0 0.0017237814490452194 0.0010197655635566139 0 0.001759404377755051 0.0011533020762240528 0 0.0015894715261590908 0.0010710975830800829 0 0.001759404377755051 0.0011533020762240528 0 0.0016746062821361982 0.0012517588506391769 0 0.0017952691613926863 0.0014968088938952513 0 0.0015532342248940185 0.0014029093318157588 0 0.0016459347242648128 0.0016540424306180947 0 0.0016331501349376289 0.0013281038177963009 0 0.0013481597795481221 0.0013581409351629086 0 0.0015532342248940185 0.0014029093318157588 0 0.0012934555232835677 0.0014871499944615644 0 0.0014718864056612302 0.0015767076117727049 0 0.0015894715261590908 0.0010710975830800829 0 0.0016746062821361982 0.0012517588506391769 0 0.001473053036251002 0.0012463615627761795 0 0.001401185470927399 0.0010409163606942885 0 0.0015894715261590908 0.0010710975830800829 0 0.001473053036251002 0.0012463615627761795 0 0.001401185470927399 0.0010409163606942885 0 0.0013246797311252678 0.0011404037224405676 0 0.001473053036251002 0.0012463615627761795 0 0.001260944801193001 0.001008059484063369 0 0.001401185470927399 0.0010409163606942885 0 0.0013246797311252678 0.0011404037224405676 0 0.0012934555232835677 0.0014871499944615644 0 0.0011666518983990397 0.0016507243682499025 0 0.0010860309131700667 0.0015219407427053782 0 0.0013246797311252678 0.0011404037224405676 0 0.001473053036251002 0.0012463615627761795 0 0.0012762466277034584 0.0012554519323792542 0 0.0013481597795481221 0.0013581409351629086 0 0.0013502109776250327 0.0014582838521317611 0 0.0012934555232835677 0.0014871499944615644 0 0.0012724364020543846 0.0016658361259934023 0 0.001350727929789785 0.0017217683504660325 0 0.0012934555232835677 0.0014871499944615644 0 0.0012724364020543846 0.0016658361259934023 0 0.0011666518983990397 0.0016507243682499025 0 0.0013439191298304 0.0018596817720395306 0 0.0014172434820987942 0.0019687323859869437 0 0.0014425349145173946 0.0018675384268057266 0 0.001274683907920502 0.0017822862363661774 0 0.0013502109776250327 0.0014582838521317611 0 0.0012724364020543846 0.0016658361259934023 0 0.0011666518983990397 0.0016507243682499025 0 0.0012808858102844915 0.0017519316715786102 0 0.0013439191298304 0.0018596817720395306 0 0.0013712308635672676 0.0017984205788946397 0 0.0014425349145173946 0.0018675384268057266 0 0.0013712308635672676 0.0017984205788946397 0 0.0013579488464853199 0.0017476553601379725 0 0.0014446274184914672 0.0017683516887182522 0 0.001274683907920502 0.0017822862363661774 0 0.0012659562677554538 0.001742510608222323 0 0.0013712308635672676 0.0017984205788946397 0 0.0013579488464853199 0.0017476553601379725 0 0.0012808858102844915 0.0017519316715786102 0 0.0013439191298304 0.0018596817720395306 0 0.0013712308635672676 0.0017984205788946397 0 0.0012808858102844915 0.0017519316715786102 0 0.0013579488464853199 0.0017476553601379725 0 0.0012808858102844915 0.0017519316715786102 0 0.0012896465943557551 0.0017397690785653772 0 0.0013579488464853199 0.0017476553601379725 0 0.0013891375853707724 0.0017245462286038548 0 0.0012896465943557551 0.0017397690785653772 0 0.0012724364020543846 0.0016658361259934023 0 0.0012808858102844915 0.0017519316715786102 0 0.001350727929789785 0.0017217683504660325 0 0.0012808858102844915 0.0017519316715786102 0 0.001350727929789785 0.0017217683504660325 0 0.0013440733390802278 0.0018055095172096799 0 0.0013555229012015028 0.0017798349946760294 0 0.001350727929789785 0.0017217683504660325 0 0.0013440733390802278 0.0018055095172096799 0 0.0013298633280363174 0.0018012198065489105 0 0.0013555229012015028 0.0017798349946760294 0 0.0013500250284378787 0.0017990990124847296 0 0.0013555229012015028 0.0017798349946760294 0 0.0013500250284378787 0.0017990990124847296 0 0.001350727929789785 0.0017217683504660325 0 0.0013298633280363174 0.0018012198065489105 0 0.0013555229012015028 0.0017798349946760294 0 0.0013534618622678238 0.001795692381272568 0 0.0015532342248940185 0.0014029093318157588 0 0.0016459347242648128 0.0016540424306180947 0 0.0014718864056612302 0.0015767076117727049 0 0.0016459347242648128 0.0016540424306180947 0 0.001350727929789785 0.0017217683504660325 0 0.0014718864056612302 0.0015767076117727049 0 0.0012934555232835677 0.0014871499944615644 0 0.001350727929789785 0.0017217683504660325 0 0.0014718864056612302 0.0015767076117727049 0 0.0015394013780974578 0.0017410799892308743 0 0.0013366721007955294 0.0017252655214919262 0 0.0026896262226950162 0.0003383215208110309 0 0.0023894419597710161 0.00038616089532712844 0 0.0024877792930829133 0.00017031470975705605 0 0.0026896262226950162 0.0003383215208110309 0 0.0024877792930829133 0.00017031470975705605 0 0.0028305730625170868 0.00013019920506878159 0 0.0021561819501853593 0.0011196376839095106 0 0.0028222204947854169 0.00092546382835785633 0 0.0024941182924387325 0.0005230215330048007 0 0.0026896262226950162 0.0003383215208110309 0 0.0023894419597710161 0.00038616089532712844 0 0.0024941182924387325 0.0005230215330048007 0 0.0026702135094430401 0.00058404940555565254 0 0.0026896262226950162 0.0003383215208110309 0 0.0023472952176039684 0.00054852054729488805 0 0.0024941182924387325 0.0005230215330048007 0 0.0023894419597710161 0.00038616089532712844 0 0.0021561819501853593 0.0011196376839095106 0 0.0018240526855433066 0.0011939139875463776 0 0.0023894419597710161 0.00038616089532712844 0 0.0024877792930829133 0.00017031470975705605 0 0.0021617005553843647 0.00021104705032657479 0 0.001793236638372938 0.00076775106169026499 0 0.0018240526855433066 0.0011939139875463776 0 0.0021791192675762851 0.00053311615791900289 0 0.0023472952176039684 0.00054852054729488805 0 0.0023894419597710161 0.00038616089532712844 0 0.0021791192675762851 0.00053311615791900289 0 0.0023894419597710161 0.00038616089532712844 0 0.0021617005553843647 0.00021104705032657479 0 0.0015673201808365145 0.00095218901371888257 0 0.001575744453204482 0.0011980416352091743 0 0.0016396814353842187 0.0010694104587251061 0 0.001260944801193001 0.001008059484063369 0 0.0013246797311252678 0.0011404037224405676 0 0.0012123749481730631 0.0011501584295320825 0 0.001260944801193001 0.001008059484063369 0 0.0011496534125296103 0.0010412502302638675 0 0.0012123749481730631 0.0011501584295320825 0 0.001793236638372938 0.00076775106169026499 0 0.0014180023764456139 0.0010849604803937003 0 0.0018240526855433066 0.0011939139875463776 0 0.0013502109776250327 0.0014582838521317611 0 0.0015392210028188575 0.0019579664715908968 0 0.0014172434820987942 0.0019687323859869437 0 0.0014425349145173946 0.0018675384268057266 0 0.0013246797311252678 0.0011404037224405676 0 0.0012123749481730631 0.0011501584295320825 0 0.0012762466277034584 0.0012554519323792542 0 0.001575744453204482 0.0011980416352091743 0 0.0016396814353842187 0.0010694104587251061 0 0.0017113324087687373 0.0011864399515990284 0 0.0014180023764456139 0.0010849604803937003 0 0.0013502109776250327 0.0014582838521317611 0 0.0015392210028188575 0.0019579664715908968 0 0.0014425349145173946 0.0018675384268057266 0 0.0015368394111655525 0.0018497721459958965 0 0.0014425349145173946 0.0018675384268057266 0 0.0014446274184914672 0.0017683516887182522 0 0.0015368394111655525 0.0018497721459958965 0 0.0013712308635672676 0.0017984205788946397 0 0.0014425349145173946 0.0018675384268057266 0 0.0014446274184914672 0.0017683516887182522 0 0.0013579488464853199 0.0017476553601379725 0 0.0013891375853707724 0.0017245462286038548 0 0.0014446274184914672 0.0017683516887182522 0 0.0013891375853707724 0.0017245462286038548 0 0.0014446274184914672 0.0017683516887182522 0 0.0014762873920343349 0.0016678857203347717 0 0.0014446274184914672 0.0017683516887182522 0 0.001548804913991458 0.0017223596337917174 0 0.0014762873920343349 0.0016678857203347717 0 0.0014446274184914672 0.0017683516887182522 0 0.001548804913991458 0.0017223596337917174 0 0.0015368394111655525 0.0018497721459958965 0 0.001548804913991458 0.0017223596337917174 0 0.0015670125126170812 0.0018894631717183388 0 0.0017593410939396909 0.0018306968769130356 0 0.001548804913991458 0.0017223596337917174 0 0.0017593410939396909 0.0018306968769130356 0 0.0018092070207192926 0.0016736432598096645 0 0.0015480346325756279 0.0017039507660574114 0 0.0015694842088631584 0.0019892742272610304 0 0.0015295639264935553 0.0018760220744887086 0 0.0014701313987443793 0.0018131375134988576 0 0.001548804913991458 0.0017223596337917174 0 0.0018092070207192926 0.0016736432598096645 0 0.0014762873920343349 0.0016678857203347717 0 0.0019189263921992742 0.0020430250283470148 0 0.0015781214955719689 0.002070925874345719 0 0.0015670125126170812 0.0018894631717183388 0 0.0018240526855433066 0.0011939139875463776 0 0.0015694842088631584 0.0019892742272610304 0 0.0019189263921992742 0.0020430250283470148 0 0.0015670125126170812 0.0018894631717183388 0 0.0017593410939396909 0.0018306968769130356 0 0.0019189263921992742 0.0020430250283470148 0 0.0017593410939396909 0.0018306968769130356 0 0.0019625982314523042 0.0018311084524404609 0 0.0017593410939396909 0.0018306968769130356 0 0.0018092070207192926 0.0016736432598096645 0 0.0019625982314523042 0.0018311084524404609 0 0.0015295639264935553 0.0018760220744887086 0 0.0030289468158864017 0.0017087962451577871 0 0.0018092070207192926 0.0016736432598096645 0 0.0019625982314523042 0.0018311084524404609 0 0.0021586581450279735 0.0017107964771919165 0 0.0019625982314523042 0.0018311084524404609 0 0.0022792766387125713 0.0020062088841580859 0 0.0021586581450279735 0.0017107964771919165 0 0.0019189263921992742 0.0020430250283470148 0 0.0019625982314523042 0.0018311084524404609 0 0.0022792766387125713 0.0020062088841580859 0 0.0022976604195414445 0.0016139140886599107 0 0.0032885572771480477 0.001676204980605428 0 0.0018443325821390607 0.0015632672019463023 0 0.0019535574298866166 0.0018398573260332948 0 0.0016315216514575512 0.0017340050056156029 0 0.0044066333083416578 0.0012558243903262936 0 0.0044913036139980394 0.0014265475523833088 0 0.0045951441297870264 0.0012881968878793656 0 0.0016399078702752112 0.0020544608833931292 0 0.0019535574298866166 0.0018398573260332948 0 0.0020743618414409168 0.0021257987470545549 0 0.0032885572771480477 0.001676204980605428 0 0.0030289468158864017 0.0017087962451577871 0 0.0019535574298866166 0.0018398573260332948 0 0.0016303384093805065 0.0018932009172030616 0 0.0016315216514575512 0.0017340050056156029 0 0.0016399078702752112 0.0020544608833931292 0 0.0019535574298866166 0.0018398573260332948 0 0.0016303384093805065 0.0018932009172030616 0 0.0016399078702752112 0.0020544608833931292 0 0.0016303384093805065 0.0018932009172030616 0 0.0014493714503702431 0.0019084531897620171 0 0.0016303384093805065 0.0018932009172030616 0 0.0016315216514575512 0.0017340050056156029 0 0.0014493714503702431 0.0019084531897620171 0 0.0014650009154088212 0.0019267600161608938 0 0.0014343540616133072 0.0019306372160613067 0 0.0014380217299383988 0.0019273201408287152 0 0.0022976604195414445 0.0016139140886599107 0 0.0014547784029817446 0.0018976795244471181 0 0.0014343540616133072 0.0019306372160613067 0 0.0014380217299383988 0.0019273201408287152 0 0.0014320568601671171 0.0019284575042193845 0 0.0014178984291992496 0.0019302603516961857 0 0.0014452038361251623 0.001910091160845531 0 0.0013756528591405859 0.0019367836400402917 0 0.0014178984291992496 0.0019302603516961857 0 0.0014320568601671171 0.0019284575042193845 0 0.0014452038361251623 0.001910091160845531 0 0.0014380217299383988 0.0019273201408287152 0 0.0014178984291992496 0.0019302603516961857 0 0.0014320568601671171 0.0019284575042193845 0 0.0014343540616133072 0.0019306372160613067 0 0.0014320568601671171 0.0019284575042193845 0 0.0014452038361251623 0.001910091160845531 0 0.0016399078702752112 0.0020544608833931292 0 0.0014493714503702431 0.0019084531897620171 0 0.0013540026336159227 0.0019490316606989217 0 0.0014343540616133072 0.0019306372160613067 0 0.0014493714503702431 0.0019084531897620171 0 0.0014452038361251623 0.001910091160845531 0 0.0014547784029817446 0.0018976795244471181 0 0.0014863712917737291 0.0018757170126300091 0 0.0014072029592608198 0.0019133835719837471 0 0.0014493714503702431 0.0019084531897620171 0 0.0013540026336159227 0.0019490316606989217 0 0.0014072029592608198 0.0019133835719837471 0 0.0014452038361251623 0.001910091160845531 0 0.0013727379293865421 0.0018980105743863454 0 0.0014072029592608198 0.0019133835719837471 0 0.0014493714503702431 0.0019084531897620171 0 0.0014452038361251623 0.001910091160845531 0 0.0014072029592608198 0.0019133835719837471 0 0.0013727379293865421 0.0018980105743863454 0 0.0013540026336159227 0.0019490316606989217 0 0.0013727379293865421 0.0018980105743863454 0 0.0013540026336159227 0.0019490316606989217 0 0.0013355653202440716 0.0018804715100221151 0 0.0014332085498846535 0.0019115805520954748 0 0.0013596013002168655 0.0018890560716305646 0 0.0013727379293865421 0.0018980105743863454 0 0.0013366510216673802 0.0018442432901403759 0 0.0013355653202440716 0.0018804715100221151 0 0.0014452038361251623 0.001910091160845531 0 0.0013727379293865421 0.0018980105743863454 0 0.0013366510216673802 0.0018442432901403759 0 0.0014178984291992496 0.0019302603516961857 0 0.0013756528591405859 0.0019367836400402917 0 0.0013652800849674053 0.0019196401311054215 0 0.0013242398214325009 0.0019053875161107172 0 0.0014250943616052206 0.0018756524270411824 0 0.0013819315687942596 0.0018272222773324698 0 0.0013652800849674053 0.0019196401311054215 0 0.0013242398214325009 0.0019053875161107172 0 0.0014133917077760677 0.0019140374036028048 0 0.0013242398214325009 0.0019053875161107172 0 0.0014250943616052206 0.0018756524270411824 0 0.0014133917077760677 0.0019140374036028048 0 0.0014250943616052206 0.0018756524270411824 0 0.0014133917077760677 0.0019140374036028048 0 0.0014703510245822765 0.0019088490661189367 0 0.0014178984291992496 0.0019302603516961857 0 0.0013652800849674053 0.0019196401311054215 0 0.0014133917077760677 0.0019140374036028048 0 0.0014380217299383988 0.0019273201408287152 0 0.0014178984291992496 0.0019302603516961857 0 0.0014133917077760677 0.0019140374036028048 0 0.0014650009154088212 0.0019267600161608938 0 0.0014380217299383988 0.0019273201408287152 0 0.0014703510245822765 0.0019088490661189367 0 0.0022976604195414445 0.0016139140886599107 0 0.0015204233559825235 0.0020086831775003133 0 0.0014380217299383988 0.0019273201408287152 0 0.0014133917077760677 0.0019140374036028048 0 0.0014703510245822765 0.0019088490661189367 0 0.0014250943616052206 0.0018756524270411824 0 0.0014703510245822765 0.0019088490661189367 0 0.0014881267728841438 0.0018628337226126589 0 0.0015204233559825235 0.0020086831775003133 0 0.0014834256195725192 0.0018646138420625245 0 0.0015628931309463689 0.0020523469430646303 0 0.0016327854591932807 0.0018549057403799436 0 0.0014881267728841438 0.0018628337226126589 0 0.0024400899406451619 0.0033447815008591994 0 0.0025872239499316026 0.0034370742225253454 0 0.0025642586172253531 0.0033458650754055806 0 0.0015628931309463689 0.0020523469430646303 0 0.0016327854591932807 0.0018549057403799436 0 0.0019021083862326132 0.0020604515329870374 0 0.0019088318691175288 0.0026867794836145406 0 0.0035177231290264362 0.0019065857667138837 0 0.0044066333083416578 0.0012558243903262936 0 0.0045951441297870264 0.0012881968878793656 0 0.0046047584909908327 0.0011011845997831119 0 0.0016526264264866467 0.0022555044325816044 0 0.0015628931309463689 0.0020523469430646303 0 0.0019021083862326132 0.0020604515329870374 0 0.0022976604195414445 0.0016139140886599107 0 0.0035177231290264362 0.0019065857667138837 0 0.0013574229944263304 0.0018115834556529213 0 0.0013440733390802278 0.0018055095172096799 0 0.0013548673562940748 0.0018460392020004253 0 0.0013440733390802278 0.0018055095172096799 0 0.0013275964779571562 0.0018460924716826289 0 0.0013548673562940748 0.0018460392020004253 0 0.001365758367478139 0.0018331233621675708 0 0.0013574229944263304 0.0018115834556529213 0 0.0013548673562940748 0.0018460392020004253 0 0.0013643050905436359 0.0018101093855427668 0 0.001365758367478139 0.0018331233621675708 0 0.0013574229944263304 0.0018115834556529213 0 0.0013812087317852171 0.0018355927961889846 0 0.0013643050905436359 0.0018101093855427668 0 0.001365758367478139 0.0018331233621675708 0 0.0013643050905436359 0.0018101093855427668 0 0.0013528817754664367 0.0017997909530992641 0 0.0013574229944263304 0.0018115834556529213 0 0.0013574229944263304 0.0018115834556529213 0 0.0013534618622678238 0.001795692381272568 0 0.0013440733390802278 0.0018055095172096799 0 0.0013555229012015028 0.0017798349946760294 0 0.0013534618622678238 0.001795692381272568 0 0.0013440733390802278 0.0018055095172096799 0 0.0013528817754664367 0.0017997909530992641 0 0.0013574229944263304 0.0018115834556529213 0 0.0013534618622678238 0.001795692381272568 0 0.0012808858102844915 0.0017519316715786102 0 0.0013440733390802278 0.0018055095172096799 0 0.0012896465943557551 0.0017397690785653772 0 0.0013491060472804041 0.0018062018131736184 0 0.0013036340698852572 0.0017988403251819342 0 0.0013440733390802278 0.0018055095172096799 0 0.0013159357941979618 0.0018579353827752317 0 0.0013275964779571562 0.0018460924716826289 0 0.0013891375853707724 0.0017245462286038548 0 0.0014762873920343349 0.0016678857203347717 0 0.0012896465943557551 0.0017397690785653772 0 0.0014701313987443793 0.0018131375134988576 0 0.0013036340698852572 0.0017988403251819342 0 0.0013540026336159227 0.0019490316606989217 0 0.0013159357941979618 0.0018579353827752317 0 0.0013355653202440716 0.0018804715100221151 0 0.0013159357941979618 0.0018579353827752317 0 0.0013355653202440716 0.0018804715100221151 0 0.0013215777320588543 0.0018548958106619235 0 0.0013366510216673802 0.0018442432901403759 0 0.0013215777320588543 0.0018548958106619235 0 0.0013157409089336141 0.0018637250516729312 0 0.0013366510216673802 0.0018442432901403759 0 0.0013355653202440716 0.0018804715100221151 0 0.0013215777320588543 0.0018548958106619235 0 0.0013215777320588543 0.0018548958106619235 0 0.0013275964779571562 0.0018460924716826289 0 0.0013157409089336141 0.0018637250516729312 0 0.0013159357941979618 0.0018579353827752317 0 0.0013215777320588543 0.0018548958106619235 0 0.0013275964779571562 0.0018460924716826289 0 0.0013275964779571562 0.0018460924716826289 0 0.0013157409089336141 0.0018637250516729312 0 0.0013460368159694403 0.0018697847500621118 0 0.0013756528591405859 0.0019367836400402917 0 0.0013652800849674053 0.0019196401311054215 0 0.0013383762074985891 0.0019142991723276376 0 0.0013596013002168655 0.0018890560716305646 0 0.0013305738447885994 0.0018909845459790164 0 0.0013652800849674053 0.0019196401311054215 0 0.0013242398214325009 0.0019053875161107172 0 0.0013383762074985891 0.0019142991723276376 0 0.0013242398214325009 0.0019053875161107172 0 0.0013383762074985891 0.0019142991723276376 0 0.0013457620890555849 0.0019338114039189832 0 0.0013305738447885994 0.0018909845459790164 0 0.001364016484228021 0.0019270298321237664 0 0.0013383762074985891 0.0019142991723276376 0 0.0013457620890555849 0.0019338114039189832 0 0.0013659504907582735 0.0019295493044116361 0 0.0013157409089336141 0.0018637250516729312 0 0.0013659504907582735 0.0019295493044116361 0 0.0013460368159694403 0.0018697847500621118 0 0.0013659504907582735 0.0019295493044116361 0 0.0013697455619613357 0.0018944086633547979 0 0.0013935757258933671 0.0019554335307146536 0 0.0013697455619613357 0.0018944086633547979 0 0.0013873593295777188 0.0018879880821067838 0 0.0013935757258933671 0.0019554335307146536 0 0.0013659504907582735 0.0019295493044116361 0 0.0013697455619613357 0.0018944086633547979 0 0.0013460368159694403 0.0018697847500621118 0 0.0013697455619613357 0.0018944086633547979 0 0.0013460368159694403 0.0018697847500621118 0 0.0013548673562940748 0.0018460392020004253 0 0.0013275964779571562 0.0018460924716826289 0 0.0013460368159694403 0.0018697847500621118 0 0.0013548673562940748 0.0018460392020004253 0 0.0013697455619613357 0.0018944086633547979 0 0.0013548673562940748 0.0018460392020004253 0 0.0013873593295777188 0.0018879880821067838 0 0.0013299360337977757 0.0019529857484770622 0 0.0013805302484893266 0.0020690017651891933 0 0.001365758367478139 0.0018331233621675708 0 0.0013548673562940748 0.0018460392020004253 0 0.0013873593295777188 0.0018879880821067838 0 0.0013812087317852171 0.0018355927961889846 0 0.001365758367478139 0.0018331233621675708 0 0.0013873593295777188 0.0018879880821067838 0 0.0013805302484893266 0.0020690017651891933 0 0.0014041273607976277 0.0020615451079381984 0 0.0013387236382123974 0.0022072451098584319 0 0.0013765312574536971 0.0022188041333365736 0 0.001368290433887652 0.0021817934472348412 0 0.001368290433887652 0.0021817934472348412 0 0.0013935887763241188 0.0021494558304991766 0 0.0014164442203099628 0.0021707718682057969 0 0.001368290433887652 0.0021817934472348412 0 0.0013935887763241188 0.0021494558304991766 0 0.0013110238397393099 0.0021517568933796757 0 0.0013765312574536971 0.0022188041333365736 0 0.001368290433887652 0.0021817934472348412 0 0.0014164442203099628 0.0021707718682057969 0 0.0013968783589508285 0.0021210142242115075 0 0.0013935887763241188 0.0021494558304991766 0 0.0013110238397393099 0.0021517568933796757 0 0.0013935887763241188 0.0021494558304991766 0 0.0014164442203099628 0.0021707718682057969 0 0.0014400557033670198 0.0021017380180077716 0 0.0014041273607976277 0.0020615451079381984 0 0.001404453151055774 0.0020799449242627607 0 0.0013968783589508285 0.0021210142242115075 0 0.0013935887763241188 0.0021494558304991766 0 0.0014400557033670198 0.0021017380180077716 0 0.0013935757258933671 0.0019554335307146536 0 0.0013653020333239591 0.001964040337185355 0 0.0013868411500720984 0.0020453739846618291 0 0.0013659504907582735 0.0019295493044116361 0 0.0013935757258933671 0.0019554335307146536 0 0.0013653020333239591 0.001964040337185355 0 0.0013457620890555849 0.0019338114039189832 0 0.0013659504907582735 0.0019295493044116361 0 0.0013653020333239591 0.001964040337185355 0 0.0013653020333239591 0.001964040337185355 0 0.0013361483970006091 0.0019812971135454095 0 0.0013868411500720984 0.0020453739846618291 0 0.0013457620890555849 0.0019338114039189832 0 0.0013653020333239591 0.001964040337185355 0 0.0013361483970006091 0.0019812971135454095 0 0.0013242398214325009 0.0019053875161107172 0 0.0013457620890555849 0.0019338114039189832 0 0.0013361483970006091 0.0019812971135454095 0 0.0013242398214325009 0.0019053875161107172 0 0.0013361483970006091 0.0019812971135454095 0 0.0012805896820108839 0.0020126299658433278 0 0.0013177902860508016 0.0020694865966492033 0 0.0012805896820108839 0.0020126299658433278 0 0.0012509983605832489 0.0020973554636444631 0 0.0013361483970006091 0.0019812971135454095 0 0.0013177902860508016 0.0020694865966492033 0 0.0012805896820108839 0.0020126299658433278 0 0.0013361483970006091 0.0019812971135454095 0 0.0013177902860508016 0.0020694865966492033 0 0.0013868411500720984 0.0020453739846618291 0 0.0014400557033670198 0.0021017380180077716 0 0.0013332725987889283 0.0021579897330698955 0 0.0014223950358582991 0.0021198687350989613 0 0.001404453151055774 0.0020799449242627607 0 0.0013409239891948588 0.0021558642343013608 0 0.0013177902860508016 0.0020694865966492033 0 0.0013868411500720984 0.0020453739846618291 0 0.0013332725987889283 0.0021579897330698955 0 0.0013177902860508016 0.0020694865966492033 0 0.0013332725987889283 0.0021579897330698955 0 0.0012810341923263442 0.0021523753039530448 0 0.0013177902860508016 0.0020694865966492033 0 0.0012810341923263442 0.0021523753039530448 0 0.0012509983605832489 0.0020973554636444631 0 0.0013332725987889283 0.0021579897330698955 0 0.0012810341923263442 0.0021523753039530448 0 0.0012829794368116763 0.0022617219960638269 0 0.0013332725987889283 0.0021579897330698955 0 0.0012829794368116763 0.0022617219960638269 0 0.0013206231330773368 0.0022874342890479094 0 0.0014223950358582991 0.0021198687350989613 0 0.0013206231330773368 0.0022874342890479094 0 0.0014943579617816372 0.0021187057913560079 0 0.0013332725987889283 0.0021579897330698955 0 0.0014223950358582991 0.0021198687350989613 0 0.0013206231330773368 0.0022874342890479094 0 0.0013206231330773368 0.0022874342890479094 0 0.0014943579617816372 0.0021187057913560079 0 0.0016449234294767991 0.0025572536953894897 0 0.0014943579617816372 0.0021187057913560079 0 0.0013817929338966358 0.002069804820295367 0 0.0013407498183066237 0.001976491511365698 0 0.0015019442081369225 0.0021337445064158024 0 0.0017938514763316397 0.0021438950256378723 0 0.0013968783589508285 0.0021210142242115075 0 0.0013817929338966358 0.002069804820295367 0 0.0014437323620676039 0.0021091271605440196 0 0.0014400557033670198 0.0021017380180077716 0 0.0014223950358582991 0.0021198687350989613 0 0.0014437323620676039 0.0021091271605440196 0 0.0013968783589508285 0.0021210142242115075 0 0.0014400557033670198 0.0021017380180077716 0 0.0014437323620676039 0.0021091271605440196 0 0.0014943579617816372 0.0021187057913560079 0 0.0013817929338966358 0.002069804820295367 0 0.0014437323620676039 0.0021091271605440196 0 0.0014223950358582991 0.0021198687350989613 0 0.0014943579617816372 0.0021187057913560079 0 0.0014437323620676039 0.0021091271605440196 0 0.0024498397444716992 0.0032264405006420175 0 0.0024398495100316068 0.0030731710860735987 0 0.0025489048835248018 0.0031712978816358407 0 0.0022980943901534582 0.0029904862848077448 0 0.0027000545851022699 0.0033284120985349482 0 0.0024498397444716992 0.0032264405006420175 0 0.0025489048835248018 0.0031712978816358407 0 0.0025587320122054382 0.0032708935698160771 0 0.0024400899406451619 0.0033447815008591994 0 0.0025045805797530825 0.0033020354818178283 0 0.0025642586172253531 0.0033458650754055806 0 0.0024498397444716992 0.0032264405006420175 0 0.0024400899406451619 0.0033447815008591994 0 0.0025045805797530825 0.0033020354818178283 0 0.0024498397444716992 0.0032264405006420175 0 0.0025045805797530825 0.0033020354818178283 0 0.0025587320122054382 0.0032708935698160771 0 0.0019088318691175288 0.0026867794836145406 0 0.0015846771604795288 0.0024838396943415997 0 0.0024498397444716992 0.0032264405006420175 0 0.0024400899406451619 0.0033447815008591994 0 0.0022734784995514057 0.0032088583013404602 0 0.0016327854591932807 0.0018549057403799436 0 0.0014881267728841438 0.0018628337226126589 0 0.0014436385261272033 0.0017450458763537276 0 0.001150204032512883 0.0020454794120840759 0 0.001175350320293712 0.0021260980432273964 0 0.0010747097056557568 0.0021382746199230828 0 0.0015846771604795288 0.0024838396943415997 0 0.0022980943901534582 0.0029904862848077448 0 0.0024498397444716992 0.0032264405006420175 0 0.0022734784995514057 0.0032088583013404602 0 0.0024398495100316068 0.0030731710860735987 0 0.0012146993892753445 0.0020491466440648925 0 0.0012509983605832489 0.0020973554636444631 0 0.001175350320293712 0.0021260980432273964 0 0.0012146993892753445 0.0020491466440648925 0 0.001150204032512883 0.0020454794120840759 0 0.001175350320293712 0.0021260980432273964 0 0.0012146993892753445 0.0020491466440648925 0 0.001150204032512883 0.0020454794120840759 0 0.0012180642640425654 0.0019711910712707139 0 0.0015846771604795288 0.0024838396943415997 0 0.0013199437096549516 0.0018692103399172511 0 0.0014250943616052206 0.0018756524270411824 0 0.0014436385261272033 0.0017450458763537276 0 0.0013819315687942596 0.0018272222773324698 0 0.0014250943616052206 0.0018756524270411824 0 0.0014881267728841438 0.0018628337226126589 0 0.0014436385261272033 0.0017450458763537276 0 0.0013242398214325009 0.0019053875161107172 0 0.0012180642640425654 0.0019711910712707139 0 0.0012805896820108839 0.0020126299658433278 0 0.0012146993892753445 0.0020491466440648925 0 0.0012180642640425654 0.0019711910712707139 0 0.0012805896820108839 0.0020126299658433278 0 0.0013101071844711094 0.001909769764221525 0 0.0013199437096549516 0.0018692103399172511 0 0.0012146993892753445 0.0020491466440648925 0 0.0012805896820108839 0.0020126299658433278 0 0.0012509983605832489 0.0020973554636444631 0 0.0012810341923263442 0.0021523753039530448 0 0.0012509983605832489 0.0020973554636444631 0 0.0012236461598745148 0.0021861212355264331 0 0.0012509983605832489 0.0020973554636444631 0 0.0012236461598745148 0.0021861212355264331 0 0.001175350320293712 0.0021260980432273964 0 0.0012829794368116763 0.0022617219960638269 0 0.0012236461598745148 0.0021861212355264331 0 0.0012140476389844773 0.0022828119599476947 0 0.0012810341923263442 0.0021523753039530448 0 0.0012829794368116763 0.0022617219960638269 0 0.0012236461598745148 0.0021861212355264331 0 0.0012236461598745148 0.0021861212355264331 0 0.0011446298579548546 0.002203330994028196 0 0.0012140476389844773 0.0022828119599476947 0 0.0019546503876944287 0.0028947083090029263 0 0.002131512699740907 0.0030555526503343966 0 0.0012236461598745148 0.0021861212355264331 0 0.001175350320293712 0.0021260980432273964 0 0.0011446298579548546 0.002203330994028196 0 0.0019546503876944287 0.0028947083090029263 0 0.0022980943901534582 0.0029904862848077448 0 0.001175350320293712 0.0021260980432273964 0 0.0011446298579548546 0.002203330994028196 0 0.0010747097056557568 0.0021382746199230828 0 0.0029023726873222276 0.0036679733056680592 0 0.002782338932283389 0.0036700221455032377 0 0.0027710100530485078 0.0038313802332466153 0 0.0029023726873222276 0.0036679733056680592 0 0.002782338932283389 0.0036700221455032377 0 0.0027802441101749224 0.0035492716108883435 0 0.002782338932283389 0.0036700221455032377 0 0.0027119056578909398 0.0036083100768466493 0 0.0026619052306870472 0.0037627359012610221 0 0.0022980943901534582 0.0029904862848077448 0 0.0027246556600179022 0.0035791525664230603 0 0.0028469761104513184 0.0034873362604590976 0 0.0027266523764923993 0.0033798030401627479 0 0.0026851635114257962 0.0034724896067581481 0 0.0028469761104513184 0.0034873362604590976 0 0.0026851635114257962 0.0034724896067581481 0 0.0027119056578909398 0.0036083100768466493 0 0.002782338932283389 0.0036700221455032377 0 0.0027802441101749224 0.0035492716108883435 0 0.0027119056578909398 0.0036083100768466493 0 0.0027710100530485078 0.0038313802332466153 0 0.0028740927311269077 0.0040759855708528744 0 0.0026937579166040455 0.0040301430065726599 0 0.0027710100530485078 0.0038313802332466153 0 0.0026937579166040455 0.0040301430065726599 0 0.0026124068677318398 0.0038957320857360101 0 0.002782338932283389 0.0036700221455032377 0 0.0027710100530485078 0.0038313802332466153 0 0.0026619052306870472 0.0037627359012610221 0 0.0029023726873222276 0.0036679733056680592 0 0.0027710100530485078 0.0038313802332466153 0 0.0029170694232951867 0.0038848002311269148 0 0.0027710100530485078 0.0038313802332466153 0 0.0029170694232951867 0.0038848002311269148 0 0.0028740927311269077 0.0040759855708528744 0 0.0030155580231674859 0.0039902983614156593 0 0.0029170694232951867 0.0038848002311269148 0 0.0028740927311269077 0.0040759855708528744 0 0.0029023726873222276 0.0036679733056680592 0 0.0029170694232951867 0.0038848002311269148 0 0.0030402120976900713 0.003812622882133845 0 0.0030155580231674859 0.0039902983614156593 0 0.0029170694232951867 0.0038848002311269148 0 0.0030402120976900713 0.003812622882133845 0 0.0012829794368116763 0.0022617219960638269 0 0.0012140476389844773 0.0022828119599476947 0 0.0012792704395385766 0.0023598562543513811 0 0.002131512699740907 0.0030555526503343966 0 0.0023042861890441137 0.0031598761464441531 0 0.0030155580231674859 0.0039902983614156593 0 0.0030402120976900713 0.003812622882133845 0 0.0032095952648463302 0.0039808502051478902 0 0.0030155580231674859 0.0039902983614156593 0 0.003084952996217308 0.0041899639013451943 0 0.0032095952648463302 0.0039808502051478902 0 0.003084952996217308 0.0041899639013451943 0 0.0032228001925955659 0.0043204799153472783 0 0.002981467080232566 0.0044743545768221706 0 0.0029367880022532367 0.0043590120913103584 0 0.0028399855153358119 0.0044504825963714622 0 0.002981467080232566 0.0044743545768221706 0 0.003084952996217308 0.0041899639013451943 0 0.0029367880022532367 0.0043590120913103584 0 0.002981467080232566 0.0044743545768221706 0 0.0030155580231674859 0.0039902983614156593 0 0.003084952996217308 0.0041899639013451943 0 0.0028740927311269077 0.0040759855708528744 0 0.003084952996217308 0.0041899639013451943 0 0.0029367880022532367 0.0043590120913103584 0 0.0028799167812703619 0.0043110858074744901 0 0.0030803730482985578 0.0041935258987175804 0 0.0028998194677003139 0.0041914870060618149 0 0.0028799167812703619 0.0043110858074744901 0 0.0028399855153358119 0.0044504825963714622 0 0.0027840061449482967 0.0043848701154284193 0 0.0029367880022532367 0.0043590120913103584 0 0.0028799167812703619 0.0043110858074744901 0 0.0028399855153358119 0.0044504825963714622 0 0.0028399855153358119 0.0044504825963714622 0 0.0027840061449482967 0.0043848701154284193 0 0.0027637908518758744 0.0045030535531654812 0 0.0028998194677003139 0.0041914870060618149 0 0.002697336238565458 0.0042343722410987557 0 0.0016605730620739916 0.0029681239176295327 0 0.001206538879991682 0.0027918650558672272 0 0.0015311901181192214 0.003354824271245593 0 0.0016605730620739916 0.0029681239176295327 0 0.0016449234294767991 0.0025572536953894897 0 0.001206538879991682 0.0027918650558672272 0 0.0016605730620739916 0.0029681239176295327 0 0.0015311901181192214 0.003354824271245593 0 0.0018719295132292656 0.0032082105887426358 0 0.0020999157017361314 0.0028480329981712361 0 0.0018719295132292656 0.0032082105887426358 0 0.0023058109913334625 0.0032154193798338828 0 0.0016605730620739916 0.0029681239176295327 0 0.0020999157017361314 0.0028480329981712361 0 0.0016449234294767991 0.0025572536953894897 0 0.0016605730620739916 0.0029681239176295327 0 0.0020999157017361314 0.0028480329981712361 0 0.0018719295132292656 0.0032082105887426358 0 0.0020999157017361314 0.0028480329981712361 0 0.0016449234294767991 0.0025572536953894897 0 0.0021835568148017761 0.0024317975403591466 0 0.0014943579617816372 0.0021187057913560079 0 0.0016449234294767991 0.0025572536953894897 0 0.0021835568148017761 0.0024317975403591466 0 0.0012829794368116763 0.0022617219960638269 0 0.0013206231330773368 0.0022874342890479094 0 0.0013489137765545661 0.0023478240543856068 0 0.0013206231330773368 0.0022874342890479094 0 0.0016449234294767991 0.0025572536953894897 0 0.001206538879991682 0.0027918650558672272 0 0.0013082453891553869 0.0023675866349607919 0 0.0012711490780435235 0.0024530220539236629 0 0.0012829794368116763 0.0022617219960638269 0 0.0012792704395385766 0.0023598562543513811 0 0.0013489137765545661 0.0023478240543856068 0 0.0023042861890441137 0.0031598761464441531 0 0.0019100265012278771 0.0035383226248460551 0 0.001206538879991682 0.0027918650558672272 0 0.0011609954909618352 0.003322798206832595 0 0.0015311901181192214 0.003354824271245593 0 0.0012711490780435235 0.0024530220539236629 0 0.0019100265012278771 0.0035383226248460551 0 0.0012792704395385766 0.0023598562543513811 0 0.0013489137765545661 0.0023478240543856068 0 0.0013561287539797346 0.0024428968375848287 0 0.0033850031962179591 0.0041587570358173499 0 0.0032259640980065092 0.0041642552869749216 0 0.0032228001925955659 0.0043204799153472783 0 0.0032095952648463302 0.0039808502051478902 0 0.0033850031962179591 0.0041587570358173499 0 0.0032259640980065092 0.0041642552869749216 0 0.003084952996217308 0.0041899639013451943 0 0.0032095952648463302 0.0039808502051478902 0 0.0032259640980065092 0.0041642552869749216 0 0.003084952996217308 0.0041899639013451943 0 0.0032259640980065092 0.0041642552869749216 0 0.0032228001925955659 0.0043204799153472783 0 0.0016659872501157968 0.0037376612208817024 0 0.001695020360130324 0.0038098378315677781 0 0.0016601204258556476 0.003814537413295984 0 0.0019100265012278771 0.0035383226248460551 0 0.0025701133975942671 0.004192798679015489 0 0.0033850031962179591 0.0041587570358173499 0 0.0032228001925955659 0.0043204799153472783 0 0.0033645862837331638 0.0044460078946936639 0 0.0016659872501157968 0.0037376612208817024 0 0.0017094853768526254 0.0037801393934714794 0 0.001695020360130324 0.0038098378315677781 0 0.0017094853768526254 0.0037801393934714794 0 0.0017366960886768523 0.0038230161755689641 0 0.001695020360130324 0.0038098378315677781 0 0.0019100265012278771 0.0035383226248460551 0 0.001520959203718568 0.0037191103319498871 0 0.0017094853768526254 0.0037801393934714794 0 0.0017511758151887108 0.0036867571021742922 0 0.0015311901181192214 0.003354824271245593 0 0.0017511758151887108 0.0036867571021742922 0 0.0015311901181192214 0.003354824271245593 0 0.0018719295132292656 0.0032082105887426358 0 0.0011609954909618352 0.003322798206832595 0 0.0017094853768526254 0.0037801393934714794 0 0.0015311901181192214 0.003354824271245593 0 0.0017511758151887108 0.0036867571021742922 0 0.0017646565154661017 0.0037445525394074271 0 0.0017619269743073419 0.0037940123156812271 0 0.0017511758151887108 0.0036867571021742922 0 0.0018719295132292656 0.0032082105887426358 0 0.0023058109913334625 0.0032154193798338828 0 0.0017436547723444205 0.0036758306635285283 0 0.0020930041257876146 0.003554639282647821 0 0.0017586750334098393 0.0037808084411288401 0 0.0017703033116724153 0.0037643185830696581 0 0.0017868907712272708 0.0038379725310806511 0 0.0017646565154661017 0.0037445525394074271 0 0.0017586750334098393 0.0037808084411288401 0 0.0017703033116724153 0.0037643185830696581 0 0.0017094853768526254 0.0037801393934714794 0 0.0017511758151887108 0.0036867571021742922 0 0.0017586750334098393 0.0037808084411288401 0 0.0017511758151887108 0.0036867571021742922 0 0.0017646565154661017 0.0037445525394074271 0 0.0017586750334098393 0.0037808084411288401 0 0.0017094853768526254 0.0037801393934714794 0 0.0017586750334098393 0.0037808084411288401 0 0.0017366960886768523 0.0038230161755689641 0 0.0017703033116724153 0.0037643185830696581 0 0.0017378109410629717 0.0037891224387069634 0 0.0017385422262640713 0.0037669790125938961 0 0.0017046258952864934 0.0037932240698983371 0 0.0017378109410629717 0.0037891224387069634 0 0.0017385422262640713 0.0037669790125938961 0 0.0017046258952864934 0.0037932240698983371 0 0.0017385422262640713 0.0037669790125938961 0 0.0016933826730350567 0.0037775122257341135 0 0.0017061257503144286 0.0038016774691289525 0 0.0017378109410629717 0.0037891224387069634 0 0.0017128590188628457 0.0038258929495990353 0 0.0017046258952864934 0.0037932240698983371 0 0.0017061257503144286 0.0038016774691289525 0 0.0016876844487656172 0.003802393991456334 0 0.0017046258952864934 0.0037932240698983371 0 0.0017061257503144286 0.0038016774691289525 0 0.0017378109410629717 0.0037891224387069634 0 0.0017703033116724153 0.0037643185830696581 0 0.0017619269743073419 0.0037940123156812271 0 0.0017378109410629717 0.0037891224387069634 0 0.0017646565154661017 0.0037445525394074271 0 0.0017703033116724153 0.0037643185830696581 0 0.0017619269743073419 0.0037940123156812271 0 0.0020930041257876146 0.003554639282647821 0 0.0017821580324411071 0.0028452311739419075 0 0.0020999157017361314 0.0028480329981712361 0 0.0023058109913334625 0.0032154193798338828 0 0.0028307299725912126 0.002803484509417115 0 0.0017619269743073419 0.0037940123156812271 0 0.0017378109410629717 0.0037891224387069634 0 0.0017128590188628457 0.0038258929495990353 0 0.0017061257503144286 0.0038016774691289525 0 0.0017128590188628457 0.0038258929495990353 0 0.0016926178931448424 0.0038067942367295215 0 0.001254830815459451 0.0019452059571741036 0 0.0012153019669528249 0.0019807561048167479 0 0.00124716844020773 0.0019958108978788106 0 0.001254830815459451 0.0019452059571741036 0 0.0013407498183066237 0.001976491511365698 0 0.00124716844020773 0.0019958108978788106 0 0.0017821580324411071 0.0028452311739419075 0 0.0017938514763316397 0.0021438950256378723 0 0.0020999157017361314 0.0028480329981712361 0 0.0028307299725912126 0.002803484509417115 0 0.0021835568148017761 0.0024317975403591466 0 0.0011708673613875442 0.0021764719079779872 0 0.0010390696567654568 0.0021715737266766386 0 0.0012368196761319914 0.0020312447320141695 0 0.0012645567398177511 0.0022121296975336716 0 0.0011708673613875442 0.0021764719079779872 0 0.0012368196761319914 0.0020312447320141695 0 0.0011708673613875442 0.0021764719079779872 0 0.0010390696567654568 0.0021715737266766386 0 0.0011401576799770564 0.0023009762970168887 0 0.0012645567398177511 0.0022121296975336716 0 0.0011708673613875442 0.0021764719079779872 0 0.0011401576799770564 0.0023009762970168887 0 0.0017821580324411071 0.0028452311739419075 0 0.0012717689174874171 0.0021421578913533722 0 0.001387657025165825 0.0027080038152401398 0 0.0015686572522872375 0.0025696740319227809 0 0.0016295574474194247 0.0028471029617758064 0 0.0017128590188628457 0.0038258929495990353 0 0.0016810831672980197 0.0038079638435558204 0 0.0016926178931448424 0.0038067942367295215 0 0.0012717689174874171 0.0021421578913533722 0 0.0015007918917302569 0.0031203798812410965 0 0.0017821580324411071 0.0028452311739419075 0 0.0015007918917302569 0.0031203798812410965 0 0.0010390696567654568 0.0021715737266766386 0 0.0010978308508314766 0.0024611092112580609 0 0.0011401576799770564 0.0023009762970168887 0 0.0010978308508314766 0.0024611092112580609 0 0.0011401576799770564 0.0023009762970168887 0 0.001145062811519172 0.0024879416161312654 0 0.001395769917274617 0.0026493787297957876 0 0.0014538610526553073 0.0032000487096041923 0 0.0012645567398177511 0.0022121296975336716 0 0.0011401576799770564 0.0023009762970168887 0 0.001145062811519172 0.0024879416161312654 0 0.0015346797884614597 0.0032000682415402565 0 0.0015308694029864964 0.0033203719362016881 0 0.0014285580402416044 0.0034604037482359766 0 0.0015007918917302569 0.0031203798812410965 0 0.0014538610526553073 0.0032000487096041923 0 0.0015308694029864964 0.0033203719362016881 0 0.0014962001364622706 0.0034387769250668857 0 0.0014285580402416044 0.0034604037482359766 0 0.0015308694029864964 0.0033203719362016881 0 0.0014962001364622706 0.0034387769250668857 0 0.0015772547330157505 0.0034325342878326094 0 0.0014962001364622706 0.0034387769250668857 0 0.0015271234692369117 0.0034789825766033556 0 0.0015772547330157505 0.0034325342878326094 0 0.0014027608900100447 0.0035115665009333957 0 0.0014992978102388976 0.0035992953308101533 0 0.0014727379299814948 0.0037149809363832033 0 0.0015271234692369117 0.0034789825766033556 0 0.0015004693911086879 0.0035273391264160374 0 0.0015800810294745581 0.003569910721433942 0 0.0015308137746330476 0.0036159908953138516 0 0.0015415548918215366 0.0037737917384939525 0 0.0015004693911086879 0.0035273391264160374 0 0.0014795489711972333 0.0034771405012126401 0 0.0014630856589980432 0.0035236292160807283 0 0.0015271234692369117 0.0034789825766033556 0 0.0015004693911086879 0.0035273391264160374 0 0.0014795489711972333 0.0034771405012126401 0 0.0014962001364622706 0.0034387769250668857 0 0.0015271234692369117 0.0034789825766033556 0 0.0014795489711972333 0.0034771405012126401 0 0.0014962001364622706 0.0034387769250668857 0 0.0014795489711972333 0.0034771405012126401 0 0.0014285580402416044 0.0034604037482359766 0 0.0014795489711972333 0.0034771405012126401 0 0.001444908331146333 0.0034935256887384755 0 0.0014285580402416044 0.0034604037482359766 0 0.0015007918917302569 0.0031203798812410965 0 0.0015308137746330476 0.0036159908953138516 0 0.0014827920293348851 0.0032143207402380021 0 0.0015785265755941802 0.0032686446631540094 0 0.0015202209782689906 0.0033847506947258924 0 0.001444908331146333 0.0034935256887384755 0 0.0014285580402416044 0.0034604037482359766 0 0.0014027608900100447 0.0035115665009333957 0 0.0014538610526553073 0.0032000487096041923 0 0.0015308137746330476 0.0036159908953138516 0 0.001444908331146333 0.0034935256887384755 0 0.0014027608900100447 0.0035115665009333957 0 0.0014630856589980432 0.0035236292160807283 0 0.0014795489711972333 0.0034771405012126401 0 0.001444908331146333 0.0034935256887384755 0 0.0014630856589980432 0.0035236292160807283 0 0.0014027608900100447 0.0035115665009333957 0 0.0014630856589980432 0.0035236292160807283 0 0.0014992978102388976 0.0035992953308101533 0 0.0015004693911086879 0.0035273391264160374 0 0.0014992978102388976 0.0035992953308101533 0 0.0015800810294745581 0.003569910721433942 0 0.0014992978102388976 0.0035992953308101533 0 0.0015618770717818311 0.0036768635159369835 0 0.0015800810294745581 0.003569910721433942 0 0.0015004693911086879 0.0035273391264160374 0 0.0014630856589980432 0.0035236292160807283 0 0.0014992978102388976 0.0035992953308101533 0 0.0015308137746330476 0.0036159908953138516 0 0.0016662074954466872 0.0038690123239829852 0 0.0016826558119421688 0.0038026893452445445 0 0.0016876844487656172 0.003802393991456334 0 0.0016711442941962473 0.0038040838255282241 0 0.0017061257503144286 0.0038016774691289525 0 0.0016926178931448424 0.0038067942367295215 0 0.0016876844487656172 0.003802393991456334 0 0.0016810831672980197 0.0038079638435558204 0 0.0016826558119421688 0.0038026893452445445 0 0.0016926178931448424 0.0038067942367295215 0 0.0016826558119421688 0.0038026893452445445 0 0.0016926178931448424 0.0038067942367295215 0 0.0016876844487656172 0.003802393991456334 0 0.0016262104207988431 0.0038927237492872172 0 0.0016711442941962473 0.0038040838255282241 0 0.001609025753546688 0.0038180814335132553 0 0.0017046258952864934 0.0037932240698983371 0 0.0016876844487656172 0.003802393991456334 0 0.0016711442941962473 0.0038040838255282241 0 0.0016711442941962473 0.0038040838255282241 0 0.001609025753546688 0.0038180814335132553 0 0.0016176623960672855 0.0037910122555090578 0 0.0017046258952864934 0.0037932240698983371 0 0.0016711442941962473 0.0038040838255282241 0 0.0016933826730350567 0.0037775122257341135 0 0.0014992978102388976 0.0035992953308101533 0 0.0015618770717818311 0.0036768635159369835 0 0.0014727379299814948 0.0037149809363832033 0 0.0015618770717818311 0.0036768635159369835 0 0.0014727379299814948 0.0037149809363832033 0 0.001527673003204046 0.0037714086637730014 0 0.0015618770717818311 0.0036768635159369835 0 0.0017249465764881788 0.0036915714630513128 0 0.0015800810294745581 0.003569910721433942 0 0.0015448226633125654 0.0037924767834566749 0 0.0015335372857890953 0.0037791421487669728 0 0.0014065367896074945 0.0039003989514137566 0 0.0014729165229061354 0.0037947258424669713 0 0.001527673003204046 0.0037714086637730014 0 0.0015618770717818311 0.0036768635159369835 0 0.0017249465764881788 0.0036915714630513128 0 0.001527673003204046 0.0037714086637730014 0 0.0015448226633125654 0.0037924767834566749 0 0.0016740315937495587 0.0038239558780291203 0 0.0017205610357412687 0.0034952562089728186 0 0.001951171189866032 0.0035968227517496269 0 0.0018408719997210019 0.0033597234962767495 0 0.0017249465764881788 0.0036915714630513128 0 0.0017205610357412687 0.0034952562089728186 0 0.001951171189866032 0.0035968227517496269 0 0.0017249465764881788 0.0036915714630513128 0 0.0017205610357412687 0.0034952562089728186 0 0.0015800810294745581 0.003569910721433942 0 0.0015271234692369117 0.0034789825766033556 0 0.0015800810294745581 0.003569910721433942 0 0.0015772547330157505 0.0034325342878326094 0 0.0017205610357412687 0.0034952562089728186 0 0.0015800810294745581 0.003569910721433942 0 0.0015772547330157505 0.0034325342878326094 0 0.0011015336780662746 0.0038908853191449923 0 0.0012313031080635869 0.0039818138389341329 0 0.0010516514096312632 0.0040461477914340615 0 0.0014065367896074945 0.0039003989514137566 0 0.0012313031080635869 0.0039818138389341329 0 0.0012552039908669708 0.00382757173206187 0 0.0011015336780662746 0.0038908853191449923 0 0.0012313031080635869 0.0039818138389341329 0 0.0012552039908669708 0.00382757173206187 0 0.001951171189866032 0.0035968227517496269 0 0.00205233973211088 0.0033333162161850527 0 0.0021674656496218263 0.0035083256758676948 0 0.0016740315937495587 0.0038239558780291203 0 0.0011151139733932198 0.0033193884207918028 0 0.0016813055275974763 0.0031732064152205064 0 0.0011151139733932198 0.0033193884207918028 0 0.0011818438779127606 0.0029725336809865947 0 0.00090858630362531377 0.0028736297012599155 0 0.00091275557487902862 0.002606888299199622 0 0.0011818438779127606 0.0029725336809865947 0 0.0010459304047451205 0.0031044372493030698 0 0.00090858630362531377 0.0028736297012599155 0 0.001951171189866032 0.0035968227517496269 0 0.00205233973211088 0.0033333162161850527 0 0.0018408719997210019 0.0033597234962767495 0 0.0016813055275974763 0.0031732064152205064 0 0.0015057366866907946 0.0030690241769761209 0 0.00205233973211088 0.0033333162161850527 0 0.0019324936408217637 0.0031436075380234809 0 0.0018408719997210019 0.0033597234962767495 0 0.0012473600950494868 0.0026960376628566056 0 0.00090501660015002811 0.0024931155037055067 0 0.00099752697258693882 0.0027766817930986666 0 0.00090501660015002811 0.0024931155037055067 0 0.00099752697258693882 0.0027766817930986666 0 0.00071165046025715398 0.0026455258056534673 0 0.0011818438779127606 0.0029725336809865947 0 0.0014474490191372529 0.0033295252378322151 0 0.0010459304047451205 0.0031044372493030698 0 0.0015057366866907946 0.0030690241769761209 0 0.0010114014288512621 0.0028237751438193416 0 0.0015308694029864964 0.0033203719362016881 0 0.0016410281476507325 0.0033286615240638844 0 0.0015772547330157505 0.0034325342878326094 0 0.0015346797884614597 0.0032000682415402565 0 0.0015308694029864964 0.0033203719362016881 0 0.0016410281476507325 0.0033286615240638844 0 0.0017205610357412687 0.0034952562089728186 0 0.0016410281476507325 0.0033286615240638844 0 0.0015772547330157505 0.0034325342878326094 0 0.0017205610357412687 0.0034952562089728186 0 0.0016410281476507325 0.0033286615240638844 0 0.0018408719997210019 0.0033597234962767495 0 0.0016410281476507325 0.0033286615240638844 0 0.0018408719997210019 0.0033597234962767495 0 0.0017621778034074649 0.0032449120509551854 0 0.0019324936408217637 0.0031436075380234809 0 0.0017621778034074649 0.0032449120509551854 0 0.0016365617365430287 0.0031425062071186419 0 0.0019324936408217637 0.0031436075380234809 0 0.0018408719997210019 0.0033597234962767495 0 0.0017621778034074649 0.0032449120509551854 0 0.0015346797884614597 0.0032000682415402565 0 0.0016410281476507325 0.0033286615240638844 0 0.0016639785613718719 0.003120849921513538 0 0.0016410281476507325 0.0033286615240638844 0 0.0017621778034074649 0.0032449120509551854 0 0.0016365617365430287 0.0031425062071186419 0 0.0016428297383145919 0.0032821053821055746 0 0.0016441068426954922 0.0031956834450023782 0 0.0012645567398177511 0.0022121296975336716 0 0.0012726185176145902 0.0020293456596546674 0 0.0013256914244403745 0.0020046142558625105 0 0.001395769917274617 0.0026493787297957876 0 0.00145591070624096 0.0025562772377694743 0 0.0015346797884614597 0.0032000682415402565 0 0.0016639785613718719 0.003120849921513538 0 0.0016711422662262574 0.0028971198752068155 0 0.0012645567398177511 0.0022121296975336716 0 0.0012726185176145902 0.0020293456596546674 0 0.0012368196761319914 0.0020312447320141695 0 0.0016441068426954922 0.0031956834450023782 0 0.00145591070624096 0.0025562772377694743 0 0.0016365617365430287 0.0031425062071186419 0 0.00166034798996942 0.0029669992424284095 0 0.0016532183090078546 0.0029583427778782025 0 0.0012726185176145902 0.0020293456596546674 0 0.0013256914244403745 0.0020046142558625105 0 0.0012849256100070858 0.0019887014542234785 0 0.0012726185176145902 0.0020293456596546674 0 0.0012368196761319914 0.0020312447320141695 0 0.0012498750302913347 0.0019934591282034495 0 0.0012726185176145902 0.0020293456596546674 0 0.0012849256100070858 0.0019887014542234785 0 0.0012498750302913347 0.0019934591282034495 0 0.00166034798996942 0.0029669992424284095 0 0.0016532183090078546 0.0029583427778782025 0 0.0016133002650566117 0.0030168430504105559 0 0.0015057366866907946 0.0030690241769761209 0 0.0016782818315485525 0.0029217895932270449 0 0.0019324936408217637 0.0031436075380234809 0 0.0016365617365430287 0.0031425062071186419 0 0.00166034798996942 0.0029669992424284095 0 0.0012473600950494868 0.0026960376628566056 0 0.00166034798996942 0.0029669992424284095 0 0.0014524494862674965 0.0029747911913395541 0 0.00166034798996942 0.0029669992424284095 0 0.0014524494862674965 0.0029747911913395541 0 0.0016133002650566117 0.0030168430504105559 0 0.0014524494862674965 0.0029747911913395541 0 0.0016133002650566117 0.0030168430504105559 0 0.0016160896674812289 0.0030965577896586026 0 0.0011640870967495835 0.0016486163826987296 0 0.0011005454443899633 0.0016344200462394087 0 0.0011218629510774949 0.0016738693311684715 0 0.0014524494862674965 0.0029747911913395541 0 0.0016160896674812289 0.0030965577896586026 0 0.0012523915496982436 0.0030512102985160196 0 0.0013044157770233913 0.0020584114389304705 0 0.0012160697373032698 0.0023676307015010811 0 0.0011974452397633055 0.0018135898058851314 0 0.0012034001102729523 0.0018146844287352639 0 0.0012005903013113869 0.0018433092355135165 0 0.0012588895835806808 0.0019656543174522063 0 0.0012458856265685368 0.0019466676724211763 0 0.0012388259075175325 0.0019653899848944036 0 0.0012588895835806808 0.0019656543174522063 0 0.0012657996891778966 0.0019665839033047409 0 0.0012458856265685368 0.0019466676724211763 0 0.0012694053544105169 0.0019752568266292706 0 0.0012831219624693136 0.0019877877074637056 0 0.0012588895835806808 0.0019656543174522063 0 0.0012849256100070858 0.0019887014542234785 0 0.0013164516495719331 0.0019637175902494182 0 0.0012588895835806808 0.0019656543174522063 0 0.0012849256100070858 0.0019887014542234785 0 0.0012498750302913347 0.0019934591282034495 0 0.00145591070624096 0.0025562772377694743 0 0.0013044157770233913 0.0020584114389304705 0 0.0013350625781943998 0.0024008704545353814 0 0.0014683020971278332 0.0021344174140298954 0 0.0013519597327574303 0.002116507230540804 0 0.00145591070624096 0.0025562772377694743 0 0.0012831219624693136 0.0019877877074637056 0 0.0016532183090078546 0.0029583427778782025 0 0.0016133002650566117 0.0030168430504105559 0 0.0016160896674812289 0.0030965577896586026 0 0.0013256914244403745 0.0020046142558625105 0 0.0012849256100070858 0.0019887014542234785 0 0.0013164516495719331 0.0019637175902494182 0 0.0013044157770233913 0.0020584114389304705 0 0.0012831219624693136 0.0019877877074637056 0 0.00099752697258693882 0.0027766817930986666 0 0.00086621410927245775 0.0029914178776514651 0 0.00071165046025715398 0.0026455258056534673 0 0.00099752697258693882 0.0027766817930986666 0 0.00086621410927245775 0.0029914178776514651 0 0.0012523915496982436 0.0030512102985160196 0 0.0012473600950494868 0.0026960376628566056 0 0.00099752697258693882 0.0027766817930986666 0 0.0012523915496982436 0.0030512102985160196 0 0.0012473600950494868 0.0026960376628566056 0 0.0014524494862674965 0.0029747911913395541 0 0.0012523915496982436 0.0030512102985160196 0 0.0011005454443899633 0.0016344200462394087 0 0.0010962481278077622 0.0016889486384304767 0 0.0011218629510774949 0.0016738693311684715 0 0.0011005454443899633 0.0016344200462394087 0 0.0010581203272900135 0.0016808048121850353 0 0.0010962481278077622 0.0016889486384304767 0 0.0010252275040240465 0.0016160875527002577 0 0.0011005454443899633 0.0016344200462394087 0 0.0010509861332903966 0.0016476596370788832 0 0.0011005454443899633 0.0016344200462394087 0 0.0010509861332903966 0.0016476596370788832 0 0.0010581203272900135 0.0016808048121850353 0 0.00084752762795523582 0.0023395429346005259 0 0.0012160697373032698 0.0023676307015010811 0 0.0010509861332903966 0.0016476596370788832 0 0.0010581203272900135 0.0016808048121850353 0 0.0010172328844077322 0.0016546260050247167 0 0.0010252275040240465 0.0016160875527002577 0 0.0010509861332903966 0.0016476596370788832 0 0.0010172328844077322 0.0016546260050247167 0 0.0010581203272900135 0.0016808048121850353 0 0.0010761755283326055 0.0017348220980056236 0 0.00098827315543032401 0.0016889368651229939 0 0.0010581203272900135 0.0016808048121850353 0 0.00098827315543032401 0.0016889368651229939 0 0.0010172328844077322 0.0016546260050247167 0 0.0010962481278077622 0.0016889486384304767 0 0.0010761755283326055 0.0017348220980056236 0 0.0011253313312747904 0.0017170480676761862 0 0.0010581203272900135 0.0016808048121850353 0 0.0010962481278077622 0.0016889486384304767 0 0.0010761755283326055 0.0017348220980056236 0 0.0010962481278077622 0.0016889486384304767 0 0.0011218629510774949 0.0016738693311684715 0 0.0011253313312747904 0.0017170480676761862 0 0.0010976587502050121 0.0017849467889536393 0 0.0010761755283326055 0.0017348220980056236 0 0.0011253313312747904 0.0017170480676761862 0 0.0011150108391985894 0.0018410431465903979 0 0.0011398901308227838 0.0017212963964047679 0 0.0012657996891778966 0.0019665839033047409 0 0.0012504525389435024 0.0019294782662104494 0 0.0012458856265685368 0.0019466676724211763 0 0.0012831219624693136 0.0019877877074637056 0 0.0012232330515060833 0.0018713437415399559 0 0.0012504525389435024 0.0019294782662104494 0 0.0012458856265685368 0.0019466676724211763 0 0.0012231696106684814 0.00191093739138187 0 0.0011974452397633055 0.0018135898058851314 0 0.0012005903013113869 0.0018433092355135165 0 0.0011704531690953294 0.0018550738046511097 0 0.0011640870967495835 0.0016486163826987296 0 0.0011218629510774949 0.0016738693311684715 0 0.0011253313312747904 0.0017170480676761862 0 0.0013044157770233913 0.0020584114389304705 0 0.0011398901308227838 0.0017212963964047679 0 0.0012005903013113869 0.0018433092355135165 0 0.0011704531690953294 0.0018550738046511097 0 0.0012011678143217003 0.0018777436338938693 0 0.0011661074226240104 0.0018722908215887237 0 0.0011704531690953294 0.0018550738046511097 0 0.0012011678143217003 0.0018777436338938693 0 0.0012504525389435024 0.0019294782662104494 0 0.0012011678143217003 0.0018777436338938693 0 0.0012231696106684814 0.00191093739138187 0 0.0012232330515060833 0.0018713437415399559 0 0.0012084287518922272 0.0018892255631748056 0 0.0012109363567513885 0.0018906280803982359 0 0.0012011678143217003 0.0018777436338938693 0 0.0012231696106684814 0.00191093739138187 0 0.0012109363567513885 0.0018906280803982359 0 0.0012231696106684814 0.00191093739138187 0 0.0012216906235528069 0.00192865650352528 0 0.0012303915533241111 0.0019422350150065434 0 0.0012216906235528069 0.00192865650352528 0 0.001227350572178935 0.0019730643002336288 0 0.0012458856265685368 0.0019466676724211763 0 0.0012231696106684814 0.00191093739138187 0 0.0012303915533241111 0.0019422350150065434 0 0.0012231696106684814 0.00191093739138187 0 0.0012303915533241111 0.0019422350150065434 0 0.0012216906235528069 0.00192865650352528 0 0.0012303915533241111 0.0019422350150065434 0 0.0012388259075175325 0.0019653899848944036 0 0.001227350572178935 0.0019730643002336288 0 0.0012458856265685368 0.0019466676724211763 0 0.0012303915533241111 0.0019422350150065434 0 0.0012388259075175325 0.0019653899848944036 0 0.0012216906235528069 0.00192865650352528 0 0.0012264290375489726 0.0019754614970339214 0 0.001227350572178935 0.0019730643002336288 0 0.0012216906235528069 0.00192865650352528 0 0.001212729038359792 0.0019294308073885768 0 0.0012264290375489726 0.0019754614970339214 0 0.0012143209444483193 0.0018982630160919666 0 0.0012216906235528069 0.00192865650352528 0 0.001212729038359792 0.0019294308073885768 0 0.0012143209444483193 0.0018982630160919666 0 0.0012109363567513885 0.0018906280803982359 0 0.0012216906235528069 0.00192865650352528 0 0.0012576141717965154 0.0020776767417586828 0 0.0012535134157869415 0.0020449793828112117 0 0.0013387236382123974 0.0022072451098584319 0 0.001368290433887652 0.0021817934472348412 0 0.0013110238397393099 0.0021517568933796757 0 0.0011878269260400523 0.0019035721127907651 0 0.001212729038359792 0.0019294308073885768 0 0.0011916686336173557 0.0019544110242184021 0 0.0013968783589508285 0.0021210142242115075 0 0.0013110238397393099 0.0021517568933796757 0 0.0012604711403496082 0.0020402604786789562 0 0.0011916686336173557 0.0019544110242184021 0 0.0012264290375489726 0.0019754614970339214 0 0.0012604711403496082 0.0020402604786789562 0 0.001212729038359792 0.0019294308073885768 0 0.0011916686336173557 0.0019544110242184021 0 0.0012264290375489726 0.0019754614970339214 0 0.0012264290375489726 0.0019754614970339214 0 0.0012604711403496082 0.0020402604786789562 0 0.0012327362440376342 0.0020101638771247532 0 0.0013968783589508285 0.0021210142242115075 0 0.0013817929338966358 0.002069804820295367 0 0.0012604711403496082 0.0020402604786789562 0 0.0012535134157869415 0.0020449793828112117 0 0.0012572877195071101 0.0020384479378565841 0 0.0013817929338966358 0.002069804820295367 0 0.0013407498183066237 0.001976491511365698 0 0.0012604711403496082 0.0020402604786789562 0 0.0013407498183066237 0.001976491511365698 0 0.0012604711403496082 0.0020402604786789562 0 0.00124716844020773 0.0019958108978788106 0 0.0012604711403496082 0.0020402604786789562 0 0.0012327362440376342 0.0020101638771247532 0 0.00124716844020773 0.0019958108978788106 0 0.0012327362440376342 0.0020101638771247532 0 0.00124716844020773 0.0019958108978788106 0 0.001224541843605378 0.0020055732428230348 0 0.0012153019669528249 0.0019807561048167479 0 0.00124716844020773 0.0019958108978788106 0 0.001224541843605378 0.0020055732428230348 0 0.0012327362440376342 0.0020101638771247532 0 0.001224541843605378 0.0020055732428230348 0 0.0012258975422401246 0.0020009262267737557 0 0.001224541843605378 0.0020055732428230348 0 0.0012265283920118752 0.0020115899229719986 0 0.0012258975422401246 0.0020009262267737557 0 0.0012717689174874171 0.0021421578913533722 0 0.0012202924468807822 0.0019717381167133037 0 0.0012237189768257882 0.0020125684413177902 0 0.001224541843605378 0.0020055732428230348 0 0.0012265283920118752 0.0020115899229719986 0 0.0012237189768257882 0.0020125684413177902 0 0.0012368196761319914 0.0020312447320141695 0 0.0012265283920118752 0.0020115899229719986 0 0.0012717689174874171 0.0021421578913533722 0 0.0011901777147278365 0.0020353144943836493 0 0.0012368196761319914 0.0020312447320141695 0 0.0012315924991883537 0.0019927828456154386 0 0.0012498750302913347 0.0019934591282034495 0 0.0012265283920118752 0.0020115899229719986 0 0.0012315924991883537 0.0019927828456154386 0 0.0012258975422401246 0.0020009262267737557 0 0.0012368196761319914 0.0020312447320141695 0 0.0012265283920118752 0.0020115899229719986 0 0.0012315924991883537 0.0019927828456154386 0 0.0012315924991883537 0.0019927828456154386 0 0.001227350572178935 0.0019730643002336288 0 0.0012258975422401246 0.0020009262267737557 0 0.0012588895835806808 0.0019656543174522063 0 0.0012498750302913347 0.0019934591282034495 0 0.0012388259075175325 0.0019653899848944036 0 0.0012315924991883537 0.0019927828456154386 0 0.0012498750302913347 0.0019934591282034495 0 0.0012388259075175325 0.0019653899848944036 0 0.0012315924991883537 0.0019927828456154386 0 0.0012388259075175325 0.0019653899848944036 0 0.001227350572178935 0.0019730643002336288 0 0.0012264290375489726 0.0019754614970339214 0 0.0012327362440376342 0.0020101638771247532 0 0.001227350572178935 0.0019730643002336288 0 0.0012327362440376342 0.0020101638771247532 0 0.001227350572178935 0.0019730643002336288 0 0.0012258975422401246 0.0020009262267737557 0 0.0050539163387196056 0.00088193775495624971 0 0.0050877060959984262 0.00083195100610426384 0 0.0050604524835177883 0.0008290572303570053 0 0.0050539163387196056 0.00088193775495624971 0 0.0050765726894334085 0.00090937040320520962 0 0.0050886869020252542 0.00087661453457379371 0 0.0050539163387196056 0.00088193775495624971 0 0.0050886869020252542 0.00087661453457379371 0 0.0050877060959984262 0.00083195100610426384 0 0.0051218724931339516 0.0010344733430171164 0 0.0050503782401380799 0.00097783384205452919 0 0.0050604524835177883 0.0008290572303570053 0 0.0051940947484722527 0.00097983017607457777 0 0.0050385323835120625 0.00082375724698115183 0 0.0050503782401380799 0.00097783384205452919 0 0.0049999181465643361 0.00097002011057746378 0 0.0050604524835177883 0.0008290572303570053 0 0.0050503782401380799 0.00097783384205452919 0 0.0049999181465643361 0.00097002011057746378 0 0.0050326054145843901 0.0010568161358886178 0 0.0050000121058974513 0.00097023574589827789 0 0.005017462937298712 0.0010909759452015304 0 0.0051218724931339516 0.0010344733430171164 0 0.0050503782401380799 0.00097783384205452919 0 0.0050326054145843901 0.0010568161358886178 0 0.0050000009690251822 0.00097019292071948246 0 0.0050598567532841206 0.001111645882028593 0 0.0049999931872668204 0.0012618721372864067 0 0.0051218724931339516 0.0010344733430171164 0 0.0050326054145843901 0.0010568161358886178 0 0.0050948264328275475 0.0011011729663776637 0 0.0050598567532841206 0.001111645882028593 0 0.0050874586227033797 0.0012466821907536965 0 0.0049999931872668204 0.0012618721372864067 0 0.005017462937298712 0.0010909759452015304 0 0.0044681003385293652 0.0015107848251690872 0 0.0050326054145843901 0.0010568161358886178 0 0.0050948264328275475 0.0011011729663776637 0 0.0050709645244313862 0.0011461005629807446 0 0.0050598567532841206 0.001111645882028593 0 0.0050874586227033797 0.0012466821907536965 0 0.0051168975554665005 0.0012536656342961431 0 0.0046456666951596552 0.001512649725723096 0 0.0044681003385293652 0.0015107848251690872 0 0.0051218724931339516 0.0010344733430171164 0 0.0050948264328275475 0.0011011729663776637 0 0.0051435282767802685 0.0011622336631913963 0 0.0051940947484722527 0.00097983017607457777 0 0.00394373924534032 0.0011741568343972425 0 0.0050948264328275475 0.0011011729663776637 0 0.0051435282767802685 0.0011622336631913963 0 0.0050709645244313862 0.0011461005629807446 0 0.0050539163387196056 0.00088193775495624971 0 0.0050765726894334085 0.00090937040320520962 0 0.0050589842208280363 0.00094662652219706228 0 0.0050765726894334085 0.00090937040320520962 0 0.0051100242466394384 0.00090196548871298481 0 0.0051174340996420209 0.0009709533372165703 0 0.0050765726894334085 0.00090937040320520962 0 0.0051100242466394384 0.00090196548871298481 0 0.0050886869020252542 0.00087661453457379371 0 0.0051100242466394384 0.00090196548871298481 0 0.0051340717397874219 0.00093055035293934706 0 0.0051174340996420209 0.0009709533372165703 0 0.0051340717397874219 0.00093055035293934706 0 0.0051395242611529997 0.00087985681447025398 0 0.005161007517742941 0.0009252421018558927 0 0.0051340717397874219 0.00093055035293934706 0 0.0051420038643366431 0.00096431812945449024 0 0.0051174340996420209 0.0009709533372165703 0 0.0051100242466394384 0.00090196548871298481 0 0.0051340717397874219 0.00093055035293934706 0 0.0051395242611529997 0.00087985681447025398 0 0.0051395242611529997 0.00087985681447025398 0 0.0051140643895302203 0.00085845342706642412 0 0.0051384322425412007 0.00080811682860349994 0 0.0051100242466394384 0.00090196548871298481 0 0.0050886869020252542 0.00087661453457379371 0 0.0051140643895302203 0.00085845342706642412 0 0.0051100242466394384 0.00090196548871298481 0 0.0051395242611529997 0.00087985681447025398 0 0.0051140643895302203 0.00085845342706642412 0 0.0050886869020252542 0.00087661453457379371 0 0.0051140643895302203 0.00085845342706642412 0 0.0050877060959984262 0.00083195100610426384 0 0.0051140643895302203 0.00085845342706642412 0 0.0051384322425412007 0.00080811682860349994 0 0.0050877060959984262 0.00083195100610426384 0 0.0051384322425412007 0.00080811682860349994 0 0.0051025507602430863 0.00074913654232113631 0 0.0050877060959984262 0.00083195100610426384 0 0.0051384322425412007 0.00080811682860349994 0 0.0051865310509995729 0.00075605142683346364 0 0.0051768105649447685 0.0008421430865770455 0 0.0051395242611529997 0.00087985681447025398 0 0.0051384322425412007 0.00080811682860349994 0 0.0051768105649447685 0.0008421430865770455 0 0.0051865310509995729 0.00075605142683346364 0 0.0051498059364656207 0.00069651905380448663 0 0.0052254649724241603 0.00061616904357390877 0 0.0051384322425412007 0.00080811682860349994 0 0.0051865310509995729 0.00075605142683346364 0 0.0051498059364656207 0.00069651905380448663 0 0.0051384322425412007 0.00080811682860349994 0 0.0051498059364656207 0.00069651905380448663 0 0.0051025507602430863 0.00074913654232113631 0 0.0051498059364656207 0.00069651905380448663 0 0.0051025507602430863 0.00074913654232113631 0 0.0051058401962075011 0.00063490238001906072 0 0.0051025507602430863 0.00074913654232113631 0 0.0050631850922372001 0.00064594353850255305 0 0.0051058401962075011 0.00063490238001906072 0 0.0051025507602430863 0.00074913654232113631 0 0.0050604524835177883 0.0008290572303570053 0 0.0050631850922372001 0.00064594353850255305 0 0.0051025507602430863 0.00074913654232113631 0 0.0050877060959984262 0.00083195100610426384 0 0.0050604524835177883 0.0008290572303570053 0 0.0049999181465643361 0.00097002011057746378 0 0.0050604524835177883 0.0008290572303570053 0 0.0049999586410109454 0.00071189602723596603 0 0.0050604524835177883 0.0008290572303570053 0 0.0049999586410109454 0.00071189602723596603 0 0.0050631850922372001 0.00064594353850255305 0 0.0050631850922372001 0.00064594353850255305 0 0.0050771367978492245 0.00046696432711571694 0 0.0049998983728279335 0.00045345839428636089 0 0.0049999586410109454 0.00071189602723596603 0 0.0050631850922372001 0.00064594353850255305 0 0.0049998983728279335 0.00045345839428636089 0 0.0050631850922372001 0.00064594353850255305 0 0.0051058401962075011 0.00063490238001906072 0 0.0050771367978492245 0.00046696432711571694 0 0.0051058401962075011 0.00063490238001906072 0 0.0050771367978492245 0.00046696432711571694 0 0.0051477154052749644 0.00058267809735162589 0 0.0050771367978492245 0.00046696432711571694 0 0.0050771641835072583 0.00032285360797852073 0 0.0051342822881228481 0.00043440156030601166 0 0.0050771367978492245 0.00046696432711571694 0 0.0049998983728279335 0.00045345839428636089 0 0.0050000195035588696 0.00019566703855317696 0 0.0050771367978492245 0.00046696432711571694 0 0.0050000195035588696 0.00019566703855317696 0 0.0050771641835072583 0.00032285360797852073 0 0.0050771641835072583 0.00032285360797852073 0 0.0050544835421125981 0.00027471423839625051 0 0.0051095783243240989 0.00031759933472385004 0 0.0049999875075211484 -0.00010116428835484678 0 0.0050000021616679914 0.00019518403901774695 0 0.0051482881680307291 7.6829440049798737e-06 0 0.0050000195035588696 0.00019566703855317696 0 0.0050771641835072583 0.00032285360797852073 0 0.0050544835421125981 0.00027471423839625051 0 0.0050000106711040083 0.00019520527062438136 0 0.0050987310519270204 0.00013544919685651332 0 0.0051095783243240989 0.00031759933472385004 0 0.005146815926691071 0.00037542121657954658 0 0.0051738150242464555 0.00033470663918427662 0 0.0050771641835072583 0.00032285360797852073 0 0.0051095783243240989 0.00031759933472385004 0 0.0051342822881228481 0.00043440156030601166 0 0.0051095783243240989 0.00031759933472385004 0 0.005146815926691071 0.00037542121657954658 0 0.0051342822881228481 0.00043440156030601166 0 0.005146815926691071 0.00037542121657954658 0 0.0051342822881228481 0.00043440156030601166 0 0.0051581613152838299 0.00043115099168415384 0 0.0051342822881228481 0.00043440156030601166 0 0.0051208920888178447 0.00051920462944485745 0 0.0051581613152838299 0.00043115099168415384 0 0.0051316601254735202 0.00044900299363114773 0 0.0051709462823439764 0.0005661805723513047 0 0.0051342822881228481 0.00043440156030601166 0 0.0051477154052749644 0.00058267809735162589 0 0.0052254649724241603 0.00061616904357390877 0 0.0050771367978492245 0.00046696432711571694 0 0.0051342822881228481 0.00043440156030601166 0 0.0051477154052749644 0.00058267809735162589 0 0.0051498059364656207 0.00069651905380448663 0 0.0051058401962075011 0.00063490238001906072 0 0.0051477154052749644 0.00058267809735162589 0 0.0051498059364656207 0.00069651905380448663 0 0.0051477154052749644 0.00058267809735162589 0 0.0052254649724241603 0.00061616904357390877 0 0.0051208920888178447 0.00051920462944485745 0 0.0051814964391932736 0.00056197988130754213 0 0.0051393302900622061 0.00063860698350657187 0 0.0051709462823439764 0.0005661805723513047 0 0.0051856296244585688 0.00069803429449332333 0 0.0051208920888178447 0.00051920462944485745 0 0.0051814964391932736 0.00056197988130754213 0 0.0051661854448235879 0.00049383613378954053 0 0.0051814964391932736 0.00056197988130754213 0 0.0052077882644626814 0.00047227035631488981 0 0.0052519444724933558 0.00055546129277303296 0 0.0051814964391932736 0.00056197988130754213 0 0.0052519444724933558 0.00055546129277303296 0 0.0052029856661230519 0.00065005562456139281 0 0.0051814964391932736 0.00056197988130754213 0 0.0052077882644626814 0.00047227035631488981 0 0.0051661854448235879 0.00049383613378954053 0 0.0051208920888178447 0.00051920462944485745 0 0.0051661854448235879 0.00049383613378954053 0 0.0051581613152838299 0.00043115099168415384 0 0.0052077882644626814 0.00047227035631488981 0 0.0051661854448235879 0.00049383613378954053 0 0.0051581613152838299 0.00043115099168415384 0 0.005146815926691071 0.00037542121657954658 0 0.0051581613152838299 0.00043115099168415384 0 0.0051966144527937274 0.0003919879051980824 0 0.0052077882644626814 0.00047227035631488981 0 0.0051581613152838299 0.00043115099168415384 0 0.0051966144527937274 0.0003919879051980824 0 0.0051966144527937274 0.0003919879051980824 0 0.0052383242788302652 0.00035150178148213545 0 0.005243814312346556 0.00041487229239141636 0 0.0052077882644626814 0.00047227035631488981 0 0.0051966144527937274 0.0003919879051980824 0 0.005243814312346556 0.00041487229239141636 0 0.0052251077838868648 0.00029835846944066378 0 0.0052383242788302652 0.00035150178148213545 0 0.0051738150242464555 0.00033470663918427662 0 0.0051966144527937274 0.0003919879051980824 0 0.0052383242788302652 0.00035150178148213545 0 0.0051738150242464555 0.00033470663918427662 0 0.005146815926691071 0.00037542121657954658 0 0.0051966144527937274 0.0003919879051980824 0 0.0051738150242464555 0.00033470663918427662 0 0.0049279302681062313 0.00055340745268647143 0 0.004793101283456426 0.00089923985965844439 0 0.0051199890676611624 0.00088595614029151693 0 0.0046273802497712535 0.00032941240538857965 0 0.0049279302681062313 0.00055340745268647143 0 0.004793101283456426 0.00089923985965844439 0 0.0049087875648101149 0.00035605359077797179 0 0.0050588857690529506 0.00063346834709331718 0 0.0052832424280894793 0.00028293036616568347 0 0.0052383242788302652 0.00035150178148213545 0 0.005310365790281729 0.00039100100617701683 0 0.0052383242788302652 0.00035150178148213545 0 0.005243814312346556 0.00041487229239141636 0 0.005310365790281729 0.00039100100617701683 0 0.005243814312346556 0.00041487229239141636 0 0.005310365790281729 0.00039100100617701683 0 0.0052698874950287376 0.00046999512516956191 0 0.0050588857690529506 0.00063346834709331718 0 0.0051627478700836628 0.00094480947137279823 0 0.004793101283456426 0.00089923985965844439 0 0.005010809212941723 0.0012364704910701638 0 0.0051199890676611624 0.00088595614029151693 0 0.005310365790281729 0.00039100100617701683 0 0.0053412154716484883 0.00052511136841764013 0 0.0052698874950287376 0.00046999512516956191 0 0.004793101283456426 0.00089923985965844439 0 0.005010809212941723 0.0012364704910701638 0 0.0049875025207898717 0.0013773676467577489 0 0.005010809212941723 0.0012364704910701638 0 0.0049875025207898717 0.0013773676467577489 0 0.0050428655598254738 0.0013436913100598297 0 0.0053412154716484883 0.00052511136841764013 0 0.0052698874950287376 0.00046999512516956191 0 0.0052519444724933558 0.00055546129277303296 0 0.0052077882644626814 0.00047227035631488981 0 0.0052698874950287376 0.00046999512516956191 0 0.0052519444724933558 0.00055546129277303296 0 0.0052077882644626814 0.00047227035631488981 0 0.005243814312346556 0.00041487229239141636 0 0.0052698874950287376 0.00046999512516956191 0 0.0052519444724933558 0.00055546129277303296 0 0.0052896325196656064 0.00062912890077442159 0 0.0052029856661230519 0.00065005562456139281 0 0.0053412154716484883 0.00052511136841764013 0 0.0052519444724933558 0.00055546129277303296 0 0.0052896325196656064 0.00062912890077442159 0 0.0053412154716484883 0.00052511136841764013 0 0.0052896325196656064 0.00062912890077442159 0 0.0053727030078879433 0.00071111805302153709 0 0.0051627478700836628 0.00094480947137279823 0 0.0052382428516116672 0.0010614333790311874 0 0.0052896325196656064 0.00062912890077442159 0 0.0052721815699861086 0.00070620960046263682 0 0.0053727030078879433 0.00071111805302153709 0 0.0052721815699861086 0.00070620960046263682 0 0.0052369729183518021 0.00084018606573919082 0 0.0053727030078879433 0.00071111805302153709 0 0.0052369729183518021 0.00084018606573919082 0 0.0053719217091281911 0.00096376797245715693 0 0.0053727030078879433 0.00071111805302153709 0 0.0052721815699861086 0.00070620960046263682 0 0.0052369729183518021 0.00084018606573919082 0 0.0052029856661230519 0.00065005562456139281 0 0.0052435600679297404 0.00081627213789336171 0 0.0051996083806410166 0.00066496488766081723 0 0.0052478291791561967 0.00079492033543849562 0 0.0052029856661230519 0.00065005562456139281 0 0.0051744256653967801 0.00076631849287620956 0 0.0052896325196656064 0.00062912890077442159 0 0.0052721815699861086 0.00070620960046263682 0 0.0052029856661230519 0.00065005562456139281 0 0.0052029856661230519 0.00065005562456139281 0 0.0051393302900622061 0.00063860698350657187 0 0.0051744256653967801 0.00076631849287620956 0 0.0051814964391932736 0.00056197988130754213 0 0.0052029856661230519 0.00065005562456139281 0 0.0051393302900622061 0.00063860698350657187 0 0.0051865310509995729 0.00075605142683346364 0 0.0052254649724241603 0.00061616904357390877 0 0.0052324928400548096 0.00076036118674147328 0 0.0052324928400548096 0.00076036118674147328 0 0.0051768105649447685 0.0008421430865770455 0 0.0051947087434480368 0.00086933778058151867 0 0.0051865310509995729 0.00075605142683346364 0 0.0052324928400548096 0.00076036118674147328 0 0.0051768105649447685 0.0008421430865770455 0 0.0051856296244585688 0.00069803429449332333 0 0.0051960619516001156 0.00081466277811938811 0 0.0052324928400548096 0.00076036118674147328 0 0.005217737747085744 0.00086599094385415788 0 0.0051947087434480368 0.00086933778058151867 0 0.005217737747085744 0.00086599094385415788 0 0.0051947087434480368 0.00086933778058151867 0 0.0051839690584569477 0.00093595612313976157 0 0.0051947087434480368 0.00086933778058151867 0 0.0051839690584569477 0.00093595612313976157 0 0.005161007517742941 0.0009252421018558927 0 0.0051768105649447685 0.0008421430865770455 0 0.0051947087434480368 0.00086933778058151867 0 0.005161007517742941 0.0009252421018558927 0 0.0051395242611529997 0.00087985681447025398 0 0.0051768105649447685 0.0008421430865770455 0 0.005161007517742941 0.0009252421018558927 0 0.0051340717397874219 0.00093055035293934706 0 0.005161007517742941 0.0009252421018558927 0 0.0051420038643366431 0.00096431812945449024 0 0.005161007517742941 0.0009252421018558927 0 0.0051420038643366431 0.00096431812945449024 0 0.005156011189698404 0.00097353275279299671 0 0.0051839690584569477 0.00093595612313976157 0 0.005156011189698404 0.00097353275279299671 0 0.0051555259179278242 0.0010060948284380492 0 0.0051839690584569477 0.00093595612313976157 0 0.005161007517742941 0.0009252421018558927 0 0.005156011189698404 0.00097353275279299671 0 0.0051839690584569477 0.00093595612313976157 0 0.0051829111002278296 0.00097809945686173298 0 0.0052105622696955178 0.00094882828088648224 0 0.0051839690584569477 0.00093595612313976157 0 0.0051555259179278242 0.0010060948284380492 0 0.0051829111002278296 0.00097809945686173298 0 0.0051555259179278242 0.0010060948284380492 0 0.0051829111002278296 0.00097809945686173298 0 0.005186270635711766 0.0010258861275461943 0 0.0051829111002278296 0.00097809945686173298 0 0.005186270635711766 0.0010258861275461943 0 0.0052105622696955178 0.00094882828088648224 0 0.005186270635711766 0.0010258861275461943 0 0.0052105622696955178 0.00094882828088648224 0 0.005255115878077493 0.0010770690166097764 0 0.005220687660981633 0.0009118177161789757 0 0.0052852761755621275 0.00097427013498501021 0 0.005255115878077493 0.0010770690166097764 0 0.0052166529326725143 0.00093482132520184588 0 0.0052607499930951655 0.001062366920015553 0 0.0052369729183518021 0.00084018606573919082 0 0.0053719217091281911 0.00096376797245715693 0 0.005289768601882296 0.0010440381651698088 0 0.0052435600679297404 0.00081627213789336171 0 0.00528023413941514 0.0010140642049832446 0 0.0052478291791561967 0.00079492033543849562 0 0.005220687660981633 0.0009118177161789757 0 0.0052852761755621275 0.00097427013498501021 0 0.005217737747085744 0.00086599094385415788 0 0.0051839690584569477 0.00093595612313976157 0 0.0052105622696955178 0.00094882828088648224 0 0.0052478291791561967 0.00079492033543849562 0 0.0051744256653967801 0.00076631849287620956 0 0.005220687660981633 0.0009118177161789757 0 0.0051960619516001156 0.00081466277811938811 0 0.0052166529326725143 0.00093482132520184588 0 0.005151973572937351 0.0013571383085220685 0 0.0051207761278555435 0.0013597279616839526 0 0.0051351336495456118 0.0013969112321234958 0 0.005151973572937351 0.0013571383085220685 0 0.0051785793027793259 0.0013708005100185868 0 0.0051351336495456118 0.0013969112321234958 0 0.005151973572937351 0.0013571383085220685 0 0.0051785793027793259 0.0013708005100185868 0 0.0051691457739236023 0.0013220994777702949 0 0.005151973572937351 0.0013571383085220685 0 0.0051369969387562008 0.0013271088424748239 0 0.0051207761278555435 0.0013597279616839526 0 0.005151973572937351 0.0013571383085220685 0 0.0051691457739236023 0.0013220994777702949 0 0.0051369969387562008 0.0013271088424748239 0 0.00528023413941514 0.0010140642049832446 0 0.005270684391725438 0.0011798932331191722 0 0.0052698793740110694 0.0011577350321775809 0 0.0052571463347955132 0.0011869059738189535 0 0.0053719217091281911 0.00096376797245715693 0 0.005289768601882296 0.0010440381651698088 0 0.0052563590653980918 0.0012018117550530905 0 0.0052053054207029511 0.0012639424515214662 0 0.0051691457739236023 0.0013220994777702949 0 0.0051583879320808547 0.0012949634895509047 0 0.0051785793027793259 0.0013708005100185868 0 0.0052053054207029511 0.0012639424515214662 0 0.0052563590653980918 0.0012018117550530905 0 0.0051785793027793259 0.0013708005100185868 0 0.0052053054207029511 0.0012639424515214662 0 0.0051691457739236023 0.0013220994777702949 0 0.0051369969387562008 0.0013271088424748239 0 0.0051583879320808547 0.0012949634895509047 0 0.0051240445230175255 0.0012956559216393574 0 0.0051691457739236023 0.0013220994777702949 0 0.0051369969387562008 0.0013271088424748239 0 0.0051583879320808547 0.0012949634895509047 0 0.0051583879320808547 0.0012949634895509047 0 0.0051240445230175255 0.0012956559216393574 0 0.0051663296305627304 0.0012604074172156642 0 0.0052053054207029511 0.0012639424515214662 0 0.0051583879320808547 0.0012949634895509047 0 0.0051663296305627304 0.0012604074172156642 0 0.0051240445230175255 0.0012956559216393574 0 0.0051001037862895941 0.0013268464481485671 0 0.0050788394240482548 0.0012982449085997393 0 0.0051240445230175255 0.0012956559216393574 0 0.0050788394240482548 0.0012982449085997393 0 0.0051193952665567564 0.0012646738520340486 0 0.0051369969387562008 0.0013271088424748239 0 0.0051240445230175255 0.0012956559216393574 0 0.0051001037862895941 0.0013268464481485671 0 0.0050788394240482548 0.0012982449085997393 0 0.0050296936962758538 0.0013175808440352467 0 0.0050447743550023514 0.0012873993474703629 0 0.0051001037862895941 0.0013268464481485671 0 0.0050788394240482548 0.0012982449085997393 0 0.005066743828613534 0.0013365623403116395 0 0.0050788394240482548 0.0012982449085997393 0 0.005066743828613534 0.0013365623403116395 0 0.0050296936962758538 0.0013175808440352467 0 0.005066743828613534 0.0013365623403116395 0 0.0050262327041387398 0.0013543143670007535 0 0.0050296936962758538 0.0013175808440352467 0 0.005066743828613534 0.0013365623403116395 0 0.0050917872406163215 0.0013562341680874411 0 0.0050727342655983677 0.0013749712022940398 0 0.005066743828613534 0.0013365623403116395 0 0.0050727342655983677 0.0013749712022940398 0 0.0050262327041387398 0.0013543143670007535 0 0.0051369969387562008 0.0013271088424748239 0 0.0051001037862895941 0.0013268464481485671 0 0.0051207761278555435 0.0013597279616839526 0 0.0051001037862895941 0.0013268464481485671 0 0.0050917872406163215 0.0013562341680874411 0 0.0051207761278555435 0.0013597279616839526 0 0.0051001037862895941 0.0013268464481485671 0 0.005066743828613534 0.0013365623403116395 0 0.0050917872406163215 0.0013562341680874411 0 0.0050917872406163215 0.0013562341680874411 0 0.0051207761278555435 0.0013597279616839526 0 0.0051095932223889475 0.0013876581936885068 0 0.0051095932223889475 0.0013876581936885068 0 0.0050727342655983677 0.0013749712022940398 0 0.005079303513940492 0.0014028673352478728 0 0.0050917872406163215 0.0013562341680874411 0 0.0051095932223889475 0.0013876581936885068 0 0.0050727342655983677 0.0013749712022940398 0 0.0051095932223889475 0.0013876581936885068 0 0.005079303513940492 0.0014028673352478728 0 0.0051086915512759583 0.0014131109381585497 0 0.0050727342655983677 0.0013749712022940398 0 0.0050383244792204535 0.0014016853417893721 0 0.0050262327041387398 0.0013543143670007535 0 0.0050727342655983677 0.0013749712022940398 0 0.005079303513940492 0.0014028673352478728 0 0.0050383244792204535 0.0014016853417893721 0 0.0050383244792204535 0.0014016853417893721 0 0.0050769721364016789 0.0014328127582675294 0 0.0050284400214128163 0.0014527856552350585 0 0.005079303513940492 0.0014028673352478728 0 0.0050383244792204535 0.0014016853417893721 0 0.0050769721364016789 0.0014328127582675294 0 0.0050769721364016789 0.0014328127582675294 0 0.0051086915512759583 0.0014131109381585497 0 0.0051013273041864201 0.0014299031131085123 0 0.005079303513940492 0.0014028673352478728 0 0.0050769721364016789 0.0014328127582675294 0 0.0051086915512759583 0.0014131109381585497 0 0.0051086915512759583 0.0014131109381585497 0 0.0051145126905674911 0.0014138203496209169 0 0.0051013273041864201 0.0014299031131085123 0 0.0051086915512759583 0.0014131109381585497 0 0.0051189876880819336 0.0014116526608527829 0 0.0051145126905674911 0.0014138203496209169 0 0.0051189876880819336 0.0014116526608527829 0 0.0051065720304149902 0.0014084344458822522 0 0.0051145126905674911 0.0014138203496209169 0 0.0051086915512759583 0.0014131109381585497 0 0.0051189876880819336 0.0014116526608527829 0 0.0051351336495456118 0.0013969112321234958 0 0.0051095932223889475 0.0013876581936885068 0 0.0051086915512759583 0.0014131109381585497 0 0.0051351336495456118 0.0013969112321234958 0 0.0051207761278555435 0.0013597279616839526 0 0.0051095932223889475 0.0013876581936885068 0 0.0051351336495456118 0.0013969112321234958 0 0.0051785793027793259 0.0013708005100185868 0 0.0051351336495456118 0.0013969112321234958 0 0.0051111314710909567 0.0014198592577940815 0 0.0052698793740110694 0.0011577350321775809 0 0.0052382428516116672 0.0010614333790311874 0 0.0051189876880819336 0.0014116526608527829 0 0.0051351336495456118 0.0013969112321234958 0 0.0051111314710909567 0.0014198592577940815 0 0.0051111314710909567 0.0014198592577940815 0 0.0051065720304149902 0.0014084344458822522 0 0.0050724027387994879 0.0013884783031782356 0 0.0051189876880819336 0.0014116526608527829 0 0.0051111314710909567 0.0014198592577940815 0 0.0051065720304149902 0.0014084344458822522 0 0.0049875025207898717 0.0013773676467577489 0 0.0051111314710909567 0.0014198592577940815 0 0.0050724027387994879 0.0013884783031782356 0 0.0051065720304149902 0.0014084344458822522 0 0.0050724027387994879 0.0013884783031782356 0 0.0051043152235680355 0.0013873887107909994 0 0.0050724027387994879 0.0013884783031782356 0 0.0051043152235680355 0.0013873887107909994 0 0.0050813556705807802 0.0013338349538399566 0 0.0049875025207898717 0.0013773676467577489 0 0.0050724027387994879 0.0013884783031782356 0 0.0050428655598254738 0.0013436913100598297 0 0.0051065720304149902 0.0014084344458822522 0 0.0051145126905674911 0.0014138203496209169 0 0.0051043152235680355 0.0013873887107909994 0 0.0051145126905674911 0.0014138203496209169 0 0.0051043152235680355 0.0013873887107909994 0 0.0051146409373270365 0.0013976278097373471 0 0.0051145126905674911 0.0014138203496209169 0 0.0051146409373270365 0.0013976278097373471 0 0.0051104570261715256 0.0014188696516914052 0 0.0051146409373270365 0.0013976278097373471 0 0.0051096391892716227 0.0013424627639739531 0 0.0051133597930725716 0.0014183270259104262 0 0.0051096391892716227 0.0013424627639739531 0 0.0051186302351358039 0.001318284600379494 0 0.0051178820819362536 0.001313529949870532 0 0.0050945704885160649 0.0013484720088664782 0 0.0051303695022944561 0.0013672632918321098 0 0.0051043152235680355 0.0013873887107909994 0 0.0051096391892716227 0.0013424627639739531 0 0.0050813556705807802 0.0013338349538399566 0 0.0051043152235680355 0.0013873887107909994 0 0.0051146409373270365 0.0013976278097373471 0 0.0051096391892716227 0.0013424627639739531 0 0.0051096391892716227 0.0013424627639739531 0 0.0051157216825402961 0.0013153302311234849 0 0.0051015205954344292 0.0012984223602502192 0 0.0051096391892716227 0.0013424627639739531 0 0.0051157216825402961 0.0013153302311234849 0 0.0051186302351358039 0.001318284600379494 0 0.0050032190309649708 0.0012483603222482682 0 0.0052764672256643266 0.0012137120547176721 0 0.005010809212941723 0.0012364704910701638 0 0.0050813556705807802 0.0013338349538399566 0 0.0051015205954344292 0.0012984223602502192 0 0.0050724027387994879 0.0013884783031782356 0 0.0050428655598254738 0.0013436913100598297 0 0.0050813556705807802 0.0013338349538399566 0 0.005010809212941723 0.0012364704910701638 0 0.0050428655598254738 0.0013436913100598297 0 0.0050813556705807802 0.0013338349538399566 0 0.0051096391892716227 0.0013424627639739531 0 0.0050813556705807802 0.0013338349538399566 0 0.0051015205954344292 0.0012984223602502192 0 0.005010809212941723 0.0012364704910701638 0 0.0051199890676611624 0.00088595614029151693 0 0.005327711787568557 0.001119483548593665 0 0.0051199890676611624 0.00088595614029151693 0 0.005327711787568557 0.001119483548593665 0 0.0053529141257664245 0.00090764847956861891 0 0.0052764672256643266 0.0012137120547176721 0 0.0047774624026489989 0.00040319518297658366 0 0.005327711787568557 0.001119483548593665 0 0.0053529141257664245 0.00090764847956861891 0 0.0056437347437341056 0.0010104002417731205 0 0.0051157216825402961 0.0013153302311234849 0 0.0051015205954344292 0.0012984223602502192 0 0.0051201540213874214 0.0013058528733033183 0 0.0041905492145233774 -0.00076901723616214647 0 0.0042273994599997377 -0.00075079253677082626 0 0.0042313307736343122 -0.00070234319187384008 0 0.0047743319901807704 -0.00012631928178013992 0 0.0047774624026489989 0.00040319518297658366 0 0.0053529141257664245 0.00090764847956861891 0 0.0053173536809816985 0.00061239615258705765 0 0.0056437347437341056 0.0010104002417731205 0 0.0042115415723336233 -0.00078144736397964233 0 0.0041905492145233774 -0.00076901723616214647 0 0.0042273994599997377 -0.00075079253677082626 0 0.0049279302681062313 0.00055340745268647143 0 0.0051199890676611624 0.00088595614029151693 0 0.0053173536809816985 0.00061239615258705765 0 0.0051199890676611624 0.00088595614029151693 0 0.0053529141257664245 0.00090764847956861891 0 0.0053173536809816985 0.00061239615258705765 0 0.0037028531761929663 -0.001407100069514647 0 0.003644769703816188 -0.00061195130734006443 0 0.003274922715911789 -0.0017355588142203048 0 0.0030902994345311475 -0.0017330636267397909 0 0.0031718791642130046 -0.0018964066228511877 0 0.0042453120934213637 -0.00077552500690432065 0 0.0042273994599997377 -0.00075079253677082626 0 0.004274788165066731 -0.00072201912797548813 0 0.0042649787362591136 0.00014108258002329968 0 0.0039413625445579711 6.0019785967115463e-05 0 0.003884152065087537 0.00025715074214430292 0 0.0047774624026489989 0.00040319518297658366 0 0.003644769703816188 -0.00061195130734006443 0 0.0042273994599997377 -0.00075079253677082626 0 0.0042313307736343122 -0.00070234319187384008 0 0.004274788165066731 -0.00072201912797548813 0 0.0042649787362591136 0.00014108258002329968 0 0.0039413625445579711 6.0019785967115463e-05 0 0.0040281828298992543 -0.00012260561181600977 0 0.0047774624026489989 0.00040319518297658366 0 0.0045877836271296926 0.00092074507597000779 0 0.0038527224897820325 0.00021446529549634189 0 0.0037387660119857077 1.5471911077943206e-05 0 0.0035679185714899177 0.00015131607645297592 0 0.0039413625445579711 6.0019785967115463e-05 0 0.003884152065087537 0.00025715074214430292 0 0.0037387660119857077 1.5471911077943206e-05 0 0.003644769703816188 -0.00061195130734006443 0 0.0039025102300961605 0.00023455760703541768 0 0.0037387660119857077 1.5471911077943206e-05 0 0.0040281828298992543 -0.00012260561181600977 0 0.0036063641551809088 -8.2512600065118985e-05 0 0.0045460671760877772 0.0010728309168932843 0 0.0046490623798879378 0.0011897881826351685 0 0.0042629714120387711 0.0012270193167329294 0 0.0045877836271296926 0.00092074507597000779 0 0.003873749072573636 0.00054528616903589061 0 0.0039413625445579711 6.0019785967115463e-05 0 0.0037387660119857077 1.5471911077943206e-05 0 0.0040281828298992543 -0.00012260561181600977 0 0.0049234961195807605 0.0013356438154823647 0 0.0045877836271296926 0.00092074507597000779 0 0.0049234961195807605 0.0013356438154823647 0 0.0051303695022944561 0.0013672632918321098 0 0.0050595493887080033 0.0013003118969558425 0 0.0050826144951046578 0.0013256994981156638 0 0.0051178820819362536 0.001313529949870532 0 0.0050829101771016983 0.0014578187128294849 0 0.0051133597930725716 0.0014183270259104262 0 0.0050985507961061336 0.0014361073096073537 0 0.0051201540213874214 0.0013058528733033183 0 0.0051186302351358039 0.001318284600379494 0 0.0051203743146487771 0.0013151152626341195 0 0.0051157216825402961 0.0013153302311234849 0 0.0051201540213874214 0.0013058528733033183 0 0.0051186302351358039 0.001318284600379494 0 0.0051522707222916358 0.0011497519190099845 0 0.0045877836271296926 0.00092074507597000779 0 0.0051186302351358039 0.001318284600379494 0 0.0050826144951046578 0.0013256994981156638 0 0.0051178820819362536 0.001313529949870532 0 0.0051146409373270365 0.0013976278097373471 0 0.0051133597930725716 0.0014183270259104262 0 0.0051104570261715256 0.0014188696516914052 0 0.0051133597930725716 0.0014183270259104262 0 0.0051104570261715256 0.0014188696516914052 0 0.0050985507961061336 0.0014361073096073537 0 0.0051104570261715256 0.0014188696516914052 0 0.0050985507961061336 0.0014361073096073537 0 0.0051013273041864201 0.0014299031131085123 0 0.0050985507961061336 0.0014361073096073537 0 0.0051013273041864201 0.0014299031131085123 0 0.0050845580583904083 0.0014510922011495781 0 0.0051145126905674911 0.0014138203496209169 0 0.0051104570261715256 0.0014188696516914052 0 0.0051013273041864201 0.0014299031131085123 0 0.0050988183575191425 0.0015273366729571579 0 0.0050556658363550442 0.001483029463763437 0 0.0049681826939814025 0.0015470426159352342 0 0.0049234961195807605 0.0013356438154823647 0 0.0050889402492163291 0.0015148623569728726 0 0.0050829101771016983 0.0014578187128294849 0 0.0050556658363550442 0.001483029463763437 0 0.0050845580583904083 0.0014510922011495781 0 0.0050829101771016983 0.0014578187128294849 0 0.0050985507961061336 0.0014361073096073537 0 0.0050845580583904083 0.0014510922011495781 0 0.0050769721364016789 0.0014328127582675294 0 0.0050556658363550442 0.001483029463763437 0 0.0050845580583904083 0.0014510922011495781 0 0.0050769721364016789 0.0014328127582675294 0 0.0051013273041864201 0.0014299031131085123 0 0.0050845580583904083 0.0014510922011495781 0 0.0050769721364016789 0.0014328127582675294 0 0.0050556658363550442 0.001483029463763437 0 0.0050284400214128163 0.0014527856552350585 0 0.0050556658363550442 0.001483029463763437 0 0.0049681826939814025 0.0015470426159352342 0 0.0050284400214128163 0.0014527856552350585 0 0.0049681826939814025 0.0015470426159352342 0 0.0049734582859528812 0.0014311243908461469 0 0.0050284400214128163 0.0014527856552350585 0 0.0044928830270047288 0.001277630220516079 0 0.0044568460090523331 0.0012427118218163856 0 0.0049681826939814025 0.0015470426159352342 0 0.0047981511646443473 0.0015859068687879008 0 0.0048827737583948998 0.001475434542503599 0 0.0049681826939814025 0.0015470426159352342 0 0.0048827737583948998 0.001475434542503599 0 0.0049734582859528812 0.0014311243908461469 0 0.0032173882641156342 -4.7003616691585402e-05 0 0.0036063641551809088 -8.2512600065118985e-05 0 0.0034895210078914446 4.3966256827477653e-05 0 0.0041428564345560148 0.0010165653477750467 0 0.0038758521168506268 0.0012649364847522036 0 0.0042629714120387711 0.0012270193167329294 0 0.0036251431239602582 0.0005844218793771025 0 0.003873749072573636 0.00054528616903589061 0 0.0041428564345560148 0.0010165653477750467 0 0.0038758521168506268 0.0012649364847522036 0 0.0037389387194033891 0.00096253547483123036 0 0.0045460671760877772 0.0010728309168932843 0 0.0041428564345560148 0.0010165653477750467 0 0.0042629714120387711 0.0012270193167329294 0 0.0049234961195807605 0.0013356438154823647 0 0.0044928830270047288 0.001277630220516079 0 0.0037387660119857077 1.5471911077943206e-05 0 0.0036063641551809088 -8.2512600065118985e-05 0 0.0034895210078914446 4.3966256827477653e-05 0 0.0037387660119857077 1.5471911077943206e-05 0 0.0035679185714899177 0.00015131607645297592 0 0.0034895210078914446 4.3966256827477653e-05 0 0.0038527224897820325 0.00021446529549634189 0 0.0035679185714899177 0.00015131607645297592 0 0.0034141337563125484 0.00033959084834564939 0 0.0035679185714899177 0.00015131607645297592 0 0.0034895210078914446 4.3966256827477653e-05 0 0.0033473846343490114 0.00013749070870775919 0 0.0032173882641156342 -4.7003616691585402e-05 0 0.0034895210078914446 4.3966256827477653e-05 0 0.0033473846343490114 0.00013749070870775919 0 0.0032173882641156342 -4.7003616691585402e-05 0 0.0031784498159157107 0.00014816986963253883 0 0.0033473846343490114 0.00013749070870775919 0 0.0031784498159157107 0.00014816986963253883 0 0.0033473846343490114 0.00013749070870775919 0 0.0031315599137120287 0.00035288614518401825 0 0.0033424500107027697 0.00013979115405716975 0 0.0030737194331000237 0.00036662838105618679 0 0.0035679185714899177 0.00015131607645297592 0 0.0033473846343490114 0.00013749070870775919 0 0.0034141337563125484 0.00033959084834564939 0 0.0031750702304788516 -0.00078283866831402435 0 0.0027910266398033165 -0.00062467902180051208 0 0.0033473846343490114 0.00013749070870775919 0 0.0034141337563125484 0.00033959084834564939 0 0.0031946270164851798 0.00029208390690701726 0 0.0030902994345311475 -0.0017330636267397909 0 0.0031718791642130046 -0.0018964066228511877 0 0.0029387837602302173 -0.001832286725106978 0 0.003644769703816188 -0.00061195130734006443 0 0.0031750702304788516 -0.00078283866831402435 0 0.0026702135094430401 0.00058404940555565254 0 0.0026896262226950162 0.0003383215208110309 0 0.0028029889014653448 0.00044510317445603287 0 0.0026896262226950162 0.0003383215208110309 0 0.0028029889014653448 0.00044510317445603287 0 0.002952319924674911 0.00038929409659818192 0 0.0026702135094430401 0.00058404940555565254 0 0.0028029889014653448 0.00044510317445603287 0 0.0029342829977252634 0.00051699003175120978 0 0.0028029889014653448 0.00044510317445603287 0 0.0029342829977252634 0.00051699003175120978 0 0.002952319924674911 0.00038929409659818192 0 0.0029342829977252634 0.00051699003175120978 0 0.0031315599137120287 0.00035288614518401825 0 0.002952319924674911 0.00038929409659818192 0 0.0034141337563125484 0.00033959084834564939 0 0.0030353046599197156 0.00043170482532194684 0 0.0031946270164851798 0.00029208390690701726 0 0.0027910266398033165 -0.00062467902180051208 0 0.0030737194331000237 0.00036662838105618679 0 0.0031315599137120287 0.00035288614518401825 0 0.002952319924674911 0.00038929409659818192 0 0.0030178652912774559 0.0001555132578726044 0 0.002952319924674911 0.00038929409659818192 0 0.0030178652912774559 0.0001555132578726044 0 0.0028004049303485545 -2.9665759326828645e-06 0 0.0032173882641156342 -4.7003616691585402e-05 0 0.0030178652912774559 0.0001555132578726044 0 0.0028004049303485545 -2.9665759326828645e-06 0 0.0031784498159157107 0.00014816986963253883 0 0.0031315599137120287 0.00035288614518401825 0 0.0030178652912774559 0.0001555132578726044 0 0.0032173882641156342 -4.7003616691585402e-05 0 0.0031784498159157107 0.00014816986963253883 0 0.0030178652912774559 0.0001555132578726044 0 0.0028770660597820874 4.5144754420720854e-05 0 0.0028222204947854169 0.00092546382835785633 0 0.0026896262226950162 0.0003383215208110309 0 0.002952319924674911 0.00038929409659818192 0 0.0028305730625170868 0.00013019920506878159 0 0.0028222204947854169 0.00092546382835785633 0 0.0030289468158864017 0.0017087962451577871 0 0.0034895251284910479 0.0013017567675944199 0 0.0037389387194033891 0.00096253547483123036 0 0.0033357679822637902 0.00090969873000574012 0 0.0036251431239602582 0.0005844218793771025 0 0.0028222204947854169 0.00092546382835785633 0 0.0038758521168506268 0.0012649364847522036 0 0.0034895251284910479 0.0013017567675944199 0 0.0037389387194033891 0.00096253547483123036 0 0.0044568460090523331 0.0012427118218163856 0 0.0030289468158864017 0.0017087962451577871 0 0.0047981511646443473 0.0015859068687879008 0 0.0045687291798808295 0.0015838292547343945 0 0.0047171879078096385 0.0014270177002983651 0 0.0044913036139980394 0.0014265475523833088 0 0.0045687291798808295 0.0015838292547343945 0 0.0047171879078096385 0.0014270177002983651 0 0.0044913036139980394 0.0014265475523833088 0 0.0045951441297870264 0.0012881968878793656 0 0.0047171879078096385 0.0014270177002983651 0 0.0045951441297870264 0.0012881968878793656 0 0.0047171879078096385 0.0014270177002983651 0 0.0047540985869027226 0.001224250393848913 0 0.0047171879078096385 0.0014270177002983651 0 0.0049056851646466391 0.001366082894627135 0 0.0047540985869027226 0.001224250393848913 0 0.0048740739916106803 0.0013399705686238921 0 0.0049117959089777204 0.0013241171740038331 0 0.0049056851646466391 0.001366082894627135 0 0.0049308612176066687 0.0013538316451140533 0 0.0048977978979572109 0.001362763827490726 0 0.0047171879078096385 0.0014270177002983651 0 0.0048827737583948998 0.001475434542503599 0 0.0049056851646466391 0.001366082894627135 0 0.0047981511646443473 0.0015859068687879008 0 0.0047171879078096385 0.0014270177002983651 0 0.0048827737583948998 0.001475434542503599 0 0.0048827737583948998 0.001475434542503599 0 0.0049734582859528812 0.0014311243908461469 0 0.0049056851646466391 0.001366082894627135 0 0.0050383244792204535 0.0014016853417893721 0 0.0049734582859528812 0.0014311243908461469 0 0.0050284400214128163 0.0014527856552350585 0 0.0050383244792204535 0.0014016853417893721 0 0.0049734582859528812 0.0014311243908461469 0 0.0049743510119512899 0.0013674006539749102 0 0.0050383244792204535 0.0014016853417893721 0 0.0049743510119512899 0.0013674006539749102 0 0.0050262327041387398 0.0013543143670007535 0 0.0049734582859528812 0.0014311243908461469 0 0.0049743510119512899 0.0013674006539749102 0 0.0049056851646466391 0.001366082894627135 0 0.0049743510119512899 0.0013674006539749102 0 0.0049056851646466391 0.001366082894627135 0 0.0049308612176066687 0.0013538316451140533 0 0.0049308612176066687 0.0013538316451140533 0 0.0049768375394564071 0.0013337672172954837 0 0.0049235354399942543 0.0013348743558002155 0 0.0049743510119512899 0.0013674006539749102 0 0.0049308612176066687 0.0013538316451140533 0 0.0049768375394564071 0.0013337672172954837 0 0.0049743510119512899 0.0013674006539749102 0 0.0049768375394564071 0.0013337672172954837 0 0.0050262327041387398 0.0013543143670007535 0 0.0049768375394564071 0.0013337672172954837 0 0.0050262327041387398 0.0013543143670007535 0 0.0050296936962758538 0.0013175808440352467 0 0.0049768375394564071 0.0013337672172954837 0 0.0050296936962758538 0.0013175808440352467 0 0.0049808227827548811 0.0013041432552566702 0 0.0050296936962758538 0.0013175808440352467 0 0.0049808227827548811 0.0013041432552566702 0 0.0050447743550023514 0.0012873993474703629 0 0.0049808227827548811 0.0013041432552566702 0 0.0049097782982416545 0.0012972749392394548 0 0.0049235354399942543 0.0013348743558002155 0 0.0049768375394564071 0.0013337672172954837 0 0.0049808227827548811 0.0013041432552566702 0 0.0049235354399942543 0.0013348743558002155 0 0.0038066232631711826 0.002395094502577323 0 0.0035177231290264362 0.0019065857667138837 0 0.0049097782982416545 0.0012972749392394548 0 0.0048485854539906236 0.001338766977137859 0 0.0049235354399942543 0.0013348743558002155 0 0.0026862053307600037 0.0033658945905817991 0 0.0025872239499316026 0.0034370742225253454 0 0.0026259781759967967 0.0033360595115202252 0 0.0025872239499316026 0.0034370742225253454 0 0.0025642586172253531 0.0033458650754055806 0 0.0026259781759967967 0.0033360595115202252 0 0.0035177231290264362 0.0019065857667138837 0 0.0049117959089777204 0.0013241171740038331 0 0.0045951441297870264 0.0012881968878793656 0 0.0046047584909908327 0.0011011845997831119 0 0.0047540985869027226 0.001224250393848913 0 0.0048485854539906236 0.001338766977137859 0 0.0048977978979572109 0.001362763827490726 0 0.0049235354399942543 0.0013348743558002155 0 0.0049308612176066687 0.0013538316451140533 0 0.0048977978979572109 0.001362763827490726 0 0.0049235354399942543 0.0013348743558002155 0 0.0026517791802313736 0.0032663939124915171 0 0.0026288352499833248 0.0033078019176306936 0 0.0026391361999919148 0.0033791929109923576 0 0.0026599701524228103 0.0032718105473637082 0 0.0025187204304813839 0.0035181319052012376 0 0.0026599701524228103 0.0032718105473637082 0 0.0027974478741793138 0.0031494820833803069 0 0.0027247353810990081 0.0030128626753888835 0 0.0026391361999919148 0.0033791929109923576 0 0.0026443176305635109 0.0032840173821578277 0 0.0026599701524228103 0.0032718105473637082 0 0.0026391361999919148 0.0033791929109923576 0 0.0027266523764923993 0.0033798030401627479 0 0.0026851635114257962 0.0034724896067581481 0 0.0025489048835248018 0.0031712978816358407 0 0.0025587320122054382 0.0032708935698160771 0 0.0026443176305635109 0.0032840173821578277 0 0.0026391361999919148 0.0033791929109923576 0 0.0027266523764923993 0.0033798030401627479 0 0.0026443176305635109 0.0032840173821578277 0 0.0027000545851022699 0.0033284120985349482 0 0.0026192178681726398 0.0032619488238998127 0 0.0025587320122054382 0.0032708935698160771 0 0.0026259781759967967 0.0033360595115202252 0 0.0026443176305635109 0.0032840173821578277 0 0.0025587320122054382 0.0032708935698160771 0 0.0025642586172253531 0.0033458650754055806 0 0.0026259781759967967 0.0033360595115202252 0 0.0025045805797530825 0.0033020354818178283 0 0.0025587320122054382 0.0032708935698160771 0 0.0025642586172253531 0.0033458650754055806 0 0.0026862053307600037 0.0033658945905817991 0 0.0026259781759967967 0.0033360595115202252 0 0.0026599701524228103 0.0032718105473637082 0 0.0026259781759967967 0.0033360595115202252 0 0.0026443176305635109 0.0032840173821578277 0 0.0026599701524228103 0.0032718105473637082 0 0.0038066232631711826 0.002395094502577323 0 0.0039665926670701913 0.0022395479887354279 0 0.0026862053307600037 0.0033658945905817991 0 0.0026599701524228103 0.0032718105473637082 0 0.0028957837686737855 0.0032527737428097734 0 0.0049808227827548811 0.0013041432552566702 0 0.0049097782982416545 0.0012972749392394548 0 0.0050000818183282541 0.0012612588426858251 0 0.0050000818183282541 0.0012612588426858251 0 0.0050447743550023514 0.0012873993474703629 0 0.0050730850084488611 0.0012724100814492838 0 0.0049808227827548811 0.0013041432552566702 0 0.0050000818183282541 0.0012612588426858251 0 0.0050447743550023514 0.0012873993474703629 0 0.0039665926670701913 0.0022395479887354279 0 0.00401373057052095 0.0022488314265844711 0 0.0028957837686737855 0.0032527737428097734 0 0.0029107982832375368 0.0030742189499730955 0 0.0030893646016345662 0.0031032962720390902 0 0.0050000818183282541 0.0012612588426858251 0 0.0051253646985068369 0.0012932100711646858 0 0.0050730850084488611 0.0012724100814492838 0 0.0028957837686737855 0.0032527737428097734 0 0.0027974478741793138 0.0031494820833803069 0 0.0029107982832375368 0.0030742189499730955 0 0.0026599701524228103 0.0032718105473637082 0 0.0028957837686737855 0.0032527737428097734 0 0.0027974478741793138 0.0031494820833803069 0 0.0029107982832375368 0.0030742189499730955 0 0.0029554031443244201 0.0029497156118983956 0 0.0028500623623318047 0.0029330168857083817 0 0.0029107982832375368 0.0030742189499730955 0 0.0028500623623318047 0.0029330168857083817 0 0.0027247353810990081 0.0030128626753888835 0 0.0027974478741793138 0.0031494820833803069 0 0.0029107982832375368 0.0030742189499730955 0 0.0027247353810990081 0.0030128626753888835 0 0.0029107982832375368 0.0030742189499730955 0 0.0030357068325278071 0.0030103766997856417 0 0.0030893646016345662 0.0031032962720390902 0 0.0029107982832375368 0.0030742189499730955 0 0.0030357068325278071 0.0030103766997856417 0 0.0029554031443244201 0.0029497156118983956 0 0.0030357068325278071 0.0030103766997856417 0 0.0030579969984474878 0.0029387007649454839 0 0.0029554031443244201 0.0029497156118983956 0 0.0030579969984474878 0.0029387007649454839 0 0.0029554031443244201 0.0029497156118983956 0 0.0030309500377955377 0.0028700956318716956 0 0.0029554031443244201 0.0029497156118983956 0 0.0030309500377955377 0.0028700956318716956 0 0.0029075783623491946 0.0028434676298971632 0 0.0028500623623318047 0.0029330168857083817 0 0.0029075783623491946 0.0028434676298971632 0 0.0027634483909600859 0.0028030473790498435 0 0.0029554031443244201 0.0029497156118983956 0 0.0028500623623318047 0.0029330168857083817 0 0.0029075783623491946 0.0028434676298971632 0 0.0026288352499833248 0.0033078019176306936 0 0.0026064767248240922 0.0031440358091088753 0 0.0028500623623318047 0.0029330168857083817 0 0.0027247353810990081 0.0030128626753888835 0 0.0027634483909600859 0.0028030473790498435 0 0.0025187204304813839 0.0035181319052012376 0 0.0026619052306870472 0.0037627359012610221 0 0.0024914807963974809 0.0037818830474009519 0 0.0026391361999919148 0.0033791929109923576 0 0.0025187204304813839 0.0035181319052012376 0 0.0026851635114257962 0.0034724896067581481 0 0.0025187204304813839 0.0035181319052012376 0 0.0026851635114257962 0.0034724896067581481 0 0.0027119056578909398 0.0036083100768466493 0 0.0025187204304813839 0.0035181319052012376 0 0.0027119056578909398 0.0036083100768466493 0 0.0026619052306870472 0.0037627359012610221 0 0.0026619052306870472 0.0037627359012610221 0 0.0024914807963974809 0.0037818830474009519 0 0.0026124068677318398 0.0038957320857360101 0 0.0027710100530485078 0.0038313802332466153 0 0.0026619052306870472 0.0037627359012610221 0 0.0026124068677318398 0.0038957320857360101 0 0.0026064767248240922 0.0031440358091088753 0 0.0028015330755931257 0.0039737253483669481 0 0.0024914807963974809 0.0037818830474009519 0 0.0026124068677318398 0.0038957320857360101 0 0.0024916512062880787 0.0040099474432537001 0 0.0027634483909600859 0.0028030473790498435 0 0.002779048802943771 0.0026160423907607027 0 0.0028312102039664794 0.0026160562842645501 0 0.0026937579166040455 0.0040301430065726599 0 0.0026124068677318398 0.0038957320857360101 0 0.0024916512062880787 0.0040099474432537001 0 0.0027840061449482967 0.0043848701154284193 0 0.0027419921783311289 0.0044457341263141725 0 0.002706214435420341 0.0044087957700069801 0 0.002697336238565458 0.0042343722410987557 0 0.0028015330755931257 0.0039737253483669481 0 0.0027840061449482967 0.0043848701154284193 0 0.0027419921783311289 0.0044457341263141725 0 0.0027637908518758744 0.0045030535531654812 0 0.0027419921783311289 0.0044457341263141725 0 0.002706214435420341 0.0044087957700069801 0 0.00271812282773663 0.0044833934129946398 0 0.0028015330755931257 0.0039737253483669481 0 0.0027554071964279174 0.0048075950233454397 0 0.0027987809957942069 0.0050495953963237954 0 0.0027909633840224055 0.0048606426498149502 0 0.0028822768679105004 0.0049168537937461388 0 0.0027987809957942069 0.0050495953963237954 0 0.0028822768679105004 0.0049168537937461388 0 0.0028747065572315945 0.0050549767706534821 0 0.0028015330755931257 0.0039737253483669481 0 0.0030742138509841223 0.004015520516951269 0 0.0027554071964279174 0.0048075950233454397 0 0.0027698968617854832 0.0045538646033401057 0 0.0027419921783311289 0.0044457341263141725 0 0.00271812282773663 0.0044833934129946398 0 0.0027637908518758744 0.0045030535531654812 0 0.00271812282773663 0.0044833934129946398 0 0.0027637908518758744 0.0045030535531654812 0 0.0027758131266097793 0.0046014081140116139 0 0.0027909633840224055 0.0048606426498149502 0 0.0029086610586988282 0.0047599283501569972 0 0.0027758131266097793 0.0046014081140116139 0 0.0038723073401229591 0.0039649541934744245 0 0.0038970228373119411 0.0039737459844827001 0 0.003917652980271252 0.003954364530768961 0 0.0038723073401229591 0.0039649541934744245 0 0.0038970228373119411 0.0039737459844827001 0 0.0038799893404976148 0.0039905809421367407 0 0.0030443936711298551 0.0048394215872400274 0 0.0029086610586988282 0.0047599283501569972 0 0.0029806608170732181 0.0046363669278146292 0 0.0027909633840224055 0.0048606426498149502 0 0.0029086610586988282 0.0047599283501569972 0 0.0028822768679105004 0.0049168537937461388 0 0.0030443936711298551 0.0048394215872400274 0 0.0029086610586988282 0.0047599283501569972 0 0.0028822768679105004 0.0049168537937461388 0 0.0030443936711298551 0.0048394215872400274 0 0.0028822768679105004 0.0049168537937461388 0 0.0028747065572315945 0.0050549767706534821 0 0.0038723073401229591 0.0039649541934744245 0 0.0038622240557761177 0.0039930381622992504 0 0.0038247765107157629 0.0040084669921864038 0 0.0034771861252815769 0.0044888171987545874 0 0.0030742138509841223 0.004015520516951269 0 0.0038622240557761177 0.0039930381622992504 0 0.0038247765107157629 0.0040084669921864038 0 0.0038709993031090482 0.0040086572188335829 0 0.0030742138509841223 0.004015520516951269 0 0.0034267946504396339 0.0033181367741725383 0 0.0038970228373119411 0.0039737459844827001 0 0.0038799893404976148 0.0039905809421367407 0 0.0039025262471562329 0.0040053051198012356 0 0.0038709993031090482 0.0040086572188335829 0 0.0038799893404976148 0.0039905809421367407 0 0.0039025262471562329 0.0040053051198012356 0 0.0038622240557761177 0.0039930381622992504 0 0.0038709993031090482 0.0040086572188335829 0 0.0038799893404976148 0.0039905809421367407 0 0.0038723073401229591 0.0039649541934744245 0 0.0038622240557761177 0.0039930381622992504 0 0.0038799893404976148 0.0039905809421367407 0 0.0029611145562355606 0.0026158422073670781 0 0.0030514294567076648 0.0027196484245188717 0 0.0030924370803890495 0.0026229453552623783 0 0.0034267946504396339 0.0033181367741725383 0 0.0036314054693766008 0.003362206079512571 0 0.0029611145562355606 0.0026158422073670781 0 0.0029657015482807557 0.0027000136330426255 0 0.0028914621567729922 0.0026552398623844922 0 0.0029611145562355606 0.0026158422073670781 0 0.0029657015482807557 0.0027000136330426255 0 0.0030514294567076648 0.0027196484245188717 0 0.0028312102039664794 0.0026160562842645501 0 0.0028914621567729922 0.0026552398623844922 0 0.002891459469194483 0.0027349452288246831 0 0.0027634483909600859 0.0028030473790498435 0 0.0028312102039664794 0.0026160562842645501 0 0.002891459469194483 0.0027349452288246831 0 0.0028312102039664794 0.0026160562842645501 0 0.0029611145562355606 0.0026158422073670781 0 0.0028914621567729922 0.0026552398623844922 0 0.0029657015482807557 0.0027000136330426255 0 0.0028914621567729922 0.0026552398623844922 0 0.002891459469194483 0.0027349452288246831 0 0.0029075783623491946 0.0028434676298971632 0 0.0027634483909600859 0.0028030473790498435 0 0.002891459469194483 0.0027349452288246831 0 0.0030514294567076648 0.0027196484245188717 0 0.002990897070340334 0.0027813770574618949 0 0.0030793248405449514 0.002814846260071066 0 0.0029657015482807557 0.0027000136330426255 0 0.0030514294567076648 0.0027196484245188717 0 0.002990897070340334 0.0027813770574618949 0 0.0029657015482807557 0.0027000136330426255 0 0.002891459469194483 0.0027349452288246831 0 0.002990897070340334 0.0027813770574618949 0 0.0029075783623491946 0.0028434676298971632 0 0.002891459469194483 0.0027349452288246831 0 0.002990897070340334 0.0027813770574618949 0 0.0030309500377955377 0.0028700956318716956 0 0.0029075783623491946 0.0028434676298971632 0 0.002990897070340334 0.0027813770574618949 0 0.0030309500377955377 0.0028700956318716956 0 0.002990897070340334 0.0027813770574618949 0 0.0030793248405449514 0.002814846260071066 0 0.0030514294567076648 0.0027196484245188717 0 0.0030793248405449514 0.002814846260071066 0 0.0031753453383689357 0.0028208877415073002 0 0.0051390394797171564 0.0022605494786369714 0 0.0046711345351029467 0.0025043605017807543 0 0.0045570790844133863 0.002173041704071605 0 0.0038838953313209729 0.002534968748290632 0 0.0043941192828328215 0.0031440208797157711 0 0.0051390394797171564 0.0022605494786369714 0 0.0048144402444938389 0.0028864871629968275 0 0.0046711345351029467 0.0025043605017807543 0 0.0039851201899216713 0.0028791309212344309 0 0.0039099981538193275 0.0030235754056294477 0 0.0040393391578984784 0.003033367474486588 0 0.0043941192828328215 0.0031440208797157711 0 0.0036314054693766008 0.003362206079512571 0 0.0030514294567076648 0.0027196484245188717 0 0.0031753453383689357 0.0028208877415073002 0 0.0030924370803890495 0.0026229453552623783 0 0.0038838953313209729 0.002534968748290632 0 0.0036314054693766008 0.003362206079512571 0 0.0039928620754183103 0.0042259052510315266 0 0.0036314054693766008 0.003362206079512571 0 0.0038970228373119411 0.0039737459844827001 0 0.0039114775996900598 0.0040170447826832845 0 0.0039279488575417985 0.003985612006754095 0 0.0039837752999431252 0.0040270242209597658 0 0.0039114775996900598 0.0040170447826832845 0 0.0039279488575417985 0.003985612006754095 0 0.0039837752999431252 0.0040270242209597658 0 0.0039279488575417985 0.003985612006754095 0 0.0039703598876085515 0.0039876039712749885 0 0.0039279488575417985 0.003985612006754095 0 0.0039703598876085515 0.0039876039712749885 0 0.0039513620111742941 0.0039538917462063608 0 0.0039703598876085515 0.0039876039712749885 0 0.0039513620111742941 0.0039538917462063608 0 0.0040269602346871217 0.0039799861760544501 0 0.0039279488575417985 0.003985612006754095 0 0.0039513620111742941 0.0039538917462063608 0 0.003917652980271252 0.003954364530768961 0 0.0038970228373119411 0.0039737459844827001 0 0.0039279488575417985 0.003985612006754095 0 0.003917652980271252 0.003954364530768961 0 0.004031541105279624 0.0033500965023649039 0 0.003899433599030212 0.0037307572442464554 0 0.0041156079071242831 0.0038229022028324266 0 0.0045158898847530143 0.0033652810627216516 0 0.004031541105279624 0.0033500965023649039 0 0.0041156079071242831 0.0038229022028324266 0 0.004242656966701279 0.0037228570349715252 0 0.0041540621809233024 0.0037876351894886406 0 0.0040269602346871217 0.0039799861760544501 0 0.0040008754039435601 0.0038966994598949502 0 0.0041156079071242831 0.0038229022028324266 0 0.0039513620111742941 0.0039538917462063608 0 0.0040269602346871217 0.0039799861760544501 0 0.0040008754039435601 0.0038966994598949502 0 0.0039837752999431252 0.0040270242209597658 0 0.0039703598876085515 0.0039876039712749885 0 0.0040269602346871217 0.0039799861760544501 0 0.0043941192828328215 0.0031440208797157711 0 0.004242656966701279 0.0037228570349715252 0 0.0047787365352253532 0.0029211800425212649 0 0.0045158898847530143 0.0033652810627216516 0 0.004344143724472711 0.0028738833548248828 0 0.0045158898847530143 0.0033652810627216516 0 0.004031541105279624 0.0033500965023649039 0 0.004344143724472711 0.0028738833548248828 0 0.004344143724472711 0.0028738833548248828 0 0.0042110859149161227 0.0024118259817990282 0 0.003688969541944683 0.0029200476237727512 0 0.004344143724472711 0.0028738833548248828 0 0.0046711345351029467 0.0025043605017807543 0 0.0042110859149161227 0.0024118259817990282 0 0.0048144402444938389 0.0028864871629968275 0 0.004344143724472711 0.0028738833548248828 0 0.0046711345351029467 0.0025043605017807543 0 0.0043941192828328215 0.0031440208797157711 0 0.0045235425230779613 0.0028649761808827723 0 0.0046711345351029467 0.0025043605017807543 0 0.0042110859149161227 0.0024118259817990282 0 0.0045570790844133863 0.002173041704071605 0 0.0042110859149161227 0.0024118259817990282 0 0.0041900827021530487 0.0018926292694628614 0 0.0045570790844133863 0.002173041704071605 0 0.0041900827021530487 0.0018926292694628614 0 0.0046059909916340213 0.0017769446235861869 0 0.0044827357302779855 0.0014773050043040783 0 0.0041900827021530487 0.0018926292694628614 0 0.0044827357302779855 0.0014773050043040783 0 0.0039223285254225155 0.0016123533601853804 0 0.0046059909916340213 0.0017769446235861869 0 0.0048542867872076361 0.0014746194672501974 0 0.0044827357302779855 0.0014773050043040783 0 0.0041900827021530487 0.0018926292694628614 0 0.0046059909916340213 0.0017769446235861869 0 0.0045570790844133863 0.002173041704071605 0 0.0047567218029431072 0.0020014106763267944 0 0.0045563227522492722 0.0021946189131566303 0 0.0046059909916340213 0.0017769446235861869 0 0.0045570790844133863 0.002173041704071605 0 0.0049793375028071764 0.0017940597085158853 0 0.0051390394797171564 0.0022605494786369714 0 0.0045570790844133863 0.002173041704071605 0 0.0049794706486157728 0.0018380390174237483 0 0.0038838953313209729 0.002534968748290632 0 0.0045563227522492722 0.0021946189131566303 0 0.0031992709552573825 0.0027931409237646047 0 0.0031454860473956302 0.0028846035408665103 0 0.0032652683930536669 0.0029666699535238527 0 0.0030309500377955377 0.0028700956318716956 0 0.0030793248405449514 0.002814846260071066 0 0.0031454860473956302 0.0028846035408665103 0 0.0038838953313209729 0.002534968748290632 0 0.0032710291758087828 0.0030111010565928714 0 0.0030793248405449514 0.002814846260071066 0 0.0031753453383689357 0.0028208877415073002 0 0.0031454860473956302 0.0028846035408665103 0 0.0031454860473956302 0.0028846035408665103 0 0.0031232178919430391 0.0029809085583461922 0 0.0032652683930536669 0.0029666699535238527 0 0.0030579969984474878 0.0029387007649454839 0 0.0030309500377955377 0.0028700956318716956 0 0.0031454860473956302 0.0028846035408665103 0 0.0030579969984474878 0.0029387007649454839 0 0.0031454860473956302 0.0028846035408665103 0 0.0031232178919430391 0.0029809085583461922 0 0.0049508363578519938 0.0016147929652998922 0 0.0051253646985068369 0.0012932100711646858 0 0.0050509050991743975 0.0013067702898722209 0 0.0031232178919430391 0.0029809085583461922 0 0.0032652683930536669 0.0029666699535238527 0 0.0030893646016345662 0.0031032962720390902 0 0.0045563227522492722 0.0021946189131566303 0 0.00401373057052095 0.0022488314265844711 0 0.0030357068325278071 0.0030103766997856417 0 0.0030579969984474878 0.0029387007649454839 0 0.0031232178919430391 0.0029809085583461922 0 0.0030357068325278071 0.0030103766997856417 0 0.0031232178919430391 0.0029809085583461922 0 0.0030893646016345662 0.0031032962720390902 0 0.0046059909916340213 0.0017769446235861869 0 0.0049793375028071764 0.0017940597085158853 0 0.0048542867872076361 0.0014746194672501974 0 0.0049508363578519938 0.0016147929652998922 0 0.0048542867872076361 0.0014746194672501974 0 0.0050509050991743975 0.0013067702898722209 0 0.0045563227522492722 0.0021946189131566303 0 0.004731905095083728 0.001499749732577556 0 0.0050576856544144368 0.0013057275022285244 0 0.0048688130883521854 0.0013293146534798647 0 0.0048542867872076361 0.0014746194672501974 0 0.0050509050991743975 0.0013067702898722209 0 0.0044827357302779855 0.0014773050043040783 0 0.0051282906886441718 0.001247680270831769 0 0.0050509050991743975 0.0013067702898722209 0 0.0051641444671305372 0.001227487980713166 0 0.0050509050991743975 0.0013067702898722209 0 0.0052388015339599296 0.0011644990795992469 0 0.0051641444671305372 0.001227487980713166 0 0.0050899360442482489 0.0012643570742548339 0 0.0051282906886441718 0.001247680270831769 0 0.0050509050991743975 0.0013067702898722209 0 0.0051253646985068369 0.0012932100711646858 0 0.0050509050991743975 0.0013067702898722209 0 0.0050848873912890859 0.0012709876381763838 0 0.0050899360442482489 0.0012643570742548339 0 0.0050848873912890859 0.0012709876381763838 0 0.0050781770185653261 0.0012722952030104755 0 0.0050899360442482489 0.0012643570742548339 0 0.0050509050991743975 0.0013067702898722209 0 0.0050848873912890859 0.0012709876381763838 0 0.0051253646985068369 0.0012932100711646858 0 0.0050848873912890859 0.0012709876381763838 0 0.0050730850084488611 0.0012724100814492838 0 0.0050848873912890859 0.0012709876381763838 0 0.0050730850084488611 0.0012724100814492838 0 0.0050781770185653261 0.0012722952030104755 0 0.0050447743550023514 0.0012873993474703629 0 0.0050730850084488611 0.0012724100814492838 0 0.0050781770185653261 0.0012722952030104755 0 0.0050788394240482548 0.0012982449085997393 0 0.0050447743550023514 0.0012873993474703629 0 0.0050781770185653261 0.0012722952030104755 0 0.0051282906886441718 0.001247680270831769 0 0.0051193952665567564 0.0012646738520340486 0 0.0051547388532764945 0.0012469704307200549 0 0.0050899360442482489 0.0012643570742548339 0 0.0050781770185653261 0.0012722952030104755 0 0.0051193952665567564 0.0012646738520340486 0 0.0050899360442482489 0.0012643570742548339 0 0.0051282906886441718 0.001247680270831769 0 0.0051193952665567564 0.0012646738520340486 0 0.0050788394240482548 0.0012982449085997393 0 0.0050781770185653261 0.0012722952030104755 0 0.0051193952665567564 0.0012646738520340486 0 0.0051193952665567564 0.0012646738520340486 0 0.0051663296305627304 0.0012604074172156642 0 0.0051547388532764945 0.0012469704307200549 0 0.0051240445230175255 0.0012956559216393574 0 0.0051193952665567564 0.0012646738520340486 0 0.0051663296305627304 0.0012604074172156642 0 0.0051663296305627304 0.0012604074172156642 0 0.0051976141295157824 0.001230757244474055 0 0.0051547388532764945 0.0012469704307200549 0 0.0051663296305627304 0.0012604074172156642 0 0.0051976141295157824 0.001230757244474055 0 0.0052032618082340802 0.0012403170804639386 0 0.0051282906886441718 0.001247680270831769 0 0.0051547388532764945 0.0012469704307200549 0 0.0051848556866264869 0.0012256614557029368 0 0.0051976141295157824 0.001230757244474055 0 0.0051547388532764945 0.0012469704307200549 0 0.0051848556866264869 0.0012256614557029368 0 0.0052230449504067755 0.0012130176903360505 0 0.005255048645980742 0.0012020604806393027 0 0.0052296786101027485 0.0012022098899429747 0 0.0051848556866264869 0.0012256614557029368 0 0.0052230449504067755 0.0012130176903360505 0 0.0052296786101027485 0.0012022098899429747 0 0.0051976141295157824 0.001230757244474055 0 0.0051848556866264869 0.0012256614557029368 0 0.0052230449504067755 0.0012130176903360505 0 0.0051976141295157824 0.001230757244474055 0 0.0052230449504067755 0.0012130176903360505 0 0.0052563590653980918 0.0012018117550530905 0 0.0052230449504067755 0.0012130176903360505 0 0.005255048645980742 0.0012020604806393027 0 0.0052563590653980918 0.0012018117550530905 0 0.0052053054207029511 0.0012639424515214662 0 0.0052563590653980918 0.0012018117550530905 0 0.0052032618082340802 0.0012403170804639386 0 0.0051976141295157824 0.001230757244474055 0 0.0052563590653980918 0.0012018117550530905 0 0.0052032618082340802 0.0012403170804639386 0 0.0052053054207029511 0.0012639424515214662 0 0.0051663296305627304 0.0012604074172156642 0 0.0052032618082340802 0.0012403170804639386 0 0.0052852761755621275 0.00097427013498501021 0 0.005255048645980742 0.0012020604806393027 0 0.005255115878077493 0.0010770690166097764 0 0.005289768601882296 0.0010440381651698088 0 0.005255048645980742 0.0012020604806393027 0 0.0052563590653980918 0.0012018117550530905 0 0.005255115878077493 0.0010770690166097764 0 0.0052564555195344287 0.001150372909493945 0 0.0052391432567447009 0.0011357476314269933 0 0.005255048645980742 0.0012020604806393027 0 0.005255115878077493 0.0010770690166097764 0 0.0052564555195344287 0.001150372909493945 0 0.0052564555195344287 0.001150372909493945 0 0.0052560433827606385 0.001187770704507408 0 0.0052391432567447009 0.0011357476314269933 0 0.0052564555195344287 0.001150372909493945 0 0.0052557936678696623 0.0011821303162244715 0 0.0052528924650570652 0.0011878362645075503 0 0.005255048645980742 0.0012020604806393027 0 0.0052564555195344287 0.001150372909493945 0 0.0052557936678696623 0.0011821303162244715 0 0.005255048645980742 0.0012020604806393027 0 0.0052557936678696623 0.0011821303162244715 0 0.0052296786101027485 0.0012022098899429747 0 0.0052528924650570652 0.0011878362645075503 0 0.0052560433827606385 0.001187770704507408 0 0.0052388015339599296 0.0011644990795992469 0 0.0052557936678696623 0.0011821303162244715 0 0.0052528924650570652 0.0011878362645075503 0 0.0052296786101027485 0.0012022098899429747 0 0.0052560433827606385 0.001187770704507408 0 0.0052388015339599296 0.0011644990795992469 0 0.005248707127117419 0.0012968189410628482 0 0.0048688130883521854 0.0013293146534798647 0 0.0045746218022580934 0.0014559805315150006 0 0.0052564555195344287 0.001150372909493945 0 0.0052528924650570652 0.0011878362645075503 0 0.0052560433827606385 0.001187770704507408 0 0.0051848556866264869 0.0012256614557029368 0 0.0051641444671305372 0.001227487980713166 0 0.0052296786101027485 0.0012022098899429747 0 0.0051282906886441718 0.001247680270831769 0 0.0051848556866264869 0.0012256614557029368 0 0.0051641444671305372 0.001227487980713166 0 0.0052528924650570652 0.0011878362645075503 0 0.0052388015339599296 0.0011644990795992469 0 0.0052296786101027485 0.0012022098899429747 0 0.0052388015339599296 0.0011644990795992469 0 0.0051641444671305372 0.001227487980713166 0 0.0052296786101027485 0.0012022098899429747 0 0.0050949671635120508 0.0011173938916222293 0 0.005248707127117419 0.0012968189410628482 0 0.0043514335796842512 0.001528375164681665 0 0.0045746218022580934 0.0014559805315150006 0 0.003930755201570978 0.0015944208895058232 0 0.0050949671635120508 0.0011173938916222293 0 0.005248707127117419 0.0012968189410628482 0 0.005219397484588782 0.0011672788578879231 0 0.0052560433827606385 0.001187770704507408 0 0.005248707127117419 0.0012968189410628482 0 0.005219397484588782 0.0011672788578879231 0 0.0052560433827606385 0.001187770704507408 0 0.005219397484588782 0.0011672788578879231 0 0.0052391432567447009 0.0011357476314269933 0 0.0050949671635120508 0.0011173938916222293 0 0.005219397484588782 0.0011672788578879231 0 0.0051940221338987449 0.0010903089632582172 0 0.005186270635711766 0.0010258861275461943 0 0.005255115878077493 0.0010770690166097764 0 0.0051940221338987449 0.0010903089632582172 0 0.005219397484588782 0.0011672788578879231 0 0.0051940221338987449 0.0010903089632582172 0 0.0052391432567447009 0.0011357476314269933 0 0.005255115878077493 0.0010770690166097764 0 0.0051940221338987449 0.0010903089632582172 0 0.0052391432567447009 0.0011357476314269933 0 0.0050949671635120508 0.0011173938916222293 0 0.005136786881356944 0.001055082686564801 0 0.0051439602473874121 0.0010114310544788465 0 0.005186270635711766 0.0010258861275461943 0 0.0051940221338987449 0.0010903089632582172 0 0.005136786881356944 0.001055082686564801 0 0.0050949671635120508 0.0011173938916222293 0 0.0051940221338987449 0.0010903089632582172 0 0.005136786881356944 0.001055082686564801 0 0.0051555259179278242 0.0010060948284380492 0 0.005186270635711766 0.0010258861275461943 0 0.005136786881356944 0.001055082686564801 0 0.005156011189698404 0.00097353275279299671 0 0.0051555259179278242 0.0010060948284380492 0 0.0051439602473874121 0.0010114310544788465 0 0.0051555259179278242 0.0010060948284380492 0 0.005136786881356944 0.001055082686564801 0 0.0051439602473874121 0.0010114310544788465 0 0.0041765007325570763 0.00097506997878525127 0 0.0036218147446392119 0.0011765978573160059 0 0.0032210335393176122 0.0008636214828673343 0 0.0046820508575406931 0.001008785153184378 0 0.0041250229949698633 0.00086918273162118966 0 0.0051420038643366431 0.00096431812945449024 0 0.0051439602473874121 0.0010114310544788465 0 0.0051174340996420209 0.0009709533372165703 0 0.0051420038643366431 0.00096431812945449024 0 0.005156011189698404 0.00097353275279299671 0 0.0051439602473874121 0.0010114310544788465 0 0.0041765007325570763 0.00097506997878525127 0 0.0036218147446392119 0.0011765978573160059 0 0.0043514335796842512 0.001528375164681665 0 0.003930755201570978 0.0015944208895058232 0 0.0032418540356042276 0.001614784451360975 0 0.0036218147446392119 0.0011765978573160059 0 0.0043514335796842512 0.001528375164681665 0 0.003213874771289284 0.0016106117655616558 0 0.0050758770566525432 0.0011055588879034432 0 0.0046820508575406931 0.001008785153184378 0 0.0050949671635120508 0.0011173938916222293 0 0.0041765007325570763 0.00097506997878525127 0 0.0043514335796842512 0.001528375164681665 0 0.0035391335074553948 0.0016832104973237795 0 0.0035129369377180576 0.0019783583946139023 0 0.003721694218209923 0.00192303410531769 0 0.0035391335074553948 0.0016832104973237795 0 0.003308294168007736 0.0019023720401718641 0 0.0035129369377180576 0.0019783583946139023 0 0.0035391335074553948 0.0016832104973237795 0 0.003308294168007736 0.0019023720401718641 0 0.003213874771289284 0.0016106117655616558 0 0.003308294168007736 0.0019023720401718641 0 0.0033771382516993272 0.0020855197823256523 0 0.0035129369377180576 0.0019783583946139023 0 0.0033771382516993272 0.0020855197823256523 0 0.0035129369377180576 0.0019783583946139023 0 0.003498334099506614 0.0022249740108936629 0 0.003308294168007736 0.0019023720401718641 0 0.0033771382516993272 0.0020855197823256523 0 0.0032216733998154338 0.0021463688834422469 0 0.0035129369377180576 0.0019783583946139023 0 0.0036803157625371276 0.0021777070195683756 0 0.003498334099506614 0.0022249740108936629 0 0.0035129369377180576 0.0019783583946139023 0 0.003721694218209923 0.00192303410531769 0 0.0036803157625371276 0.0021777070195683756 0 0.003721694218209923 0.00192303410531769 0 0.0038604775158702052 0.0022535911097094248 0 0.0036803157625371276 0.0021777070195683756 0 0.003721694218209923 0.00192303410531769 0 0.0039202379040188147 0.0019157359959931664 0 0.0038604775158702052 0.0022535911097094248 0 0.0039223285254225155 0.0016123533601853804 0 0.0035391335074553948 0.0016832104973237795 0 0.003721694218209923 0.00192303410531769 0 0.0039223285254225155 0.0016123533601853804 0 0.003721694218209923 0.00192303410531769 0 0.0039202379040188147 0.0019157359959931664 0 0.0041900827021530487 0.0018926292694628614 0 0.0039223285254225155 0.0016123533601853804 0 0.0039202379040188147 0.0019157359959931664 0 0.0041900827021530487 0.0018926292694628614 0 0.0039202379040188147 0.0019157359959931664 0 0.0038604775158702052 0.0022535911097094248 0 0.0042110859149161227 0.0024118259817990282 0 0.0041900827021530487 0.0018926292694628614 0 0.0038604775158702052 0.0022535911097094248 0 0.0042110859149161227 0.0024118259817990282 0 0.0038604775158702052 0.0022535911097094248 0 0.003688969541944683 0.0029200476237727512 0 0.0038604775158702052 0.0022535911097094248 0 0.0036803157625371276 0.0021777070195683756 0 0.0036780492246866535 0.0024197886785770227 0 0.0038604775158702052 0.0022535911097094248 0 0.0039072371136461186 0.0025630839792754943 0 0.0036780492246866535 0.0024197886785770227 0 0.0039072371136461186 0.0025630839792754943 0 0.0037283582378649202 0.0027236817868025341 0 0.0036780492246866535 0.0024197886785770227 0 0.0038521930379310106 0.0022935798622397566 0 0.0038046711576627769 0.002742914942501807 0 0.004031541105279624 0.0033500965023649039 0 0.004344143724472711 0.0028738833548248828 0 0.003688969541944683 0.0029200476237727512 0 0.004031541105279624 0.0033500965023649039 0 0.003688969541944683 0.0029200476237727512 0 0.0036688945983232059 0.0035371864839478379 0 0.0039072371136461186 0.0025630839792754943 0 0.0037283582378649202 0.0027236817868025341 0 0.0039341217759828418 0.0029698571538326274 0 0.0038046711576627769 0.002742914942501807 0 0.0038055835804594292 0.0032481164640413389 0 0.0037283582378649202 0.0027236817868025341 0 0.0039341217759828418 0.0029698571538326274 0 0.0035876116053332732 0.0029975749230160948 0 0.004031541105279624 0.0033500965023649039 0 0.0036688945983232059 0.0035371864839478379 0 0.003899433599030212 0.0037307572442464554 0 0.0043300084965946801 0.002555029301699264 0 0.0044385803407859881 0.0029102861782070869 0 0.0033780476187691318 0.0028691396661962446 0 0.0035876116053332732 0.0029975749230160948 0 0.0033109634839988519 0.0032693562685401742 0 0.0033780476187691318 0.0028691396661962446 0 0.0031667548136013555 0.0027855035333685589 0 0.0033109634839988519 0.0032693562685401742 0 0.0033780476187691318 0.0028691396661962446 0 0.0035876116053332732 0.0029975749230160948 0 0.0035008948628204081 0.0026754115218275958 0 0.0037283582378649202 0.0027236817868025341 0 0.0035876116053332732 0.0029975749230160948 0 0.0035008948628204081 0.0026754115218275958 0 0.0037283582378649202 0.0027236817868025341 0 0.0035008948628204081 0.0026754115218275958 0 0.0036780492246866535 0.0024197886785770227 0 0.0033780476187691318 0.0028691396661962446 0 0.0035008948628204081 0.0026754115218275958 0 0.003319914435271948 0.0026546873733244028 0 0.0033780476187691318 0.0028691396661962446 0 0.003319914435271948 0.0026546873733244028 0 0.0031667548136013555 0.0027855035333685589 0 0.0033887592644814908 0.0024730901802358174 0 0.0032847603406584601 0.0023045008690911408 0 0.0031798905051215686 0.0025297142075127927 0 0.003319914435271948 0.0026546873733244028 0 0.0033887592644814908 0.0024730901802358174 0 0.0031798905051215686 0.0025297142075127927 0 0.0035008948628204081 0.0026754115218275958 0 0.003319914435271948 0.0026546873733244028 0 0.0033887592644814908 0.0024730901802358174 0 0.0035008948628204081 0.0026754115218275958 0 0.0033887592644814908 0.0024730901802358174 0 0.0036780492246866535 0.0024197886785770227 0 0.0033887592644814908 0.0024730901802358174 0 0.0036780492246866535 0.0024197886785770227 0 0.003498334099506614 0.0022249740108936629 0 0.0036803157625371276 0.0021777070195683756 0 0.0036780492246866535 0.0024197886785770227 0 0.003498334099506614 0.0022249740108936629 0 0.0033887592644814908 0.0024730901802358174 0 0.003498334099506614 0.0022249740108936629 0 0.0032847603406584601 0.0023045008690911408 0 0.0033771382516993272 0.0020855197823256523 0 0.003498334099506614 0.0022249740108936629 0 0.0032847603406584601 0.0023045008690911408 0 0.0033771382516993272 0.0020855197823256523 0 0.0032847603406584601 0.0023045008690911408 0 0.0032216733998154338 0.0021463688834422469 0 0.0031106332394770465 0.0022469369476768599 0 0.0031786816419740035 0.0025029566529363506 0 0.0032847603406584601 0.0023045008690911408 0 0.0032216733998154338 0.0021463688834422469 0 0.0030601002277733493 0.0022188638170836149 0 0.0032847603406584601 0.0023045008690911408 0 0.0030601002277733493 0.0022188638170836149 0 0.0031798905051215686 0.0025297142075127927 0 0.0031680818020552214 0.0022752179064009235 0 0.0031128269080731514 0.0024150740043444342 0 0.0031079786829260828 0.0021343985649375161 0 0.0042621181567667763 0.0022419359358983632 0 0.0042231708617813737 0.0019714955840122797 0 0.005410627795051577 0.0020634403490794998 0 0.0051780818082017887 0.0020040057540315179 0 0.005321026305219325 0.0017946363204823248 0 0.005410627795051577 0.0020634403490794998 0 0.0054884322832998694 0.0023187753460159892 0 0.0052674536770995995 0.0021889455638967803 0 0.005410627795051577 0.0020634403490794998 0 0.0052674536770995995 0.0021889455638967803 0 0.0051780818082017887 0.0020040057540315179 0 0.0031128269080731514 0.0024150740043444342 0 0.0031798905051215686 0.0025297142075127927 0 0.0031667548136013555 0.0027855035333685589 0 0.0031680818020552214 0.0022752179064009235 0 0.0031128269080731514 0.0024150740043444342 0 0.0031798905051215686 0.0025297142075127927 0 0.0042621181567667763 0.0022419359358983632 0 0.0043300084965946801 0.002555029301699264 0 0.003319914435271948 0.0026546873733244028 0 0.0031798905051215686 0.0025297142075127927 0 0.0031667548136013555 0.0027855035333685589 0 0.0054884322832998694 0.0023187753460159892 0 0.0052473102922664721 0.0023873713522706143 0 0.0052674536770995995 0.0021889455638967803 0 0.0054884322832998694 0.0023187753460159892 0 0.0052473102922664721 0.0023873713522706143 0 0.0054107338318750212 0.002497236181479037 0 0.0054884322832998694 0.0023187753460159892 0 0.0054107338318750212 0.002497236181479037 0 0.005558778591625878 0.00255302816949252 0 0.004999992936299544 0.0024284915979300137 0 0.0052473102922664721 0.0023873713522706143 0 0.0050991711031963018 0.0025863336909764515 0 0.004999992936299544 0.0024284915979300137 0 0.0052473102922664721 0.0023873713522706143 0 0.0051128462415760663 0.0022826920460655422 0 0.0052473102922664721 0.0023873713522706143 0 0.0051128462415760663 0.0022826920460655422 0 0.0052674536770995995 0.0021889455638967803 0 0.004999992936299544 0.0024284915979300137 0 0.0051128462415760663 0.0022826920460655422 0 0.0049999802342032525 0.0021369079558923184 0 0.0051128462415760663 0.0022826920460655422 0 0.0049999802342032525 0.0021369079558923184 0 0.0051780818082017887 0.0020040057540315179 0 0.0051128462415760663 0.0022826920460655422 0 0.0052674536770995995 0.0021889455638967803 0 0.0051780818082017887 0.0020040057540315179 0 0.0049999802342032525 0.0021369079558923184 0 0.0051780818082017887 0.0020040057540315179 0 0.0049999867225783258 0.001845219196019131 0 0.0051780818082017887 0.0020040057540315179 0 0.0049999867225783258 0.001845219196019131 0 0.0051358962191230314 0.0017187324907126799 0 0.0049999867225783258 0.001845219196019131 0 0.0051358962191230314 0.0017187324907126799 0 0.0049999887954989995 0.0015535477997263222 0 0.0051358962191230314 0.0017187324907126799 0 0.0049999887954989995 0.0015535477997263222 0 0.0052216373838923002 0.0015232223645520772 0 0.0042231708617813737 0.0019714955840122797 0 0.0041067985481258147 0.0017315568716095746 0 0.0051358962191230314 0.0017187324907126799 0 0.005321026305219325 0.0017946363204823248 0 0.0052216373838923002 0.0015232223645520772 0 0.0051780818082017887 0.0020040057540315179 0 0.0051358962191230314 0.0017187324907126799 0 0.005321026305219325 0.0017946363204823248 0 0.0031680818020552214 0.0022752179064009235 0 0.0031079786829260828 0.0021343985649375161 0 0.0031578595256556512 0.0020774257858859218 0 0.0031106332394770465 0.0022469369476768599 0 0.0030405942918372711 0.0019891731113296784 0 0.0030601002277733493 0.0022188638170836149 0 0.0031305681953778639 0.0020088931345973665 0 0.0029137987116665924 0.0019002914082136403 0 0.0032216733998154338 0.0021463688834422469 0 0.0030601002277733493 0.0022188638170836149 0 0.0031305681953778639 0.0020088931345973665 0 0.0031305681953778639 0.0020088931345973665 0 0.0031233118299440711 0.001848105991695025 0 0.0029137987116665924 0.0019002914082136403 0 0.003308294168007736 0.0019023720401718641 0 0.0031305681953778639 0.0020088931345973665 0 0.0031233118299440711 0.001848105991695025 0 0.003308294168007736 0.0019023720401718641 0 0.0032216733998154338 0.0021463688834422469 0 0.0031305681953778639 0.0020088931345973665 0 0.003308294168007736 0.0019023720401718641 0 0.0031233118299440711 0.001848105991695025 0 0.003213874771289284 0.0016106117655616558 0 0.0031233118299440711 0.001848105991695025 0 0.003213874771289284 0.0016106117655616558 0 0.0029913390060124652 0.0016188355260315773 0 0.0031079786829260828 0.0021343985649375161 0 0.0031578595256556512 0.0020774257858859218 0 0.0031026806887422083 0.0019457437469303533 0 0.0031578595256556512 0.0020774257858859218 0 0.0031484092178253376 0.0019363621247494426 0 0.0031026806887422083 0.0019457437469303533 0 0.0030405942918372711 0.0019891731113296784 0 0.0028009560375769648 0.0016266995456855106 0 0.0029137987116665924 0.0019002914082136403 0 0.0029913390060124652 0.0016188355260315773 0 0.0026593973503931073 0.0013731542475654774 0 0.0031233118299440711 0.001848105991695025 0 0.0029137987116665924 0.0019002914082136403 0 0.0029913390060124652 0.0016188355260315773 0 0.0026593973503931073 0.0013731542475654774 0 0.0030146006629719491 0.0012474228278052202 0 0.002439417999700026 0.00073628871360502271 0 0.0029913390060124652 0.0016188355260315773 0 0.0026593973503931073 0.0013731542475654774 0 0.0030146006629719491 0.0012474228278052202 0 0.0036218147446392119 0.0011765978573160059 0 0.003213874771289284 0.0016106117655616558 0 0.0030146006629719491 0.0012474228278052202 0 0.0036218147446392119 0.0011765978573160059 0 0.0030146006629719491 0.0012474228278052202 0 0.0032210335393176122 0.0008636214828673343 0 0.003213874771289284 0.0016106117655616558 0 0.0029913390060124652 0.0016188355260315773 0 0.0030146006629719491 0.0012474228278052202 0 0.0041250229949698633 0.00086918273162118966 0 0.00394373924534032 0.0011741568343972425 0 0.0050765726894334085 0.00090937040320520962 0 0.0051174340996420209 0.0009709533372165703 0 0.0050589842208280363 0.00094662652219706228 0 0.0030146006629719491 0.0012474228278052202 0 0.0032210335393176122 0.0008636214828673343 0 0.002439417999700026 0.00073628871360502271 0 0.0031341093766016959 0.0018413288444525174 0 0.0030897558249404588 0.0018277756981609449 0 0.0031026806887422083 0.0019457437469303533 0 0.0044681003385293652 0.0015107848251690872 0 0.0041067985481258147 0.0017315568716095746 0 0.0028009560375769648 0.0016266995456855106 0 0.00394373924534032 0.0011741568343972425 0 0.00394373924534032 0.0011741568343972425 0 0.0044681003385293652 0.0015107848251690872 0 0.00511672814211499 0.0012540421608919902 0 0.0050852058496221233 0.0013681447026621699 0 0.0052216373838923002 0.0015232223645520772 0 0.0049999931872668204 0.0012618721372864067 0 0.0050852058496221233 0.0013681447026621699 0 0.0049999887954989995 0.0015535477997263222 0 0.0050874586227033797 0.0012466821907536965 0 0.00511672814211499 0.0012540421608919902 0 0.0050852058496221233 0.0013681447026621699 0 0.0050874586227033797 0.0012466821907536965 0 0.0049999931872668204 0.0012618721372864067 0 0.0050852058496221233 0.0013681447026621699 0 0.0050852058496221233 0.0013681447026621699 0 0.0049999887954989995 0.0015535477997263222 0 0.0052216373838923002 0.0015232223645520772 0 0.0031484092178253376 0.0019363621247494426 0 0.0031341093766016959 0.0018413288444525174 0 0.0031026806887422083 0.0019457437469303533 0 0.0051438148073158167 0.0035255795823847351 0 0.0051420611890652347 0.0036709233146691839 0 0.0052051729904317931 0.0036036569202403126 0 0.0051438148073158167 0.0035255795823847351 0 0.0052051729904317931 0.0036036569202403126 0 0.0052154994719820179 0.0035412768784807464 0 0.0051438148073158167 0.0035255795823847351 0 0.0049999812768598741 0.0036268682852697901 0 0.0050293925918421713 0.00334117023698768 0 0.0051438148073158167 0.0035255795823847351 0 0.0049999812768598741 0.0036268682852697901 0 0.0051420611890652347 0.0036709233146691839 0 0.0049999812768598741 0.0036268682852697901 0 0.0051420611890652347 0.0036709233146691839 0 0.005082486573149937 0.0037545507631889315 0 0.0051420611890652347 0.0036709233146691839 0 0.0052071115287909064 0.003697000088627187 0 0.0052051729904317931 0.0036036569202403126 0 0.0052071115287909064 0.003697000088627187 0 0.0052454664969394287 0.0036465530747413219 0 0.0052578475121759019 0.003712230811711582 0 0.0052071115287909064 0.003697000088627187 0 0.0052454664969394287 0.0036465530747413219 0 0.0052051729904317931 0.0036036569202403126 0 0.0052713590174720357 0.0036522523329203683 0 0.0052656411048914711 0.0036199787784733928 0 0.0052680015424154377 0.003611054373228023 0 0.0052454664969394287 0.0036465530747413219 0 0.0052713590174720357 0.0036522523329203683 0 0.0052578475121759019 0.003712230811711582 0 0.0052454664969394287 0.0036465530747413219 0 0.0052713590174720357 0.0036522523329203683 0 0.0052656411048914711 0.0036199787784733928 0 0.0052656411048914711 0.0036199787784733928 0 0.005270864318851755 0.0036035434865940037 0 0.0052680015424154377 0.003611054373228023 0 0.0052656411048914711 0.0036199787784733928 0 0.005270864318851755 0.0036035434865940037 0 0.005246343841801223 0.0035960836223938447 0 0.005270864318851755 0.0036035434865940037 0 0.0052564832608749407 0.0035776205539194113 0 0.0052724460851189606 0.0036075470823317404 0 0.005270864318851755 0.0036035434865940037 0 0.005246343841801223 0.0035960836223938447 0 0.0052564832608749407 0.0035776205539194113 0 0.0052454664969394287 0.0036465530747413219 0 0.0052656411048914711 0.0036199787784733928 0 0.005246343841801223 0.0035960836223938447 0 0.0052454664969394287 0.0036465530747413219 0 0.0052051729904317931 0.0036036569202403126 0 0.005246343841801223 0.0035960836223938447 0 0.005246343841801223 0.0035960836223938447 0 0.0052154994719820179 0.0035412768784807464 0 0.0052564832608749407 0.0035776205539194113 0 0.0052051729904317931 0.0036036569202403126 0 0.005246343841801223 0.0035960836223938447 0 0.0052154994719820179 0.0035412768784807464 0 0.0052364606677338518 0.0035224114287662335 0 0.0052624767239441393 0.0034710021440785307 0 0.0051683120413817726 0.0034374869721916206 0 0.0052154994719820179 0.0035412768784807464 0 0.0052364606677338518 0.0035224114287662335 0 0.0051683120413817726 0.0034374869721916206 0 0.0052154994719820179 0.0035412768784807464 0 0.0052564832608749407 0.0035776205539194113 0 0.0052364606677338518 0.0035224114287662335 0 0.0052603155499625917 0.0036326932838781716 0 0.0052724460851189606 0.0036075470823317404 0 0.0051848907185173447 0.0036744443902693271 0 0.0052603155499625917 0.0036326932838781716 0 0.0052705702784457036 0.003651701908308126 0 0.0051848907185173447 0.0036744443902693271 0 0.005270864318851755 0.0036035434865940037 0 0.0052724460851189606 0.0036075470823317404 0 0.0051848907185173447 0.0036744443902693271 0 0.0052603155499625917 0.0036326932838781716 0 0.0052764876677907488 0.0035854689319520902 0 0.0052724460851189606 0.0036075470823317404 0 0.0052603155499625917 0.0036326932838781716 0 0.005266456135876338 0.003615292723803096 0 0.0052764876677907488 0.0035854689319520902 0 0.0052937508965012915 0.0035808256172906562 0 0.0052873662280113589 0.0035834192858320078 0 0.0052934170313473569 0.003584670771192107 0 0.0052937508965012915 0.0035808256172906562 0 0.0052564832608749407 0.0035776205539194113 0 0.0052364606677338518 0.0035224114287662335 0 0.0052764876677907488 0.0035854689319520902 0 0.0052564832608749407 0.0035776205539194113 0 0.0052764876677907488 0.0035854689319520902 0 0.0052724460851189606 0.0036075470823317404 0 0.0052937508965012915 0.0035808256172906562 0 0.0053493479634257723 0.0033099566914883975 0 0.0052364606677338518 0.0035224114287662335 0 0.0052764876677907488 0.0035854689319520902 0 0.0052624767239441393 0.0034710021440785307 0 0.0052933633616554397 0.0035789931088922927 0 0.0052764876677907488 0.0035854689319520902 0 0.0052624767239441393 0.0034710021440785307 0 0.0053639684305660908 0.0033931451976435046 0 0.0054582935559795362 0.0035498534748942268 0 0.0052027480048918474 0.0036131446032169655 0 0.0053789251100571948 0.0030528552202000138 0 0.005450852035401757 0.0028837576126234214 0 0.0055465817734685332 0.0030108113386005868 0 0.0053493479634257723 0.0033099566914883975 0 0.0054909409173621677 0.0032822814931269847 0 0.0054749517429566498 0.0032269113038028321 0 0.0052531659582493277 0.0032808150992264273 0 0.00535666466755284 0.0030262587811992615 0 0.0053493479634257723 0.0033099566914883975 0 0.0052040739166302093 0.0033594769343610396 0 0.0052531659582493277 0.0032808150992264273 0 0.0051087837866523366 0.003171744192716053 0 0.00535666466755284 0.0030262587811992615 0 0.0051438148073158167 0.0035255795823847351 0 0.0051683120413817726 0.0034374869721916206 0 0.0050293925918421713 0.00334117023698768 0 0.0051438148073158167 0.0035255795823847351 0 0.0052154994719820179 0.0035412768784807464 0 0.0051683120413817726 0.0034374869721916206 0 0.0052040739166302093 0.0033594769343610396 0 0.0050363759975436493 0.0033533286005440251 0 0.0049999812768598741 0.0036268682852697901 0 0.0050293925918421713 0.00334117023698768 0 0.0049999891382655629 0.0033274160297786597 0 0.0052531659582493277 0.0032808150992264273 0 0.0050293925918421713 0.00334117023698768 0 0.0051087837866523366 0.003171744192716053 0 0.0049999891382655629 0.0033274160297786597 0 0.0051087837866523366 0.003171744192716053 0 0.0050000018265492028 0.0030276766274379766 0 0.0050293925918421713 0.00334117023698768 0 0.0049999891382655629 0.0033274160297786597 0 0.0051087837866523366 0.003171744192716053 0 0.0051087837866523366 0.003171744192716053 0 0.0050000018265492028 0.0030276766274379766 0 0.0051778268701459483 0.0029974431315591449 0 0.0051087837866523366 0.003171744192716053 0 0.0051778268701459483 0.0029974431315591449 0 0.00535666466755284 0.0030262587811992615 0 0.0051778268701459483 0.0029974431315591449 0 0.0052373845095988417 0.0028263756579010257 0 0.00535666466755284 0.0030262587811992615 0 0.0052183557374855805 0.0027908036824872222 0 0.00532285416662756 0.0029379367723409377 0 0.0050000018265492028 0.0030276766274379766 0 0.0051778268701459483 0.0029974431315591449 0 0.0049999989188089511 0.0027281420936280348 0 0.0051778268701459483 0.0029974431315591449 0 0.0052373845095988417 0.0028263756579010257 0 0.0049999989188089511 0.0027281420936280348 0 0.0052373845095988417 0.0028263756579010257 0 0.0049999989188089511 0.0027281420936280348 0 0.0051186043840758203 0.0026274702528278223 0 0.0051968314071188038 0.0027460301874452898 0 0.0050991711031963018 0.0025863336909764515 0 0.0052840091153622147 0.0025812639643086168 0 0.0052183557374855805 0.0027908036824872222 0 0.0051082882495795522 0.0026059030897913151 0 0.0052473102922664721 0.0023873713522706143 0 0.0050991711031963018 0.0025863336909764515 0 0.0052840091153622147 0.0025812639643086168 0 0.0050000000491911755 0.0024285535191971921 0 0.0049999989188089511 0.0027281420936280348 0 0.0051186043840758203 0.0026274702528278223 0 0.0050000239776966113 0.0024285961506695665 0 0.0051082882495795522 0.0026059030897913151 0 0.0054107338318750212 0.002497236181479037 0 0.0054080462634547334 0.0027044572131417048 0 0.005558778591625878 0.00255302816949252 0 0.0052473102922664721 0.0023873713522706143 0 0.0054107338318750212 0.002497236181479037 0 0.0052840091153622147 0.0025812639643086168 0 0.0054107338318750212 0.002497236181479037 0 0.0052840091153622147 0.0025812639643086168 0 0.0054080462634547334 0.0027044572131417048 0 0.0051968314071188038 0.0027460301874452898 0 0.0052840091153622147 0.0025812639643086168 0 0.0054080462634547334 0.0027044572131417048 0 0.0054080462634547334 0.0027044572131417048 0 0.005289135315368146 0.0029016749941100399 0 0.005450852035401757 0.0028837576126234214 0 0.0051968314071188038 0.0027460301874452898 0 0.0054080462634547334 0.0027044572131417048 0 0.005289135315368146 0.0029016749941100399 0 0.0053493479634257723 0.0033099566914883975 0 0.00532285416662756 0.0029379367723409377 0 0.0053789251100571948 0.0030528552202000138 0 0.005289135315368146 0.0029016749941100399 0 0.005450852035401757 0.0028837576126234214 0 0.005450852035401757 0.0028837576126234214 0 0.0056323916883955528 0.0027704808502319466 0 0.0055465817734685332 0.0030108113386005868 0 0.0057068130510019464 0.002972641740282445 0 0.0056323916883955528 0.0027704808502319466 0 0.0055465817734685332 0.0030108113386005868 0 0.0037405094675491851 0.0040985731509341683 0 0.0035225333185617378 0.0037802628466268658 0 0.0037750110630167745 0.0040011807509256932 0 0.0048159736131258117 0.0034784257903604015 0 0.0045659611637655778 0.0032785500579023802 0 0.0054080462634547334 0.0027044572131417048 0 0.005450852035401757 0.0028837576126234214 0 0.0056323916883955528 0.0027704808502319466 0 0.0054080462634547334 0.0027044572131417048 0 0.0056323916883955528 0.0027704808502319466 0 0.005558778591625878 0.00255302816949252 0 0.0045659611637655778 0.0032785500579023802 0 0.0044385803407859881 0.0029102861782070869 0 0.0035225333185617378 0.0037802628466268658 0 0.0035958641958369836 0.0034435757666853757 0 0.0038368971766074935 0.003908060178392945 0 0.0035225333185617378 0.0037802628466268658 0 0.0035958641958369836 0.0034435757666853757 0 0.0033109634839988519 0.0032693562685401742 0 0.0035876116053332732 0.0029975749230160948 0 0.0035958641958369836 0.0034435757666853757 0 0.0039161483144152694 0.003428170006567758 0 0.0035876116053332732 0.0029975749230160948 0 0.0035958641958369836 0.0034435757666853757 0 0.0033109634839988519 0.0032693562685401742 0 0.003899433599030212 0.0037307572442464554 0 0.0037870332651646459 0.0038673887095341075 0 0.0039518387132274086 0.0038728724470949677 0 0.0036688945983232059 0.0035371864839478379 0 0.003899433599030212 0.0037307572442464554 0 0.0037870332651646459 0.0038673887095341075 0 0.0039341217759828418 0.0029698571538326274 0 0.0035876116053332732 0.0029975749230160948 0 0.0039161483144152694 0.003428170006567758 0 0.0038055835804594292 0.0032481164640413389 0 0.0038443745536088365 0.0036410298311769611 0 0.0038443745536088365 0.0036410298311769611 0 0.0038383276805613693 0.0038896829073529764 0 0.0035958641958369836 0.0034435757666853757 0 0.0039161483144152694 0.003428170006567758 0 0.0038368971766074935 0.003908060178392945 0 0.0037870332651646459 0.0038673887095341075 0 0.0039102025514643557 0.0039372271503633847 0 0.0039518387132274086 0.0038728724470949677 0 0.0039102025514643557 0.0039372271503633847 0 0.0038368971766074935 0.003908060178392945 0 0.0038649409074791971 0.0040210633230347102 0 0.0037870332651646459 0.0038673887095341075 0 0.0039102025514643557 0.0039372271503633847 0 0.0038368971766074935 0.003908060178392945 0 0.0035225333185617378 0.0037802628466268658 0 0.0038368971766074935 0.003908060178392945 0 0.0037750110630167745 0.0040011807509256932 0 0.0038368971766074935 0.003908060178392945 0 0.0037750110630167745 0.0040011807509256932 0 0.0038649409074791971 0.0040210633230347102 0 0.0037750110630167745 0.0040011807509256932 0 0.0037966581723298583 0.0040665906340663621 0 0.0038649409074791971 0.0040210633230347102 0 0.0037966581723298583 0.0040665906340663621 0 0.0038649409074791971 0.0040210633230347102 0 0.0037854681727900116 0.0041441338252691667 0 0.0037405094675491851 0.0040985731509341683 0 0.0037750110630167745 0.0040011807509256932 0 0.0037573443531330438 0.004087624047333073 0 0.0037750110630167745 0.0040011807509256932 0 0.0037966581723298583 0.0040665906340663621 0 0.0037573443531330438 0.004087624047333073 0 0.0048159736131258117 0.0034784257903604015 0 0.0046932525117739793 0.0035180194022532392 0 0.0039465455048581727 0.0040360250518388261 0 0.0038649409074791971 0.0040210633230347102 0 0.0037854681727900116 0.0041441338252691667 0 0.0039102025514643557 0.0039372271503633847 0 0.0039465455048581727 0.0040360250518388261 0 0.0038649409074791971 0.0040210633230347102 0 0.0044965784996812384 0.0052280839586188489 0 0.004736872917309785 0.0046881927634708507 0 0.0053593447898347239 0.0048861968551539162 0 0.0041730063197027894 0.0046905622499111644 0 0.0047152038583137866 0.0041139847118456009 0 0.0044965784996812384 0.0052280839586188489 0 0.004736872917309785 0.0046881927634708507 0 0.004299339452219283 0.0047389419926824458 0 0.004736872917309785 0.0046881927634708507 0 0.0045451582310795206 0.0043336106077016658 0 0.004299339452219283 0.0047389419926824458 0 0.004736872917309785 0.0046881927634708507 0 0.0045451582310795206 0.0043336106077016658 0 0.0050722964014818378 0.0042238689846972382 0 0.0048892625079750953 0.0037242194734918221 0 0.0049505611157294989 0.0038480964590963899 0 0.0050030358451355842 0.0037537014617937772 0 0.004736872917309785 0.0046881927634708507 0 0.0050722964014818378 0.0042238689846972382 0 0.0053593447898347239 0.0048861968551539162 0 0.005030386938544038 0.0040437689916525211 0 0.0047152038583137866 0.0041139847118456009 0 0.0048892625079750953 0.0037242194734918221 0 0.0050030358451355842 0.0037537014617937772 0 0.0049788677623962283 0.0036715925371796658 0 0.0037481068348453632 0.0040897148623944219 0 0.0037573443531330438 0.004087624047333073 0 0.0037854681727900116 0.0041441338252691667 0 0.0037966581723298583 0.0040665906340663621 0 0.0037573443531330438 0.004087624047333073 0 0.0037854681727900116 0.0041441338252691667 0 0.0048159736131258117 0.0034784257903604015 0 0.0047152038583137866 0.0041139847118456009 0 0.0047152038583137866 0.0041139847118456009 0 0.0051747919702489443 0.0035801422270291309 0 0.0048159736131258117 0.0034784257903604015 0 0.0054909409173621677 0.0032822814931269847 0 0.0049378616081647807 0.0036793719867445548 0 0.0052027480048918474 0.0036131446032169655 0 0.0051312875073811675 0.0034815659799916688 0 0.0049505611157294989 0.0038480964590963899 0 0.0051042388878386564 0.0037835650802406032 0 0.0050030358451355842 0.0037537014617937772 0 0.0049378616081647807 0.0036793719867445548 0 0.0048911869601742279 0.0035742391007772267 0 0.0051312875073811675 0.0034815659799916688 0 0.0053639684305660908 0.0033931451976435046 0 0.0052027480048918474 0.0036131446032169655 0 0.0051312875073811675 0.0034815659799916688 0 0.0052937508965012915 0.0035808256172906562 0 0.0051747919702489443 0.0035801422270291309 0 0.0052705702784457036 0.003651701908308126 0 0.0051042388878386564 0.0037835650802406032 0 0.0051848907185173447 0.0036744443902693271 0 0.0051042388878386564 0.0037835650802406032 0 0.0051040232679768543 0.0036974122460495971 0 0.0051848907185173447 0.0036744443902693271 0 0.0051042388878386564 0.0037835650802406032 0 0.0051040232679768543 0.0036974122460495971 0 0.0050030358451355842 0.0037537014617937772 0 0.0051040232679768543 0.0036974122460495971 0 0.0050030358451355842 0.0037537014617937772 0 0.0050548595997910702 0.0036736783734379217 0 0.0050030358451355842 0.0037537014617937772 0 0.0049788677623962283 0.0036715925371796658 0 0.0050548595997910702 0.0036736783734379217 0 0.0050548595997910702 0.0036736783734379217 0 0.0050375536026689895 0.0036258426102789027 0 0.0051319750325738121 0.0036078696335975161 0 0.0049788677623962283 0.0036715925371796658 0 0.0050548595997910702 0.0036736783734379217 0 0.0050375536026689895 0.0036258426102789027 0 0.0049788677623962283 0.0036715925371796658 0 0.0050375536026689895 0.0036258426102789027 0 0.0049836745802409052 0.003608858508196716 0 0.005270864318851755 0.0036035434865940037 0 0.0051848907185173447 0.0036744443902693271 0 0.0052680015424154377 0.003611054373228023 0 0.0051911105403116865 0.0036827852928123322 0 0.0051931857647798145 0.0036029071728079843 0 0.0051040232679768543 0.0036974122460495971 0 0.0050548595997910702 0.0036736783734379217 0 0.0051319750325738121 0.0036078696335975161 0 0.0051040232679768543 0.0036974122460495971 0 0.0051848907185173447 0.0036744443902693271 0 0.0051319750325738121 0.0036078696335975161 0 0.0050375536026689895 0.0036258426102789027 0 0.0051319750325738121 0.0036078696335975161 0 0.0050498416456379808 0.0035608819103598519 0 0.0051931857647798145 0.0036029071728079843 0 0.0053229168871746614 0.0036613431775329025 0 0.0051319750325738121 0.0036078696335975161 0 0.0050498416456379808 0.0035608819103598519 0 0.0050814578281953258 0.0035109721169181126 0 0.0052713590174720357 0.0036522523329203683 0 0.0052680015424154377 0.003611054373228023 0 0.0053003622406734554 0.0036684577089079514 0 0.0051319750325738121 0.0036078696335975161 0 0.0051115701516854621 0.0035045479701009256 0 0.0050814578281953258 0.0035109721169181126 0 0.0049836745802409052 0.003608858508196716 0 0.0049880615587726829 0.0035454248176332546 0 0.0049408425372130015 0.0035907305612202949 0 0.0049836745802409052 0.003608858508196716 0 0.0050498416456379808 0.0035608819103598519 0 0.0049880615587726829 0.0035454248176332546 0 0.0050375536026689895 0.0036258426102789027 0 0.0049836745802409052 0.003608858508196716 0 0.0050498416456379808 0.0035608819103598519 0 0.0050498416456379808 0.0035608819103598519 0 0.0050532273844912743 0.0035153439792429035 0 0.0050814578281953258 0.0035109721169181126 0 0.0050498416456379808 0.0035608819103598519 0 0.0050326651778744656 0.0035229854621916185 0 0.0049880615587726829 0.0035454248176332546 0 0.0050498416456379808 0.0035608819103598519 0 0.0050326651778744656 0.0035229854621916185 0 0.0050532273844912743 0.0035153439792429035 0 0.0050326651778744656 0.0035229854621916185 0 0.0049880615587726829 0.0035454248176332546 0 0.005011688613203202 0.0035078712529453692 0 0.0049880615587726829 0.0035454248176332546 0 0.0049524259338317904 0.0035210966127043812 0 0.0049837139945437476 0.003502834954120839 0 0.0049880615587726829 0.0035454248176332546 0 0.0049837139945437476 0.003502834954120839 0 0.005011688613203202 0.0035078712529453692 0 0.0049880615587726829 0.0035454248176332546 0 0.004926826368438381 0.0035569685971386629 0 0.0049408425372130015 0.0035907305612202949 0 0.0047517732277687552 0.0036892455251828636 0 0.0050629267231029496 0.0033059060511955664 0 0.0048212299095294203 0.0035661385892500875 0 0.0047796056542597906 0.0036410238295073302 0 0.0049891326523503381 0.0034329935294886041 0 0.0048801275464196749 0.0035615543881858322 0 0.0047796056542597906 0.0036410238295073302 0 0.0049515109264459565 0.0034665485660882334 0 0.0049880615587726829 0.0035454248176332546 0 0.0049524259338317904 0.0035210966127043812 0 0.004926826368438381 0.0035569685971386629 0 0.0049279767342315017 0.0035270120946389373 0 0.004926826368438381 0.0035569685971386629 0 0.0048801275464196749 0.0035615543881858322 0 0.0049524259338317904 0.0035210966127043812 0 0.0049279767342315017 0.0035270120946389373 0 0.004926826368438381 0.0035569685971386629 0 0.0049836745802409052 0.003608858508196716 0 0.0049408425372130015 0.0035907305612202949 0 0.0049135498921056026 0.0036433466774546852 0 0.004926826368438381 0.0035569685971386629 0 0.0049408425372130015 0.0035907305612202949 0 0.0048975710016888833 0.0035980420832606615 0 0.0049408425372130015 0.0035907305612202949 0 0.0048975710016888833 0.0035980420832606615 0 0.0049135498921056026 0.0036433466774546852 0 0.0048604518724412104 0.0036381974855014721 0 0.0048975710016888833 0.0035980420832606615 0 0.0048801275464196749 0.0035615543881858322 0 0.0048604518724412104 0.0036381974855014721 0 0.0048801275464196749 0.0035615543881858322 0 0.0047796056542597906 0.0036410238295073302 0 0.0048604518724412104 0.0036381974855014721 0 0.0048975710016888833 0.0035980420832606615 0 0.0049135498921056026 0.0036433466774546852 0 0.004926826368438381 0.0035569685971386629 0 0.0048975710016888833 0.0035980420832606615 0 0.0048801275464196749 0.0035615543881858322 0 0.0037581996991763351 0.0054589085582187526 0 0.0037420356297194401 0.0054840846107443008 0 0.0038585898315005567 0.0054630744217919382 0 0.0042026621271816118 0.004545524158243803 0 0.004350343029052137 0.004519399168809975 0 0.0048212299095294203 0.0035661385892500875 0 0.0045992900568192097 0.003696100413500041 0 0.0049448523898066865 0.0034335234175416345 0 0.0048212299095294203 0.0035661385892500875 0 0.0045992900568192097 0.003696100413500041 0 0.0047553915560579803 0.0036379895846242196 0 0.0048212299095294203 0.0035661385892500875 0 0.0047553915560579803 0.0036379895846242196 0 0.0047796056542597906 0.0036410238295073302 0 0.0045451582310795206 0.0043336106077016658 0 0.0050722964014818378 0.0042238689846972382 0 0.0046960579693383717 0.0039650368486288182 0 0.005030386938544038 0.0040437689916525211 0 0.0047630003030919516 0.0036234883956345952 0 0.0048892625079750953 0.0037242194734918221 0 0.0047553915560579803 0.0036379895846242196 0 0.0047796056542597906 0.0036410238295073302 0 0.0050722964014818378 0.0042238689846972382 0 0.0047553915560579803 0.0036379895846242196 0 0.0046960579693383717 0.0039650368486288182 0 0.0045992900568192097 0.003696100413500041 0 0.0046960579693383717 0.0039650368486288182 0 0.0045200466271458585 0.0040383339350405978 0 0.0045992900568192097 0.003696100413500041 0 0.0047553915560579803 0.0036379895846242196 0 0.0046960579693383717 0.0039650368486288182 0 0.0045451582310795206 0.0043336106077016658 0 0.0046960579693383717 0.0039650368486288182 0 0.0045200466271458585 0.0040383339350405978 0 0.0048892625079750953 0.0037242194734918221 0 0.0048604518724412104 0.0036381974855014721 0 0.0047796056542597906 0.0036410238295073302 0 0.0048892625079750953 0.0037242194734918221 0 0.0048604518724412104 0.0036381974855014721 0 0.0049135498921056026 0.0036433466774546852 0 0.0048892625079750953 0.0037242194734918221 0 0.0049788677623962283 0.0036715925371796658 0 0.0049135498921056026 0.0036433466774546852 0 0.0049788677623962283 0.0036715925371796658 0 0.0049836745802409052 0.003608858508196716 0 0.0049135498921056026 0.0036433466774546852 0 0.0035333974889380213 0.0053520678317668163 0 0.0035564254214204495 0.0053691530218234369 0 0.0034961495889984113 0.0053299837711861938 0 0.0035333974889380213 0.0053520678317668163 0 0.0035743752754818624 0.0053819068329652945 0 0.0035120471012697347 0.0053347921051423459 0 0.0035333974889380213 0.0053520678317668163 0 0.0035743752754818624 0.0053819068329652945 0 0.0035564254214204495 0.0053691530218234369 0 0.0035333974889380213 0.0053520678317668163 0 0.0035016076069948844 0.0053294840635306302 0 0.0035086535252921006 0.0053318146089964113 0 0.0045992900568192097 0.003696100413500041 0 0.004317162371654114 0.0041674516169368991 0 0.0038839867640471362 0.0043319091136603712 0 0.0037420356297194401 0.0054840846107443008 0 0.0037194727343948584 0.0054844736627027288 0 0.0037057966864276898 0.0054943024681579069 0 0.0042026621271816118 0.004545524158243803 0 0.0037111983265962667 0.0050914028060177466 0 0.0036269083308532665 0.0054906097954368653 0 0.0037111983265962667 0.0050914028060177466 0 0.0045451582310795206 0.0043336106077016658 0 0.004317162371654114 0.0041674516169368991 0 0.0045200466271458585 0.0040383339350405978 0 0.0045992900568192097 0.003696100413500041 0 0.004317162371654114 0.0041674516169368991 0 0.0045200466271458585 0.0040383339350405978 0 0.0037581996991763351 0.0054589085582187526 0 0.0037194727343948584 0.0054844736627027288 0 0.0037153799830226685 0.0054226423686198118 0 0.0035743752754818624 0.0053819068329652945 0 0.0036106207255861477 0.0053929559322837993 0 0.0037153799830226685 0.0054226423686198118 0 0.0036269083308532665 0.0054906097954368653 0 0.0037161335933745309 0.0053848777784457407 0 0.0037581996991763351 0.0054589085582187526 0 0.0037420356297194401 0.0054840846107443008 0 0.0037194727343948584 0.0054844736627027288 0 0.0036106207255861477 0.0053929559322837993 0 0.0035564254214204495 0.0053691530218234369 0 0.003614027661218178 0.0053849356713805705 0 0.0035743752754818624 0.0053819068329652945 0 0.0036106207255861477 0.0053929559322837993 0 0.0035564254214204495 0.0053691530218234369 0 0.0035564254214204495 0.0053691530218234369 0 0.0034978408956811446 0.0053324969385741229 0 0.0034961495889984113 0.0053299837711861938 0 0.0035564254214204495 0.0053691530218234369 0 0.0034978408956811446 0.0053324969385741229 0 0.0035312158497890589 0.0053510665065851712 0 0.0032440562164063858 0.0052421195826070407 0 0.0032793061555752736 0.0052350919815260105 0 0.0034978408956811446 0.0053324969385741229 0 0.0034231518320852481 0.0052845645845195875 0 0.0035049229186837724 0.0053399447963173897 0 0.0034978408956811446 0.0053324969385741229 0 0.0034961495889984113 0.0053299837711861938 0 0.0034231518320852481 0.0052845645845195875 0 0.0034961495889984113 0.0053299837711861938 0 0.0034485393052878718 0.0053050179558899128 0 0.0034231518320852481 0.0052845645845195875 0 0.0034961495889984113 0.0053299837711861938 0 0.0035016076069948844 0.0053294840635306302 0 0.0034485393052878718 0.0053050179558899128 0 0.0035333974889380213 0.0053520678317668163 0 0.0034961495889984113 0.0053299837711861938 0 0.0035016076069948844 0.0053294840635306302 0 0.0035016076069948844 0.0053294840635306302 0 0.0034485393052878718 0.0053050179558899128 0 0.0034877558040793295 0.0053210651347582903 0 0.0034485393052878718 0.0053050179558899128 0 0.0034877558040793295 0.0053210651347582903 0 0.0034456241130017169 0.0053274303208579159 0 0.0034485393052878718 0.0053050179558899128 0 0.0033477473736790104 0.0053014618067515357 0 0.0034231518320852481 0.0052845645845195875 0 0.0034485393052878718 0.0053050179558899128 0 0.0033477473736790104 0.0053014618067515357 0 0.0034456241130017169 0.0053274303208579159 0 0.0034456241130017169 0.0053274303208579159 0 0.0034314148644843797 0.0053695375179944925 0 0.003348560308479446 0.0053803573853395499 0 0.0033477473736790104 0.0053014618067515357 0 0.0034456241130017169 0.0053274303208579159 0 0.003348560308479446 0.0053803573853395499 0 0.0033477473736790104 0.0053014618067515357 0 0.003348560308479446 0.0053803573853395499 0 0.0032617160574874185 0.0053490794397178113 0 0.0034877558040793295 0.0053210651347582903 0 0.0034456241130017169 0.0053274303208579159 0 0.0034979026038922927 0.0053281571754574047 0 0.0034456241130017169 0.0053274303208579159 0 0.0034979026038922927 0.0053281571754574047 0 0.0035086695146918177 0.0053510617378528143 0 0.0038989790505833213 0.0050675811183559195 0 0.0036740312213587698 0.004839460857998178 0 0.0035086695146918177 0.0053510617378528143 0 0.0036072893062931784 0.005050686931003961 0 0.0035053272271084006 0.0053259961036315482 0 0.0038989790505833213 0.0050675811183559195 0 0.00398925407720208 0.004689267461667518 0 0.0036740312213587698 0.004839460857998178 0 0.0034979026038922927 0.0053281571754574047 0 0.0035041941700723615 0.0053256887435842986 0 0.0035088091438983705 0.0053243258803121465 0 0.0034877558040793295 0.0053210651347582903 0 0.0034979026038922927 0.0053281571754574047 0 0.0035041941700723615 0.0053256887435842986 0 0.0036072893062931784 0.005050686931003961 0 0.0037111983265962667 0.0050914028060177466 0 0.00398925407720208 0.004689267461667518 0 0.0036740312213587698 0.004839460857998178 0 0.0038839867640471362 0.0043319091136603712 0 0.0035041941700723615 0.0053256887435842986 0 0.0035120471012697347 0.0053347921051423459 0 0.0035086535252921006 0.0053318146089964113 0 0.0035333974889380213 0.0053520678317668163 0 0.0035120471012697347 0.0053347921051423459 0 0.0035086535252921006 0.0053318146089964113 0 0.00354757772391554 0.005262035202333217 0 0.0037111983265962667 0.0050914028060177466 0 0.0034877558040793295 0.0053210651347582903 0 0.0035041941700723615 0.0053256887435842986 0 0.0035086535252921006 0.0053318146089964113 0 0.0035016076069948844 0.0053294840635306302 0 0.0034877558040793295 0.0053210651347582903 0 0.0035086535252921006 0.0053318146089964113 0 0.0045451582310795206 0.0043336106077016658 0 0.004317162371654114 0.0041674516169368991 0 0.0041934361615084004 0.0044518273324529595 0 0.004317162371654114 0.0041674516169368991 0 0.0038839867640471362 0.0043319091136603712 0 0.0041934361615084004 0.0044518273324529595 0 0.00398925407720208 0.004689267461667518 0 0.0041934361615084004 0.0044518273324529595 0 0.004299339452219283 0.0047389419926824458 0 0.00398925407720208 0.004689267461667518 0 0.0038839867640471362 0.0043319091136603712 0 0.0041934361615084004 0.0044518273324529595 0 0.0045451582310795206 0.0043336106077016658 0 0.0041934361615084004 0.0044518273324529595 0 0.004299339452219283 0.0047389419926824458 0 0.0044965784996812384 0.0052280839586188489 0 0.0038989790505833213 0.0050675811183559195 0 0.004299339452219283 0.0047389419926824458 0 0.0038989790505833213 0.0050675811183559195 0 0.00398925407720208 0.004689267461667518 0 0.004299339452219283 0.0047389419926824458 0 0.0041730063197027894 0.0046905622499111644 0 0.0038443519711324164 0.0047731029446167255 0 0.0044965784996812384 0.0052280839586188489 0 0.0038989790505833213 0.0050675811183559195 0 0.0036384591086272887 0.0055076734522129175 0 0.0039465455048581727 0.0040360250518388261 0 0.0039948987320715217 0.003966100053467916 0 0.0039748156513115529 0.0039625044814566336 0 0.0038989790505833213 0.0050675811183559195 0 0.0036384591086272887 0.0055076734522129175 0 0.0035086695146918177 0.0053510617378528143 0 0.0039948987320715217 0.003966100053467916 0 0.0039893049824119287 0.0039503982239414981 0 0.0039748156513115529 0.0039625044814566336 0 0.0039948987320715217 0.003966100053467916 0 0.0039893049824119287 0.0039503982239414981 0 0.0039819628088938524 0.0039636508927643902 0 0.0039893049824119287 0.0039503982239414981 0 0.0039748156513115529 0.0039625044814566336 0 0.0039892128671460509 0.0039244091611507692 0 0.0039102025514643557 0.0039372271503633847 0 0.0039465455048581727 0.0040360250518388261 0 0.0039748156513115529 0.0039625044814566336 0 0.0039102025514643557 0.0039372271503633847 0 0.0039748156513115529 0.0039625044814566336 0 0.0039892128671460509 0.0039244091611507692 0 0.0039102025514643557 0.0039372271503633847 0 0.0039518387132274086 0.0038728724470949677 0 0.0039892128671460509 0.0039244091611507692 0 0.0039518387132274086 0.0038728724470949677 0 0.0039892128671460509 0.0039244091611507692 0 0.0040320466980886815 0.0038812138874079233 0 0.0039892128671460509 0.0039244091611507692 0 0.0039870422544894639 0.0039309206930867755 0 0.0040320466980886815 0.0038812138874079233 0 0.0039893049824119287 0.0039503982239414981 0 0.0039892128671460509 0.0039244091611507692 0 0.0039870422544894639 0.0039309206930867755 0 0.0039893049824119287 0.0039503982239414981 0 0.0039870422544894639 0.0039309206930867755 0 0.0039760477102092073 0.0039676913732644642 0 0.0039870422544894639 0.0039309206930867755 0 0.0040008754039435601 0.0038966994598949502 0 0.0040320466980886815 0.0038812138874079233 0 0.0040008754039435601 0.0038966994598949502 0 0.0041156079071242831 0.0038229022028324266 0 0.0040320466980886815 0.0038812138874079233 0 0.003899433599030212 0.0037307572442464554 0 0.0039518387132274086 0.0038728724470949677 0 0.0041156079071242831 0.0038229022028324266 0 0.0039518387132274086 0.0038728724470949677 0 0.0041156079071242831 0.0038229022028324266 0 0.0040320466980886815 0.0038812138874079233 0 0.003917652980271252 0.003954364530768961 0 0.0039279422201599998 0.0039413951766451606 0 0.003920301258472445 0.0039489876651701119 0 0.0039513620111742941 0.0039538917462063608 0 0.003917652980271252 0.003954364530768961 0 0.0039279422201599998 0.0039413951766451606 0 0.0039279422201599998 0.0039413951766451606 0 0.003894866594529164 0.0039832785850551708 0 0.003920301258472445 0.0039489876651701119 0 0.0039513620111742941 0.0039538917462063608 0 0.0040008754039435601 0.0038966994598949502 0 0.0039279422201599998 0.0039413951766451606 0 0.0039870422544894639 0.0039309206930867755 0 0.0040008754039435601 0.0038966994598949502 0 0.0039279422201599998 0.0039413951766451606 0 0.0039870422544894639 0.0039309206930867755 0 0.0039279422201599998 0.0039413951766451606 0 0.003894866594529164 0.0039832785850551708 0 0.0039870422544894639 0.0039309206930867755 0 0.003894866594529164 0.0039832785850551708 0 0.0039760477102092073 0.0039676913732644642 0 0.003894866594529164 0.0039832785850551708 0 0.0037968579546866013 0.0040337895748398939 0 0.0039760477102092073 0.0039676913732644642 0 0.003894866594529164 0.0039832785850551708 0 0.0037968579546866013 0.0040337895748398939 0 0.003920301258472445 0.0039489876651701119 0 0.0037862086472045448 0.004050655284337258 0 0.0036118748995328616 0.0042687248338723191 0 0.0037968579546866013 0.0040337895748398939 0 0.0032510124377501991 0.0042202551087415809 0 0.0032921675079419059 0.0046495182556375615 0 0.0036403080476908275 0.0039899153464257302 0 0.0037968579546866013 0.0040337895748398939 0 0.0039760477102092073 0.0039676913732644642 0 0.0036403080476908275 0.0039899153464257302 0 0.0037968579546866013 0.0040337895748398939 0 0.0032510124377501991 0.0042202551087415809 0 0.0035461111500206502 0.0044138231566426215 0 0.0033546685671867835 0.0042473348534681201 0 0.0033182414991913007 0.0055437185377901436 0 0.0034188750050521024 0.005430350335758451 0 0.0033315987596234599 0.0054549322742475353 0 0.0033182414991913007 0.0055437185377901436 0 0.0033315987596234599 0.0054549322742475353 0 0.003253471651412751 0.0054408859114451489 0 0.0035461111500206502 0.0044138231566426215 0 0.0040171588850679294 0.0039704504681183153 0 0.0039523169892089517 0.0039620519705699684 0 0.0039760477102092073 0.0039676913732644642 0 0.0039819628088938524 0.0039636508927643902 0 0.0038443519711324164 0.0047731029446167255 0 0.0035461111500206502 0.0044138231566426215 0 0.0039948987320715217 0.003966100053467916 0 0.0039523169892089517 0.0039620519705699684 0 0.0039819628088938524 0.0039636508927643902 0 0.0039893049824119287 0.0039503982239414981 0 0.0039760477102092073 0.0039676913732644642 0 0.0039819628088938524 0.0039636508927643902 0 0.0036384591086272887 0.0055076734522129175 0 0.0033182414991913007 0.0055437185377901436 0 0.0034188750050521024 0.005430350335758451 0 0.0036384591086272887 0.0055076734522129175 0 0.0034188750050521024 0.005430350335758451 0 0.0035086695146918177 0.0053510617378528143 0 0.0034456241130017169 0.0053274303208579159 0 0.0034314148644843797 0.0053695375179944925 0 0.0035086695146918177 0.0053510617378528143 0 0.0034188750050521024 0.005430350335758451 0 0.0034314148644843797 0.0053695375179944925 0 0.0035086695146918177 0.0053510617378528143 0 0.0033315987596234599 0.0054549322742475353 0 0.003348560308479446 0.0053803573853395499 0 0.003253471651412751 0.0054408859114451489 0 0.0034188750050521024 0.005430350335758451 0 0.0033315987596234599 0.0054549322742475353 0 0.003348560308479446 0.0053803573853395499 0 0.0034188750050521024 0.005430350335758451 0 0.0034314148644843797 0.0053695375179944925 0 0.003348560308479446 0.0053803573853395499 0 0.003348560308479446 0.0053803573853395499 0 0.003253471651412751 0.0054408859114451489 0 0.0032617160574874185 0.0053490794397178113 0 0.003154878903875578 0.0053536480745929992 0 0.003253471651412751 0.0054408859114451489 0 0.0032617160574874185 0.0053490794397178113 0 0.003154878903875578 0.0053536480745929992 0 0.003253471651412751 0.0054408859114451489 0 0.0031450403791444376 0.005469593408967968 0 0.003154878903875578 0.0053536480745929992 0 0.0031450403791444376 0.005469593408967968 0 0.0029614046019101215 0.0053578560735863404 0 0.003154878903875578 0.0053536480745929992 0 0.0029614046019101215 0.0053578560735863404 0 0.0030378125115002367 0.0052684039024540226 0 0.003090225926551113 0.0048918701355984183 0 0.0028985901964381292 0.0049009592547898159 0 0.0028763391121632751 0.0044249450385140309 0 0.0030561406516466287 0.0042280469996798277 0 0.0027808210865918285 0.0044483263823763405 0 0.0030380545905256281 0.0043571478614344017 0 0.0028763391121632751 0.0044249450385140309 0 0.0030561406516466287 0.0042280469996798277 0 0.0033922537887408535 0.0041445315538972205 0 0.0030561406516466287 0.0042280469996798277 0 0.0032510124377501991 0.0042202551087415809 0 0.0033182414991913007 0.0055437185377901436 0 0.003253471651412751 0.0054408859114451489 0 0.0031450403791444376 0.005469593408967968 0 0.0035461111500206502 0.0044138231566426215 0 0.003090225926551113 0.0048918701355984183 0 0.0030380545905256281 0.0043571478614344017 0 0.0030561406516466287 0.0042280469996798277 0 0.0032510124377501991 0.0042202551087415809 0 0.0032510124377501991 0.0042202551087415809 0 0.0030982988362119285 0.0044780464001342854 0 0.0032921675079419059 0.0046495182556375615 0 0.0030380545905256281 0.0043571478614344017 0 0.0032510124377501991 0.0042202551087415809 0 0.0030982988362119285 0.0044780464001342854 0 0.0030380545905256281 0.0043571478614344017 0 0.0028763391121632751 0.0044249450385140309 0 0.002951474945999327 0.0044786301825358718 0 0.0030380545905256281 0.0043571478614344017 0 0.0030982988362119285 0.0044780464001342854 0 0.002951474945999327 0.0044786301825358718 0 0.0028763391121632751 0.0044249450385140309 0 0.002951474945999327 0.0044786301825358718 0 0.0028088689132856537 0.0045341324563100607 0 0.002951474945999327 0.0044786301825358718 0 0.0029806608170732181 0.0046363669278146292 0 0.0028088689132856537 0.0045341324563100607 0 0.0030982988362119285 0.0044780464001342854 0 0.002951474945999327 0.0044786301825358718 0 0.0029806608170732181 0.0046363669278146292 0 0.0029806608170732181 0.0046363669278146292 0 0.0027758131266097793 0.0046014081140116139 0 0.0028088689132856537 0.0045341324563100607 0 0.0029086610586988282 0.0047599283501569972 0 0.0029806608170732181 0.0046363669278146292 0 0.0027758131266097793 0.0046014081140116139 0 0.0030443936711298551 0.0048394215872400274 0 0.0029806608170732181 0.0046363669278146292 0 0.0032921675079419059 0.0046495182556375615 0 0.0034771861252815769 0.0044888171987545874 0 0.0036118748995328616 0.0042687248338723191 0 0.0038723073401229591 0.0039649541934744245 0 0.003917652980271252 0.003954364530768961 0 0.003920301258472445 0.0039489876651701119 0 0.0030982988362119285 0.0044780464001342854 0 0.0029806608170732181 0.0046363669278146292 0 0.0032921675079419059 0.0046495182556375615 0 0.0027637908518758744 0.0045030535531654812 0 0.0027517631836721929 0.0045571747078580723 0 0.0027779647231788293 0.0045671773582392633 0 0.0027637908518758744 0.0045030535531654812 0 0.0027517631836721929 0.0045571747078580723 0 0.0027758131266097793 0.0046014081140116139 0 0.0027517631836721929 0.0045571747078580723 0 0.0027758131266097793 0.0046014081140116139 0 0.0028088689132856537 0.0045341324563100607 0 0.0027517631836721929 0.0045571747078580723 0 0.0027683229759531062 0.0045316951146600589 0 0.0028088689132856537 0.0045341324563100607 0 0.0028763391121632751 0.0044249450385140309 0 0.0027683229759531062 0.0045316951146600589 0 0.0028088689132856537 0.0045341324563100607 0 0.0027517631836721929 0.0045571747078580723 0 0.0027350138539206782 0.0046163465149955873 0 0.0027779647231788293 0.0045671773582392633 0 0.0027517631836721929 0.0045571747078580723 0 0.0027683229759531062 0.0045316951146600589 0 0.0027350138539206782 0.0046163465149955873 0 0.0027683229759531062 0.0045316951146600589 0 0.0027350138539206782 0.0046163465149955873 0 0.0027808210865918285 0.0044483263823763405 0 0.0028763391121632751 0.0044249450385140309 0 0.0027683229759531062 0.0045316951146600589 0 0.0027808210865918285 0.0044483263823763405 0 0.0029614046019101215 0.0053578560735863404 0 0.0028303503510977014 0.0051976471324482899 0 0.0029252405037311587 0.0051988967268365733 0 0.0027350138539206782 0.0046163465149955873 0 0.0027808210865918285 0.0044483263823763405 0 0.0027175189726757628 0.0046860372832082942 0 0.0028985901964381292 0.0049009592547898159 0 0.0027992556921771434 0.0049460655528179801 0 0.0028303503510977014 0.0051976471324482899 0 0.0029252405037311587 0.0051988967268365733 0 0.0028095827326196539 0.0050993296077859332 0 0.002889023712756269 0.0050777259158305667 0 0.0028095827326196539 0.0050993296077859332 0 0.0028086949207662545 0.005050495550752843 0 0.002889023712756269 0.0050777259158305667 0 0.0029252405037311587 0.0051988967268365733 0 0.0028095827326196539 0.0050993296077859332 0 0.002889023712756269 0.0050777259158305667 0 0.0029252405037311587 0.0051988967268365733 0 0.003035801443824621 0.0052086554607100538 0 0.0028765969690767511 0.0051542609143199669 0 0.0030162249932378202 0.0052023107206286131 0 0.0029614046019101215 0.0053578560735863404 0 0.0029252405037311587 0.0051988967268365733 0 0.0030378125115002367 0.0052684039024540226 0 0.0029252405037311587 0.0051988967268365733 0 0.0030378125115002367 0.0052684039024540226 0 0.003035801443824621 0.0052086554607100538 0 0.003154878903875578 0.0053536480745929992 0 0.0030378125115002367 0.0052684039024540226 0 0.0032008464342035484 0.0052767046261995264 0 0.0030378125115002367 0.0052684039024540226 0 0.0032008464342035484 0.0052767046261995264 0 0.003035801443824621 0.0052086554607100538 0 0.003154878903875578 0.0053536480745929992 0 0.0032617160574874185 0.0053490794397178113 0 0.0032008464342035484 0.0052767046261995264 0 0.0033477473736790104 0.0053014618067515357 0 0.0032617160574874185 0.0053490794397178113 0 0.0032008464342035484 0.0052767046261995264 0 0.0032032623270284275 0.0052928197569071687 0 0.0032440562164063858 0.0052421195826070407 0 0.0033477473736790104 0.0053014618067515357 0 0.0032008464342035484 0.0052767046261995264 0 0.0034231518320852481 0.0052845645845195875 0 0.0032008464342035484 0.0052767046261995264 0 0.003035801443824621 0.0052086554607100538 0 0.0030728088669506521 0.0051740082531213502 0 0.003035801443824621 0.0052086554607100538 0 0.0029571990558909036 0.0051684431258300781 0 0.0030728088669506521 0.0051740082531213502 0 0.0030728088669506521 0.0051740082531213502 0 0.0029719920246300368 0.005122815230285971 0 0.0030551343198283627 0.0051284000431683473 0 0.0029571990558909036 0.0051684431258300781 0 0.0028754071790209118 0.0051299599401839792 0 0.0029719920246300368 0.005122815230285971 0 0.0029571990558909036 0.0051684431258300781 0 0.0030728088669506521 0.0051740082531213502 0 0.0029719920246300368 0.005122815230285971 0 0.0029571990558909036 0.0051684431258300781 0 0.0028754071790209118 0.0051299599401839792 0 0.0028375471357856112 0.0051567068173733388 0 0.0028754071790209118 0.0051299599401839792 0 0.0028375471357856112 0.0051567068173733388 0 0.0027848673695177492 0.0051096737991563924 0 0.0028375471357856112 0.0051567068173733388 0 0.0027449257471780938 0.0051381482246373698 0 0.0027410145433805267 0.0051941350982869141 0 0.0028375471357856112 0.0051567068173733388 0 0.0027848673695177492 0.0051096737991563924 0 0.0027449257471780938 0.0051381482246373698 0 0.0028642317964395047 0.0052303571326524356 0 0.0028375471357856112 0.0051567068173733388 0 0.0027410145433805267 0.0051941350982869141 0 0.0028765969690767511 0.0051542609143199669 0 0.0027770870050954914 0.0051209353813837233 0 0.0028642317964395047 0.0052303571326524356 0 0.0029571990558909036 0.0051684431258300781 0 0.0028375471357856112 0.0051567068173733388 0 0.0028642317964395047 0.0052303571326524356 0 0.003035801443824621 0.0052086554607100538 0 0.0029571990558909036 0.0051684431258300781 0 0.0028442934543111216 0.0051000111333976217 0 0.0028297705446618617 0.0050903986072062162 0 0.0027683409680491632 0.0050945126994200703 0 0.0027848673695177492 0.0051096737991563924 0 0.0028442934543111216 0.0051000111333976217 0 0.0027683409680491632 0.0050945126994200703 0 0.0027293434938303104 0.005094128429843363 0 0.0027848673695177492 0.0051096737991563924 0 0.0027683409680491632 0.0050945126994200703 0 0.0028754071790209118 0.0051299599401839792 0 0.0027848673695177492 0.0051096737991563924 0 0.0028442934543111216 0.0051000111333976217 0 0.0028754071790209118 0.0051299599401839792 0 0.0028442934543111216 0.0051000111333976217 0 0.0029719920246300368 0.005122815230285971 0 0.0029719920246300368 0.005122815230285971 0 0.0030475396933205517 0.0051207647583169846 0 0.0030551343198283627 0.0051284000431683473 0 0.0029719920246300368 0.005122815230285971 0 0.0030475396933205517 0.0051207647583169846 0 0.0030789001887973014 0.0051279340791010528 0 0.0030475396933205517 0.0051207647583169846 0 0.0030789001887973014 0.0051279340791010528 0 0.0030840804182314984 0.0051328193551607899 0 0.0028442934543111216 0.0051000111333976217 0 0.0029719920246300368 0.005122815230285971 0 0.0028297705446618617 0.0050903986072062162 0 0.0029681267545201232 0.0051330667153219565 0 0.0029542373334252876 0.0051233007261808853 0 0.0028297705446618617 0.0050903986072062162 0 0.0027590609011335005 0.0051190768697891359 0 0.0027628532699479486 0.005110460076566882 0 0.0029542373334252876 0.0051233007261808853 0 0.0029467246399365668 0.0051255213126556237 0 0.0030789001887973014 0.0051279340791010528 0 0.0031245955141588071 0.0051575170285107557 0 0.0031139361953537777 0.0051513218335402129 0 0.0030789001887973014 0.0051279340791010528 0 0.0031139361953537777 0.0051513218335402129 0 0.0030840804182314984 0.0051328193551607899 0 0.0031245955141588071 0.0051575170285107557 0 0.0031413044927980937 0.0051566361933577873 0 0.0031139361953537777 0.0051513218335402129 0 0.0027590609011335005 0.0051190768697891359 0 0.0027628532699479486 0.005110460076566882 0 0.002753694506224813 0.0051367725010715718 0 0.0027628532699479486 0.005110460076566882 0 0.0027683409680491632 0.0050945126994200703 0 0.0026839901150771542 0.0051120544088281159 0 0.0027628532699479486 0.005110460076566882 0 0.0026839901150771542 0.0051120544088281159 0 0.0027159490846790139 0.0051374181590972011 0 0.0028297705446618617 0.0050903986072062162 0 0.0027628532699479486 0.005110460076566882 0 0.0027683409680491632 0.0050945126994200703 0 0.0027293434938303104 0.005094128429843363 0 0.0027683409680491632 0.0050945126994200703 0 0.0026810930055518678 0.0050910668682676678 0 0.0027683409680491632 0.0050945126994200703 0 0.0026839901150771542 0.0051120544088281159 0 0.0026810930055518678 0.0050910668682676678 0 0.0026839901150771542 0.0051120544088281159 0 0.0027159490846790139 0.0051374181590972011 0 0.0026207950267810925 0.00513825779520147 0 0.0027628532699479486 0.005110460076566882 0 0.0027159490846790139 0.0051374181590972011 0 0.002753694506224813 0.0051367725010715718 0 0.0027159490846790139 0.0051374181590972011 0 0.0027502410332575673 0.0051539058508431263 0 0.002753694506224813 0.0051367725010715718 0 0.002703911979165188 0.0051507315936054707 0 0.0027678291204014552 0.0051585903175026329 0 0.0027502410332575673 0.0051539058508431263 0 0.0027159490846790139 0.0051374181590972011 0 0.002703911979165188 0.0051507315936054707 0 0.0027502410332575673 0.0051539058508431263 0 0.0027159490846790139 0.0051374181590972011 0 0.002703911979165188 0.0051507315936054707 0 0.0026207950267810925 0.00513825779520147 0 0.002703911979165188 0.0051507315936054707 0 0.0026207950267810925 0.00513825779520147 0 0.0026526430064091376 0.0051055752039885762 0 0.0026207950267810925 0.00513825779520147 0 0.0026526430064091376 0.0051055752039885762 0 0.0025485066673470143 0.0051061964757392834 0 0.002703911979165188 0.0051507315936054707 0 0.0026526430064091376 0.0051055752039885762 0 0.0027657986162051068 0.0050788446442346534 0 0.002703911979165188 0.0051507315936054707 0 0.0027657986162051068 0.0050788446442346534 0 0.0029191491015014902 0.0051326262564627403 0 0.0027657986162051068 0.0050788446442346534 0 0.0026367977814989152 0.0049999421485696534 0 0.0029085478260664353 0.0049999625840419087 0 0.0026526430064091376 0.0051055752039885762 0 0.0027657986162051068 0.0050788446442346534 0 0.0026367977814989152 0.0049999421485696534 0 0.0026526430064091376 0.0051055752039885762 0 0.0026367977814989152 0.0049999421485696534 0 0.0025485066673470143 0.0051061964757392834 0 0.002866925088385893 0.0051283403104529657 0 0.0031803169371743198 0.0050000241622350384 0 0.0029085478260664353 0.0049999625840419087 0 0.0029191491015014902 0.0051326262564627403 0 0.0031803847507278953 0.0050000124439699041 0 0.0028135492242123278 0.0051295237909086966 0 0.0030344235190540537 0.0051602747768101868 0 0.003180286293755556 0.0049998930672677817 0 0.0027657986162051068 0.0050788446442346534 0 0.0029085478260664353 0.0049999625840419087 0 0.0029191491015014902 0.0051326262564627403 0 0.002703911979165188 0.0051507315936054707 0 0.0028135492242123278 0.0051295237909086966 0 0.0027678291204014552 0.0051585903175026329 0 0.002718754653819802 0.0051555141154383472 0 0.002866925088385893 0.0051283403104529657 0 0.0028135492242123278 0.0051295237909086966 0 0.0028669219683060856 0.005171676699163936 0 0.0027980166278997712 0.0051683366909843148 0 0.0028135492242123278 0.0051295237909086966 0 0.0027678291204014552 0.0051585903175026329 0 0.0027980166278997712 0.0051683366909843148 0 0.0028669219683060856 0.005171676699163936 0 0.0029796022594987129 0.0052750815398112175 0 0.002861426098960704 0.0054976601798371622 0 0.0028135492242123278 0.0051295237909086966 0 0.0028669219683060856 0.005171676699163936 0 0.0030344235190540537 0.0051602747768101868 0 0.0028669219683060856 0.005171676699163936 0 0.0030344235190540537 0.0051602747768101868 0 0.0029796022594987129 0.0052750815398112175 0 0.0030344235190540537 0.0051602747768101868 0 0.0029796022594987129 0.0052750815398112175 0 0.0031456488018249355 0.0052874569407149741 0 0.0028669219683060856 0.005171676699163936 0 0.0027643246112511377 0.0051642332013560627 0 0.0027980166278997712 0.0051683366909843148 0 0.0029796022594987129 0.0052750815398112175 0 0.002861426098960704 0.0054976601798371622 0 0.0031456488018249355 0.0052874569407149741 0 0.003132109485636375 0.0051415745594914708 0 0.0031603377294588974 0.005142876445451125 0 0.0031943351972566337 0.0051052679903496254 0 0.0029141749228663652 0.0052147331351098791 0 0.00317937771483361 0.0052101086099088619 0 0.00284234937693322 0.0052199377391132333 0 0.0029141749228663652 0.0052147331351098791 0 0.0029141749228663652 0.0052147331351098791 0 0.0028626593952339914 0.0052223207357691937 0 0.003132109485636375 0.0051415745594914708 0 0.0031603377294588974 0.005142876445451125 0 0.0031413044927980937 0.0051566361933577873 0 0.0027678291204014552 0.0051585903175026329 0 0.0027693062952724224 0.0051620929741978743 0 0.0027502410332575673 0.0051539058508431263 0 0.0027643246112511377 0.0051642332013560627 0 0.0027980166278997712 0.0051683366909843148 0 0.0027728960663336005 0.0051636238160082263 0 0.0027678291204014552 0.0051585903175026329 0 0.0027693062952724224 0.0051620929741978743 0 0.0027980166278997712 0.0051683366909843148 0 0.0027693062952724224 0.0051620929741978743 0 0.0027980166278997712 0.0051683366909843148 0 0.0027728960663336005 0.0051636238160082263 0 0.0027693062952724224 0.0051620929741978743 0 0.0027616144142106505 0.0051557118647491233 0 0.0027502410332575673 0.0051539058508431263 0 0.0027643246112511377 0.0051642332013560627 0 0.0027728960663336005 0.0051636238160082263 0 0.0027616144142106505 0.0051557118647491233 0 0.0027693062952724224 0.0051620929741978743 0 0.0027728960663336005 0.0051636238160082263 0 0.0027616144142106505 0.0051557118647491233 0 0.0027590609011335005 0.0051190768697891359 0 0.0027616144142106505 0.0051557118647491233 0 0.002753694506224813 0.0051367725010715718 0 0.0027616144142106505 0.0051557118647491233 0 0.0027502410332575673 0.0051539058508431263 0 0.002753694506224813 0.0051367725010715718 0 0.0027590609011335005 0.0051190768697891359 0 0.0027562228392793361 0.005159866027638539 0 0.0027616144142106505 0.0051557118647491233 0 0.0029467246399365668 0.0051255213126556237 0 0.0029141749228663652 0.0052147331351098791 0 0.0031245955141588071 0.0051575170285107557 0 0.003132109485636375 0.0051415745594914708 0 0.0031413044927980937 0.0051566361933577873 0 0.0031603377294588974 0.005142876445451125 0 0.0031413044927980937 0.0051566361933577873 0 0.0031776555927114677 0.0051536094881744167 0 0.0031413044927980937 0.0051566361933577873 0 0.0031776555927114677 0.0051536094881744167 0 0.0031496883540976729 0.0051651275149977331 0 0.0032571155272089138 0.0051506897958634576 0 0.0031776555927114677 0.0051536094881744167 0 0.0031496883540976729 0.0051651275149977331 0 0.0033771350952018801 0.0051877902513976322 0 0.0033382578247839836 0.00523805749545016 0 0.0034904802713787032 0.0052505533999752749 0 0.0035672443509889152 0.0053021372188689691 0 0.0035258090949895475 0.00532167233115142 0 0.0031603377294588974 0.005142876445451125 0 0.0031776555927114677 0.0051536094881744167 0 0.0031943351972566337 0.0051052679903496254 0 0.0032571155272089138 0.0051506897958634576 0 0.0031776555927114677 0.0051536094881744167 0 0.0031943351972566337 0.0051052679903496254 0 0.0031456488018249355 0.0052874569407149741 0 0.0033702853332043176 0.0051357021499009075 0 0.0032047171047708692 0.0051310100174771058 0 0.00317937771483361 0.0052101086099088619 0 0.003370475279514294 0.0050995933903283368 0 0.0030344235190540537 0.0051602747768101868 0 0.0031456488018249355 0.0052874569407149741 0 0.0032047171047708692 0.0051310100174771058 0 0.0031943351972566337 0.0051052679903496254 0 0.0033141114558541355 0.005095553214521608 0 0.0033819209275664508 0.0050626670964654796 0 0.0032571155272089138 0.0051506897958634576 0 0.0033141114558541355 0.005095553214521608 0 0.0034291689345350138 0.00506251168451254 0 0.0032571155272089138 0.0051506897958634576 0 0.0031943351972566337 0.0051052679903496254 0 0.0033141114558541355 0.005095553214521608 0 0.0033771350952018801 0.0051877902513976322 0 0.003426244315006619 0.0050581847360072311 0 0.0033141114558541355 0.005095553214521608 0 0.0034291689345350138 0.00506251168451254 0 0.0033819209275664508 0.0050626670964654796 0 0.0033702853332043176 0.0051357021499009075 0 0.0032801593363388079 0.0050646223037851884 0 0.0032047171047708692 0.0051310100174771058 0 0.0033702853332043176 0.0051357021499009075 0 0.0033709918358638888 0.0050000203058652107 0 0.0035615418881997326 0.0049999895105320323 0 0.0033702853332043176 0.0051357021499009075 0 0.0033709918358638888 0.0050000203058652107 0 0.0032801593363388079 0.0050646223037851884 0 0.0033709918358638888 0.0050000203058652107 0 0.0032801593363388079 0.0050646223037851884 0 0.003180286293755556 0.0049998930672677817 0 0.0032801593363388079 0.0050646223037851884 0 0.003180286293755556 0.0049998930672677817 0 0.0032047171047708692 0.0051310100174771058 0 0.0030344235190540537 0.0051602747768101868 0 0.003180286293755556 0.0049998930672677817 0 0.0032047171047708692 0.0051310100174771058 0 0.0035616858765823607 0.0049998587828840478 0 0.0036526406916677452 0.0051287359543106857 0 0.0039037066917394455 0.0051518497348694622 0 0.003370475279514294 0.0050995933903283368 0 0.0035615058450812116 0.0050000205778576263 0 0.0034291689345350138 0.00506251168451254 0 0.0033819209275664508 0.0050626670964654796 0 0.0035616858765823607 0.0049998587828840478 0 0.0034291689345350138 0.00506251168451254 0 0.0035616858765823607 0.0049998587828840478 0 0.0036526406916677452 0.0051287359543106857 0 0.0034904802713787032 0.0052505533999752749 0 0.0034291689345350138 0.00506251168451254 0 0.0035829274080854102 0.0052030067491456574 0 0.0034291689345350138 0.00506251168451254 0 0.0035829274080854102 0.0052030067491456574 0 0.0036526406916677452 0.0051287359543106857 0 0.0035829274080854102 0.0052030067491456574 0 0.0036526406916677452 0.0051287359543106857 0 0.0037333803095084481 0.005244486390707479 0 0.0035829274080854102 0.0052030067491456574 0 0.0037333803095084481 0.005244486390707479 0 0.0035672443509889152 0.0053021372188689691 0 0.0034904802713787032 0.0052505533999752749 0 0.0035829274080854102 0.0052030067491456574 0 0.0035672443509889152 0.0053021372188689691 0 0.0037333803095084481 0.005244486390707479 0 0.0035672443509889152 0.0053021372188689691 0 0.0036248586891020071 0.0053290739882302426 0 0.0037324433735493345 0.0052420370632222917 0 0.0037043166669676721 0.0053378739975588367 0 0.0037043166669676721 0.0053378739975588367 0 0.003665356526041213 0.0053702566653279528 0 0.0037831636206653004 0.0053620846017502638 0 0.0037482661007338346 0.0053891011249483523 0 0.0038134134821428867 0.0053869675013276845 0 0.0036248586891020071 0.0053290739882302426 0 0.0035893068315705377 0.0053417871889775799 0 0.0035618182719132914 0.0053350129808731718 0 0.0035893068315705377 0.0053417871889775799 0 0.0035618182719132914 0.0053350129808731718 0 0.0035568498419609727 0.0053435470794192157 0 0.0035672443509889152 0.0053021372188689691 0 0.0036248586891020071 0.0053290739882302426 0 0.0035618182719132914 0.0053350129808731718 0 0.0035672443509889152 0.0053021372188689691 0 0.0035618182719132914 0.0053350129808731718 0 0.0035258090949895475 0.00532167233115142 0 0.0031413044927980937 0.0051566361933577873 0 0.0031496883540976729 0.0051651275149977331 0 0.0031139361953537777 0.0051513218335402129 0 0.0031496883540976729 0.0051651275149977331 0 0.0031139361953537777 0.0051513218335402129 0 0.0030840804182314984 0.0051328193551607899 0 0.0033382578247839836 0.00523805749545016 0 0.0033072484920229441 0.0052341267598501268 0 0.0035618182719132914 0.0053350129808731718 0 0.0035283072378230525 0.0053383802495889305 0 0.0035568498419609727 0.0053435470794192157 0 0.0035618182719132914 0.0053350129808731718 0 0.0035258090949895475 0.00532167233115142 0 0.0035283072378230525 0.0053383802495889305 0 0.0035283072378230525 0.0053383802495889305 0 0.0035312158497890589 0.0053510665065851712 0 0.0035568498419609727 0.0053435470794192157 0 0.0033072484920229441 0.0052341267598501268 0 0.0032793061555752736 0.0052350919815260105 0 0.0030475396933205517 0.0051207647583169846 0 0.0030840804182314984 0.0051328193551607899 0 0.0030551343198283627 0.0051284000431683473 0 0.0035283072378230525 0.0053383802495889305 0 0.0035049229186837724 0.0053399447963173897 0 0.0035312158497890589 0.0053510665065851712 0 0.0034978408956811446 0.0053324969385741229 0 0.0035049229186837724 0.0053399447963173897 0 0.0035312158497890589 0.0053510665065851712 0 0.0035564254214204495 0.0053691530218234369 0 0.0035312158497890589 0.0053510665065851712 0 0.003614027661218178 0.0053849356713805705 0 0.0035312158497890589 0.0053510665065851712 0 0.003614027661218178 0.0053849356713805705 0 0.0035568498419609727 0.0053435470794192157 0 0.0036106207255861477 0.0053929559322837993 0 0.003614027661218178 0.0053849356713805705 0 0.0037153799830226685 0.0054226423686198118 0 0.0037482661007338346 0.0053891011249483523 0 0.003614027661218178 0.0053849356713805705 0 0.0037153799830226685 0.0054226423686198118 0 0.003665356526041213 0.0053702566653279528 0 0.0036212134532312024 0.0053931705769986156 0 0.0037482661007338346 0.0053891011249483523 0 0.0037153799830226685 0.0054226423686198118 0 0.0038028409958550126 0.0054232391052918176 0 0.0035893068315705377 0.0053417871889775799 0 0.003614027661218178 0.0053849356713805705 0 0.0035568498419609727 0.0053435470794192157 0 0.0038955523516258214 0.0054528911534729848 0 0.0038585898315005567 0.0054630744217919382 0 0.0040067369317630308 0.0054623310563804116 0 0.00388591181444101 0.0054405807961182108 0 0.0038955523516258214 0.0054528911534729848 0 0.0040067369317630308 0.0054623310563804116 0 0.00388591181444101 0.0054405807961182108 0 0.0038028409958550126 0.0054232391052918176 0 0.0038340853556701345 0.0054449128931650121 0 0.00388591181444101 0.0054405807961182108 0 0.0038955523516258214 0.0054528911534729848 0 0.0038340853556701345 0.0054449128931650121 0 0.00388591181444101 0.0054405807961182108 0 0.0039396325089511054 0.0054327296384097728 0 0.0038579119633027569 0.0054160544223952212 0 0.00388591181444101 0.0054405807961182108 0 0.0038028409958550126 0.0054232391052918176 0 0.0038579119633027569 0.0054160544223952212 0 0.0037482661007338346 0.0053891011249483523 0 0.0038028409958550126 0.0054232391052918176 0 0.0038579119633027569 0.0054160544223952212 0 0.0037581996991763351 0.0054589085582187526 0 0.0037972969772736113 0.0054430222224650148 0 0.0038585898315005567 0.0054630744217919382 0 0.0038028409958550126 0.0054232391052918176 0 0.0037972969772736113 0.0054430222224650148 0 0.0038340853556701345 0.0054449128931650121 0 0.0037153799830226685 0.0054226423686198118 0 0.0038028409958550126 0.0054232391052918176 0 0.0037972969772736113 0.0054430222224650148 0 0.0037581996991763351 0.0054589085582187526 0 0.0037153799830226685 0.0054226423686198118 0 0.0037972969772736113 0.0054430222224650148 0 0.0037972969772736113 0.0054430222224650148 0 0.0038585898315005567 0.0054630744217919382 0 0.0038340853556701345 0.0054449128931650121 0 0.0048212299095294203 0.0035661385892500875 0 0.0049448523898066865 0.0034335234175416345 0 0.0049891326523503381 0.0034329935294886041 0 0.0049448523898066865 0.0034335234175416345 0 0.0049891326523503381 0.0034329935294886041 0 0.0051129234563721017 0.003381461858896876 0 0.0038955523516258214 0.0054528911534729848 0 0.0038585898315005567 0.0054630744217919382 0 0.0038340853556701345 0.0054449128931650121 0 0.0049279767342315017 0.0035270120946389373 0 0.0048801275464196749 0.0035615543881858322 0 0.0049515109264459565 0.0034665485660882334 0 0.0049524259338317904 0.0035210966127043812 0 0.0049279767342315017 0.0035270120946389373 0 0.0049515109264459565 0.0034665485660882334 0 0.0049524259338317904 0.0035210966127043812 0 0.0049515109264459565 0.0034665485660882334 0 0.0049837139945437476 0.003502834954120839 0 0.004350343029052137 0.004519399168809975 0 0.0047414554968175197 0.0041305106458052977 0 0.0049515109264459565 0.0034665485660882334 0 0.0049837139945437476 0.003502834954120839 0 0.0050120595257982289 0.0034786674695980839 0 0.0049837139945437476 0.003502834954120839 0 0.0050120595257982289 0.0034786674695980839 0 0.005011688613203202 0.0035078712529453692 0 0.0050326651778744656 0.0035229854621916185 0 0.005011688613203202 0.0035078712529453692 0 0.005038408680767382 0.0034961151741776581 0 0.0050532273844912743 0.0035153439792429035 0 0.005038408680767382 0.0034961151741776581 0 0.0050629720243497113 0.0034894025207988506 0 0.0050326651778744656 0.0035229854621916185 0 0.0050532273844912743 0.0035153439792429035 0 0.005038408680767382 0.0034961151741776581 0 0.005038408680767382 0.0034961151741776581 0 0.0050481764540351833 0.0034708245510671025 0 0.0050629720243497113 0.0034894025207988506 0 0.0050120595257982289 0.0034786674695980839 0 0.005038408680767382 0.0034961151741776581 0 0.0050481764540351833 0.0034708245510671025 0 0.0050120595257982289 0.0034786674695980839 0 0.005011688613203202 0.0035078712529453692 0 0.005038408680767382 0.0034961151741776581 0 0.0050120595257982289 0.0034786674695980839 0 0.0050481764540351833 0.0034708245510671025 0 0.0050323934194330218 0.0034493230624422361 0 0.0050481764540351833 0.0034708245510671025 0 0.0050323934194330218 0.0034493230624422361 0 0.0050622115266822166 0.0034471886510386682 0 0.0049515109264459565 0.0034665485660882334 0 0.0050120595257982289 0.0034786674695980839 0 0.0050323934194330218 0.0034493230624422361 0 0.0053229168871746614 0.0036613431775329025 0 0.0053492327456522533 0.0036429952626611346 0 0.0056142868202979819 0.0038061583883937313 0 0.005593491330215623 0.0038813362967252329 0 0.0056267825541133744 0.0039672381850403629 0 0.0051002605420508735 0.0035038146076487018 0 0.0050755080017352147 0.0034696693815503784 0 0.0050829576814329083 0.0034359840163996807 0 0.0056142868202979819 0.0038061583883937313 0 0.005593491330215623 0.0038813362967252329 0 0.0055249697130875597 0.0038796985052239083 0 0.0051002605420508735 0.0035038146076487018 0 0.0050804648749156077 0.003493269171204402 0 0.0050755080017352147 0.0034696693815503784 0 0.0053229168871746614 0.0036613431775329025 0 0.0051870956621909263 0.003641568517110992 0 0.0051002605420508735 0.0035038146076487018 0 0.0050804648749156077 0.003493269171204402 0 0.0050814578281953258 0.0035109721169181126 0 0.0050804648749156077 0.003493269171204402 0 0.0050814578281953258 0.0035109721169181126 0 0.0050629720243497113 0.0034894025207988506 0 0.0050532273844912743 0.0035153439792429035 0 0.0050814578281953258 0.0035109721169181126 0 0.0050629720243497113 0.0034894025207988506 0 0.0050804648749156077 0.003493269171204402 0 0.0050629720243497113 0.0034894025207988506 0 0.0050755080017352147 0.0034696693815503784 0 0.0050755080017352147 0.0034696693815503784 0 0.0050829576814329083 0.0034359840163996807 0 0.0050622115266822166 0.0034471886510386682 0 0.0050481764540351833 0.0034708245510671025 0 0.0050629720243497113 0.0034894025207988506 0 0.0050755080017352147 0.0034696693815503784 0 0.0050481764540351833 0.0034708245510671025 0 0.0050755080017352147 0.0034696693815503784 0 0.0050622115266822166 0.0034471886510386682 0 0.005593491330215623 0.0038813362967252329 0 0.0055912420533198387 0.003931480769168493 0 0.0056267825541133744 0.0039672381850403629 0 0.005593491330215623 0.0038813362967252329 0 0.0055912420533198387 0.003931480769168493 0 0.0055523511576715499 0.0039160280664667846 0 0.005593491330215623 0.0038813362967252329 0 0.0055249697130875597 0.0038796985052239083 0 0.0055523511576715499 0.0039160280664667846 0 0.0050829576814329083 0.0034359840163996807 0 0.0050620506694106851 0.0034267370214645593 0 0.0050744970762061992 0.0033984354249093343 0 0.0053492327456522533 0.0036429952626611346 0 0.005034587486207001 0.0041537610820797473 0 0.0056267825541133744 0.0039672381850403629 0 0.0055993492569954562 0.0040217853410262029 0 0.0056366977500474074 0.0041337566865164432 0 0.005592983146640783 0.0039616185891541917 0 0.0055753680365208756 0.0040120745574928098 0 0.0055397206612790954 0.0040090827645959852 0 0.005592983146640783 0.0039616185891541917 0 0.0055993492569954562 0.0040217853410262029 0 0.0055753680365208756 0.0040120745574928098 0 0.0055912420533198387 0.003931480769168493 0 0.005592983146640783 0.0039616185891541917 0 0.0055523511576715499 0.0039160280664667846 0 0.0055912420533198387 0.003931480769168493 0 0.005592983146640783 0.0039616185891541917 0 0.0056267825541133744 0.0039672381850403629 0 0.005592983146640783 0.0039616185891541917 0 0.0056267825541133744 0.0039672381850403629 0 0.0055993492569954562 0.0040217853410262029 0 0.0050829576814329083 0.0034359840163996807 0 0.0050622115266822166 0.0034471886510386682 0 0.0050620506694106851 0.0034267370214645593 0 0.0050620506694106851 0.0034267370214645593 0 0.0050462034081725686 0.0034163716128361083 0 0.0050744970762061992 0.0033984354249093343 0 0.0047414554968175197 0.0041305106458052977 0 0.005034587486207001 0.0041537610820797473 0 0.0055993492569954562 0.0040217853410262029 0 0.0055693141510436408 0.0040556296955103575 0 0.0056366977500474074 0.0041337566865164432 0 0.0055993492569954562 0.0040217853410262029 0 0.0055693141510436408 0.0040556296955103575 0 0.0055753680365208756 0.0040120745574928098 0 0.0055693141510436408 0.0040556296955103575 0 0.0055753680365208756 0.0040120745574928098 0 0.0055397206612790954 0.0040090827645959852 0 0.00388591181444101 0.0054405807961182108 0 0.0040067369317630308 0.0054623310563804116 0 0.0039396325089511054 0.0054327296384097728 0 0.0049515109264459565 0.0034665485660882334 0 0.0050323934194330218 0.0034493230624422361 0 0.0050462034081725686 0.0034163716128361083 0 0.0050629267231029496 0.0033059060511955664 0 0.0047414554968175197 0.0041305106458052977 0 0.0050323934194330218 0.0034493230624422361 0 0.0050620506694106851 0.0034267370214645593 0 0.0050462034081725686 0.0034163716128361083 0 0.0050323934194330218 0.0034493230624422361 0 0.0050622115266822166 0.0034471886510386682 0 0.0050620506694106851 0.0034267370214645593 0 0.0040067369317630308 0.0054623310563804116 0 0.0040084153145126091 0.0054333190922943092 0 0.0039396325089511054 0.0054327296384097728 0 0.0040067369317630308 0.0054623310563804116 0 0.0040084153145126091 0.0054333190922943092 0 0.0040889603906653213 0.0054481870624786344 0 0.004072532870841303 0.0054314132962019366 0 0.0040084153145126091 0.0054333190922943092 0 0.0040889603906653213 0.0054481870624786344 0 0.0040084153145126091 0.0054333190922943092 0 0.0039420688285509951 0.0054054799061288589 0 0.0039396325089511054 0.0054327296384097728 0 0.0056193258026747319 0.0041635279817111475 0 0.005558454459531975 0.004208971118625256 0 0.0054962707091776924 0.0043333223080594865 0 0.0056366977500474074 0.0041337566865164432 0 0.005558454459531975 0.004208971118625256 0 0.0055547309131482835 0.0041266067437961537 0 0.0055693141510436408 0.0040556296955103575 0 0.0056366977500474074 0.0041337566865164432 0 0.0055547309131482835 0.0041266067437961537 0 0.004842182959143437 0.0042502559851665669 0 0.0047785241608734102 0.0043427535792132854 0 0.0047770076725709111 0.0043258945012565322 0 0.0047414554968175197 0.0041305106458052977 0 0.0047062755448333202 0.0048437555084868888 0 0.0047062755448333202 0.0048437555084868888 0 0.005034587486207001 0.0041537610820797473 0 0.0047062755448333202 0.0048437555084868888 0 0.0042413819203386358 0.0055850544625613077 0 0.004072532870841303 0.0054314132962019366 0 0.0040889603906653213 0.0054481870624786344 0 0.0041541785899765291 0.0054205809957603946 0 0.0056193258026747319 0.0041635279817111475 0 0.0056172995386128905 0.004144255936323009 0 0.005558454459531975 0.004208971118625256 0 0.005034587486207001 0.0041537610820797473 0 0.0055275899530676841 0.0040522026998188587 0 0.0041636977266106502 0.0055641649744924077 0 0.0041541785899765291 0.0054205809957603946 0 0.0043624018725406215 0.0053916950488785533 0 0.0041541785899765291 0.0054205809957603946 0 0.0042337345678358238 0.005345209465130907 0 0.0043624018725406215 0.0053916950488785533 0 0.0041541785899765291 0.0054205809957603946 0 0.0040242782013112533 0.0053962414516949787 0 0.0042337345678358238 0.005345209465130907 0 0.0047062755448333202 0.0048437555084868888 0 0.0049587814802271781 0.0048558206967567455 0 0.0040084153145126091 0.0054333190922943092 0 0.0040242782013112533 0.0053962414516949787 0 0.0039420688285509951 0.0054054799061288589 0 0.004072532870841303 0.0054314132962019366 0 0.0041541785899765291 0.0054205809957603946 0 0.0040242782013112533 0.0053962414516949787 0 0.004072532870841303 0.0054314132962019366 0 0.0040084153145126091 0.0054333190922943092 0 0.0040242782013112533 0.0053962414516949787 0 0.0039420688285509951 0.0054054799061288589 0 0.0038686084358480971 0.0053793910780726697 0 0.0039594979035035196 0.00536072734372564 0 0.0040242782013112533 0.0053962414516949787 0 0.0039420688285509951 0.0054054799061288589 0 0.0039594979035035196 0.00536072734372564 0 0.0039420688285509951 0.0054054799061288589 0 0.0038579119633027569 0.0054160544223952212 0 0.0038686084358480971 0.0053793910780726697 0 0.0039420688285509951 0.0054054799061288589 0 0.0039396325089511054 0.0054327296384097728 0 0.0038579119633027569 0.0054160544223952212 0 0.0038134134821428867 0.0053869675013276845 0 0.0038579119633027569 0.0054160544223952212 0 0.0038686084358480971 0.0053793910780726697 0 0.0037482661007338346 0.0053891011249483523 0 0.0038134134821428867 0.0053869675013276845 0 0.0038579119633027569 0.0054160544223952212 0 0.0037831636206653004 0.0053620846017502638 0 0.0038686084358480971 0.0053793910780726697 0 0.0038569450541095607 0.0053341784735062786 0 0.0037831636206653004 0.0053620846017502638 0 0.0038134134821428867 0.0053869675013276845 0 0.0038686084358480971 0.0053793910780726697 0 0.0035616858765823607 0.0049998587828840478 0 0.0039037066917394455 0.0051518497348694622 0 0.0043598373649450994 0.0049998638892882101 0 0.0037333803095084481 0.005244486390707479 0 0.0037831636206653004 0.0053620846017502638 0 0.0038569450541095607 0.0053341784735062786 0 0.0039594979035035196 0.00536072734372564 0 0.0039614005755643231 0.0052711917103723076 0 0.0040656532769458584 0.0053293762236132879 0 0.0038686084358480971 0.0053793910780726697 0 0.0038569450541095607 0.0053341784735062786 0 0.0039594979035035196 0.00536072734372564 0 0.0038569450541095607 0.0053341784735062786 0 0.0039594979035035196 0.00536072734372564 0 0.0039614005755643231 0.0052711917103723076 0 0.0037333803095084481 0.005244486390707479 0 0.0038569450541095607 0.0053341784735062786 0 0.0039614005755643231 0.0052711917103723076 0 0.0037333803095084481 0.005244486390707479 0 0.0039614005755643231 0.0052711917103723076 0 0.0039037066917394455 0.0051518497348694622 0 0.0036526406916677452 0.0051287359543106857 0 0.0037333803095084481 0.005244486390707479 0 0.0039037066917394455 0.0051518497348694622 0 0.0039614005755643231 0.0052711917103723076 0 0.0039037066917394455 0.0051518497348694622 0 0.0041643587403639689 0.0052244585420909376 0 0.0039037066917394455 0.0051518497348694622 0 0.0043598373649450994 0.0049998638892882101 0 0.0041643587403639689 0.0052244585420909376 0 0.0043598373649450994 0.0049998638892882101 0 0.0041643587403639689 0.0052244585420909376 0 0.0044449463580380731 0.0052187486005797748 0 0.0041643587403639689 0.0052244585420909376 0 0.0040656532769458584 0.0053293762236132879 0 0.0042202054424897006 0.0053477741201574018 0 0.0041643587403639689 0.0052244585420909376 0 0.0042202054424897006 0.0053477741201574018 0 0.0044449463580380731 0.0052187486005797748 0 0.0039614005755643231 0.0052711917103723076 0 0.0041643587403639689 0.0052244585420909376 0 0.0040656532769458584 0.0053293762236132879 0 0.0040242782013112533 0.0053962414516949787 0 0.0040656532769458584 0.0053293762236132879 0 0.0042202054424897006 0.0053477741201574018 0 0.0040242782013112533 0.0053962414516949787 0 0.0039594979035035196 0.00536072734372564 0 0.0040656532769458584 0.0053293762236132879 0 0.0040453847335004834 0.0053961159021430512 0 0.0042302036912579971 0.0052954781097630556 0 0.0040242782013112533 0.0053962414516949787 0 0.004245162489077762 0.005243531687377072 0 0.0042337345678358238 0.005345209465130907 0 0.004245162489077762 0.005243531687377072 0 0.0042337345678358238 0.005345209465130907 0 0.0044008624425111798 0.0052824689012515996 0 0.0042337345678358238 0.005345209465130907 0 0.0044008624425111798 0.0052824689012515996 0 0.0043624018725406215 0.0053916950488785533 0 0.0043598373649450994 0.0049998638892882101 0 0.0046718141672491614 0.0050276226212087934 0 0.0050000153366224947 0.0049999233285429852 0 0.0049555726117444798 0.0048975372130126548 0 0.0049587814802271781 0.0048558206967567455 0 0.0044008624425111798 0.0052824689012515996 0 0.0045563878663395733 0.005267583259749682 0 0.0043624018725406215 0.0053916950488785533 0 0.0053603193961426479 0.0045257258595414011 0 0.0053516596326406343 0.0043609295805130729 0 0.0054962707091776924 0.0043333223080594865 0 0.0053603193961426479 0.0045257258595414011 0 0.0051949329081430948 0.0045456061349563306 0 0.0053516596326406343 0.0043609295805130729 0 0.0045563878663395733 0.005267583259749682 0 0.0044754184378315879 0.0051248712076853954 0 0.0047427152811002444 0.0051640265595002382 0 0.004245162489077762 0.005243531687377072 0 0.0044008624425111798 0.0052824689012515996 0 0.0044754184378315879 0.0051248712076853954 0 0.0042302036912579971 0.0052954781097630556 0 0.0044612008559235744 0.0051699442007861925 0 0.0044008624425111798 0.0052824689012515996 0 0.0045563878663395733 0.005267583259749682 0 0.0044754184378315879 0.0051248712076853954 0 0.0044754184378315879 0.0051248712076853954 0 0.0046718141672491614 0.0050276226212087934 0 0.0047427152811002444 0.0051640265595002382 0 0.0044612008559235744 0.0051699442007861925 0 0.0046536312681339171 0.0050318291654618715 0 0.0043598373649450994 0.0049998638892882101 0 0.0044449463580380731 0.0052187486005797748 0 0.0046718141672491614 0.0050276226212087934 0 0.0046718141672491614 0.0050276226212087934 0 0.0050000153366224947 0.0049999233285429852 0 0.0049758093309379137 0.004969211731576593 0 0.0049758093309379137 0.004969211731576593 0 0.0052083864673215744 0.0047306704906643366 0 0.0049998766212632538 0.0046006340742909988 0 0.0050000153366224947 0.0049999233285429852 0 0.0049758093309379137 0.004969211731576593 0 0.0049998766212632538 0.0046006340742909988 0 0.0046718141672491614 0.0050276226212087934 0 0.0049758093309379137 0.004969211731576593 0 0.0047427152811002444 0.0051640265595002382 0 0.0049771584243030803 0.0049642476910784416 0 0.0049767833649342133 0.0049418015322453572 0 0.0052083864673215744 0.0047306704906643366 0 0.0049998766212632538 0.0046006340742909988 0 0.0051949329081430948 0.0045456061349563306 0 0.0049555726117444798 0.0048975372130126548 0 0.0049767833649342133 0.0049418015322453572 0 0.0053603193961426479 0.0045257258595414011 0 0.0052083864673215744 0.0047306704906643366 0 0.0051949329081430948 0.0045456061349563306 0 0.0051949329081430948 0.0045456061349563306 0 0.0051462981966827626 0.0043766284880970563 0 0.0053516596326406343 0.0043609295805130729 0 0.0049998766212632538 0.0046006340742909988 0 0.0051949329081430948 0.0045456061349563306 0 0.0051462981966827626 0.0043766284880970563 0 0.0049998766212632538 0.0046006340742909988 0 0.0051462981966827626 0.0043766284880970563 0 0.0050000376318540107 0.0040436132894955609 0 0.0052088370814167249 0.004169507362449104 0 0.0051462981966827626 0.0043766284880970563 0 0.0050000376318540107 0.0040436132894955609 0 0.0052088370814167249 0.004169507362449104 0 0.0050000376318540107 0.0040436132894955609 0 0.0052034304094384816 0.0040302884714750213 0 0.0052088370814167249 0.004169507362449104 0 0.0053137596174990011 0.0040993992398407697 0 0.0052034304094384816 0.0040302884714750213 0 0.0052088370814167249 0.004169507362449104 0 0.0052523223585122219 0.0042877215343996465 0 0.0053318226203489466 0.004202307055396602 0 0.0052523223585122219 0.0042877215343996465 0 0.0051462981966827626 0.0043766284880970563 0 0.0053516596326406343 0.0043609295805130729 0 0.0052088370814167249 0.004169507362449104 0 0.0052523223585122219 0.0042877215343996465 0 0.0051462981966827626 0.0043766284880970563 0 0.0052523223585122219 0.0042877215343996465 0 0.0053516596326406343 0.0043609295805130729 0 0.0053318226203489466 0.004202307055396602 0 0.0053516596326406343 0.0043609295805130729 0 0.0054092956918620257 0.0042772161609417672 0 0.0054962707091776924 0.0043333223080594865 0 0.0053516596326406343 0.0043609295805130729 0 0.0054092956918620257 0.0042772161609417672 0 0.0053318226203489466 0.004202307055396602 0 0.0054092956918620257 0.0042772161609417672 0 0.0054962707091776924 0.0043333223080594865 0 0.0054555796824989327 0.0042122031096548263 0 0.005558454459531975 0.004208971118625256 0 0.0054962707091776924 0.0043333223080594865 0 0.0054555796824989327 0.0042122031096548263 0 0.005558454459531975 0.004208971118625256 0 0.0054555796824989327 0.0042122031096548263 0 0.0055013965653967134 0.0041516155976482937 0 0.0054555796824989327 0.0042122031096548263 0 0.0054204241040544995 0.0041152685758327262 0 0.0055013965653967134 0.0041516155976482937 0 0.0054204241040544995 0.0041152685758327262 0 0.0055013965653967134 0.0041516155976482937 0 0.0055041671345659755 0.0040730946847299561 0 0.005558454459531975 0.004208971118625256 0 0.0055013965653967134 0.0041516155976482937 0 0.0055547309131482835 0.0041266067437961537 0 0.0055013965653967134 0.0041516155976482937 0 0.0055547309131482835 0.0041266067437961537 0 0.0055041671345659755 0.0040730946847299561 0 0.0052088370814167249 0.004169507362449104 0 0.0053318226203489466 0.004202307055396602 0 0.0053137596174990011 0.0040993992398407697 0 0.0054092956918620257 0.0042772161609417672 0 0.0054555796824989327 0.0042122031096548263 0 0.0053318226203489466 0.004202307055396602 0 0.0054555796824989327 0.0042122031096548263 0 0.0054204241040544995 0.0041152685758327262 0 0.0053318226203489466 0.004202307055396602 0 0.0054204241040544995 0.0041152685758327262 0 0.0053318226203489466 0.004202307055396602 0 0.0053137596174990011 0.0040993992398407697 0 0.0053137596174990011 0.0040993992398407697 0 0.0053968668697973472 0.0040062779858622459 0 0.0052034304094384816 0.0040302884714750213 0 0.0053985875109921469 0.0039925565606581141 0 0.0052009824491238135 0.0040193357408058227 0 0.0054204241040544995 0.0041152685758327262 0 0.0053137596174990011 0.0040993992398407697 0 0.0053968668697973472 0.0040062779858622459 0 0.005579624565259878 0.0039638623671819605 0 0.0053985875109921469 0.0039925565606581141 0 0.005592983146640783 0.0039616185891541917 0 0.0053920996629941917 0.003981419328824602 0 0.0054846372878362346 0.003923269566307507 0 0.005592983146640783 0.0039616185891541917 0 0.0053968668697973472 0.0040062779858622459 0 0.0055397206612790954 0.0040090827645959852 0 0.0053968668697973472 0.0040062779858622459 0 0.0055041671345659755 0.0040730946847299561 0 0.0055397206612790954 0.0040090827645959852 0 0.0055693141510436408 0.0040556296955103575 0 0.0055041671345659755 0.0040730946847299561 0 0.0055397206612790954 0.0040090827645959852 0 0.0055693141510436408 0.0040556296955103575 0 0.0055547309131482835 0.0041266067437961537 0 0.0055041671345659755 0.0040730946847299561 0 0.0054204241040544995 0.0041152685758327262 0 0.0053968668697973472 0.0040062779858622459 0 0.0055041671345659755 0.0040730946847299561 0 0.005592983146640783 0.0039616185891541917 0 0.0055523511576715499 0.0039160280664667846 0 0.0054846372878362346 0.003923269566307507 0 0.0052713590174720357 0.0036522523329203683 0 0.0053003622406734554 0.0036684577089079514 0 0.0052578475121759019 0.003712230811711582 0 0.0053229168871746614 0.0036613431775329025 0 0.0053549655677820095 0.0037896357003966998 0 0.0056142868202979819 0.0038061583883937313 0 0.0055249697130875597 0.0038796985052239083 0 0.0054061362978528446 0.0038545313938849 0 0.0055249697130875597 0.0038796985052239083 0 0.0055523511576715499 0.0039160280664667846 0 0.0054846372878362346 0.003923269566307507 0 0.0053920996629941917 0.003981419328824602 0 0.0054846372878362346 0.003923269566307507 0 0.0054061362978528446 0.0038545313938849 0 0.0055249697130875597 0.0038796985052239083 0 0.0054846372878362346 0.003923269566307507 0 0.0054061362978528446 0.0038545313938849 0 0.0053549655677820095 0.0037896357003966998 0 0.0051774264507440694 0.0038504579656482301 0 0.0053920996629941917 0.003981419328824602 0 0.0054061362978528446 0.0038545313938849 0 0.0052094543756844858 0.0038926982487181936 0 0.0052071115287909064 0.003697000088627187 0 0.0052578475121759019 0.003712230811711582 0 0.005169477775242768 0.003804485409389536 0 0.0051420611890652347 0.0036709233146691839 0 0.005169477775242768 0.003804485409389536 0 0.005082486573149937 0.0037545507631889315 0 0.0051420611890652347 0.0036709233146691839 0 0.0052071115287909064 0.003697000088627187 0 0.005169477775242768 0.003804485409389536 0 0.005169477775242768 0.003804485409389536 0 0.005082486573149937 0.0037545507631889315 0 0.0049999823193585145 0.0039263109795635211 0 0.0051774264507440694 0.0038504579656482301 0 0.0050000314317590767 0.0039264127047321665 0 0.0049999812768598741 0.0036268682852697901 0 0.005082486573149937 0.0037545507631889315 0 0.0049999823193585145 0.0039263109795635211 0 0.0050000427244166895 0.0040436036417051038 0 0.0052009824491238135 0.0040193357408058227 0 0.0050000047425184475 0.0039264766321744967 0 0.0049999923266207105 0.0040435713015015669 0 0.0052030264770403477 0.004008248356740087 0 0.0052094543756844858 0.0038926982487181936 0 0.0050000047425184475 0.0039264766321744967 0 0.0052030264770403477 0.004008248356740087 0 0.0053920996629941917 0.003981419328824602 0 0.0052094543756844858 0.0038926982487181936 0 0.0052030264770403477 0.004008248356740087 0 0.0021415202377097356 0.0052040891187761507 0 0.0021855869753585116 0.0051050633329898414 0 0.0021392553330092812 0.0052071745838969336 0 0.00220309818112023 0.0052194935423783267 0 0.0020203936894813116 0.0052366017956483645 0 0.0025873382896679183 0.0051207893400118769 0 0.002301763138949176 0.0051002324941482637 0 0.0021392553330092812 0.0052071745838969336 0 0.0022435208539001998 0.0051523634222406401 0 0.0022403767150066013 0.00510340451943124 0 0.0021392553330092812 0.0052071745838969336 0 0.00220309818112023 0.0052194935423783267 0 0.0022435208539001998 0.0051523634222406401 0 0.0021392553330092812 0.0052071745838969336 0 0.0020579702063479779 0.0051701088545100396 0 0.0020760187909847124 0.0051279610106449314 0 0.002301763138949176 0.0051002324941482637 0 0.0019585557087979373 0.005112681052549516 0 0.0020579702063479779 0.0051701088545100396 0 0.0020203936894813116 0.0052366017956483645 0 0.0020023575940127766 0.0051158911957044032 0 0.0019421568731655446 0.0051511958080253713 0 0.0019398635806396132 0.0050933104435307878 0 0.0019111886486897693 0.0051256816998131657 0 0.0021392553330092812 0.0052071745838969336 0 0.0020579702063479779 0.0051701088545100396 0 0.0020203936894813116 0.0052366017956483645 0 0.0033058923126919955 0.0049875244566128926 0 0.0032654275651871427 0.0046774370688499002 0 0.0030326475461486522 0.004805495090877643 0 0.0019059850033852951 0.0051355786815637239 0 0.0019099784854483411 0.0051469680288431588 0 0.0018783353426096543 0.0051475773010841008 0 0.002301763138949176 0.0051002324941482637 0 0.0019771166455968981 0.0042235176959793405 0 0.0028354173291975683 0.0050327667327448866 0 0.0033058923126919955 0.0049875244566128926 0 0.0030326475461486522 0.004805495090877643 0 0.0032654275651871427 0.0046774370688499002 0 0.0030326475461486522 0.004805495090877643 0 0.0028635980937153516 0.0044550697386321145 0 0.0028354173291975683 0.0050327667327448866 0 0.0030326475461486522 0.004805495090877643 0 0.0027872270176993378 0.004770994961134198 0 0.0030326475461486522 0.004805495090877643 0 0.0027872270176993378 0.004770994961134198 0 0.0028635980937153516 0.0044550697386321145 0 0.0027872270176993378 0.004770994961134198 0 0.002583625898925582 0.0046350754972957365 0 0.0025768865812739504 0.0048712683825768831 0 0.0027872270176993378 0.004770994961134198 0 0.002583625898925582 0.0046350754972957365 0 0.0028635980937153516 0.0044550697386321145 0 0.002583625898925582 0.0046350754972957365 0 0.0025768865812739504 0.0048712683825768831 0 0.0023894648320638583 0.0048500446252864706 0 0.0025768865812739504 0.0048712683825768831 0 0.0023894648320638583 0.0048500446252864706 0 0.0023057553326759437 0.0050564188213577449 0 0.0028354173291975683 0.0050327667327448866 0 0.0027872270176993378 0.004770994961134198 0 0.0025768865812739504 0.0048712683825768831 0 0.0022296785357816861 0.0047665629470082767 0 0.002096242864559309 0.0045813287461292087 0 0.0020089943264760012 0.0047985437533053501 0 0.0022296785357816861 0.0047665629470082767 0 0.002096242864559309 0.0045813287461292087 0 0.0023088563228994882 0.0045578113942160567 0 0.0022296785357816861 0.0047665629470082767 0 0.0023894648320638583 0.0048500446252864706 0 0.0023088563228994882 0.0045578113942160567 0 0.002583625898925582 0.0046350754972957365 0 0.0023894648320638583 0.0048500446252864706 0 0.0023088563228994882 0.0045578113942160567 0 0.0022296785357816861 0.0047665629470082767 0 0.0023894648320638583 0.0048500446252864706 0 0.0022752653507563977 0.0050356882813797155 0 0.0023894648320638583 0.0048500446252864706 0 0.0022752653507563977 0.0050356882813797155 0 0.0023057553326759437 0.0050564188213577449 0 0.0022296785357816861 0.0047665629470082767 0 0.0022752653507563977 0.0050356882813797155 0 0.0020089943264760012 0.0047985437533053501 0 0.0022752653507563977 0.0050356882813797155 0 0.0023057553326759437 0.0050564188213577449 0 0.0023888222367986042 0.0050969706468662682 0 0.0023080164024250074 0.0051147346536069135 0 0.0023777947806889045 0.0050999823779865573 0 0.0023246861942815555 0.0051688884190398566 0 0.0023594251731304606 0.005107078033093803 0 0.0023888222367986042 0.0050969706468662682 0 0.0023246861942815555 0.0051688884190398566 0 0.0023594251731304606 0.005107078033093803 0 0.0023016528655711468 0.0051389114789244603 0 0.00220309818112023 0.0052194935423783267 0 0.0023246861942815555 0.0051688884190398566 0 0.0022435208539001998 0.0051523634222406401 0 0.0028354173291975683 0.0050327667327448866 0 0.0025768865812739504 0.0048712683825768831 0 0.0023057553326759437 0.0050564188213577449 0 0.0023246861942815555 0.0051688884190398566 0 0.0023016528655711468 0.0051389114789244603 0 0.0022435208539001998 0.0051523634222406401 0 0.0025873382896679183 0.0051207893400118769 0 0.0023080164024250074 0.0051147346536069135 0 0.0022435208539001998 0.0051523634222406401 0 0.0022931182676512391 0.0051094260061911494 0 0.0022403767150066013 0.00510340451943124 0 0.0023016528655711468 0.0051389114789244603 0 0.0022435208539001998 0.0051523634222406401 0 0.0022931182676512391 0.0051094260061911494 0 0.0023016528655711468 0.0051389114789244603 0 0.0022931182676512391 0.0051094260061911494 0 0.0023374616578698717 0.0050993108841925665 0 0.0023594251731304606 0.005107078033093803 0 0.0023016528655711468 0.0051389114789244603 0 0.0023957312443495266 0.00503333086612902 0 0.0023122416470780323 0.0051317003526854471 0 0.0024028676798836367 0.0050912836578013796 0 0.0023016528655711468 0.0051389114789244603 0 0.0023374616578698717 0.0050993108841925665 0 0.002403404741001168 0.0051442987814787249 0 0.0023374616578698717 0.0050993108841925665 0 0.0024061824015121224 0.0050857287367239721 0 0.0023482359430606298 0.0050588554824030438 0 0.0023374616578698717 0.0050993108841925665 0 0.0022925623729191606 0.0050590269104912738 0 0.0023482359430606298 0.0050588554824030438 0 0.0022931182676512391 0.0051094260061911494 0 0.0023374616578698717 0.0050993108841925665 0 0.0022925623729191606 0.0050590269104912738 0 0.0022931182676512391 0.0051094260061911494 0 0.0022403767150066013 0.00510340451943124 0 0.0022925623729191606 0.0050590269104912738 0 0.0021855869753585116 0.0051050633329898414 0 0.0022274816011737166 0.0050127905250752728 0 0.0020813054003096221 0.004996259372393716 0 0.002135561597051242 0.0050896651514574301 0 0.0020414342404129599 0.0050607263903609898 0 0.0020813054003096221 0.004996259372393716 0 0.002135561597051242 0.0050896651514574301 0 0.0021654512120656238 0.0049822167066496288 0 0.002135561597051242 0.0050896651514574301 0 0.0020760187909847124 0.0051279610106449314 0 0.0020414342404129599 0.0050607263903609898 0 0.0021392553330092812 0.0052071745838969336 0 0.002135561597051242 0.0050896651514574301 0 0.0020760187909847124 0.0051279610106449314 0 0.0020023575940127766 0.0051158911957044032 0 0.0020414342404129599 0.0050607263903609898 0 0.0019600847023168323 0.005016727069208928 0 0.0019585557087979373 0.005112681052549516 0 0.0019610086305473849 0.0050169827617057485 0 0.0020579702063479779 0.0051701088545100396 0 0.0020760187909847124 0.0051279610106449314 0 0.0020023575940127766 0.0051158911957044032 0 0.0020760187909847124 0.0051279610106449314 0 0.0020023575940127766 0.0051158911957044032 0 0.0020414342404129599 0.0050607263903609898 0 0.0020813054003096221 0.004996259372393716 0 0.0020414342404129599 0.0050607263903609898 0 0.0020146109626940391 0.0049881810388045893 0 0.0020414342404129599 0.0050607263903609898 0 0.0020146109626940391 0.0049881810388045893 0 0.0019600847023168323 0.005016727069208928 0 0.0020146109626940391 0.0049881810388045893 0 0.0019600847023168323 0.005016727069208928 0 0.0019659198595721687 0.0049569790915264377 0 0.0019054234351485978 0.0050437296894446553 0 0.0018696520539976675 0.0050235641238692485 0 0.0018781582155502018 0.0049971949532457817 0 0.0019600847023168323 0.005016727069208928 0 0.0019054234351485978 0.0050437296894446553 0 0.0019043720393524539 0.0049574229199753376 0 0.0019398635806396132 0.0050933104435307878 0 0.0019600847023168323 0.005016727069208928 0 0.0019054234351485978 0.0050437296894446553 0 0.001904789916099983 0.0050491687411796903 0 0.0018838650032611168 0.0049477003043848482 0 0.0019054234351485978 0.0050437296894446553 0 0.0018696520539976675 0.0050235641238692485 0 0.0018518614261811379 0.0050574191921875979 0 0.0018696520539976675 0.0050235641238692485 0 0.0018518614261811379 0.0050574191921875979 0 0.0018429964992896048 0.0050019739362091318 0 0.00099621564626868565 0.0055594355756310556 0 0.0010482000774455764 0.0054217083000380169 0 0.0018518614261811379 0.0050574191921875979 0 0.0018029076714096385 0.0050586106752514908 0 0.0018429964992896048 0.0050019739362091318 0 0.00018748409438763272 0.0058440726621763498 0 0.00020459736472445397 0.0059280534459690637 0 0.00029643171892728836 0.0058092588468800161 0 0.0018518614261811379 0.0050574191921875979 0 0.0018292558341058333 0.0050855216351312002 0 0.0018651620545241773 0.0050971683729870154 0 0.0018518614261811379 0.0050574191921875979 0 0.0018292558341058333 0.0050855216351312002 0 0.0018029076714096385 0.0050586106752514908 0 0.0018292558341058333 0.0050855216351312002 0 0.0018651620545241773 0.0050971683729870154 0 0.001854374288733569 0.0051199724101599065 0 0.0018651620545241773 0.0050971683729870154 0 0.0018910569346520575 0.005081286091054577 0 0.0018949553233130795 0.0051089035233016031 0 0.0019398635806396132 0.0050933104435307878 0 0.0018910569346520575 0.005081286091054577 0 0.0018949553233130795 0.0051089035233016031 0 0.0019398635806396132 0.0050933104435307878 0 0.0019054234351485978 0.0050437296894446553 0 0.0018910569346520575 0.005081286091054577 0 0.0019054234351485978 0.0050437296894446553 0 0.0018518614261811379 0.0050574191921875979 0 0.0018910569346520575 0.005081286091054577 0 0.0018518614261811379 0.0050574191921875979 0 0.0018651620545241773 0.0050971683729870154 0 0.0018910569346520575 0.005081286091054577 0 9.1012524196794751e-05 0.0059148454698613661 0 0.0001061574905705156 0.0058010562830571443 0 1.6476125015191059e-06 0.0058727883459992435 0 9.1012524196794751e-05 0.0059148454698613661 0 1.6476125015191059e-06 0.0058727883459992435 0 -3.0457256543422365e-06 0.0059308934327459177 0 9.1012524196794751e-05 0.0059148454698613661 0 0.00018748409438763272 0.0058440726621763498 0 0.0001061574905705156 0.0058010562830571443 0 9.1012524196794751e-05 0.0059148454698613661 0 0.00018748409438763272 0.0058440726621763498 0 0.00020459736472445397 0.0059280534459690637 0 0.00099621564626868565 0.0055594355756310556 0 0.00079235263034492 0.005093167411000599 0 0.0018292558341058333 0.0050855216351312002 0 0.0018029076714096385 0.0050586106752514908 0 0.0017601636401725323 0.0051203875872294271 0 9.1012524196794751e-05 0.0059148454698613661 0 0.00020459736472445397 0.0059280534459690637 0 0.0001336147596149839 0.0060353330974660087 0 0.0018292558341058333 0.0050855216351312002 0 0.0017601636401725323 0.0051203875872294271 0 0.0018215357337553811 0.0051183595342457954 0 9.1012524196794751e-05 0.0059148454698613661 0 1.373146199527319e-05 0.005979277742735844 0 0.0001336147596149839 0.0060353330974660087 0 1.373146199527319e-05 0.005979277742735844 0 6.5151950592252725e-06 0.0058776148773071286 0 -0.00040511293312247052 0.0058353571281377654 0 -0.00018745357912997382 0.005966488901814288 0 0.00079235263034492 0.005093167411000599 0 1.373146199527319e-05 0.005979277742735844 0 6.5151950592252725e-06 0.0058776148773071286 0 -1.7555333806980957e-06 0.0059331490437735199 0 9.1012524196794751e-05 0.0059148454698613661 0 1.373146199527319e-05 0.005979277742735844 0 -3.0457256543422365e-06 0.0059308934327459177 0 0.00079235263034492 0.005093167411000599 0 0.00049981529228715078 0.0041862701636685151 0 -3.2938494675503111e-05 0.0057027558643797027 0 6.5151950592252725e-06 0.0058776148773071286 0 -0.00040511293312247052 0.0058353571281377654 0 9.0949660907796331e-05 0.0054774612936594478 0 -3.2938494675503111e-05 0.0057027558643797027 0 -0.00040511293312247052 0.0058353571281377654 0 9.0949660907796331e-05 0.0054774612936594478 0 -0.00040511293312247052 0.0058353571281377654 0 -4.3761429911640402e-05 0.0050983129622093112 0 9.0949660907796331e-05 0.0054774612936594478 0 -3.2938494675503111e-05 0.0057027558643797027 0 0.00019230085816858484 0.0056194180418796041 0 -3.2938494675503111e-05 0.0057027558643797027 0 6.5151950592252725e-06 0.0058776148773071286 0 0.00019230085816858484 0.0056194180418796041 0 0.0012104344214448205 0.0033181844000205901 0 0.0012734995304145473 0.0033907548771601216 0 0.0013855477354184531 0.0033802719726733583 0 0.0012104344214448205 0.0033181844000205901 0 0.0012734995304145473 0.0033907548771601216 0 0.0011194026899144704 0.0034524677951397677 0 0.0012734995304145473 0.0033907548771601216 0 0.0011194026899144704 0.0034524677951397677 0 0.0012718756605645028 0.0034740314734623286 0 0.0012734995304145473 0.0033907548771601216 0 0.0013364094973050001 0.0034225404547920018 0 0.0012718756605645028 0.0034740314734623286 0 0.0019421568731655446 0.0051511958080253713 0 0.0018783353426096543 0.0051475773010841008 0 0.0019111886486897693 0.0051256816998131657 0 0.002301763138949176 0.0051002324941482637 0 0.0017548015195676695 0.0051552009772939441 0 0.0018783353426096543 0.0051475773010841008 0 0.0019111886486897693 0.0051256816998131657 0 0.0018855212324605712 0.0051292830275054364 0 0.0018720608236763633 0.0051347051768538222 0 0.0018783353426096543 0.0051475773010841008 0 0.0018855212324605712 0.0051292830275054364 0 0.0018720608236763633 0.0051347051768538222 0 0.0018783353426096543 0.0051475773010841008 0 0.0018658947329705344 0.0051519938446680921 0 0.0019398635806396132 0.0050933104435307878 0 0.0019111886486897693 0.0051256816998131657 0 0.0018949553233130795 0.0051089035233016031 0 0.0019111886486897693 0.0051256816998131657 0 0.0018949553233130795 0.0051089035233016031 0 0.0018855212324605712 0.0051292830275054364 0 0.0018651620545241773 0.0050971683729870154 0 0.0018949553233130795 0.0051089035233016031 0 0.0018728526693966557 0.0051200828003091113 0 0.0018949553233130795 0.0051089035233016031 0 0.0018855212324605712 0.0051292830275054364 0 0.0018728526693966557 0.0051200828003091113 0 0.0018720608236763633 0.0051347051768538222 0 0.0018855212324605712 0.0051292830275054364 0 0.0018728526693966557 0.0051200828003091113 0 0.0018651620545241773 0.0050971683729870154 0 0.0018728526693966557 0.0051200828003091113 0 0.001854374288733569 0.0051199724101599065 0 0.00079235263034492 0.005093167411000599 0 0.0016922150001339202 0.0041588644715322733 0 0.0017601636401725323 0.0051203875872294271 0 0.0018215357337553811 0.0051183595342457954 0 0.0018658947329705344 0.0051519938446680921 0 0.0018720608236763633 0.0051347051768538222 0 0.0018728526693966557 0.0051200828003091113 0 0.001854374288733569 0.0051199724101599065 0 0.0018292558341058333 0.0050855216351312002 0 0.001854374288733569 0.0051199724101599065 0 0.0018215357337553811 0.0051183595342457954 0 0.0018720608236763633 0.0051347051768538222 0 0.001854374288733569 0.0051199724101599065 0 0.0018658947329705344 0.0051519938446680921 0 0.001854374288733569 0.0051199724101599065 0 0.0018215357337553811 0.0051183595342457954 0 0.0018658947329705344 0.0051519938446680921 0 0.0013855477354184531 0.0033802719726733583 0 0.0013364094973050001 0.0034225404547920018 0 0.0013835725353559464 0.0034303837035016427 0 0.0012734995304145473 0.0033907548771601216 0 0.0013855477354184531 0.0033802719726733583 0 0.0013364094973050001 0.0034225404547920018 0 0.0013364094973050001 0.0034225404547920018 0 0.0013691388224135882 0.0034670909737756017 0 0.0012718756605645028 0.0034740314734623286 0 0.0013835725353559464 0.0034303837035016427 0 0.0013691388224135882 0.0034670909737756017 0 0.0014438783522211062 0.0034514148053489736 0 0.0013364094973050001 0.0034225404547920018 0 0.0013835725353559464 0.0034303837035016427 0 0.0013691388224135882 0.0034670909737756017 0 0.0015720268058165253 0.0034580101198662711 0 0.0014438783522211062 0.0034514148053489736 0 0.0014915287401900883 0.0034932160472916098 0 0.0019771166455968981 0.0042235176959793405 0 0.0016922150001339202 0.0041588644715322733 0 0.0015720268058165253 0.0034580101198662711 0 0.0013855477354184531 0.0033802719726733583 0 0.0014438783522211062 0.0034514148053489736 0 0.0019099784854483411 0.0051469680288431588 0 0.0018783353426096543 0.0051475773010841008 0 0.0018658947329705344 0.0051519938446680921 0 0.0013855477354184531 0.0033802719726733583 0 0.0013835725353559464 0.0034303837035016427 0 0.0014438783522211062 0.0034514148053489736 0 0.0014915287401900883 0.0034932160472916098 0 0.0014359539945824743 0.0035164924374358978 0 0.001515862496558548 0.0035466741920755348 0 0.0014359539945824743 0.0035164924374358978 0 0.0014475189599062262 0.0036207245089082216 0 0.001515862496558548 0.0035466741920755348 0 0.0014438783522211062 0.0034514148053489736 0 0.0014915287401900883 0.0034932160472916098 0 0.0014359539945824743 0.0035164924374358978 0 0.0014359539945824743 0.0035164924374358978 0 0.0013380576047606742 0.0035358299520762697 0 0.0014475189599062262 0.0036207245089082216 0 0.0013691388224135882 0.0034670909737756017 0 0.0014438783522211062 0.0034514148053489736 0 0.0014359539945824743 0.0035164924374358978 0 0.0013691388224135882 0.0034670909737756017 0 0.0014359539945824743 0.0035164924374358978 0 0.0013380576047606742 0.0035358299520762697 0 0.0013691388224135882 0.0034670909737756017 0 0.0013380576047606742 0.0035358299520762697 0 0.0012718756605645028 0.0034740314734623286 0 0.0013256722912622933 0.0036209744774777096 0 0.0014475189599062262 0.0036207245089082216 0 0.0013859897052170412 0.0037368054284884623 0 0.0013380576047606742 0.0035358299520762697 0 0.0013256722912622933 0.0036209744774777096 0 0.0014475189599062262 0.0036207245089082216 0 0.0011194026899144704 0.0034524677951397677 0 0.0011212438876073369 0.0035584682050891058 0 0.0010089238274872032 0.0035858781549721495 0 0.0011194026899144704 0.0034524677951397677 0 0.0011212438876073369 0.0035584682050891058 0 0.0012257976776973193 0.0035588709965321025 0 0.0011194026899144704 0.0034524677951397677 0 0.0012257976776973193 0.0035588709965321025 0 0.0012718756605645028 0.0034740314734623286 0 0.0013380576047606742 0.0035358299520762697 0 0.0012257976776973193 0.0035588709965321025 0 0.0012718756605645028 0.0034740314734623286 0 0.0012257976776973193 0.0035588709965321025 0 0.0011299506989306204 0.003640672763979206 0 0.0012481398917114929 0.0036952635704674279 0 0.0013380576047606742 0.0035358299520762697 0 0.0013256722912622933 0.0036209744774777096 0 0.0012257976776973193 0.0035588709965321025 0 0.0013256722912622933 0.0036209744774777096 0 0.0012257976776973193 0.0035588709965321025 0 0.0012481398917114929 0.0036952635704674279 0 0.0011212438876073369 0.0035584682050891058 0 0.0011299506989306204 0.003640672763979206 0 0.0010089238274872032 0.0035858781549721495 0 0.0011212438876073369 0.0035584682050891058 0 0.0012257976776973193 0.0035588709965321025 0 0.0011299506989306204 0.003640672763979206 0 0.0011299506989306204 0.003640672763979206 0 0.0012481398917114929 0.0036952635704674279 0 0.0011351979839566663 0.0037614472701363922 0 0.0011299506989306204 0.003640672763979206 0 0.0011351979839566663 0.0037614472701363922 0 0.0010319557150683136 0.0037088287019868909 0 0.0012481398917114929 0.0036952635704674279 0 0.0012552039908669708 0.00382757173206187 0 0.0013859897052170412 0.0037368054284884623 0 0.0012481398917114929 0.0036952635704674279 0 0.0012552039908669708 0.00382757173206187 0 0.0011351979839566663 0.0037614472701363922 0 0.0011015336780662746 0.0038908853191449923 0 0.0012552039908669708 0.00382757173206187 0 0.0011351979839566663 0.0037614472701363922 0 0.0011015336780662746 0.0038908853191449923 0 0.0011351979839566663 0.0037614472701363922 0 0.00098253318239036611 0.0038109454938552133 0 0.0014475189599062262 0.0036207245089082216 0 0.0013859897052170412 0.0037368054284884623 0 0.0015283307074166943 0.003721011579811433 0 0.0013256722912622933 0.0036209744774777096 0 0.0012481398917114929 0.0036952635704674279 0 0.0013859897052170412 0.0037368054284884623 0 0.0014065367896074945 0.0039003989514137566 0 0.0012552039908669708 0.00382757173206187 0 0.0013859897052170412 0.0037368054284884623 0 0.0013859897052170412 0.0037368054284884623 0 0.0014729165229061354 0.0037947258424669713 0 0.0015283307074166943 0.003721011579811433 0 0.0014065367896074945 0.0039003989514137566 0 0.0013859897052170412 0.0037368054284884623 0 0.0014729165229061354 0.0037947258424669713 0 0.0014729165229061354 0.0037947258424669713 0 0.001527673003204046 0.0037714086637730014 0 0.0015526633643843965 0.0037846766446857413 0 0.001609025753546688 0.0038180814335132553 0 0.0016176623960672855 0.0037910122555090578 0 0.0015526633643843965 0.0037846766446857413 0 0.0015415548918215366 0.0037737917384939525 0 0.0015470096331273418 0.0037704552185760525 0 0.0014727379299814948 0.0037149809363832033 0 0.001527673003204046 0.0037714086637730014 0 0.0015526633643843965 0.0037846766446857413 0 0.0016176623960672855 0.0037910122555090578 0 0.0016089874366061164 0.0037532788168712274 0 0.0015526633643843965 0.0037846766446857413 0 0.0016089874366061164 0.0037532788168712274 0 0.0015526633643843965 0.0037846766446857413 0 0.0015283307074166943 0.003721011579811433 0 0.0014729165229061354 0.0037947258424669713 0 0.0015526633643843965 0.0037846766446857413 0 0.0015283307074166943 0.003721011579811433 0 0.0016535716721082904 0.0037714193317392808 0 0.0016947690715369932 0.0037382482239610351 0 0.0016933826730350567 0.0037775122257341135 0 0.0016089874366061164 0.0037532788168712274 0 0.0016535716721082904 0.0037714193317392808 0 0.0016947690715369932 0.0037382482239610351 0 0.0016711442941962473 0.0038040838255282241 0 0.0016535716721082904 0.0037714193317392808 0 0.0016933826730350567 0.0037775122257341135 0 0.0016176623960672855 0.0037910122555090578 0 0.0016089874366061164 0.0037532788168712274 0 0.0016535716721082904 0.0037714193317392808 0 0.0016711442941962473 0.0038040838255282241 0 0.0016176623960672855 0.0037910122555090578 0 0.0016535716721082904 0.0037714193317392808 0 0.0016196930272873074 0.0037059957732620001 0 0.0016646451795592702 0.0036726629928072758 0 0.0016947690715369932 0.0037382482239610351 0 0.0016089874366061164 0.0037532788168712274 0 0.0016196930272873074 0.0037059957732620001 0 0.0016947690715369932 0.0037382482239610351 0 0.0016196930272873074 0.0037059957732620001 0 0.0015283307074166943 0.003721011579811433 0 0.0016003780957609911 0.0036372921556985373 0 0.0016089874366061164 0.0037532788168712274 0 0.0016196930272873074 0.0037059957732620001 0 0.0015283307074166943 0.003721011579811433 0 0.0014475189599062262 0.0036207245089082216 0 0.0016003780957609911 0.0036372921556985373 0 0.001515862496558548 0.0035466741920755348 0 0.0014475189599062262 0.0036207245089082216 0 0.0015283307074166943 0.003721011579811433 0 0.0016003780957609911 0.0036372921556985373 0 0.0016196930272873074 0.0037059957732620001 0 0.0016003780957609911 0.0036372921556985373 0 0.0016646451795592702 0.0036726629928072758 0 0.0016003780957609911 0.0036372921556985373 0 0.0016646451795592702 0.0036726629928072758 0 0.0016747107526931084 0.0035900418446072244 0 0.0016646451795592702 0.0036726629928072758 0 0.0016747107526931084 0.0035900418446072244 0 0.0017268084082389047 0.003685294467236048 0 0.0019771166455968981 0.0042235176959793405 0 0.0023456057345040636 0.0040339182910440847 0 0.0016079808797412683 0.0035631387860288514 0 0.0016003780957609911 0.0036372921556985373 0 0.0016747107526931084 0.0035900418446072244 0 0.0019771166455968981 0.0042235176959793405 0 0.0014914048212161285 0.0033232099561687836 0 0.0015720268058165253 0.0034580101198662711 0 0.0016003780957609911 0.0036372921556985373 0 0.001515862496558548 0.0035466741920755348 0 0.0015720268058165253 0.0034580101198662711 0 0.0014915287401900883 0.0034932160472916098 0 0.001515862496558548 0.0035466741920755348 0 0.0020911072096807676 0.0043002724759840386 0 0.0023088563228994882 0.0045578113942160567 0 0.0024293222933815905 0.0041638440652804311 0 0.0020911072096807676 0.0043002724759840386 0 0.002096242864559309 0.0045813287461292087 0 0.0023088563228994882 0.0045578113942160567 0 0.002583625898925582 0.0046350754972957365 0 0.0028635980937153516 0.0044550697386321145 0 0.0024293222933815905 0.0041638440652804311 0 0.002583625898925582 0.0046350754972957365 0 0.0023088563228994882 0.0045578113942160567 0 0.0024293222933815905 0.0041638440652804311 0 0.0023456057345040636 0.0040339182910440847 0 0.0020648894515922344 0.0039014344532840813 0 0.0016747107526931084 0.0035900418446072244 0 0.0017268084082389047 0.003685294467236048 0 0.0017681256775879789 0.0036483211337737867 0 0.0017681256775879789 0.0036483211337737867 0 0.001790069972008237 0.0037173999716694152 0 0.0018070565668646809 0.003807102130579154 0 0.0020911072096807676 0.0043002724759840386 0 0.0024293222933815905 0.0041638440652804311 0 0.0018070565668646809 0.003807102130579154 0 0.0020648894515922344 0.0039014344532840813 0 0.001830784567561752 0.0038066651661878034 0 0.0017268084082389047 0.003685294467236048 0 0.0017681256775879789 0.0036483211337737867 0 0.001790069972008237 0.0037173999716694152 0 0.001790069972008237 0.0037173999716694152 0 0.001778358827800131 0.0037219866650214789 0 0.0018008068232929222 0.0036982663032368336 0 0.001778358827800131 0.0037219866650214789 0 0.0017466309376682611 0.0037401253141592528 0 0.0017840777346731719 0.0037460872635615879 0 0.001790069972008237 0.0037173999716694152 0 0.001778358827800131 0.0037219866650214789 0 0.001750534971045157 0.0037204082101659178 0 0.001778358827800131 0.0037219866650214789 0 0.001750534971045157 0.0037204082101659178 0 0.0017466309376682611 0.0037401253141592528 0 0.0016646451795592702 0.0036726629928072758 0 0.0017268084082389047 0.003685294467236048 0 0.0016947690715369932 0.0037382482239610351 0 0.0017268084082389047 0.003685294467236048 0 0.001750534971045157 0.0037204082101659178 0 0.0016947690715369932 0.0037382482239610351 0 0.0017268084082389047 0.003685294467236048 0 0.001790069972008237 0.0037173999716694152 0 0.001750534971045157 0.0037204082101659178 0 0.001750534971045157 0.0037204082101659178 0 0.0016947690715369932 0.0037382482239610351 0 0.0017466309376682611 0.0037401253141592528 0 0.0016947690715369932 0.0037382482239610351 0 0.0017385422262640713 0.0037669790125938961 0 0.0016933826730350567 0.0037775122257341135 0 0.0016947690715369932 0.0037382482239610351 0 0.0017466309376682611 0.0037401253141592528 0 0.0017385422262640713 0.0037669790125938961 0 0.0017703033116724153 0.0037643185830696581 0 0.0017385422262640713 0.0037669790125938961 0 0.0017840777346731719 0.0037460872635615879 0 0.0017749054357057408 0.0037670499960135453 0 0.001783935613017449 0.0037956894767541879 0 0.0017466309376682611 0.0037401253141592528 0 0.0017385422262640713 0.0037669790125938961 0 0.0017840777346731719 0.0037460872635615879 0 0.0017586750334098393 0.0037808084411288401 0 0.0017366960886768523 0.0038230161755689641 0 0.0017868907712272708 0.0038379725310806511 0 0.0017366960886768523 0.0038230161755689641 0 0.0017868907712272708 0.0038379725310806511 0 0.001746835913319206 0.0038693891223224607 0 0.001778358827800131 0.0037219866650214789 0 0.0017840777346731719 0.0037460872635615879 0 0.0018008068232929222 0.0036982663032368336 0 0.001783935613017449 0.0037956894767541879 0 0.0017823755847013426 0.003788055468566736 0 0.0017868907712272708 0.0038379725310806511 0 0.001746835913319206 0.0038693891223224607 0 0.001781680841181508 0.0039206083226619162 0 0.001746835913319206 0.0038693891223224607 0 0.0017259248544586017 0.0039119850961251796 0 0.001781680841181508 0.0039206083226619162 0 0.0017259248544586017 0.0039119850961251796 0 0.0017063099961089408 0.003857235993430218 0 0.0016568548287667225 0.00391517210750803 0 0.001746835913319206 0.0038693891223224607 0 0.0017259248544586017 0.0039119850961251796 0 0.0017063099961089408 0.003857235993430218 0 0.0017366960886768523 0.0038230161755689641 0 0.001746835913319206 0.0038693891223224607 0 0.0017063099961089408 0.003857235993430218 0 0.0017366960886768523 0.0038230161755689641 0 0.0017063099961089408 0.003857235993430218 0 0.001695020360130324 0.0038098378315677781 0 0.0017063099961089408 0.003857235993430218 0 0.001695020360130324 0.0038098378315677781 0 0.0016601204258556476 0.003814537413295984 0 0.0032228001925955659 0.0043204799153472783 0 0.0033645862837331638 0.0044460078946936639 0 0.0031690924945669435 0.0045868161989837276 0 0.0032766640505582901 0.0046536181430772332 0 0.0026726756672371945 0.0044232802969882083 0 0.0031219786711663305 0.0045701312287766633 0 0.0032906324224852694 0.0046839360153611322 0 0.0030838849454234061 0.0047963895416214342 0 0.0033645862837331638 0.0044460078946936639 0 0.0031690924945669435 0.0045868161989837276 0 0.0033448487653568522 0.0047073039082830654 0 0.0025701133975942671 0.004192798679015489 0 0.0026726756672371945 0.0044232802969882083 0 0.0017063099961089408 0.003857235993430218 0 0.0016601204258556476 0.003814537413295984 0 0.0016568548287667225 0.00391517210750803 0 0.0026726756672371945 0.0044232802969882083 0 0.0028356924656515676 0.0047652375278126116 0 0.0026726756672371945 0.0044232802969882083 0 0.0019276971556135242 0.0042260667015595957 0 0.0023593622215147612 0.0046244695453710634 0 0.0023593756508591907 0.0046022411660524712 0 0.0023350291655105165 0.0046111045123804796 0 0.0032906324224852694 0.0046839360153611322 0 0.0032908402178910274 0.0048663589097787674 0 0.0030838849454234061 0.0047963895416214342 0 0.0032035028861864654 0.0049623896381954446 0 0.0030838849454234061 0.0047963895416214342 0 0.0030925109415489188 0.0050444897513052195 0 0.0032035028861864654 0.0049623896381954446 0 0.0032908402178910274 0.0048663589097787674 0 0.0030838849454234061 0.0047963895416214342 0 0.0032035028861864654 0.0049623896381954446 0 0.0032908402178910274 0.0048663589097787674 0 0.0032864107899402248 0.0050609574996075459 0 0.0028356924656515676 0.0047652375278126116 0 0.0027228708348225037 0.0048809559548372615 0 0.0023593756508591907 0.0046022411660524712 0 0.0023401304988720797 0.0045940127158287606 0 0.0023613361441962881 0.0045793698382109197 0 0.0023593756508591907 0.0046022411660524712 0 0.0023401304988720797 0.0045940127158287606 0 0.0023350291655105165 0.0046111045123804796 0 0.0023401304988720797 0.0045940127158287606 0 0.0023120707625791234 0.0045973934189565396 0 0.0023274161917176488 0.0045851109622540853 0 0.0019475215545494327 0.0043686712292628103 0 0.0019276971556135242 0.0042260667015595957 0 0.0023401304988720797 0.0045940127158287606 0 0.0023120707625791234 0.0045973934189565396 0 0.0023350291655105165 0.0046111045123804796 0 0.0020911072096807676 0.0043002724759840386 0 0.001733781324165217 0.0043449643580007538 0 0.0018070565668646809 0.003807102130579154 0 0.0020197879392739328 0.0045041613479374354 0 0.0019475215545494327 0.0043686712292628103 0 0.0020911072096807676 0.0043002724759840386 0 0.002096242864559309 0.0045813287461292087 0 0.001733781324165217 0.0043449643580007538 0 0.002096242864559309 0.0045813287461292087 0 0.0018277135904022513 0.0043718594761927715 0 0.0020089943264760012 0.0047985437533053501 0 0.0019475215545494327 0.0043686712292628103 0 0.0017823755847013426 0.003788055468566736 0 0.001733781324165217 0.0043449643580007538 0 0.0018008068232929222 0.0036982663032368336 0 0.0018070565668646809 0.003807102130579154 0 0.0017711989477433038 0.0040036649225232849 0 0.0017493744305056144 0.0039481719128003044 0 0.001781680841181508 0.0039206083226619162 0 0.001790069972008237 0.0037173999716694152 0 0.0018008068232929222 0.0036982663032368336 0 0.0018070565668646809 0.003807102130579154 0 0.0017259248544586017 0.0039119850961251796 0 0.0017493744305056144 0.0039481719128003044 0 0.001781680841181508 0.0039206083226619162 0 0.0017259248544586017 0.0039119850961251796 0 0.0017493744305056144 0.0039481719128003044 0 0.0017097668269371864 0.0039566682189450999 0 0.0017711989477433038 0.0040036649225232849 0 0.0017493744305056144 0.0039481719128003044 0 0.0017097668269371864 0.0039566682189450999 0 0.0017259248544586017 0.0039119850961251796 0 0.0016568548287667225 0.00391517210750803 0 0.0017097668269371864 0.0039566682189450999 0 0.0028399855153358119 0.0044504825963714622 0 0.0027637908518758744 0.0045030535531654812 0 0.0027779647231788293 0.0045671773582392633 0 0.0028399855153358119 0.0044504825963714622 0 0.0027779647231788293 0.0045671773582392633 0 0.0028762555484080536 0.004568738525841414 0 0.0028399855153358119 0.0044504825963714622 0 0.0028762555484080536 0.004568738525841414 0 0.002981467080232566 0.0044743545768221706 0 0.0028762555484080536 0.004568738525841414 0 0.0029160261743994579 0.0047008043353179482 0 0.002785086597026711 0.0047053914775701854 0 0.0027779647231788293 0.0045671773582392633 0 0.0028762555484080536 0.004568738525841414 0 0.002785086597026711 0.0047053914775701854 0 0.0028762555484080536 0.004568738525841414 0 0.0029936015398195717 0.0045994106850769829 0 0.0029160261743994579 0.0047008043353179482 0 0.0028762555484080536 0.004568738525841414 0 0.0029936015398195717 0.0045994106850769829 0 0.002981467080232566 0.0044743545768221706 0 0.0032228001925955659 0.0043204799153472783 0 0.0031690924945669435 0.0045868161989837276 0 0.002981467080232566 0.0044743545768221706 0 0.0031219786711663305 0.0045701312287766633 0 0.0029936015398195717 0.0045994106850769829 0 0.002981467080232566 0.0044743545768221706 0 0.0032766640505582901 0.0046536181430772332 0 0.0029393300999325275 0.0044458800816939625 0 0.0031219786711663305 0.0045701312287766633 0 0.0029936015398195717 0.0045994106850769829 0 0.0030838849454234061 0.0047963895416214342 0 0.0029936015398195717 0.0045994106850769829 0 0.0030838849454234061 0.0047963895416214342 0 0.0029160261743994579 0.0047008043353179482 0 0.0030838849454234061 0.0047963895416214342 0 0.002869109079325314 0.0050279329964188907 0 0.0030925109415489188 0.0050444897513052195 0 0.0030838849454234061 0.0047963895416214342 0 0.0028693011119681217 0.0048550162848843203 0 0.002869109079325314 0.0050279329964188907 0 0.0028693011119681217 0.0048550162848843203 0 0.0027906336491638193 0.0049778633158556792 0 0.002869109079325314 0.0050279329964188907 0 0.0030838849454234061 0.0047963895416214342 0 0.0028693011119681217 0.0048550162848843203 0 0.0029160261743994579 0.0047008043353179482 0 0.0028693011119681217 0.0048550162848843203 0 0.0029160261743994579 0.0047008043353179482 0 0.002785086597026711 0.0047053914775701854 0 0.0028693011119681217 0.0048550162848843203 0 0.002785086597026711 0.0047053914775701854 0 0.0027906336491638193 0.0049778633158556792 0 0.0027992556921771434 0.0049460655528179801 0 0.0028153100998233359 0.0049774040640657262 0 0.0027175189726757628 0.0046860372832082942 0 0.002785086597026711 0.0047053914775701854 0 0.0027906336491638193 0.0049778633158556792 0 0.0027350138539206782 0.0046163465149955873 0 0.0027779647231788293 0.0045671773582392633 0 0.002785086597026711 0.0047053914775701854 0 0.0027350138539206782 0.0046163465149955873 0 0.0027175189726757628 0.0046860372832082942 0 0.002785086597026711 0.0047053914775701854 0 0.0028095827326196539 0.0050993296077859332 0 0.0027946551357298757 0.0050721357107359356 0 0.0028086949207662545 0.005050495550752843 0 0.0028303503510977014 0.0051976471324482899 0 0.0027906336491638193 0.0049778633158556792 0 0.0028095827326196539 0.0050993296077859332 0 0.0027906336491638193 0.0049778633158556792 0 0.0028095827326196539 0.0050993296077859332 0 0.0027946551357298757 0.0050721357107359356 0 0.0027906336491638193 0.0049778633158556792 0 0.0027946551357298757 0.0050721357107359356 0 0.002869109079325314 0.0050279329964188907 0 0.0027746297260141869 0.0050696374871850901 0 0.002869109079325314 0.0050279329964188907 0 0.0027382561983294979 0.0050767939386513628 0 0.0027946551357298757 0.0050721357107359356 0 0.0027746297260141869 0.0050696374871850901 0 0.002869109079325314 0.0050279329964188907 0 0.002869109079325314 0.0050279329964188907 0 0.0027245775396458932 0.0051264375760128782 0 0.0027382561983294979 0.0050767939386513628 0 0.0028436091371183973 0.0050376534360087937 0 0.0029518525521860196 0.0050966292434005455 0 0.0027245775396458932 0.0051264375760128782 0 0.0027382561983294979 0.0050767939386513628 0 0.0026850229256411111 0.005112293902617724 0 0.0027382561983294979 0.0050767939386513628 0 0.002711961192191322 0.005056185715890147 0 0.0026769439772689977 0.0050611407891129404 0 0.0027746297260141869 0.0050696374871850901 0 0.0027382561983294979 0.0050767939386513628 0 0.002711961192191322 0.005056185715890147 0 0.002711961192191322 0.005056185715890147 0 0.0026769439772689977 0.0050611407891129404 0 0.0026604770291559277 0.0050515331363747626 0 0.0026607591756248605 0.0050586381556241436 0 0.0026604770291559277 0.0050515331363747626 0 0.0026262052645775031 0.0050599432416233783 0 0.002711961192191322 0.005056185715890147 0 0.0026607591756248605 0.0050586381556241436 0 0.0026604770291559277 0.0050515331363747626 0 0.0026607591756248605 0.0050586381556241436 0 0.0026262052645775031 0.0050599432416233783 0 0.0026347228805979977 0.0050616901622022471 0 0.0026607591756248605 0.0050586381556241436 0 0.0026662409624373328 0.0051317889848239203 0 0.0026488316271177548 0.0050809120711798597 0 0.002711961192191322 0.005056185715890147 0 0.0026607591756248605 0.0050586381556241436 0 0.002770743547108925 0.0050410827910851632 0 0.0026708369798572602 0.0050634232001243364 0 0.0027210400904493651 0.0050883762888028553 0 0.0027746297260141869 0.0050696374871850901 0 0.002711961192191322 0.005056185715890147 0 0.002770743547108925 0.0050410827910851632 0 0.0027946551357298757 0.0050721357107359356 0 0.0027746297260141869 0.0050696374871850901 0 0.002770743547108925 0.0050410827910851632 0 0.0027210400904493651 0.0050883762888028553 0 0.0027770870050954914 0.0051209353813837233 0 0.0027946551357298757 0.0050721357107359356 0 0.002770743547108925 0.0050410827910851632 0 0.0028086949207662545 0.005050495550752843 0 0.0026662409624373328 0.0051317889848239203 0 0.0027003233739589447 0.0051016089722343769 0 0.0026488316271177548 0.0050809120711798597 0 0.0026662409624373328 0.0051317889848239203 0 0.0027449257471780938 0.0051381482246373698 0 0.0027003233739589447 0.0051016089722343769 0 0.0026662409624373328 0.0051317889848239203 0 0.0027449257471780938 0.0051381482246373698 0 0.0027410145433805267 0.0051941350982869141 0 0.0024483733860285483 0.0051011397569400785 0 0.0025183790695091487 0.0050812727829396232 0 0.0025128234046328962 0.0051678423725148347 0 0.0025183790695091487 0.0050812727829396232 0 0.0025128234046328962 0.0051678423725148347 0 0.0025708434912692269 0.0051109234884194879 0 0.0024483733860285483 0.0051011397569400785 0 0.0024047525457522715 0.0051237892344463678 0 0.0025128234046328962 0.0051678423725148347 0 0.0024483733860285483 0.0051011397569400785 0 0.0025183790695091487 0.0050812727829396232 0 0.0024387541397344133 0.0050677954293805111 0 0.0022752653507563977 0.0050356882813797155 0 0.0023888222367986042 0.0050969706468662682 0 0.0023972098413442677 0.005142638679925586 0 0.0024483733860285483 0.0051011397569400785 0 0.0024387541397344133 0.0050677954293805111 0 0.0023888222367986042 0.0050969706468662682 0 0.0023594251731304606 0.005107078033093803 0 0.0024387541397344133 0.0050677954293805111 0 0.0023888222367986042 0.0050969706468662682 0 0.0023888222367986042 0.0050969706468662682 0 0.0024047525457522715 0.0051237892344463678 0 0.0023972098413442677 0.005142638679925586 0 0.0024483733860285483 0.0051011397569400785 0 0.0023888222367986042 0.0050969706468662682 0 0.0024047525457522715 0.0051237892344463678 0 0.0022030281883881225 0.0050429925653729685 0 0.0022424318144523016 0.0048952712021572975 0 0.0018277135904022513 0.0043718594761927715 0 0.0017139073652687399 0.0049644550945898182 0 0.0020089943264760012 0.0047985437533053501 0 0.0023120707625791234 0.0045973934189565396 0 0.0023182513141405477 0.0045734516827457411 0 0.0023274161917176488 0.0045851109622540853 0 0.0022752653507563977 0.0050356882813797155 0 0.0017139073652687399 0.0049644550945898182 0 0.0020089943264760012 0.0047985437533053501 0 0.0019475215545494327 0.0043686712292628103 0 0.0022424318144523016 0.0048952712021572975 0 0.0022585479496251308 0.0050065534207306304 0 0.0022424318144523016 0.0048952712021572975 0 0.0023182513141405477 0.0045734516827457411 0 0.0023274161917176488 0.0045851109622540853 0 0.0023394715173244316 0.0045756501541217628 0 0.0024047525457522715 0.0051237892344463678 0 0.0023990124933216833 0.0051550269120552474 0 0.0025128234046328962 0.0051678423725148347 0 0.0022424318144523016 0.0048952712021572975 0 0.0024062078071723707 0.0048688495531373811 0 0.0023401304988720797 0.0045940127158287606 0 0.0023274161917176488 0.0045851109622540853 0 0.0023394715173244316 0.0045756501541217628 0 0.0023401304988720797 0.0045940127158287606 0 0.0023394715173244316 0.0045756501541217628 0 0.0023613361441962881 0.0045793698382109197 0 0.0026119705418029865 0.005159681684300952 0 0.0026109551293938978 0.0051441175642161141 0 0.0026413911661754123 0.0051200328706930108 0 0.0027228708348225037 0.0048809559548372615 0 0.0027068699302708341 0.004986001320930719 0 0.0024062078071723707 0.0048688495531373811 0 0.0027228708348225037 0.0048809559548372615 0 0.0025128234046328962 0.0051678423725148347 0 0.0026109551293938978 0.0051441175642161141 0 0.0025708434912692269 0.0051109234884194879 0 0.0025128234046328962 0.0051678423725148347 0 0.0026102216205374086 0.0051669454697711508 0 0.0026109551293938978 0.0051441175642161141 0 0.0027245775396458932 0.0051264375760128782 0 0.0026119705418029865 0.005159681684300952 0 0.0026850229256411111 0.005112293902617724 0 0.0029518525521860196 0.0050966292434005455 0 0.0027228708348225037 0.0048809559548372615 0 0.0032035028861864654 0.0049623896381954446 0 0.0030925109415489188 0.0050444897513052195 0 0.0032864107899402248 0.0050609574996075459 0 0.0026119705418029865 0.005159681684300952 0 0.0026413911661754123 0.0051200328706930108 0 0.0026850229256411111 0.005112293902617724 0 0.0027382561983294979 0.0050767939386513628 0 0.0026850229256411111 0.005112293902617724 0 0.0026670612387967407 0.0050890679965296635 0 0.0026413911661754123 0.0051200328706930108 0 0.0026850229256411111 0.005112293902617724 0 0.0026670612387967407 0.0050890679965296635 0 0.0026413911661754123 0.0051200328706930108 0 0.0026670612387967407 0.0050890679965296635 0 0.0026203005871695121 0.0051005377508876182 0 0.0026670612387967407 0.0050890679965296635 0 0.0026458080239263404 0.0050700474084253676 0 0.0026203005871695121 0.0051005377508876182 0 0.0027382561983294979 0.0050767939386513628 0 0.0026670612387967407 0.0050890679965296635 0 0.0026769439772689977 0.0050611407891129404 0 0.0026670612387967407 0.0050890679965296635 0 0.0026458080239263404 0.0050700474084253676 0 0.0026769439772689977 0.0050611407891129404 0 0.0026109551293938978 0.0051441175642161141 0 0.0026413911661754123 0.0051200328706930108 0 0.0026203005871695121 0.0051005377508876182 0 0.0026109551293938978 0.0051441175642161141 0 0.0025708434912692269 0.0051109234884194879 0 0.0026203005871695121 0.0051005377508876182 0 0.0025708434912692269 0.0051109234884194879 0 0.0026203005871695121 0.0051005377508876182 0 0.0026004317795475912 0.0050697437428238292 0 0.0026458080239263404 0.0050700474084253676 0 0.0026203005871695121 0.0051005377508876182 0 0.0026004317795475912 0.0050697437428238292 0 0.0025183790695091487 0.0050812727829396232 0 0.0025708434912692269 0.0051109234884194879 0 0.0026004317795475912 0.0050697437428238292 0 0.0025183790695091487 0.0050812727829396232 0 0.0026004317795475912 0.0050697437428238292 0 0.0025540537715338387 0.004999490186546638 0 0.0026004317795475912 0.0050697437428238292 0 0.0026282181266278478 0.0050435517238375041 0 0.0025540537715338387 0.004999490186546638 0 0.0026458080239263404 0.0050700474084253676 0 0.0026004317795475912 0.0050697437428238292 0 0.0026282181266278478 0.0050435517238375041 0 0.0026458080239263404 0.0050700474084253676 0 0.0026769439772689977 0.0050611407891129404 0 0.0026282181266278478 0.0050435517238375041 0 0.0026769439772689977 0.0050611407891129404 0 0.0026282181266278478 0.0050435517238375041 0 0.0026604770291559277 0.0050515331363747626 0 0.0026282181266278478 0.0050435517238375041 0 0.0026604770291559277 0.0050515331363747626 0 0.0026262052645775031 0.0050599432416233783 0 0.0026282181266278478 0.0050435517238375041 0 0.0026262052645775031 0.0050599432416233783 0 0.0025540537715338387 0.004999490186546638 0 0.0026139203847557499 0.0050581489021557955 0 0.0025281380086776273 0.0050654159454221132 0 0.0026262052645775031 0.0050599432416233783 0 0.0025071255219231282 0.0051272739065860067 0 0.002546154124109704 0.0050634102266885099 0 0.0025071255219231282 0.0051272739065860067 0 0.0024061824015121224 0.0050857287367239721 0 0.0024662544811701833 0.0050589068813114979 0 0.0025071255219231282 0.0051272739065860067 0 0.0024662544811701833 0.0050589068813114979 0 0.002546154124109704 0.0050634102266885099 0 0.0025183790695091487 0.0050812727829396232 0 0.0024387541397344133 0.0050677954293805111 0 0.0025540537715338387 0.004999490186546638 0 0.0025281380086776273 0.0050654159454221132 0 0.0024028676798836367 0.0050912836578013796 0 0.0024387541397344133 0.0050677954293805111 0 0.0025540537715338387 0.004999490186546638 0 0.0023957312443495266 0.00503333086612902 0 0.0023594251731304606 0.005107078033093803 0 0.0024387541397344133 0.0050677954293805111 0 0.0023957312443495266 0.00503333086612902 0 0.0023374616578698717 0.0050993108841925665 0 0.002403404741001168 0.0051442987814787249 0 0.0024061824015121224 0.0050857287367239721 0 0.0025071255219231282 0.0051272739065860067 0 0.002403404741001168 0.0051442987814787249 0 0.0024061824015121224 0.0050857287367239721 0 0.0024061824015121224 0.0050857287367239721 0 0.002389613747550084 0.0050350953127179052 0 0.0024662544811701833 0.0050589068813114979 0 0.002389613747550084 0.0050350953127179052 0 0.0024323629165096282 0.0050036556080109542 0 0.0023863301744702862 0.0050137835862824279 0 0.002389613747550084 0.0050350953127179052 0 0.0024662544811701833 0.0050589068813114979 0 0.0024323629165096282 0.0050036556080109542 0 0.0024662544811701833 0.0050589068813114979 0 0.0025155000857365012 0.0050267770415665484 0 0.0024323629165096282 0.0050036556080109542 0 0.0024662544811701833 0.0050589068813114979 0 0.002546154124109704 0.0050634102266885099 0 0.0025155000857365012 0.0050267770415665484 0 0.002546154124109704 0.0050634102266885099 0 0.0025919497809621661 0.0050507489369806874 0 0.0025155000857365012 0.0050267770415665484 0 0.0026262052645775031 0.0050599432416233783 0 0.0025919497809621661 0.0050507489369806874 0 0.0026347228805979977 0.0050616901622022471 0 0.0025919497809621661 0.0050507489369806874 0 0.0026347228805979977 0.0050616901622022471 0 0.0026231669667572156 0.005054565907742321 0 0.0026262052645775031 0.0050599432416233783 0 0.002546154124109704 0.0050634102266885099 0 0.0025919497809621661 0.0050507489369806874 0 0.0025747929684164271 0.0050287993290235762 0 0.0026231669667572156 0.005054565907742321 0 0.002611632146318865 0.0050256896664337075 0 0.0025919497809621661 0.0050507489369806874 0 0.0025747929684164271 0.0050287993290235762 0 0.0026231669667572156 0.005054565907742321 0 0.0025919497809621661 0.0050507489369806874 0 0.0025747929684164271 0.0050287993290235762 0 0.0025155000857365012 0.0050267770415665484 0 0.0025155000857365012 0.0050267770415665484 0 0.0025333319128341509 0.0049864229918628097 0 0.0024727687880887581 0.0049792164724478272 0 0.0025747929684164271 0.0050287993290235762 0 0.0025155000857365012 0.0050267770415665484 0 0.0025333319128341509 0.0049864229918628097 0 0.0025747929684164271 0.0050287993290235762 0 0.0025333319128341509 0.0049864229918628097 0 0.002611632146318865 0.0050256896664337075 0 0.0025540825548004526 0.0049301217898595241 0 0.002611632146318865 0.0050256896664337075 0 0.0026239413492837498 0.0049249845982047586 0 0.0025333319128341509 0.0049864229918628097 0 0.0025540825548004526 0.0049301217898595241 0 0.002611632146318865 0.0050256896664337075 0 0.0025333319128341509 0.0049864229918628097 0 0.0025540825548004526 0.0049301217898595241 0 0.0024719342093616559 0.004914182408852474 0 0.0024124359567610503 0.0049528302665519542 0 0.0024727687880887581 0.0049792164724478272 0 0.0024719342093616559 0.004914182408852474 0 0.0025333319128341509 0.0049864229918628097 0 0.0024727687880887581 0.0049792164724478272 0 0.0024719342093616559 0.004914182408852474 0 0.0024124359567610503 0.0049528302665519542 0 0.0023964857873190241 0.0049034811563433084 0 0.0023423250063946657 0.0049213525822945688 0 0.0024124359567610503 0.0049528302665519542 0 0.0023964857873190241 0.0049034811563433084 0 0.0024719342093616559 0.004914182408852474 0 0.0024323629165096282 0.0050036556080109542 0 0.0023615921449958591 0.0049909824755211274 0 0.0023863301744702862 0.0050137835862824279 0 0.0024124359567610503 0.0049528302665519542 0 0.0024323629165096282 0.0050036556080109542 0 0.0024727687880887581 0.0049792164724478272 0 0.0024124359567610503 0.0049528302665519542 0 0.0024323629165096282 0.0050036556080109542 0 0.0023615921449958591 0.0049909824755211274 0 0.0025155000857365012 0.0050267770415665484 0 0.0024323629165096282 0.0050036556080109542 0 0.0024727687880887581 0.0049792164724478272 0 0.0027293434938303104 0.005094128429843363 0 0.0027003233739589447 0.0051016089722343769 0 0.0026829418425144791 0.005085496953182814 0 0.0027293434938303104 0.005094128429843363 0 0.0026829418425144791 0.005085496953182814 0 0.0026810930055518678 0.0050910668682676678 0 0.0027293434938303104 0.005094128429843363 0 0.0027848673695177492 0.0051096737991563924 0 0.0027003233739589447 0.0051016089722343769 0 0.0027848673695177492 0.0051096737991563924 0 0.0027449257471780938 0.0051381482246373698 0 0.0027003233739589447 0.0051016089722343769 0 0.0027003233739589447 0.0051016089722343769 0 0.0026508933280067057 0.0050720159753781819 0 0.0026488316271177548 0.0050809120711798597 0 0.0027003233739589447 0.0051016089722343769 0 0.0026829418425144791 0.005085496953182814 0 0.0026508933280067057 0.0050720159753781819 0 0.0026829418425144791 0.005085496953182814 0 0.0026508933280067057 0.0050720159753781819 0 0.0026201952639204784 0.0050652011412713263 0 0.0026508933280067057 0.0050720159753781819 0 0.0026275730335038995 0.0050522904460643071 0 0.0026231669667572156 0.005054565907742321 0 0.0026508933280067057 0.0050720159753781819 0 0.0026488316271177548 0.0050809120711798597 0 0.0026231669667572156 0.005054565907742321 0 0.0026488316271177548 0.0050809120711798597 0 0.0026347228805979977 0.0050616901622022471 0 0.0026231669667572156 0.005054565907742321 0 0.0026607591756248605 0.0050586381556241436 0 0.0026488316271177548 0.0050809120711798597 0 0.0026347228805979977 0.0050616901622022471 0 0.0026275730335038995 0.0050522904460643071 0 0.0026231669667572156 0.005054565907742321 0 0.002611632146318865 0.0050256896664337075 0 0.0026275730335038995 0.0050522904460643071 0 0.002611632146318865 0.0050256896664337075 0 0.0026201952639204784 0.0050652011412713263 0 0.002611632146318865 0.0050256896664337075 0 0.0026201952639204784 0.0050652011412713263 0 0.0025962768323243976 0.005071681815328296 0 0.0026115567187650168 0.0050217412547045705 0 0.0026050962051667854 0.0050040806848363501 0 0.0026201952639204784 0.0050652011412713263 0 0.0025706556684488603 0.0050886460871155097 0 0.0025962768323243976 0.005071681815328296 0 0.0026508933280067057 0.0050720159753781819 0 0.0026275730335038995 0.0050522904460643071 0 0.0026201952639204784 0.0050652011412713263 0 0.0026829418425144791 0.005085496953182814 0 0.0026201952639204784 0.0050652011412713263 0 0.0026810930055518678 0.0050910668682676678 0 0.0026201952639204784 0.0050652011412713263 0 0.0026230421304097272 0.0050929688152396195 0 0.0026810930055518678 0.0050910668682676678 0 0.0026201952639204784 0.0050652011412713263 0 0.0026230421304097272 0.0050929688152396195 0 0.0025706556684488603 0.0050886460871155097 0 0.0026839901150771542 0.0051120544088281159 0 0.0026230421304097272 0.0050929688152396195 0 0.0026810930055518678 0.0050910668682676678 0 0.0026207950267810925 0.00513825779520147 0 0.0025742248623164279 0.0051130167789282853 0 0.0024797077041802508 0.0051266920661693109 0 0.0026839901150771542 0.0051120544088281159 0 0.0026230421304097272 0.0050929688152396195 0 0.0025742248623164279 0.0051130167789282853 0 0.0026839901150771542 0.0051120544088281159 0 0.0026207950267810925 0.00513825779520147 0 0.0025742248623164279 0.0051130167789282853 0 0.0026230421304097272 0.0050929688152396195 0 0.0025742248623164279 0.0051130167789282853 0 0.0025706556684488603 0.0050886460871155097 0 0.0025742248623164279 0.0051130167789282853 0 0.0024983800228212515 0.0051044884737481665 0 0.0025706556684488603 0.0050886460871155097 0 0.0025742248623164279 0.0051130167789282853 0 0.0024983800228212515 0.0051044884737481665 0 0.0024797077041802508 0.0051266920661693109 0 0.0024983800228212515 0.0051044884737481665 0 0.0025706556684488603 0.0050886460871155097 0 0.0025501754279768428 0.0050980789107779234 0 0.0025706556684488603 0.0050886460871155097 0 0.0025962768323243976 0.005071681815328296 0 0.0025501754279768428 0.0050980789107779234 0 0.0026239413492837498 0.0049249845982047586 0 0.0026331863038054682 0.0048459893409271634 0 0.0025423900055569111 0.0048628674302626431 0 0.0026050962051667854 0.0050040806848363501 0 0.0026194115040299847 0.0049452401579208266 0 0.0026194115040299847 0.0049452401579208266 0 0.002314469213765174 0.0050364898441628185 0 0.0026331863038054682 0.0048459893409271634 0 0.002645621220283419 0.0047723149163665666 0 0.0025545730657883397 0.0047699544834080921 0 0.0020590828996891125 0.0051455473177979133 0 0.0020932184524392163 0.0049999983013033038 0 0.0018454106036066042 0.004999999295912703 0 0.002314469213765174 0.0050364898441628185 0 0.0021655290802780167 0.0049511632311330621 0 0.0020590828996891125 0.0051455473177979133 0 0.0018454106036066042 0.004999999295912703 0 0.0017803248409344896 0.0051505427053572658 0 0.0020763083440292099 0.0051682475140032583 0 0.0020933755252711232 0.0049998974286319846 0 0.0023619929057637234 0.005119641077451764 0 0.002314469213765174 0.0050364898441628185 0 0.0023390316177776577 0.0051319349398508502 0 0.002314469213765174 0.0050364898441628185 0 0.0020932200870196591 0.0050001700641621287 0 0.0024983800228212515 0.0051044884737481665 0 0.0025501754279768428 0.0050980789107779234 0 0.0024862974165614903 0.0051331972590357138 0 0.0024983800228212515 0.0051044884737481665 0 0.0024862974165614903 0.0051331972590357138 0 0.0023619929057637234 0.005119641077451764 0 0.0024983800228212515 0.0051044884737481665 0 0.0024797077041802508 0.0051266920661693109 0 0.0023619929057637234 0.005119641077451764 0 0.0024797077041802508 0.0051266920661693109 0 0.0023619929057637234 0.005119641077451764 0 0.0023652207219941072 0.0050000304991470361 0 0.0020933755252711232 0.0049998974286319846 0 0.0023619929057637234 0.005119641077451764 0 0.0023652207219941072 0.0050000304991470361 0 0.0024797077041802508 0.0051266920661693109 0 0.0023652207219941072 0.0050000304991470361 0 0.0025485066673470143 0.0051061964757392834 0 0.0026367977814989152 0.0049999421485696534 0 0.0023652207219941072 0.0050000304991470361 0 0.0025485066673470143 0.0051061964757392834 0 0.0026207950267810925 0.00513825779520147 0 0.0024797077041802508 0.0051266920661693109 0 0.0025485066673470143 0.0051061964757392834 0 0.0024723804202312592 0.0048578386064141305 0 0.0025016741070248609 0.0048122010712074587 0 0.002426654653310835 0.0048142723218543007 0 0.0024723804202312592 0.0048578386064141305 0 0.0024045554754781582 0.0048557176998499539 0 0.002426654653310835 0.0048142723218543007 0 0.0024045554754781582 0.0048557176998499539 0 0.002426654653310835 0.0048142723218543007 0 0.0023632154128585018 0.0048245354056126628 0 0.0024045554754781582 0.0048557176998499539 0 0.0023964857873190241 0.0049034811563433084 0 0.0024719342093616559 0.004914182408852474 0 0.0024045554754781582 0.0048557176998499539 0 0.0023964857873190241 0.0049034811563433084 0 0.0023477789267813682 0.0048731461758936218 0 0.0024723804202312592 0.0048578386064141305 0 0.0024045554754781582 0.0048557176998499539 0 0.0024719342093616559 0.004914182408852474 0 0.0025540825548004526 0.0049301217898595241 0 0.0024719342093616559 0.004914182408852474 0 0.0025423900055569111 0.0048628674302626431 0 0.0024723804202312592 0.0048578386064141305 0 0.0024719342093616559 0.004914182408852474 0 0.0025423900055569111 0.0048628674302626431 0 0.0025540825548004526 0.0049301217898595241 0 0.0026239413492837498 0.0049249845982047586 0 0.0025423900055569111 0.0048628674302626431 0 0.0026331863038054682 0.0048459893409271634 0 0.0025423900055569111 0.0048628674302626431 0 0.0025545730657883397 0.0047699544834080921 0 0.0024723804202312592 0.0048578386064141305 0 0.0025423900055569111 0.0048628674302626431 0 0.0025016741070248609 0.0048122010712074587 0 0.0025423900055569111 0.0048628674302626431 0 0.0025016741070248609 0.0048122010712074587 0 0.0025545730657883397 0.0047699544834080921 0 0.0025016741070248609 0.0048122010712074587 0 0.0025545730657883397 0.0047699544834080921 0 0.0024568552372418169 0.0047674786358316047 0 0.0018454106036066042 0.004999999295912703 0 0.0017803248409344896 0.0051505427053572658 0 0.0015975877210595095 0.0049999973834238863 0 0.0017803248409344896 0.0051505427053572658 0 0.0015975877210595095 0.0049999973834238863 0 0.0015007521346000884 0.0051542337936176475 0 0.0021655290802780167 0.0049511632311330621 0 0.0020247171647164463 0.0049532209799886661 0 0.0015975877210595095 0.0049999973834238863 0 0.0015007521346000884 0.0051542337936176475 0 0.0013498010563788589 0.0049999982841059639 0 0.0025016741070248609 0.0048122010712074587 0 0.0024568552372418169 0.0047674786358316047 0 0.002426654653310835 0.0048142723218543007 0 0.0020247171647164463 0.0049532209799886661 0 0.0015829479180368561 0.0050277715496281315 0 0.002426654653310835 0.0048142723218543007 0 0.0023564798837551735 0.0047685583898009996 0 0.0023632154128585018 0.0048245354056126628 0 0.0024568552372418169 0.0047674786358316047 0 0.002426654653310835 0.0048142723218543007 0 0.0023564798837551735 0.0047685583898009996 0 0.0015007521346000884 0.0051542337936176475 0 0.0013498010563788589 0.0049999982841059639 0 0.0012298173281538828 0.005155322772523915 0 0.0013494793998746707 0.0050002995143505428 0 0.0015829479180368561 0.0050277715496281315 0 0.0013497737022461682 0.0049999964713543501 0 0.001142953752416524 0.0050790843439625843 0 0.0010725746663520952 0.0049999914934009768 0 0.0013497737022461682 0.0049999964713543501 0 0.001142953752416524 0.0050790843439625843 0 0.0012162715118228373 0.0051569205005340124 0 0.001142953752416524 0.0050790843439625843 0 0.0010835563603892669 0.0051536970307245692 0 0.0012162715118228373 0.0051569205005340124 0 0.0010725746663520952 0.0049999914934009768 0 0.0009960942641179223 0.0051042905267914837 0 0.00079540094279092219 0.0049999847932743055 0 0.001142953752416524 0.0050790843439625843 0 0.0010725746663520952 0.0049999914934009768 0 0.0009960942641179223 0.0051042905267914837 0 0.001142953752416524 0.0050790843439625843 0 0.0009960942641179223 0.0051042905267914837 0 0.0010835563603892669 0.0051536970307245692 0 0.0010835563603892669 0.0051536970307245692 0 0.00098865242610199095 0.0052279968791025359 0 0.0010306920779880248 0.0053230596169772338 0 0.0009960942641179223 0.0051042905267914837 0 0.0010835563603892669 0.0051536970307245692 0 0.00098865242610199095 0.0052279968791025359 0 0.0009960942641179223 0.0051042905267914837 0 0.00098865242610199095 0.0052279968791025359 0 0.0008939566018572794 0.0051583782499238211 0 0.0010835563603892669 0.0051536970307245692 0 0.0012000649627342487 0.0051512872608317139 0 0.0010306920779880248 0.0053230596169772338 0 0.0015829479180368561 0.0050277715496281315 0 0.0017076737265817599 0.0050493907494311005 0 0.0023564798837551735 0.0047685583898009996 0 0.0023632154128585018 0.0048245354056126628 0 0.0023019211185701972 0.0048345477058590394 0 0.0010262536508071859 0.0051291412572419858 0 0.0015829479180368561 0.0050277715496281315 0 0.00079540094279092219 0.0049999847932743055 0 0.00074823519468472882 0.0052176068983097222 0 0.00059539802849126774 0.0051433388465976886 0 0.00079540094279092219 0.0049999847932743055 0 0.00059539802849126774 0.0051433388465976886 0 0.00051819836887809125 0.0049999801983369296 0 0.00079540094279092219 0.0049999847932743055 0 0.0008939566018572794 0.0051583782499238211 0 0.00074823519468472882 0.0052176068983097222 0 0.0009960942641179223 0.0051042905267914837 0 0.00079540094279092219 0.0049999847932743055 0 0.0008939566018572794 0.0051583782499238211 0 0.00098865242610199095 0.0052279968791025359 0 0.0008939566018572794 0.0051583782499238211 0 0.0009013643760268442 0.0053139850009550687 0 0.0008939566018572794 0.0051583782499238211 0 0.00074823519468472882 0.0052176068983097222 0 0.0009013643760268442 0.0053139850009550687 0 0.00074823519468472882 0.0052176068983097222 0 0.0005704560707671596 0.0053112532949000273 0 0.00059539802849126774 0.0051433388465976886 0 0.00074823519468472882 0.0052176068983097222 0 0.00071564829035356242 0.0053669650805555601 0 0.0005704560707671596 0.0053112532949000273 0 0.00071564829035356242 0.0053669650805555601 0 0.00060441774605873562 0.0054570057848029171 0 0.0005704560707671596 0.0053112532949000273 0 0.00091131597186005239 0.0053046789975432487 0 0.00078916564776223316 0.0055010154099271649 0 0.00071564829035356242 0.0053669650805555601 0 0.0009013643760268442 0.0053139850009550687 0 0.00075429848465110542 0.0055260738655285432 0 0.00074823519468472882 0.0052176068983097222 0 0.00071564829035356242 0.0053669650805555601 0 0.0009013643760268442 0.0053139850009550687 0 0.0009013643760268442 0.0053139850009550687 0 0.0009197507909137595 0.005414395485008325 0 0.00089119510752779679 0.0054103412904196796 0 0.00071564829035356242 0.0053669650805555601 0 0.00075429848465110542 0.0055260738655285432 0 0.00060441774605873562 0.0054570057848029171 0 0.00075429848465110542 0.0055260738655285432 0 0.0006529487032812622 0.0056094505660895045 0 0.00060441774605873562 0.0054570057848029171 0 0.0024045554754781582 0.0048557176998499539 0 0.0023632154128585018 0.0048245354056126628 0 0.0023477789267813682 0.0048731461758936218 0 0.0023632154128585018 0.0048245354056126628 0 0.0023019211185701972 0.0048345477058590394 0 0.0023477789267813682 0.0048731461758936218 0 0.0009013643760268442 0.0053139850009550687 0 0.0009197507909137595 0.005414395485008325 0 0.0010306920779880248 0.0053230596169772338 0 0.00098865242610199095 0.0052279968791025359 0 0.0009013643760268442 0.0053139850009550687 0 0.0010306920779880248 0.0053230596169772338 0 0.0022352575957508363 0.0048999691984062312 0 0.0023019211185701972 0.0048345477058590394 0 0.0022948993672023479 0.0049025439193454276 0 0.0023019211185701972 0.0048345477058590394 0 0.0022948993672023479 0.0049025439193454276 0 0.0023477789267813682 0.0048731461758936218 0 0.0015390182573603349 0.0051820232736365344 0 0.0017076737265817599 0.0050493907494311005 0 0.0022352575957508363 0.0048999691984062312 0 0.0022948993672023479 0.0049025439193454276 0 0.0022510853304889247 0.0049382143416919272 0 0.0022948993672023479 0.0049025439193454276 0 0.0023477789267813682 0.0048731461758936218 0 0.0023423250063946657 0.0049213525822945688 0 0.0023964857873190241 0.0049034811563433084 0 0.0023477789267813682 0.0048731461758936218 0 0.0023423250063946657 0.0049213525822945688 0 0.0024124359567610503 0.0049528302665519542 0 0.0023423250063946657 0.0049213525822945688 0 0.0023615921449958591 0.0049909824755211274 0 0.0023423250063946657 0.0049213525822945688 0 0.0023615921449958591 0.0049909824755211274 0 0.002295059876089934 0.0049577678738558289 0 0.0023615921449958591 0.0049909824755211274 0 0.0022941060987129078 0.0050077012704529975 0 0.0023242344362319205 0.0050900070713478648 0 0.0023626594755083194 0.0050182625194426364 0 0.0022922742203080998 0.0049793957476553631 0 0.0022941060987129078 0.0050077012704529975 0 0.002233329758875564 0.0050415036221849487 0 0.0023242344362319205 0.0050900070713478648 0 0.0023615921449958591 0.0049909824755211274 0 0.0022941060987129078 0.0050077012704529975 0 0.002295059876089934 0.0049577678738558289 0 0.0022941060987129078 0.0050077012704529975 0 0.0022441206751191421 0.0049813955474030574 0 0.002233329758875564 0.0050415036221849487 0 0.0022941060987129078 0.0050077012704529975 0 0.002295059876089934 0.0049577678738558289 0 0.0022441206751191421 0.0049813955474030574 0 0.002295059876089934 0.0049577678738558289 0 0.0022510853304889247 0.0049382143416919272 0 0.0022441206751191421 0.0049813955474030574 0 0.0022948993672023479 0.0049025439193454276 0 0.0023423250063946657 0.0049213525822945688 0 0.002295059876089934 0.0049577678738558289 0 0.0022948993672023479 0.0049025439193454276 0 0.002295059876089934 0.0049577678738558289 0 0.0022510853304889247 0.0049382143416919272 0 0.0009197507909137595 0.005414395485008325 0 0.00089119510752779679 0.0054103412904196796 0 0.00089589973465294169 0.005432519340394684 0 0.0022352575957508363 0.0048999691984062312 0 0.0021986283719693401 0.0049555409938193944 0 0.0021505464591529046 0.0049821828301331037 0 0.0015390182573603349 0.0051820232736365344 0 0.001717107173500932 0.0051530776859470152 0 0.0022352575957508363 0.0048999691984062312 0 0.0022510853304889247 0.0049382143416919272 0 0.0021986283719693401 0.0049555409938193944 0 0.0021986283719693401 0.0049555409938193944 0 0.0021551084588740314 0.0049829943744308415 0 0.0021947931057739304 0.0049916426350574824 0 0.0021986283719693401 0.0049555409938193944 0 0.0022441206751191421 0.0049813955474030574 0 0.0021947931057739304 0.0049916426350574824 0 0.0022510853304889247 0.0049382143416919272 0 0.0021986283719693401 0.0049555409938193944 0 0.0022441206751191421 0.0049813955474030574 0 0.00075429848465110542 0.0055260738655285432 0 0.0006529487032812622 0.0056094505660895045 0 0.00062660240482082029 0.0057345144206869779 0 0.00078916564776223316 0.0055010154099271649 0 0.00097322240409086725 0.00544589072167217 0 0.00089119510752779679 0.0054103412904196796 0 0.00089589973465294169 0.005432519340394684 0 0.00089042650581961952 0.0054327895167059119 0 0.0022335108842364672 0.0048885083368003729 0 0.001717107173500932 0.0051530776859470152 0 0.0006529487032812622 0.0056094505660895045 0 0.00062660240482082029 0.0057345144206869779 0 0.00059383790384971605 0.0056591089427542917 0 0.0019867337828527267 0.0047536461536129273 0 0.0020046998782107706 0.0048415872765975154 0 0.0019166499490632734 0.0048576616876515322 0 0.0019867337828527267 0.0047536461536129273 0 0.0021037974989182723 0.0048158140853857331 0 0.0020046998782107706 0.0048415872765975154 0 0.00089589973465294169 0.005432519340394684 0 0.00089042650581961952 0.0054327895167059119 0 0.0008940768652534114 0.0054336675682265557 0 0.0016782971049245296 0.0050902045056736792 0 0.0012368574353985738 0.0052698893690737358 0 0.0012248532719567355 0.0052389781063176674 0 0.0012313204062039478 0.0052420234972109661 0 0.0012176060978272736 0.0052504445666994035 0 0.00097322240409086725 0.00544589072167217 0 0.0016782971049245296 0.0050902045056736792 0 0.0021551084588740314 0.0049829943744308415 0 0.0021378079450750215 0.0049950810925655986 0 0.0021947931057739304 0.0049916426350574824 0 0.001717107173500932 0.0051530776859470152 0 0.0016782971049245296 0.0050902045056736792 0 0.0016782971049245296 0.0050902045056736792 0 0.0022228111086803901 0.0049205019771976412 0 0.0021378079450750215 0.0049950810925655986 0 0.0021947931057739304 0.0049916426350574824 0 0.002233329758875564 0.0050415036221849487 0 0.0022441206751191421 0.0049813955474030574 0 0.0021947931057739304 0.0049916426350574824 0 0.002233329758875564 0.0050415036221849487 0 0.0021037974989182723 0.0048158140853857331 0 0.0020546908875447357 0.0048773087983321525 0 0.0020046998782107706 0.0048415872765975154 0 0.0021037974989182723 0.0048158140853857331 0 0.0020546908875447357 0.0048773087983321525 0 0.0021068859048312509 0.0049134941554062712 0 0.0020046998782107706 0.0048415872765975154 0 0.0019674640238127928 0.0048711409192514175 0 0.0019166499490632734 0.0048576616876515322 0 0.0020046998782107706 0.0048415872765975154 0 0.0019988768172578965 0.004885409717330434 0 0.0019674640238127928 0.0048711409192514175 0 0.0020546908875447357 0.0048773087983321525 0 0.0020046998782107706 0.0048415872765975154 0 0.0019988768172578965 0.004885409717330434 0 0.0020546908875447357 0.0048773087983321525 0 0.0019988768172578965 0.004885409717330434 0 0.0020232144996048828 0.0049321388128527547 0 0.0019988768172578965 0.004885409717330434 0 0.0019674640238127928 0.0048711409192514175 0 0.0019464040411723948 0.0049023968045646222 0 0.0019988768172578965 0.004885409717330434 0 0.0020232144996048828 0.0049321388128527547 0 0.0019464040411723948 0.0049023968045646222 0 0.0020232144996048828 0.0049321388128527547 0 0.0019659198595721687 0.0049569790915264377 0 0.0019464040411723948 0.0049023968045646222 0 0.0020813054003096221 0.004996259372393716 0 0.0020146109626940391 0.0049881810388045893 0 0.0020232144996048828 0.0049321388128527547 0 0.0020146109626940391 0.0049881810388045893 0 0.0020232144996048828 0.0049321388128527547 0 0.0019659198595721687 0.0049569790915264377 0 0.0020813054003096221 0.004996259372393716 0 0.0020232144996048828 0.0049321388128527547 0 0.0021068859048312509 0.0049134941554062712 0 0.0020813054003096221 0.004996259372393716 0 0.0021068859048312509 0.0049134941554062712 0 0.0021654512120656238 0.0049822167066496288 0 0.0020546908875447357 0.0048773087983321525 0 0.0020232144996048828 0.0049321388128527547 0 0.0021068859048312509 0.0049134941554062712 0 0.0022925623729191606 0.0050590269104912738 0 0.0023482359430606298 0.0050588554824030438 0 0.0023257862523145103 0.0049950382311541985 0 0.0022274816011737166 0.0050127905250752728 0 0.0022922742203080998 0.0049793957476553631 0 0.0021068859048312509 0.0049134941554062712 0 0.0021654512120656238 0.0049822167066496288 0 0.0022077443734811611 0.0048726858553071097 0 0.0024061824015121224 0.0050857287367239721 0 0.002389613747550084 0.0050350953127179052 0 0.0023482359430606298 0.0050588554824030438 0 0.002389613747550084 0.0050350953127179052 0 0.0023482359430606298 0.0050588554824030438 0 0.0023257862523145103 0.0049950382311541985 0 0.0024033091765373036 0.0050427174344357924 0 0.0022922742203080998 0.0049793957476553631 0 0.002389613747550084 0.0050350953127179052 0 0.0023863301744702862 0.0050137835862824279 0 0.0023613784675777442 0.0050234469940399606 0 0.0023615921449958591 0.0049909824755211274 0 0.0023863301744702862 0.0050137835862824279 0 0.0023613784675777442 0.0050234469940399606 0 0.0022228111086803901 0.0049205019771976412 0 0.0022922742203080998 0.0049793957476553631 0 0.0021037974989182723 0.0048158140853857331 0 0.0021068859048312509 0.0049134941554062712 0 0.0022077443734811611 0.0048726858553071097 0 0.00010426906440646225 0.0057091268328380166 0 0.0001061574905705156 0.0058010562830571443 0 0.00022669880431128476 0.0057570650682676056 0 0.00010426906440646225 0.0057091268328380166 0 0.00022669880431128476 0.0057570650682676056 0 0.00021619324264424492 0.0056571386414390147 0 0.00010426906440646225 0.0057091268328380166 0 -3.8483838584638454e-05 0.0056565266007005269 0 -7.6420192605869649e-06 0.0057622010727074258 0 0.00010426906440646225 0.0057091268328380166 0 0.0001061574905705156 0.0058010562830571443 0 -7.6420192605869649e-06 0.0057622010727074258 0 0.0001061574905705156 0.0058010562830571443 0 -7.6420192605869649e-06 0.0057622010727074258 0 1.6476125015191059e-06 0.0058727883459992435 0 0.00018748409438763272 0.0058440726621763498 0 0.0001061574905705156 0.0058010562830571443 0 0.00023256190564314926 0.005685621467433768 0 0.00013250993852002887 0.0057854307279118977 0 0.00019431798643399452 0.0057369695497834182 0 0.00029643171892728836 0.0058092588468800161 0 0.00039740732813487535 0.0056534064051696458 0 0.00023256190564314926 0.005685621467433768 0 0.0010482000774455764 0.0054217083000380169 0 0.0013354616880572566 0.0051987096846626141 0 0.00018748409438763272 0.0058440726621763498 0 0.00029643171892728836 0.0058092588468800161 0 0.00023256190564314926 0.005685621467433768 0 0.0018696520539976675 0.0050235641238692485 0 0.0018429964992896048 0.0050019739362091318 0 0.0018781582155502018 0.0049971949532457817 0 0.0018429964992896048 0.0050019739362091318 0 0.0018781582155502018 0.0049971949532457817 0 0.0018661576783876831 0.0049621174017680332 0 0.0019043720393524539 0.0049574229199753376 0 0.0019464040411723948 0.0049023968045646222 0 0.001898601173564008 0.0048735133559728487 0 0.0018838650032611168 0.0049477003043848482 0 0.0013354616880572566 0.0051987096846626141 0 0.0019600847023168323 0.005016727069208928 0 0.0019659198595721687 0.0049569790915264377 0 0.0019043720393524539 0.0049574229199753376 0 0.0019659198595721687 0.0049569790915264377 0 0.0019043720393524539 0.0049574229199753376 0 0.0019464040411723948 0.0049023968045646222 0 0.001898601173564008 0.0048735133559728487 0 0.0019166499490632734 0.0048576616876515322 0 0.0019215096466862281 0.0048362588880880367 0 0.0013354616880572566 0.0051987096846626141 0 0.0012368574353985738 0.0052698893690737358 0 0.0011074350546652102 0.0053990329284097369 0 0.0011042173764923306 0.005380136798880099 0 0.0011289328799830981 0.0053638503879376732 0 0.0019464040411723948 0.0049023968045646222 0 0.001898601173564008 0.0048735133559728487 0 0.0019166499490632734 0.0048576616876515322 0 0.0019674640238127928 0.0048711409192514175 0 0.0019464040411723948 0.0049023968045646222 0 0.0019166499490632734 0.0048576616876515322 0 0.0013354616880572566 0.0051987096846626141 0 0.00058907466844208551 0.0056251378318228915 0 0.00058907466844208551 0.0056251378318228915 0 0.00019431798643399452 0.0057369695497834182 0 0.00034495535867478034 0.0056908891533480263 0 0.00022669880431128476 0.0057570650682676056 0 0.0002691924253765496 0.0056845216262176304 0 0.00039740732813487535 0.0056534064051696458 0 0.00038627356294693795 0.0055727874927536808 0 0.00023256190564314926 0.005685621467433768 0 0.00022669880431128476 0.0057570650682676056 0 0.0002691924253765496 0.0056845216262176304 0 0.00021619324264424492 0.0056571386414390147 0 0.0002691924253765496 0.0056845216262176304 0 0.00028836427902730115 0.0056323633261651665 0 0.00021619324264424492 0.0056571386414390147 0 0.00028836427902730115 0.0056323633261651665 0 0.00026147346215262348 0.005566028699431882 0 0.00021619324264424492 0.0056571386414390147 0 0.00034495535867478034 0.0056908891533480263 0 0.00028836427902730115 0.0056323633261651665 0 0.00034032673581644213 0.0055692609877046051 0 0.00034495535867478034 0.0056908891533480263 0 0.0002691924253765496 0.0056845216262176304 0 0.00028836427902730115 0.0056323633261651665 0 0.0019358086344601121 0.004825450850398187 0 0.0019166499490632734 0.0048576616876515322 0 0.0019215096466862281 0.0048362588880880367 0 0.0016782971049245296 0.0050902045056736792 0 0.00201742758345126 0.0047275421893740316 0 0.00047558452568201228 0.0058797952318376031 0 0.00051916967111215791 0.0057641012744097083 0 0.000433866246691218 0.0056861806689979559 0 0.00058907466844208551 0.0056251378318228915 0 0.00037910166369773459 0.0056504382922405033 0 0.00058907466844208551 0.0056251378318228915 0 0.0012368574353985738 0.0052698893690737358 0 0.00047558452568201228 0.0058797952318376031 0 0.00057339993924491149 0.0058110222367053679 0 0.00051916967111215791 0.0057641012744097083 0 0.00097322240409086725 0.00544589072167217 0 0.0012368574353985738 0.0052698893690737358 0 0.00062031331050577977 0.0057300259401435426 0 0.00057339993924491149 0.0058110222367053679 0 0.00056062191690824657 0.0057458027995209585 0 0.00057339993924491149 0.0058110222367053679 0 0.00051916967111215791 0.0057641012744097083 0 0.00056062191690824657 0.0057458027995209585 0 0.00051916967111215791 0.0057641012744097083 0 0.00056062191690824657 0.0057458027995209585 0 0.00055276954057979907 0.0056947205262462396 0 0.0005424977484070635 0.0055970614806521001 0 0.000433866246691218 0.0056861806689979559 0 0.00037875273605687452 0.0054534106957977845 0 0.00062660240482082029 0.0057345144206869779 0 0.00059383790384971605 0.0056591089427542917 0 0.00055276954057979907 0.0056947205262462396 0 0.00097322240409086725 0.00544589072167217 0 0.0006929405823503696 0.0055142073279759105 0 0.00062031331050577977 0.0057300259401435426 0 0.00056062191690824657 0.0057458027995209585 0 0.00055276954057979907 0.0056947205262462396 0 0.00051916967111215791 0.0057641012744097083 0 0.00055276954057979907 0.0056947205262462396 0 0.000433866246691218 0.0056861806689979559 0 0.00055276954057979907 0.0056947205262462396 0 0.0005424977484070635 0.0055970614806521001 0 0.000433866246691218 0.0056861806689979559 0 0.00059383790384971605 0.0056591089427542917 0 0.00055276954057979907 0.0056947205262462396 0 0.0005424977484070635 0.0055970614806521001 0 0.0006529487032812622 0.0056094505660895045 0 0.00059383790384971605 0.0056591089427542917 0 0.0005424977484070635 0.0055970614806521001 0 0.00026147346215262348 0.005566028699431882 0 0.00034032673581644213 0.0055692609877046051 0 0.00037875273605687452 0.0054534106957977845 0 0.00028836427902730115 0.0056323633261651665 0 0.00026147346215262348 0.005566028699431882 0 0.00034032673581644213 0.0055692609877046051 0 0.00012440537759605743 0.0055800851011178418 0 0.00010483799539106336 0.0054438330093226749 0 0.00021421802873115912 0.0055042010869947129 0 0.00026147346215262348 0.005566028699431882 0 0.00012440537759605743 0.0055800851011178418 0 0.00021421802873115912 0.0055042010869947129 0 0.00026147346215262348 0.005566028699431882 0 0.00021619324264424492 0.0056571386414390147 0 0.00012440537759605743 0.0055800851011178418 0 0.00010426906440646225 0.0057091268328380166 0 0.00021619324264424492 0.0056571386414390147 0 0.00012440537759605743 0.0055800851011178418 0 0.00010426906440646225 0.0057091268328380166 0 0.00012440537759605743 0.0055800851011178418 0 -3.8483838584638454e-05 0.0056565266007005269 0 0.00012440537759605743 0.0055800851011178418 0 0.00010483799539106336 0.0054438330093226749 0 -8.4242198090238312e-06 0.0054829890973449313 0 0.00012440537759605743 0.0055800851011178418 0 -8.4242198090238312e-06 0.0054829890973449313 0 -3.8483838584638454e-05 0.0056565266007005269 0 0.00021421802873115912 0.0055042010869947129 0 0.00019952474621780477 0.0053530146405056933 0 0.00037875273605687452 0.0054534106957977845 0 0.00010483799539106336 0.0054438330093226749 0 0.00021421802873115912 0.0055042010869947129 0 0.00019952474621780477 0.0053530146405056933 0 0.00010483799539106336 0.0054438330093226749 0 0.00019952474621780477 0.0053530146405056933 0 -1.6700802453145862e-05 0.0052662781651567131 0 0.0005424977484070635 0.0055970614806521001 0 0.00060441774605873562 0.0054570057848029171 0 0.00037875273605687452 0.0054534106957977845 0 0.0006529487032812622 0.0056094505660895045 0 0.0005424977484070635 0.0055970614806521001 0 0.00060441774605873562 0.0054570057848029171 0 0.00037910166369773459 0.0056504382922405033 0 0.00037579278143661096 0.0054524579377268042 0 0.00026147346215262348 0.005566028699431882 0 0.00021421802873115912 0.0055042010869947129 0 0.00037875273605687452 0.0054534106957977845 0 0.00019952474621780477 0.0053530146405056933 0 0.00037875273605687452 0.0054534106957977845 0 0.0003761659223721618 0.0052111410213962683 0 0.00037875273605687452 0.0054534106957977845 0 0.0005704560707671596 0.0053112532949000273 0 0.0003761659223721618 0.0052111410213962683 0 0.00060441774605873562 0.0054570057848029171 0 0.00037875273605687452 0.0054534106957977845 0 0.0005704560707671596 0.0053112532949000273 0 0.0005704560707671596 0.0053112532949000273 0 0.00059539802849126774 0.0051433388465976886 0 0.0003761659223721618 0.0052111410213962683 0 0.0003761659223721618 0.0052111410213962683 0 0.00051819836887809125 0.0049999801983369296 0 0.00024100884651683812 0.0049999897459247818 0 0.00059539802849126774 0.0051433388465976886 0 0.0003761659223721618 0.0052111410213962683 0 0.00051819836887809125 0.0049999801983369296 0 0.00019952474621780477 0.0053530146405056933 0 0.00015276722173534449 0.0051766952524152704 0 -1.6700802453145862e-05 0.0052662781651567131 0 0.00015276722173534449 0.0051766952524152704 0 -3.6107842839499153e-05 0.004999999260206482 0 -1.6700802453145862e-05 0.0052662781651567131 0 0.00019952474621780477 0.0053530146405056933 0 0.0003761659223721618 0.0052111410213962683 0 0.00015276722173534449 0.0051766952524152704 0 0.0003761659223721618 0.0052111410213962683 0 0.00015276722173534449 0.0051766952524152704 0 0.00024100884651683812 0.0049999897459247818 0 0.00015276722173534449 0.0051766952524152704 0 0.00024100884651683812 0.0049999897459247818 0 -3.6107842839499153e-05 0.004999999260206482 0 -3.616027473422811e-05 0.0050000411688394903 0 -3.7485688582689489e-05 0.005268419034533533 0 -3.6185419716608867e-05 0.0049999999904950521 0 -5.7835131929906179e-05 0.0052772270052455919 0 -0.00018894576620600293 0.0051416697115852983 0 -5.7835131929906179e-05 0.0052772270052455919 0 -0.00018894576620600293 0.0051416697115852983 0 -0.0002581634584591824 0.0052967169616403341 0 -0.00018894576620600293 0.0051416697115852983 0 -0.00038091371655944945 0.0051594150683129652 0 -0.0002581634584591824 0.0052967169616403341 0 -0.00018894576620600293 0.0051416697115852983 0 -0.00032071709555419361 0.0049999921264502391 0 -0.00038091371655944945 0.0051594150683129652 0 -3.6185419716608867e-05 0.0049999999904950521 0 -0.00018894576620600293 0.0051416697115852983 0 -0.00032071709555419361 0.0049999921264502391 0 -0.00032071709555419361 0.0049999921264502391 0 -0.00060529767537149351 0.0049999867751092065 0 -0.00038091371655944945 0.0051594150683129652 0 -0.00060529767537149351 0.0049999867751092065 0 -0.00054455928734589937 0.0052030376288525011 0 -0.00038091371655944945 0.0051594150683129652 0 -0.00054455928734589937 0.0052030376288525011 0 -0.00038091371655944945 0.0051594150683129652 0 -0.00042376764807945151 0.0053103711409678758 0 -0.00054455928734589937 0.0052030376288525011 0 -0.00042376764807945151 0.0053103711409678758 0 -0.00058368035467320893 0.0053257243905367613 0 -0.00038091371655944945 0.0051594150683129652 0 -0.00042376764807945151 0.0053103711409678758 0 -0.0002581634584591824 0.0052967169616403341 0 -0.00042376764807945151 0.0053103711409678758 0 -0.00032706075393124155 0.0054255635244836254 0 -0.0002581634584591824 0.0052967169616403341 0 -0.00042376764807945151 0.0053103711409678758 0 -0.00048067348845043487 0.0054548017159259292 0 -0.00032706075393124155 0.0054255635244836254 0 -0.00058368035467320893 0.0053257243905367613 0 -0.00048067348845043487 0.0054548017159259292 0 -0.00072547374363739572 0.0053904271815183513 0 -0.00042376764807945151 0.0053103711409678758 0 -0.00058368035467320893 0.0053257243905367613 0 -0.00048067348845043487 0.0054548017159259292 0 -0.00052342268060824246 0.0055373028894185154 0 -0.00048067348845043487 0.0054548017159259292 0 -0.00032706075393124155 0.0054255635244836254 0 -0.00052342268060824246 0.0055373028894185154 0 -0.00048067348845043487 0.0054548017159259292 0 -0.00070780320032305677 0.0053754232498192302 0 -0.00052342268060824246 0.0055373028894185154 0 -0.00032706075393124155 0.0054255635244836254 0 -0.00022846973728324533 0.0055072966689914777 0 -0.0004347912755113683 0.0055022802501945682 0 -0.00024498186720835847 0.005509530640655941 0 -0.00032706075393124155 0.0054255635244836254 0 -0.00022846973728324533 0.0055072966689914777 0 -0.00017879365355259326 0.0054061849443654709 0 -0.00022846973728324533 0.0055072966689914777 0 -7.2255797971928408e-05 0.0054989222851081132 0 -0.00017879365355259326 0.0054061849443654709 0 0.00010483799539106336 0.0054438330093226749 0 -1.6700802453145862e-05 0.0052662781651567131 0 -8.4242198090238312e-06 0.0054829890973449313 0 -5.7835131929906179e-05 0.0052772270052455919 0 -7.2255797971928408e-05 0.0054989222851081132 0 -0.00017879365355259326 0.0054061849443654709 0 -3.7485688582689489e-05 0.005268419034533533 0 -3.9964771186106692e-05 0.0054926305428086861 0 -5.7835131929906179e-05 0.0052772270052455919 0 -0.0002581634584591824 0.0052967169616403341 0 -0.00017879365355259326 0.0054061849443654709 0 -0.00032706075393124155 0.0054255635244836254 0 -0.0002581634584591824 0.0052967169616403341 0 -0.00017879365355259326 0.0054061849443654709 0 -0.0011857920884872425 0.0052253907442681687 0 -0.0010403927372498315 0.0051392499221061434 0 -0.0012671291987966279 0.0051064054930583351 0 -0.0011719606799480775 0.005208615959476936 0 -0.00093925317980638769 0.0052913842315598049 0 -0.0011329355147688613 0.0053553825663640751 0 -0.0011744779529762178 0.0049999949097608715 0 -0.0010403927372498315 0.0051392499221061434 0 -0.0012671291987966279 0.0051064054930583351 0 -0.0011744779529762178 0.0049999949097608715 0 -0.0010403927372498315 0.0051392499221061434 0 -0.00088988701332075944 0.0049999929488427223 0 -0.0011811512258702432 0.0052160866229231072 0 -0.00094881832180221187 0.0053008247004132725 0 -0.0011857920884872425 0.0052253907442681687 0 -0.0010403927372498315 0.0051392499221061434 0 -0.000958444203149709 0.005310515159328873 0 -0.00076127329602566592 0.0051948270484361144 0 -0.00072547374363739572 0.0053904271815183513 0 -0.000958444203149709 0.005310515159328873 0 -0.0010403927372498315 0.0051392499221061434 0 -0.00076127329602566592 0.0051948270484361144 0 -0.000958444203149709 0.005310515159328873 0 -0.0010403927372498315 0.0051392499221061434 0 -0.00088988701332075944 0.0049999929488427223 0 -0.00076127329602566592 0.0051948270484361144 0 -0.00060529767537149351 0.0049999867751092065 0 -0.00054455928734589937 0.0052030376288525011 0 -0.00076127329602566592 0.0051948270484361144 0 -0.00060529767537149351 0.0049999867751092065 0 -0.00088988701332075944 0.0049999929488427223 0 -0.00076127329602566592 0.0051948270484361144 0 -0.00054455928734589937 0.0052030376288525011 0 -0.00058368035467320893 0.0053257243905367613 0 -0.00076127329602566592 0.0051948270484361144 0 -0.0004986891036962691 0.0054523431601196685 0 -0.00071358172410848218 0.0053825033549850651 0 -0.00058368035467320893 0.0053257243905367613 0 -0.00076127329602566592 0.0051948270484361144 0 -0.00072547374363739572 0.0053904271815183513 0 -0.00052342268060824246 0.0055373028894185154 0 -0.00070780320032305677 0.0053754232498192302 0 -0.00079654310928329827 0.0055207178285929847 0 -0.0003490649140970306 0.0054726315993721417 0 -0.00050996113911055171 0.0054285428748779181 0 -0.0004555386100913602 0.0054983581020573088 0 -0.0004347912755113683 0.0055022802501945682 0 -0.00066275861224566351 0.0054738862865720021 0 -0.00070780320032305677 0.0053754232498192302 0 -0.00079654310928329827 0.0055207178285929847 0 -0.00093925317980638769 0.0052913842315598049 0 -0.00071358172410848218 0.0053825033549850651 0 -0.00094881832180221187 0.0053008247004132725 0 -0.00093925317980638769 0.0052913842315598049 0 -0.0010734757333213311 0.0054993924220772816 0 -0.0011329355147688613 0.0053553825663640751 0 -0.00079654310928329827 0.0055207178285929847 0 -0.00093925317980638769 0.0052913842315598049 0 -0.0010734757333213311 0.0054993924220772816 0 -0.00066275861224566351 0.0054738862865720021 0 -0.00085443035741678268 0.0054541725228023146 0 -0.00050996113911055171 0.0054285428748779181 0 -0.00069903566181795426 0.0053943933135722315 0 -0.00055299245168036377 0.0055399667209791318 0 -0.00085443035741678268 0.0054541725228023146 0 -0.0012635807479106998 0.0053770781083056253 0 -0.00069903566181795426 0.0053943933135722315 0 -0.00067965343212877971 0.0055607494227555097 0 -0.00084721507146479481 0.005421438620050005 0 -0.0010734757333213311 0.0054993924220772816 0 -0.0011329355147688613 0.0053553825663640751 0 -0.0013461590896142596 0.0054730783326088399 0 -0.0011719606799480775 0.005208615959476936 0 -0.0011329355147688613 0.0053553825663640751 0 -0.0012761679051598402 0.0053311719023834431 0 -0.00077133124228361449 0.0055823133224154687 0 -0.00080925684263112032 0.0055130610262520419 0 -0.00071496410653064 0.0055143250459868476 0 -0.0010586668447672214 0.0056259275128934822 0 -0.0014611862943747862 0.0054981302189970544 0 -0.00077133124228361449 0.0055823133224154687 0 -0.00078875496706704484 0.0056613197619958568 0 -0.00084756599760383168 0.0055727567011590994 0 -0.00077133124228361449 0.0055823133224154687 0 -0.00080925684263112032 0.0055130610262520419 0 -0.00084756599760383168 0.0055727567011590994 0 -0.00080925684263112032 0.0055130610262520419 0 -0.00071496410653064 0.0055143250459868476 0 -0.00084721507146479481 0.005421438620050005 0 -0.00069852840867731943 0.0055355426011931682 0 -0.00083901826379374897 0.0054273337740331348 0 -0.00069903566181795426 0.0053943933135722315 0 -0.00067965343212877971 0.0055607494227555097 0 -0.00055299245168036377 0.0055399667209791318 0 -0.00067965343212877971 0.0055607494227555097 0 -0.00052012749719750789 0.0056708210971166198 0 -0.00055299245168036377 0.0055399667209791318 0 -0.00069852840867731943 0.0055355426011931682 0 -0.0005381162078582567 0.0056483736714185726 0 -0.00077133124228361449 0.0055823133224154687 0 -0.00071496410653064 0.0055143250459868476 0 -0.00068980539626890304 0.0056568909459952374 0 -0.00071496410653064 0.0055143250459868476 0 -0.0005588188270437231 0.0056226631933101309 0 -0.00068980539626890304 0.0056568909459952374 0 -0.00052012749719750789 0.0056708210971166198 0 -0.00055299245168036377 0.0055399667209791318 0 -0.00043998007767737725 0.005566628719703464 0 -0.00055299245168036377 0.0055399667209791318 0 -0.00043998007767737725 0.005566628719703464 0 -0.0004555386100913602 0.0054983581020573088 0 -0.00050996113911055171 0.0054285428748779181 0 -0.00055299245168036377 0.0055399667209791318 0 -0.0004555386100913602 0.0054983581020573088 0 -0.00043998007767737725 0.005566628719703464 0 -0.00039806407569172524 0.0055213879494202022 0 -0.00034268366039439161 0.0055556987790011609 0 -0.0003490649140970306 0.0054726315993721417 0 -0.0004555386100913602 0.0054983581020573088 0 -0.00039806407569172524 0.0055213879494202022 0 -0.00043998007767737725 0.005566628719703464 0 -0.0004555386100913602 0.0054983581020573088 0 -0.00039806407569172524 0.0055213879494202022 0 -0.00052012749719750789 0.0056708210971166198 0 -0.00043998007767737725 0.005566628719703464 0 -0.00039451413078099768 0.0056371128666241246 0 -0.00043998007767737725 0.005566628719703464 0 -0.00039451413078099768 0.0056371128666241246 0 -0.00034268366039439161 0.0055556987790011609 0 -0.00052012749719750789 0.0056708210971166198 0 -0.00039451413078099768 0.0056371128666241246 0 -0.00038950344854751963 0.005757554882436163 0 -0.0005588188270437231 0.0056226631933101309 0 -0.00038950344854751963 0.005757554882436163 0 -0.0005336463875184348 0.0057707977840993048 0 -0.0005381162078582567 0.0056483736714185726 0 -0.00039797488604806402 0.0057523859423986639 0 -0.00038950344854751963 0.005757554882436163 0 -0.0005336463875184348 0.0057707977840993048 0 -0.00045892164884413385 0.0058736593289925943 0 -0.00038950344854751963 0.005757554882436163 0 -0.00033344553490886658 0.0058660087449976953 0 -0.00045892164884413385 0.0058736593289925943 0 -0.0005336463875184348 0.0057707977840993048 0 -0.00045892164884413385 0.0058736593289925943 0 -0.00057262222298275591 0.005843139866753575 0 -0.0005336463875184348 0.0057707977840993048 0 -0.00061394187746092988 0.0057909853019357041 0 -0.00057262222298275591 0.005843139866753575 0 -0.0005336463875184348 0.0057707977840993048 0 -0.00061394187746092988 0.0057909853019357041 0 -0.00061053038652027246 0.0057082654099999963 0 -0.0005588188270437231 0.0056226631933101309 0 -0.0005336463875184348 0.0057707977840993048 0 -0.00061053038652027246 0.0057082654099999963 0 -0.0005588188270437231 0.0056226631933101309 0 -0.00061053038652027246 0.0057082654099999963 0 -0.00068980539626890304 0.0056568909459952374 0 -0.00068980539626890304 0.0056568909459952374 0 -0.00067729693271260439 0.0057651145681115214 0 -0.00072384187188886213 0.0057563585505376602 0 -0.00061053038652027246 0.0057082654099999963 0 -0.00068980539626890304 0.0056568909459952374 0 -0.00067729693271260439 0.0057651145681115214 0 -0.00061394187746092988 0.0057909853019357041 0 -0.00061053038652027246 0.0057082654099999963 0 -0.00067729693271260439 0.0057651145681115214 0 -0.00061394187746092988 0.0057909853019357041 0 -0.00057262222298275591 0.005843139866753575 0 -0.000660829181703744 0.0058470040600670046 0 -0.00061394187746092988 0.0057909853019357041 0 -0.00067729693271260439 0.0057651145681115214 0 -0.000660829181703744 0.0058470040600670046 0 -0.00067729693271260439 0.0057651145681115214 0 -0.00072834848533451994 0.005756371408063515 0 -0.000660829181703744 0.0058470040600670046 0 -0.0010984580353607103 0.0056008961648537714 0 -0.0010516437259624951 0.0056617184406568153 0 -0.0015298507441372086 0.0053502836284518469 0 -0.0015181330595228125 0.0054442109922575232 0 -0.0014579296142395201 0.0054465609507303621 0 -0.00074973866970241756 0.0056941506415506653 0 -0.0010984580353607103 0.0056008961648537714 0 -0.0023061011776031133 0.0052130558885026415 0 -0.0023079322058535434 0.0052012852193734057 0 -0.0023103142738808758 0.0051951995959521914 0 -0.0015298507441372086 0.0053502836284518469 0 -0.0015662713023401639 0.0054330518832233499 0 -0.0016467233154717389 0.0053308050124959228 0 -0.0015662713023401639 0.0054330518832233499 0 -0.0016467233154717389 0.0053308050124959228 0 -0.0016072303392352617 0.0055261889029438174 0 -0.0010984580353607103 0.0056008961648537714 0 -0.0018575593930782134 0.0054131613147612003 0 -0.0018575593930782134 0.0054131613147612003 0 -0.0020678149931256645 0.0052106462188463683 0 -0.0015298507441372086 0.0053502836284518469 0 -0.0015662713023401639 0.0054330518832233499 0 -0.0015181330595228125 0.0054442109922575232 0 -0.0013313123320948122 0.0055860805834467555 0 -0.0014130409886700856 0.0055721969855817228 0 -0.0013863120597108888 0.0055116404154488046 0 -0.0014130409886700856 0.0055721969855817228 0 -0.0013863120597108888 0.0055116404154488046 0 -0.0014395992219009099 0.0054379460280528872 0 -0.0010984580353607103 0.0056008961648537714 0 -0.0010586668447672214 0.0056259275128934822 0 -0.00068980539626890304 0.0056568909459952374 0 -0.00072384187188886213 0.0057563585505376602 0 -0.00078875496706704484 0.0056613197619958568 0 -0.00077133124228361449 0.0055823133224154687 0 -0.00068980539626890304 0.0056568909459952374 0 -0.00078875496706704484 0.0056613197619958568 0 -0.00016902744910315292 0.0056176117269605237 0 -3.8483838584638454e-05 0.0056565266007005269 0 -0.0001044149097541374 0.0057245644348445429 0 -3.9964771186106692e-05 0.0054926305428086861 0 -3.9659410678741157e-05 0.0056529054383505188 0 -7.2255797971928408e-05 0.0054989222851081132 0 -0.00016902744910315292 0.0056176117269605237 0 -3.8483838584638454e-05 0.0056565266007005269 0 -0.00022846973728324533 0.0055072966689914777 0 -7.2255797971928408e-05 0.0054989222851081132 0 -0.00016902744910315292 0.0056176117269605237 0 -0.00022846973728324533 0.0055072966689914777 0 -0.00034268366039439161 0.0055556987790011609 0 -0.00028444749369563896 0.0056319054627632517 0 -0.00022846973728324533 0.0055072966689914777 0 -0.00016902744910315292 0.0056176117269605237 0 -0.00028444749369563896 0.0056319054627632517 0 -0.0003490649140970306 0.0054726315993721417 0 -0.00039806407569172524 0.0055213879494202022 0 -0.00034268366039439161 0.0055556987790011609 0 -0.0003490649140970306 0.0054726315993721417 0 -0.00022846973728324533 0.0055072966689914777 0 -0.00034268366039439161 0.0055556987790011609 0 -0.00039451413078099768 0.0056371128666241246 0 -0.00034268366039439161 0.0055556987790011609 0 -0.00028444749369563896 0.0056319054627632517 0 -0.00016902744910315292 0.0056176117269605237 0 -0.00028444749369563896 0.0056319054627632517 0 -0.00021525268807210402 0.0057372230146292983 0 -0.00038950344854751963 0.005757554882436163 0 -0.00028444749369563896 0.0056319054627632517 0 -0.00021525268807210402 0.0057372230146292983 0 -0.00039451413078099768 0.0056371128666241246 0 -0.00038950344854751963 0.005757554882436163 0 -0.00028444749369563896 0.0056319054627632517 0 -0.00038950344854751963 0.005757554882436163 0 -0.00024501831606035628 0.0058316299241932181 0 -0.00033344553490886658 0.0058660087449976953 0 -0.00021525268807210402 0.0057372230146292983 0 -0.00024501831606035628 0.0058316299241932181 0 -9.1010172971643191e-05 0.0058461250491364585 0 -0.00038950344854751963 0.005757554882436163 0 -0.00021525268807210402 0.0057372230146292983 0 -0.00024501831606035628 0.0058316299241932181 0 -0.00021525268807210402 0.0057372230146292983 0 -0.0001044149097541374 0.0057245644348445429 0 -9.1010172971643191e-05 0.0058461250491364585 0 -0.00016902744910315292 0.0056176117269605237 0 -0.00021525268807210402 0.0057372230146292983 0 -0.0001044149097541374 0.0057245644348445429 0 -3.8483838584638454e-05 0.0056565266007005269 0 -0.0001044149097541374 0.0057245644348445429 0 -7.6420192605869649e-06 0.0057622010727074258 0 -0.0001044149097541374 0.0057245644348445429 0 -7.6420192605869649e-06 0.0057622010727074258 0 -9.1010172971643191e-05 0.0058461250491364585 0 -7.6420192605869649e-06 0.0057622010727074258 0 1.6476125015191059e-06 0.0058727883459992435 0 -9.1010172971643191e-05 0.0058461250491364585 0 1.6476125015191059e-06 0.0058727883459992435 0 -9.1010172971643191e-05 0.0058461250491364585 0 -6.2033540737209492e-05 0.0059267441912865043 0 1.6476125015191059e-06 0.0058727883459992435 0 -3.0457256543422365e-06 0.0059308934327459177 0 -6.2033540737209492e-05 0.0059267441912865043 0 -9.1010172971643191e-05 0.0058461250491364585 0 -0.00012409845496468393 0.0059358157628347282 0 -6.2033540737209492e-05 0.0059267441912865043 0 -9.1010172971643191e-05 0.0058461250491364585 0 -0.00012409845496468393 0.0059358157628347282 0 -0.00018680141420423046 0.0059002715289871374 0 -0.00024501831606035628 0.0058316299241932181 0 -9.1010172971643191e-05 0.0058461250491364585 0 -0.00018680141420423046 0.0059002715289871374 0 -0.00012409845496468393 0.0059358157628347282 0 -0.00019314206791569787 0.005952493704736786 0 -0.00018680141420423046 0.0059002715289871374 0 -0.00012409845496468393 0.0059358157628347282 0 -0.00012369936297660245 0.005998328388723783 0 -0.00019314206791569787 0.005952493704736786 0 -0.00012409845496468393 0.0059358157628347282 0 -0.00012369936297660245 0.005998328388723783 0 -6.2033540737209492e-05 0.0059267441912865043 0 -0.00012369936297660245 0.005998328388723783 0 -3.5520814486016269e-05 0.0059487254056448755 0 -2.8893551169919752e-05 0.005926372356636924 0 -0.00012369936297660245 0.005998328388723783 0 -6.2033540737209492e-05 0.0059267441912865043 0 -3.5520814486016269e-05 0.0059487254056448755 0 1.373146199527319e-05 0.005979277742735844 0 -3.0457256543422365e-06 0.0059308934327459177 0 -3.5520814486016269e-05 0.0059487254056448755 0 -3.0457256543422365e-06 0.0059308934327459177 0 -6.2033540737209492e-05 0.0059267441912865043 0 -3.5520814486016269e-05 0.0059487254056448755 0 1.373146199527319e-05 0.005979277742735844 0 -3.5520814486016269e-05 0.0059487254056448755 0 -1.7555333806980957e-06 0.0059331490437735199 0 -3.5520814486016269e-05 0.0059487254056448755 0 -1.7555333806980957e-06 0.0059331490437735199 0 -2.8893551169919752e-05 0.005926372356636924 0 -0.00022162539023746868 0.0059213599688254168 0 -4.2242171376762065e-05 0.0059332796312540868 0 6.5151950592252725e-06 0.0058776148773071286 0 0.00046234745483615935 0.0056175087121304833 0 0.00051489048569517879 0.0056353607841312095 0 6.5151950592252725e-06 0.0058776148773071286 0 -1.7555333806980957e-06 0.0059331490437735199 0 -2.8893551169919752e-05 0.005926372356636924 0 6.5151950592252725e-06 0.0058776148773071286 0 -2.8893551169919752e-05 0.005926372356636924 0 -0.00012886829919459035 0.0060088298473497601 0 -0.00028286337482833282 0.0058619876882465812 0 -2.8893551169919752e-05 0.005926372356636924 0 -0.00012886829919459035 0.0060088298473497601 0 6.5151950592252725e-06 0.0058776148773071286 0 0.00019230085816858484 0.0056194180418796041 0 0.00046234745483615935 0.0056175087121304833 0 5.6868134338219028e-05 0.005879509022527615 0 -3.6666324455146612e-05 0.0055390648635267681 0 9.0949660907796331e-05 0.0054774612936594478 0 0.00019230085816858484 0.0056194180418796041 0 0.00035161244516161938 0.0054575758015728941 0 0.00046234745483615935 0.0056175087121304833 0 0.00051072265776884278 0.0056328535698898716 0 0.00056315004775854929 0.0054008596617715612 0 0.00019230085816858484 0.0056194180418796041 0 0.00035161244516161938 0.0054575758015728941 0 0.00046234745483615935 0.0056175087121304833 0 0.00035161244516161938 0.0054575758015728941 0 0.00046234745483615935 0.0056175087121304833 0 0.00056315004775854929 0.0054008596617715612 0 2.508521347714891e-05 0.0055576378855996004 0 -3.6666324455146612e-05 0.0055390648635267681 0 0.00051072265776884278 0.0056328535698898716 0 0.00056315004775854929 0.0054008596617715612 0 0.0011313121587942087 0.0053394699296829733 0 -0.00028286337482833282 0.0058619876882465812 0 -0.00012886829919459035 0.0060088298473497601 0 -0.00051305286907477694 0.0058726921633174174 0 -3.6666324455146612e-05 0.0055390648635267681 0 -0.0009339465824380371 0.0046479794626093293 0 -0.00084532398575408755 0.0051753525380641117 0 -0.001156526151759646 0.0052765276455242465 0 -0.0012313594311035173 0.00504974317825925 0 -3.6666324455146612e-05 0.0055390648635267681 0 -0.0010307849624782155 0.0054183442623284223 0 -0.00084532398575408755 0.0051753525380641117 0 -0.001156526151759646 0.0052765276455242465 0 -0.001152495986507408 0.0053016369722432288 0 0.00056315004775854929 0.0054008596617715612 0 0.0011313121587942087 0.0053394699296829733 0 0.00076941787942170559 0.0049733569138701028 0 0.00056315004775854929 0.0054008596617715612 0 0.00039328425569429325 0.0051684156549276893 0 0.00076941787942170559 0.0049733569138701028 0 -4.3761429911640402e-05 0.0050983129622093112 0 0.00039328425569429325 0.0051684156549276893 0 0.00047930878776611451 0.004797054054197919 0 9.0949660907796331e-05 0.0054774612936594478 0 -4.3761429911640402e-05 0.0050983129622093112 0 0.00039328425569429325 0.0051684156549276893 0 9.0949660907796331e-05 0.0054774612936594478 0 0.00035161244516161938 0.0054575758015728941 0 0.00039328425569429325 0.0051684156549276893 0 0.00035161244516161938 0.0054575758015728941 0 0.00056315004775854929 0.0054008596617715612 0 0.00039328425569429325 0.0051684156549276893 0 -0.0017962001212977927 0.0035102873112349206 0 -0.0019833876035165194 0.0036156088136159218 0 -0.0018882636994508703 0.0034183397628339772 0 -0.0014020025381038382 0.0052679179672132552 0 -0.0015148228752615504 0.0054201206546709204 0 -0.0012052588170089566 0.0052418575790363769 0 -0.0013737215033317941 0.005324085005811106 0 -0.0013897633071269437 0.0053066320431514567 0 -0.0012052588170089566 0.0052418575790363769 0 -0.0014680502975848993 0.0054784411034031035 0 -0.001206686427980119 0.005215433249835851 0 -0.0016447138090992005 0.0043697047681298595 0 -0.0009339465824380371 0.0046479794626093293 0 -0.0014020025381038382 0.0052679179672132552 0 -0.0015016045672190264 0.0053085398140565012 0 -0.0015148228752615504 0.0054201206546709204 0 -0.0013737215033317941 0.005324085005811106 0 -0.001159128080378935 0.0052904809126443474 0 -0.0012052588170089566 0.0052418575790363769 0 -0.001156526151759646 0.0052765276455242465 0 -0.001159128080378935 0.0052904809126443474 0 -0.0012052588170089566 0.0052418575790363769 0 -0.00093339495640924015 0.0047239003151189818 0 -0.0009339465824380371 0.0046479794626093293 0 -0.001156526151759646 0.0052765276455242465 0 -0.0012052588170089566 0.0052418575790363769 0 -0.0012313594311035173 0.00504974317825925 0 -0.0012052588170089566 0.0052418575790363769 0 -0.0013393520074020653 0.0051695627663919412 0 -0.0012313594311035173 0.00504974317825925 0 -0.0013393520074020653 0.0051695627663919412 0 -0.0014933293421412067 0.0050995693907260192 0 -0.0012313594311035173 0.00504974317825925 0 -0.0014020025381038382 0.0052679179672132552 0 -0.0012052588170089566 0.0052418575790363769 0 -0.0013393520074020653 0.0051695627663919412 0 -0.0014020025381038382 0.0052679179672132552 0 -0.0013393520074020653 0.0051695627663919412 0 -0.0014480542876967751 0.0052016018664398514 0 -0.0014020025381038382 0.0052679179672132552 0 -0.0015016045672190264 0.0053085398140565012 0 -0.0014480542876967751 0.0052016018664398514 0 -0.0013393520074020653 0.0051695627663919412 0 -0.0014480542876967751 0.0052016018664398514 0 -0.0014933293421412067 0.0050995693907260192 0 -0.00037624807517729319 0.0059279168825211986 0 -0.00098159891152381972 0.005548245373217308 0 -0.0010307849624782155 0.0054183442623284223 0 -0.00098159891152381972 0.005548245373217308 0 -0.00059746246622538186 0.0057914055718223199 0 -0.00051305286907477694 0.0058726921633174174 0 -0.00092647639820389799 0.0057229854069508245 0 -0.0014933293421412067 0.0050995693907260192 0 -0.0012313594311035173 0.00504974317825925 0 -0.0016087066227569234 0.0049332932493642177 0 -0.00028656933811635563 0.0060003057296670759 0 -0.00034536897290253732 0.0059350967954976677 0 -0.00044666776184290797 0.0059805659311674428 0 -0.00028656933811635563 0.0060003057296670759 0 -0.00026198984343144113 0.0059141088248661523 0 -0.00034536897290253732 0.0059350967954976677 0 -0.00022162539023746868 0.0059213599688254168 0 -0.00037624807517729319 0.0059279168825211986 0 -0.00028286337482833282 0.0058619876882465812 0 -0.00059746246622538186 0.0057914055718223199 0 -0.00051305286907477694 0.0058726921633174174 0 -0.00012369936297660245 0.005998328388723783 0 -0.00028656933811635563 0.0060003057296670759 0 -0.00019314206791569787 0.005952493704736786 0 -0.00028656933811635563 0.0060003057296670759 0 -0.00019314206791569787 0.005952493704736786 0 -0.00026198984343144113 0.0059141088248661523 0 -0.00019314206791569787 0.005952493704736786 0 -0.00018680141420423046 0.0059002715289871374 0 -0.00026198984343144113 0.0059141088248661523 0 -0.00024501831606035628 0.0058316299241932181 0 -0.00026198984343144113 0.0059141088248661523 0 -0.00033344553490886658 0.0058660087449976953 0 -0.00024501831606035628 0.0058316299241932181 0 -0.00018680141420423046 0.0059002715289871374 0 -0.00026198984343144113 0.0059141088248661523 0 -0.00034536897290253732 0.0059350967954976677 0 -0.00033344553490886658 0.0058660087449976953 0 -0.00045892164884413385 0.0058736593289925943 0 -0.00026198984343144113 0.0059141088248661523 0 -0.00034536897290253732 0.0059350967954976677 0 -0.00033344553490886658 0.0058660087449976953 0 -0.00034536897290253732 0.0059350967954976677 0 -0.00045892164884413385 0.0058736593289925943 0 -0.00044666776184290797 0.0059805659311674428 0 -0.00045892164884413385 0.0058736593289925943 0 -0.00059607505965952824 0.0059343565112963377 0 -0.00044666776184290797 0.0059805659311674428 0 -0.00045892164884413385 0.0058736593289925943 0 -0.00057262222298275591 0.005843139866753575 0 -0.00059607505965952824 0.0059343565112963377 0 -0.00057262222298275591 0.005843139866753575 0 -0.00059607505965952824 0.0059343565112963377 0 -0.000660829181703744 0.0058470040600670046 0 -0.0011340915967862303 0.0056467232081206407 0 -0.001615603247651377 0.005194137522474036 0 -0.0011340915967862303 0.0056467232081206407 0 -0.00098159891152381972 0.005548245373217308 0 -0.001389640287925554 0.0054078703345276837 0 -0.001342595388012307 0.0054732439883321965 0 -0.0010195428692900323 0.0055333963110261019 0 -0.0018340164066025528 0.0048949016795076837 0 -0.0017291778841782728 0.0050459561899319546 0 -0.0016087066227569234 0.0049332932493642177 0 -0.0018390487915799576 0.0049528024988546825 0 -0.0017407246515670073 0.0050855401359072719 0 -0.0018509590462831276 0.0051321034070197641 0 -0.001615603247651377 0.005194137522474036 0 -0.00098159891152381972 0.005548245373217308 0 -0.0018390487915799576 0.0049528024988546825 0 -0.0019626191179543838 0.0051080165481717024 0 -0.0018509590462831276 0.0051321034070197641 0 -0.001615603247651377 0.005194137522474036 0 -0.0017603935483250144 0.0050264018002021682 0 -0.0014933293421412067 0.0050995693907260192 0 -0.0017291778841782728 0.0050459561899319546 0 -0.0016087066227569234 0.0049332932493642177 0 -0.0015662713023401639 0.0054330518832233499 0 -0.0016072303392352617 0.0055261889029438174 0 -0.0015091284849658695 0.005505689638734196 0 -0.0016072303392352617 0.0055261889029438174 0 -0.001493070554171257 0.0055460379325801097 0 -0.0015091284849658695 0.005505689638734196 0 -0.0020678149931256645 0.0052106462188463683 0 -0.0017301694323342161 0.0052359626185445977 0 -0.0015662713023401639 0.0054330518832233499 0 -0.0015091284849658695 0.005505689638734196 0 -0.0015181330595228125 0.0054442109922575232 0 -0.0015091284849658695 0.005505689638734196 0 -0.0015181330595228125 0.0054442109922575232 0 -0.0014579296142395201 0.0054465609507303621 0 -0.0011340915967862303 0.0056467232081206407 0 -0.0010516437259624951 0.0056617184406568153 0 -0.0013779278474499771 0.0055542693993520771 0 -0.0015091284849658695 0.005505689638734196 0 -0.0014579296142395201 0.0054465609507303621 0 -0.0014095287348644529 0.0055391212335196317 0 -0.0013925255659770297 0.005562043380471178 0 -0.001493070554171257 0.0055460379325801097 0 -0.001615603247651377 0.005194137522474036 0 -0.0017301694323342161 0.0052359626185445977 0 -0.0011340915967862303 0.0056467232081206407 0 -0.0015750593549859048 0.0054828114437219053 0 -0.0014095287348644529 0.0055391212335196317 0 -0.001493070554171257 0.0055460379325801097 0 -0.0015091284849658695 0.005505689638734196 0 -0.0018390487915799576 0.0049528024988546825 0 -0.0020159131887433025 0.0049178138002756574 0 -0.0019626191179543838 0.0051080165481717024 0 -0.0020159131887433025 0.0049178138002756574 0 -0.0019626191179543838 0.0051080165481717024 0 -0.0021324461937920159 0.0052399070195737613 0 -0.002198387066063452 0.005170375016171104 0 -0.0021324461937920159 0.0052399070195737613 0 -0.0022652898367270225 0.0052275643522522583 0 -0.0022020193847234549 0.0048829071468119824 0 -0.0020159131887433025 0.0049178138002756574 0 -0.0021324461937920159 0.0052399070195737613 0 -0.0020678149931256645 0.0052106462188463683 0 -0.0021807741340494268 0.0051512111739047328 0 -0.0019626191179543838 0.0051080165481717024 0 -0.0021324461937920159 0.0052399070195737613 0 -0.0019510964217547037 0.005261120467434652 0 -0.0021324461937920159 0.0052399070195737613 0 -0.0019510964217547037 0.005261120467434652 0 -0.002081049631155729 0.0053401111053674065 0 -0.0019626191179543838 0.0051080165481717024 0 -0.0019510964217547037 0.005261120467434652 0 -0.0018509590462831276 0.0051321034070197641 0 -0.0019510964217547037 0.005261120467434652 0 -0.0019376420835617715 0.0054016920498925862 0 -0.002081049631155729 0.0053401111053674065 0 -0.0019376420835617715 0.0054016920498925862 0 -0.002081049631155729 0.0053401111053674065 0 -0.0021010955927685034 0.0054636820160487206 0 -0.002081049631155729 0.0053401111053674065 0 -0.0021010955927685034 0.0054636820160487206 0 -0.0022060588984161929 0.0053155406532773919 0 -0.0021324461937920159 0.0052399070195737613 0 -0.002081049631155729 0.0053401111053674065 0 -0.0022060588984161929 0.0053155406532773919 0 -0.0017407246515670073 0.0050855401359072719 0 -0.0016246351657831068 0.005211883062656175 0 -0.0017275425384655303 0.0052754030737841859 0 -0.0014933293421412067 0.0050995693907260192 0 -0.0017291778841782728 0.0050459561899319546 0 -0.0016246351657831068 0.005211883062656175 0 -0.0016246351657831068 0.005211883062656175 0 -0.0017275425384655303 0.0052754030737841859 0 -0.0016045226355799972 0.0053246671115035407 0 -0.0015016045672190264 0.0053085398140565012 0 -0.0014480542876967751 0.0052016018664398514 0 -0.0016246351657831068 0.005211883062656175 0 -0.0014480542876967751 0.0052016018664398514 0 -0.0014933293421412067 0.0050995693907260192 0 -0.0016246351657831068 0.005211883062656175 0 -0.0017603935483250144 0.0050264018002021682 0 -0.0016312416775285316 0.0052061601921535765 0 -0.0017407246515670073 0.0050855401359072719 0 -0.0018509590462831276 0.0051321034070197641 0 -0.0018424623851095447 0.0052425752905943318 0 -0.0017407246515670073 0.0050855401359072719 0 -0.0018424623851095447 0.0052425752905943318 0 -0.0017275425384655303 0.0052754030737841859 0 -0.0019510964217547037 0.005261120467434652 0 -0.0018509590462831276 0.0051321034070197641 0 -0.0018424623851095447 0.0052425752905943318 0 -0.0018424623851095447 0.0052425752905943318 0 -0.0017275425384655303 0.0052754030737841859 0 -0.0018316820735698248 0.0053472601911550479 0 -0.0017275425384655303 0.0052754030737841859 0 -0.0018316820735698248 0.0053472601911550479 0 -0.0017312550614595019 0.0053724789879947546 0 -0.0019510964217547037 0.005261120467434652 0 -0.0018424623851095447 0.0052425752905943318 0 -0.0018316820735698248 0.0053472601911550479 0 -0.0019510964217547037 0.005261120467434652 0 -0.0019376420835617715 0.0054016920498925862 0 -0.0018316820735698248 0.0053472601911550479 0 -0.0019376420835617715 0.0054016920498925862 0 -0.0018316820735698248 0.0053472601911550479 0 -0.0018210697308304843 0.0054379594020474075 0 -0.0018316820735698248 0.0053472601911550479 0 -0.0018210697308304843 0.0054379594020474075 0 -0.0017656157659183395 0.0054185968812831423 0 -0.0018316820735698248 0.0053472601911550479 0 -0.0017312550614595019 0.0053724789879947546 0 -0.0017656157659183395 0.0054185968812831423 0 -0.0017312550614595019 0.0053724789879947546 0 -0.0017656157659183395 0.0054185968812831423 0 -0.0017091360511521598 0.005419288105933227 0 -0.0018210697308304843 0.0054379594020474075 0 -0.0017656157659183395 0.0054185968812831423 0 -0.0017360839179934536 0.005467137268793899 0 -0.0017656157659183395 0.0054185968812831423 0 -0.0017091360511521598 0.005419288105933227 0 -0.0017360839179934536 0.005467137268793899 0 -0.0017091360511521598 0.005419288105933227 0 -0.00166145653158371 0.0054432170618606062 0 -0.0017360839179934536 0.005467137268793899 0 -0.0017091360511521598 0.005419288105933227 0 -0.00166145653158371 0.0054432170618606062 0 -0.0016502182837699671 0.005388691005755457 0 -0.00166145653158371 0.0054432170618606062 0 -0.0016502182837699671 0.005388691005755457 0 -0.0015936774815379056 0.0053883682156330957 0 -0.0017312550614595019 0.0053724789879947546 0 -0.0017091360511521598 0.005419288105933227 0 -0.0016502182837699671 0.005388691005755457 0 -0.0017275425384655303 0.0052754030737841859 0 -0.0017312550614595019 0.0053724789879947546 0 -0.0016502182837699671 0.005388691005755457 0 -0.0017275425384655303 0.0052754030737841859 0 -0.0016502182837699671 0.005388691005755457 0 -0.0016045226355799972 0.0053246671115035407 0 -0.0015016045672190264 0.0053085398140565012 0 -0.0016246351657831068 0.005211883062656175 0 -0.0016045226355799972 0.0053246671115035407 0 -0.0015016045672190264 0.0053085398140565012 0 -0.0015148228752615504 0.0054201206546709204 0 -0.0015541248215041024 0.0053604267141852506 0 -0.0016045226355799972 0.0053246671115035407 0 -0.0015541248215041024 0.0053604267141852506 0 -0.0015936774815379056 0.0053883682156330957 0 -0.0016502182837699671 0.005388691005755457 0 -0.0016045226355799972 0.0053246671115035407 0 -0.0015936774815379056 0.0053883682156330957 0 -0.0015016045672190264 0.0053085398140565012 0 -0.0016045226355799972 0.0053246671115035407 0 -0.0015541248215041024 0.0053604267141852506 0 -0.0015148228752615504 0.0054201206546709204 0 -0.0015541248215041024 0.0053604267141852506 0 -0.0015936774815379056 0.0053883682156330957 0 -0.0015148228752615504 0.0054201206546709204 0 -0.00166145653158371 0.0054432170618606062 0 -0.0015936774815379056 0.0053883682156330957 0 -0.0017962001212977927 0.0035102873112349206 0 -0.0017529801516773932 0.0033808727973718496 0 -0.0016567830540354443 0.0034048114664975942 0 -0.0016447138090992005 0.0043697047681298595 0 -0.001791263880423195 0.0046208338536017773 0 -0.0014680502975848993 0.0054784411034031035 0 -0.001791263880423195 0.0046208338536017773 0 -0.0015148228752615504 0.0054201206546709204 0 -0.00166145653158371 0.0054432170618606062 0 -0.0018092741335541359 0.0055552423660098858 0 -0.0017962001212977927 0.0035102873112349206 0 -0.0016567830540354443 0.0034048114664975942 0 -0.0016222393769640153 0.0034006226334412867 0 -0.0013737215033317941 0.005324085005811106 0 -0.0013897633071269437 0.0053066320431514567 0 -0.0015421739630070721 0.0053274311245093678 0 -0.0017529801516773932 0.0033808727973718496 0 -0.0016890652322431186 0.0033737514440600057 0 -0.0016567830540354443 0.0034048114664975942 0 -0.0017529801516773932 0.0033808727973718496 0 -0.0016890652322431186 0.0033737514440600057 0 -0.0016989744728438136 0.0033469151686710526 0 -0.0016890652322431186 0.0033737514440600057 0 -0.0016501973978563303 0.0033634951229643451 0 -0.0016989744728438136 0.0033469151686710526 0 -0.001791263880423195 0.0046208338536017773 0 -0.0017322293874029594 0.0036672214444620241 0 -0.00166145653158371 0.0054432170618606062 0 -0.0017360839179934536 0.005467137268793899 0 -0.0018092741335541359 0.0055552423660098858 0 -0.0018210697308304843 0.0054379594020474075 0 -0.0017360839179934536 0.005467137268793899 0 -0.0018092741335541359 0.0055552423660098858 0 -0.0019376420835617715 0.0054016920498925862 0 -0.0018210697308304843 0.0054379594020474075 0 -0.0018092741335541359 0.0055552423660098858 0 -0.0016302938564925337 0.0033951883639997864 0 -0.0016501973978563303 0.0033634951229643451 0 -0.0016068430040629606 0.0033227496535246665 0 -0.0016567830540354443 0.0034048114664975942 0 -0.0016302938564925337 0.0033951883639997864 0 -0.0016501973978563303 0.0033634951229643451 0 -0.0016941202315423271 0.0043677022397403511 0 -0.001791263880423195 0.0046208338536017773 0 -0.0016890652322431186 0.0033737514440600057 0 -0.0016567830540354443 0.0034048114664975942 0 -0.0016501973978563303 0.0033634951229643451 0 -0.0016068430040629606 0.0033227496535246665 0 -0.0016571029795373715 0.0032973279101628835 0 -0.001568749503818432 0.0032547930857786045 0 -0.0016501973978563303 0.0033634951229643451 0 -0.0016068430040629606 0.0033227496535246665 0 -0.0016571029795373715 0.0032973279101628835 0 -0.0016501973978563303 0.0033634951229643451 0 -0.0016571029795373715 0.0032973279101628835 0 -0.0016989744728438136 0.0033469151686710526 0 -0.0016571029795373715 0.0032973279101628835 0 -0.001568749503818432 0.0032547930857786045 0 -0.0016710213800777457 0.0032135616896398602 0 -0.0016302938564925337 0.0033951883639997864 0 -0.0016068430040629606 0.0033227496535246665 0 -0.0015546011163973627 0.0033203162170023447 0 -0.0017071994384313838 0.003277486551821101 0 -0.0017498233797141299 0.0032574258555101952 0 -0.0016710213800777457 0.0032135616896398602 0 -0.0016571029795373715 0.0032973279101628835 0 -0.0017071994384313838 0.003277486551821101 0 -0.0017111024283355937 0.0033133482305271046 0 -0.0016571029795373715 0.0032973279101628835 0 -0.0017071994384313838 0.003277486551821101 0 -0.0016710213800777457 0.0032135616896398602 0 -0.0017498233797141299 0.0032574258555101952 0 -0.0017531190674957104 0.0033128786478413973 0 -0.0017847678609782226 0.0032893655316508954 0 -0.0017071994384313838 0.003277486551821101 0 -0.0017498233797141299 0.0032574258555101952 0 -0.0017531190674957104 0.0033128786478413973 0 -0.0017529801516773932 0.0033808727973718496 0 -0.0017531190674957104 0.0033128786478413973 0 -0.0018201111987145959 0.0033261729123884223 0 -0.0017531190674957104 0.0033128786478413973 0 -0.0017329727553303401 0.0033432316751366713 0 -0.0017111024283355937 0.0033133482305271046 0 -0.0017071994384313838 0.003277486551821101 0 -0.0017531190674957104 0.0033128786478413973 0 -0.0017111024283355937 0.0033133482305271046 0 -0.0017529801516773932 0.0033808727973718496 0 -0.0017329727553303401 0.0033432316751366713 0 -0.0016989744728438136 0.0033469151686710526 0 -0.0017529801516773932 0.0033808727973718496 0 -0.0017531190674957104 0.0033128786478413973 0 -0.0017329727553303401 0.0033432316751366713 0 -0.0017329727553303401 0.0033432316751366713 0 -0.0016989744728438136 0.0033469151686710526 0 -0.0017111024283355937 0.0033133482305271046 0 -0.0016571029795373715 0.0032973279101628835 0 -0.0016989744728438136 0.0033469151686710526 0 -0.0017111024283355937 0.0033133482305271046 0 -0.0023044103166433736 0.0052415019919350722 0 -0.0022881534738336748 0.0052721790955823494 0 -0.0023344678141410486 0.0052650698382192057 0 -0.0019376420835617715 0.0054016920498925862 0 -0.0018092741335541359 0.0055552423660098858 0 -0.0021010955927685034 0.0054636820160487206 0 -0.001791263880423195 0.0046208338536017773 0 -0.0022331774000823989 0.0054465758329522752 0 -0.0022190162312396931 0.0052377149832337428 0 -0.0023044103166433736 0.0052415019919350722 0 -0.0022881534738336748 0.0052721790955823494 0 -0.001791263880423195 0.0046208338536017773 0 -0.0022441217641116359 0.0047724359346757858 0 -0.0019772271687603818 0.0040818475946931346 0 -0.0021100987465597701 0.0041022875903295522 0 -0.0020843712216978912 0.0041099080247610819 0 -0.0021100987465597701 0.0041022875903295522 0 -0.0020843712216978912 0.0041099080247610819 0 -0.0021920277094255578 0.0041545979346240052 0 -0.0023543381197685927 0.0030758287802300833 0 -0.0020221289709046008 0.0026029922722525822 0 -0.0015546011163973627 0.0033203162170023447 0 -0.0014999164033359387 0.0032743538003251601 0 -0.001568749503818432 0.0032547930857786045 0 -0.0016068430040629606 0.0033227496535246665 0 -0.0015546011163973627 0.0033203162170023447 0 -0.001568749503818432 0.0032547930857786045 0 -0.0022441217641116359 0.0047724359346757858 0 -0.0025568747544137231 0.0039174949498462074 0 -0.0022881534738336748 0.0052721790955823494 0 -0.0023341935712581849 0.005283032611324406 0 -0.0023344678141410486 0.0052650698382192057 0 -0.0017322293874029594 0.0036672214444620241 0 -0.0023543381197685927 0.0030758287802300833 0 -0.0021100987465597701 0.0041022875903295522 0 -0.0021920277094255578 0.0041545979346240052 0 -0.0022443040070273738 0.0041417011368535157 0 -0.0023543381197685927 0.0030758287802300833 0 -0.0025568747544137231 0.0039174949498462074 0 -0.0028228595102719732 0.0019348594677205473 0 -0.0027806093918117283 0.0020666812537356908 0 -0.0031058738701682841 0.0020920650582960162 0 -0.0028228595102719732 0.0019348594677205473 0 -0.0027806093918117283 0.0020666812537356908 0 -0.0025215485146557739 0.0019928558559741292 0 -0.0028278353665178897 0.0021885304355253477 0 -0.0027806093918117283 0.0020666812537356908 0 -0.0025106317042361795 0.0020201863926924673 0 -0.0028994755973852323 0.0021698556485656184 0 -0.0027806093918117283 0.0020666812537356908 0 -0.0031058738701682841 0.0020920650582960162 0 -0.0028994755973852323 0.0021698556485656184 0 -0.0028278353665178897 0.0021885304355253477 0 -0.0027806093918117283 0.0020666812537356908 0 -0.0028736472413307718 0.0019251351320531483 0 -0.0029317371373164757 0.0018495564184081502 0 -0.0027806093918117283 0.0020666812537356908 0 -0.0025215485146557739 0.0019928558559741292 0 -0.0025106317042361795 0.0020201863926924673 0 -0.0027874602762624412 0.0021651684070313382 0 -0.0025106317042361795 0.0020201863926924673 0 -0.0025353382707473367 0.0021369379872795964 0 -0.0029317371373164757 0.0018495564184081502 0 -0.0025160818874713927 0.0020951388784502707 0 -0.0025106317042361795 0.0020201863926924673 0 -0.0025353382707473367 0.0021369379872795964 0 -0.0023927841528757891 0.0021135053995995153 0 -0.0029317371373164757 0.0018495564184081502 0 -0.0028098763646729674 0.0014293723865332556 0 -0.0027874602762624412 0.0021651684070313382 0 -0.0025353382707473367 0.0021369379872795964 0 -0.0024507102081206367 0.0022489981618268261 0 -0.0032772780293346786 0.00076606396142066345 0 -0.0029664755401031667 0.00083282968649385568 0 -0.0032475117099741353 0.0010536278478486788 0 -0.0032772780293346786 0.00076606396142066345 0 -0.0035290876841716189 0.00090782588943263086 0 -0.0032475117099741353 0.0010536278478486788 0 -0.0016710213800777457 0.0032135616896398602 0 -0.0018035731408081437 0.0031552396714191661 0 -0.0017812370855642358 0.0032083819265294978 0 -0.0022592530342051228 0.0020469256355461546 0 -0.0023927841528757891 0.0021135053995995153 0 -0.0021169433753782502 0.002331126577329951 0 -0.0017498233797141299 0.0032574258555101952 0 -0.0016710213800777457 0.0032135616896398602 0 -0.0017812370855642358 0.0032083819265294978 0 -0.0022592530342051228 0.0020469256355461546 0 -0.0021169433753782502 0.002331126577329951 0 -0.0020024970464011661 0.0020987755741635533 0 -0.0019776278082763764 0.0026211507928589049 0 -0.0018931393165428001 0.0027756226761667829 0 -0.0025106317042361795 0.0020201863926924673 0 -0.0022592530342051228 0.0020469256355461546 0 -0.0023927841528757891 0.0021135053995995153 0 -0.0025215485146557739 0.0019928558559741292 0 -0.0025106317042361795 0.0020201863926924673 0 -0.0022592530342051228 0.0020469256355461546 0 -0.0020221289709046008 0.0026029922722525822 0 -0.0019776278082763764 0.0026211507928589049 0 -0.0025353382707473367 0.0021369379872795964 0 -0.0023927841528757891 0.0021135053995995153 0 -0.0024507102081206367 0.0022489981618268261 0 -0.0023927841528757891 0.0021135053995995153 0 -0.0024507102081206367 0.0022489981618268261 0 -0.0021169433753782502 0.002331126577329951 0 -0.0028098763646729674 0.0014293723865332556 0 -0.0020782629717144099 0.0020953605602067374 0 -0.0020782629717144099 0.0020953605602067374 0 -0.0018931393165428001 0.0027756226761667829 0 -0.0015460348480720004 0.0028218684061131791 0 -0.0018105396098021624 0.0029455711069029935 0 -0.001852973070009991 0.0027495190050117833 0 -0.0015460348480720004 0.0028218684061131791 0 -0.0018105396098021624 0.0029455711069029935 0 -0.001685010946433464 0.0031161228804704533 0 -0.0020782629717144099 0.0020953605602067374 0 -0.001618049882630111 0.0028481229413237861 0 -0.0018947938674446516 0.0031828048547270561 0 -0.0018079102666771008 0.0031637775494366511 0 -0.0019501868569770603 0.0030781048473722339 0 -0.0018105396098021624 0.0029455711069029935 0 -0.001685010946433464 0.0031161228804704533 0 -0.0019501868569770603 0.0030781048473722339 0 -0.0018017172345029808 0.0031509388862300883 0 -0.0018079102666771008 0.0031637775494366511 0 -0.0019501868569770603 0.0030781048473722339 0 -0.0018931393165428001 0.0027756226761667829 0 -0.0018634936862524868 0.0031019886630951699 0 -0.0018931393165428001 0.0027756226761667829 0 -0.0019002582528683208 0.0028043686423719744 0 -0.0018947938674446516 0.0031828048547270561 0 -0.0018409417083333044 0.003210026194202356 0 -0.0018079102666771008 0.0031637775494366511 0 -0.0018409417083333044 0.003210026194202356 0 -0.0017812370855642358 0.0032083819265294978 0 -0.001815975422292048 0.0032634968909751095 0 -0.0018409417083333044 0.003210026194202356 0 -0.0017812370855642358 0.0032083819265294978 0 -0.0018079102666771008 0.0031637775494366511 0 -0.0018035731408081437 0.0031552396714191661 0 -0.0017812370855642358 0.0032083819265294978 0 -0.0018079102666771008 0.0031637775494366511 0 -0.0018947938674446516 0.0031828048547270561 0 -0.0019899135624360546 0.0031832655240241065 0 -0.0019501868569770603 0.0030781048473722339 0 -0.0019501868569770603 0.0030781048473722339 0 -0.0020439083674137918 0.003086708897614622 0 -0.0019798520325926949 0.0029009528324390821 0 -0.0019899135624360546 0.0031832655240241065 0 -0.0019501868569770603 0.0030781048473722339 0 -0.0020439083674137918 0.003086708897614622 0 -0.0019899135624360546 0.0031832655240241065 0 -0.0020439083674137918 0.003086708897614622 0 -0.0020926460319844538 0.0030951690072170161 0 -0.0020439083674137918 0.003086708897614622 0 -0.0019798520325926949 0.0029009528324390821 0 -0.0021237602094398254 0.0029741947640499994 0 -0.0019798520325926949 0.0029009528324390821 0 -0.0021237602094398254 0.0029741947640499994 0 -0.0020700554990818465 0.0026091107913706118 0 -0.0018105396098021624 0.0029455711069029935 0 -0.0019501868569770603 0.0030781048473722339 0 -0.0019798520325926949 0.0029009528324390821 0 -0.0018105396098021624 0.0029455711069029935 0 -0.0019798520325926949 0.0029009528324390821 0 -0.001852973070009991 0.0027495190050117833 0 -0.0010037813733921252 0.0031222504704830449 0 -0.0014869022568610032 0.0027854033812124124 0 -0.00014523322296195037 0.0034471131989117563 0 -0.00034621255880850374 0.0030468135661560996 0 0.00085486187855317709 0.0037746761977567782 0 0.00098253318239036611 0.0038109454938552133 0 0.00086082316458559172 0.0037600520491576808 0 -0.00014523322296195037 0.0034471131989117563 0 0.00064822421481335404 0.0036172550252042126 0 -0.00088679026342904836 0.0032157382499411356 0 -0.00085246914410261907 0.0029507442462779281 0 -0.00092185038431849239 0.0029474824986423305 0 0.00085486187855317709 0.0037746761977567782 0 0.00098253318239036611 0.0038109454938552133 0 0.00095062598783246511 0.0039194177718878051 0 -0.00084686291440398307 0.0032709787521288114 0 -0.00088679026342904836 0.0032157382499411356 0 -0.00085246914410261907 0.0029507442462779281 0 -0.00026010749443938964 0.0032820129223244121 0 -0.00031348700226258166 0.0032070366627239776 0 -0.00028008284270056153 0.0034492491238987187 0 -0.00014523322296195037 0.0034471131989117563 0 -0.00016996628551437141 0.0035077197599837724 0 -0.0010037813733921252 0.0031222504704830449 0 -0.00014523322296195037 0.0034471131989117563 0 0.0011351979839566663 0.0037614472701363922 0 0.00098253318239036611 0.0038109454938552133 0 0.0010319557150683136 0.0037088287019868909 0 0.0010319557150683136 0.0037088287019868909 0 0.00086082316458559172 0.0037600520491576808 0 0.0010089238274872032 0.0035858781549721495 0 0.00098253318239036611 0.0038109454938552133 0 0.0010319557150683136 0.0037088287019868909 0 0.00086082316458559172 0.0037600520491576808 0 -0.00016996628551437141 0.0035077197599837724 0 0.00089997668043098828 0.0043860510191960122 0 0.00095579242120799883 0.0038258184668435715 0 0.00086082316458559172 0.0037600520491576808 0 0.00086520484623711863 0.0043699201304978385 0 0.00084677432082173063 0.003768230387151782 0 0.00070411929458435985 0.0040056798444549546 0 0.00085486187855317709 0.0037746761977567782 0 0.00095579242120799883 0.0038258184668435715 0 0.00086082316458559172 0.0037600520491576808 0 -0.0016761187634046011 0.0028229032294977878 0 -0.0010037813733921252 0.0031222504704830449 0 -0.0020439083674137918 0.003086708897614622 0 -0.0020802363452258107 0.0030340257329091345 0 -0.0020926460319844538 0.0030951690072170161 0 -0.0010037813733921252 0.0031222504704830449 0 -0.00016996628551437141 0.0035077197599837724 0 0.00086520484623711863 0.0043699201304978385 0 0.00039301678970415081 0.0043815014097279541 0 0.00047930878776611451 0.004797054054197919 0 0.00086082316458559172 0.0037600520491576808 0 0.00086520484623711863 0.0043699201304978385 0 0.00039301678970415081 0.0043815014097279541 0 0.00085249541057262851 0.0036556950992103193 0 0.00080298734408194687 0.0043272577762472073 0 0.0010095622569644472 0.0045256628612755914 0 -0.00016996628551437141 0.0035077197599837724 0 -0.0005086594834981011 0.0038859894218671001 0 0.0011299506989306204 0.003640672763979206 0 0.0010319557150683136 0.0037088287019868909 0 0.0010089238274872032 0.0035858781549721495 0 -4.3761429911640402e-05 0.0050983129622093112 0 0.00039301678970415081 0.0043815014097279541 0 0.00047930878776611451 0.004797054054197919 0 0.00049981529228715078 0.0041862701636685151 0 0.00070411929458435985 0.0040056798444549546 0 0.00039328425569429325 0.0051684156549276893 0 0.00047930878776611451 0.004797054054197919 0 0.00076941787942170559 0.0049733569138701028 0 0.00089997668043098828 0.0043860510191960122 0 0.00076684788132403553 0.0049073361989399843 0 0.00086520484623711863 0.0043699201304978385 0 0.00047930878776611451 0.004797054054197919 0 0.00076941787942170559 0.0049733569138701028 0 0.00080298734408194687 0.0043272577762472073 0 0.00076941787942170559 0.0049733569138701028 0 0.0010095622569644472 0.0045256628612755914 0 0.0011313121587942087 0.0053394699296829733 0 0.00076941787942170559 0.0049733569138701028 0 0.0010095622569644472 0.0045256628612755914 0 -0.0009339465824380371 0.0046479794626093293 0 -0.0005086594834981011 0.0038859894218671001 0 -0.0019833876035165194 0.0036156088136159218 0 -0.0020308700598181862 0.0033760509324301286 0 -0.0018882636994508703 0.0034183397628339772 0 -0.0017529801516773932 0.0033808727973718496 0 -0.0018882636994508703 0.0034183397628339772 0 -0.0018201111987145959 0.0033261729123884223 0 -0.0017962001212977927 0.0035102873112349206 0 -0.0017529801516773932 0.0033808727973718496 0 -0.0018882636994508703 0.0034183397628339772 0 -0.0018882636994508703 0.0034183397628339772 0 -0.0018201111987145959 0.0033261729123884223 0 -0.0018981809397957111 0.003283237527040688 0 -0.0017531190674957104 0.0033128786478413973 0 -0.0018201111987145959 0.0033261729123884223 0 -0.0017847678609782226 0.0032893655316508954 0 -0.0017498233797141299 0.0032574258555101952 0 -0.0017847678609782226 0.0032893655316508954 0 -0.001815975422292048 0.0032634968909751095 0 -0.0017498233797141299 0.0032574258555101952 0 -0.0017812370855642358 0.0032083819265294978 0 -0.001815975422292048 0.0032634968909751095 0 -0.0018201111987145959 0.0033261729123884223 0 -0.0017847678609782226 0.0032893655316508954 0 -0.001815975422292048 0.0032634968909751095 0 -0.0018947938674446516 0.0031828048547270561 0 -0.0018409417083333044 0.003210026194202356 0 -0.0018981809397957111 0.003283237527040688 0 -0.0018409417083333044 0.003210026194202356 0 -0.001815975422292048 0.0032634968909751095 0 -0.0018981809397957111 0.003283237527040688 0 -0.0018201111987145959 0.0033261729123884223 0 -0.001815975422292048 0.0032634968909751095 0 -0.0018981809397957111 0.003283237527040688 0 -0.0019899135624360546 0.0031832655240241065 0 -0.0020926460319844538 0.0030951690072170161 0 -0.0020308700598181862 0.0033760509324301286 0 -0.0019899135624360546 0.0031832655240241065 0 -0.0020308700598181862 0.0033760509324301286 0 -0.0018981809397957111 0.003283237527040688 0 -0.0018947938674446516 0.0031828048547270561 0 -0.0019899135624360546 0.0031832655240241065 0 -0.0018981809397957111 0.003283237527040688 0 -0.0020308700598181862 0.0033760509324301286 0 -0.0018882636994508703 0.0034183397628339772 0 -0.0018981809397957111 0.003283237527040688 0 -0.0044785114443782409 0.0025440857094739117 0 -0.0044535022120743978 0.0025067088426395023 0 -0.0044673393198048361 0.0024511720744583316 0 -0.004460899658313127 0.0025787630327660099 0 -0.0044968562780296631 0.002559522335894869 0 -0.0044673393198048361 0.0024511720744583316 0 -0.0038131564727432172 0.0030432962024668857 0 -0.0034411646450005088 0.0035456475365563157 0 -0.0038076957637618405 0.0030453839478642424 0 -0.0039123130839304222 0.0029901894812045999 0 -0.0039134343430200962 0.0031882463416057147 0 -0.0042986622650535251 0.0027191683002316422 0 -0.0038131564727432172 0.0030432962024668857 0 -0.0042986622650535251 0.0027191683002316422 0 -0.0040803624216261374 0.0030267120083022833 0 -0.0044785114443782409 0.0025440857094739117 0 -0.0044535022120743978 0.0025067088426395023 0 -0.0044339238879733539 0.0025307081649761838 0 -0.0038131564727432172 0.0030432962024668857 0 -0.003346691287897548 0.0033858988663102623 0 -0.0032130571497638455 0.0036603333112652683 0 -0.0031540283853116161 0.0036446277600376237 0 -0.0031406040689826473 0.0036962392307295804 0 -0.0031353677913933428 0.0037520143669579043 0 -0.0028241284457817097 0.004195208484816435 0 -0.0032130571497638455 0.0036603333112652683 0 -0.0031728465594682851 0.0036206392665600012 0 -0.0032127279970194968 0.0036122962664103227 0 -0.0032130571497638455 0.0036603333112652683 0 -0.0031540283853116161 0.0036446277600376237 0 -0.0031728465594682851 0.0036206392665600012 0 -0.0028241284457817097 0.004195208484816435 0 -0.0034411646450005088 0.0035456475365563157 0 -0.0028241284457817097 0.004195208484816435 0 -0.0029917320486659996 0.0043638232080467736 0 -0.0031128464369349902 0.0040202929238898006 0 -0.0030843020332503531 0.0040601709963211064 0 -0.003083891926955656 0.0040257634485155137 0 -0.0023923104361088078 0.0052844838207841884 0 -0.0023896612040402278 0.0052795067188910767 0 -0.0023778076268695424 0.0052839367928660961 0 -0.0023923104361088078 0.0052844838207841884 0 -0.0023896612040402278 0.0052795067188910767 0 -0.0024009344396233945 0.0052765966175131653 0 -0.0036588753050656952 0.0036103786093218296 0 -0.0035796018035289339 0.0034936041838232006 0 -0.0035893541850130746 0.0037003733309270061 0 -0.0043490262661454995 0.002641921652752224 0 -0.0043471320320900052 0.0026347009758529503 0 -0.0043568915616454479 0.002623991761772527 0 -0.0036588753050656952 0.0036103786093218296 0 -0.0036575937810458987 0.0034794911521186943 0 -0.0035796018035289339 0.0034936041838232006 0 -0.0029917320486659996 0.0043638232080467736 0 -0.0034411646450005088 0.0035456475365563157 0 -0.0038076957637618405 0.0030453839478642424 0 -0.0039134343430200962 0.0031882463416057147 0 -0.0038144399722842334 0.0032063631548790747 0 -0.0034411646450005088 0.0035456475365563157 0 -0.0040803624216261374 0.0030267120083022833 0 -0.0044119795740167672 0.0026244085056563019 0 -0.0043886719115049109 0.0026408339594252324 0 -0.0044145049579440163 0.0026685795612685506 0 -0.0040803624216261374 0.0030267120083022833 0 -0.0037235884931343813 0.0034334690221026454 0 -0.0040803624216261374 0.0030267120083022833 0 -0.0044874164435888438 0.0025713134334366876 0 -0.0043886719115049109 0.0026408339594252324 0 -0.004373149718156541 0.0026510484617501763 0 -0.0044145049579440163 0.0026685795612685506 0 -0.0044119795740167672 0.0026244085056563019 0 -0.0043886719115049109 0.0026408339594252324 0 -0.0043568915616454479 0.002623991761772527 0 -0.0042986622650535251 0.0027191683002316422 0 -0.0044124384732986965 0.002572449294786853 0 -0.0043490262661454995 0.002641921652752224 0 -0.0043568915616454479 0.002623991761772527 0 -0.0043567309898444031 0.0026182691703952521 0 -0.0043886719115049109 0.0026408339594252324 0 -0.004373149718156541 0.0026510484617501763 0 -0.0043568915616454479 0.002623991761772527 0 -0.004373149718156541 0.0026510484617501763 0 -0.0043541082354261245 0.002641866326316359 0 -0.0043568915616454479 0.002623991761772527 0 -0.0043541082354261245 0.002641866326316359 0 -0.0043568915616454479 0.002623991761772527 0 -0.0043567309898444031 0.0026182691703952521 0 -0.0043567309898444031 0.0026182691703952521 0 -0.0043688656741813544 0.0025662096546471454 0 -0.0044068302915532716 0.0025563813705414638 0 -0.0043295046113912801 0.0026198802488440385 0 -0.0043295240265012304 0.0026516390025602202 0 -0.0043014659997217446 0.0026126562089265311 0 -0.0043541082354261245 0.002641866326316359 0 -0.0043567309898444031 0.0026182691703952521 0 -0.0043295240265012304 0.0026516390025602202 0 -0.0043295046113912801 0.0026198802488440385 0 -0.0043567309898444031 0.0026182691703952521 0 -0.0043295240265012304 0.0026516390025602202 0 -0.0043567309898444031 0.0026182691703952521 0 -0.0043460686391635127 0.0025882180400874531 0 -0.0043688656741813544 0.0025662096546471454 0 -0.0043295046113912801 0.0026198802488440385 0 -0.0043567309898444031 0.0026182691703952521 0 -0.0043460686391635127 0.0025882180400874531 0 -0.0043244327922969204 0.0025878805985369673 0 -0.0043014659997217446 0.0026126562089265311 0 -0.0043035199196115462 0.002568331798776937 0 -0.0043295046113912801 0.0026198802488440385 0 -0.0043460686391635127 0.0025882180400874531 0 -0.0043244327922969204 0.0025878805985369673 0 -0.0043295046113912801 0.0026198802488440385 0 -0.0043244327922969204 0.0025878805985369673 0 -0.0043014659997217446 0.0026126562089265311 0 -0.0043460686391635127 0.0025882180400874531 0 -0.0043244327922969204 0.0025878805985369673 0 -0.0043308801237687969 0.0025487597280023132 0 -0.0043308801237687969 0.0025487597280023132 0 -0.0043035199196115462 0.002568331798776937 0 -0.0042902871239310593 0.0025209975065348658 0 -0.0043244327922969204 0.0025878805985369673 0 -0.0043308801237687969 0.0025487597280023132 0 -0.0043035199196115462 0.002568331798776937 0 -0.0043308801237687969 0.0025487597280023132 0 -0.0043688656741813544 0.0025662096546471454 0 -0.0043598198898748943 0.0025157595951020148 0 -0.0043460686391635127 0.0025882180400874531 0 -0.0043308801237687969 0.0025487597280023132 0 -0.0043688656741813544 0.0025662096546471454 0 -0.0043598198898748943 0.0025157595951020148 0 -0.0043254664029865036 0.0025068736617350354 0 -0.0043455918297452623 0.0024723820893883274 0 -0.0043308801237687969 0.0025487597280023132 0 -0.0043598198898748943 0.0025157595951020148 0 -0.0043254664029865036 0.0025068736617350354 0 -0.0043254664029865036 0.0025068736617350354 0 -0.0042902871239310593 0.0025209975065348658 0 -0.0043012412609464484 0.0024759033387423651 0 -0.0043308801237687969 0.0025487597280023132 0 -0.0043254664029865036 0.0025068736617350354 0 -0.0042902871239310593 0.0025209975065348658 0 -0.0044785114443782409 0.0025440857094739117 0 -0.0043567309898444031 0.0026182691703952521 0 -0.0044068302915532716 0.0025563813705414638 0 -0.0044068302915532716 0.0025563813705414638 0 -0.0043961910104445296 0.0025249015288000744 0 -0.0044339238879733539 0.0025307081649761838 0 -0.0044785114443782409 0.0025440857094739117 0 -0.0044068302915532716 0.0025563813705414638 0 -0.0044339238879733539 0.0025307081649761838 0 -0.0043688656741813544 0.0025662096546471454 0 -0.0044068302915532716 0.0025563813705414638 0 -0.0043961910104445296 0.0025249015288000744 0 -0.0043688656741813544 0.0025662096546471454 0 -0.0043598198898748943 0.0025157595951020148 0 -0.0043961910104445296 0.0025249015288000744 0 -0.0043598198898748943 0.0025157595951020148 0 -0.0043961910104445296 0.0025249015288000744 0 -0.0044034703368843429 0.002480915877284026 0 -0.0043961910104445296 0.0025249015288000744 0 -0.0044327227089446504 0.0025026685557438312 0 -0.0044034703368843429 0.002480915877284026 0 -0.0043961910104445296 0.0025249015288000744 0 -0.0044339238879733539 0.0025307081649761838 0 -0.0044327227089446504 0.0025026685557438312 0 -0.0044535022120743978 0.0025067088426395023 0 -0.0044339238879733539 0.0025307081649761838 0 -0.0044327227089446504 0.0025026685557438312 0 -0.0044327227089446504 0.0025026685557438312 0 -0.0044034703368843429 0.002480915877284026 0 -0.0044673393198048361 0.0024511720744583316 0 -0.0044034703368843429 0.002480915877284026 0 -0.0043976411378009858 0.0024387813007341703 0 -0.0044673393198048361 0.0024511720744583316 0 -0.0044034703368843429 0.002480915877284026 0 -0.0043976411378009858 0.0024387813007341703 0 -0.0043455918297452623 0.0024723820893883274 0 -0.0043976411378009858 0.0024387813007341703 0 -0.0043455918297452623 0.0024723820893883274 0 -0.0042929529236365822 0.0024136719432215625 0 -0.0044112804941241583 0.0023909899712343452 0 -0.0042784155587378995 0.0024136228920649165 0 -0.0043455918297452623 0.0024723820893883274 0 -0.0043012412609464484 0.0024759033387423651 0 -0.0042929529236365822 0.0024136719432215625 0 -0.0043254664029865036 0.0025068736617350354 0 -0.0043455918297452623 0.0024723820893883274 0 -0.0043012412609464484 0.0024759033387423651 0 -0.0043598198898748943 0.0025157595951020148 0 -0.0044034703368843429 0.002480915877284026 0 -0.0043455918297452623 0.0024723820893883274 0 -0.004350265245386311 0.0023725718751218716 0 -0.0043224136873040078 0.0023507726325702888 0 -0.0042929529236365822 0.0024136719432215625 0 -0.004350265245386311 0.0023725718751218716 0 -0.0043473338860883269 0.0023475360009072893 0 -0.0043531334782146575 0.0023535176915275599 0 -0.004350265245386311 0.0023725718751218716 0 -0.0043224136873040078 0.0023507726325702888 0 -0.0043473338860883269 0.0023475360009072893 0 -0.0043473338860883269 0.0023475360009072893 0 -0.0043531334782146575 0.0023535176915275599 0 -0.0043603204564451265 0.0023487957806042612 0 -0.0043322081980620882 0.001899229686637621 0 -0.0042386784767338105 0.0019597833649860879 0 -0.0043454277187750644 0.0023482413817569425 0 -0.0043110075804821081 0.0023673041553064055 0 -0.0043603204564451265 0.0023487957806042612 0 -0.0043454277187750644 0.0023482413817569425 0 -0.0043531334782146575 0.0023535176915275599 0 -0.0043603204564451265 0.0023487957806042612 0 -0.0043454277187750644 0.0023482413817569425 0 -0.0043531334782146575 0.0023535176915275599 0 -0.0043475711661247812 0.0023473803745702295 0 -0.0044968562780296631 0.002559522335894869 0 -0.0044673393198048361 0.0024511720744583316 0 -0.0044973257785769225 0.0024509889141469412 0 -0.0044112804941241583 0.0023909899712343452 0 -0.0042252117522040313 0.0025745852628224386 0 -0.0042986622650535251 0.0027191683002316422 0 -0.0044890947111357743 0.002401339613837671 0 -0.0038131564727432172 0.0030432962024668857 0 -0.0042252117522040313 0.0025745852628224386 0 -0.004350265245386311 0.0023725718751218716 0 -0.0043531334782146575 0.0023535176915275599 0 -0.0043475711661247812 0.0023473803745702295 0 -0.0043976411378009858 0.0024387813007341703 0 -0.0044673393198048361 0.0024511720744583316 0 -0.0044973257785769225 0.0024509889141469412 0 -0.0042419613849254195 0.0024737837755531688 0 -0.0042252117522040313 0.0025745852628224386 0 -0.0044535022120743978 0.0025067088426395023 0 -0.0044327227089446504 0.0025026685557438312 0 -0.0044673393198048361 0.0024511720744583316 0 -0.0038818626920789638 0.0030283018441187048 0 -0.0037526059434185516 0.0029547553932973663 0 -0.0037538613207350234 0.0030254023359840968 0 -0.0042252117522040313 0.0025745852628224386 0 -0.0040648585113438052 0.0026806373771647613 0 -0.0043464474287829638 0.0023374645871483018 0 -0.0042975001644603543 0.0023260956544082982 0 -0.0043225751037848656 0.0023468992117624612 0 -0.0038789235862016066 0.0028892234651021372 0 -0.0038818626920789638 0.0030283018441187048 0 -0.0037526059434185516 0.0029547553932973663 0 -0.0043454277187750644 0.0023482413817569425 0 -0.0043464474287829638 0.0023374645871483018 0 -0.0043225751037848656 0.0023468992117624612 0 -0.0042975001644603543 0.0023260956544082982 0 -0.0043225751037848656 0.0023468992117624612 0 -0.0043110075804821081 0.0023673041553064055 0 -0.0043454277187750644 0.0023482413817569425 0 -0.0043225751037848656 0.0023468992117624612 0 -0.0043110075804821081 0.0023673041553064055 0 -0.0043322081980620882 0.001899229686637621 0 -0.0037516881123400973 0.0026351263174437438 0 -0.0043110075804821081 0.0023673041553064055 0 -0.0041964808904087743 0.0023403440013744807 0 -0.0042238233472401462 0.0023250702941900688 0 -0.0042110238449440526 0.0015881784836894524 0 -0.0042378672130837323 0.0016091399722505078 0 -0.0042319829173803405 0.0015776452889326683 0 -0.0037378304162999768 0.0020042622629355493 0 -0.004191348186293028 0.0013669880709115366 0 -0.0040197479463609121 0.0012476423006697991 0 -0.0040307086022398969 0.0012803992819367142 0 -0.0040641726101805029 0.001271851413941193 0 -0.0042378672130837323 0.0016091399722505078 0 -0.0042474044018279084 0.0016039445344315146 0 -0.0042319829173803405 0.0015776452889326683 0 -0.0037516881123400973 0.0026351263174437438 0 -0.0037378304162999768 0.0020042622629355493 0 -0.0030504956539960273 0.0037453163269567723 0 -0.0030115018001023413 0.0036953996299207786 0 -0.0029547068272733974 0.003714877284451999 0 -0.0037516881123400973 0.0026351263174437438 0 -0.0035511449029015279 0.0031062476503559478 0 -0.0030534418416679164 0.0037304409818885642 0 -0.0030417915896820795 0.0037046764075515486 0 -0.0030742988534689123 0.0037309062864467118 0 -0.0032479461568426264 0.0032461253016080804 0 -0.0035511449029015279 0.0031062476503559478 0 -0.0030504956539960273 0.0037453163269567723 0 -0.0030534418416679164 0.0037304409818885642 0 -0.0030837163364027132 0.0037297281400906711 0 -0.0030504956539960273 0.0037453163269567723 0 -0.0030534418416679164 0.0037304409818885642 0 -0.0030115018001023413 0.0036953996299207786 0 -0.0030534418416679164 0.0037304409818885642 0 -0.0030115018001023413 0.0036953996299207786 0 -0.0030417915896820795 0.0037046764075515486 0 -0.0030115018001023413 0.0036953996299207786 0 -0.0030417915896820795 0.0037046764075515486 0 -0.0030625115190882931 0.0036865819666144824 0 -0.0030417915896820795 0.0037046764075515486 0 -0.0030742988534689123 0.0037309062864467118 0 -0.0030625115190882931 0.0036865819666144824 0 -0.0031406040689826473 0.0036962392307295804 0 -0.0030742988534689123 0.0037309062864467118 0 -0.0031035760129776357 0.0036749991993315543 0 -0.0037526059434185516 0.0029547553932973663 0 -0.0037538613207350234 0.0030254023359840968 0 -0.0036233900164322221 0.003021058306510345 0 -0.0030742988534689123 0.0037309062864467118 0 -0.0031035760129776357 0.0036749991993315543 0 -0.0030625115190882931 0.0036865819666144824 0 -0.0040648585113438052 0.0026806373771647613 0 -0.0035511449029015279 0.0031062476503559478 0 -0.003346691287897548 0.0033858988663102623 0 -0.0035511449029015279 0.0031062476503559478 0 -0.0042975001644603543 0.0023260956544082982 0 -0.0043110075804821081 0.0023673041553064055 0 -0.0042238233472401462 0.0023250702941900688 0 -0.0028994755973852323 0.0021698556485656184 0 -0.0028294688745871166 0.0021865763201463287 0 -0.0031705104863668137 0.0023643234846735788 0 -0.0029317371373164757 0.0018495564184081502 0 -0.003547120718039783 0.0012532700517073391 0 -0.0028994755973852323 0.0021698556485656184 0 -0.0031705104863668137 0.0023643234846735788 0 -0.0031058738701682841 0.0020920650582960162 0 -0.0031705104863668137 0.0023643234846735788 0 -0.0033881583950677702 0.0022509908896422882 0 -0.0031058738701682841 0.0020920650582960162 0 -0.0039848338220714718 0.0012629946392544026 0 -0.0040197479463609121 0.0012476423006697991 0 -0.0040307086022398969 0.0012803992819367142 0 -0.003547120718039783 0.0012532700517073391 0 -0.0037378304162999768 0.0020042622629355493 0 -0.0033415834751279001 0.0030342099843041785 0 -0.0031932709677714179 0.0027984720759834688 0 -0.0030315459474798646 0.0028616043238127108 0 -0.0037378304162999768 0.0020042622629355493 0 -0.003068472299629638 0.0024672883157859154 0 -0.0037516881123400973 0.0026351263174437438 0 -0.0030434622027713486 0.0032452152801036777 0 -0.0035278426131040148 0.0029360713629470662 0 -0.0033415834751279001 0.0030342099843041785 0 -0.0031932709677714179 0.0027984720759834688 0 -0.0030434622027713486 0.0032452152801036777 0 -0.0025568747544137231 0.0039174949498462074 0 -0.0031932709677714179 0.0027984720759834688 0 -0.0030315459474798646 0.0028616043238127108 0 -0.0028580013919802211 0.0026637693216338331 0 -0.0023543381197685927 0.0030758287802300833 0 -0.003068472299629638 0.0024672883157859154 0 -0.0027210245192043308 0.0026914540231288745 0 -0.0030315459474798646 0.0028616043238127108 0 -0.0028580013919802211 0.0026637693216338331 0 -0.0029547068272733974 0.003714877284451999 0 -0.0028518444284352197 0.0036766345808007996 0 -0.0029717426762539308 0.003655025037610669 0 -0.0023341935712581849 0.005283032611324406 0 -0.0023642615471667883 0.005277468093025723 0 -0.0023344678141410486 0.0052650698382192057 0 -0.0025568747544137231 0.0039174949498462074 0 -0.0026665568624388235 0.0045191037025228871 0 -0.0030115018001023413 0.0036953996299207786 0 -0.0029547068272733974 0.003714877284451999 0 -0.0029717426762539308 0.003655025037610669 0 -0.0023642615471667883 0.005277468093025723 0 -0.0023539977878444026 0.0052632711089027921 0 -0.0023621467478138801 0.0052906778690468351 0 -0.0023044103166433736 0.0052415019919350722 0 -0.0023344678141410486 0.0052650698382192057 0 -0.0023539977878444026 0.0052632711089027921 0 -0.0023642615471667883 0.005277468093025723 0 -0.0023344678141410486 0.0052650698382192057 0 -0.0023539977878444026 0.0052632711089027921 0 -0.0022331774000823989 0.0054465758329522752 0 -0.0023022749681476311 0.0053042226019325983 0 -0.0031540283853116161 0.0036446277600376237 0 -0.0030762766813705218 0.0036408129219755035 0 -0.0031035760129776357 0.0036749991993315543 0 -0.0028241284457817097 0.004195208484816435 0 -0.0027109622372396302 0.0044838690631373501 0 -0.0031540283853116161 0.0036446277600376237 0 -0.0031698905943240547 0.003625789963534918 0 -0.0030762766813705218 0.0036408129219755035 0 -0.0031540283853116161 0.0036446277600376237 0 -0.0031406040689826473 0.0036962392307295804 0 -0.0031035760129776357 0.0036749991993315543 0 -0.0030762766813705218 0.0036408129219755035 0 -0.0031035760129776357 0.0036749991993315543 0 -0.0030625115190882931 0.0036865819666144824 0 -0.0030115018001023413 0.0036953996299207786 0 -0.0029717426762539308 0.003655025037610669 0 -0.0030762766813705218 0.0036408129219755035 0 -0.0026665568624388235 0.0045191037025228871 0 -0.0027109622372396302 0.0044838690631373501 0 -0.0030115018001023413 0.0036953996299207786 0 -0.0030762766813705218 0.0036408129219755035 0 -0.0030625115190882931 0.0036865819666144824 0 -0.0023642615471667883 0.005277468093025723 0 -0.0023701399522085545 0.0052857969800037107 0 -0.0023621467478138801 0.0052906778690468351 0 -0.0023701399522085545 0.0052857969800037107 0 -0.0023778076268695424 0.0052839367928660961 0 -0.0023621467478138801 0.0052906778690468351 0 -0.0023923104361088078 0.0052844838207841884 0 -0.0023701399522085545 0.0052857969800037107 0 -0.0023778076268695424 0.0052839367928660961 0 -0.002382067116819926 0.0052751229776478708 0 -0.0023621467478138801 0.0052906778690468351 0 -0.0023578284262422622 0.0052677154473193127 0 -0.0023778076268695424 0.0052839367928660961 0 -0.002382067116819926 0.0052751229776478708 0 -0.0023621467478138801 0.0052906778690468351 0 -0.0023621467478138801 0.0052906778690468351 0 -0.0023578284262422622 0.0052677154473193127 0 -0.0023136525712611905 0.0052826569242025367 0 -0.0023578284262422622 0.0052677154473193127 0 -0.0023136525712611905 0.0052826569242025367 0 -0.0023378593432049326 0.0052400653168545603 0 -0.0023578284262422622 0.0052677154473193127 0 -0.0023776600844866995 0.0052451691668594733 0 -0.0023378593432049326 0.0052400653168545603 0 -0.002382067116819926 0.0052751229776478708 0 -0.0023578284262422622 0.0052677154473193127 0 -0.0023776600844866995 0.0052451691668594733 0 -0.0021010955927685034 0.0054636820160487206 0 -0.0022752797661785311 0.0053682891871522616 0 -0.0022060588984161929 0.0053155406532773919 0 -0.0022752797661785311 0.0053682891871522616 0 -0.0022060588984161929 0.0053155406532773919 0 -0.0023136525712611905 0.0052826569242025367 0 -0.0022752797661785311 0.0053682891871522616 0 -0.0023621467478138801 0.0052906778690468351 0 -0.0023136525712611905 0.0052826569242025367 0 -0.0023022749681476311 0.0053042226019325983 0 -0.0023593214598746416 0.0052974895482613919 0 -0.0023136525712611905 0.0052826569242025367 0 -0.0022652898367270225 0.0052275643522522583 0 -0.0023378593432049326 0.0052400653168545603 0 -0.0021324461937920159 0.0052399070195737613 0 -0.0022060588984161929 0.0053155406532773919 0 -0.0022652898367270225 0.0052275643522522583 0 -0.0022060588984161929 0.0053155406532773919 0 -0.0023136525712611905 0.0052826569242025367 0 -0.0022652898367270225 0.0052275643522522583 0 -0.0022652898367270225 0.0052275643522522583 0 -0.0023023195417411751 0.0051929117844824613 0 -0.0023263514242212423 0.0052113637116716289 0 -0.0022652898367270225 0.0052275643522522583 0 -0.0023378593432049326 0.0052400653168545603 0 -0.0023263514242212423 0.0052113637116716289 0 -0.0023023195417411751 0.0051929117844824613 0 -0.0023263514242212423 0.0052113637116716289 0 -0.0023320535641287105 0.0052042220560106905 0 -0.0020678149931256645 0.0052106462188463683 0 -0.0023757697106939974 0.0051771877783747507 0 -0.0023079322058535434 0.0052012852193734057 0 -0.0023023195417411751 0.0051929117844824613 0 -0.0023081963135281464 0.0052005345552047404 0 -0.0023079322058535434 0.0052012852193734057 0 -0.0023103142738808758 0.0051951995959521914 0 -0.0023023195417411751 0.0051929117844824613 0 -0.002198387066063452 0.005170375016171104 0 -0.0022652898367270225 0.0052275643522522583 0 -0.0023023195417411751 0.0051929117844824613 0 -0.0023494778645871532 0.005219987456201676 0 -0.0023776600844866995 0.0052451691668594733 0 -0.0023378593432049326 0.0052400653168545603 0 -0.0023494778645871532 0.005219987456201676 0 -0.0023776600844866995 0.0052451691668594733 0 -0.0023975492003962965 0.005229019030571963 0 -0.0023494778645871532 0.005219987456201676 0 -0.0023378593432049326 0.0052400653168545603 0 -0.0023263514242212423 0.0052113637116716289 0 -0.0023494778645871532 0.005219987456201676 0 -0.0023263514242212423 0.0052113637116716289 0 -0.0023320535641287105 0.0052042220560106905 0 -0.0023494778645871532 0.005219987456201676 0 -0.0023468866632388669 0.0052043613544370338 0 -0.0023320535641287105 0.0052042220560106905 0 -0.0023494778645871532 0.005219987456201676 0 -0.0023468866632388669 0.0052043613544370338 0 -0.0023975492003962965 0.005229019030571963 0 -0.0023468866632388669 0.0052043613544370338 0 -0.0024233276098925487 0.005206456282205881 0 -0.0023975492003962965 0.005229019030571963 0 -0.0023468866632388669 0.0052043613544370338 0 -0.0024233276098925487 0.005206456282205881 0 -0.002447791111739225 0.0051611649073892863 0 -0.0024233276098925487 0.005206456282205881 0 -0.0024614937578307577 0.0051946569867540602 0 -0.002447791111739225 0.0051611649073892863 0 -0.0024233276098925487 0.005206456282205881 0 -0.0024614937578307577 0.0051946569867540602 0 -0.0024474076053923148 0.0052115615452664153 0 -0.0024233276098925487 0.005206456282205881 0 -0.0024474076053923148 0.0052115615452664153 0 -0.0024306106821119001 0.0052219004920963166 0 -0.0024614937578307577 0.0051946569867540602 0 -0.0024474076053923148 0.0052115615452664153 0 -0.0024818432742957637 0.0052137826883194805 0 -0.0024474076053923148 0.0052115615452664153 0 -0.0024616513583928532 0.0052226788838551632 0 -0.0024466752155929321 0.005227541295636004 0 -0.0024474076053923148 0.0052115615452664153 0 -0.0024616513583928532 0.0052226788838551632 0 -0.0024818432742957637 0.0052137826883194805 0 -0.0024616513583928532 0.0052226788838551632 0 -0.0024466752155929321 0.005227541295636004 0 -0.0024670588788323899 0.0052354929809245807 0 -0.0024474076053923148 0.0052115615452664153 0 -0.0024466752155929321 0.005227541295636004 0 -0.0024306106821119001 0.0052219004920963166 0 -0.0024466752155929321 0.005227541295636004 0 -0.0024306106821119001 0.0052219004920963166 0 -0.0024268802998951033 0.0052343003106745476 0 -0.0024268802998951033 0.0052343003106745476 0 -0.0024311241813975096 0.0052425012581653408 0 -0.0024449278536497663 0.0052393434442109038 0 -0.0024466752155929321 0.005227541295636004 0 -0.0024268802998951033 0.0052343003106745476 0 -0.0024449278536497663 0.0052393434442109038 0 -0.0024466752155929321 0.005227541295636004 0 -0.0024449278536497663 0.0052393434442109038 0 -0.0024670588788323899 0.0052354929809245807 0 -0.0024449278536497663 0.0052393434442109038 0 -0.0024670588788323899 0.0052354929809245807 0 -0.0024681146151412118 0.005249058694775305 0 -0.0024233276098925487 0.005206456282205881 0 -0.0024306106821119001 0.0052219004920963166 0 -0.0023975492003962965 0.005229019030571963 0 -0.0024306106821119001 0.0052219004920963166 0 -0.0024268802998951033 0.0052343003106745476 0 -0.0023975492003962965 0.005229019030571963 0 -0.0024268802998951033 0.0052343003106745476 0 -0.0023975492003962965 0.005229019030571963 0 -0.0024075589355117724 0.0052437721846106998 0 -0.0024268802998951033 0.0052343003106745476 0 -0.0024311241813975096 0.0052425012581653408 0 -0.0024075589355117724 0.0052437721846106998 0 -0.0023776600844866995 0.0052451691668594733 0 -0.0023975492003962965 0.005229019030571963 0 -0.0024075589355117724 0.0052437721846106998 0 -0.002382067116819926 0.0052751229776478708 0 -0.0024003382565244589 0.0052580882279117357 0 -0.002421922262538628 0.0052724018312994845 0 -0.0023776600844866995 0.0052451691668594733 0 -0.0024075589355117724 0.0052437721846106998 0 -0.0024003382565244589 0.0052580882279117357 0 -0.002382067116819926 0.0052751229776478708 0 -0.0023776600844866995 0.0052451691668594733 0 -0.0024003382565244589 0.0052580882279117357 0 -0.0024003382565244589 0.0052580882279117357 0 -0.0024151349246052116 0.005254500615637616 0 -0.002421922262538628 0.0052724018312994845 0 -0.0024075589355117724 0.0052437721846106998 0 -0.0024003382565244589 0.0052580882279117357 0 -0.0024151349246052116 0.005254500615637616 0 -0.0024311241813975096 0.0052425012581653408 0 -0.0024075589355117724 0.0052437721846106998 0 -0.0024151349246052116 0.005254500615637616 0 -0.0024681146151412118 0.005249058694775305 0 -0.0024562921391833707 0.0052622228796576059 0 -0.0024915508837170261 0.0052510414019882965 0 -0.0027802484074250346 0.0048697492734085151 0 -0.0035436477088829723 0.0039794841054888739 0 -0.0024311241813975096 0.0052425012581653408 0 -0.0024151349246052116 0.005254500615637616 0 -0.002421922262538628 0.0052724018312994845 0 -0.0024311241813975096 0.0052425012581653408 0 -0.0024449278536497663 0.0052393434442109038 0 -0.0024460119247925209 0.0052693810592264155 0 -0.0024839055842251372 0.0053508064991201355 0 -0.0027802484074250346 0.0048697492734085151 0 -0.0024409769182107536 0.0053027441975789409 0 -0.0025713245968974111 0.0050781863582685834 0 -0.0024449278536497663 0.0052393434442109038 0 -0.0024681146151412118 0.005249058694775305 0 -0.0024562921391833707 0.0052622228796576059 0 -0.0024311241813975096 0.0052425012581653408 0 -0.0024460119247925209 0.0052693810592264155 0 -0.0024368286459437957 0.0052717902403882659 0 -0.0027802484074250346 0.0048697492734085151 0 -0.0025713245968974111 0.0050781863582685834 0 -0.0029917320486659996 0.0043638232080467736 0 -0.0025713245968974111 0.0050781863582685834 0 -0.0029132366172005598 0.0047716160895494315 0 -0.0030832273257926364 0.0047201390352650339 0 -0.0028903624983924944 0.0042118756973670316 0 -0.0030786618554373086 0.0039713192742559808 0 -0.0030832273257926364 0.0047201390352650339 0 -0.0028903624983924944 0.0042118756973670316 0 -0.0027802484074250346 0.0048697492734085151 0 -0.0037235884931343813 0.0034334690221026454 0 -0.0034568430228052388 0.0041023518214596891 0 -0.0034496882657680289 0.0039098133321664339 0 -0.0032542448566558494 0.0041643234235849407 0 -0.0029917320486659996 0.0043638232080467736 0 -0.0037235884931343813 0.0034334690221026454 0 -0.0023896612040402278 0.0052795067188910767 0 -0.0023778076268695424 0.0052839367928660961 0 -0.002382067116819926 0.0052751229776478708 0 -0.002382067116819926 0.0052751229776478708 0 -0.0024011313616143213 0.0052612366493188702 0 -0.0023932930429554893 0.0052721028402616596 0 -0.0023896612040402278 0.0052795067188910767 0 -0.0024009344396233945 0.0052765966175131653 0 -0.0023932930429554893 0.0052721028402616596 0 -0.0024009344396233945 0.0052765966175131653 0 -0.0024011313616143213 0.0052612366493188702 0 -0.0023932930429554893 0.0052721028402616596 0 -0.0023151404573979817 0.0053100099785485695 0 -0.0025713245968974111 0.0050781863582685834 0 -0.0023896612040402278 0.0052795067188910767 0 -0.002382067116819926 0.0052751229776478708 0 -0.0023932930429554893 0.0052721028402616596 0 -0.0043295240265012304 0.0026516390025602202 0 -0.0043518262044397061 0.0026804267856600735 0 -0.0043140670076108169 0.0027084904343550368 0 -0.0043295240265012304 0.0026516390025602202 0 -0.0043140670076108169 0.0027084904343550368 0 -0.0042864911030710369 0.0026619522067844298 0 -0.0043295240265012304 0.0026516390025602202 0 -0.0042864911030710369 0.0026619522067844298 0 -0.0043014659997217446 0.0026126562089265311 0 -0.0043541082354261245 0.002641866326316359 0 -0.0043295240265012304 0.0026516390025602202 0 -0.0043518262044397061 0.0026804267856600735 0 -0.004373149718156541 0.0026510484617501763 0 -0.0044145049579440163 0.0026685795612685506 0 -0.0043518262044397061 0.0026804267856600735 0 -0.0037235884931343813 0.0034334690221026454 0 -0.0035436477088829723 0.0039794841054888739 0 -0.004373149718156541 0.0026510484617501763 0 -0.0043541082354261245 0.002641866326316359 0 -0.0043518262044397061 0.0026804267856600735 0 -0.0044145049579440163 0.0026685795612685506 0 -0.0043518262044397061 0.0026804267856600735 0 -0.004368540030451915 0.0027381414456917911 0 -0.0024670588788323899 0.0052354929809245807 0 -0.0024681146151412118 0.005249058694775305 0 -0.0024915508837170261 0.0052510414019882965 0 -0.004368540030451915 0.0027381414456917911 0 -0.0043140670076108169 0.0027084904343550368 0 -0.0042805728903998509 0.0027702007955832018 0 -0.0043518262044397061 0.0026804267856600735 0 -0.004368540030451915 0.0027381414456917911 0 -0.0043140670076108169 0.0027084904343550368 0 -0.0035436477088829723 0.0039794841054888739 0 -0.0038954667490848352 0.00333749500068673 0 -0.0036596460157599518 0.0040231395484438791 0 -0.0034582778935384733 0.0042845987906346772 0 -0.0033286696335849703 0.0041243433813323727 0 -0.0035436477088829723 0.0039794841054888739 0 -0.0028822969744747122 0.0048925750197024373 0 -0.0024915508837170261 0.0052510414019882965 0 -0.0025217166143260807 0.0052115097924847805 0 -0.0024818432742957637 0.0052137826883194805 0 -0.0024670588788323899 0.0052354929809245807 0 -0.0024915508837170261 0.0052510414019882965 0 -0.0024818432742957637 0.0052137826883194805 0 -0.0024616513583928532 0.0052226788838551632 0 -0.0024670588788323899 0.0052354929809245807 0 -0.0024818432742957637 0.0052137826883194805 0 -0.0025217166143260807 0.0052115097924847805 0 -0.0024818432742957637 0.0052137826883194805 0 -0.0025009288540455755 0.005188212686895702 0 -0.0024614937578307577 0.0051946569867540602 0 -0.0024818432742957637 0.0052137826883194805 0 -0.0025009288540455755 0.005188212686895702 0 -0.0025217166143260807 0.0052115097924847805 0 -0.0025009288540455755 0.005188212686895702 0 -0.0025406308241317037 0.0051833804718121098 0 -0.0025009288540455755 0.005188212686895702 0 -0.0025157024932892049 0.0051677348019387752 0 -0.0025406308241317037 0.0051833804718121098 0 -0.002309716136449461 0.0053242424666611584 0 -0.0023386177748468966 0.0053088272094082324 0 -0.0024086985180119913 0.0053400009580685699 0 -0.0024140563503395594 0.0052449924684169376 0 -0.0024754062925226891 0.0052698113631090325 0 -0.002309716136449461 0.0053242424666611584 0 -0.0022790855382031241 0.0052701597545028005 0 -0.0022882307231016606 0.0053042320593704867 0 -0.0024140563503395594 0.0052449924684169376 0 -0.0023656045604716646 0.0052168868216266387 0 -0.0025009288540455755 0.005188212686895702 0 -0.0025157024932892049 0.0051677348019387752 0 -0.002447791111739225 0.0051611649073892863 0 -0.0024614937578307577 0.0051946569867540602 0 -0.0025009288540455755 0.005188212686895702 0 -0.002447791111739225 0.0051611649073892863 0 -0.0023490755784919071 0.0052054640150924767 0 -0.0023656045604716646 0.0052168868216266387 0 -0.0023468866632388669 0.0052043613544370338 0 -0.0022790855382031241 0.0052701597545028005 0 -0.0023085439442004315 0.0052561156403136168 0 -0.0022790855382031241 0.0052701597545028005 0 -0.0023085439442004315 0.0052561156403136168 0 -0.002279051913483154 0.0052948100199713289 0 -0.0023085439442004315 0.0052561156403136168 0 -0.002279051913483154 0.0052948100199713289 0 -0.0023310212881447355 0.0052507275019554418 0 -0.0022778172042139618 0.0052924980099623683 0 -0.0022766428387482056 0.0052826573025257081 0 -0.0022790855382031241 0.0052701597545028005 0 -0.002279051913483154 0.0052948100199713289 0 -0.0022882307231016606 0.0053042320593704867 0 -0.002279051913483154 0.0052948100199713289 0 -0.0022592127772010553 0.0052825115647947814 0 -0.0022882307231016606 0.0053042320593704867 0 -0.002279051913483154 0.0052948100199713289 0 -0.0022592127772010553 0.0052825115647947814 0 -0.0022350364455924871 0.0052844901610055832 0 -0.002279051913483154 0.0052948100199713289 0 -0.0022331018028158289 0.0053133871544167408 0 -0.0022350364455924871 0.0052844901610055832 0 -0.0022592127772010553 0.0052825115647947814 0 -0.0022350364455924871 0.0052844901610055832 0 -0.0022373581520395004 0.0052612116417861936 0 -0.0022592127772010553 0.0052825115647947814 0 -0.0022373581520395004 0.0052612116417861936 0 -0.0022542238178175616 0.0052652049610865176 0 -0.0022592127772010553 0.0052825115647947814 0 -0.0022882307231016606 0.0053042320593704867 0 -0.0022542238178175616 0.0052652049610865176 0 -0.0023182601645670054 0.0052806079577827842 0 -0.0022882307231016606 0.0053042320593704867 0 -0.0022542238178175616 0.0052652049610865176 0 -0.0023182601645670054 0.0052806079577827842 0 -0.0023386177748468966 0.0053088272094082324 0 -0.0023863388228167535 0.0052956468708733068 0 -0.0023182601645670054 0.0052806079577827842 0 -0.0024043498497185048 0.0052580639513602626 0 -0.0023863388228167535 0.0052956468708733068 0 -0.002309716136449461 0.0053242424666611584 0 -0.0023386177748468966 0.0053088272094082324 0 -0.0022882307231016606 0.0053042320593704867 0 -0.0023182601645670054 0.0052806079577827842 0 -0.0023386177748468966 0.0053088272094082324 0 -0.0022882307231016606 0.0053042320593704867 0 -0.0022001156663171641 0.0053189724721617983 0 -0.0021225459428465881 0.0053871455664349487 0 -0.0018575593930782134 0.0054131613147612003 0 -0.0014611862943747862 0.0054981302189970544 0 -0.002002284270878887 0.0055254304946783838 0 -0.0020418636868294419 0.0054684232501798742 0 -0.0020253982115218359 0.0054095478512786368 0 -0.0020418636868294419 0.0054684232501798742 0 -0.0020431723916868498 0.0055185563098108332 0 -0.0020923819045036269 0.0054287574010319552 0 -0.002002284270878887 0.0055254304946783838 0 -0.0020418636868294419 0.0054684232501798742 0 -0.0020431723916868498 0.0055185563098108332 0 -0.0018575593930782134 0.0054131613147612003 0 -0.0022001156663171641 0.0053189724721617983 0 -0.0023061011776031133 0.0052130558885026415 0 -0.0023079322058535434 0.0052012852193734057 0 -0.0022981355699219857 0.0052149262020917226 0 -0.0023333593911390115 0.0051559099409070981 0 -0.0022001156663171641 0.0053189724721617983 0 -0.0023079322058535434 0.0052012852193734057 0 -0.0023085178528165027 0.0051994204531738983 0 -0.0023081963135281464 0.0052005345552047404 0 -0.0023085178528165027 0.0051994204531738983 0 -0.0023081963135281464 0.0052005345552047404 0 -0.0023143839177446387 0.0052019838452304267 0 -0.0023085178528165027 0.0051994204531738983 0 -0.0023143839177446387 0.0052019838452304267 0 -0.0023260149957776179 0.0052106970780610501 0 -0.0023143839177446387 0.0052019838452304267 0 -0.0023260149957776179 0.0052106970780610501 0 -0.0023320535641287105 0.0052042220560106905 0 -0.0023023195417411751 0.0051929117844824613 0 -0.0023143839177446387 0.0052019838452304267 0 -0.0023320535641287105 0.0052042220560106905 0 -0.0023023195417411751 0.0051929117844824613 0 -0.0023081963135281464 0.0052005345552047404 0 -0.0023143839177446387 0.0052019838452304267 0 -0.0021701781828163398 0.0053243968258225331 0 -0.002199650625376776 0.0053193830660025407 0 -0.0021825568660025774 0.0052989113209998117 0 -0.0022001156663171641 0.0053189724721617983 0 -0.0022708541728676751 0.0052604719713825188 0 -0.0022708541728676751 0.0052604719713825188 0 -0.0022766428387482056 0.0052826573025257081 0 -0.002199650625376776 0.0053193830660025407 0 -0.0022331018028158289 0.0053133871544167408 0 -0.0022092433675147466 0.0052970380803646598 0 -0.0023260149957776179 0.0052106970780610501 0 -0.0023320535641287105 0.0052042220560106905 0 -0.0023310212881447355 0.0052507275019554418 0 -0.0023468866632388669 0.0052043613544370338 0 -0.0023085439442004315 0.0052561156403136168 0 -0.0023310212881447355 0.0052507275019554418 0 -0.0023468866632388669 0.0052043613544370338 0 -0.0023320535641287105 0.0052042220560106905 0 -0.0023310212881447355 0.0052507275019554418 0 -0.0022331018028158289 0.0053133871544167408 0 -0.0022350364455924871 0.0052844901610055832 0 -0.0022092433675147466 0.0052970380803646598 0 -0.0022350364455924871 0.0052844901610055832 0 -0.0022204178771206189 0.005270463751227048 0 -0.0022373581520395004 0.0052612116417861936 0 -0.0022350364455924871 0.0052844901610055832 0 -0.0022204178771206189 0.005270463751227048 0 -0.0022096143493744152 0.0052798179285686378 0 -0.0022204178771206189 0.005270463751227048 0 -0.0022096143493744152 0.0052798179285686378 0 -0.002204591100153799 0.0052672608873742775 0 -0.0022096143493744152 0.0052798179285686378 0 -0.0021942006177132337 0.0052748955059113683 0 -0.002204591100153799 0.0052672608873742775 0 -0.0022096143493744152 0.0052798179285686378 0 -0.0021989506353251391 0.0052875790749559986 0 -0.0021942006177132337 0.0052748955059113683 0 -0.0022350364455924871 0.0052844901610055832 0 -0.0022096143493744152 0.0052798179285686378 0 -0.0022092433675147466 0.0052970380803646598 0 -0.0022096143493744152 0.0052798179285686378 0 -0.0021989506353251391 0.0052875790749559986 0 -0.0022092433675147466 0.0052970380803646598 0 -0.0021989506353251391 0.0052875790749559986 0 -0.0022092433675147466 0.0052970380803646598 0 -0.0021825568660025774 0.0052989113209998117 0 -0.002199650625376776 0.0053193830660025407 0 -0.0022092433675147466 0.0052970380803646598 0 -0.0021825568660025774 0.0052989113209998117 0 -0.0021989506353251391 0.0052875790749559986 0 -0.0021825568660025774 0.0052989113209998117 0 -0.0021942006177132337 0.0052748955059113683 0 -0.0021225459428465881 0.0053871455664349487 0 -0.0021721201314970043 0.0052974978994253293 0 -0.0020923819045036269 0.0054287574010319552 0 -0.002091753480014977 0.0053227266684023663 0 -0.0021453231565159896 0.0053336563139763024 0 -0.00080925684263112032 0.0055130610262520419 0 -0.00086487462974811397 0.0054781682653748153 0 -0.00084756599760383168 0.0055727567011590994 0 -0.0018830385421290967 0.0053293811513724998 0 -0.0014611862943747862 0.0054981302189970544 0 -0.001176447520212469 0.0054597763880757056 0 -0.0014611862943747862 0.0054981302189970544 0 -0.00080925684263112032 0.0055130610262520419 0 -0.00086487462974811397 0.0054781682653748153 0 -0.00084721507146479481 0.005421438620050005 0 -0.001564205117093763 0.0054097521418348168 0 -0.0014979764739649808 0.0054163244743368677 0 -0.0014737601752254506 0.0055343833563606904 0 -0.0020923819045036269 0.0054287574010319552 0 -0.002091753480014977 0.0053227266684023663 0 -0.0020253982115218359 0.0054095478512786368 0 -0.0020418636868294419 0.0054684232501798742 0 -0.0020923819045036269 0.0054287574010319552 0 -0.0020253982115218359 0.0054095478512786368 0 -0.0012635807479106998 0.0053770781083056253 0 -0.0014179150047393086 0.0052513961451441608 0 -0.0012761679051598402 0.0053311719023834431 0 -0.0013461590896142596 0.0054730783326088399 0 -0.0013990273049348061 0.0052301325686696697 0 -0.0011329355147688613 0.0053553825663640751 0 -0.0012761679051598402 0.0053311719023834431 0 -0.0013461590896142596 0.0054730783326088399 0 -0.00086487462974811397 0.0054781682653748153 0 -0.00084721507146479481 0.005421438620050005 0 -0.00089531190142780326 0.0053724734566293125 0 -0.001564205117093763 0.0054097521418348168 0 -0.0014979764739649808 0.0054163244743368677 0 -0.0015213291525422669 0.0052968779299021104 0 -0.00069903566181795426 0.0053943933135722315 0 -0.00084721507146479481 0.005421438620050005 0 -0.00089531190142780326 0.0053724734566293125 0 -0.001176447520212469 0.0054597763880757056 0 -0.0012635807479106998 0.0053770781083056253 0 -0.002091753480014977 0.0053227266684023663 0 -0.0021453231565159896 0.0053336563139763024 0 -0.0021618048699570971 0.0052452673201690567 0 -0.001564205117093763 0.0054097521418348168 0 -0.0015213291525422669 0.0052968779299021104 0 -0.0016550290669265397 0.0052835847182011713 0 -0.0018830385421290967 0.0053293811513724998 0 -0.001776457336852831 0.0053263007440750741 0 -0.0012635807479106998 0.0053770781083056253 0 -0.001776457336852831 0.0053263007440750741 0 -0.0013736456075792922 0.0054717402978303117 0 -0.0015260175190151594 0.0053087441714301433 0 -0.0014186087043212272 0.0052390950700763935 0 -0.0013736456075792922 0.0054717402978303117 0 -0.0015556286135333518 0.0054540075159222072 0 -0.0015260175190151594 0.0053087441714301433 0 -0.0015556286135333518 0.0054540075159222072 0 -0.0015260175190151594 0.0053087441714301433 0 -0.0017175541694972889 0.0052310033622545681 0 -0.001776457336852831 0.0053263007440750741 0 -0.0017389234877794916 0.0052154505274197927 0 -0.001776457336852831 0.0053263007440750741 0 -0.0020650746845487476 0.0052820233093125299 0 -0.0016941344178044041 0.0053414743246106879 0 -0.0018468125912125552 0.0053264367057677996 0 -0.0018159673477138576 0.005164305931583308 0 -0.0021618048699570971 0.0052452673201690567 0 -0.0021898851700121089 0.0052487400738120754 0 -0.0022259731129511909 0.0052444312193572207 0 -0.0021942006177132337 0.0052748955059113683 0 -0.0021898851700121089 0.0052487400738120754 0 -0.002204591100153799 0.0052672608873742775 0 -0.0021721201314970043 0.0052974978994253293 0 -0.0021889595251137453 0.0052544321051572421 0 -0.0021453231565159896 0.0053336563139763024 0 -0.0021618048699570971 0.0052452673201690567 0 -0.0021898851700121089 0.0052487400738120754 0 -0.0021898851700121089 0.0052487400738120754 0 -0.002204591100153799 0.0052672608873742775 0 -0.0022170190999917308 0.0052596236023094781 0 -0.0022204178771206189 0.005270463751227048 0 -0.002204591100153799 0.0052672608873742775 0 -0.0022170190999917308 0.0052596236023094781 0 -0.0021898851700121089 0.0052487400738120754 0 -0.0022170190999917308 0.0052596236023094781 0 -0.0022259731129511909 0.0052444312193572207 0 -0.0022170190999917308 0.0052596236023094781 0 -0.0022373581520395004 0.0052612116417861936 0 -0.0022259731129511909 0.0052444312193572207 0 -0.0022373581520395004 0.0052612116417861936 0 -0.0022259731129511909 0.0052444312193572207 0 -0.0022409451320743157 0.0052526936373564351 0 -0.0022204178771206189 0.005270463751227048 0 -0.0022170190999917308 0.0052596236023094781 0 -0.0022373581520395004 0.0052612116417861936 0 -0.0019140921207480681 0.0052362627923050542 0 -0.0018468125912125552 0.0053264367057677996 0 -0.0018159673477138576 0.005164305931583308 0 -0.0019140921207480681 0.0052362627923050542 0 -0.0018468125912125552 0.0053264367057677996 0 -0.0020132072654812888 0.0053103382516233493 0 -0.0020650746845487476 0.0052820233093125299 0 -0.0021217817638677851 0.0052787660189431073 0 -0.0019140921207480681 0.0052362627923050542 0 -0.0018159673477138576 0.005164305931583308 0 -0.0019820588773098021 0.0051491679954343448 0 -0.0018159673477138576 0.005164305931583308 0 -0.0019820588773098021 0.0051491679954343448 0 -0.0018877346881839908 0.0049999628431727132 0 -0.0017389234877794916 0.0052154505274197927 0 -0.0018875812772194975 0.0049999873682503981 0 -0.0017175541694972889 0.0052310033622545681 0 -0.0016733022509111011 0.0049999971286236082 0 -0.001887552127471065 0.005000000209177187 0 -0.001567093921287313 0.0051458855830246271 0 -0.0016733022509111011 0.0049999971286236082 0 -0.001459066328614946 0.005000000536505538 0 -0.0017175541694972889 0.0052310033622545681 0 -0.001567093921287313 0.0051458855830246271 0 -0.0016733022509111011 0.0049999971286236082 0 -0.0015260175190151594 0.0053087441714301433 0 -0.0017175541694972889 0.0052310033622545681 0 -0.001567093921287313 0.0051458855830246271 0 -0.0015260175190151594 0.0053087441714301433 0 -0.001567093921287313 0.0051458855830246271 0 -0.0014186087043212272 0.0052390950700763935 0 -0.001567093921287313 0.0051458855830246271 0 -0.0014186087043212272 0.0052390950700763935 0 -0.001459066328614946 0.005000000536505538 0 -0.0014179150047393086 0.0052513961451441608 0 -0.0014590430098576045 0.0050000189447683904 0 -0.0013990273049348061 0.0052301325686696697 0 -0.0014590313495749371 0.0049999950324261652 0 -0.0014039884627221294 0.0051336763971241862 0 -0.0014590313495749371 0.0049999950324261652 0 -0.0014039884627221294 0.0051336763971241862 0 -0.0012671291987966279 0.0051064054930583351 0 -0.0011744779529762178 0.0049999949097608715 0 -0.0014590313495749371 0.0049999950324261652 0 -0.0012671291987966279 0.0051064054930583351 0 -0.0011811512258702432 0.0052160866229231072 0 -0.0013875973992662908 0.0051390621222589267 0 -0.0011857920884872425 0.0052253907442681687 0 -0.0014039884627221294 0.0051336763971241862 0 -0.0012671291987966279 0.0051064054930583351 0 -0.0011719606799480775 0.005208615959476936 0 -0.0012761679051598402 0.0053311719023834431 0 -0.0013990273049348061 0.0052301325686696697 0 -0.0011719606799480775 0.005208615959476936 0 -0.0013990273049348061 0.0052301325686696697 0 -0.0014039884627221294 0.0051336763971241862 0 -0.0022892584440722522 0.0051875107528678863 0 -0.0023148229174563811 0.0052346356690254198 0 -0.0022286857186196436 0.0052530681456562003 0 -0.0022892584440722522 0.0051875107528678863 0 -0.0022286857186196436 0.0052530681456562003 0 -0.002223535024172591 0.0051772365679165228 0 -0.0023148229174563811 0.0052346356690254198 0 -0.0023450513225809805 0.0051732175461898918 0 -0.0024100524721354945 0.0051801396581810681 0 -0.0022892584440722522 0.0051875107528678863 0 -0.0023148229174563811 0.0052346356690254198 0 -0.0023450513225809805 0.0051732175461898918 0 -0.0023182601645670054 0.0052806079577827842 0 -0.0023148229174563811 0.0052346356690254198 0 -0.0024043498497185048 0.0052580639513602626 0 -0.0023148229174563811 0.0052346356690254198 0 -0.0022542238178175616 0.0052652049610865176 0 -0.0022286857186196436 0.0052530681456562003 0 -0.0023182601645670054 0.0052806079577827842 0 -0.0023148229174563811 0.0052346356690254198 0 -0.0022542238178175616 0.0052652049610865176 0 -0.0022542238178175616 0.0052652049610865176 0 -0.0022409451320743157 0.0052526936373564351 0 -0.0022286857186196436 0.0052530681456562003 0 -0.0022373581520395004 0.0052612116417861936 0 -0.0022542238178175616 0.0052652049610865176 0 -0.0022409451320743157 0.0052526936373564351 0 -0.0019140921207480681 0.0052362627923050542 0 -0.0020132072654812888 0.0053103382516233493 0 -0.0019820588773098021 0.0051491679954343448 0 -0.0021217817638677851 0.0052787660189431073 0 -0.0022199316238825264 0.0052590245486447366 0 -0.0020132072654812888 0.0053103382516233493 0 -0.0022286857186196436 0.0052530681456562003 0 -0.0021269750491576798 0.0051818543849770629 0 -0.0022286857186196436 0.0052530681456562003 0 -0.0021269750491576798 0.0051818543849770629 0 -0.002223535024172591 0.0051772365679165228 0 -0.0021269750491576798 0.0051818543849770629 0 -0.0021838239414954845 0.0051235410354618033 0 -0.002223535024172591 0.0051772365679165228 0 -0.0021269750491576798 0.0051818543849770629 0 -0.0019820588773098021 0.0051491679954343448 0 -0.0020850887652807278 0.0050912873818232717 0 -0.0021269750491576798 0.0051818543849770629 0 -0.0021838239414954845 0.0051235410354618033 0 -0.0020850887652807278 0.0050912873818232717 0 -0.0020132072654812888 0.0053103382516233493 0 -0.0021269750491576798 0.0051818543849770629 0 -0.0019820588773098021 0.0051491679954343448 0 -0.0018877346881839908 0.0049999628431727132 0 -0.0020850887652807278 0.0050912873818232717 0 -0.0021376003982291787 0.0049999713345814725 0 -0.0019820588773098021 0.0051491679954343448 0 -0.0018877346881839908 0.0049999628431727132 0 -0.0020850887652807278 0.0050912873818232717 0 -0.0021838239414954845 0.0051235410354618033 0 -0.0021852424528221175 0.0050633261511853992 0 -0.0020850887652807278 0.0050912873818232717 0 -0.0021852424528221175 0.0050633261511853992 0 -0.0020850887652807278 0.0050912873818232717 0 -0.0021376003982291787 0.0049999713345814725 0 -0.0021852424528221175 0.0050633261511853992 0 -0.0021376003982291787 0.0049999713345814725 0 -0.0022285761473877174 0.0050000173667455227 0 -0.0021852424528221175 0.0050633261511853992 0 -0.0022285761473877174 0.0050000173667455227 0 -0.0022435913727531049 0.0050799950061906716 0 -0.0022419176692087322 0.0050032572475472263 0 -0.0023848468779317446 0.005021676647648781 0 -0.0022285761473877174 0.0050000173667455227 0 -0.0022877550289469579 0.0050536682969796526 0 -0.0023456949221144973 0.0050256831389537179 0 -0.0022285761473877174 0.0050000173667455227 0 -0.0022877550289469579 0.0050536682969796526 0 -0.0022435913727531049 0.0050799950061906716 0 -0.0022877550289469579 0.0050536682969796526 0 -0.0022435913727531049 0.0050799950061906716 0 -0.0022993240327677639 0.005093909511789208 0 -0.0022435913727531049 0.0050799950061906716 0 -0.002268568115101731 0.0051317777081726244 0 -0.0022993240327677639 0.005093909511789208 0 -0.0021838239414954845 0.0051235410354618033 0 -0.0021852424528221175 0.0050633261511853992 0 -0.0022435913727531049 0.0050799950061906716 0 -0.0021838239414954845 0.0051235410354618033 0 -0.0022435913727531049 0.0050799950061906716 0 -0.002268568115101731 0.0051317777081726244 0 -0.0021838239414954845 0.0051235410354618033 0 -0.002268568115101731 0.0051317777081726244 0 -0.002223535024172591 0.0051772365679165228 0 -0.0022892584440722522 0.0051875107528678863 0 -0.002268568115101731 0.0051317777081726244 0 -0.002223535024172591 0.0051772365679165228 0 -0.0022892584440722522 0.0051875107528678863 0 -0.0023450513225809805 0.0051732175461898918 0 -0.0023274848378438098 0.0051250143702132756 0 -0.0022892584440722522 0.0051875107528678863 0 -0.002268568115101731 0.0051317777081726244 0 -0.0023274848378438098 0.0051250143702132756 0 -0.0023274848378438098 0.0051250143702132756 0 -0.0023456756900761522 0.0050930098737501685 0 -0.0022993240327677639 0.005093909511789208 0 -0.002268568115101731 0.0051317777081726244 0 -0.0023274848378438098 0.0051250143702132756 0 -0.0022993240327677639 0.005093909511789208 0 -0.0023450513225809805 0.0051732175461898918 0 -0.0023274848378438098 0.0051250143702132756 0 -0.0023806656869458363 0.0051147907603878778 0 -0.0023274848378438098 0.0051250143702132756 0 -0.0023456756900761522 0.0050930098737501685 0 -0.0023806656869458363 0.0051147907603878778 0 -0.0023231530091514952 0.0050593961023440714 0 -0.0023456949221144973 0.0050256831389537179 0 -0.002474216628231495 0.0050462748090348945 0 -0.0023703071130145078 0.0050813552213460709 0 -0.0023456756900761522 0.0050930098737501685 0 -0.0023806656869458363 0.0051147907603878778 0 -0.0023876720150482937 0.0049999998324135988 0 -0.0024313719223806743 0.0050195846414409079 0 -0.0026377293305577133 0.0049999996763513826 0 -0.0023703071130145078 0.0050813552213460709 0 -0.0023456756900761522 0.0050930098737501685 0 -0.0023231530091514952 0.0050593961023440714 0 -0.00222861310713416 0.0049999999389122116 0 -0.0023876720150482937 0.0049999998324135988 0 -0.0024313719223806743 0.0050195846414409079 0 -0.0023456756900761522 0.0050930098737501685 0 -0.0022993240327677639 0.005093909511789208 0 -0.0023231530091514952 0.0050593961023440714 0 -0.0022877550289469579 0.0050536682969796526 0 -0.0022993240327677639 0.005093909511789208 0 -0.0023231530091514952 0.0050593961023440714 0 -0.0022877550289469579 0.0050536682969796526 0 -0.0023231530091514952 0.0050593961023440714 0 -0.0023456949221144973 0.0050256831389537179 0 -0.0023073429030993527 0.0050628754169181169 0 -0.0025098733430457864 0.0050418104966251749 0 -0.0024313719223806743 0.0050195846414409079 0 -0.0026377293305577133 0.0049999996763513826 0 -0.0026340889150001986 0.0050347034449313849 0 -0.0023703071130145078 0.0050813552213460709 0 -0.0023231530091514952 0.0050593961023440714 0 -0.0024309636114699103 0.0050577180380752332 0 -0.0023456949221144973 0.0050256831389537179 0 -0.0024753431569556183 0.0050356602175112789 0 -0.002474216628231495 0.0050462748090348945 0 -0.0023848468779317446 0.005021676647648781 0 -0.0025608813078257303 0.0050231793689486373 0 -0.0026375241022863218 0.0050000242034039105 0 -0.0025608813078257303 0.0050231793689486373 0 -0.0025608813078257303 0.0050231793689486373 0 -0.0025098733430457864 0.0050418104966251749 0 -0.0023703071130145078 0.0050813552213460709 0 -0.0024309636114699103 0.0050577180380752332 0 -0.0023806656869458363 0.0051147907603878778 0 -0.0026377294793691222 0.0049999996193892454 0 -0.0027297820279298737 0.005041815252973922 0 -0.0028996444308802176 0.004999999565597095 0 -0.0026406919176740437 0.005014225140732265 0 -0.002785410042035771 0.005007698354122638 0 -0.0025489435624825407 0.005008174087865358 0 -0.0025475445132299998 0.0050217659143630324 0 -0.0026273694256825231 0.0050138789164136752 0 -0.0026377294793691222 0.0049999996193892454 0 -0.0026340988394033898 0.0050346805867117397 0 -0.0027297820279298737 0.005041815252973922 0 -0.0025608813078257303 0.0050231793689486373 0 -0.0026406919176740437 0.005014225140732265 0 -0.0025098733430457864 0.0050418104966251749 0 -0.0026406919176740437 0.005014225140732265 0 -0.0024623956689963531 0.0050250017138275859 0 -0.0025585746102084203 0.0049890491305100669 0 -0.0025132218364208314 0.0051069586601509764 0 -0.0025585746102084203 0.0049890491305100669 0 -0.0025132218364208314 0.0051069586601509764 0 -0.0026825639152349445 0.0051257253676258267 0 -0.0025183517182856504 0.0051861340006664472 0 -0.0024952852520133879 0.0052119342353444571 0 -0.0025358134223358972 0.0052036585082352073 0 -0.0025132218364208314 0.0051069586601509764 0 -0.0025183517182856504 0.0051861340006664472 0 -0.0024574433413699754 0.0052181558397918848 0 -0.0025132218364208314 0.0051069586601509764 0 -0.0025183517182856504 0.0051861340006664472 0 -0.0026825639152349445 0.0051257253676258267 0 -0.0025183517182856504 0.0051861340006664472 0 -0.0024574433413699754 0.0052181558397918848 0 -0.0024952852520133879 0.0052119342353444571 0 -0.0024623956689963531 0.0050250017138275859 0 -0.0025132218364208314 0.0051069586601509764 0 -0.0024574433413699754 0.0052181558397918848 0 -0.0024309636114699103 0.0050577180380752332 0 -0.0023806656869458363 0.0051147907603878778 0 -0.0024100524721354945 0.0051801396581810681 0 -0.0025098733430457864 0.0050418104966251749 0 -0.002422935698132862 0.0051978266238621122 0 -0.0023450513225809805 0.0051732175461898918 0 -0.0023806656869458363 0.0051147907603878778 0 -0.0024100524721354945 0.0051801396581810681 0 -0.002422935698132862 0.0051978266238621122 0 -0.0024108693142440526 0.0052592167839307594 0 -0.0024574433413699754 0.0052181558397918848 0 -0.0024884850615387384 0.0052263058457702929 0 -0.0024043498497185048 0.0052580639513602626 0 -0.0023148229174563811 0.0052346356690254198 0 -0.0024100524721354945 0.0051801396581810681 0 -0.0024043498497185048 0.0052580639513602626 0 -0.0024574433413699754 0.0052181558397918848 0 -0.0024952852520133879 0.0052119342353444571 0 -0.0024884850615387384 0.0052263058457702929 0 -0.0024952852520133879 0.0052119342353444571 0 -0.0024884850615387384 0.0052263058457702929 0 -0.0025358134223358972 0.0052036585082352073 0 -0.0024884850615387384 0.0052263058457702929 0 -0.0024775076688340705 0.0052528077562161513 0 -0.0024043498497185048 0.0052580639513602626 0 -0.0024884850615387384 0.0052263058457702929 0 -0.0024775076688340705 0.0052528077562161513 0 -0.0025194812905591866 0.0052269103352166092 0 -0.0025546876288691164 0.0052309102995449757 0 -0.0025923258722005565 0.0052283616520369443 0 -0.002579657866293389 0.0052419635181810368 0 -0.0025546876288691164 0.0052309102995449757 0 -0.0025923258722005565 0.0052283616520369443 0 -0.0025401543005279877 0.005255217476614193 0 -0.0025546876288691164 0.0052309102995449757 0 -0.0025197274222621036 0.005249427013859314 0 -0.0025401543005279877 0.005255217476614193 0 -0.0024775076688340705 0.0052528077562161513 0 -0.0025197274222621036 0.005249427013859314 0 -0.0025194812905591866 0.0052269103352166092 0 -0.0024775076688340705 0.0052528077562161513 0 -0.0025197274222621036 0.005249427013859314 0 -0.0024969417326130253 0.0052634393562469798 0 -0.0025546876288691164 0.0052309102995449757 0 -0.0025197274222621036 0.005249427013859314 0 -0.0025194812905591866 0.0052269103352166092 0 -0.0024884850615387384 0.0052263058457702929 0 -0.0025194812905591866 0.0052269103352166092 0 -0.0025358134223358972 0.0052036585082352073 0 -0.0025546876288691164 0.0052309102995449757 0 -0.0025194812905591866 0.0052269103352166092 0 -0.0025358134223358972 0.0052036585082352073 0 -0.0025546876288691164 0.0052309102995449757 0 -0.0025358134223358972 0.0052036585082352073 0 -0.002579657866293389 0.0052419635181810368 0 -0.0028377932063916684 0.0053822174514056714 0 -0.0030647870736073201 0.0053302913122914757 0 -0.0031165520549027085 0.0055017885596503526 0 -0.0026963869551617893 0.0052887545482247847 0 -0.0027800253223151561 0.0053983393205024209 0 -0.0028377932063916684 0.0053822174514056714 0 -0.0030647870736073201 0.0053302913122914757 0 -0.0028711022213466649 0.0051817529772698627 0 -0.0030647870736073201 0.0053302913122914757 0 -0.0030419226760594956 0.0051782045385843547 0 -0.0028711022213466649 0.0051817529772698627 0 -0.0030419226760594956 0.0051782045385843547 0 -0.0028711022213466649 0.0051817529772698627 0 -0.0028882661141191651 0.0050865505991156291 0 -0.0025183517182856504 0.0051861340006664472 0 -0.0028377932063916684 0.0053822174514056714 0 -0.0026825639152349445 0.0051257253676258267 0 -0.0025251688259918682 0.0051952814285936341 0 -0.0026963869551617893 0.0052887545482247847 0 -0.0028377932063916684 0.0053822174514056714 0 -0.0028711022213466649 0.0051817529772698627 0 -0.0026825639152349445 0.0051257253676258267 0 -0.0028711022213466649 0.0051817529772698627 0 -0.0026825639152349445 0.0051257253676258267 0 -0.0027927314927030079 0.0050972237077592146 0 -0.0026406919176740437 0.005014225140732265 0 -0.0029193124402203158 0.0050014209188923367 0 -0.0027297820279298737 0.005041815252973922 0 -0.0028996444308802176 0.004999999565597095 0 -0.0029457112253940252 0.0050209135844348479 0 -0.0026166091659309541 0.00499990005786003 0 -0.0028838977853875422 0.0049754310180850116 0 -0.0028087555916553103 0.0050149900805187752 0 -0.0026825639152349445 0.0051257253676258267 0 -0.0027927314927030079 0.0050972237077592146 0 -0.0027689601574925225 0.0049898629472381476 0 -0.0025585746102084203 0.0049890491305100669 0 -0.0026825639152349445 0.0051257253676258267 0 -0.0027689601574925225 0.0049898629472381476 0 -0.0028711022213466649 0.0051817529772698627 0 -0.0028882661141191651 0.0050865505991156291 0 -0.0027927314927030079 0.0050972237077592146 0 -0.0028882661141191651 0.0050865505991156291 0 -0.0027689601574925225 0.0049898629472381476 0 -0.0030018148366257528 0.0050385879542351308 0 -0.0028882661141191651 0.0050865505991156291 0 -0.0027927314927030079 0.0050972237077592146 0 -0.0027689601574925225 0.0049898629472381476 0 -0.0028838977853875422 0.0049754310180850116 0 -0.0028087555916553103 0.0050149900805187752 0 -0.0030018148366257528 0.0050385879542351308 0 -0.002785410042035771 0.005007698354122638 0 -0.002972265784129876 0.0050290523739224095 0 -0.0029193124402203158 0.0050014209188923367 0 -0.0031614843470365319 0.0049999943928832093 0 -0.0028996444308802176 0.004999999565597095 0 -0.0029457112253940252 0.0050209135844348479 0 -0.0031615596260586003 0.004999999722050283 0 -0.0028838977853875422 0.0049754310180850116 0 -0.0030018148366257528 0.0050385879542351308 0 -0.0031614628274547339 0.0049998960346624511 0 -0.0030419226760594956 0.0051782045385843547 0 -0.0030018148366257528 0.0050385879542351308 0 -0.0031233622443652895 0.0051002159211035259 0 -0.0030419226760594956 0.0051782045385843547 0 -0.0028882661141191651 0.0050865505991156291 0 -0.0030018148366257528 0.0050385879542351308 0 -0.0030018148366257528 0.0050385879542351308 0 -0.0031614628274547339 0.0049998960346624511 0 -0.0031233622443652895 0.0051002159211035259 0 -0.0031614628274547339 0.0049998960346624511 0 -0.0032394937861645844 0.0051247734768880221 0 -0.0033220192182926559 0.0050711969304708835 0 -0.0031614628274547339 0.0049998960346624511 0 -0.0031233622443652895 0.0051002159211035259 0 -0.0032394937861645844 0.0051247734768880221 0 -0.0031233622443652895 0.0051002159211035259 0 -0.0032394937861645844 0.0051247734768880221 0 -0.0031771016333996425 0.0052272262839345076 0 -0.0031614628274547339 0.0049998960346624511 0 -0.0033220192182926559 0.0050711969304708835 0 -0.0034405657210593902 0.0050000240953918538 0 -0.0033220192182926559 0.0050711969304708835 0 -0.0034142800605678702 0.0050854892210980768 0 -0.0034405657210593902 0.0050000240953918538 0 -0.0034142800605678702 0.0050854892210980768 0 -0.0033577192932250739 0.005151828917397479 0 -0.0034504021157404615 0.0051681779594186803 0 -0.0033220192182926559 0.0050711969304708835 0 -0.0034142800605678702 0.0050854892210980768 0 -0.0033577192932250739 0.005151828917397479 0 -0.0032394937861645844 0.0051247734768880221 0 -0.0033220192182926559 0.0050711969304708835 0 -0.0033577192932250739 0.005151828917397479 0 -0.0033577192932250739 0.005151828917397479 0 -0.0034027134157589129 0.0052851602266227107 0 -0.0033006263161453535 0.0052422022061357071 0 -0.0032394937861645844 0.0051247734768880221 0 -0.0033577192932250739 0.005151828917397479 0 -0.0033006263161453535 0.0052422022061357071 0 -0.0033577192932250739 0.005151828917397479 0 -0.0034027134157589129 0.0052851602266227107 0 -0.0034504021157404615 0.0051681779594186803 0 -0.0034027134157589129 0.0052851602266227107 0 -0.0033006263161453535 0.0052422022061357071 0 -0.0032769875036775128 0.0053885789419722985 0 -0.0030647870736073201 0.0053302913122914757 0 -0.0031771016333996425 0.0052272262839345076 0 -0.0032769875036775128 0.0053885789419722985 0 -0.0033006263161453535 0.0052422022061357071 0 -0.0031771016333996425 0.0052272262839345076 0 -0.0032769875036775128 0.0053885789419722985 0 -0.0030647870736073201 0.0053302913122914757 0 -0.0030419226760594956 0.0051782045385843547 0 -0.0031771016333996425 0.0052272262839345076 0 -0.0030419226760594956 0.0051782045385843547 0 -0.0031233622443652895 0.0051002159211035259 0 -0.0031771016333996425 0.0052272262839345076 0 -0.0032394937861645844 0.0051247734768880221 0 -0.0033006263161453535 0.0052422022061357071 0 -0.0031771016333996425 0.0052272262839345076 0 -0.003719502851187407 0.0049999854550696193 0 -0.0035014418182296404 0.0050519670889828247 0 -0.0035642898857022312 0.0052476816773502719 0 -0.0037195228584125653 0.005000042006627077 0 -0.003664969641360258 0.0050792514872543965 0 -0.0037199478340038681 0.0050000050216091026 0 -0.003797922081427593 0.0049663896463263977 0 -0.0037535962436357844 0.0049853347109653076 0 -0.003719502851187407 0.0049999854550696193 0 -0.0035014418182296404 0.0050519670889828247 0 -0.0034405657210593902 0.0050000240953918538 0 -0.0035070622560106181 0.0051234320947447969 0 -0.003664969641360258 0.0050792514872543965 0 -0.0034142800605678702 0.0050854892210980768 0 -0.0035014418182296404 0.0050519670889828247 0 -0.0034405657210593902 0.0050000240953918538 0 -0.0034142800605678702 0.0050854892210980768 0 -0.0035014418182296404 0.0050519670889828247 0 -0.0034504021157404615 0.0051681779594186803 0 -0.0034027134157589129 0.0052851602266227107 0 -0.0035740746903651279 0.0052597700683692005 0 -0.0034504021157404615 0.0051681779594186803 0 -0.0035014418182296404 0.0050519670889828247 0 -0.0035740746903651279 0.0052597700683692005 0 -0.0034504021157404615 0.0051681779594186803 0 -0.003797922081427593 0.0049663896463263977 0 -0.0037535962436357844 0.0049853347109653076 0 -0.0037531188854528887 0.0049438454738422403 0 -0.003797922081427593 0.0049663896463263977 0 -0.0037630538510873049 0.0049142895681139973 0 -0.0037986305261763133 0.0048784900317638494 0 -0.003797922081427593 0.0049663896463263977 0 -0.0037630538510873049 0.0049142895681139973 0 -0.0037531188854528887 0.0049438454738422403 0 -0.003664969641360258 0.0050792514872543965 0 -0.0037597343695858231 0.0047790464149980814 0 -0.003664969641360258 0.0050792514872543965 0 -0.0036506769751750837 0.0051199921717252281 0 -0.0037472469113014753 0.004908896584765076 0 -0.0037568692846074955 0.0047927781946804403 0 -0.0038106641679015317 0.0048047193319975109 0 -0.0034027134157589129 0.0052851602266227107 0 -0.0035740746903651279 0.0052597700683692005 0 -0.0034695706760837675 0.0054366307662131194 0 -0.0037472469113014753 0.004908896584765076 0 -0.0037568692846074955 0.0047927781946804403 0 -0.0037003538092680046 0.0047388453564519437 0 -0.0037568692846074955 0.0047927781946804403 0 -0.0038106641679015317 0.0048047193319975109 0 -0.003768719802450022 0.0047198906299140298 0 -0.0038106641679015317 0.0048047193319975109 0 -0.0038137436771497626 0.0047103368946954591 0 -0.003768719802450022 0.0047198906299140298 0 -0.0038137436771497626 0.0047103368946954591 0 -0.003768719802450022 0.0047198906299140298 0 -0.0037976895306087348 0.0046593666267612868 0 -0.0038137436771497626 0.0047103368946954591 0 -0.0038410861844802124 0.0046895092795006315 0 -0.0037976895306087348 0.0046593666267612868 0 -0.003768719802450022 0.0047198906299140298 0 -0.0037003538092680046 0.0047388453564519437 0 -0.0037455614679133631 0.0046466217781413162 0 -0.003768719802450022 0.0047198906299140298 0 -0.0037455614679133631 0.0046466217781413162 0 -0.0037976895306087348 0.0046593666267612868 0 -0.0037568692846074955 0.0047927781946804403 0 -0.003768719802450022 0.0047198906299140298 0 -0.0037003538092680046 0.0047388453564519437 0 -0.0037986305261763133 0.0048784900317638494 0 -0.0037404418129263831 0.0046609609564740627 0 -0.0037316224159860659 0.0048596583402816381 0 -0.0037630538510873049 0.0049142895681139973 0 -0.0037986305261763133 0.0048784900317638494 0 -0.0037316224159860659 0.0048596583402816381 0 -0.0030647870736073201 0.0053302913122914757 0 -0.0031165520549027085 0.0055017885596503526 0 -0.0032769875036775128 0.0053885789419722985 0 -0.0034027134157589129 0.0052851602266227107 0 -0.0034695706760837675 0.0054366307662131194 0 -0.0032769875036775128 0.0053885789419722985 0 -0.0034695706760837675 0.0054366307662131194 0 -0.0032769875036775128 0.0053885789419722985 0 -0.0033601498235789088 0.005615147008452618 0 -0.0038106641679015317 0.0048047193319975109 0 -0.0038137436771497626 0.0047103368946954591 0 -0.0038669168801630806 0.0047041240823069378 0 -0.0036506769751750837 0.0051199921717252281 0 -0.0033333922008536554 0.0050391585416401635 0 -0.0038137436771497626 0.0047103368946954591 0 -0.0038669168801630806 0.0047041240823069378 0 -0.0038410861844802124 0.0046895092795006315 0 -0.0033333922008536554 0.0050391585416401635 0 -0.0035403013064474824 0.0050198041417454931 0 -0.0025923258722005565 0.0052283616520369443 0 -0.002579657866293389 0.0052419635181810368 0 -0.0025528554190371614 0.0051861905252160783 0 -0.0027800253223151561 0.0053983393205024209 0 -0.0033333922008536554 0.0050391585416401635 0 -0.002579657866293389 0.0052419635181810368 0 -0.0024656081100355 0.0052138958259538813 0 -0.0025528554190371614 0.0051861905252160783 0 -0.0031165520549027085 0.0055017885596503526 0 -0.0032769875036775128 0.0053885789419722985 0 -0.0033601498235789088 0.005615147008452618 0 -0.0024656081100355 0.0052138958259538813 0 -0.0025528554190371614 0.0051861905252160783 0 -0.0025125346464467142 0.0050620127324946104 0 -0.0025528554190371614 0.0051861905252160783 0 -0.0025125346464467142 0.0050620127324946104 0 -0.002626553395212821 0.0050979269445248308 0 -0.0038643510294094508 0.0047028573808144073 0 -0.0038519042849265565 0.0046118490523351305 0 -0.0039373587447275645 0.0045770987775666499 0 -0.0033333922008536554 0.0050391585416401635 0 -0.0032071959143472203 0.0048109818836983903 0 -0.0038643510294094508 0.0047028573808144073 0 -0.0038410861844802124 0.0046895092795006315 0 -0.0038519042849265565 0.0046118490523351305 0 -0.0038410861844802124 0.0046895092795006315 0 -0.0038519042849265565 0.0046118490523351305 0 -0.0037976895306087348 0.0046593666267612868 0 -0.0038519042849265565 0.0046118490523351305 0 -0.0037845449410885096 0.0045664610950466797 0 -0.0038736043779519238 0.0044890083399971069 0 -0.0038519042849265565 0.0046118490523351305 0 -0.0039373587447275645 0.0045770987775666499 0 -0.0038736043779519238 0.0044890083399971069 0 -0.0032071959143472203 0.0048109818836983903 0 -0.0033268307174920161 0.0046271479579170997 0 -0.0039373587447275645 0.0045770987775666499 0 -0.0038736043779519238 0.0044890083399971069 0 -0.004012321532690849 0.0044526613124865038 0 -0.0037597343695858231 0.0047790464149980814 0 -0.0037004854081970524 0.0046253168779112992 0 -0.0037003538092680046 0.0047388453564519437 0 -0.0037455614679133631 0.0046466217781413162 0 -0.0036653598566738321 0.0045779065547756695 0 -0.0037455614679133631 0.0046466217781413162 0 -0.0037845449410885096 0.0045664610950466797 0 -0.0036653598566738321 0.0045779065547756695 0 -0.0038519042849265565 0.0046118490523351305 0 -0.0037976895306087348 0.0046593666267612868 0 -0.0037845449410885096 0.0045664610950466797 0 -0.0037455614679133631 0.0046466217781413162 0 -0.0037976895306087348 0.0046593666267612868 0 -0.0037845449410885096 0.0045664610950466797 0 -0.0037845449410885096 0.0045664610950466797 0 -0.0037604652840637965 0.004442193859132664 0 -0.0038736043779519238 0.0044890083399971069 0 -0.0037845449410885096 0.0045664610950466797 0 -0.0036653598566738321 0.0045779065547756695 0 -0.0037604652840637965 0.004442193859132664 0 -0.0037604652840637965 0.004442193859132664 0 -0.0037262507320640166 0.0043345669836017987 0 -0.0036389116458362177 0.0044337034489643741 0 -0.0036653598566738321 0.0045779065547756695 0 -0.0037604652840637965 0.004442193859132664 0 -0.0036389116458362177 0.0044337034489643741 0 -0.0037604652840637965 0.004442193859132664 0 -0.0038736043779519238 0.0044890083399971069 0 -0.0038428799081993907 0.0043833556896139131 0 -0.0037604652840637965 0.004442193859132664 0 -0.0037904568087373165 0.0043321553020198023 0 -0.0037262507320640166 0.0043345669836017987 0 -0.0037604652840637965 0.004442193859132664 0 -0.0037904568087373165 0.0043321553020198023 0 -0.0038428799081993907 0.0043833556896139131 0 -0.0037262507320640166 0.0043345669836017987 0 -0.0036389116458362177 0.0044337034489643741 0 -0.0036398104307965389 0.0043049378891402519 0 -0.0038736043779519238 0.0044890083399971069 0 -0.0039279152572973316 0.0043817221359768689 0 -0.004012321532690849 0.0044526613124865038 0 -0.0038736043779519238 0.0044890083399971069 0 -0.0038428799081993907 0.0043833556896139131 0 -0.0039279152572973316 0.0043817221359768689 0 -0.0038428799081993907 0.0043833556896139131 0 -0.0039279152572973316 0.0043817221359768689 0 -0.0038595000456038164 0.0042790257230038604 0 -0.0037904568087373165 0.0043321553020198023 0 -0.0038428799081993907 0.0043833556896139131 0 -0.0038595000456038164 0.0042790257230038604 0 -0.0039279152572973316 0.0043817221359768689 0 -0.0040019240837649841 0.0043422534683940058 0 -0.004012321532690849 0.0044526613124865038 0 -0.0039279152572973316 0.0043817221359768689 0 -0.0039521634677658563 0.0042869787509652217 0 -0.0038595000456038164 0.0042790257230038604 0 -0.0039279152572973316 0.0043817221359768689 0 -0.0040019240837649841 0.0043422534683940058 0 -0.0039521634677658563 0.0042869787509652217 0 -0.0040019240837649841 0.0043422534683940058 0 -0.0040928383260927488 0.0043229546034082222 0 -0.0040258326146172 0.0042651782240432697 0 -0.0026296002858332782 0.0048147004091314161 0 -0.0028518909869160399 0.0047251399893311671 0 -0.0027885823270224668 0.0045390529393001412 0 -0.0033268307174920161 0.0046271479579170997 0 -0.0034381496186664537 0.004463937826267749 0 -0.0040019240837649841 0.0043422534683940058 0 -0.004012321532690849 0.0044526613124865038 0 -0.0040928383260927488 0.0043229546034082222 0 -0.0026296002858332782 0.0048147004091314161 0 -0.0028518909869160399 0.0047251399893311671 0 -0.0028066276764200657 0.0048523546722716313 0 -0.0026296002858332782 0.0048147004091314161 0 -0.0028066276764200657 0.0048523546722716313 0 -0.0026899159807114883 0.0049764351294071833 0 -0.0028518909869160399 0.0047251399893311671 0 -0.003013234336335551 0.004601149229833369 0 -0.0030349105307722474 0.0048166502341291176 0 -0.0028518909869160399 0.0047251399893311671 0 -0.0028066276764200657 0.0048523546722716313 0 -0.0030349105307722474 0.0048166502341291176 0 -0.0028066276764200657 0.0048523546722716313 0 -0.0030349105307722474 0.0048166502341291176 0 -0.0028333343084330788 0.0049260616891410305 0 -0.0028518909869160399 0.0047251399893311671 0 -0.0027885823270224668 0.0045390529393001412 0 -0.003013234336335551 0.004601149229833369 0 -0.0027885823270224668 0.0045390529393001412 0 -0.003013234336335551 0.004601149229833369 0 -0.0030871664574498433 0.0043902175680491711 0 -0.003013234336335551 0.004601149229833369 0 -0.0032529796916797343 0.0045499532771625523 0 -0.0030349105307722474 0.0048166502341291176 0 -0.0029202615269996956 0.0048350784952532703 0 -0.002779103101504097 0.005014110175122626 0 -0.003013234336335551 0.004601149229833369 0 -0.0032529796916797343 0.0045499532771625523 0 -0.0030871664574498433 0.0043902175680491711 0 -0.0025157024932892049 0.0051677348019387752 0 -0.0025406308241317037 0.0051833804718121098 0 -0.0025445625331870026 0.0051981219650988611 0 -0.0025406308241317037 0.0051833804718121098 0 -0.0025304265020557964 0.0051963614022813498 0 -0.0025445625331870026 0.0051981219650988611 0 -0.0024086985180119913 0.0053400009580685699 0 -0.0024447827875212738 0.0052812197866550165 0 -0.0024876938913532807 0.0052834787574573142 0 -0.0024086985180119913 0.0053400009580685699 0 -0.0024876938913532807 0.0052834787574573142 0 -0.0025177567012444309 0.0052924095573812389 0 -0.0024754062925226891 0.0052698113631090325 0 -0.0025109897102035734 0.0052893504440800305 0 -0.0025304265020557964 0.0051963614022813498 0 -0.0025445625331870026 0.0051981219650988611 0 -0.0025177567012444309 0.0052924095573812389 0 -0.0023386177748468966 0.0053088272094082324 0 -0.0024086985180119913 0.0053400009580685699 0 -0.0023863388228167535 0.0052956468708733068 0 -0.0024086985180119913 0.0053400009580685699 0 -0.0023863388228167535 0.0052956468708733068 0 -0.0024447827875212738 0.0052812197866550165 0 -0.0024043498497185048 0.0052580639513602626 0 -0.0023863388228167535 0.0052956468708733068 0 -0.0024447827875212738 0.0052812197866550165 0 -0.0024775076688340705 0.0052528077562161513 0 -0.0024043498497185048 0.0052580639513602626 0 -0.0024447827875212738 0.0052812197866550165 0 -0.0024447827875212738 0.0052812197866550165 0 -0.0024969417326130253 0.0052634393562469798 0 -0.0024876938913532807 0.0052834787574573142 0 -0.0024775076688340705 0.0052528077562161513 0 -0.0024447827875212738 0.0052812197866550165 0 -0.0024969417326130253 0.0052634393562469798 0 -0.0024969417326130253 0.0052634393562469798 0 -0.0025141932672258414 0.0052665187613375533 0 -0.0024876938913532807 0.0052834787574573142 0 -0.0025197274222621036 0.005249427013859314 0 -0.0024969417326130253 0.0052634393562469798 0 -0.0025141932672258414 0.0052665187613375533 0 -0.0025141932672258414 0.0052665187613375533 0 -0.0024876938913532807 0.0052834787574573142 0 -0.002516720360696023 0.005279732599612094 0 -0.0024876938913532807 0.0052834787574573142 0 -0.002516720360696023 0.005279732599612094 0 -0.0025177567012444309 0.0052924095573812389 0 -0.002516720360696023 0.005279732599612094 0 -0.0025401543005279877 0.005255217476614193 0 -0.0025148347263203637 0.0052959032631188828 0 -0.002516720360696023 0.005279732599612094 0 -0.0025177567012444309 0.0052924095573812389 0 -0.0025148347263203637 0.0052959032631188828 0 -0.0025141932672258414 0.0052665187613375533 0 -0.002516720360696023 0.005279732599612094 0 -0.0025401543005279877 0.005255217476614193 0 -0.0025197274222621036 0.005249427013859314 0 -0.0025141932672258414 0.0052665187613375533 0 -0.0025401543005279877 0.005255217476614193 0 -0.0025923258722005565 0.0052283616520369443 0 -0.0025528554190371614 0.0051861905252160783 0 -0.002626553395212821 0.0050979269445248308 0 -0.0026002249800424365 0.0052266385822228919 0 -0.0026658496281831996 0.0051674485659742664 0 -0.0025923258722005565 0.0052283616520369443 0 -0.0025401543005279877 0.005255217476614193 0 -0.0025148347263203637 0.0052959032631188828 0 -0.0025923258722005565 0.0052283616520369443 0 -0.002626553395212821 0.0050979269445248308 0 -0.0028120474526695709 0.0050578965870462129 0 -0.002626553395212821 0.0050979269445248308 0 -0.0026899159807114883 0.0049764351294071833 0 -0.0028120474526695709 0.0050578965870462129 0 -0.0025125346464467142 0.0050620127324946104 0 -0.0026296002858332782 0.0048147004091314161 0 -0.0026899159807114883 0.0049764351294071833 0 -0.0025125346464467142 0.0050620127324946104 0 -0.002626553395212821 0.0050979269445248308 0 -0.0026899159807114883 0.0049764351294071833 0 -0.0028066276764200657 0.0048523546722716313 0 -0.0026899159807114883 0.0049764351294071833 0 -0.0028333343084330788 0.0049260616891410305 0 -0.002779103101504097 0.005014110175122626 0 -0.0026658496281831996 0.0051674485659742664 0 -0.0030349105307722474 0.0048166502341291176 0 -0.0028333343084330788 0.0049260616891410305 0 -0.0028120474526695709 0.0050578965870462129 0 -0.0025304265020557964 0.0051963614022813498 0 -0.0025177567012444309 0.0052924095573812389 0 -0.0025148347263203637 0.0052959032631188828 0 -0.0026899159807114883 0.0049764351294071833 0 -0.0028333343084330788 0.0049260616891410305 0 -0.0028120474526695709 0.0050578965870462129 0 -0.0049997577467219357 0.004453435689399563 0 -0.0049777818821683866 0.0045235175551654712 0 -0.0049202947810687353 0.0047079604349033145 0 -0.0049999983297414107 0.0044524822842178548 0 -0.0051075994815236118 0.0043880348155081834 0 -0.0050377116891212924 0.0043320901935488786 0 -0.0050000424929624769 0.0044524843089169767 0 -0.0049743164813605377 0.004501338714656097 0 -0.0049743164813605377 0.004501338714656097 0 -0.0048593505839072499 0.0046642394453118713 0 -0.0047762683152859165 0.0046442716876340393 0 -0.0048058285553769326 0.0046731603465554909 0 -0.0048169644833823229 0.0046492107449319087 0 -0.0049997577467219357 0.004453435689399563 0 -0.0049202947810687353 0.0047079604349033145 0 -0.0048624456719406533 0.0048719976010112541 0 -0.0049997577467219357 0.004453435689399563 0 -0.0049995599527965793 0.0049996530144152717 0 -0.0048624456719406533 0.0048719976010112541 0 -0.0049995599527965793 0.0049996530144152717 0 -0.0048624456719406533 0.0048719976010112541 0 -0.0045300050643826348 0.0049997446781882395 0 -0.0048624456719406533 0.0048719976010112541 0 -0.0047318443370720229 0.0049133052451257927 0 -0.0048351520608016568 0.0048716088722141615 0 -0.0048624456719406533 0.0048719976010112541 0 -0.0045300050643826348 0.0049997446781882395 0 -0.0047318443370720229 0.0049133052451257927 0 -0.0045288777997462516 0.0049999948689431247 0 -0.0044067793328585016 0.0050913999989787139 0 -0.004264541260014295 0.0049999962735623833 0 -0.0045289515207888147 0.0049999670164073695 0 -0.0046131762685364883 0.0050223351902013895 0 -0.0045288777997462516 0.0049999948689431247 0 -0.0045128525032909986 0.0051459204688065925 0 -0.0044067793328585016 0.0050913999989787139 0 -0.0045128525032909986 0.0051459204688065925 0 -0.0044067793328585016 0.0050913999989787139 0 -0.0044334630034029076 0.005169967509547479 0 -0.0044067793328585016 0.0050913999989787139 0 -0.0044334630034029076 0.005169967509547479 0 -0.0043127595247407285 0.0051494695643665191 0 -0.0044702116164746335 0.0052721929958882124 0 -0.0043744848991819985 0.0052563712886970751 0 -0.0043127595247407285 0.0051494695643665191 0 -0.0046514843305478192 0.0050311755329933774 0 -0.0042969524180485746 0.0052081436452118693 0 -0.0044334630034029076 0.005169967509547479 0 -0.0045010545676252437 0.0052939465770534969 0 -0.0043127595247407285 0.0051494695643665191 0 -0.0046131762685364883 0.0050223351902013895 0 -0.0046514843305478192 0.0050311755329933774 0 -0.0045128525032909986 0.0051459204688065925 0 -0.0044334630034029076 0.005169967509547479 0 -0.0045010545676252437 0.0052939465770534969 0 -0.0043744848991819985 0.0052563712886970751 0 -0.0044644500255722908 0.0053555737802434573 0 -0.0042499065936314334 0.00524627915066961 0 -0.0048372396239467009 0.0047062798171135971 0 -0.0048398237314915505 0.004685874956634169 0 -0.0048258955365408631 0.0046752220286872433 0 -0.0046514843305478192 0.0050311755329933774 0 -0.0045580292511385734 0.0048513825376510665 0 -0.0044702116164746335 0.0052721929958882124 0 -0.0043744848991819985 0.0052563712886970751 0 -0.0044644500255722908 0.0053555737802434573 0 -0.0049202947810687353 0.0047079604349033145 0 -0.0048624456719406533 0.0048719976010112541 0 -0.0048351520608016568 0.0048716088722141615 0 -0.0048593505839072499 0.0046642394453118713 0 -0.0046514843305478192 0.0050311755329933774 0 -0.0048058285553769326 0.0046731603465554909 0 -0.0048372396239467009 0.0047062798171135971 0 -0.0048258955365408631 0.0046752220286872433 0 -0.0045580292511385734 0.0048513825376510665 0 -0.0047777689100998747 0.0047893571092210525 0 -0.0048258955365408631 0.0046752220286872433 0 -0.0048169644833823229 0.0046492107449319087 0 -0.0048439097919346606 0.0046500944150827265 0 -0.0048169644833823229 0.0046492107449319087 0 -0.0048439097919346606 0.0046500944150827265 0 -0.0048328179209699076 0.0046316741798700335 0 -0.0048058285553769326 0.0046731603465554909 0 -0.0048258955365408631 0.0046752220286872433 0 -0.0048169644833823229 0.0046492107449319087 0 -0.0048399146522760906 0.0046847378236221458 0 -0.0048258955365408631 0.0046752220286872433 0 -0.0048439097919346606 0.0046500944150827265 0 -0.0045580292511385734 0.0048513825376510665 0 -0.0045773535722557317 0.0047390622987746366 0 -0.0043120790961500661 0.0047909068777427432 0 -0.0043103684730650951 0.0048098227389691325 0 -0.0042848353913138692 0.0047994902530013811 0 -0.0043103684730650951 0.0048098227389691325 0 -0.0042848353913138692 0.0047994902530013811 0 -0.0042809413358763501 0.004822106637608038 0 -0.0042848353913138692 0.0047994902530013811 0 -0.004252230419432174 0.004814338090391947 0 -0.0042809413358763501 0.004822106637608038 0 -0.0042848353913138692 0.0047994902530013811 0 -0.0042522366603903981 0.0047886011616653564 0 -0.004252230419432174 0.004814338090391947 0 -0.0042848353913138692 0.0047994902530013811 0 -0.0042811848999577684 0.0047767202294694026 0 -0.0042522366603903981 0.0047886011616653564 0 -0.0045580292511385734 0.0048513825376510665 0 -0.0042601306271021419 0.0050412348571381464 0 -0.0043120790961500661 0.0047909068777427432 0 -0.0042848353913138692 0.0047994902530013811 0 -0.0042811848999577684 0.0047767202294694026 0 -0.0042499065936314334 0.00524627915066961 0 -0.0043127595247407285 0.0051494695643665191 0 -0.004183643290143764 0.0051148986160411587 0 -0.0043744848991819985 0.0052563712886970751 0 -0.0042499065936314334 0.00524627915066961 0 -0.0043127595247407285 0.0051494695643665191 0 -0.0044067793328585016 0.0050913999989787139 0 -0.0043127595247407285 0.0051494695643665191 0 -0.004264541260014295 0.0049999962735623833 0 -0.0043127595247407285 0.0051494695643665191 0 -0.004264541260014295 0.0049999962735623833 0 -0.004183643290143764 0.0051148986160411587 0 -0.0041130507077846131 0.0050581865975621405 0 -0.004183643290143764 0.0051148986160411587 0 -0.0040041364625601917 0.0051174819643724874 0 -0.004264541260014295 0.0049999962735623833 0 -0.0041130507077846131 0.0050581865975621405 0 -0.0040002111892940154 0.0049999955252107431 0 -0.004264541260014295 0.0049999962735623833 0 -0.0041130507077846131 0.0050581865975621405 0 -0.004183643290143764 0.0051148986160411587 0 -0.0042811848999577684 0.0047767202294694026 0 -0.0042507597727226331 0.0047633348723931735 0 -0.0042522366603903981 0.0047886011616653564 0 -0.0042601306271021419 0.0050412348571381464 0 -0.0040203720171471625 0.0049512662175836648 0 -0.0042499065936314334 0.00524627915066961 0 -0.004183643290143764 0.0051148986160411587 0 -0.0040041364625601917 0.0051174819643724874 0 -0.0040203720171471625 0.0049512662175836648 0 -0.0039643029652094361 0.0048687704187203047 0 -0.0037059076097935087 0.0049900951738108493 0 -0.0037215866744524928 0.0049569826139251811 0 -0.0036863355777949024 0.0049196712083974066 0 -0.0040002121412499921 0.0051192262504369465 0 -0.0040001957551559393 0.0049999972648256527 0 -0.003792106979384694 0.0050000006548196535 0 -0.0041130507077846131 0.0050581865975621405 0 -0.0040041364625601917 0.0051174819643724874 0 -0.0040002111892940154 0.0049999955252107431 0 -0.0040203720171471625 0.0049512662175836648 0 -0.0040002072424828866 0.0050001131509724451 0 -0.0037059076097935087 0.0049900951738108493 0 -0.0037916561444404796 0.0049999784772039452 0 -0.0037535962436357844 0.0049853347109653076 0 -0.0037199478340038681 0.0050000050216091026 0 -0.0037916561444404796 0.0049999784772039452 0 -0.0037535962436357844 0.0049853347109653076 0 -0.0040203720171471625 0.0049512662175836648 0 -0.0037919619159071478 0.0050000026132492031 0 -0.0037059076097935087 0.0049900951738108493 0 -0.0037535962436357844 0.0049853347109653076 0 -0.0037215866744524928 0.0049569826139251811 0 -0.0037535962436357844 0.0049853347109653076 0 -0.0037215866744524928 0.0049569826139251811 0 -0.0037531188854528887 0.0049438454738422403 0 -0.0037215866744524928 0.0049569826139251811 0 -0.0037531188854528887 0.0049438454738422403 0 -0.0037165235449999031 0.0048998867845079031 0 -0.0037630538510873049 0.0049142895681139973 0 -0.0037531188854528887 0.0049438454738422403 0 -0.0037165235449999031 0.0048998867845079031 0 -0.0037630538510873049 0.0049142895681139973 0 -0.0037165235449999031 0.0048998867845079031 0 -0.0037316224159860659 0.0048596583402816381 0 -0.0037215866744524928 0.0049569826139251811 0 -0.0037165235449999031 0.0048998867845079031 0 -0.0036863355777949024 0.0049196712083974066 0 -0.0039643029652094361 0.0048687704187203047 0 -0.0039795794660845299 0.004683976601460328 0 -0.0037165235449999031 0.0048998867845079031 0 -0.0036863355777949024 0.0049196712083974066 0 -0.0036840640536985 0.0048507599232577442 0 -0.0037165235449999031 0.0048998867845079031 0 -0.0037316224159860659 0.0048596583402816381 0 -0.0036840640536985 0.0048507599232577442 0 -0.0035791427149591002 0.0048689188453121847 0 -0.0039795794660845299 0.004683976601460328 0 -0.0037316224159860659 0.0048596583402816381 0 -0.0036423958942112841 0.0047473806594566358 0 -0.00350926165750045 0.0047942349112447468 0 -0.0037404418129263831 0.0046609609564740627 0 -0.0036423958942112841 0.0047473806594566358 0 -0.0035047788112709138 0.0045681041001185323 0 -0.0037404418129263831 0.0046609609564740627 0 -0.0037316224159860659 0.0048596583402816381 0 -0.0036423958942112841 0.0047473806594566358 0 -0.0039795794660845299 0.004683976601460328 0 -0.0038922181170273355 0.0045142079625354777 0 -0.0036423958942112841 0.0047473806594566358 0 -0.00350926165750045 0.0047942349112447468 0 -0.0035047788112709138 0.0045681041001185323 0 -0.0043181520438357402 0.0043185716556727793 0 -0.0043203925709009473 0.0043940738030411345 0 -0.0043723678635422267 0.0043845143595122281 0 -0.0037004854081970524 0.0046253168779112992 0 -0.0036437764385423136 0.0044427294738801498 0 -0.0037404418129263831 0.0046609609564740627 0 -0.0035047788112709138 0.0045681041001185323 0 -0.0036389116458362177 0.0044337034489643741 0 -0.004041068202272324 0.0041371719196606265 0 -0.0035336264991320363 0.003994526216873991 0 -0.0036389116458362177 0.0044337034489643741 0 -0.0035110117109886318 0.0043750611501501314 0 -0.0036398104307965389 0.0043049378891402519 0 -0.0049587986216019803 0.0039809548765476002 0 -0.0049701362191634348 0.0039956139304540509 0 -0.0049470598493705966 0.0040184904168007055 0 -0.004041068202272324 0.0041371719196606265 0 -0.0042021849351340755 0.0036890471113475909 0 -0.0034079028298548918 0.0037788806672975029 0 -0.0034032970985346813 0.003516904084536557 0 -0.0036454345828888339 0.0036324870112866424 0 -0.0035047788112709138 0.0045681041001185323 0 -0.0036389116458362177 0.0044337034489643741 0 -0.0035110117109886318 0.0043750611501501314 0 -0.0038922181170273355 0.0045142079625354777 0 -0.004041068202272324 0.0041371719196606265 0 -0.0049587986216019803 0.0039809548765476002 0 -0.0049917273891946197 0.0039771766738678797 0 -0.0050056799512608356 0.0039702267016119156 0 -0.004041068202272324 0.0041371719196606265 0 -0.0048105613335830532 0.0041752118991905274 0 -0.0043203925709009473 0.0043940738030411345 0 -0.0043203057143940144 0.0044676817459402907 0 -0.004393435730331941 0.0044301866426097987 0 -0.0049917273891946197 0.0039771766738678797 0 -0.0050013211128725017 0.0039711870553245402 0 -0.0050118308126733705 0.0039675596399449242 0 -0.0049587986216019803 0.0039809548765476002 0 -0.0049917273891946197 0.0039771766738678797 0 -0.0049701362191634348 0.0039956139304540509 0 -0.0049884628980788681 0.0039795145261891729 0 -0.0049718529076481976 0.003950460317192709 0 -0.0049917273891946197 0.0039771766738678797 0 -0.0050013211128725017 0.0039711870553245402 0 -0.0050052162327689203 0.0039733605171229369 0 -0.0050013211128725017 0.0039711870553245402 0 -0.0050042361286030687 0.0039673355369806203 0 -0.0050071244578000452 0.0039632967739254973 0 -0.0050013211128725017 0.0039711870553245402 0 -0.0050118308126733705 0.0039675596399449242 0 -0.0050071244578000452 0.0039632967739254973 0 -0.0050042361286030687 0.0039673355369806203 0 -0.0050052162327689203 0.0039733605171229369 0 -0.0050033055563187216 0.0039646172336553955 0 -0.0050013211128725017 0.0039711870553245402 0 -0.0050042361286030687 0.0039673355369806203 0 -0.0050052162327689203 0.0039733605171229369 0 -0.0050056799512608356 0.0039702267016119156 0 -0.0050064692841361724 0.0039759876000921152 0 -0.0050067058032184858 0.0039839989751987168 0 -0.0050052162327689203 0.0039733605171229369 0 -0.0050064692841361724 0.0039759876000921152 0 -0.0050059142982199151 0.0039751989395209542 0 -0.0050052162327689203 0.0039733605171229369 0 -0.0050056799512608356 0.0039702267016119156 0 -0.0050064692841361724 0.0039759876000921152 0 -0.0049917273891946197 0.0039771766738678797 0 -0.0050052162327689203 0.0039733605171229369 0 -0.0050056799512608356 0.0039702267016119156 0 -0.0048105613335830532 0.0041752118991905274 0 -0.0047363284478048944 0.0042780024383330204 0 -0.004393435730331941 0.0044301866426097987 0 -0.0044196335049155712 0.0043809475611522432 0 -0.0043723678635422267 0.0043845143595122281 0 -0.004393435730331941 0.0044301866426097987 0 -0.0044196335049155712 0.0043809475611522432 0 -0.0044686448087243071 0.0043907953390017358 0 -0.0044196335049155712 0.0043809475611522432 0 -0.0043723678635422267 0.0043845143595122281 0 -0.0043937010592892574 0.0043381944233059242 0 -0.0043203925709009473 0.0043940738030411345 0 -0.004393435730331941 0.0044301866426097987 0 -0.0043723678635422267 0.0043845143595122281 0 -0.0043181520438357402 0.0043185716556727793 0 -0.0043723678635422267 0.0043845143595122281 0 -0.0043937010592892574 0.0043381944233059242 0 -0.0039795794660845299 0.004683976601460328 0 -0.0043638765963699587 0.0045767543596409183 0 -0.0043638765963699587 0.0045767543596409183 0 -0.0045480688379773912 0.0045526535383002224 0 -0.0044196335049155712 0.0043809475611522432 0 -0.0043937010592892574 0.0043381944233059242 0 -0.0044710895858417104 0.0043601780181608723 0 -0.0045773535722557317 0.0047390622987746366 0 -0.0045480688379773912 0.0045526535383002224 0 -0.0048439097919346606 0.0046500944150827265 0 -0.0048468290570410945 0.0046159390554587031 0 -0.0048328179209699076 0.0046316741798700335 0 -0.0043103684730650951 0.0048098227389691325 0 -0.0042809413358763501 0.004822106637608038 0 -0.0043095076334987385 0.0048286588282706582 0 -0.0048468290570410945 0.0046159390554587031 0 -0.0048328179209699076 0.0046316741798700335 0 -0.0048304499186481173 0.0046102446215152077 0 -0.0048328179209699076 0.0046316741798700335 0 -0.0048304499186481173 0.0046102446215152077 0 -0.0048028473532377219 0.0046282409483884204 0 -0.0048169644833823229 0.0046492107449319087 0 -0.0048328179209699076 0.0046316741798700335 0 -0.0048028473532377219 0.0046282409483884204 0 -0.0050150663383587979 0.0043023118852822517 0 -0.0050256752150972996 0.0044617977767170787 0 -0.0050082762171235803 0.003987626003238022 0 -0.0050083795186467352 0.0039836682058153163 0 -0.005012217004934069 0.0039993864829520115 0 -0.0050082762171235803 0.003987626003238022 0 -0.0050067058032184858 0.0039839989751987168 0 -0.0050083795186467352 0.0039836682058153163 0 -0.0050150663383587979 0.0043023118852822517 0 -0.0051303646927549585 0.0040545626066944753 0 -0.0045480688379773912 0.0045526535383002224 0 -0.0050150663383587979 0.0043023118852822517 0 -0.0047264112906150726 0.0043392111108823067 0 -0.0048156225807321276 0.0043670479081884496 0 -0.0047191207794176383 0.0044229739232900626 0 -0.0050150663383587979 0.0043023118852822517 0 -0.0047363284478048944 0.0042780024383330204 0 -0.0045480688379773912 0.0045526535383002224 0 -0.0047363284478048944 0.0042780024383330204 0 -0.0044196335049155712 0.0043809475611522432 0 -0.0044710895858417104 0.0043601780181608723 0 -0.0044686448087243071 0.0043907953390017358 0 -0.0050064692841361724 0.0039759876000921152 0 -0.0050067058032184858 0.0039839989751987168 0 -0.0050067469437107513 0.003979709502280087 0 -0.0050067058032184858 0.0039839989751987168 0 -0.0050067469437107513 0.003979709502280087 0 -0.0050083795186467352 0.0039836682058153163 0 -0.0050067469437107513 0.003979709502280087 0 -0.0050059142982199151 0.0039751989395209542 0 -0.0050083795186467352 0.0039836682058153163 0 -0.0050064692841361724 0.0039759876000921152 0 -0.0050067469437107513 0.003979709502280087 0 -0.0050059142982199151 0.0039751989395209542 0 -0.0050059142982199151 0.0039751989395209542 0 -0.0050043305843462107 0.0039722879961096797 0 -0.0050033055563187216 0.0039646172336553955 0 -0.0050052162327689203 0.0039733605171229369 0 -0.0050059142982199151 0.0039751989395209542 0 -0.0050033055563187216 0.0039646172336553955 0 -0.0050059142982199151 0.0039751989395209542 0 -0.0050043305843462107 0.0039722879961096797 0 -0.0050083795186467352 0.0039836682058153163 0 -0.0050043305843462107 0.0039722879961096797 0 -0.0050083795186467352 0.0039836682058153163 0 -0.0050124705410254941 0.0039850774905789673 0 -0.0050083795186467352 0.0039836682058153163 0 -0.0050124705410254941 0.0039850774905789673 0 -0.005012217004934069 0.0039993864829520115 0 -0.0050043305843462107 0.0039722879961096797 0 -0.0050124705410254941 0.0039850774905789673 0 -0.0050048508539947117 0.0039718987512069497 0 -0.0050857973327722078 0.0038633693580089131 0 -0.0050000151238552663 0.0039829739172222234 0 -0.0051697582990287705 0.0037531935211441692 0 -0.0050000026354646929 0.003982993651613977 0 -0.0049999923978573148 0.0037425609595246713 0 -0.0050124705410254941 0.0039850774905789673 0 -0.0050048508539947117 0.0039718987512069497 0 -0.0049998893477736384 0.0039833681036928296 0 -0.0050124705410254941 0.0039850774905789673 0 -0.0049998893477736384 0.0039833681036928296 0 -0.0050000722510718512 0.0040542413285950124 0 -0.0050124705410254941 0.0039850774905789673 0 -0.0050000722510718512 0.0040542413285950124 0 -0.005012217004934069 0.0039993864829520115 0 -0.0049999822180261414 0.0040546400318056458 0 -0.0051303646927549585 0.0040545626066944753 0 -0.0049999987735871755 0.0040546716328405596 0 -0.0051174404922275677 0.0042174225859343793 0 -0.0052016270851382128 0.0041356707015402288 0 -0.0049999987735871755 0.0040546716328405596 0 -0.0051174404922275677 0.0042174225859343793 0 -0.0049999948098336366 0.0042535581551212129 0 -0.005386176742475754 0.0042016053660615662 0 -0.0052016270851382128 0.0041356707015402288 0 -0.0052475620001428648 0.004286009326856805 0 -0.0051174404922275677 0.0042174225859343793 0 -0.0052016270851382128 0.0041356707015402288 0 -0.0052475620001428648 0.004286009326856805 0 -0.0051009111579411858 0.0043789350173164647 0 -0.0052475620001428648 0.004286009326856805 0 -0.0051021424737193524 0.0042942063793260836 0 -0.0049743164813605377 0.004501338714656097 0 -0.0050256752150972996 0.0044617977767170787 0 -0.0047762683152859165 0.0046442716876340393 0 -0.0048169644833823229 0.0046492107449319087 0 -0.0048028473532377219 0.0046282409483884204 0 -0.0051174404922275677 0.0042174225859343793 0 -0.0052475620001428648 0.004286009326856805 0 -0.0051021424737193524 0.0042942063793260836 0 -0.0049999983297414107 0.0044524822842178548 0 -0.0050377116891212924 0.0043320901935488786 0 -0.0049999948098336366 0.0042535581551212129 0 -0.0051009111579411858 0.0043789350173164647 0 -0.0050377116891212924 0.0043320901935488786 0 -0.0051021424737193524 0.0042942063793260836 0 -0.0049743164813605377 0.004501338714656097 0 -0.005007505943522156 0.0044140480401419994 0 -0.0050377116891212924 0.0043320901935488786 0 -0.0049999948098336366 0.0042535581551212129 0 -0.0051021424737193524 0.0042942063793260836 0 -0.0051174404922275677 0.0042174225859343793 0 -0.0049999948098336366 0.0042535581551212129 0 -0.0051021424737193524 0.0042942063793260836 0 -0.0050000027948441965 0.0032617721180060776 0 -0.0052070182607605233 0.003227045477233936 0 -0.0051717620696712756 0.0033968734219772157 0 -0.004999999054892768 0.0032617037492450982 0 -0.0049999973111953524 0.0030058623539407259 0 -0.0051044465586643807 0.0031149819225955795 0 -0.0050000190054201085 0.0032617102905192104 0 -0.0052290906065280071 0.0032079440595255372 0 -0.004999999054892768 0.0032617037492450982 0 -0.0052235931844273626 0.0031837935610120119 0 -0.0051044465586643807 0.0031149819225955795 0 -0.0052070182607605233 0.003227045477233936 0 -0.0051717620696712756 0.0033968734219772157 0 -0.0053185542002446538 0.003304515317261082 0 -0.0051717620696712756 0.0033968734219772157 0 -0.0053195800157488978 0.0035220177722206547 0 -0.0053185542002446538 0.003304515317261082 0 -0.0050000027948441965 0.0032617721180060776 0 -0.0051717620696712756 0.0033968734219772157 0 -0.0049999929459555153 0.0035021292808466876 0 -0.0051717620696712756 0.0033968734219772157 0 -0.0049999929459555153 0.0035021292808466876 0 -0.0051537375609748892 0.0035728359774521803 0 -0.0051697582990287705 0.0037531935211441692 0 -0.0049999923978573148 0.0037425609595246713 0 -0.0051537375609748892 0.0035728359774521803 0 -0.0049999929459555153 0.0035021292808466876 0 -0.0049999923978573148 0.0037425609595246713 0 -0.0051537375609748892 0.0035728359774521803 0 -0.0050857973327722078 0.0038633693580089131 0 -0.005157031249705778 0.0037315147355850924 0 -0.0051697582990287705 0.0037531935211441692 0 -0.0051537375609748892 0.0035728359774521803 0 -0.0053195800157488978 0.0035220177722206547 0 -0.0050043305843462107 0.0039722879961096797 0 -0.0050048508539947117 0.0039718987512069497 0 -0.0049954015225876841 0.0039533499660698666 0 -0.0051717620696712756 0.0033968734219772157 0 -0.0051537375609748892 0.0035728359774521803 0 -0.0053195800157488978 0.0035220177722206547 0 -0.0050043305843462107 0.0039722879961096797 0 -0.0049954015225876841 0.0039533499660698666 0 -0.0050033055563187216 0.0039646172336553955 0 -0.0049954015225876841 0.0039533499660698666 0 -0.0050033055563187216 0.0039646172336553955 0 -0.0050024321057602975 0.0039460423334437269 0 -0.0049954015225876841 0.0039533499660698666 0 -0.0049942123691583675 0.003926540165353958 0 -0.0050024321057602975 0.0039460423334437269 0 -0.005157031249705778 0.0037315147355850924 0 -0.005217802088877393 0.0036670765879936625 0 -0.0053195800157488978 0.0035220177722206547 0 -0.0054259824413293405 0.0033313750972137697 0 -0.0053185542002446538 0.003304515317261082 0 -0.0054259824413293405 0.0033313750972137697 0 -0.0053185542002446538 0.003304515317261082 0 -0.0054082581486645138 0.0032795219329776718 0 -0.0052290906065280071 0.0032079440595255372 0 -0.0053307249790834647 0.0030896179605834004 0 -0.0052070182607605233 0.003227045477233936 0 -0.0053185542002446538 0.003304515317261082 0 -0.0054051911686861962 0.0031718003938567062 0 -0.0053185542002446538 0.003304515317261082 0 -0.0054082581486645138 0.0032795219329776718 0 -0.0053809406412688322 0.0032346494932029017 0 -0.0053176131362141967 0.0033148293738486413 0 -0.0053307249790834647 0.0030896179605834004 0 -0.0054082581486645138 0.0032795219329776718 0 -0.0054220565223645654 0.0032357644487950731 0 -0.0053809406412688322 0.0032346494932029017 0 -0.0054259824413293405 0.0033313750972137697 0 -0.0054839063547050598 0.0032209897438650863 0 -0.0054373893637080506 0.0032254075861032627 0 -0.005217802088877393 0.0036670765879936625 0 -0.0051398084577994338 0.0033484498737482147 0 -0.0054259824413293405 0.0033313750972137697 0 -0.0054082581486645138 0.0032795219329776718 0 -0.0054373893637080506 0.0032254075861032627 0 -0.0054082581486645138 0.0032795219329776718 0 -0.0054373893637080506 0.0032254075861032627 0 -0.0054220565223645654 0.0032357644487950731 0 -0.0049942123691583675 0.003926540165353958 0 -0.0050069784921398025 0.0039261732884582354 0 -0.0050011291090750571 0.003899556767288365 0 -0.0050103387028772629 0.0039082097949219088 0 -0.0050069784921398025 0.0039261732884582354 0 -0.0050192326821292127 0.0039119563380277883 0 -0.0050103387028772629 0.0039082097949219088 0 -0.0050192326821292127 0.0039119563380277883 0 -0.0050135749932770377 0.0038955822920353714 0 -0.0050103387028772629 0.0039082097949219088 0 -0.0050069784921398025 0.0039261732884582354 0 -0.0050011291090750571 0.003899556767288365 0 -0.0050069784921398025 0.0039261732884582354 0 -0.0050197363374411622 0.003933204210639525 0 -0.0050192326821292127 0.0039119563380277883 0 -0.0049942123691583675 0.003926540165353958 0 -0.0050069784921398025 0.0039261732884582354 0 -0.0050024321057602975 0.0039460423334437269 0 -0.0050024321057602975 0.0039460423334437269 0 -0.0050065338873673182 0.003955509798258235 0 -0.0050111498370601871 0.0039434782745287802 0 -0.0050069784921398025 0.0039261732884582354 0 -0.0050024321057602975 0.0039460423334437269 0 -0.0050111498370601871 0.0039434782745287802 0 -0.0050033055563187216 0.0039646172336553955 0 -0.0050024321057602975 0.0039460423334437269 0 -0.0050065338873673182 0.003955509798258235 0 -0.0050042361286030687 0.0039673355369806203 0 -0.0050033055563187216 0.0039646172336553955 0 -0.0050065338873673182 0.003955509798258235 0 -0.0050065338873673182 0.003955509798258235 0 -0.0050111498370601871 0.0039434782745287802 0 -0.0050184103740069453 0.0039534475000385727 0 -0.0050071244578000452 0.0039632967739254973 0 -0.0050065338873673182 0.003955509798258235 0 -0.0050184103740069453 0.0039534475000385727 0 -0.0050118308126733705 0.0039675596399449242 0 -0.0050071244578000452 0.0039632967739254973 0 -0.0050184103740069453 0.0039534475000385727 0 -0.0050042361286030687 0.0039673355369806203 0 -0.0050071244578000452 0.0039632967739254973 0 -0.0050065338873673182 0.003955509798258235 0 -0.0050069784921398025 0.0039261732884582354 0 -0.0050111498370601871 0.0039434782745287802 0 -0.0050197363374411622 0.003933204210639525 0 -0.0042021849351340755 0.0036890471113475909 0 -0.0035008477785083239 0.0032539216026430846 0 -0.0034032970985346813 0.003516904084536557 0 -0.0035579814977122317 0.0034571913135773655 0 -0.003517087354468533 0.0032867003575857449 0 -0.003502819072922869 0.003200439660685654 0 -0.0035115942573871444 0.0034103422650041547 0 -0.0036036396838889841 0.0032118392589973012 0 -0.0042740094243702209 0.0035789161964593945 0 -0.0042021849351340755 0.0036890471113475909 0 -0.0050111498370601871 0.0039434782745287802 0 -0.0050197363374411622 0.003933204210639525 0 -0.0050184103740069453 0.0039534475000385727 0 -0.0049718529076481976 0.003950460317192709 0 -0.0042021849351340755 0.0036890471113475909 0 -0.0034032970985346813 0.003516904084536557 0 -0.0036454345828888339 0.0036324870112866424 0 -0.0035579814977122317 0.0034571913135773655 0 -0.0036454345828888339 0.0036324870112866424 0 -0.0035579814977122317 0.0034571913135773655 0 -0.0036930365326655811 0.003408187384157677 0 -0.0035579814977122317 0.0034571913135773655 0 -0.0036930365326655811 0.003408187384157677 0 -0.003517087354468533 0.0032867003575857449 0 -0.0036930365326655811 0.003408187384157677 0 -0.003517087354468533 0.0032867003575857449 0 -0.0036614360416594408 0.0032415171664560193 0 -0.003517087354468533 0.0032867003575857449 0 -0.0036614360416594408 0.0032415171664560193 0 -0.0036377665599136434 0.0030516945898029909 0 -0.0036036396838889841 0.0032118392589973012 0 -0.0036897669110634045 0.0030193768182242495 0 -0.0035942012336159877 0.0030165753630446695 0 -0.0035008477785083239 0.0032539216026430846 0 -0.0036713369581694551 0.0030294308864734867 0 -0.0036036396838889841 0.0032118392589973012 0 -0.003538521265291408 0.0031010064132837947 0 -0.0035942012336159877 0.0030165753630446695 0 -0.003502819072922869 0.003200439660685654 0 -0.0036036396838889841 0.0032118392589973012 0 -0.003538521265291408 0.0031010064132837947 0 -0.0042740094243702209 0.0035789161964593945 0 -0.0040644890712536212 0.0033870012948381228 0 -0.003502819072922869 0.003200439660685654 0 -0.003538521265291408 0.0031010064132837947 0 -0.0035055826365486256 0.0030061947543773555 0 -0.003538521265291408 0.0031010064132837947 0 -0.0034973931455030615 0.0029978850386627154 0 -0.0035942012336159877 0.0030165753630446695 0 -0.003629473599897062 0.0029588359998623994 0 -0.0040644890712536212 0.0033870012948381228 0 -0.0034973931455030615 0.0029978850386627154 0 -0.003556809669380742 0.0029355362183065142 0 -0.0035942012336159877 0.0030165753630446695 0 -0.0040644890712536212 0.0033870012948381228 0 -0.0044958602677916239 0.003324204703408246 0 -0.0034973931455030615 0.0029978850386627154 0 -0.003556809669380742 0.0029355362183065142 0 -0.0035010723782397165 0.0028248567290350309 0 -0.0040644890712536212 0.0033870012948381228 0 -0.0037772514910563502 0.0029379782321897244 0 -0.003556809669380742 0.0029355362183065142 0 -0.0036220266924584716 0.002882814054898391 0 -0.0035942012336159877 0.0030165753630446695 0 -0.0036897669110634045 0.0030193768182242495 0 -0.0036999913695366106 0.0028709352128210054 0 -0.0037687043561108672 0.0028281914184119694 0 -0.0036220266924584716 0.002882814054898391 0 -0.0036897669110634045 0.0030193768182242495 0 -0.0036999913695366106 0.0028709352128210054 0 -0.0036220266924584716 0.002882814054898391 0 -0.0036897669110634045 0.0030193768182242495 0 -0.0035942012336159877 0.0030165753630446695 0 -0.0036220266924584716 0.002882814054898391 0 -0.0035010723782397165 0.0028248567290350309 0 -0.0037274229314840247 0.0027922971758150379 0 -0.0036895327180651444 0.0026559715562104497 0 -0.0035850579250219831 0.0027016227734686107 0 -0.0037791534171926953 0.0026932723802231676 0 -0.0037772514910563502 0.0029379782321897244 0 -0.0037076673521572109 0.0027234687418391914 0 -0.0037483121284189887 0.0026418336180724848 0 -0.0037791534171926953 0.0026932723802231676 0 -0.0037844117088558253 0.0026205322227447355 0 -0.0036895327180651444 0.0026559715562104497 0 -0.0037483121284189887 0.0026418336180724848 0 -0.0037791534171926953 0.0026932723802231676 0 -0.0036220266924584716 0.002882814054898391 0 -0.0036999913695366106 0.0028709352128210054 0 -0.0037274229314840247 0.0027922971758150379 0 -0.003556809669380742 0.0029355362183065142 0 -0.0036220266924584716 0.002882814054898391 0 -0.0035010723782397165 0.0028248567290350309 0 -0.0041057377983421319 0.0033391325358261923 0 -0.0041065779394615443 0.0031219063993298706 0 -0.0040269042337646964 0.0031285990451949729 0 -0.0037772514910563502 0.0029379782321897244 0 -0.0044958602677916239 0.003324204703408246 0 -0.0040967245323553017 0.0029764792520080986 0 -0.004069902195059226 0.002938391459324805 0 -0.0040960630545857695 0.0028978970180806979 0 -0.0037772514910563502 0.0029379782321897244 0 -0.0037367944184356259 0.0027220665962254032 0 -0.0040967245323553017 0.0029764792520080986 0 -0.004069902195059226 0.002938391459324805 0 -0.0040527619214681546 0.0029804304623628083 0 -0.0036895327180651444 0.0026559715562104497 0 -0.0035850579250219831 0.0027016227734686107 0 -0.0036257852965541565 0.0026448923002605745 0 -0.0036895327180651444 0.0026559715562104497 0 -0.0036257852965541565 0.0026448923002605745 0 -0.0036445240809629036 0.0026023131906900477 0 -0.0035850579250219831 0.0027016227734686107 0 -0.0036257852965541565 0.0026448923002605745 0 -0.0035838956744931802 0.0026125111244958972 0 -0.0036390200819165809 0.0026745651278042818 0 -0.0037367944184356259 0.0027220665962254032 0 -0.0036257852965541565 0.0026448923002605745 0 -0.0036445240809629036 0.0026023131906900477 0 -0.0035838956744931802 0.0026125111244958972 0 -0.0036445240809629036 0.0026023131906900477 0 -0.0035885877647259278 0.0026066741504626599 0 -0.003590210100269056 0.0025491622704049539 0 -0.004069902195059226 0.002938391459324805 0 -0.0040960630545857695 0.0028978970180806979 0 -0.0040245182481647287 0.0029065707601264998 0 -0.0037367944184356259 0.0027220665962254032 0 -0.0041110479866373114 0.0027349652830710959 0 -0.0035916535324033451 0.0026003584530812228 0 -0.003590210100269056 0.0025491622704049539 0 -0.0035173691332515988 0.0026096207245787208 0 -0.0037367944184356259 0.0027220665962254032 0 -0.003677123922526854 0.0025836111504892157 0 -0.003590210100269056 0.0025491622704049539 0 -0.0035900247772591453 0.002486341284645522 0 -0.0035351765200821281 0.0024995649109147392 0 -0.0036445240809629036 0.0026023131906900477 0 -0.003590210100269056 0.0025491622704049539 0 -0.0036478415485545423 0.0025289350507189355 0 -0.003590210100269056 0.0025491622704049539 0 -0.0036478415485545423 0.0025289350507189355 0 -0.0035900247772591453 0.002486341284645522 0 -0.0036445240809629036 0.0026023131906900477 0 -0.0036478415485545423 0.0025289350507189355 0 -0.0036895948097720181 0.0025710034399787814 0 -0.0036478415485545423 0.0025289350507189355 0 -0.0036895948097720181 0.0025710034399787814 0 -0.0037276564800499674 0.0024995780099689585 0 -0.0036895327180651444 0.0026559715562104497 0 -0.0036895948097720181 0.0025710034399787814 0 -0.0037407007195543181 0.0025961970533166876 0 -0.0036895327180651444 0.0026559715562104497 0 -0.0036445240809629036 0.0026023131906900477 0 -0.0036895948097720181 0.0025710034399787814 0 -0.0037483121284189887 0.0026418336180724848 0 -0.0037407007195543181 0.0025961970533166876 0 -0.0037844117088558253 0.0026205322227447355 0 -0.0036895327180651444 0.0026559715562104497 0 -0.0037483121284189887 0.0026418336180724848 0 -0.0037407007195543181 0.0025961970533166876 0 -0.0036895948097720181 0.0025710034399787814 0 -0.0037407007195543181 0.0025961970533166876 0 -0.0037276564800499674 0.0024995780099689585 0 -0.0037407007195543181 0.0025961970533166876 0 -0.0037276564800499674 0.0024995780099689585 0 -0.0038294141783510173 0.0025661021300786911 0 -0.0037276564800499674 0.0024995780099689585 0 -0.003705938961055406 0.0023979496620879421 0 -0.0036555416266294267 0.0024660609069146883 0 -0.0036478415485545423 0.0025289350507189355 0 -0.0037276564800499674 0.0024995780099689585 0 -0.0036555416266294267 0.0024660609069146883 0 -0.0037276564800499674 0.0024995780099689585 0 -0.003705938961055406 0.0023979496620879421 0 -0.0038011618230547064 0.0024108832055660966 0 -0.003705938961055406 0.0023979496620879421 0 -0.0036592742636455036 0.002299522760675111 0 -0.0037498799224078274 0.002279052860797911 0 -0.003705938961055406 0.0023979496620879421 0 -0.0038011618230547064 0.0024108832055660966 0 -0.0037498799224078274 0.002279052860797911 0 -0.003705938961055406 0.0023979496620879421 0 -0.0036592742636455036 0.002299522760675111 0 -0.0036074968480738294 0.0024040353484515195 0 -0.0035872665600690319 0.0023274571436911209 0 -0.0035484532502832017 0.0022979320758564664 0 -0.0035364372284292646 0.0023604249694726314 0 -0.0035872665600690319 0.0023274571436911209 0 -0.0035484532502832017 0.0022979320758564664 0 -0.0035954939489245882 0.0022633548245109157 0 -0.0036592742636455036 0.002299522760675111 0 -0.0035872665600690319 0.0023274571436911209 0 -0.0035954939489245882 0.0022633548245109157 0 -0.0036592742636455036 0.002299522760675111 0 -0.0035872665600690319 0.0023274571436911209 0 -0.0036074968480738294 0.0024040353484515195 0 -0.0035872665600690319 0.0023274571436911209 0 -0.0036074968480738294 0.0024040353484515195 0 -0.0035364372284292646 0.0023604249694726314 0 -0.0036074968480738294 0.0024040353484515195 0 -0.0035900247772591453 0.002486341284645522 0 -0.003537043615733179 0.0024401337986593836 0 -0.0036074968480738294 0.0024040353484515195 0 -0.003537043615733179 0.0024401337986593836 0 -0.0035364372284292646 0.0023604249694726314 0 -0.0036074968480738294 0.0024040353484515195 0 -0.0036555416266294267 0.0024660609069146883 0 -0.0035900247772591453 0.002486341284645522 0 -0.003705938961055406 0.0023979496620879421 0 -0.0036074968480738294 0.0024040353484515195 0 -0.0036555416266294267 0.0024660609069146883 0 -0.0036478415485545423 0.0025289350507189355 0 -0.0036555416266294267 0.0024660609069146883 0 -0.0035900247772591453 0.002486341284645522 0 -0.0035900247772591453 0.002486341284645522 0 -0.0035351765200821281 0.0024995649109147392 0 -0.003537043615733179 0.0024401337986593836 0 -0.0035351765200821281 0.0024995649109147392 0 -0.0034412299897247918 0.0024117966015751659 0 -0.0035173691332515988 0.0026096207245787208 0 -0.003537043615733179 0.0024401337986593836 0 -0.0035364372284292646 0.0023604249694726314 0 -0.0034412299897247918 0.0024117966015751659 0 -0.0035351765200821281 0.0024995649109147392 0 -0.003537043615733179 0.0024401337986593836 0 -0.0034412299897247918 0.0024117966015751659 0 -0.0036902883564815013 0.0021864872463714896 0 -0.0040647912800360585 0.0024354471106400348 0 -0.0035364372284292646 0.0023604249694726314 0 -0.0035011183448907129 0.0022876151068903891 0 -0.0034412299897247918 0.0024117966015751659 0 -0.0038931395117327585 0.0022979379047133506 0 -0.0039236635860919068 0.0022656516633899637 0 -0.003922120736431561 0.0022606127337263058 0 -0.0036902883564815013 0.0021864872463714896 0 -0.0041760067066827326 0.0023067728332286427 0 -0.0035484532502832017 0.0022979320758564664 0 -0.0035364372284292646 0.0023604249694726314 0 -0.0035011183448907129 0.0022876151068903891 0 -0.0048716582846540599 0.0024712305586951254 0 -0.0049348229442943824 0.0024707973669791791 0 -0.0048970040894331587 0.00253642668184422 0 -0.0036970335011482854 0.0019463204773471944 0 -0.0037556983106081451 0.0018685780707609529 0 -0.0038126066852535805 0.0020126768755481857 0 -0.0041760067066827326 0.0023067728332286427 0 -0.0045698887341839092 0.0021654561574046384 0 -0.0041760067066827326 0.0023067728332286427 0 -0.0047982320498305654 0.0024665243775171537 0 -0.0048716582846540599 0.0024712305586951254 0 -0.0049034072221152978 0.0024330646340667735 0 -0.0049348229442943824 0.0024707973669791791 0 -0.0040647912800360585 0.0024354471106400348 0 -0.0044995684950955694 0.0025737001009928473 0 -0.0045812680587891189 0.0025974866195295331 0 -0.004579387451247534 0.0025911247423677773 0 -0.0046269539574760035 0.0025512797449300769 0 -0.004579387451247534 0.0025911247423677773 0 -0.0046138654711546292 0.002548846859205364 0 -0.0046269539574760035 0.0025512797449300769 0 -0.0041760067066827326 0.0023067728332286427 0 -0.0040647912800360585 0.0024354471106400348 0 -0.004372124582834357 0.0026227169229750733 0 -0.0043182784675397127 0.0025892317013754798 0 -0.0043978770694583034 0.0025802627080736148 0 -0.0044995684950955694 0.0025737001009928473 0 -0.0048174754260296177 0.0027760956326870244 0 -0.0046138654711546292 0.002548846859205364 0 -0.0046269539574760035 0.0025512797449300769 0 -0.0046450850745191246 0.0025049065964121977 0 -0.003590210100269056 0.0025491622704049539 0 -0.0035351765200821281 0.0024995649109147392 0 -0.0035173691332515988 0.0026096207245787208 0 -0.0043474290619883449 0.0026640226341234172 0 -0.004372124582834357 0.0026227169229750733 0 -0.0043182784675397127 0.0025892317013754798 0 -0.0040647912800360585 0.0024354471106400348 0 -0.0041110479866373114 0.0027349652830710959 0 -0.0045062263499958989 0.0031682462951825971 0 -0.0044328272864165531 0.0029766002085909217 0 -0.0047567223633318608 0.0030275933857764684 0 -0.0044328272864165531 0.0029766002085909217 0 -0.0048213019064877313 0.0029459444640507321 0 -0.0047567223633318608 0.0030275933857764684 0 -0.0050103387028772629 0.0039082097949219088 0 -0.0050135749932770377 0.0038955822920353714 0 -0.0050011291090750571 0.003899556767288365 0 -0.0044958602677916239 0.003324204703408246 0 -0.0051398084577994338 0.0033484498737482147 0 -0.004069902195059226 0.002938391459324805 0 -0.0040245182481647287 0.0029065707601264998 0 -0.0040527619214681546 0.0029804304623628083 0 -0.0041110479866373114 0.0027349652830710959 0 -0.0044958602677916239 0.003324204703408246 0 -0.0045062263499958989 0.0031682462951825971 0 -0.0047567223633318608 0.0030275933857764684 0 -0.0049834832219622805 0.0031115816125325065 0 -0.0054591331530067988 0.0032166203494493079 0 -0.0054373893637080506 0.0032254075861032627 0 -0.0054311110356921521 0.0032256593461682222 0 -0.0047567223633318608 0.0030275933857764684 0 -0.0049834832219622805 0.0031115816125325065 0 -0.0050809005265489999 0.0029287080072646242 0 -0.0041110479866373114 0.0027349652830710959 0 -0.0048174754260296177 0.0027760956326870244 0 -0.0051557557921830359 0.0032263133959429748 0 -0.0052064059779957355 0.0030387458344990131 0 -0.0051398084577994338 0.0033484498737482147 0 -0.0051557557921830359 0.0032263133959429748 0 -0.0054536019131649289 0.00322394077344898 0 -0.0054591331530067988 0.0032166203494493079 0 -0.0054373893637080506 0.0032254075861032627 0 -0.0051398084577994338 0.0033484498737482147 0 -0.0055027420240199992 0.0032501298835338763 0 -0.0051383671993005678 0.0029018867231840801 0 -0.0051418396961257313 0.0029065179317162597 0 -0.005157178832462187 0.0028814765000003558 0 -0.005212151661388993 0.0028153036201098622 0 -0.0052134447314387327 0.0028026807055124498 0 -0.0051383671993005678 0.0029018867231840801 0 -0.0051413707425835573 0.0029060988744433339 0 -0.005137707712935341 0.0029067388362268745 0 -0.0052134447314387327 0.0028026807055124498 0 -0.0050260645066644502 0.0027118650629674593 0 -0.0051383671993005678 0.0029018867231840801 0 -0.0051214394891287074 0.0029083818346188305 0 -0.0051348030306452002 0.0028870610302726874 0 -0.0051383671993005678 0.0029018867231840801 0 -0.005137707712935341 0.0029067388362268745 0 -0.0051214394891287074 0.0029083818346188305 0 -0.0048174754260296177 0.0027760956326870244 0 -0.0052064059779957355 0.0030387458344990131 0 -0.0050260645066644502 0.0027118650629674593 0 -0.0048174754260296177 0.0027760956326870244 0 -0.0054373893637080506 0.0032254075861032627 0 -0.0054311110356921521 0.0032256593461682222 0 -0.0054220565223645654 0.0032357644487950731 0 -0.0052064059779957355 0.0030387458344990131 0 -0.0052160842135290011 0.0030641434728079435 0 -0.0054278534683368596 0.0032247717116624451 0 -0.0054220565223645654 0.0032357644487950731 0 -0.0053809406412688322 0.0032346494932029017 0 -0.0052064059779957355 0.0030387458344990131 0 -0.0053307249790834647 0.0030896179605834004 0 -0.0052134447314387327 0.0028026807055124498 0 -0.0053307249790834647 0.0030896179605834004 0 -0.0051383671993005678 0.0029018867231840801 0 -0.0051348030306452002 0.0028870610302726874 0 -0.005157178832462187 0.0028814765000003558 0 -0.0054950848523890308 0.0029978564240506975 0 -0.005435777166988667 0.0031134123812487525 0 -0.0052215057396016382 0.0030303782889839741 0 -0.0055053106728350952 0.0029887491607571422 0 -0.0053259087407710503 0.0029182724040960704 0 -0.0052215057396016382 0.0030303782889839741 0 -0.0052134447314387327 0.0028026807055124498 0 -0.0053543036812733341 0.0030784302439028953 0 -0.0052134447314387327 0.0028026807055124498 0 -0.0051697663787473262 0.0026101545578929713 0 -0.0055053106728350952 0.0029887491607571422 0 -0.0053854243904098622 0.0028210322534626361 0 -0.0053259087407710503 0.0029182724040960704 0 -0.0049034072221152978 0.0024330646340667735 0 -0.0049331242507559235 0.0023976907669937325 0 -0.0049377583005677586 0.0024243113263409145 0 -0.0049370616182402502 0.0023973441168651292 0 -0.0049668535467763293 0.0024343964060363952 0 -0.0049377583005677586 0.0024243113263409145 0 -0.0047982320498305654 0.0024665243775171537 0 -0.0050260645066644502 0.0027118650629674593 0 -0.0046269539574760035 0.0025512797449300769 0 -0.0046688236908352257 0.0025031900272681523 0 -0.0046450850745191246 0.0025049065964121977 0 -0.0049370616182402502 0.0023973441168651292 0 -0.0049331242507559235 0.0023976907669937325 0 -0.0049377583005677586 0.0024243113263409145 0 -0.0049034072221152978 0.0024330646340667735 0 -0.0049377583005677586 0.0024243113263409145 0 -0.0049348229442943824 0.0024707973669791791 0 -0.0049668535467763293 0.0024343964060363952 0 -0.0049377583005677586 0.0024243113263409145 0 -0.0049348229442943824 0.0024707973669791791 0 -0.0049348229442943824 0.0024707973669791791 0 -0.0049999433941169315 0.0024748686037127333 0 -0.004966561356945517 0.0025281766591109937 0 -0.0051697663787473262 0.0026101545578929713 0 -0.0051360426163226938 0.0025678705459189458 0 -0.0049668535467763293 0.0024343964060363952 0 -0.0049348229442943824 0.0024707973669791791 0 -0.0049999433941169315 0.0024748686037127333 0 -0.0053854243904098622 0.0028210322534626361 0 -0.0052643059667651249 0.0026471536403032494 0 -0.0051892442760110144 0.0028314894438889481 0 -0.0052643059667651249 0.0026471536403032494 0 -0.0051191117412540694 0.0026391194917306667 0 -0.0051892442760110144 0.0028314894438889481 0 -0.0052643059667651249 0.0026471536403032494 0 -0.0051191117412540694 0.0026391194917306667 0 -0.0051406460986418755 0.0024720614167780368 0 -0.0051360426163226938 0.0025678705459189458 0 -0.0050776105144141482 0.0024738734678129391 0 -0.0049999433941169315 0.0024748686037127333 0 -0.0050334300099490192 0.0025181893338244313 0 -0.004966561356945517 0.0025281766591109937 0 -0.0051191117412540694 0.0026391194917306667 0 -0.004999997168181061 0.0027500143071378736 0 -0.0049999974016880317 0.0024941727228537641 0 -0.0051191117412540694 0.0026391194917306667 0 -0.0051406460986418755 0.0024720614167780368 0 -0.0049999974016880317 0.0024941727228537641 0 -0.0051191117412540694 0.0026391194917306667 0 -0.004999997168181061 0.0027500143071378736 0 -0.0051892442760110144 0.0028314894438889481 0 -0.004999997168181061 0.0027500143071378736 0 -0.0051892442760110144 0.0028314894438889481 0 -0.0049999973111953524 0.0030058623539407259 0 -0.0051892442760110144 0.0028314894438889481 0 -0.0052215057396016382 0.0030303782889839741 0 -0.0049999973111953524 0.0030058623539407259 0 -0.0053259087407710503 0.0029182724040960704 0 -0.0051892442760110144 0.0028314894438889481 0 -0.0052215057396016382 0.0030303782889839741 0 -0.0053854243904098622 0.0028210322534626361 0 -0.0053259087407710503 0.0029182724040960704 0 -0.0051892442760110144 0.0028314894438889481 0 -0.0052235931844273626 0.0031837935610120119 0 -0.0052215057396016382 0.0030303782889839741 0 -0.0051044465586643807 0.0031149819225955795 0 -0.0052235931844273626 0.0031837935610120119 0 -0.005435777166988667 0.0031134123812487525 0 -0.0052215057396016382 0.0030303782889839741 0 -0.0052215057396016382 0.0030303782889839741 0 -0.0049999973111953524 0.0030058623539407259 0 -0.0051044465586643807 0.0031149819225955795 0 -0.0041661079089952181 0.0027198165963105356 0 -0.0041060127896283853 0.0027478870302677216 0 -0.0041357708679433799 0.0026727471764901472 0 -0.0041661079089952181 0.0027198165963105356 0 -0.0041060127896283853 0.0027478870302677216 0 -0.0041663879599924377 0.0027719980942896095 0 -0.0041060127896283853 0.0027478870302677216 0 -0.0040882238390682899 0.0026742238615254836 0 -0.0041357708679433799 0.0026727471764901472 0 -0.0041060127896283853 0.0027478870302677216 0 -0.0040882238390682899 0.0026742238615254836 0 -0.0040535153343181259 0.0026772678207995248 0 -0.0040797866752660828 0.0040801068135193266 0 -0.0039840962463919462 0.0040968778009138947 0 -0.0039911012275578627 0.0039792267959957517 0 -0.0040797866752660828 0.0040801068135193266 0 -0.0040447277685795426 0.0041493689524079889 0 -0.0039840962463919462 0.0040968778009138947 0 -0.0041139792071668959 0.0034096075186161811 0 -0.0041005757148507294 0.0031038907073719637 0 -0.0040882238390682899 0.0026742238615254836 0 -0.0040535153343181259 0.0026772678207995248 0 -0.0040604924864316317 0.0026686526748759274 0 -0.0040882238390682899 0.0026742238615254836 0 -0.0040754066087491459 0.0026518815745598446 0 -0.0040604924864316317 0.0026686526748759274 0 -0.0040882238390682899 0.0026742238615254836 0 -0.0040754066087491459 0.0026518815745598446 0 -0.0040939750605929175 0.0026299054270287558 0 -0.0040754066087491459 0.0026518815745598446 0 -0.0040939750605929175 0.0026299054270287558 0 -0.0040592738107311397 0.0026352763850150066 0 -0.0040754066087491459 0.0026518815745598446 0 -0.0040604924864316317 0.0026686526748759274 0 -0.0040592738107311397 0.0026352763850150066 0 -0.0040882238390682899 0.0026742238615254836 0 -0.0040939750605929175 0.0026299054270287558 0 -0.0041357708679433799 0.0026727471764901472 0 -0.0041357708679433799 0.0026727471764901472 0 -0.0041677008536743229 0.0026365314643503374 0 -0.0041358352463402434 0.002623151148839817 0 -0.0040939750605929175 0.0026299054270287558 0 -0.0041357708679433799 0.0026727471764901472 0 -0.0041358352463402434 0.002623151148839817 0 -0.0041661079089952181 0.0027198165963105356 0 -0.0041357708679433799 0.0026727471764901472 0 -0.0041822592315546659 0.0026765134400852856 0 -0.0041357708679433799 0.0026727471764901472 0 -0.0041677008536743229 0.0026365314643503374 0 -0.0041822592315546659 0.0026765134400852856 0 -0.0041677008536743229 0.0026365314643503374 0 -0.0042109090696219424 0.0026353849130419599 0 -0.0041822592315546659 0.0026765134400852856 0 -0.0042109090696219424 0.0026353849130419599 0 -0.0042151045165485937 0.0026816857803076671 0 -0.0041822592315546659 0.0026765134400852856 0 -0.0042109090696219424 0.0026353849130419599 0 -0.0042450978522121773 0.0026701060259439417 0 -0.0042567596702802425 0.0026207954317810683 0 -0.0042109090696219424 0.0026353849130419599 0 -0.0042151045165485937 0.0026816857803076671 0 -0.0042450978522121773 0.0026701060259439417 0 -0.0042151045165485937 0.0026816857803076671 0 -0.0042450978522121773 0.0026701060259439417 0 -0.0042314294408228011 0.0027140902295132432 0 -0.0042151045165485937 0.0026816857803076671 0 -0.0041822592315546659 0.0026765134400852856 0 -0.004200574749691089 0.0027078439559769046 0 -0.0042864911030710369 0.0026619522067844298 0 -0.0042450978522121773 0.0026701060259439417 0 -0.0042567596702802425 0.0026207954317810683 0 -0.0042450978522121773 0.0026701060259439417 0 -0.0042719412541133385 0.0027052923929934366 0 -0.0042314294408228011 0.0027140902295132432 0 -0.0042864911030710369 0.0026619522067844298 0 -0.0042450978522121773 0.0026701060259439417 0 -0.0042719412541133385 0.0027052923929934366 0 -0.0043140670076108169 0.0027084904343550368 0 -0.0042864911030710369 0.0026619522067844298 0 -0.0042719412541133385 0.0027052923929934366 0 -0.0043140670076108169 0.0027084904343550368 0 -0.0042719412541133385 0.0027052923929934366 0 -0.0042805728903998509 0.0027702007955832018 0 -0.0042719412541133385 0.0027052923929934366 0 -0.0042314294408228011 0.0027140902295132432 0 -0.0042805728903998509 0.0027702007955832018 0 -0.0042314294408228011 0.0027140902295132432 0 -0.0042052110606236133 0.0027451513456003165 0 -0.0042805728903998509 0.0027702007955832018 0 -0.0041661079089952181 0.0027198165963105356 0 -0.0041822592315546659 0.0026765134400852856 0 -0.004200574749691089 0.0027078439559769046 0 -0.0041661079089952181 0.0027198165963105356 0 -0.004200574749691089 0.0027078439559769046 0 -0.0042052110606236133 0.0027451513456003165 0 -0.0042151045165485937 0.0026816857803076671 0 -0.004200574749691089 0.0027078439559769046 0 -0.0042314294408228011 0.0027140902295132432 0 -0.004200574749691089 0.0027078439559769046 0 -0.0042314294408228011 0.0027140902295132432 0 -0.0042052110606236133 0.0027451513456003165 0 -0.0041661079089952181 0.0027198165963105356 0 -0.0042052110606236133 0.0027451513456003165 0 -0.0041663879599924377 0.0027719980942896095 0 -0.0029941873730683632 0.0042253587231350946 0 -0.0033286696335849703 0.0041243433813323727 0 -0.0032238763173586329 0.0043141340347571198 0 -0.0036998291556832575 0.0036486674496294504 0 -0.0038954667490848352 0.00333749500068673 0 -0.0041862821519372973 0.0027911660512226506 0 -0.0041746331673638004 0.0028116926854833573 0 -0.0042805728903998509 0.0027702007955832018 0 -0.0041862821519372973 0.0027911660512226506 0 -0.0041749183008887277 0.0028118267231485388 0 -0.0041663879599924377 0.0027719980942896095 0 -0.0042052110606236133 0.0027451513456003165 0 -0.0041862821519372973 0.0027911660512226506 0 -0.0042805728903998509 0.0027702007955832018 0 -0.0042052110606236133 0.0027451513456003165 0 -0.0041862821519372973 0.0027911660512226506 0 -0.0041663879599924377 0.0027719980942896095 0 -0.0040226596640732873 0.0031097058308893694 0 -0.0036998291556832575 0.0036486674496294504 0 -0.0029941873730683632 0.0042253587231350946 0 -0.0030871664574498433 0.0043902175680491711 0 -0.0029715841879448777 0.0042622745799159199 0 -0.0034582778935384733 0.0042845987906346772 0 -0.0033286696335849703 0.0041243433813323727 0 -0.0032238763173586329 0.0043141340347571198 0 -0.0028822969744747122 0.0048925750197024373 0 -0.0029202615269996956 0.0048350784952532703 0 -0.0034582778935384733 0.0042845987906346772 0 -0.0032529796916797343 0.0045499532771625523 0 -0.0032238763173586329 0.0043141340347571198 0 -0.0032529796916797343 0.0045499532771625523 0 -0.0032238763173586329 0.0043141340347571198 0 -0.0030871664574498433 0.0043902175680491711 0 -0.0029941873730683632 0.0042253587231350946 0 -0.0032238763173586329 0.0043141340347571198 0 -0.0030871664574498433 0.0043902175680491711 0 -0.0030844267259825899 0.0042707710844431561 0 -0.0035191329052214112 0.0040365364013739274 0 -0.0040928383260927488 0.0043229546034082222 0 -0.0041714889791970057 0.0041884059140159195 0 -0.00410117406391328 0.0041969648910073088 0 -0.0034381496186664537 0.004463937826267749 0 -0.0035191329052214112 0.0040365364013739274 0 -0.0027885823270224668 0.0045390529393001412 0 -0.0030871664574498433 0.0043902175680491711 0 -0.0029627461253451488 0.0042590475223267237 0 -0.0041060127896283853 0.0027478870302677216 0 -0.0041598387171359026 0.0028170933673393743 0 -0.0041663879599924377 0.0027719980942896095 0 -0.0040797866752660828 0.0040801068135193266 0 -0.0041650439418081785 0.0041750851846845197 0 -0.00410117406391328 0.0041969648910073088 0 -0.0041714889791970057 0.0041884059140159195 0 -0.0041607920395330617 0.0041775034178632396 0 -0.00410117406391328 0.0041969648910073088 0 -0.0036998291556832575 0.0036486674496294504 0 -0.0035191329052214112 0.0040365364013739274 0 -0.0035605152743370967 0.0037747673884693687 0 -0.0035626994821911025 0.003771617147515797 0 -0.0035652244529672315 0.0037739275973474621 0 -0.0036998291556832575 0.0036486674496294504 0 -0.0038300781062496295 0.00388663264679212 0 -0.0035191329052214112 0.0040365364013739274 0 -0.0038300781062496295 0.00388663264679212 0 -0.0038300781062496295 0.00388663264679212 0 -0.0041116131273517481 0.0040628296000661032 0 -0.0041139792071668959 0.0034096075186161811 0 -0.0038300781062496295 0.00388663264679212 0 -0.0041749183008887277 0.0028118267231485388 0 -0.0041598387171359026 0.0028170933673393743 0 -0.0041663879599924377 0.0027719980942896095 0 -0.0040797866752660828 0.0040801068135193266 0 -0.00410117406391328 0.0041969648910073088 0 -0.0040447277685795426 0.0041493689524079889 0 -0.0040447277685795426 0.0041493689524079889 0 -0.0039877280471602742 0.0041723097372260596 0 -0.0039840962463919462 0.0040968778009138947 0 -0.00410117406391328 0.0041969648910073088 0 -0.0040447277685795426 0.0041493689524079889 0 -0.0040318175827725664 0.0042018279865153529 0 -0.0040447277685795426 0.0041493689524079889 0 -0.0040318175827725664 0.0042018279865153529 0 -0.0039877280471602742 0.0041723097372260596 0 -0.0040318175827725664 0.0042018279865153529 0 -0.0040258326146172 0.0042651782240432697 0 -0.0039756249443224411 0.0042268555439610341 0 -0.0040928383260927488 0.0043229546034082222 0 -0.00410117406391328 0.0041969648910073088 0 -0.0040258326146172 0.0042651782240432697 0 -0.00410117406391328 0.0041969648910073088 0 -0.0040318175827725664 0.0042018279865153529 0 -0.0040258326146172 0.0042651782240432697 0 -0.0040258326146172 0.0042651782240432697 0 -0.0039756249443224411 0.0042268555439610341 0 -0.0039521634677658563 0.0042869787509652217 0 -0.0040019240837649841 0.0043422534683940058 0 -0.0040258326146172 0.0042651782240432697 0 -0.0039521634677658563 0.0042869787509652217 0 -0.0039756249443224411 0.0042268555439610341 0 -0.0039177196951374676 0.0042291375503932041 0 -0.0039521634677658563 0.0042869787509652217 0 -0.0039756249443224411 0.0042268555439610341 0 -0.0039177196951374676 0.0042291375503932041 0 -0.0039445190255351292 0.0041897910503855655 0 -0.0039177196951374676 0.0042291375503932041 0 -0.0039521634677658563 0.0042869787509652217 0 -0.0038595000456038164 0.0042790257230038604 0 -0.0038595000456038164 0.0042790257230038604 0 -0.0038421516479862014 0.0042248354767465204 0 -0.0038749386964538244 0.0042112959593573742 0 -0.0038595000456038164 0.0042790257230038604 0 -0.0038421516479862014 0.0042248354767465204 0 -0.0037830887309422724 0.0042514514717783402 0 -0.0039177196951374676 0.0042291375503932041 0 -0.0038595000456038164 0.0042790257230038604 0 -0.0038749386964538244 0.0042112959593573742 0 -0.0039177196951374676 0.0042291375503932041 0 -0.0038749386964538244 0.0042112959593573742 0 -0.0038993454830631392 0.0041731200468405633 0 -0.0038749386964538244 0.0042112959593573742 0 -0.0038993454830631392 0.0041731200468405633 0 -0.0038509519434138857 0.0041560943598723263 0 -0.0038421516479862014 0.0042248354767465204 0 -0.0038509519434138857 0.0041560943598723263 0 -0.0037830887309422724 0.0042514514717783402 0 -0.0038421516479862014 0.0042248354767465204 0 -0.0038749386964538244 0.0042112959593573742 0 -0.0038509519434138857 0.0041560943598723263 0 -0.0038993454830631392 0.0041731200468405633 0 -0.0038509519434138857 0.0041560943598723263 0 -0.0038750251635946884 0.004138031372685977 0 -0.0038750251635946884 0.004138031372685977 0 -0.003911178865306608 0.0041415765622304949 0 -0.0039274888296691483 0.0041108798940105596 0 -0.0038502907660374779 0.0041547587620678643 0 -0.0038750251635946884 0.004138031372685977 0 -0.0039181026691025335 0.0040673567462848007 0 -0.0038993454830631392 0.0041731200468405633 0 -0.0038750251635946884 0.004138031372685977 0 -0.003911178865306608 0.0041415765622304949 0 -0.0039714133366932341 0.0039087905940571807 0 -0.0038826956885289333 0.0039961878794419923 0 -0.003911178865306608 0.0041415765622304949 0 -0.0039422813043487317 0.0041467648713394614 0 -0.0039274888296691483 0.0041108798940105596 0 -0.0039422813043487317 0.0041467648713394614 0 -0.0039840962463919462 0.0040968778009138947 0 -0.0039274888296691483 0.0041108798940105596 0 -0.0038993454830631392 0.0041731200468405633 0 -0.003911178865306608 0.0041415765622304949 0 -0.0039422813043487317 0.0041467648713394614 0 -0.0039422813043487317 0.0041467648713394614 0 -0.0039877280471602742 0.0041723097372260596 0 -0.0039840962463919462 0.0040968778009138947 0 -0.0040318175827725664 0.0042018279865153529 0 -0.0039756249443224411 0.0042268555439610341 0 -0.0039877280471602742 0.0041723097372260596 0 -0.0039756249443224411 0.0042268555439610341 0 -0.0039877280471602742 0.0041723097372260596 0 -0.0039445190255351292 0.0041897910503855655 0 -0.0039422813043487317 0.0041467648713394614 0 -0.0039877280471602742 0.0041723097372260596 0 -0.0039445190255351292 0.0041897910503855655 0 -0.0039177196951374676 0.0042291375503932041 0 -0.0038993454830631392 0.0041731200468405633 0 -0.0039445190255351292 0.0041897910503855655 0 -0.0038993454830631392 0.0041731200468405633 0 -0.0039422813043487317 0.0041467648713394614 0 -0.0039445190255351292 0.0041897910503855655 0 -0.0037262507320640166 0.0043345669836017987 0 -0.0036398104307965389 0.0043049378891402519 0 -0.0037645987406166774 0.0042175716743292303 0 -0.0035336264991320363 0.003994526216873991 0 -0.0038689476213207867 0.0038170037265150875 0 -0.0036454345828888339 0.0036324870112866424 0 -0.0036930365326655811 0.003408187384157677 0 -0.0038898135534897538 0.0034858363638567945 0 -0.0037262507320640166 0.0043345669836017987 0 -0.0037645987406166774 0.0042175716743292303 0 -0.0038245354805631969 0.0042336377522633568 0 -0.0037441509902408536 0.0043126949378916105 0 -0.0037767831667207576 0.0042762547579737369 0 -0.0037904568087373165 0.0043321553020198023 0 -0.0037262507320640166 0.0043345669836017987 0 -0.0037830887309422724 0.0042514514717783402 0 -0.0037904568087373165 0.0043321553020198023 0 -0.0038595000456038164 0.0042790257230038604 0 -0.0037830887309422724 0.0042514514717783402 0 -0.0039304708416818572 0.004108438535303063 0 -0.0037645987406166774 0.0042175716743292303 0 -0.0038245354805631969 0.0042336377522633568 0 -0.0041385219843518423 0.0033392981059194044 0 -0.0038898135534897538 0.0034858363638567945 0 -0.0039758952507067792 0.0032511166190419371 0 -0.0038898135534897538 0.0034858363638567945 0 -0.0037974447264030437 0.0032183155830128496 0 -0.0039758952507067792 0.0032511166190419371 0 -0.0039714133366932341 0.0039087905940571807 0 -0.0038689476213207867 0.0038170037265150875 0 -0.0039714133366932341 0.0039087905940571807 0 -0.0037767831667207576 0.0042762547579737369 0 -0.0036930365326655811 0.003408187384157677 0 -0.0038898135534897538 0.0034858363638567945 0 -0.0037974447264030437 0.0032183155830128496 0 -0.0036930365326655811 0.003408187384157677 0 -0.0036614360416594408 0.0032415171664560193 0 -0.0037974447264030437 0.0032183155830128496 0 -0.0037974447264030437 0.0032183155830128496 0 -0.0039611046915464347 0.0030616615972366402 0 -0.0038081277356090109 0.0030029268093551141 0 -0.0036377665599136434 0.0030516945898029909 0 -0.0037974447264030437 0.0032183155830128496 0 -0.0038081277356090109 0.0030029268093551141 0 -0.0036614360416594408 0.0032415171664560193 0 -0.0036377665599136434 0.0030516945898029909 0 -0.0037974447264030437 0.0032183155830128496 0 -0.0037974447264030437 0.0032183155830128496 0 -0.0039758952507067792 0.0032511166190419371 0 -0.0039611046915464347 0.0030616615972366402 0 -0.0039758952507067792 0.0032511166190419371 0 -0.0039611046915464347 0.0030616615972366402 0 -0.0041124348189547112 0.0031283132395451729 0 -0.0039611046915464347 0.0030616615972366402 0 -0.0041124348189547112 0.0031283132395451729 0 -0.0040887874291133663 0.0029292297033266267 0 -0.0039199089498986395 0.0029044573734794263 0 -0.0039611046915464347 0.0030616615972366402 0 -0.0040887874291133663 0.0029292297033266267 0 -0.0039199089498986395 0.0029044573734794263 0 -0.0039611046915464347 0.0030616615972366402 0 -0.0038081277356090109 0.0030029268093551141 0 -0.0036713369581694551 0.0030294308864734867 0 -0.0037584597895854127 0.0028492947467513184 0 -0.0036377665599136434 0.0030516945898029909 0 -0.0038081277356090109 0.0030029268093551141 0 -0.0037687043561108672 0.0028281914184119694 0 -0.0039199089498986395 0.0029044573734794263 0 -0.0038081277356090109 0.0030029268093551141 0 -0.0037687043561108672 0.0028281914184119694 0 -0.0039840962463919462 0.0040968778009138947 0 -0.0039181026691025335 0.0040673567462848007 0 -0.0039911012275578627 0.0039792267959957517 0 -0.0042833271472307605 0.0031801191923081316 0 -0.004229498221560617 0.0030036480471123373 0 -0.0044312648942538531 0.0030174350449645327 0 -0.0040926524891874844 0.0036338804481814528 0 -0.0041005757148507294 0.0031038907073719637 0 -0.0039840962463919462 0.0040968778009138947 0 -0.0039181026691025335 0.0040673567462848007 0 -0.0039274888296691483 0.0041108798940105596 0 -0.0041385219843518423 0.0033392981059194044 0 -0.0042833271472307605 0.0031801191923081316 0 -0.0041124348189547112 0.0031283132395451729 0 -0.0041385219843518423 0.0033392981059194044 0 -0.0039758952507067792 0.0032511166190419371 0 -0.0041124348189547112 0.0031283132395451729 0 -0.0038750251635946884 0.004138031372685977 0 -0.0039181026691025335 0.0040673567462848007 0 -0.0039274888296691483 0.0041108798940105596 0 -0.0039714133366932341 0.0039087905940571807 0 -0.0040926524891874844 0.0036338804481814528 0 -0.0042833271472307605 0.0031801191923081316 0 -0.0041124348189547112 0.0031283132395451729 0 -0.004229498221560617 0.0030036480471123373 0 -0.0041124348189547112 0.0031283132395451729 0 -0.004229498221560617 0.0030036480471123373 0 -0.0040887874291133663 0.0029292297033266267 0 -0.004229498221560617 0.0030036480471123373 0 -0.0040887874291133663 0.0029292297033266267 0 -0.0042142711805514968 0.0027867911146646634 0 -0.0040546619676397073 0.0026750471549009201 0 -0.0040592738107311397 0.0026352763850150066 0 -0.0040060208173709833 0.0025978448673131065 0 -0.0041005757148507294 0.0031038907073719637 0 -0.0041159587430783916 0.0026582448760119784 0 -0.004229498221560617 0.0030036480471123373 0 -0.0044312648942538531 0.0030174350449645327 0 -0.0042142711805514968 0.0027867911146646634 0 -0.0040546619676397073 0.0026750471549009201 0 -0.0040604924864316317 0.0026686526748759274 0 -0.0040592738107311397 0.0026352763850150066 0 -0.0041005757148507294 0.0031038907073719637 0 -0.0041269777124098243 0.0030477253111329777 0 -0.0040592738107311397 0.0026352763850150066 0 -0.0040060208173709833 0.0025978448673131065 0 -0.0040666917546452403 0.0025899568392263005 0 -0.0040060208173709833 0.0025978448673131065 0 -0.0040448951174735575 0.0025444938819524491 0 -0.0040666917546452403 0.0025899568392263005 0 -0.0041159587430783916 0.0026582448760119784 0 -0.003984895881811017 0.0025772235309606518 0 -0.0042142711805514968 0.0027867911146646634 0 -0.0040099962305870885 0.0027231439363786906 0 -0.0039742154275939235 0.0025590851046516866 0 -0.0040887874291133663 0.0029292297033266267 0 -0.0042142711805514968 0.0027867911146646634 0 -0.0040099962305870885 0.0027231439363786906 0 -0.0040060208173709833 0.0025978448673131065 0 -0.004008516921630346 0.0025550260657072566 0 -0.0040448951174735575 0.0025444938819524491 0 -0.0040060208173709833 0.0025978448673131065 0 -0.004008516921630346 0.0025550260657072566 0 -0.0039742154275939235 0.0025590851046516866 0 -0.004008516921630346 0.0025550260657072566 0 -0.0039742154275939235 0.0025590851046516866 0 -0.0040190818359251397 0.002513355445069791 0 -0.004008516921630346 0.0025550260657072566 0 -0.0040448951174735575 0.0025444938819524491 0 -0.0040190818359251397 0.002513355445069791 0 -0.0040448951174735575 0.0025444938819524491 0 -0.0040190818359251397 0.002513355445069791 0 -0.0040976668420679213 0.0024701647255783326 0 -0.0037791534171926953 0.0026932723802231676 0 -0.0040099962305870885 0.0027231439363786906 0 -0.0039145327010067094 0.002635331442608236 0 -0.0037274229314840247 0.0027922971758150379 0 -0.0037687043561108672 0.0028281914184119694 0 -0.0040099962305870885 0.0027231439363786906 0 -0.0037791534171926953 0.0026932723802231676 0 -0.0039145327010067094 0.002635331442608236 0 -0.003860998273621857 0.0026028066101382902 0 -0.0037076673521572109 0.0027234687418391914 0 -0.004022250917319406 0.0027274644027526366 0 -0.0037791534171926953 0.0026932723802231676 0 -0.003860998273621857 0.0026028066101382902 0 -0.0037844117088558253 0.0026205322227447355 0 -0.0036999913695366106 0.0028709352128210054 0 -0.0037274229314840247 0.0027922971758150379 0 -0.0037687043561108672 0.0028281914184119694 0 -0.0039199089498986395 0.0029044573734794263 0 -0.0037687043561108672 0.0028281914184119694 0 -0.0040099962305870885 0.0027231439363786906 0 -0.0039199089498986395 0.0029044573734794263 0 -0.0040887874291133663 0.0029292297033266267 0 -0.0040099962305870885 0.0027231439363786906 0 -0.0039742154275939235 0.0025590851046516866 0 -0.0039410441118252915 0.0025124161644396086 0 -0.0040190818359251397 0.002513355445069791 0 -0.0040099962305870885 0.0027231439363786906 0 -0.0039742154275939235 0.0025590851046516866 0 -0.0039145327010067094 0.002635331442608236 0 -0.0039742154275939235 0.0025590851046516866 0 -0.0039059363755703461 0.0025737313424185615 0 -0.0039410441118252915 0.0025124161644396086 0 -0.0039742154275939235 0.0025590851046516866 0 -0.0039059363755703461 0.0025737313424185615 0 -0.0039145327010067094 0.002635331442608236 0 -0.0037276564800499674 0.0024995780099689585 0 -0.0038294141783510173 0.0025661021300786911 0 -0.0039410441118252915 0.0025124161644396086 0 -0.0039059363755703461 0.0025737313424185615 0 -0.003860998273621857 0.0026028066101382902 0 -0.0038294141783510173 0.0025661021300786911 0 -0.0039059363755703461 0.0025737313424185615 0 -0.0039145327010067094 0.002635331442608236 0 -0.003860998273621857 0.0026028066101382902 0 -0.0039059363755703461 0.0025737313424185615 0 -0.0038294141783510173 0.0025661021300786911 0 -0.0039410441118252915 0.0025124161644396086 0 -0.003860998273621857 0.0026028066101382902 0 -0.0038294141783510173 0.0025661021300786911 0 -0.0037844117088558253 0.0026205322227447355 0 -0.0037407007195543181 0.0025961970533166876 0 -0.0038294141783510173 0.0025661021300786911 0 -0.0037844117088558253 0.0026205322227447355 0 -0.0037276564800499674 0.0024995780099689585 0 -0.0038011618230547064 0.0024108832055660966 0 -0.0038753512991073413 0.0024658512976747362 0 -0.0037370890459587055 0.0024985396675736072 0 -0.0039011181244517656 0.0024897992031550557 0 -0.0038011618230547064 0.0024108832055660966 0 -0.003869716259452748 0.0024024266068234132 0 -0.0038753512991073413 0.0024658512976747362 0 -0.003869716259452748 0.0024024266068234132 0 -0.0038753512991073413 0.0024658512976747362 0 -0.0039301788525715363 0.0023947132361652693 0 -0.003866919167909971 0.0023363111250137621 0 -0.0039301788525715363 0.0023947132361652693 0 -0.0039429879751239141 0.0022584840138765733 0 -0.003869716259452748 0.0024024266068234132 0 -0.003866919167909971 0.0023363111250137621 0 -0.0039301788525715363 0.0023947132361652693 0 -0.0038011618230547064 0.0024108832055660966 0 -0.003866919167909971 0.0023363111250137621 0 -0.0037498799224078274 0.002279052860797911 0 -0.0038011618230547064 0.0024108832055660966 0 -0.003869716259452748 0.0024024266068234132 0 -0.003866919167909971 0.0023363111250137621 0 -0.0039917250525660312 0.0024547371218716575 0 -0.0040580664268906391 0.0023465924176432869 0 -0.0040976668420679213 0.0024701647255783326 0 -0.004008935410267817 0.0024827785587224838 0 -0.0040953295061438187 0.0024724075732743991 0 -0.0039011181244517656 0.0024897992031550557 0 -0.004008935410267817 0.0024827785587224838 0 -0.0038753512991073413 0.0024658512976747362 0 -0.0039917250525660312 0.0024547371218716575 0 -0.0039301788525715363 0.0023947132361652693 0 -0.0039917250525660312 0.0024547371218716575 0 -0.0039301788525715363 0.0023947132361652693 0 -0.0039866785766809925 0.0023446403087376598 0 -0.0039301788525715363 0.0023947132361652693 0 -0.0039866785766809925 0.0023446403087376598 0 -0.0039429879751239141 0.0022584840138765733 0 -0.0039866785766809925 0.0023446403087376598 0 -0.0040580664268906391 0.0023465924176432869 0 -0.004030131713251426 0.0022424425030738793 0 -0.0039917250525660312 0.0024547371218716575 0 -0.0039866785766809925 0.0023446403087376598 0 -0.0040580664268906391 0.0023465924176432869 0 -0.0040580664268906391 0.0023465924176432869 0 -0.0041331759764285433 0.002377280064300818 0 -0.0040976668420679213 0.0024701647255783326 0 -0.0040580664268906391 0.0023465924176432869 0 -0.0041331759764285433 0.002377280064300818 0 -0.0041360137050003671 0.0022449518445152648 0 -0.0041331759764285433 0.002377280064300818 0 -0.0042082576688647387 0.0023642644922638534 0 -0.0041360137050003671 0.0022449518445152648 0 -0.0041331759764285433 0.002377280064300818 0 -0.0042028299232374352 0.0024466285624538731 0 -0.0042082576688647387 0.0023642644922638534 0 -0.0040976668420679213 0.0024701647255783326 0 -0.004148063413743101 0.0025310725697944739 0 -0.0042028299232374352 0.0024466285624538731 0 -0.0041331759764285433 0.002377280064300818 0 -0.0040976668420679213 0.0024701647255783326 0 -0.0042028299232374352 0.0024466285624538731 0 -0.0040448951174735575 0.0025444938819524491 0 -0.0040976668420679213 0.0024701647255783326 0 -0.0040944644781962568 0.0025452353377943709 0 -0.0040448951174735575 0.0025444938819524491 0 -0.0040944644781962568 0.0025452353377943709 0 -0.0040666917546452403 0.0025899568392263005 0 -0.0040944644781962568 0.0025452353377943709 0 -0.004148063413743101 0.0025310725697944739 0 -0.0041211602840575305 0.0025844953378164788 0 -0.0040976668420679213 0.0024701647255783326 0 -0.0040944644781962568 0.0025452353377943709 0 -0.004148063413743101 0.0025310725697944739 0 -0.004148063413743101 0.0025310725697944739 0 -0.0042041694555884695 0.0025250199021853966 0 -0.0042028299232374352 0.0024466285624538731 0 -0.004148063413743101 0.0025310725697944739 0 -0.0041729206245397811 0.0025885096633851781 0 -0.0042041694555884695 0.0025250199021853966 0 -0.004148063413743101 0.0025310725697944739 0 -0.0041729206245397811 0.0025885096633851781 0 -0.0041211602840575305 0.0025844953378164788 0 -0.0041677008536743229 0.0026365314643503374 0 -0.0041729206245397811 0.0025885096633851781 0 -0.0041358352463402434 0.002623151148839817 0 -0.0041729206245397811 0.0025885096633851781 0 -0.0041358352463402434 0.002623151148839817 0 -0.0041211602840575305 0.0025844953378164788 0 -0.0040939750605929175 0.0026299054270287558 0 -0.0040666917546452403 0.0025899568392263005 0 -0.0041211602840575305 0.0025844953378164788 0 -0.0040939750605929175 0.0026299054270287558 0 -0.0041358352463402434 0.002623151148839817 0 -0.0041211602840575305 0.0025844953378164788 0 -0.0040939750605929175 0.0026299054270287558 0 -0.0040592738107311397 0.0026352763850150066 0 -0.0040666917546452403 0.0025899568392263005 0 -0.0040944644781962568 0.0025452353377943709 0 -0.0040666917546452403 0.0025899568392263005 0 -0.0041211602840575305 0.0025844953378164788 0 -0.004271575826929404 0.002569468108811103 0 -0.0042567596702802425 0.0026207954317810683 0 -0.0042268971275498642 0.0025771042391454363 0 -0.004271575826929404 0.002569468108811103 0 -0.0043014659997217446 0.0026126562089265311 0 -0.0043035199196115462 0.002568331798776937 0 -0.004271575826929404 0.002569468108811103 0 -0.0043014659997217446 0.0026126562089265311 0 -0.0042567596702802425 0.0026207954317810683 0 -0.0042864911030710369 0.0026619522067844298 0 -0.0043014659997217446 0.0026126562089265311 0 -0.0042567596702802425 0.0026207954317810683 0 -0.0042109090696219424 0.0026353849130419599 0 -0.0042567596702802425 0.0026207954317810683 0 -0.0042268971275498642 0.0025771042391454363 0 -0.0041677008536743229 0.0026365314643503374 0 -0.0042109090696219424 0.0026353849130419599 0 -0.0041729206245397811 0.0025885096633851781 0 -0.0042109090696219424 0.0026353849130419599 0 -0.0041729206245397811 0.0025885096633851781 0 -0.0042268971275498642 0.0025771042391454363 0 -0.0041729206245397811 0.0025885096633851781 0 -0.0042268971275498642 0.0025771042391454363 0 -0.0042041694555884695 0.0025250199021853966 0 -0.0042268971275498642 0.0025771042391454363 0 -0.0042041694555884695 0.0025250199021853966 0 -0.0042454226426269842 0.0025243514951722151 0 -0.0042268331669084299 0.0024864663664030842 0 -0.0042454226426269842 0.0025243514951722151 0 -0.0042575558105430195 0.0024603699479994979 0 -0.0042041694555884695 0.0025250199021853966 0 -0.0042268331669084299 0.0024864663664030842 0 -0.0042454226426269842 0.0025243514951722151 0 -0.0042454226426269842 0.0025243514951722151 0 -0.0042902871239310593 0.0025209975065348658 0 -0.0042575558105430195 0.0024603699479994979 0 -0.004271575826929404 0.002569468108811103 0 -0.0042268971275498642 0.0025771042391454363 0 -0.0042454226426269842 0.0025243514951722151 0 -0.004271575826929404 0.002569468108811103 0 -0.0042454226426269842 0.0025243514951722151 0 -0.0042902871239310593 0.0025209975065348658 0 -0.004271575826929404 0.002569468108811103 0 -0.0043035199196115462 0.002568331798776937 0 -0.0042902871239310593 0.0025209975065348658 0 -0.0042902871239310593 0.0025209975065348658 0 -0.0043012412609464484 0.0024759033387423651 0 -0.0042575558105430195 0.0024603699479994979 0 -0.0043012412609464484 0.0024759033387423651 0 -0.0042575558105430195 0.0024603699479994979 0 -0.0042929529236365822 0.0024136719432215625 0 -0.0042041694555884695 0.0025250199021853966 0 -0.0042268331669084299 0.0024864663664030842 0 -0.0042028299232374352 0.0024466285624538731 0 -0.0042268331669084299 0.0024864663664030842 0 -0.0042575558105430195 0.0024603699479994979 0 -0.0042028299232374352 0.0024466285624538731 0 -0.0042546644827261507 0.0024529449349152753 0 -0.0041903870754992677 0.0023602446423124489 0 -0.0042575558105430195 0.0024603699479994979 0 -0.0042028299232374352 0.0024466285624538731 0 -0.0042082576688647387 0.0023642644922638534 0 -0.0042575558105430195 0.0024603699479994979 0 -0.0041715647928957265 0.0023554783881269427 0 -0.0042581261708103876 0.0023250831755882054 0 -0.0043224136873040078 0.0023507726325702888 0 -0.0042929529236365822 0.0024136719432215625 0 -0.0042581261708103876 0.0023250831755882054 0 -0.0042575558105430195 0.0024603699479994979 0 -0.0042929529236365822 0.0024136719432215625 0 -0.0042581261708103876 0.0023250831755882054 0 -0.0042581261708103876 0.0023250831755882054 0 -0.0042345785875456295 0.0022085855826831486 0 -0.0043281300462190567 0.0022825667650174753 0 -0.0042581261708103876 0.0023250831755882054 0 -0.004179244634581622 0.0022549904922364301 0 -0.0042345785875456295 0.0022085855826831486 0 -0.0041715647928957265 0.0023554783881269427 0 -0.0042581261708103876 0.0023250831755882054 0 -0.004179244634581622 0.0022549904922364301 0 -0.004179244634581622 0.0022549904922364301 0 -0.0042345785875456295 0.0022085855826831486 0 -0.0041317969810416525 0.0021404961112192157 0 -0.0040763627107867776 0.0018267784695679818 0 -0.0041824020020931798 0.001894323069739549 0 -0.003904513176848983 0.0014444833790042365 0 -0.0039663326452210514 0.0013856346830469493 0 -0.0040407614712279329 0.0015091773131510448 0 -0.0039663326452210514 0.0013856346830469493 0 -0.0039350887419576522 0.0012979245470453738 0 -0.0040472381205441509 0.0013849373657756931 0 -0.0039178995130599191 0.0013646156612617038 0 -0.0038627599987156951 0.0013517607945947691 0 -0.0039350887419576522 0.0012979245470453738 0 -0.0039663326452210514 0.0013856346830469493 0 -0.0039178995130599191 0.0013646156612617038 0 -0.0039350887419576522 0.0012979245470453738 0 -0.003904513176848983 0.0014444833790042365 0 -0.0039663326452210514 0.0013856346830469493 0 -0.0039178995130599191 0.0013646156612617038 0 -0.003904513176848983 0.0014444833790042365 0 -0.0038627599987156951 0.0013517607945947691 0 -0.0037560142897711153 0.0013615625561005601 0 -0.003904513176848983 0.0014444833790042365 0 -0.0039178995130599191 0.0013646156612617038 0 -0.0038627599987156951 0.0013517607945947691 0 -0.0040763627107867776 0.0018267784695679818 0 -0.0039054900212683622 0.0017559747016101007 0 -0.0038965502342959515 0.0012409920376113394 0 -0.0037748094943831079 0.001296546255950184 0 -0.0038357548233484856 0.0011855496182824254 0 -0.0037471989984476707 0.0012002859171573463 0 -0.0038120828884418761 0.001244819612493252 0 -0.0038493364439792983 0.0011929726093929125 0 -0.0037665975284916233 0.0012680751582656281 0 -0.0037884108525547333 0.0011732736632742392 0 -0.0038345910514360499 0.0012071132334160772 0 -0.0038157480279322783 0.0011915417238837502 0 -0.0038120828884418761 0.001244819612493252 0 -0.0038548921462473176 0.0012220336412353515 0 -0.0037758391183801976 0.0012957363933491144 0 -0.0038627599987156951 0.0013517607945947691 0 -0.0039350887419576522 0.0012979245470453738 0 -0.0037758391183801976 0.0012957363933491144 0 -0.0038120828884418761 0.001244819612493252 0 -0.0038493364439792983 0.0011929726093929125 0 -0.0038548921462473176 0.0012220336412353515 0 -0.0038493364439792983 0.0011929726093929125 0 -0.0038548921462473176 0.0012220336412353515 0 -0.003896307548477705 0.0011775931027105254 0 -0.0037471989984476707 0.0012002859171573463 0 -0.0040407001654115104 0.0016094956957115958 0 -0.0038948330658787806 0.0012625356405282109 0 -0.0038345910514360499 0.0012071132334160772 0 -0.0039331359876213509 0.0012697671232681841 0 -0.0037102414069874997 0.0013080507207165861 0 -0.0037665975284916233 0.0012680751582656281 0 -0.0036373738912587892 0.0013018256380039812 0 -0.0038948330658787806 0.0012625356405282109 0 -0.0038345910514360499 0.0012071132334160772 0 -0.0038359670108620136 0.0012111420299974541 0 -0.0038345910514360499 0.0012071132334160772 0 -0.0038157480279322783 0.0011915417238837502 0 -0.0038359670108620136 0.0012111420299974541 0 -0.0038120828884418761 0.001244819612493252 0 -0.0037665975284916233 0.0012680751582656281 0 -0.0037758391183801976 0.0012957363933491144 0 -0.0037102414069874997 0.0013080507207165861 0 -0.0037665975284916233 0.0012680751582656281 0 -0.0037494102005746345 0.0013032228581267909 0 -0.0037665975284916233 0.0012680751582656281 0 -0.0037758391183801976 0.0012957363933491144 0 -0.0037494102005746345 0.0013032228581267909 0 -0.0037758391183801976 0.0012957363933491144 0 -0.0037494102005746345 0.0013032228581267909 0 -0.0037560142897711153 0.0013615625561005601 0 -0.0038627599987156951 0.0013517607945947691 0 -0.0037758391183801976 0.0012957363933491144 0 -0.0037560142897711153 0.0013615625561005601 0 -0.0037102414069874997 0.0013080507207165861 0 -0.0037494102005746345 0.0013032228581267909 0 -0.0037560142897711153 0.0013615625561005601 0 -0.0039054900212683622 0.0017559747016101007 0 -0.0040407001654115104 0.0016094956957115958 0 -0.0041317969810416525 0.0021404961112192157 0 -0.0040455564630409099 0.0021366247383548414 0 -0.0040464502361993015 0.0020807926837879752 0 -0.0037102414069874997 0.0013080507207165861 0 -0.0037560142897711153 0.0013615625561005601 0 -0.0036373738912587892 0.0013018256380039812 0 -0.0041317969810416525 0.0021404961112192157 0 -0.0040994286746858519 0.0022470276909404801 0 -0.0040455564630409099 0.0021366247383548414 0 -0.0041360137050003671 0.0022449518445152648 0 -0.004030131713251426 0.0022424425030738793 0 -0.0040455564630409099 0.0021366247383548414 0 -0.0041170312033757235 0.0022450092397940744 0 -0.0040488760745544805 0.0021452644030725571 0 -0.004179244634581622 0.0022549904922364301 0 -0.0041317969810416525 0.0021404961112192157 0 -0.0040994286746858519 0.0022470276909404801 0 -0.0041715647928957265 0.0023554783881269427 0 -0.004179244634581622 0.0022549904922364301 0 -0.0040994286746858519 0.0022470276909404801 0 -0.0041903870754992677 0.0023602446423124489 0 -0.0041170312033757235 0.0022450092397940744 0 -0.0040580664268906391 0.0023465924176432869 0 -0.0041360137050003671 0.0022449518445152648 0 -0.004030131713251426 0.0022424425030738793 0 -0.004030131713251426 0.0022424425030738793 0 -0.0039429879751239141 0.0022584840138765733 0 -0.0039768417329859021 0.0021638927675604299 0 -0.0039866785766809925 0.0023446403087376598 0 -0.004030131713251426 0.0022424425030738793 0 -0.0039429879751239141 0.0022584840138765733 0 -0.0039768417329859021 0.0021638927675604299 0 -0.0039148523310118749 0.0021601221460637227 0 -0.0039373638400595802 0.0020775127028249706 0 -0.0039429879751239141 0.0022584840138765733 0 -0.0039768417329859021 0.0021638927675604299 0 -0.0039148523310118749 0.0021601221460637227 0 -0.004030131713251426 0.0022424425030738793 0 -0.0039768417329859021 0.0021638927675604299 0 -0.0040455564630409099 0.0021366247383548414 0 -0.0038534131262986417 0.0022149031205814891 0 -0.003776167568425701 0.0021675232333788121 0 -0.0037498799224078274 0.002279052860797911 0 -0.003866919167909971 0.0023363111250137621 0 -0.0038534131262986417 0.0022149031205814891 0 -0.0037498799224078274 0.002279052860797911 0 -0.003866919167909971 0.0023363111250137621 0 -0.0039429879751239141 0.0022584840138765733 0 -0.0038534131262986417 0.0022149031205814891 0 -0.0039429879751239141 0.0022584840138765733 0 -0.0038534131262986417 0.0022149031205814891 0 -0.0039148523310118749 0.0021601221460637227 0 -0.0039148523310118749 0.0021601221460637227 0 -0.0038617950232018388 0.0021182951955487756 0 -0.0039373638400595802 0.0020775127028249706 0 -0.0038534131262986417 0.0022149031205814891 0 -0.0039148523310118749 0.0021601221460637227 0 -0.0038617950232018388 0.0021182951955487756 0 -0.0038617950232018388 0.0021182951955487756 0 -0.003776167568425701 0.0021675232333788121 0 -0.0038113419256527096 0.0020201021725252516 0 -0.0038534131262986417 0.0022149031205814891 0 -0.0038617950232018388 0.0021182951955487756 0 -0.003776167568425701 0.0021675232333788121 0 -0.0037959034175147322 0.0020129274379774129 0 -0.004129437857329366 0.0020336754071900685 0 -0.0038617950232018388 0.0021182951955487756 0 -0.0038113419256527096 0.0020201021725252516 0 -0.0039373638400595802 0.0020775127028249706 0 -0.0038113419256527096 0.0020201021725252516 0 -0.0042180984619716623 0.0019042360195753935 0 -0.0039841242663424797 0.0018048070435173788 0 -0.0039841242663424797 0.0018048070435173788 0 -0.0043058835868912343 0.0016833808364510592 0 -0.003982342795285438 0.0015224190704868012 0 -0.0042180984619716623 0.0019042360195753935 0 -0.0039841242663424797 0.0018048070435173788 0 -0.0043058835868912343 0.0016833808364510592 0 -0.0038113419256527096 0.0020201021725252516 0 -0.0038380012783000858 0.0017105815086974811 0 -0.0039841242663424797 0.0018048070435173788 0 -0.0038380012783000858 0.0017105815086974811 0 -0.0039841242663424797 0.0018048070435173788 0 -0.003982342795285438 0.0015224190704868012 0 -0.0039768417329859021 0.0021638927675604299 0 -0.0040455564630409099 0.0021366247383548414 0 -0.0040019941469849425 0.0021142094845187438 0 -0.0040455564630409099 0.0021366247383548414 0 -0.0040019941469849425 0.0021142094845187438 0 -0.0040464502361993015 0.0020807926837879752 0 -0.004129437857329366 0.0020336754071900685 0 -0.0040407001654115104 0.0016094956957115958 0 -0.0039373638400595802 0.0020775127028249706 0 -0.0040019941469849425 0.0021142094845187438 0 -0.0040464502361993015 0.0020807926837879752 0 -0.0039768417329859021 0.0021638927675604299 0 -0.0039373638400595802 0.0020775127028249706 0 -0.0040019941469849425 0.0021142094845187438 0 -0.0042180984619716623 0.0019042360195753935 0 -0.0043058835868912343 0.0016833808364510592 0 -0.004589599896396632 0.0018116131700742712 0 -0.0040245985070325495 0.0013755107659960731 0 -0.0039331359876213509 0.0012697671232681841 0 -0.0039544836201497327 0.0013442661040053206 0 -0.0041939972313938222 0.0015320553301848366 0 -0.0040407001654115104 0.0016094956957115958 0 -0.0038948330658787806 0.0012625356405282109 0 -0.0039331359876213509 0.0012697671232681841 0 -0.0039544836201497327 0.0013442661040053206 0 -0.0039544836201497327 0.0013442661040053206 0 -0.0039681163325338978 0.0014005809226937842 0 -0.0039306627303369009 0.0013727508462890951 0 -0.0039927818525268485 0.0013864138562542448 0 -0.0040004266991414007 0.0014082622704233399 0 -0.0039681163325338978 0.0014005809226937842 0 -0.0039544836201497327 0.0013442661040053206 0 -0.0039927818525268485 0.0013864138562542448 0 -0.0039681163325338978 0.0014005809226937842 0 -0.0040245985070325495 0.0013755107659960731 0 -0.0040147181568671031 0.0014107958603913921 0 -0.0040140651419261755 0.0014549692747721772 0 -0.0040245985070325495 0.0013755107659960731 0 -0.0039927818525268485 0.0013864138562542448 0 -0.0040147181568671031 0.0014107958603913921 0 -0.0040245985070325495 0.0013755107659960731 0 -0.0039544836201497327 0.0013442661040053206 0 -0.0039927818525268485 0.0013864138562542448 0 -0.0040147181568671031 0.0014107958603913921 0 -0.0040191203012296221 0.0014184003617199164 0 -0.0040140651419261755 0.0014549692747721772 0 -0.0040147181568671031 0.0014107958603913921 0 -0.0040004266991414007 0.0014082622704233399 0 -0.0040191203012296221 0.0014184003617199164 0 -0.0039927818525268485 0.0013864138562542448 0 -0.0040147181568671031 0.0014107958603913921 0 -0.0040004266991414007 0.0014082622704233399 0 -0.0040066332103160986 0.0014167249833769322 0 -0.0039884525043553075 0.0014173553641104732 0 -0.0040051925204818385 0.0014260839747413392 0 -0.0040004266991414007 0.0014082622704233399 0 -0.0040066332103160986 0.0014167249833769322 0 -0.0039884525043553075 0.0014173553641104732 0 -0.0040004266991414007 0.0014082622704233399 0 -0.0040066332103160986 0.0014167249833769322 0 -0.0040191203012296221 0.0014184003617199164 0 -0.0040066332103160986 0.0014167249833769322 0 -0.0040191203012296221 0.0014184003617199164 0 -0.0040146297291818187 0.0014179279337885712 0 -0.0040191203012296221 0.0014184003617199164 0 -0.0040146297291818187 0.0014179279337885712 0 -0.0040253813518066096 0.001410195095332535 0 -0.0040146297291818187 0.0014179279337885712 0 -0.0040180142617982717 0.0014272517431580393 0 -0.0040253813518066096 0.001410195095332535 0 -0.0040146297291818187 0.0014179279337885712 0 -0.0040051925204818385 0.0014260839747413392 0 -0.0040180142617982717 0.0014272517431580393 0 -0.0040066332103160986 0.0014167249833769322 0 -0.0040146297291818187 0.0014179279337885712 0 -0.0040051925204818385 0.0014260839747413392 0 -0.0040051925204818385 0.0014260839747413392 0 -0.0040180142617982717 0.0014272517431580393 0 -0.0040016878311636842 0.0014391056112311252 0 -0.0040051925204818385 0.0014260839747413392 0 -0.0039839504686452771 0.0014305932473040735 0 -0.0040016878311636842 0.0014391056112311252 0 -0.0039884525043553075 0.0014173553641104732 0 -0.0040051925204818385 0.0014260839747413392 0 -0.0039839504686452771 0.0014305932473040735 0 -0.0039884525043553075 0.0014173553641104732 0 -0.0039839504686452771 0.0014305932473040735 0 -0.0039646875672859627 0.0014219877155786389 0 -0.0039839504686452771 0.0014305932473040735 0 -0.0039646875672859627 0.0014219877155786389 0 -0.0039591372553441561 0.0014383075849057677 0 -0.0039646875672859627 0.0014219877155786389 0 -0.0039591372553441561 0.0014383075849057677 0 -0.0039350858950340378 0.0014187106921494269 0 -0.0039681163325338978 0.0014005809226937842 0 -0.0039306627303369009 0.0013727508462890951 0 -0.0039350858950340378 0.0014187106921494269 0 -0.0039646875672859627 0.0014219877155786389 0 -0.0039681163325338978 0.0014005809226937842 0 -0.0039350858950340378 0.0014187106921494269 0 -0.0040004266991414007 0.0014082622704233399 0 -0.0039884525043553075 0.0014173553641104732 0 -0.0039681163325338978 0.0014005809226937842 0 -0.0039884525043553075 0.0014173553641104732 0 -0.0039646875672859627 0.0014219877155786389 0 -0.0039681163325338978 0.0014005809226937842 0 -0.003982342795285438 0.0015224190704868012 0 -0.0039144827910625154 0.001357935178127101 0 -0.0037717575900304153 0.0015561257846582711 0 -0.0038380012783000858 0.0017105815086974811 0 -0.003982342795285438 0.0015224190704868012 0 -0.0037717575900304153 0.0015561257846582711 0 -0.0040245985070325495 0.0013755107659960731 0 -0.003982342795285438 0.0015224190704868012 0 -0.0040140651419261755 0.0014549692747721772 0 -0.003982342795285438 0.0015224190704868012 0 -0.0040140651419261755 0.0014549692747721772 0 -0.0039144827910625154 0.001357935178127101 0 -0.0041939972313938222 0.0015320553301848366 0 -0.0039753330755908887 0.001505957220905435 0 -0.0040140651419261755 0.0014549692747721772 0 -0.0040253813518066096 0.001410195095332535 0 -0.0039144827910625154 0.001357935178127101 0 -0.0041454428775851331 0.0013192578246367407 0 -0.0041686816675287376 0.0012983057699237003 0 -0.0043846732622086111 0.0012409211720595047 0 -0.0043704314385233731 0.0012420498247118178 0 -0.0043779214672153349 0.0012352724738717588 0 -0.0040253813518066096 0.001410195095332535 0 -0.0040244735252472795 0.0013699241194808486 0 -0.0039144827910625154 0.001357935178127101 0 -0.0040191203012296221 0.0014184003617199164 0 -0.0040140651419261755 0.0014549692747721772 0 -0.0040253813518066096 0.001410195095332535 0 -0.0041060882685545952 0.0013869224552382424 0 -0.0041454428775851331 0.0013192578246367407 0 -0.0040180142617982717 0.0014272517431580393 0 -0.0040253813518066096 0.001410195095332535 0 -0.0040259953388793023 0.0014265378355168975 0 -0.0041053661545358017 0.0013314630139790416 0 -0.0041454428775851331 0.0013192578246367407 0 -0.0043704314385233731 0.0012420498247118178 0 -0.0043779214672153349 0.0012352724738717588 0 -0.0043719121982870859 0.001225907031204184 0 -0.0043704314385233731 0.0012420498247118178 0 -0.0043719121982870859 0.001225907031204184 0 -0.0043556312238990794 0.001235443055895184 0 -0.0043779214672153349 0.0012352724738717588 0 -0.00438552132810915 0.0012293836505253826 0 -0.0043719121982870859 0.001225907031204184 0 -0.0040180142617982717 0.0014272517431580393 0 -0.0040235560941867168 0.0014266462369049817 0 -0.0040234917156503824 0.0014539283074931993 0 -0.0043846732622086111 0.0012409211720595047 0 -0.0043779214672153349 0.0012352724738717588 0 -0.00438552132810915 0.0012293836505253826 0 -0.0041454428775851331 0.0013192578246367407 0 -0.0042157620553227261 0.0013632309739704228 0 -0.00438552132810915 0.0012293836505253826 0 -0.0043862970658035292 0.0012176654360966876 0 -0.0043719121982870859 0.001225907031204184 0 -0.0051331448397791794 0.0010219216199996173 0 -0.0050397579706367183 0.0010801656265983733 0 -0.0050891777503474737 0.00097730212605388455 0 -0.0045151961239278627 0.0012028077797870168 0 -0.0047459593937152766 0.0011340232284809874 0 -0.0042157620553227261 0.0013632309739704228 0 -0.0045151961239278627 0.0012028077797870168 0 -0.0040234917156503824 0.0014539283074931993 0 -0.0040269398625748364 0.00148267290763652 0 -0.004008063939292897 0.0014679475696706323 0 -0.0050397579706367183 0.0010801656265983733 0 -0.0049441329232887679 0.0010046997925808627 0 -0.0050286928603067516 0.00096099894063498301 0 -0.0050397579706367183 0.0010801656265983733 0 -0.0050286928603067516 0.00096099894063498301 0 -0.0050891777503474737 0.00097730212605388455 0 -0.0039796447944672516 0.0014576830549459505 0 -0.0039609242857095682 0.0014537406381171785 0 -0.0039706751574339989 0.0014686310720070108 0 -0.0039796447944672516 0.0014576830549459505 0 -0.0039609242857095682 0.0014537406381171785 0 -0.0039802322306874572 0.0014457260509793894 0 -0.0039609242857095682 0.0014537406381171785 0 -0.0039591372553441561 0.0014383075849057677 0 -0.0039352894302384298 0.0014452891610343963 0 -0.0039839504686452771 0.0014305932473040735 0 -0.0039591372553441561 0.0014383075849057677 0 -0.0039802322306874572 0.0014457260509793894 0 -0.0039609242857095682 0.0014537406381171785 0 -0.0039591372553441561 0.0014383075849057677 0 -0.0039802322306874572 0.0014457260509793894 0 -0.0039802322306874572 0.0014457260509793894 0 -0.0040016878311636842 0.0014391056112311252 0 -0.0039968098468739499 0.0014546300989883331 0 -0.0039839504686452771 0.0014305932473040735 0 -0.0039802322306874572 0.0014457260509793894 0 -0.0040016878311636842 0.0014391056112311252 0 -0.0040180142617982717 0.0014272517431580393 0 -0.0040234917156503824 0.0014539283074931993 0 -0.0040016878311636842 0.0014391056112311252 0 -0.0040234917156503824 0.0014539283074931993 0 -0.0039968098468739499 0.0014546300989883331 0 -0.004008063939292897 0.0014679475696706323 0 -0.0040234917156503824 0.0014539283074931993 0 -0.0040016878311636842 0.0014391056112311252 0 -0.0039968098468739499 0.0014546300989883331 0 -0.0039796447944672516 0.0014576830549459505 0 -0.0039802322306874572 0.0014457260509793894 0 -0.0039968098468739499 0.0014546300989883331 0 -0.0039796447944672516 0.0014576830549459505 0 -0.0039968098468739499 0.0014546300989883331 0 -0.0039887103976163898 0.0014657022142095615 0 -0.0039968098468739499 0.0014546300989883331 0 -0.0039887103976163898 0.0014657022142095615 0 -0.004008063939292897 0.0014679475696706323 0 -0.0039887103976163898 0.0014657022142095615 0 -0.004008063939292897 0.0014679475696706323 0 -0.0039873106970129517 0.0014805447837705839 0 -0.0040269398625748364 0.00148267290763652 0 -0.004008063939292897 0.0014679475696706323 0 -0.0039873106970129517 0.0014805447837705839 0 -0.0039873106970129517 0.0014805447837705839 0 -0.0039719978700163078 0.0014894405154124164 0 -0.0039690722813374921 0.0014791314875787504 0 -0.0039873106970129517 0.0014805447837705839 0 -0.0039690722813374921 0.0014791314875787504 0 -0.0039706751574339989 0.0014686310720070108 0 -0.0039887103976163898 0.0014657022142095615 0 -0.0039873106970129517 0.0014805447837705839 0 -0.0039706751574339989 0.0014686310720070108 0 -0.0039796447944672516 0.0014576830549459505 0 -0.0039887103976163898 0.0014657022142095615 0 -0.0039706751574339989 0.0014686310720070108 0 -0.0039706751574339989 0.0014686310720070108 0 -0.0039540925170701915 0.00147915994633286 0 -0.0039401001496015622 0.0014656392811733595 0 -0.0039609242857095682 0.0014537406381171785 0 -0.0039706751574339989 0.0014686310720070108 0 -0.0039401001496015622 0.0014656392811733595 0 -0.0039719978700163078 0.0014894405154124164 0 -0.0039540925170701915 0.00147915994633286 0 -0.0039498564889390289 0.0014923227271409368 0 -0.0039690722813374921 0.0014791314875787504 0 -0.0039706751574339989 0.0014686310720070108 0 -0.0039540925170701915 0.00147915994633286 0 -0.0039719978700163078 0.0014894405154124164 0 -0.0039690722813374921 0.0014791314875787504 0 -0.0039540925170701915 0.00147915994633286 0 -0.0039540925170701915 0.00147915994633286 0 -0.0039333471988359141 0.0014816645276208888 0 -0.0039401001496015622 0.0014656392811733595 0 -0.0039540925170701915 0.00147915994633286 0 -0.0039333471988359141 0.0014816645276208888 0 -0.0039498564889390289 0.0014923227271409368 0 -0.0039333471988359141 0.0014816645276208888 0 -0.0039145401941992316 0.0014745100765591373 0 -0.0039113520708680067 0.0014966305148109843 0 -0.0039145401941992316 0.0014745100765591373 0 -0.0039401001496015622 0.0014656392811733595 0 -0.003913033070873078 0.0014563277854872311 0 -0.0039333471988359141 0.0014816645276208888 0 -0.0039145401941992316 0.0014745100765591373 0 -0.0039401001496015622 0.0014656392811733595 0 -0.0039609242857095682 0.0014537406381171785 0 -0.0039401001496015622 0.0014656392811733595 0 -0.0039352894302384298 0.0014452891610343963 0 -0.0039401001496015622 0.0014656392811733595 0 -0.003913033070873078 0.0014563277854872311 0 -0.0039352894302384298 0.0014452891610343963 0 -0.003913033070873078 0.0014563277854872311 0 -0.0039100293421033888 0.0014330430998941712 0 -0.0039352894302384298 0.0014452891610343963 0 -0.0039591372553441561 0.0014383075849057677 0 -0.0039352894302384298 0.0014452891610343963 0 -0.0039350858950340378 0.0014187106921494269 0 -0.0039100293421033888 0.0014330430998941712 0 -0.0039352894302384298 0.0014452891610343963 0 -0.0039350858950340378 0.0014187106921494269 0 -0.003913033070873078 0.0014563277854872311 0 -0.0039100293421033888 0.0014330430998941712 0 -0.0038853766073737115 0.0014434048629018037 0 -0.003913033070873078 0.0014563277854872311 0 -0.0038853766073737115 0.0014434048629018037 0 -0.0038918993621560099 0.0014697224696083118 0 -0.0038918993621560099 0.0014697224696083118 0 -0.003868577207313967 0.0014812761535743894 0 -0.0039113520708680067 0.0014966305148109843 0 -0.0038853766073737115 0.0014434048629018037 0 -0.0038918993621560099 0.0014697224696083118 0 -0.003868577207313967 0.0014812761535743894 0 -0.0039145401941992316 0.0014745100765591373 0 -0.003913033070873078 0.0014563277854872311 0 -0.0038918993621560099 0.0014697224696083118 0 -0.0039145401941992316 0.0014745100765591373 0 -0.0038918993621560099 0.0014697224696083118 0 -0.0039113520708680067 0.0014966305148109843 0 -0.0038281212957923878 0.0014027310772873813 0 -0.003929829308115626 0.001011669531675623 0 -0.0038255915116636075 0.0012174600267261496 0 -0.0038133151818209778 0.0012332176903968508 0 -0.0038120154999060243 0.0012237828735352273 0 -0.003929829308115626 0.001011669531675623 0 -0.0038929555497629487 0.00079582268858434412 0 -0.0038133151818209778 0.0012332176903968508 0 -0.0038104125688480993 0.0012316842306136857 0 -0.0038120154999060243 0.0012237828735352273 0 -0.0038929555497629487 0.00079582268858434412 0 -0.0039206706476079371 0.00064130706740837503 0 -0.0039780328347897307 0.00053870465313414159 0 -0.0040231616825531433 0.00051084651036458276 0 -0.0040269429122361021 0.00056765103927846239 0 -0.0036992304177341428 0.00070180026175285001 0 -0.0037274496515328831 0.00089662340856409264 0 -0.0038457882614728405 0.00073719205815276875 0 -0.0037274496515328831 0.00089662340856409264 0 -0.0038645310913206516 0.00096506182858191643 0 -0.0038770461863924101 0.00085123351281671126 0 -0.0037274496515328831 0.00089662340856409264 0 -0.0038770461863924101 0.00085123351281671126 0 -0.0038457882614728405 0.00073719205815276875 0 -0.0038255915116636075 0.0012174600267261496 0 -0.0038009162831705405 0.0012149506577419135 0 -0.0038120154999060243 0.0012237828735352273 0 -0.0038104125688480993 0.0012316842306136857 0 -0.0038009162831705405 0.0012149506577419135 0 -0.0038120154999060243 0.0012237828735352273 0 -0.0038929555497629487 0.00079582268858434412 0 -0.003751558137222302 0.0010929796980767579 0 -0.0038255915116636075 0.0012174600267261496 0 -0.0038009162831705405 0.0012149506577419135 0 -0.0038119326840826361 0.0011875609367280667 0 -0.0038255915116636075 0.0012174600267261496 0 -0.0038119326840826361 0.0011875609367280667 0 -0.0038242353028297323 0.0011986104204160849 0 -0.0037274496515328831 0.00089662340856409264 0 -0.003815995671346834 0.0010255678708409037 0 -0.0038645310913206516 0.00096506182858191643 0 -0.003751558137222302 0.0010929796980767579 0 -0.0037897641214473718 0.001119751201578745 0 -0.0038009162831705405 0.0012149506577419135 0 -0.0038119326840826361 0.0011875609367280667 0 -0.0037908750468407478 0.0011404151646507012 0 -0.0037274496515328831 0.00089662340856409264 0 -0.003815995671346834 0.0010255678708409037 0 -0.0037908750468407478 0.0011404151646507012 0 -0.003815995671346834 0.0010255678708409037 0 -0.0037908750468407478 0.0011404151646507012 0 -0.0038693680501051099 0.0010904035209529203 0 -0.0037884108525547333 0.0011732736632742392 0 -0.0037908750468407478 0.0011404151646507012 0 -0.0038048300459368927 0.0011750608145384713 0 -0.0037884108525547333 0.0011732736632742392 0 -0.0037908750468407478 0.0011404151646507012 0 -0.0038693680501051099 0.0010904035209529203 0 -0.0037884108525547333 0.0011732736632742392 0 -0.0038048300459368927 0.0011750608145384713 0 -0.0038157480279322783 0.0011915417238837502 0 -0.0038119326840826361 0.0011875609367280667 0 -0.0038188749272953745 0.0011923252437629523 0 -0.0038242353028297323 0.0011986104204160849 0 -0.0038119326840826361 0.0011875609367280667 0 -0.0038188749272953745 0.0011923252437629523 0 -0.0038048300459368927 0.0011750608145384713 0 -0.0038119326840826361 0.0011875609367280667 0 -0.0037908750468407478 0.0011404151646507012 0 -0.0038048300459368927 0.0011750608145384713 0 -0.0038188749272953745 0.0011923252437629523 0 -0.0038048300459368927 0.0011750608145384713 0 -0.0038157480279322783 0.0011915417238837502 0 -0.0038188749272953745 0.0011923252437629523 0 -0.0038157480279322783 0.0011915417238837502 0 -0.0038359670108620136 0.0012111420299974541 0 -0.0038188749272953745 0.0011923252437629523 0 -0.0038359670108620136 0.0012111420299974541 0 -0.0038242353028297323 0.0011986104204160849 0 -0.0038331121761653107 0.0012046817762586077 0 -0.0038359670108620136 0.0012111420299974541 0 -0.0038242353028297323 0.0011986104204160849 0 -0.0038902063270581421 0.0012638938340382162 0 -0.0038707284688045845 0.0012799779938648585 0 -0.0038948330658787806 0.0012625356405282109 0 -0.0039544836201497327 0.0013442661040053206 0 -0.0039306627303369009 0.0013727508462890951 0 -0.0038948330658787806 0.0012625356405282109 0 -0.0038851920006252533 0.0013941520681213597 0 -0.0039306627303369009 0.0013727508462890951 0 -0.0038948330658787806 0.0012625356405282109 0 -0.0038331121761653107 0.0012046817762586077 0 -0.0038359670108620136 0.0012111420299974541 0 -0.0039100293421033888 0.0014330430998941712 0 -0.0038851920006252533 0.0013941520681213597 0 -0.0039350858950340378 0.0014187106921494269 0 -0.0038851920006252533 0.0013941520681213597 0 -0.0039306627303369009 0.0013727508462890951 0 -0.0039350858950340378 0.0014187106921494269 0 -0.0038281212957923878 0.0014027310772873813 0 -0.0038707284688045845 0.0012799779938648585 0 -0.0039100293421033888 0.0014330430998941712 0 -0.0038853766073737115 0.0014434048629018037 0 -0.0038851920006252533 0.0013941520681213597 0 -0.0038255915116636075 0.0012174600267261496 0 -0.0038331121761653107 0.0012046817762586077 0 -0.0038242353028297323 0.0011986104204160849 0 -0.0050982668423041793 0.0019349724192550474 0 -0.0049999750027984119 0.002033122173505163 0 -0.0049999894753987549 0.0017949684478185365 0 -0.0050982668423041793 0.0019349724192550474 0 -0.005117333727001544 0.0020344910116218418 0 -0.0049999750027984119 0.002033122173505163 0 -0.0050738921869728166 0.0017929754071807904 0 -0.00518019575894534 0.0020047332522532941 0 -0.0049289068230674677 0.0015786169509926745 0 -0.0051640530366290748 0.0019739046914307033 0 -0.0050543419542401239 0.0016928256664130838 0 -0.0050982668423041793 0.0019349724192550474 0 -0.00518019575894534 0.0020047332522532941 0 -0.0051619810636896512 0.0017913152266299946 0 -0.0050738921869728166 0.0017929754071807904 0 -0.0052680235080641334 0.0018561220548943523 0 -0.0051347920372622757 0.0016253294112472299 0 -0.0050919920741770873 0.0018059055965437651 0 -0.0053146639488824386 0.0018922457468941104 0 -0.0050738921869728166 0.0017929754071807904 0 -0.00518019575894534 0.0020047332522532941 0 -0.0053147486461006185 0.001919806823360343 0 -0.0050982668423041793 0.0019349724192550474 0 -0.00518019575894534 0.0020047332522532941 0 -0.005117333727001544 0.0020344910116218418 0 -0.00518019575894534 0.0020047332522532941 0 -0.0051893809668337636 0.0021134262178662318 0 -0.005117333727001544 0.0020344910116218418 0 -0.0051893809668337636 0.0021134262178662318 0 -0.0050987576216269467 0.0021369779857815159 0 -0.005117333727001544 0.0020344910116218418 0 -0.00518019575894534 0.0020047332522532941 0 -0.0051893809668337636 0.0021134262178662318 0 -0.0052955526667003228 0.002073855417452212 0 -0.0051893809668337636 0.0021134262178662318 0 -0.0050987576216269467 0.0021369779857815159 0 -0.0051470572893095564 0.0022417167137605688 0 -0.0050987576216269467 0.0021369779857815159 0 -0.0049999750027984119 0.002033122173505163 0 -0.0049999770373047592 0.0022711587525437319 0 -0.0050987576216269467 0.0021369779857815159 0 -0.005117333727001544 0.0020344910116218418 0 -0.0049999750027984119 0.002033122173505163 0 -0.0050987576216269467 0.0021369779857815159 0 -0.0049999770373047592 0.0022711587525437319 0 -0.0051470572893095564 0.0022417167137605688 0 -0.0049999770373047592 0.0022711587525437319 0 -0.0051106754605355215 0.0024064154308696545 0 -0.0051470572893095564 0.0022417167137605688 0 -0.0050000448796000321 0.0022712834841958846 0 -0.0050776105144141482 0.0024738734678129391 0 -0.0049999999970385955 0.0022712688764457375 0 -0.0051429301553411778 0.0024696868237069763 0 -0.0049999988390663393 0.0024941633802489827 0 -0.0050776105144141482 0.0024738734678129391 0 -0.0050000872991895276 0.0024941491323256923 0 -0.0050776105144141482 0.0024738734678129391 0 -0.0052721742651001702 0.0024672572063690794 0 -0.0051106754605355215 0.0024064154308696545 0 -0.0052316834074627354 0.0022991845135480918 0 -0.0053248229759976654 0.0023651438852522895 0 -0.0051106754605355215 0.0024064154308696545 0 -0.0052316834074627354 0.0022991845135480918 0 -0.0051470572893095564 0.0022417167137605688 0 -0.0052316834074627354 0.0022991845135480918 0 -0.0051470572893095564 0.0022417167137605688 0 -0.0052537655851085672 0.002204430652663012 0 -0.0051893809668337636 0.0021134262178662318 0 -0.0051470572893095564 0.0022417167137605688 0 -0.0052537655851085672 0.002204430652663012 0 -0.0052537655851085672 0.002204430652663012 0 -0.0053590240810237394 0.0021890779660200949 0 -0.0053160999578257592 0.0022695553708273705 0 -0.0053590240810237394 0.0021890779660200949 0 -0.0053160999578257592 0.0022695553708273705 0 -0.005407044086500069 0.0022832048641129392 0 -0.0052316834074627354 0.0022991845135480918 0 -0.0052537655851085672 0.002204430652663012 0 -0.0053160999578257592 0.0022695553708273705 0 -0.0052316834074627354 0.0022991845135480918 0 -0.0053160999578257592 0.0022695553708273705 0 -0.0053248229759976654 0.0023651438852522895 0 -0.0053160999578257592 0.0022695553708273705 0 -0.0053248229759976654 0.0023651438852522895 0 -0.005407044086500069 0.0022832048641129392 0 -0.0052721742651001702 0.0024672572063690794 0 -0.0045698887341839092 0.0021654561574046384 0 -0.0049348229442943824 0.0024707973669791791 0 -0.004966561356945517 0.0025281766591109937 0 -0.0048970040894331587 0.00253642668184422 0 -0.0053248229759976654 0.0023651438852522895 0 -0.005407044086500069 0.0022832048641129392 0 -0.0055069032731321467 0.002322176978731411 0 -0.005407044086500069 0.0022832048641129392 0 -0.0054533797382475789 0.0021933206587891802 0 -0.0055069032731321467 0.002322176978731411 0 -0.0053590240810237394 0.0021890779660200949 0 -0.005407044086500069 0.0022832048641129392 0 -0.0054925070038691036 0.0021618048926618639 0 -0.0054217641367328593 0.0021939097385066659 0 -0.0049519860187698253 0.0021339120832732724 0 -0.0049519860187698253 0.0021339120832732724 0 -0.0052754247441408322 0.001827719346503977 0 -0.0048674687244725755 0.0018699371623291413 0 -0.0049055608747621332 0.00196330486642699 0 -0.0048272808338314299 0.0019367972093869022 0 -0.0053590240810237394 0.0021890779660200949 0 -0.0054925070038691036 0.0021618048926618639 0 -0.005441093130723859 0.0019852363479442958 0 -0.0053590240810237394 0.0021890779660200949 0 -0.0052955526667003228 0.002073855417452212 0 -0.005441093130723859 0.0019852363479442958 0 -0.0051893809668337636 0.0021134262178662318 0 -0.0052537655851085672 0.002204430652663012 0 -0.0052955526667003228 0.002073855417452212 0 -0.0052537655851085672 0.002204430652663012 0 -0.0053590240810237394 0.0021890779660200949 0 -0.0052955526667003228 0.002073855417452212 0 -0.0052955526667003228 0.002073855417452212 0 -0.0053147486461006185 0.001919806823360343 0 -0.005441093130723859 0.0019852363479442958 0 -0.0052680235080641334 0.0018561220548943523 0 -0.0054955995517289207 0.0019369059095018333 0 -0.0053337237385457795 0.0015208716508183109 0 -0.0053146639488824386 0.0018922457468941104 0 -0.0052754247441408322 0.001827719346503977 0 -0.00518019575894534 0.0020047332522532941 0 -0.0052955526667003228 0.002073855417452212 0 -0.0053147486461006185 0.001919806823360343 0 -0.0051842303004145081 0.0013927147134050186 0 -0.0052473831368281586 0.0013492360801228556 0 -0.0052267779418580075 0.0012918351568087019 0 -0.0052754247441408322 0.001827719346503977 0 -0.004278424911472626 0.0018150341618230331 0 -0.0051842303004145081 0.0013927147134050186 0 -0.0052473831368281586 0.0013492360801228556 0 -0.0052606427372094092 0.0014213342496237661 0 -0.004278424911472626 0.0018150341618230331 0 -0.0042595382122472989 0.0014753631522345777 0 -0.0032977606190762163 0.0018161022274265726 0 -0.0031488711740750332 0.0018761567621651237 0 -0.0032682421981229848 0.00165261461611737 0 -0.0052473831368281586 0.0013492360801228556 0 -0.0052606427372094092 0.0014213342496237661 0 -0.0053197500865010058 0.0013104886546279936 0 -0.0034136335143409415 0.0017712191946887888 0 -0.0032977606190762163 0.0018161022274265726 0 -0.0032682421981229848 0.00165261461611737 0 -0.0034136335143409415 0.0017712191946887888 0 -0.0032977606190762163 0.0018161022274265726 0 -0.003362052605527422 0.0019643744276192647 0 -0.0034136335143409415 0.0017712191946887888 0 -0.0034470720802449303 0.0016331724660440725 0 -0.0032682421981229848 0.00165261461611737 0 -0.0034136335143409415 0.0017712191946887888 0 -0.003362052605527422 0.0019643744276192647 0 -0.0035398350800836774 0.0018771600933899734 0 -0.0032977606190762163 0.0018161022274265726 0 -0.003362052605527422 0.0019643744276192647 0 -0.0031488711740750332 0.0018761567621651237 0 -0.0033934888182523006 0.0020397379611424887 0 -0.004278424911472626 0.0018150341618230331 0 -0.0036873577587314514 0.0021586671800311358 0 -0.0038242392388732512 0.0022091743630962097 0 -0.0037724068467998614 0.00209641353035981 0 -0.0038744088088345902 0.0021253753812988225 0 -0.0038242392388732512 0.0022091743630962097 0 -0.0037724068467998614 0.00209641353035981 0 -0.0049519860187698253 0.0021339120832732724 0 -0.004278424911472626 0.0018150341618230331 0 -0.0049519860187698253 0.0021339120832732724 0 -0.0045698887341839092 0.0021654561574046384 0 -0.0038744088088345902 0.0021253753812988225 0 -0.0037724068467998614 0.00209641353035981 0 -0.0038234895787959211 0.002003718818337415 0 -0.0037724068467998614 0.00209641353035981 0 -0.0038234895787959211 0.002003718818337415 0 -0.0037221692788380538 0.0020245731887765248 0 -0.0045698887341839092 0.0021654561574046384 0 -0.0035251130747031125 0.0020767454990382266 0 -0.0036780694017997011 0.0019749486976414037 0 -0.0037221692788380538 0.0020245731887765248 0 -0.0036059697787386995 0.0020884170459383208 0 -0.0036970335011482854 0.0019463204773471944 0 -0.0038126066852535805 0.0020126768755481857 0 -0.0037221692788380538 0.0020245731887765248 0 -0.0036970335011482854 0.0019463204773471944 0 -0.0036780694017997011 0.0019749486976414037 0 -0.0037221692788380538 0.0020245731887765248 0 -0.0035484532502832017 0.0022979320758564664 0 -0.0035011183448907129 0.0022876151068903891 0 -0.0035188386902345078 0.0022469049957097417 0 -0.0036902883564815013 0.0021864872463714896 0 -0.0036338273187427189 0.0021310222109286012 0 -0.0037221692788380538 0.0020245731887765248 0 -0.0036962256900442548 0.0020920402611210964 0 -0.0036059697787386995 0.0020884170459383208 0 -0.0037724068467998614 0.00209641353035981 0 -0.0037221692788380538 0.0020245731887765248 0 -0.0036962256900442548 0.0020920402611210964 0 -0.0036873577587314514 0.0021586671800311358 0 -0.0037724068467998614 0.00209641353035981 0 -0.0036962256900442548 0.0020920402611210964 0 -0.0036873577587314514 0.0021586671800311358 0 -0.0036962256900442548 0.0020920402611210964 0 -0.0036059697787386995 0.0020884170459383208 0 -0.0036873577587314514 0.0021586671800311358 0 -0.0036059697787386995 0.0020884170459383208 0 -0.0036024038871761053 0.0020745021813181556 0 -0.0036059697787386995 0.0020884170459383208 0 -0.0036024038871761053 0.0020745021813181556 0 -0.0036610850690112768 0.0021407750768101565 0 -0.0036059697787386995 0.0020884170459383208 0 -0.003609823694403067 0.0021910559166098634 0 -0.0036610850690112768 0.0021407750768101565 0 -0.0036338273187427189 0.0021310222109286012 0 -0.0036005609831768828 0.0020882119457248647 0 -0.0035188386902345078 0.0022469049957097417 0 -0.0036059697787386995 0.0020884170459383208 0 -0.003609823694403067 0.0021910559166098634 0 -0.003609823694403067 0.0021910559166098634 0 -0.0036467590767813611 0.0022181704648521153 0 -0.0035954939489245882 0.0022633548245109157 0 -0.003609823694403067 0.0021910559166098634 0 -0.0036467590767813611 0.0022181704648521153 0 -0.0036610850690112768 0.0021407750768101565 0 -0.0036592742636455036 0.002299522760675111 0 -0.0036467590767813611 0.0022181704648521153 0 -0.0035954939489245882 0.0022633548245109157 0 -0.0035484532502832017 0.0022979320758564664 0 -0.0035188386902345078 0.0022469049957097417 0 -0.0035954939489245882 0.0022633548245109157 0 -0.0035188386902345078 0.0022469049957097417 0 -0.003609823694403067 0.0021910559166098634 0 -0.0035954939489245882 0.0022633548245109157 0 -0.003776167568425701 0.0021675232333788121 0 -0.0037498799224078274 0.002279052860797911 0 -0.0037107755124052713 0.0022097592606213291 0 -0.0036592742636455036 0.002299522760675111 0 -0.0037498799224078274 0.002279052860797911 0 -0.0037107755124052713 0.0022097592606213291 0 -0.0036592742636455036 0.002299522760675111 0 -0.0036467590767813611 0.0022181704648521153 0 -0.0037107755124052713 0.0022097592606213291 0 -0.0036467590767813611 0.0022181704648521153 0 -0.0037107755124052713 0.0022097592606213291 0 -0.0036610850690112768 0.0021407750768101565 0 -0.003776167568425701 0.0021675232333788121 0 -0.0037107755124052713 0.0022097592606213291 0 -0.0036610850690112768 0.0021407750768101565 0 -0.003776167568425701 0.0021675232333788121 0 -0.0038113419256527096 0.0020201021725252516 0 -0.0037076964162850749 0.0020765452444603725 0 -0.003776167568425701 0.0021675232333788121 0 -0.0036610850690112768 0.0021407750768101565 0 -0.0037076964162850749 0.0020765452444603725 0 -0.0036024038871761053 0.0020745021813181556 0 -0.0036610850690112768 0.0021407750768101565 0 -0.0037076964162850749 0.0020765452444603725 0 -0.0038113419256527096 0.0020201021725252516 0 -0.0037076964162850749 0.0020765452444603725 0 -0.0036671703590182578 0.0019647775142081301 0 -0.0038113419256527096 0.0020201021725252516 0 -0.0036671703590182578 0.0019647775142081301 0 -0.003696054698531976 0.0017969269317570204 0 -0.0036671703590182578 0.0019647775142081301 0 -0.0035398350800836774 0.0018771600933899734 0 -0.003696054698531976 0.0017969269317570204 0 -0.0036024038871761053 0.0020745021813181556 0 -0.0037076964162850749 0.0020765452444603725 0 -0.0036671703590182578 0.0019647775142081301 0 -0.0033934888182523006 0.0020397379611424887 0 -0.0036485736319704569 0.0020920986587078918 0 -0.003362052605527422 0.0019643744276192647 0 -0.0036024038871761053 0.0020745021813181556 0 -0.0035398350800836774 0.0018771600933899734 0 -0.0036024038871761053 0.0020745021813181556 0 -0.0036671703590182578 0.0019647775142081301 0 -0.0035398350800836774 0.0018771600933899734 0 -0.0035398350800836774 0.0018771600933899734 0 -0.0035837220088143279 0.0016869478084255152 0 -0.003696054698531976 0.0017969269317570204 0 -0.0034136335143409415 0.0017712191946887888 0 -0.0035398350800836774 0.0018771600933899734 0 -0.0035837220088143279 0.0016869478084255152 0 -0.0034136335143409415 0.0017712191946887888 0 -0.0035837220088143279 0.0016869478084255152 0 -0.0034470720802449303 0.0016331724660440725 0 -0.0038380012783000858 0.0017105815086974811 0 -0.003696054698531976 0.0017969269317570204 0 -0.0037717575900304153 0.0015561257846582711 0 -0.0038113419256527096 0.0020201021725252516 0 -0.0038380012783000858 0.0017105815086974811 0 -0.003696054698531976 0.0017969269317570204 0 -0.0035837220088143279 0.0016869478084255152 0 -0.003696054698531976 0.0017969269317570204 0 -0.0037717575900304153 0.0015561257846582711 0 -0.0035837220088143279 0.0016869478084255152 0 -0.0037717575900304153 0.0015561257846582711 0 -0.0036253532924909277 0.0015310049924297858 0 -0.0037717575900304153 0.0015561257846582711 0 -0.0036253532924909277 0.0015310049924297858 0 -0.0036913006180973877 0.001369485254879806 0 -0.0035837220088143279 0.0016869478084255152 0 -0.0035250830952743826 0.0015645752589781747 0 -0.0036253532924909277 0.0015310049924297858 0 -0.0035837220088143279 0.0016869478084255152 0 -0.0035250830952743826 0.0015645752589781747 0 -0.0034470720802449303 0.0016331724660440725 0 -0.0035250830952743826 0.0015645752589781747 0 -0.00355131247549249 0.0014697891089257358 0 -0.0034506592847219921 0.0015012570188402243 0 -0.0035250830952743826 0.0015645752589781747 0 -0.0034506592847219921 0.0015012570188402243 0 -0.0034470720802449303 0.0016331724660440725 0 -0.0035250830952743826 0.0015645752589781747 0 -0.0036253532924909277 0.0015310049924297858 0 -0.00355131247549249 0.0014697891089257358 0 -0.0043548212248236606 0.0012439193276419477 0 -0.0043556312238990794 0.001235443055895184 0 -0.0043400428644743069 0.0012468462147940081 0 -0.0039239465852818475 0.0013143097531483092 0 -0.0043998803950074938 0.0012988115610326528 0 -0.00355131247549249 0.0014697891089257358 0 -0.0036913006180973877 0.001369485254879806 0 -0.0034597039891858202 0.0013864693518344843 0 -0.0036253532924909277 0.0015310049924297858 0 -0.00355131247549249 0.0014697891089257358 0 -0.0036913006180973877 0.001369485254879806 0 -0.0046773219254535071 0.0011752049156049848 0 -0.0043998803950074938 0.0012988115610326528 0 -0.0048831203543261512 0.0011032458730790029 0 -0.0048388656424167998 0.001208471220594882 0 -0.0048201662920129545 0.0012101675963477206 0 -0.00355131247549249 0.0014697891089257358 0 -0.0034597039891858202 0.0013864693518344843 0 -0.0034506592847219921 0.0015012570188402243 0 -0.0043704314385233731 0.0012420498247118178 0 -0.0043548212248236606 0.0012439193276419477 0 -0.0043556312238990794 0.001235443055895184 0 -0.0041686816675287376 0.0012983057699237003 0 -0.0039239465852818475 0.0013143097531483092 0 -0.0039144827910625154 0.001357935178127101 0 -0.0037717575900304153 0.0015561257846582711 0 -0.0036913006180973877 0.001369485254879806 0 -0.0050397579706367183 0.0010801656265983733 0 -0.0049433834375052776 0.0011420299079645403 0 -0.0049484561168564103 0.0010761448157612969 0 -0.0047459593937152766 0.0011340232284809874 0 -0.0046773219254535071 0.0011752049156049848 0 -0.0049433834375052776 0.0011420299079645403 0 -0.0049484561168564103 0.0010761448157612969 0 -0.0048831203543261512 0.0011032458730790029 0 -0.0050397579706367183 0.0010801656265983733 0 -0.0049484561168564103 0.0010761448157612969 0 -0.0049441329232887679 0.0010046997925808627 0 -0.0054444958598800341 0.00092910230200928868 0 -0.0052147217605130235 0.0010685403442038225 0 -0.0049484561168564103 0.0010761448157612969 0 -0.0049441329232887679 0.0010046997925808627 0 -0.0048831203543261512 0.0011032458730790029 0 -0.0056368889007433094 0.00087441291921537653 0 -0.0055320757907387861 0.00093091795899726351 0 -0.0055512530705103987 0.0010313828033719438 0 -0.0054444958598800341 0.00092910230200928868 0 -0.0055969587292981505 0.00089188808913697652 0 -0.0055320757907387861 0.00093091795899726351 0 -0.0055512530705103987 0.0010313828033719438 0 -0.0054690418673659768 0.00099990798356174569 0 -0.0049433834375052776 0.0011420299079645403 0 -0.0048831203543261512 0.0011032458730790029 0 -0.0048388656424167998 0.001208471220594882 0 -0.0052147217605130235 0.0010685403442038225 0 -0.0050074646103439365 0.0012119369699806722 0 -0.0055512530705103987 0.0010313828033719438 0 -0.0054475268185804329 0.0010733475182869478 0 -0.0054621275669275108 0.0011893348548464629 0 -0.0054475268185804329 0.0010733475182869478 0 -0.0053758190731628165 0.0011181723451157092 0 -0.0053806879951380955 0.0010289921175130792 0 -0.0054475268185804329 0.0010733475182869478 0 -0.0053806879951380955 0.0010289921175130792 0 -0.0054690418673659768 0.00099990798356174569 0 -0.0055512530705103987 0.0010313828033719438 0 -0.0054475268185804329 0.0010733475182869478 0 -0.0054690418673659768 0.00099990798356174569 0 -0.0055320757907387861 0.00093091795899726351 0 -0.0054690418673659768 0.00099990798356174569 0 -0.0054109909817074767 0.00091495639634577193 0 -0.0055320757907387861 0.00093091795899726351 0 -0.0054109909817074767 0.00091495639634577193 0 -0.0054698076554621994 0.00085438563459661651 0 -0.0053806879951380955 0.0010289921175130792 0 -0.0054690418673659768 0.00099990798356174569 0 -0.0054109909817074767 0.00091495639634577193 0 -0.0054109909817074767 0.00091495639634577193 0 -0.0052813762028393729 0.00094500928164828132 0 -0.0053358366239402086 0.00084803014904144644 0 -0.0053806879951380955 0.0010289921175130792 0 -0.0054109909817074767 0.00091495639634577193 0 -0.0052813762028393729 0.00094500928164828132 0 -0.0053806879951380955 0.0010289921175130792 0 -0.0052813762028393729 0.00094500928164828132 0 -0.0052813294656238749 0.0010910015503836359 0 -0.0053758190731628165 0.0011181723451157092 0 -0.0053806879951380955 0.0010289921175130792 0 -0.0052813294656238749 0.0010910015503836359 0 -0.0054478054059110886 0.0011950901159295266 0 -0.0050074646103439365 0.0012119369699806722 0 -0.0053758190731628165 0.0011181723451157092 0 -0.0052813294656238749 0.0010910015503836359 0 -0.0052762808697533513 0.0012035573704529191 0 -0.0052762808697533513 0.0012035573704529191 0 -0.0053570430547594371 0.0012219680448314126 0 -0.0053204335743582878 0.0012439334975424289 0 -0.0053758190731628165 0.0011181723451157092 0 -0.0052762808697533513 0.0012035573704529191 0 -0.0054621275669275108 0.0011893348548464629 0 -0.0054475268185804329 0.0010733475182869478 0 -0.0053758190731628165 0.0011181723451157092 0 -0.0054621275669275108 0.0011893348548464629 0 -0.0052762808697533513 0.0012035573704529191 0 -0.005362701197754392 0.0012124713462859584 0 -0.0053570430547594371 0.0012219680448314126 0 -0.0034597039891858202 0.0013864693518344843 0 -0.0033986729052788173 0.0014228193638070007 0 -0.0034506592847219921 0.0015012570188402243 0 -0.0046806775937444818 0.0012536890830341829 0 -0.0047457719725082503 0.0012487874015003635 0 -0.0047759811733084608 0.0011976187075991116 0 -0.0043998803950074938 0.0012988115610326528 0 -0.0047511990312370774 0.0013393001359413292 0 -0.0043998803950074938 0.0012988115610326528 0 -0.0050074646103439365 0.0012119369699806722 0 -0.0050074646103439365 0.0012119369699806722 0 -0.0047511990312370774 0.0013393001359413292 0 -0.0047511990312370774 0.0013393001359413292 0 -0.0053889324125987563 0.0011316190984924555 0 -0.0047511990312370774 0.0013393001359413292 0 -0.0042595382122472989 0.0014753631522345777 0 -0.0033986729052788173 0.0014228193638070007 0 -0.0033878560688365856 0.0015521765146872745 0 -0.0032682421981229848 0.00165261461611737 0 -0.0053617253990511848 0.0012129941716891956 0 -0.0053204335743582878 0.0012439334975424289 0 -0.0053197500865010058 0.0013104886546279936 0 -0.0033986729052788173 0.0014228193638070007 0 -0.0033878560688365856 0.0015521765146872745 0 -0.0034506592847219921 0.0015012570188402243 0 -0.0033878560688365856 0.0015521765146872745 0 -0.0034506592847219921 0.0015012570188402243 0 -0.0034470720802449303 0.0016331724660440725 0 -0.0033878560688365856 0.0015521765146872745 0 -0.0034470720802449303 0.0016331724660440725 0 -0.0032682421981229848 0.00165261461611737 0 -0.0052762808697533513 0.0012035573704529191 0 -0.005280280341476983 0.0012764208837839227 0 -0.0052267779418580075 0.0012918351568087019 0 -0.0053204335743582878 0.0012439334975424289 0 -0.0053197500865010058 0.0013104886546279936 0 -0.005280280341476983 0.0012764208837839227 0 -0.0052473831368281586 0.0013492360801228556 0 -0.005280280341476983 0.0012764208837839227 0 -0.0052267779418580075 0.0012918351568087019 0 -0.0052473831368281586 0.0013492360801228556 0 -0.0053197500865010058 0.0013104886546279936 0 -0.005280280341476983 0.0012764208837839227 0 -0.0052762808697533513 0.0012035573704529191 0 -0.0053204335743582878 0.0012439334975424289 0 -0.005280280341476983 0.0012764208837839227 0 -0.0051842303004145081 0.0013927147134050186 0 -0.0052267779418580075 0.0012918351568087019 0 -0.0051338514149648412 0.0012401497312600424 0 -0.0052267779418580075 0.0012918351568087019 0 -0.0051338514149648412 0.0012401497312600424 0 -0.0051964535843166456 0.0011647260849343638 0 -0.0052754247441408322 0.001827719346503977 0 -0.0052330769034640559 0.0013460023675185002 0 -0.0053337237385457795 0.0015208716508183109 0 -0.0050369792882031059 0.001345869425731537 0 -0.0051347920372622757 0.0016253294112472299 0 -0.0052680235080641334 0.0018561220548943523 0 -0.0053337237385457795 0.0015208716508183109 0 -0.0051347920372622757 0.0016253294112472299 0 -0.0053337237385457795 0.0015208716508183109 0 -0.0050862148885198379 0.0010936800823878408 0 -0.0050369792882031059 0.001345869425731537 0 -0.0051338514149648412 0.0012401497312600424 0 -0.0051964535843166456 0.0011647260849343638 0 -0.0050862148885198379 0.0010936800823878408 0 -0.0052330769034640559 0.0013460023675185002 0 -0.0051010732873269099 0.0011248301800242161 0 -0.0052762808697533513 0.0012035573704529191 0 -0.0052267779418580075 0.0012918351568087019 0 -0.0051964535843166456 0.0011647260849343638 0 -0.0052813294656238749 0.0010910015503836359 0 -0.0052762808697533513 0.0012035573704529191 0 -0.0051964535843166456 0.0011647260849343638 0 -0.0052813294656238749 0.0010910015503836359 0 -0.0051964535843166456 0.0011647260849343638 0 -0.0051968290414033426 0.0010531380753659694 0 -0.0052813762028393729 0.00094500928164828132 0 -0.0052813294656238749 0.0010910015503836359 0 -0.0051968290414033426 0.0010531380753659694 0 -0.0052813762028393729 0.00094500928164828132 0 -0.0051968290414033426 0.0010531380753659694 0 -0.0051445552199033693 0.00090943652566527586 0 -0.0052813762028393729 0.00094500928164828132 0 -0.0051445552199033693 0.00090943652566527586 0 -0.0052533690279268266 0.00081704119334235418 0 -0.0051445552199033693 0.00090943652566527586 0 -0.0050862148885198379 0.0010936800823878408 0 -0.0050358574493747634 0.0009431644755994483 0 -0.0051968290414033426 0.0010531380753659694 0 -0.0051445552199033693 0.00090943652566527586 0 -0.0050862148885198379 0.0010936800823878408 0 -0.0051445552199033693 0.00090943652566527586 0 -0.0050358574493747634 0.0009431644755994483 0 -0.0049861177804117803 0.00082151695489205269 0 -0.0051964535843166456 0.0011647260849343638 0 -0.0051968290414033426 0.0010531380753659694 0 -0.0050862148885198379 0.0010936800823878408 0 -0.0049612484037039068 0.0011517383724422227 0 -0.0049160995887658279 0.0010103203235497342 0 -0.0048120191086164386 0.0011935143760419969 0 -0.0050862148885198379 0.0010936800823878408 0 -0.0049612484037039068 0.0011517383724422227 0 -0.0050369792882031059 0.001345869425731537 0 -0.0050862148885198379 0.0010936800823878408 0 -0.0049612484037039068 0.0011517383724422227 0 -0.0049160995887658279 0.0010103203235497342 0 -0.0050862148885198379 0.0010936800823878408 0 -0.0050358574493747634 0.0009431644755994483 0 -0.0049160995887658279 0.0010103203235497342 0 -0.0050358574493747634 0.0009431644755994483 0 -0.0049160995887658279 0.0010103203235497342 0 -0.0049861177804117803 0.00082151695489205269 0 -0.0049160995887658279 0.0010103203235497342 0 -0.0047532159557406696 0.00093761093537525876 0 -0.0049861177804117803 0.00082151695489205269 0 -0.0050451990711393021 0.0012658315308410966 0 -0.0050004468139619512 0.001278233362465615 0 -0.0049880004179505772 0.0013115396869254467 0 -0.0050944344944364728 0.0015461299223986685 0 -0.0049999829950354924 0.0015567994563169699 0 -0.0049160995887658279 0.0010103203235497342 0 -0.0047532159557406696 0.00093761093537525876 0 -0.0048120191086164386 0.0011935143760419969 0 -0.0050451990711393021 0.0012658315308410966 0 -0.0049269874937461905 0.0013387456389503626 0 -0.0050944344944364728 0.0015461299223986685 0 -0.0049999829950354924 0.0015567994563169699 0 -0.0050753013147894653 0.00168782661082967 0 -0.0050944344944364728 0.0015461299223986685 0 -0.0050753013147894653 0.00168782661082967 0 -0.0051619810636896512 0.0017913152266299946 0 -0.0049999829950354924 0.0015567994563169699 0 -0.0050753013147894653 0.00168782661082967 0 -0.0049999894753987549 0.0017949684478185365 0 -0.0049269874937461905 0.0013387456389503626 0 -0.0050543419542401239 0.0016928256664130838 0 -0.0048120191086164386 0.0011935143760419969 0 -0.0050369792882031059 0.001345869425731537 0 -0.0049289068230674677 0.0015786169509926745 0 -0.0049612484037039068 0.0011517383724422227 0 -0.0048120191086164386 0.0011935143760419969 0 -0.0050369792882031059 0.001345869425731537 0 -0.0050369792882031059 0.001345869425731537 0 -0.0049289068230674677 0.0015786169509926745 0 -0.0051347920372622757 0.0016253294112472299 0 -0.0050738921869728166 0.0017929754071807904 0 -0.0049289068230674677 0.0015786169509926745 0 -0.0051347920372622757 0.0016253294112472299 0 -0.0050753013147894653 0.00168782661082967 0 -0.0051619810636896512 0.0017913152266299946 0 -0.0049999894753987549 0.0017949684478185365 0 -0.0050982668423041793 0.0019349724192550474 0 -0.0051619810636896512 0.0017913152266299946 0 -0.0049999894753987549 0.0017949684478185365 0 -0.0049999581436643206 0.00076693629058028679 0 -0.0051386755473817273 0.00070964545701275692 0 -0.0049999802037600316 0.00049523814609211199 0 -0.0051386755473817273 0.00070964545701275692 0 -0.0052085845137454572 0.0008339746287253768 0 -0.0052250464278776653 0.00054335471177337626 0 -0.0049999581436643206 0.00076693629058028679 0 -0.0051386755473817273 0.00070964545701275692 0 -0.0049999982613003671 0.0010386707511069273 0 -0.0051386755473817273 0.00070964545701275692 0 -0.0052085845137454572 0.0008339746287253768 0 -0.0049999982613003671 0.0010386707511069273 0 -0.0051987060353949101 0.00083109356143192393 0 -0.0050000257946070381 0.0010387001421085769 0 -0.0051882868622157973 0.00083549723336364204 0 -0.0049999366626180541 0.001038687315771667 0 -0.0050705346198835072 0.0011315115239490558 0 -0.0050117992702198707 0.0013088556617568993 0 -0.0050705346198835072 0.0011315115239490558 0 -0.0051881037689901132 0.0011070830517328116 0 -0.0049999949644738938 0.0012781703113359094 0 -0.0049999366626180541 0.001038687315771667 0 -0.0050705346198835072 0.0011315115239490558 0 -0.0050451990711393021 0.0012658315308410966 0 -0.0050545686257651989 0.00095189662876646655 0 -0.0050117992702198707 0.0013088556617568993 0 -0.0049999949644738938 0.0012781703113359094 0 -0.0050705346198835072 0.0011315115239490558 0 -0.0051882868622157973 0.00083549723336364204 0 -0.0050705346198835072 0.0011315115239490558 0 -0.0051881037689901132 0.0011070830517328116 0 -0.0051882868622157973 0.00083549723336364204 0 -0.0051881037689901132 0.0011070830517328116 0 -0.0053435933642897292 0.00088877578586982469 0 -0.0051445552199033693 0.00090943652566527586 0 -0.0049861177804117803 0.00082151695489205269 0 -0.0051550805786756242 0.00071530227812387985 0 -0.0050545686257651989 0.00095189662876646655 0 -0.0052486209719482006 0.00080420301476821158 0 -0.0051445552199033693 0.00090943652566527586 0 -0.0052533690279268266 0.00081704119334235418 0 -0.0051550805786756242 0.00071530227812387985 0 -0.0052533690279268266 0.00081704119334235418 0 -0.0051550805786756242 0.00071530227812387985 0 -0.0053190336676161116 0.00072600736928338119 0 -0.0052486209719482006 0.00080420301476821158 0 -0.0053827180819275098 0.00062821379063270142 0 -0.0053435933642897292 0.00088877578586982469 0 -0.0053649220862975995 0.00063438100066562971 0 -0.0054565025467688761 0.00066279341332975232 0 -0.0051882868622157973 0.00083549723336364204 0 -0.0053435933642897292 0.00088877578586982469 0 -0.0053649220862975995 0.00063438100066562971 0 -0.0051987060353949101 0.00083109356143192393 0 -0.0053622818063790217 0.00065509951966722692 0 -0.0053649220862975995 0.00063438100066562971 0 -0.0053475467854448219 0.00044544581225726729 0 -0.0052250464278776653 0.00054335471177337626 0 -0.0052085845137454572 0.0008339746287253768 0 -0.0053649220862975995 0.00063438100066562971 0 -0.0052250464278776653 0.00054335471177337626 0 -0.0053649220862975995 0.00063438100066562971 0 -0.0054377955977511789 0.00043727808930040169 0 -0.0053475467854448219 0.00044544581225726729 0 -0.0053649220862975995 0.00063438100066562971 0 -0.0054565025467688761 0.00066279341332975232 0 -0.0054377955977511789 0.00043727808930040169 0 -0.0054565025467688761 0.00066279341332975232 0 -0.0054975611463752615 0.00047338110970100803 0 -0.0054377955977511789 0.00043727808930040169 0 -0.0054975611463752615 0.00047338110970100803 0 -0.0054925998944612168 0.00031922174567048002 0 -0.0054377955977511789 0.00043727808930040169 0 -0.0053827180819275098 0.00062821379063270142 0 -0.0054916238183607994 0.00049252125104549949 0 -0.0054251547211632166 0.00064760773278857767 0 -0.0055231288016194795 0.00059745770607191081 0 -0.0054975611463752615 0.00047338110970100803 0 -0.0053198897309665134 0.00059059407850585791 0 -0.0054251547211632166 0.00064760773278857767 0 -0.0054975611463752615 0.00047338110970100803 0 -0.0053198897309665134 0.00059059407850585791 0 -0.0053190336676161116 0.00072600736928338119 0 -0.0054251547211632166 0.00064760773278857767 0 -0.0051550805786756242 0.00071530227812387985 0 -0.0053198897309665134 0.00059059407850585791 0 -0.0053190336676161116 0.00072600736928338119 0 -0.0052533690279268266 0.00081704119334235418 0 -0.0053190336676161116 0.00072600736928338119 0 -0.0053358366239402086 0.00084803014904144644 0 -0.0052813762028393729 0.00094500928164828132 0 -0.0052533690279268266 0.00081704119334235418 0 -0.0053358366239402086 0.00084803014904144644 0 -0.0053190336676161116 0.00072600736928338119 0 -0.0053358366239402086 0.00084803014904144644 0 -0.0054081605048175926 0.00078587633272107229 0 -0.0054698076554621994 0.00085438563459661651 0 -0.0054081605048175926 0.00078587633272107229 0 -0.0055288415842863108 0.00078649993465785141 0 -0.0054081605048175926 0.00078587633272107229 0 -0.0054251547211632166 0.00064760773278857767 0 -0.0055288415842863108 0.00078649993465785141 0 -0.0054109909817074767 0.00091495639634577193 0 -0.0053358366239402086 0.00084803014904144644 0 -0.0054081605048175926 0.00078587633272107229 0 -0.0054109909817074767 0.00091495639634577193 0 -0.0054698076554621994 0.00085438563459661651 0 -0.0054081605048175926 0.00078587633272107229 0 -0.0053190336676161116 0.00072600736928338119 0 -0.0054081605048175926 0.00078587633272107229 0 -0.0054251547211632166 0.00064760773278857767 0 -0.0054251547211632166 0.00064760773278857767 0 -0.0055231288016194795 0.00059745770607191081 0 -0.0055288415842863108 0.00078649993465785141 0 -0.0055231288016194795 0.00059745770607191081 0 -0.0055288415842863108 0.00078649993465785141 0 -0.0056146070615935503 0.00071226869924160901 0 -0.0055320757907387861 0.00093091795899726351 0 -0.0054698076554621994 0.00085438563459661651 0 -0.0055288415842863108 0.00078649993465785141 0 -0.0056408675121964657 0.00086569889282320266 0 -0.0055320757907387861 0.00093091795899726351 0 -0.0055288415842863108 0.00078649993465785141 0 -0.0055288415842863108 0.00078649993465785141 0 -0.0056205512841911633 0.00078125644770363309 0 -0.0056146070615935503 0.00071226869924160901 0 -0.0056408675121964657 0.00086569889282320266 0 -0.0055288415842863108 0.00078649993465785141 0 -0.0056205512841911633 0.00078125644770363309 0 -0.0056425085340491895 0.00084470376412967634 0 -0.005696005194218071 0.0007536910739075833 0 -0.0057618028819064913 0.00077763894412414788 0 -0.0054444958598800341 0.00092910230200928868 0 -0.0053607500080809526 0.00088569463149253006 0 -0.0056408675121964657 0.00086569889282320266 0 -0.0056205512841911633 0.00078125644770363309 0 -0.005696005194218071 0.0007536910739075833 0 -0.0054444958598800341 0.00092910230200928868 0 -0.0057007724755736115 0.00072235853926807809 0 -0.0056205512841911633 0.00078125644770363309 0 -0.005696005194218071 0.0007536910739075833 0 -0.0056146070615935503 0.00071226869924160901 0 -0.005696005194218071 0.0007536910739075833 0 -0.0056146070615935503 0.00071226869924160901 0 -0.005720326303094438 0.00067053753026736216 0 -0.0055053934512116279 0.00059501700283523876 0 -0.0057336564753448001 0.00062960276650790928 0 -0.0055231288016194795 0.00059745770607191081 0 -0.0056146070615935503 0.00071226869924160901 0 -0.005720326303094438 0.00067053753026736216 0 -0.005696005194218071 0.0007536910739075833 0 -0.005720326303094438 0.00067053753026736216 0 -0.0057633825660209003 0.0007295174043367872 0 -0.0056342761844091604 0.00059025095768761883 0 -0.005580217322103679 0.00051405637319421049 0 -0.0056511876482181426 0.00050865983118587497 0 -0.0055231288016194795 0.00059745770607191081 0 -0.0056342761844091604 0.00059025095768761883 0 -0.005580217322103679 0.00051405637319421049 0 -0.005580217322103679 0.00051405637319421049 0 -0.0056270300491352019 0.00043924296247832236 0 -0.0056511876482181426 0.00050865983118587497 0 -0.0055231288016194795 0.00059745770607191081 0 -0.005580217322103679 0.00051405637319421049 0 -0.0054975611463752615 0.00047338110970100803 0 -0.005580217322103679 0.00051405637319421049 0 -0.0055402210800967423 0.00038493280674591215 0 -0.0054975611463752615 0.00047338110970100803 0 -0.0055402210800967423 0.00038493280674591215 0 -0.0054975611463752615 0.00047338110970100803 0 -0.0054925998944612168 0.00031922174567048002 0 -0.005580217322103679 0.00051405637319421049 0 -0.0055402210800967423 0.00038493280674591215 0 -0.0056270300491352019 0.00043924296247832236 0 -0.0055402210800967423 0.00038493280674591215 0 -0.0056270300491352019 0.00043924296247832236 0 -0.0056650779279116027 0.00031427812970718594 0 -0.0055402210800967423 0.00038493280674591215 0 -0.0055454053417821336 0.00019809858731777356 0 -0.0056650779279116027 0.00031427812970718594 0 -0.0055402210800967423 0.00038493280674591215 0 -0.0055454053417821336 0.00019809858731777356 0 -0.0054925998944612168 0.00031922174567048002 0 -0.0055454053417821336 0.00019809858731777356 0 -0.0054925998944612168 0.00031922174567048002 0 -0.0054892222081411816 0.00017590319633727674 0 -0.0055454053417821336 0.00019809858731777356 0 -0.0054892222081411816 0.00017590319633727674 0 -0.0054977865388231651 9.9185772979912791e-05 0 -0.0055454053417821336 0.00019809858731777356 0 -0.0054977865388231651 9.9185772979912791e-05 0 -0.0053947828683072636 -1.2102994169128288e-05 0 -0.0054977865388231651 9.9185772979912791e-05 0 -0.0054687229492350765 5.6009604127378262e-05 0 -0.0054287216759240651 2.7425852545530028e-05 0 -0.0054278440928413199 4.8706783986176838e-05 0 -0.0054568288365520598 5.6712496070807677e-05 0 -0.0054687229492350765 5.6009604127378262e-05 0 -0.0054278440928413199 4.8706783986176838e-05 0 -0.0054687229492350765 5.6009604127378262e-05 0 -0.0054287216759240651 2.7425852545530028e-05 0 -0.0054568288365520598 5.6712496070807677e-05 0 -0.0054687229492350765 5.6009604127378262e-05 0 -0.0054779324406164058 5.9616680022643698e-05 0 -0.0054772192139236368 4.1346724293206086e-05 0 -0.0054779324406164058 5.9616680022643698e-05 0 -0.0054822574946929983 6.8325401756013285e-05 0 -0.0054687229492350765 5.6009604127378262e-05 0 -0.0054779324406164058 5.9616680022643698e-05 0 -0.0054854664572918464 9.6665717410427529e-05 0 -0.0054779324406164058 5.9616680022643698e-05 0 -0.0054854664572918464 9.6665717410427529e-05 0 -0.0054822574946929983 6.8325401756013285e-05 0 -0.0054977865388231651 9.9185772979912791e-05 0 -0.0054687229492350765 5.6009604127378262e-05 0 -0.0054854664572918464 9.6665717410427529e-05 0 -0.0054892222081411816 0.00017590319633727674 0 -0.0054977865388231651 9.9185772979912791e-05 0 -0.0054854664572918464 9.6665717410427529e-05 0 -0.0054892222081411816 0.00017590319633727674 0 -0.0054854664572918464 9.6665717410427529e-05 0 -0.0054719331267985213 0.00013341358189483926 0 -0.0054719331267985213 0.00013341358189483926 0 -0.0054355508457294846 0.00017083384956061181 0 -0.0054575297719957035 0.00024834549331650578 0 -0.0054854664572918464 9.6665717410427529e-05 0 -0.0054719331267985213 0.00013341358189483926 0 -0.0054822574946929983 6.8325401756013285e-05 0 -0.0054719331267985213 0.00013341358189483926 0 -0.0054822574946929983 6.8325401756013285e-05 0 -0.0054679621281469694 6.2662943005374001e-05 0 -0.0054855749330121233 2.4785763420686551e-05 0 -0.0054822574946929983 6.8325401756013285e-05 0 -0.0054679621281469694 6.2662943005374001e-05 0 -0.0054719331267985213 0.00013341358189483926 0 -0.0054679621281469694 6.2662943005374001e-05 0 -0.0054355508457294846 0.00017083384956061181 0 -0.0054679621281469694 6.2662943005374001e-05 0 -0.0054355508457294846 0.00017083384956061181 0 -0.0053646802860674164 0.00013282784943718001 0 -0.0054575297719957035 0.00024834549331650578 0 -0.0054377955977511789 0.00043727808930040169 0 -0.0053939290518528688 0.00028842969804619153 0 -0.0054355508457294846 0.00017083384956061181 0 -0.0054575297719957035 0.00024834549331650578 0 -0.0053939290518528688 0.00028842969804619153 0 -0.0054892222081411816 0.00017590319633727674 0 -0.0054719331267985213 0.00013341358189483926 0 -0.0054575297719957035 0.00024834549331650578 0 -0.0054925998944612168 0.00031922174567048002 0 -0.0054892222081411816 0.00017590319633727674 0 -0.0054575297719957035 0.00024834549331650578 0 -0.0054925998944612168 0.00031922174567048002 0 -0.0054575297719957035 0.00024834549331650578 0 -0.0054377955977511789 0.00043727808930040169 0 -0.0054377955977511789 0.00043727808930040169 0 -0.0053475467854448219 0.00044544581225726729 0 -0.0053939290518528688 0.00028842969804619153 0 -0.0053475467854448219 0.00044544581225726729 0 -0.005303234364490427 0.00030041524716219626 0 -0.0052250464278776653 0.00054335471177337626 0 -0.005303234364490427 0.00030041524716219626 0 -0.0051503335500319549 0.0003285299589967475 0 -0.0052250464278776653 0.00054335471177337626 0 -0.0053475467854448219 0.00044544581225726729 0 -0.005303234364490427 0.00030041524716219626 0 -0.0053939290518528688 0.00028842969804619153 0 -0.0054355508457294846 0.00017083384956061181 0 -0.0053939290518528688 0.00028842969804619153 0 -0.0053646802860674164 0.00013282784943718001 0 -0.005303234364490427 0.00030041524716219626 0 -0.0053939290518528688 0.00028842969804619153 0 -0.0053646802860674164 0.00013282784943718001 0 -0.0053526585114771182 -2.7382001025235076e-05 0 -0.0054679621281469694 6.2662943005374001e-05 0 -0.0053646802860674164 0.00013282784943718001 0 -0.0053526585114771182 -2.7382001025235076e-05 0 -0.0053646802860674164 0.00013282784943718001 0 -0.005196229918558881 8.3944610930953756e-05 0 -0.005303234364490427 0.00030041524716219626 0 -0.0053646802860674164 0.00013282784943718001 0 -0.005196229918558881 8.3944610930953756e-05 0 -0.005303234364490427 0.00030041524716219626 0 -0.005196229918558881 8.3944610930953756e-05 0 -0.0051503335500319549 0.0003285299589967475 0 -0.0049999762040773875 -4.8139823236475254e-05 0 -0.005196229918558881 8.3944610930953756e-05 0 -0.0049999765940515507 0.00022354288486657668 0 -0.005196229918558881 8.3944610930953756e-05 0 -0.0049999765940515507 0.00022354288486657668 0 -0.0051503335500319549 0.0003285299589967475 0 -0.0049999765940515507 0.00022354288486657668 0 -0.0051503335500319549 0.0003285299589967475 0 -0.0049999802037600316 0.00049523814609211199 0 -0.0051386755473817273 0.00070964545701275692 0 -0.0052250464278776653 0.00054335471177337626 0 -0.0049999802037600316 0.00049523814609211199 0 -0.0051503335500319549 0.0003285299589967475 0 -0.0052250464278776653 0.00054335471177337626 0 -0.0049999802037600316 0.00049523814609211199 0 -0.004663089099851212 0.00029997846830478032 0 -0.0046232884574467286 0.00027746355981994825 0 -0.0046492299294170246 0.00024070012401124566 0 -0.0039792630423875729 0.0003909155238808567 0 -0.00401249326518176 0.00034108609115737152 0 -0.0039975998198615329 0.00037886043794584079 0 -0.0039742538385146211 0.00039569960770544039 0 -0.0039975998198615329 0.00037886043794584079 0 -0.0039857023119244175 0.00041899384087836254 0 -0.0041956713595953966 0.0003233645322069605 0 -0.0040269986055589098 0.00040025400036949437 0 -0.004663089099851212 0.00029997846830478032 0 -0.0046232884574467286 0.00027746355981994825 0 -0.0046325098293873894 0.00032376480548144986 0 -0.0046232884574467286 0.00027746355981994825 0 -0.0046005180741529915 0.00031689163780028191 0 -0.0046325098293873894 0.00032376480548144986 0 -0.0046232884574467286 0.00027746355981994825 0 -0.0046492299294170246 0.00024070012401124566 0 -0.0046126906879145673 0.00022505892246593213 0 -0.0041956713595953966 0.0003233645322069605 0 -0.0043295933653399593 0.00027373587684079224 0 -0.0039792630423875729 0.0003909155238808567 0 -0.0039770857165138968 0.00030033006056144536 0 -0.00401249326518176 0.00034108609115737152 0 -0.00401249326518176 0.00034108609115737152 0 -0.0040463212142748464 0.00033213628118436292 0 -0.0040601459649608198 0.00026119102961332072 0 -0.0039770857165138968 0.00030033006056144536 0 -0.00401249326518176 0.00034108609115737152 0 -0.0040601459649608198 0.00026119102961332072 0 -0.0040823685246581991 0.00028702332110936389 0 -0.0040463212142748464 0.00033213628118436292 0 -0.0040601459649608198 0.00026119102961332072 0 -0.0040823685246581991 0.00028702332110936389 0 -0.0040463212142748464 0.00033213628118436292 0 -0.0040746072614485547 0.00035025345025989352 0 -0.0040463212142748464 0.00033213628118436292 0 -0.0040326985843458854 0.00038192276283773534 0 -0.0040746072614485547 0.00035025345025989352 0 -0.0040326985843458854 0.00038192276283773534 0 -0.0040414692848238648 0.00041706332746697564 0 -0.0040746072614485547 0.00035025345025989352 0 -0.00401249326518176 0.00034108609115737152 0 -0.004019575308956632 0.00036657981297278291 0 -0.0039975998198615329 0.00037886043794584079 0 -0.0040463212142748464 0.00033213628118436292 0 -0.0040326985843458854 0.00038192276283773534 0 -0.004019575308956632 0.00036657981297278291 0 -0.00401249326518176 0.00034108609115737152 0 -0.0040463212142748464 0.00033213628118436292 0 -0.004019575308956632 0.00036657981297278291 0 -0.0040326985843458854 0.00038192276283773534 0 -0.004019575308956632 0.00036657981297278291 0 -0.0040053399704308252 0.00039779575606744254 0 -0.0040326985843458854 0.00038192276283773534 0 -0.0040053399704308252 0.00039779575606744254 0 -0.0040134183666062787 0.00042622597175497983 0 -0.0040053399704308252 0.00039779575606744254 0 -0.0039975998198615329 0.00037886043794584079 0 -0.0039857023119244175 0.00041899384087836254 0 -0.004019575308956632 0.00036657981297278291 0 -0.0040053399704308252 0.00039779575606744254 0 -0.0039975998198615329 0.00037886043794584079 0 -0.0040053399704308252 0.00039779575606744254 0 -0.0040134183666062787 0.00042622597175497983 0 -0.0039785275602759011 0.00047042625205772319 0 -0.0040047430014559507 0.0004242693440462983 0 -0.0039981054195617786 0.00042389431182058158 0 -0.0040053399704308252 0.00039779575606744254 0 -0.0040240859409389207 0.00046313702671618744 0 -0.0039857023119244175 0.00041899384087836254 0 -0.0040240859409389207 0.00046313702671618744 0 -0.0039754665225755206 0.0004459830989007551 0 -0.0039857023119244175 0.00041899384087836254 0 -0.0040414692848238648 0.00041706332746697564 0 -0.0040134183666062787 0.00042622597175497983 0 -0.0040193851896226825 0.00046468178910620436 0 -0.0040326985843458854 0.00038192276283773534 0 -0.0040414692848238648 0.00041706332746697564 0 -0.0040134183666062787 0.00042622597175497983 0 -0.0040134183666062787 0.00042622597175497983 0 -0.0040193851896226825 0.00046468178910620436 0 -0.0039785275602759011 0.00047042625205772319 0 -0.0040414692848238648 0.00041706332746697564 0 -0.0040193851896226825 0.00046468178910620436 0 -0.0040516273433574375 0.00045975773649219073 0 -0.0040193851896226825 0.00046468178910620436 0 -0.0040231616825531433 0.00051084651036458276 0 -0.0040516273433574375 0.00045975773649219073 0 -0.0040193851896226825 0.00046468178910620436 0 -0.0039974475375156244 0.00049751875307609201 0 -0.0040231616825531433 0.00051084651036458276 0 -0.0040193851896226825 0.00046468178910620436 0 -0.0039974475375156244 0.00049751875307609201 0 -0.0039785275602759011 0.00047042625205772319 0 -0.0039780328347897307 0.00053870465313414159 0 -0.0039974475375156244 0.00049751875307609201 0 -0.0040231616825531433 0.00051084651036458276 0 -0.0038929555497629487 0.00079582268858434412 0 -0.0039981054195617786 0.00042389431182058158 0 -0.0039780328347897307 0.00053870465313414159 0 -0.0039974475375156244 0.00049751875307609201 0 -0.0039785275602759011 0.00047042625205772319 0 -0.0040347289237305179 0.00053495827079384957 0 -0.0040240859409389207 0.00046313702671618744 0 -0.0040259382559442733 0.00050327461210573584 0 -0.0040240859409389207 0.00046313702671618744 0 -0.0039889072181622338 0.00048560661531571383 0 -0.0039754665225755206 0.0004459830989007551 0 -0.0040240859409389207 0.00046313702671618744 0 -0.0040259382559442733 0.00050327461210573584 0 -0.0039889072181622338 0.00048560661531571383 0 -0.003929829308115626 0.001011669531675623 0 -0.0040658248761395351 0.00060608623688310659 0 -0.0040130552736989643 0.00053049863352151228 0 -0.0040347289237305179 0.00053495827079384957 0 -0.0040259382559442733 0.00050327461210573584 0 -0.0040148493745703721 0.00052509572477222688 0 -0.0040259382559442733 0.00050327461210573584 0 -0.0039889072181622338 0.00048560661531571383 0 -0.0039889072181622338 0.00048560661531571383 0 -0.0039754665225755206 0.0004459830989007551 0 -0.0039415278076265605 0.00049981732410762729 0 -0.0040148493745703721 0.00052509572477222688 0 -0.0039889072181622338 0.00048560661531571383 0 -0.0039415278076265605 0.00049981732410762729 0 -0.003929829308115626 0.001011669531675623 0 -0.0038920945205725517 0.0010018768255284347 0 -0.0039742538385146211 0.00039569960770544039 0 -0.0039857023119244175 0.00041899384087836254 0 -0.0039330265381538661 0.00043052184440109067 0 -0.0039754665225755206 0.0004459830989007551 0 -0.0039330265381538661 0.00043052184440109067 0 -0.0039415278076265605 0.00049981732410762729 0 -0.0039754665225755206 0.0004459830989007551 0 -0.0039857023119244175 0.00041899384087836254 0 -0.0039330265381538661 0.00043052184440109067 0 -0.0041956713595953966 0.0003233645322069605 0 -0.0042848056164569428 0.00034453932473545645 0 -0.0046005180741529915 0.00031689163780028191 0 -0.0046325098293873894 0.00032376480548144986 0 -0.0045768966075277542 0.00036336962462430437 0 -0.0039330265381538661 0.00043052184440109067 0 -0.0039082566212229409 0.00047141201903681335 0 -0.0038788596864362114 0.00047327009838144012 0 -0.0042848056164569428 0.00034453932473545645 0 -0.0043353203554797317 0.00064513259554364378 0 -0.0039113520708680067 0.0014966305148109843 0 -0.0039498564889390289 0.0014923227271409368 0 -0.0039646329577323076 0.001505879157696821 0 -0.0039113520708680067 0.0014966305148109843 0 -0.0039646329577323076 0.001505879157696821 0 -0.0039654868495121211 0.001509618386407316 0 -0.0039082566212229409 0.00047141201903681335 0 -0.0039415278076265605 0.00049981732410762729 0 -0.0038803724707978933 0.00048182778082485523 0 -0.0039333471988359141 0.0014816645276208888 0 -0.0039113520708680067 0.0014966305148109843 0 -0.0039498564889390289 0.0014923227271409368 0 -0.0038920945205725517 0.0010018768255284347 0 -0.004126883807557177 0.00089806589498414872 0 -0.0039330265381538661 0.00043052184440109067 0 -0.0039082566212229409 0.00047141201903681335 0 -0.0039415278076265605 0.00049981732410762729 0 -0.0039719978700163078 0.0014894405154124164 0 -0.0039498564889390289 0.0014923227271409368 0 -0.0039656571595963258 0.001498262970543014 0 -0.0039873106970129517 0.0014805447837705839 0 -0.0039719978700163078 0.0014894405154124164 0 -0.0039757330046421794 0.0015112016644193951 0 -0.0039498564889390289 0.0014923227271409368 0 -0.0039656571595963258 0.001498262970543014 0 -0.0039646329577323076 0.001505879157696821 0 -0.0039082566212229409 0.00047141201903681335 0 -0.0038803724707978933 0.00048182778082485523 0 -0.0038788596864362114 0.00047327009838144012 0 -0.0041308053141961695 0.00096782669797849951 0 -0.004126883807557177 0.00089806589498414872 0 -0.004126883807557177 0.00089806589498414872 0 -0.0043353203554797317 0.00064513259554364378 0 -0.0047645785200646313 0.00050222009922190223 0 -0.0048067435677284324 0.00047662747731011545 0 -0.0049373011195273722 0.00057473034599523807 0 -0.0043353203554797317 0.00064513259554364378 0 -0.0043064609308024497 0.00092847865209748012 0 -0.0041852818760989442 0.00088392603413808195 0 -0.0041986251210341125 0.00095554469442855731 0 -0.0042780580485365077 0.00090741360983052249 0 -0.0039646329577323076 0.001505879157696821 0 -0.0039657573909887269 0.0015092095300471172 0 -0.0039757330046421794 0.0015112016644193951 0 -0.0039656571595963258 0.001498262970543014 0 -0.0039646329577323076 0.001505879157696821 0 -0.0039757330046421794 0.0015112016644193951 0 -0.004126883807557177 0.00089806589498414872 0 -0.0043064609308024497 0.00092847865209748012 0 -0.0039719978700163078 0.0014894405154124164 0 -0.0039656571595963258 0.001498262970543014 0 -0.0039757330046421794 0.0015112016644193951 0 -0.0045151961239278627 0.0012028077797870168 0 -0.0043064609308024497 0.00092847865209748012 0 -0.0047116321086026315 0.00089339181809339988 0 -0.0045419768873854833 0.000994396135878115 0 -0.0047213012546766303 0.0010386455667181417 0 -0.0043064609308024497 0.00092847865209748012 0 -0.0052216677613816402 0.00076552510537438085 0 -0.0040269398625748364 0.00148267290763652 0 -0.0039873106970129517 0.0014805447837705839 0 -0.0039757330046421794 0.0015112016644193951 0 -0.0048067435677284324 0.00047662747731011545 0 -0.0049373011195273722 0.00057473034599523807 0 -0.005098584919188659 0.00054925715171825291 0 -0.0055117781788534791 0.00065641563817103873 0 -0.0049786641849387681 0.00036911225519362751 0 -0.0049373011195273722 0.00057473034599523807 0 -0.0051005097543825135 0.00058524652529119779 0 -0.0048103052411898875 0.00073413091318237503 0 -0.0043353203554797317 0.00064513259554364378 0 -0.0049786641849387681 0.00036911225519362751 0 -0.0047645785200646313 0.00050222009922190223 0 -0.0049373011195273722 0.00057473034599523807 0 -0.0048103052411898875 0.00073413091318237503 0 -0.0046005180741529915 0.00031689163780028191 0 -0.0045768966075277542 0.00036336962462430437 0 -0.0045684493097630846 0.00030453932143930138 0 -0.0050286928603067516 0.00096099894063498301 0 -0.0050891777503474737 0.00097730212605388455 0 -0.0051128329440263956 0.00091626427776890236 0 -0.0053607500080809526 0.00088569463149253006 0 -0.0055402112231281164 0.00075318686890185919 0 -0.0057618028819064913 0.00077763894412414788 0 -0.0058710507585339319 0.00071858638748984328 0 -0.0057633825660209003 0.0007295174043367872 0 -0.005696005194218071 0.0007536910739075833 0 -0.0057618028819064913 0.00077763894412414788 0 -0.0057633825660209003 0.0007295174043367872 0 -0.0051331448397791794 0.0010219216199996173 0 -0.0050891777503474737 0.00097730212605388455 0 -0.0051319370451785133 0.00092120734431477716 0 -0.0045151961239278627 0.0012028077797870168 0 -0.0052216677613816402 0.00076552510537438085 0 -0.0050891777503474737 0.00097730212605388455 0 -0.0051319370451785133 0.00092120734431477716 0 -0.0051128329440263956 0.00091626427776890236 0 -0.0049373011195273722 0.00057473034599523807 0 -0.005098584919188659 0.00054925715171825291 0 -0.0051005097543825135 0.00058524652529119779 0 -0.0052216677613816402 0.00076552510537438085 0 -0.0055402112231281164 0.00075318686890185919 0 -0.0053919120004378741 0.00079781141798683725 0 -0.0053931160737375082 0.00081793185379974297 0 -0.0054190083017970434 0.00080467503434035882 0 -0.0055117781788534791 0.00065641563817103873 0 -0.0055402112231281164 0.00075318686890185919 0 -0.0052216677613816402 0.00076552510537438085 0 -0.0055117781788534791 0.00065641563817103873 0 -0.0058008436837507392 0.00061688451072384955 0 -0.0057767133649885127 0.0006288981566430461 0 -0.0057263175431148984 0.00054467953800490338 0 -0.0057336564753448001 0.00062960276650790928 0 -0.0055402112231281164 0.00075318686890185919 0 -0.005720326303094438 0.00067053753026736216 0 -0.0058710507585339319 0.00071858638748984328 0 -0.0057633825660209003 0.0007295174043367872 0 -0.0056342761844091604 0.00059025095768761883 0 -0.0057767133649885127 0.0006288981566430461 0 -0.0057263175431148984 0.00054467953800490338 0 -0.0056342761844091604 0.00059025095768761883 0 -0.0056511876482181426 0.00050865983118587497 0 -0.0057263175431148984 0.00054467953800490338 0 -0.0056511876482181426 0.00050865983118587497 0 -0.0057263175431148984 0.00054467953800490338 0 -0.005702712450663807 0.00042907875229217447 0 -0.0056270300491352019 0.00043924296247832236 0 -0.0056511876482181426 0.00050865983118587497 0 -0.005702712450663807 0.00042907875229217447 0 -0.0058008436837507392 0.00061688451072384955 0 -0.0057263175431148984 0.00054467953800490338 0 -0.0057982931311380131 0.00047258018490483814 0 -0.0057263175431148984 0.00054467953800490338 0 -0.0057982931311380131 0.00047258018490483814 0 -0.005702712450663807 0.00042907875229217447 0 -0.0055117781788534791 0.00065641563817103873 0 -0.0058071522107172677 0.00042053949978626266 0 -0.0057982931311380131 0.00047258018490483814 0 -0.005702712450663807 0.00042907875229217447 0 -0.0057764862545692484 0.00030243996761852886 0 -0.0058071522107172677 0.00042053949978626266 0 -0.0057745262701846267 0.00032092649856583285 0 -0.0056270300491352019 0.00043924296247832236 0 -0.005702712450663807 0.00042907875229217447 0 -0.0056650779279116027 0.00031427812970718594 0 -0.005702712450663807 0.00042907875229217447 0 -0.0056650779279116027 0.00031427812970718594 0 -0.0057764862545692484 0.00030243996761852886 0 -0.0044978706282233615 0.00030906409314999982 0 -0.0049786641849387681 0.00036911225519362751 0 -0.0046232884574467286 0.00027746355981994825 0 -0.0046005180741529915 0.00031689163780028191 0 -0.0045684493097630846 0.00030453932143930138 0 -0.0049786641849387681 0.00036911225519362751 0 -0.0052528990124547665 0.00029822249180287263 0 -0.0046232884574467286 0.00027746355981994825 0 -0.0045961869173200554 0.00029233597632284355 0 -0.0045877401075354171 0.00025340338814186579 0 -0.0057739624658588607 0.0005143451888700763 0 -0.0057741967515532559 0.00040771333589816337 0 -0.0058883601068274284 0.00045266055844456898 0 -0.0057741967515532559 0.00040771333589816337 0 -0.0058883601068274284 0.00045266055844456898 0 -0.0058778027281234674 0.00034919388527206142 0 -0.0057741967515532559 0.00040771333589816337 0 -0.0058778027281234674 0.00034919388527206142 0 -0.0057764862545692484 0.00030243996761852886 0 -0.0046232884574467286 0.00027746355981994825 0 -0.0045877401075354171 0.00025340338814186579 0 -0.0046126906879145673 0.00022505892246593213 0 -0.0045877401075354171 0.00025340338814186579 0 -0.0046126906879145673 0.00022505892246593213 0 -0.0045801825899690679 0.00020827196637490525 0 -0.0046126906879145673 0.00022505892246593213 0 -0.0045801825899690679 0.00020827196637490525 0 -0.0046005750376646795 0.00018653226708097634 0 -0.0058778027281234674 0.00034919388527206142 0 -0.0058708071067042952 0.00023245172209817458 0 -0.0057764862545692484 0.00030243996761852886 0 -0.0052528990124547665 0.00029822249180287263 0 -0.005230858671135089 0.00026168113738711166 0 -0.0058708071067042952 0.00023245172209817458 0 -0.0057240411040051283 0.00015717266207826615 0 -0.005845170444610609 0.00010277100945224459 0 -0.0045801825899690679 0.00020827196637490525 0 -0.0046005750376646795 0.00018653226708097634 0 -0.004573931715288965 0.00016324300825822053 0 -0.005230858671135089 0.00026168113738711166 0 -0.0051678390326412305 -7.7582255656731113e-05 0 -0.0055454053417821336 0.00019809858731777356 0 -0.0056650779279116027 0.00031427812970718594 0 -0.0057240411040051283 0.00015717266207826615 0 -0.0056650779279116027 0.00031427812970718594 0 -0.0057764862545692484 0.00030243996761852886 0 -0.0057240411040051283 0.00015717266207826615 0 -0.0058708071067042952 0.00023245172209817458 0 -0.0057764862545692484 0.00030243996761852886 0 -0.0057240411040051283 0.00015717266207826615 0 -0.0056215235189147556 7.8550555821635677e-05 0 -0.0051678390326412305 -7.7582255656731113e-05 0 -0.0054983949384835576 0.00019087629733129972 0 -0.0056215235189147556 7.8550555821635677e-05 0 -0.0054977865388231651 9.9185772979912791e-05 0 -0.0053947828683072636 -1.2102994169128288e-05 0 -0.0054287216759240651 2.7425852545530028e-05 0 -0.0053947828683072636 -1.2102994169128288e-05 0 -0.0052972038309232507 -5.2983320857908267e-05 0 -0.0054287216759240651 2.7425852545530028e-05 0 -0.0053947828683072636 -1.2102994169128288e-05 0 -0.0052972038309232507 -5.2983320857908267e-05 0 -0.0052276530087163346 -9.2626956399283924e-05 0 -0.005280094440092792 4.0926588141690969e-05 0 -0.0052972038309232507 -5.2983320857908267e-05 0 -0.0050970724256342078 -0.00013080676868595906 0 -0.005280094440092792 4.0926588141690969e-05 0 -0.0052972038309232507 -5.2983320857908267e-05 0 -0.0053750721949793155 3.0399994552987253e-05 0 -0.0052972038309232507 -5.2983320857908267e-05 0 -0.0053750721949793155 3.0399994552987253e-05 0 -0.0054287216759240651 2.7425852545530028e-05 0 -0.0054278440928413199 4.8706783986176838e-05 0 -0.0053750721949793155 3.0399994552987253e-05 0 -0.0054287216759240651 2.7425852545530028e-05 0 -0.0046005750376646795 0.00018653226708097634 0 -0.0045988454252315712 0.00014915806873024332 0 -0.004573931715288965 0.00016324300825822053 0 -0.0046005750376646795 0.00018653226708097634 0 -0.0045988454252315712 0.00014915806873024332 0 -0.0046384653985903027 0.0001875172908563742 0 -0.0044309768154591608 -0.00062185491689202219 0 -0.0049443171785419964 -0.00089535152509649847 0 -0.0046566044214015369 -0.00035380333650111937 0 -0.0044988750349533226 -0.00022388672231696957 0 -0.0051678390326412305 -7.7582255656731113e-05 0 -0.0049443171785419964 -0.00089535152509649847 0 -0.0050970724256342078 -0.00013080676868595906 0 -0.0046566044214015369 -0.00035380333650111937 0 -0.0044708683409974683 -0.00010724526032068801 0 -0.0050970724256342078 -0.00013080676868595906 0 -0.0046566044214015369 -0.00035380333650111937 0 -0.0051678390326412305 -7.7582255656731113e-05 0 -0.0050777808631971358 -0.00030956732722225815 0 -0.0052972038309232507 -5.2983320857908267e-05 0 -0.0052276530087163346 -9.2626956399283924e-05 0 -0.0050970724256342078 -0.00013080676868595906 0 -0.0044708683409974683 -0.00010724526032068801 0 -0.0046566044214015369 -0.00035380333650111937 0 -0.0042936844585915535 -0.00034189155053260061 0 -0.0044309768154591608 -0.00062185491689202219 0 -0.0046566044214015369 -0.00035380333650111937 0 -0.0042936844585915535 -0.00034189155053260061 0 -0.0044988750349533226 -0.00022388672231696957 0 -0.004266372297559334 -9.2404457905314975e-05 0 -0.0044309768154591608 -0.00062185491689202219 0 -0.0042936844585915535 -0.00034189155053260061 0 -0.0040441070329085534 -0.00039479024916820468 0 -0.0041716293359093477 -0.00015270707359136114 0 -0.0044708683409974683 -0.00010724526032068801 0 -0.0042936844585915535 -0.00034189155053260061 0 -0.0041716293359093477 -0.00015270707359136114 0 -0.0042936844585915535 -0.00034189155053260061 0 -0.0040954609872416673 -0.00024342904948183329 0 -0.004028092580451728 -0.00018803772645872478 0 -0.0040954609872416673 -0.00024342904948183329 0 -0.0040068936333519335 -0.00018294286210328344 0 -0.0040954609872416673 -0.00024342904948183329 0 -0.0040068936333519335 -0.00018294286210328344 0 -0.0040788423644275342 -0.00026430990475498708 0 -0.0039903257583391296 -9.6971107258332916e-05 0 -0.0038931436449914248 -0.00011070744407323052 0 -0.0039885662196051906 1.4715006560899975e-05 0 -0.0040068936333519335 -0.00018294286210328344 0 -0.0039903257583391296 -9.6971107258332916e-05 0 -0.0038931436449914248 -0.00011070744407323052 0 -0.0040497570372889577 -9.8844896602845304e-05 0 -0.004266372297559334 -9.2404457905314975e-05 0 -0.0042936844585915535 -0.00034189155053260061 0 -0.0040954609872416673 -0.00024342904948183329 0 -0.0040441070329085534 -0.00039479024916820468 0 -0.0041850631529259559 -0.00024702099208187686 0 -0.004266372297559334 -9.2404457905314975e-05 0 -0.004028092580451728 -0.00018803772645872478 0 -0.0040848023943249089 -0.00020007937539729762 0 -0.0040068936333519335 -0.00018294286210328344 0 -0.0040848023943249089 -0.00020007937539729762 0 -0.0040068936333519335 -0.00018294286210328344 0 -0.0040503567732424828 -0.00011495883798341555 0 -0.0039903257583391296 -9.6971107258332916e-05 0 -0.0040503567732424828 -0.00011495883798341555 0 -0.0039885662196051906 1.4715006560899975e-05 0 -0.0040068936333519335 -0.00018294286210328344 0 -0.0039903257583391296 -9.6971107258332916e-05 0 -0.0040503567732424828 -0.00011495883798341555 0 -0.0040848023943249089 -0.00020007937539729762 0 -0.0040503567732424828 -0.00011495883798341555 0 -0.0041130263828312247 -5.1927406522824063e-05 0 -0.0039885662196051906 1.4715006560899975e-05 0 -0.0041287820515546123 0.00015676841587640986 0 -0.0041130263828312247 -5.1927406522824063e-05 0 -0.0040503567732424828 -0.00011495883798341555 0 -0.0039885662196051906 1.4715006560899975e-05 0 -0.0041130263828312247 -5.1927406522824063e-05 0 -0.0038931436449914248 -0.00011070744407323052 0 -0.0039885662196051906 1.4715006560899975e-05 0 -0.0039440220737572392 0.0001561942521978031 0 -0.0045988454252315712 0.00014915806873024332 0 -0.0046253453508410744 0.00013401780006737577 0 -0.0046384653985903027 0.0001875172908563742 0 -0.004266372297559334 -9.2404457905314975e-05 0 -0.004290392904249778 0.00019131075431555119 0 -0.0046126906879145673 0.00022505892246593213 0 -0.0046005750376646795 0.00018653226708097634 0 -0.0046384653985903027 0.0001875172908563742 0 -0.0039885662196051906 1.4715006560899975e-05 0 -0.0039440220737572392 0.0001561942521978031 0 -0.0040374744277361426 0.00020709778137762046 0 -0.0039885662196051906 1.4715006560899975e-05 0 -0.0040374744277361426 0.00020709778137762046 0 -0.0041287820515546123 0.00015676841587640986 0 -0.0043295933653399593 0.00027373587684079224 0 -0.004290392904249778 0.00019131075431555119 0 -0.0039770857165138968 0.00030033006056144536 0 -0.0039440220737572392 0.0001561942521978031 0 -0.0040374744277361426 0.00020709778137762046 0 -0.0039770857165138968 0.00030033006056144536 0 -0.0040374744277361426 0.00020709778137762046 0 -0.0040601459649608198 0.00026119102961332072 0 -0.0046492299294170246 0.00024070012401124566 0 -0.0046126906879145673 0.00022505892246593213 0 -0.0046384653985903027 0.0001875172908563742 0 -0.0040823685246581991 0.00028702332110936389 0 -0.0040601459649608198 0.00026119102961332072 0 -0.0041113339694263725 0.00020817436024599231 0 -0.0040374744277361426 0.00020709778137762046 0 -0.0040601459649608198 0.00026119102961332072 0 -0.0041287820515546123 0.00015676841587640986 0 -0.0041287820515546123 0.00015676841587640986 0 -0.0041113339694263725 0.00020817436024599231 0 -0.0041118295647835298 0.00017744011859313123 0 -0.0040601459649608198 0.00026119102961332072 0 -0.0041287820515546123 0.00015676841587640986 0 -0.0041113339694263725 0.00020817436024599231 0 -0.0041468355948114499 0.0001557729562383968 0 -0.004259386085694314 0.00010031630235240379 0 -0.0041287820515546123 0.00015676841587640986 0 -0.0044246951287121722 3.4230518917553305e-05 0 -0.0042710192234876876 -7.9766555453085337e-05 0 -0.0041287820515546123 0.00015676841587640986 0 -0.0041130263828312247 -5.1927406522824063e-05 0 -0.0042710192234876876 -7.9766555453085337e-05 0 -0.0042280392019504592 -0.00022817779539547697 0 -0.0041130263828312247 -5.1927406522824063e-05 0 -0.0042710192234876876 -7.9766555453085337e-05 0 -0.0040848023943249089 -0.00020007937539729762 0 -0.0042280392019504592 -0.00022817779539547697 0 -0.0041130263828312247 -5.1927406522824063e-05 0 -0.0042280392019504592 -0.00022817779539547697 0 -0.0042710192234876876 -7.9766555453085337e-05 0 -0.0044206267612538616 -0.00017460883674639196 0 -0.0044246951287121722 3.4230518917553305e-05 0 -0.0042710192234876876 -7.9766555453085337e-05 0 -0.0044206267612538616 -0.00017460883674639196 0 -0.0044246951287121722 3.4230518917553305e-05 0 -0.0044206267612538616 -0.00017460883674639196 0 -0.0046725411952378898 -0.00010915390000462686 0 -0.0045582934372205642 -0.00032614010695298276 0 -0.0044206267612538616 -0.00017460883674639196 0 -0.0046725411952378898 -0.00010915390000462686 0 -0.004259386085694314 0.00010031630235240379 0 -0.0044583689975739227 6.0163410071887999e-05 0 -0.0041697691624487197 0.00010775281863310433 0 -0.004160907019569283 0.00014873594543782519 0 -0.0041325528689942588 0.00014605328080611414 0 -0.0039723872187562553 -0.00075989420555627307 0 -0.0044583689975739227 6.0163410071887999e-05 0 -0.004160907019569283 0.00014873594543782519 0 -0.0041325528689942588 0.00014605328080611414 0 -0.004152263081232269 0.00017726962113837644 0 -0.0041325528689942588 0.00014605328080611414 0 -0.004152263081232269 0.00017726962113837644 0 -0.004127403259263614 0.0001863214786747623 0 -0.0041113339694263725 0.00020817436024599231 0 -0.0041118295647835298 0.00017744011859313123 0 -0.004127403259263614 0.0001863214786747623 0 -0.0041118295647835298 0.00017744011859313123 0 -0.0041325528689942588 0.00014605328080611414 0 -0.004127403259263614 0.0001863214786747623 0 -0.0036154713754799183 -0.0013850872621100016 0 -0.0036490430558895112 -0.0012414139750673316 0 -0.0035250805722203023 -0.0013369931836540875 0 -0.0036490430558895112 -0.0012414139750673316 0 -0.0035250805722203023 -0.0013369931836540875 0 -0.0034266789279325874 -0.0011316282558953125 0 -0.0033785083006126725 -0.0013988155869383097 0 -0.0035250805722203023 -0.0013369931836540875 0 -0.0034266789279325874 -0.0011316282558953125 0 -0.0039723872187562553 -0.00075989420555627307 0 -0.0037941196868017009 -0.00046253503559493258 0 -0.0041697691624487197 0.00010775281863310433 0 -0.004160907019569283 0.00014873594543782519 0 -0.0041913774799945507 0.00016364044785191414 0 -0.004152263081232269 0.00017726962113837644 0 -0.0041913774799945507 0.00016364044785191414 0 -0.0041730747570127083 0.00020614273384172085 0 -0.004160907019569283 0.00014873594543782519 0 -0.004152263081232269 0.00017726962113837644 0 -0.0041913774799945507 0.00016364044785191414 0 -0.0034266789279325874 -0.0011316282558953125 0 -0.0036454652124755238 -0.000582123956844381 0 -0.0038291785956725741 -0.00087933817884014388 0 -0.0036490430558895112 -0.0012414139750673316 0 -0.0034266789279325874 -0.0011316282558953125 0 -0.0038291785956725741 -0.00087933817884014388 0 -0.0037941196868017009 -0.00046253503559493258 0 -0.0039332941209478858 -0.0001856756055348758 0 -0.0042142559183056382 0.00022422051195896669 0 -0.0041730747570127083 0.00020614273384172085 0 -0.0041727593487969139 0.00024800400857211965 0 -0.0041913774799945507 0.00016364044785191414 0 -0.0042142559183056382 0.00022422051195896669 0 -0.0041730747570127083 0.00020614273384172085 0 -0.0041730747570127083 0.00020614273384172085 0 -0.0041727593487969139 0.00024800400857211965 0 -0.0041398816267288916 0.00021944076323346078 0 -0.0042142559183056382 0.00022422051195896669 0 -0.0041727593487969139 0.00024800400857211965 0 -0.0041957704575362204 0.00028227349391908449 0 -0.0041727593487969139 0.00024800400857211965 0 -0.0041604312364847736 0.00030683582460274409 0 -0.0041957704575362204 0.00028227349391908449 0 -0.0039332941209478858 -0.0001856756055348758 0 -0.0040857873214867916 9.3660388339240167e-05 0 -0.0042142559183056382 0.00022422051195896669 0 -0.0041957704575362204 0.00028227349391908449 0 -0.0042327803962577196 0.00029161099286004638 0 -0.0041113339694263725 0.00020817436024599231 0 -0.004127403259263614 0.0001863214786747623 0 -0.0041398816267288916 0.00021944076323346078 0 -0.004152263081232269 0.00017726962113837644 0 -0.0041730747570127083 0.00020614273384172085 0 -0.0041398816267288916 0.00021944076323346078 0 -0.004152263081232269 0.00017726962113837644 0 -0.004127403259263614 0.0001863214786747623 0 -0.0041398816267288916 0.00021944076323346078 0 -0.0041727593487969139 0.00024800400857211965 0 -0.0041398816267288916 0.00021944076323346078 0 -0.0041224705801422836 0.00027706019916744071 0 -0.0041727593487969139 0.00024800400857211965 0 -0.0041224705801422836 0.00027706019916744071 0 -0.0041604312364847736 0.00030683582460274409 0 -0.0041113339694263725 0.00020817436024599231 0 -0.0041398816267288916 0.00021944076323346078 0 -0.0041224705801422836 0.00027706019916744071 0 -0.0040823685246581991 0.00028702332110936389 0 -0.0041113339694263725 0.00020817436024599231 0 -0.0041224705801422836 0.00027706019916744071 0 -0.0040823685246581991 0.00028702332110936389 0 -0.0041224705801422836 0.00027706019916744071 0 -0.0040746072614485547 0.00035025345025989352 0 -0.0041224705801422836 0.00027706019916744071 0 -0.0040746072614485547 0.00035025345025989352 0 -0.0041114192839907049 0.00035483945822493176 0 -0.0040746072614485547 0.00035025345025989352 0 -0.0040729304662871762 0.00040021399246034385 0 -0.0041114192839907049 0.00035483945822493176 0 -0.0040414692848238648 0.00041706332746697564 0 -0.0040746072614485547 0.00035025345025989352 0 -0.0040729304662871762 0.00040021399246034385 0 -0.0040729304662871762 0.00040021399246034385 0 -0.0041114192839907049 0.00035483945822493176 0 -0.0040938588045694117 0.00042226429989299536 0 -0.0041114192839907049 0.00035483945822493176 0 -0.0041604312364847736 0.00030683582460274409 0 -0.0041517132697669679 0.00038254610250735416 0 -0.0041114192839907049 0.00035483945822493176 0 -0.0041517132697669679 0.00038254610250735416 0 -0.0040938588045694117 0.00042226429989299536 0 -0.0041224705801422836 0.00027706019916744071 0 -0.0041114192839907049 0.00035483945822493176 0 -0.0041604312364847736 0.00030683582460274409 0 -0.0041604312364847736 0.00030683582460274409 0 -0.0041957704575362204 0.00028227349391908449 0 -0.0042008551472223045 0.00032575137413300869 0 -0.0041957704575362204 0.00028227349391908449 0 -0.0042008551472223045 0.00032575137413300869 0 -0.0042327803962577196 0.00029161099286004638 0 -0.0042008551472223045 0.00032575137413300869 0 -0.0041517132697669679 0.00038254610250735416 0 -0.0042123433956964169 0.00038105512270881987 0 -0.0042008551472223045 0.00032575137413300869 0 -0.0042123433956964169 0.00038105512270881987 0 -0.0042481848694990556 0.00031281301691554086 0 -0.0041604312364847736 0.00030683582460274409 0 -0.0042008551472223045 0.00032575137413300869 0 -0.0041517132697669679 0.00038254610250735416 0 -0.0041517132697669679 0.00038254610250735416 0 -0.0041756077557761713 0.00047798458064489624 0 -0.0041168396090192063 0.00047315778257042858 0 -0.0041517132697669679 0.00038254610250735416 0 -0.0042123433956964169 0.00038105512270881987 0 -0.0041756077557761713 0.00047798458064489624 0 -0.0042123433956964169 0.00038105512270881987 0 -0.0041756077557761713 0.00047798458064489624 0 -0.0042657075201224153 0.0004798643040416472 0 -0.0041756077557761713 0.00047798458064489624 0 -0.0042657075201224153 0.0004798643040416472 0 -0.0042314204554349324 0.00063574708481221572 0 -0.0041756077557761713 0.00047798458064489624 0 -0.0041101809758404741 0.00057303424384665006 0 -0.0042314204554349324 0.00063574708481221572 0 -0.0041756077557761713 0.00047798458064489624 0 -0.0041101809758404741 0.00057303424384665006 0 -0.0041168396090192063 0.00047315778257042858 0 -0.0041101809758404741 0.00057303424384665006 0 -0.0040670277107994011 0.00051859571259199784 0 -0.0041168396090192063 0.00047315778257042858 0 -0.0040231616825531433 0.00051084651036458276 0 -0.0040670277107994011 0.00051859571259199784 0 -0.0040269429122361021 0.00056765103927846239 0 -0.0040231616825531433 0.00051084651036458276 0 -0.0040670277107994011 0.00051859571259199784 0 -0.0040516273433574375 0.00045975773649219073 0 -0.0040670277107994011 0.00051859571259199784 0 -0.0040516273433574375 0.00045975773649219073 0 -0.0040938588045694117 0.00042226429989299536 0 -0.0040414692848238648 0.00041706332746697564 0 -0.0040729304662871762 0.00040021399246034385 0 -0.0040516273433574375 0.00045975773649219073 0 -0.0040729304662871762 0.00040021399246034385 0 -0.0040516273433574375 0.00045975773649219073 0 -0.0040938588045694117 0.00042226429989299536 0 -0.0040670277107994011 0.00051859571259199784 0 -0.0041168396090192063 0.00047315778257042858 0 -0.0040938588045694117 0.00042226429989299536 0 -0.0041517132697669679 0.00038254610250735416 0 -0.0041168396090192063 0.00047315778257042858 0 -0.0040938588045694117 0.00042226429989299536 0 -0.0046650101322250146 0.00050499573945393596 0 -0.0045031649749292619 0.00034464157025018802 0 -0.0046882289664390581 0.00027993087682600244 0 -0.0046650101322250146 0.00050499573945393596 0 -0.0045031649749292619 0.00034464157025018802 0 -0.0044137773460045963 0.00049162575477366022 0 -0.004270867530982209 0.00082607505064280278 0 -0.0043252118228093266 0.00085056189242357103 0 -0.0043217179799848373 0.00074729551941913122 0 -0.0046650101322250146 0.00050499573945393596 0 -0.0046882289664390581 0.00027993087682600244 0 -0.0049172812521583583 0.00026652125838518307 0 -0.0045326849767157035 0.00067074283468026251 0 -0.0041208210356644404 0.00028709466270033238 0 -0.002978315967561848 0.00042212218389688083 0 -0.0041208210356644404 0.00028709466270033238 0 -0.004270867530982209 0.00082607505064280278 0 -0.0043252118228093266 0.00085056189242357103 0 -0.0042835512689431759 0.00090148381984765115 0 -0.0045326849767157035 0.00067074283468026251 0 -0.0043557276504846473 0.00077804902900969325 0 -0.0046650101322250146 0.00050499573945393596 0 -0.0044137773460045963 0.00049162575477366022 0 -0.0044872036888227622 0.00065523489765008326 0 -0.004270867530982209 0.00082607505064280278 0 -0.0042338841205535717 0.00089879248066117193 0 -0.0042835512689431759 0.00090148381984765115 0 -0.0043530300439468816 0.00061245517708596365 0 -0.0044137773460045963 0.00049162575477366022 0 -0.0044872036888227622 0.00065523489765008326 0 -0.0043530300439468816 0.00061245517708596365 0 -0.0042657075201224153 0.0004798643040416472 0 -0.0044137773460045963 0.00049162575477366022 0 -0.0043530300439468816 0.00061245517708596365 0 -0.0042657075201224153 0.0004798643040416472 0 -0.0042314204554349324 0.00063574708481221572 0 -0.0042657075201224153 0.0004798643040416472 0 -0.0044137773460045963 0.00049162575477366022 0 -0.0042481848694990556 0.00031281301691554086 0 -0.0042123433956964169 0.00038105512270881987 0 -0.0042657075201224153 0.0004798643040416472 0 -0.0042481848694990556 0.00031281301691554086 0 -0.0045031649749292619 0.00034464157025018802 0 -0.0044137773460045963 0.00049162575477366022 0 -0.0042481848694990556 0.00031281301691554086 0 -0.0045031649749292619 0.00034464157025018802 0 -0.0042481848694990556 0.00031281301691554086 0 -0.0043786079254653663 4.4040370407227295e-05 0 -0.0042268687416358204 0.00029791586936539467 0 -0.0040857873214867916 9.3660388339240167e-05 0 -0.0042481848694990556 0.00031281301691554086 0 -0.0039332341333167785 -9.5554670010743881e-05 0 -0.0043786079254653663 4.4040370407227295e-05 0 -0.0042008551472223045 0.00032575137413300869 0 -0.0042481848694990556 0.00031281301691554086 0 -0.0042327803962577196 0.00029161099286004638 0 -0.0039332341333167785 -9.5554670010743881e-05 0 -0.0043786079254653663 4.4040370407227295e-05 0 -0.0042050324592882125 -0.00043813323789612007 0 -0.0046920067328954096 -0.00014423133237722401 0 -0.0045867797166236797 0.00013428671609349058 0 -0.0047786070279382427 0.00012246337793353712 0 -0.0043786079254653663 4.4040370407227295e-05 0 -0.0046920067328954096 -0.00014423133237722401 0 -0.0045867797166236797 0.00013428671609349058 0 -0.0045031649749292619 0.00034464157025018802 0 -0.0043786079254653663 4.4040370407227295e-05 0 -0.0045867797166236797 0.00013428671609349058 0 -0.0045867797166236797 0.00013428671609349058 0 -0.0046882289664390581 0.00027993087682600244 0 -0.0047786070279382427 0.00012246337793353712 0 -0.0045031649749292619 0.00034464157025018802 0 -0.0045867797166236797 0.00013428671609349058 0 -0.0046882289664390581 0.00027993087682600244 0 -0.0049172812521583583 0.00026652125838518307 0 -0.0047786070279382427 0.00012246337793353712 0 -0.0049252254555177235 -4.4419249547112374e-05 0 -0.0041208210356644404 0.00028709466270033238 0 -0.0049819977072697768 -2.5936433818069464e-05 0 -0.0046882289664390581 0.00027993087682600244 0 -0.0049172812521583583 0.00026652125838518307 0 -0.0047786070279382427 0.00012246337793353712 0 -0.0046920067328954096 -0.00014423133237722401 0 -0.0047786070279382427 0.00012246337793353712 0 -0.0049252254555177235 -4.4419249547112374e-05 0 -0.0046920067328954096 -0.00014423133237722401 0 -0.0049252254555177235 -4.4419249547112374e-05 0 -0.0049448975760299444 -0.0001817848156464471 0 -0.0046920067328954096 -0.00014423133237722401 0 -0.0049403775579401864 -0.00033547397970074092 0 -0.0046110815951509376 -0.00059672022145041673 0 -0.0046920067328954096 -0.00014423133237722401 0 -0.0049448975760299444 -0.0001817848156464471 0 -0.0049403775579401864 -0.00033547397970074092 0 -0.0046920067328954096 -0.00014423133237722401 0 -0.0046110815951509376 -0.00059672022145041673 0 -0.0042050324592882125 -0.00043813323789612007 0 -0.0038163614507631454 -0.0012192781740592671 0 -0.003755277222649781 -0.0012549078119140228 0 -0.0038165513071788189 -0.0012703035086782813 0 -0.003755277222649781 -0.0012549078119140228 0 -0.0038165513071788189 -0.0012703035086782813 0 -0.0037883235079652438 -0.0013137847883639708 0 -0.0045233349245580581 -0.00078760572621650938 0 -0.0041525163214548898 -0.00093423404766860587 0 -0.0036454652124755238 -0.000582123956844381 0 -0.0039332341333167785 -9.5554670010743881e-05 0 -0.0042050324592882125 -0.00043813323789612007 0 -0.0043786079254653663 4.4040370407227295e-05 0 -0.0046920067328954096 -0.00014423133237722401 0 -0.0042050324592882125 -0.00043813323789612007 0 -0.0046110815951509376 -0.00059672022145041673 0 -0.0042050324592882125 -0.00043813323789612007 0 -0.0042016353602301621 -0.00091439979620224876 0 -0.0041525163214548898 -0.00093423404766860587 0 -0.0039447024801859253 -0.001094766201007572 0 -0.0042050324592882125 -0.00043813323789612007 0 -0.0038291785956725741 -0.00087933817884014388 0 -0.0042016353602301621 -0.00091439979620224876 0 -0.0036454652124755238 -0.000582123956844381 0 -0.0042050324592882125 -0.00043813323789612007 0 -0.0038291785956725741 -0.00087933817884014388 0 -0.0036648275509948498 -0.0012389113134929311 0 -0.0039447024801859253 -0.001094766201007572 0 -0.0036490430558895112 -0.0012414139750673316 0 -0.0038291785956725741 -0.00087933817884014388 0 -0.0042016353602301621 -0.00091439979620224876 0 -0.0036490430558895112 -0.0012414139750673316 0 -0.0036988255915873509 -0.0012812000173180529 0 -0.0036881055633291734 -0.0013192515165938222 0 -0.003755277222649781 -0.0012549078119140228 0 -0.0036988255915873509 -0.0012812000173180529 0 -0.0037412762256830321 -0.0013035392915768721 0 -0.0036988255915873509 -0.0012812000173180529 0 -0.0036881055633291734 -0.0013192515165938222 0 -0.0037412762256830321 -0.0013035392915768721 0 -0.0036881055633291734 -0.0013192515165938222 0 -0.0037412762256830321 -0.0013035392915768721 0 -0.0037369141262904 -0.0013649004852821327 0 -0.0036154713754799183 -0.0013850872621100016 0 -0.0036490430558895112 -0.0012414139750673316 0 -0.0036881055633291734 -0.0013192515165938222 0 -0.0037883235079652438 -0.0013137847883639708 0 -0.0037412762256830321 -0.0013035392915768721 0 -0.0037369141262904 -0.0013649004852821327 0 -0.003755277222649781 -0.0012549078119140228 0 -0.0037883235079652438 -0.0013137847883639708 0 -0.0037412762256830321 -0.0013035392915768721 0 -0.0038134382003697561 -0.0013869241430324859 0 -0.0037883235079652438 -0.0013137847883639708 0 -0.0037369141262904 -0.0013649004852821327 0 -0.0038134382003697561 -0.0013869241430324859 0 -0.0038523712214835791 -0.0013058676772984589 0 -0.003884663850945335 -0.001359016463080496 0 -0.0038134382003697561 -0.0013869241430324859 0 -0.0037883235079652438 -0.0013137847883639708 0 -0.0038523712214835791 -0.0013058676772984589 0 -0.0038165513071788189 -0.0012703035086782813 0 -0.0037883235079652438 -0.0013137847883639708 0 -0.0038523712214835791 -0.0013058676772984589 0 -0.0038523712214835791 -0.0013058676772984589 0 -0.0039039235887898109 -0.0013100453647420876 0 -0.0038627676632334088 -0.0012460371926389234 0 -0.0038523712214835791 -0.0013058676772984589 0 -0.0039039235887898109 -0.0013100453647420876 0 -0.003884663850945335 -0.001359016463080496 0 -0.0039580072464194807 -0.0013698043492660513 0 -0.0039039235887898109 -0.0013100453647420876 0 -0.003884663850945335 -0.001359016463080496 0 -0.0039580072464194807 -0.0013698043492660513 0 -0.0039039235887898109 -0.0013100453647420876 0 -0.0039376066159127589 -0.0013192910448171916 0 -0.0039580072464194807 -0.0013698043492660513 0 -0.0039376066159127589 -0.0013192910448171916 0 -0.0039040126290666144 -0.0013560705922484745 0 -0.0029074975386934494 -0.0006758627652133063 0 -0.002832053983258516 -0.00066918021144134058 0 -0.0039039235887898109 -0.0013100453647420876 0 -0.0039376066159127589 -0.0013192910448171916 0 -0.0039116915921451438 -0.0012453377492385694 0 -0.0029074975386934494 -0.0006758627652133063 0 -0.0028371799983847794 -0.00071465550713645134 0 -0.0018642891994254474 -3.7782573278900058e-05 0 -0.0019532203437356791 -0.0001311317911052228 0 -0.0018341603099877501 -0.00012404841060110412 0 -0.0018642891994254474 -3.7782573278900058e-05 0 -0.0018341603099877501 -0.00012404841060110412 0 -0.0017455361386967442 -2.9805389143966599e-05 0 -0.0019532203437356791 -0.0001311317911052228 0 -0.0018341603099877501 -0.00012404841060110412 0 -0.001889904851914916 -0.00017551552916838706 0 -0.0018341603099877501 -0.00012404841060110412 0 -0.001889904851914916 -0.00017551552916838706 0 -0.0018285165485838009 -0.00018653104602876037 0 -0.0019532203437356791 -0.0001311317911052228 0 -0.001889904851914916 -0.00017551552916838706 0 -0.001950714384731899 -0.00018640757586679561 0 -0.0028371799983847794 -0.00071465550713645134 0 -0.0036832418615159071 -0.00029792461485880832 0 -0.0039116915921451438 -0.0012453377492385694 0 -0.0038627676632334088 -0.0012460371926389234 0 -0.0038716186529725994 -0.0011804934201845281 0 -0.0019532203437356791 -0.0001311317911052228 0 -0.0019888239097265634 -0.00018889783756182964 0 -0.001950714384731899 -0.00018640757586679561 0 -0.0049403775579401864 -0.00033547397970074092 0 -0.0050573782492207972 -0.00012345552694886558 0 -0.0052188393097664662 -0.00013641140812628298 0 -0.0038163614507631454 -0.0012192781740592671 0 -0.0038627676632334088 -0.0012460371926389234 0 -0.0038716186529725994 -0.0011804934201845281 0 -0.0045233349245580581 -0.00078760572621650938 0 -0.0036832418615159071 -0.00029792461485880832 0 -0.0049448975760299444 -0.0001817848156464471 0 -0.0049403775579401864 -0.00033547397970074092 0 -0.0050573782492207972 -0.00012345552694886558 0 -0.0038165513071788189 -0.0012703035086782813 0 -0.0038523712214835791 -0.0013058676772984589 0 -0.0038627676632334088 -0.0012460371926389234 0 -0.0038163614507631454 -0.0012192781740592671 0 -0.0038165513071788189 -0.0012703035086782813 0 -0.0038627676632334088 -0.0012460371926389234 0 -0.0039039235887898109 -0.0013100453647420876 0 -0.0039116915921451438 -0.0012453377492385694 0 -0.0038627676632334088 -0.0012460371926389234 0 -0.0016184264890821824 1.9065590732847219e-05 0 -0.0016125333231047402 7.429851174899771e-05 0 -0.0016503961891365874 8.3355329879360079e-05 0 -0.00062738423127294918 0.00064194010171153971 0 -0.001928112183064085 3.382180478868002e-05 0 -0.0016968656749211085 3.6877654807221276e-05 0 -0.0016184264890821824 1.9065590732847219e-05 0 -0.0016503961891365874 8.3355329879360079e-05 0 -0.001552657392269154 -5.0704685677883124e-06 0 -0.0016184264890821824 1.9065590732847219e-05 0 -0.0015857623306042561 2.2005269008646722e-05 0 -0.0016092688904934991 3.6343197503343122e-05 0 -0.0016184264890821824 1.9065590732847219e-05 0 -0.0015857623306042561 2.2005269008646722e-05 0 -0.0016092688904934991 3.6343197503343122e-05 0 -0.0016184264890821824 1.9065590732847219e-05 0 -0.0016262563979345058 3.1471724705257621e-05 0 -0.0016184264890821824 1.9065590732847219e-05 0 -0.0016262563979345058 3.1471724705257621e-05 0 -0.0016128883555840952 1.3480089650880838e-05 0 -0.0016184264890821824 1.9065590732847219e-05 0 -0.0016128883555840952 1.3480089650880838e-05 0 -0.0016125333231047402 7.429851174899771e-05 0 -0.0016087573638554279 1.6596054998910962e-05 0 -0.0016119118117296583 7.0925333654655201e-06 0 -0.0016128883555840952 1.3480089650880838e-05 0 -0.0017455361386967442 -2.9805389143966599e-05 0 -0.0017266005806115582 -0.00011299502350985136 0 -0.0016262563979345058 3.1471724705257621e-05 0 -0.0016128883555840952 1.3480089650880838e-05 0 -0.0016527821714304963 3.9329803206681832e-05 0 -0.0016128883555840952 1.3480089650880838e-05 0 -0.0016527821714304963 3.9329803206681832e-05 0 -0.0017334585280610623 4.9050975852211022e-05 0 -0.0016128883555840952 1.3480089650880838e-05 0 -0.0017334585280610623 4.9050975852211022e-05 0 -0.0017455361386967442 -2.9805389143966599e-05 0 -0.0018642891994254474 -3.7782573278900058e-05 0 -0.0017334585280610623 4.9050975852211022e-05 0 -0.0017455361386967442 -2.9805389143966599e-05 0 -0.0018341603099877501 -0.00012404841060110412 0 -0.0017455361386967442 -2.9805389143966599e-05 0 -0.0017266005806115582 -0.00011299502350985136 0 -0.0014334755162472858 0.00022324190263164144 0 -0.0015079706849030661 0.00019537141458942999 0 -0.0014811783743836949 0.00024694291797734051 0 -0.0014955366697175668 0.00011444969731328044 0 -0.0014334755162472858 0.00022324190263164144 0 -0.0015079706849030661 0.00019537141458942999 0 -0.0018341603099877501 -0.00012404841060110412 0 -0.0017266005806115582 -0.00011299502350985136 0 -0.0018285165485838009 -0.00018653104602876037 0 -0.0016119118117296583 7.0925333654655201e-06 0 -0.001630384556081529 1.9859975663654212e-05 0 -0.0014955366697175668 0.00011444969731328044 0 -0.0015079706849030661 0.00019537141458942999 0 -0.0015652824009450381 0.00013304406737228811 0 -0.0015079706849030661 0.00019537141458942999 0 -0.0015579623254865789 0.00020372181061938035 0 -0.0015233560391798794 0.00026962714561353136 0 -0.0015079706849030661 0.00019537141458942999 0 -0.0015652824009450381 0.00013304406737228811 0 -0.0015579623254865789 0.00020372181061938035 0 -0.0016128883555840952 1.3480089650880838e-05 0 -0.0014955366697175668 0.00011444969731328044 0 -0.0015652824009450381 0.00013304406737228811 0 -0.0015652824009450381 0.00013304406737228811 0 -0.0016125333231047402 7.429851174899771e-05 0 -0.0016130079929249979 0.00016328407490241378 0 -0.0016128883555840952 1.3480089650880838e-05 0 -0.0015652824009450381 0.00013304406737228811 0 -0.0016125333231047402 7.429851174899771e-05 0 -0.0015579623254865789 0.00020372181061938035 0 -0.0016130079929249979 0.00016328407490241378 0 -0.0015798162935558458 0.00025290785732104274 0 -0.0016130079929249979 0.00016328407490241378 0 -0.0016421631752480462 0.00022351018599468795 0 -0.0015798162935558458 0.00025290785732104274 0 -0.0015652824009450381 0.00013304406737228811 0 -0.0015579623254865789 0.00020372181061938035 0 -0.0016130079929249979 0.00016328407490241378 0 -0.0016955590284863616 0.00014365262057659646 0 -0.0017041445917286885 0.00027171331482733329 0 -0.0016421631752480462 0.00022351018599468795 0 -0.0016955590284863616 0.00014365262057659646 0 -0.0016130079929249979 0.00016328407490241378 0 -0.0016421631752480462 0.00022351018599468795 0 -0.0016125333231047402 7.429851174899771e-05 0 -0.0016130079929249979 0.00016328407490241378 0 -0.0016503961891365874 8.3355329879360079e-05 0 -0.0016955590284863616 0.00014365262057659646 0 -0.0016130079929249979 0.00016328407490241378 0 -0.0016503961891365874 8.3355329879360079e-05 0 -0.0002983217373466811 0.0010398167114741117 0 -0.00030661611935249979 0.001179233492049735 0 -0.0017041445917286885 0.00027171331482733329 0 -0.0016035294839816263 0.0003153312184471818 0 -0.001680912986751602 0.00053770793624549607 0 -0.0016035294839816263 0.0003153312184471818 0 -0.0014489400281361068 0.00062989899840771083 0 -0.001680912986751602 0.00053770793624549607 0 -0.0017041445917286885 0.00027171331482733329 0 -0.0016421631752480462 0.00022351018599468795 0 -0.0016035294839816263 0.0003153312184471818 0 -0.0016421631752480462 0.00022351018599468795 0 -0.0016035294839816263 0.0003153312184471818 0 -0.0015798162935558458 0.00025290785732104274 0 -0.0016035294839816263 0.0003153312184471818 0 -0.0015798162935558458 0.00025290785732104274 0 -0.0015525220786508354 0.00032538881640298902 0 -0.0015798162935558458 0.00025290785732104274 0 -0.0015525220786508354 0.00032538881640298902 0 -0.0015233560391798794 0.00026962714561353136 0 -0.0015579623254865789 0.00020372181061938035 0 -0.0015798162935558458 0.00025290785732104274 0 -0.0015233560391798794 0.00026962714561353136 0 -0.0015969061801936071 0.00033071784387386538 0 -0.0015317879623505547 0.00053072702282545999 0 -0.0016035294839816263 0.0003153312184471818 0 -0.0015525220786508354 0.00032538881640298902 0 -0.0016114033746863756 0.00042885823516250715 0 -0.0015525220786508354 0.00032538881640298902 0 -0.0014970965924784262 0.00032275712917152641 0 -0.0014893189904949143 0.000374376278210307 0 -0.0014970965924784262 0.00032275712917152641 0 -0.0014459074139092018 0.00034703649945716443 0 -0.0014893189904949143 0.000374376278210307 0 -0.0015525220786508354 0.00032538881640298902 0 -0.0014970965924784262 0.00032275712917152641 0 -0.0015233560391798794 0.00026962714561353136 0 -0.0014970965924784262 0.00032275712917152641 0 -0.0015233560391798794 0.00026962714561353136 0 -0.0014587296030394519 0.00029657126836043639 0 -0.0015233560391798794 0.00026962714561353136 0 -0.0014587296030394519 0.00029657126836043639 0 -0.0014811783743836949 0.00024694291797734051 0 -0.0015079706849030661 0.00019537141458942999 0 -0.0015233560391798794 0.00026962714561353136 0 -0.0014811783743836949 0.00024694291797734051 0 -0.0014334755162472858 0.00022324190263164144 0 -0.0014587296030394519 0.00029657126836043639 0 -0.0014811783743836949 0.00024694291797734051 0 -0.0014587296030394519 0.00029657126836043639 0 -0.0014175544450039719 0.00026445099815813368 0 -0.0014011540707417299 0.00031720877235340901 0 -0.0014334755162472858 0.00022324190263164144 0 -0.0014587296030394519 0.00029657126836043639 0 -0.0014175544450039719 0.00026445099815813368 0 -0.001630384556081529 1.9859975663654212e-05 0 -0.0016397930784339508 3.2140548191582562e-05 0 -0.0014587296030394519 0.00029657126836043639 0 -0.0014459074139092018 0.00034703649945716443 0 -0.0014011540707417299 0.00031720877235340901 0 -0.0014970965924784262 0.00032275712917152641 0 -0.0014587296030394519 0.00029657126836043639 0 -0.0014459074139092018 0.00034703649945716443 0 -0.0014459074139092018 0.00034703649945716443 0 -0.0014415765865367846 0.00039604438806220202 0 -0.0014893189904949143 0.000374376278210307 0 -0.0014459074139092018 0.00034703649945716443 0 -0.0014415765865367846 0.00039604438806220202 0 -0.0014167063849368151 0.00036749655385892956 0 -0.0014058510711497329 0.00043444963148248328 0 -0.0014795550662051969 0.00037817960049914886 0 -0.0014207265169961442 0.0005831194453709812 0 -0.0013604576821289723 0.00047535650920048312 0 -0.0015114455528402681 0.00050214632760895101 0 -0.0014207265169961442 0.0005831194453709812 0 -0.0013604576821289723 0.00047535650920048312 0 -0.0012339081722896048 0.00058725923409008783 0 -0.0014207265169961442 0.0005831194453709812 0 -0.0015114455528402681 0.00050214632760895101 0 -0.0015840462890124351 0.00063794306122896458 0 -0.0013604576821289723 0.00047535650920048312 0 -0.0015114455528402681 0.00050214632760895101 0 -0.0014893189904949143 0.000374376278210307 0 -0.0015114455528402681 0.00050214632760895101 0 -0.0014893189904949143 0.000374376278210307 0 -0.0016114033746863756 0.00042885823516250715 0 -0.0015525220786508354 0.00032538881640298902 0 -0.0014893189904949143 0.000374376278210307 0 -0.0016114033746863756 0.00042885823516250715 0 -0.0014489400281361068 0.00062989899840771083 0 -0.0016071564932586917 0.00087312179313379663 0 -0.0013426182617872681 0.00096339546903198873 0 -0.0015114455528402681 0.00050214632760895101 0 -0.0016114033746863756 0.00042885823516250715 0 -0.0015840462890124351 0.00063794306122896458 0 -0.0015317879623505547 0.00053072702282545999 0 -0.0014629554637638185 0.00080693173662541267 0 -0.0002968353927382419 0.0013147998704111732 0 -0.00030661611935249979 0.001179233492049735 0 -0.0014489400281361068 0.00062989899840771083 0 -0.0016071564932586917 0.00087312179313379663 0 -0.001680912986751602 0.00053770793624549607 0 -0.0019776308407785941 -0.00018827697660469303 0 -0.0019844485115753968 -0.00016929814320998943 0 -0.0019607455350658756 -0.00020631602088923089 0 -0.0019776308407785941 -0.00018827697660469303 0 -0.0019729772870020648 -0.00019538415777746291 0 -0.0019607455350658756 -0.00020631602088923089 0 -0.0019776308407785941 -0.00018827697660469303 0 -0.0019844485115753968 -0.00016929814320998943 0 -0.0019756440051125587 -0.00015756863358774541 0 -0.0019776308407785941 -0.00018827697660469303 0 -0.0019756440051125587 -0.00015756863358774541 0 -0.0019612466495523492 -0.00017206938878409152 0 -0.0049230246100600136 0.00022245672376768616 0 -0.0049252254555177235 -4.4419249547112374e-05 0 -0.0050753550760906756 4.3301209059458314e-05 0 -0.0019203663252241438 -0.00017312978424034278 0 -0.0019612466495523492 -0.00017206938878409152 0 -0.0019531571255404249 -0.00012780235880674286 0 -0.0041208210356644404 0.00028709466270033238 0 -0.0034842651505030248 -1.9633708725334472e-05 0 -0.0019203663252241438 -0.00017312978424034278 0 -0.0019612466495523492 -0.00017206938878409152 0 -0.001967011902040718 -0.00019654883728463236 0 -0.0019776308407785941 -0.00018827697660469303 0 -0.0019612466495523492 -0.00017206938878409152 0 -0.001967011902040718 -0.00019654883728463236 0 -0.0034842651505030248 -1.9633708725334472e-05 0 -0.0036832418615159071 -0.00029792461485880832 0 -0.0049252254555177235 -4.4419249547112374e-05 0 -0.0050753550760906756 4.3301209059458314e-05 0 -0.0050573782492207972 -0.00012345552694886558 0 -0.0049252254555177235 -4.4419249547112374e-05 0 -0.0049448975760299444 -0.0001817848156464471 0 -0.0050573782492207972 -0.00012345552694886558 0 -0.0050753550760906756 4.3301209059458314e-05 0 -0.0050573782492207972 -0.00012345552694886558 0 -0.0052188393097664662 -0.00013641140812628298 0 -0.0019888239097265634 -0.00018889783756182964 0 -0.001979667526233045 -0.00019333623878114645 0 -0.0019729772870020648 -0.00019538415777746291 0 -0.0019888239097265634 -0.00018889783756182964 0 -0.0019729772870020648 -0.00019538415777746291 0 -0.001950714384731899 -0.00018640757586679561 0 -0.0019776308407785941 -0.00018827697660469303 0 -0.001979667526233045 -0.00019333623878114645 0 -0.0019729772870020648 -0.00019538415777746291 0 -0.0019776308407785941 -0.00018827697660469303 0 -0.001967011902040718 -0.00019654883728463236 0 -0.001979667526233045 -0.00019333623878114645 0 -0.001967011902040718 -0.00019654883728463236 0 -0.0019888239097265634 -0.00018889783756182964 0 -0.001979667526233045 -0.00019333623878114645 0 -0.001889904851914916 -0.00017551552916838706 0 -0.001950714384731899 -0.00018640757586679561 0 -0.0019226098937744792 -0.00020202385425866664 0 -0.001950714384731899 -0.00018640757586679561 0 -0.0019226098937744792 -0.00020202385425866664 0 -0.0019607455350658756 -0.00020631602088923089 0 -0.0019729772870020648 -0.00019538415777746291 0 -0.001950714384731899 -0.00018640757586679561 0 -0.0019607455350658756 -0.00020631602088923089 0 -0.001889904851914916 -0.00017551552916838706 0 -0.0018285165485838009 -0.00018653104602876037 0 -0.0018640469190222407 -0.00020226969448009001 0 -0.001889904851914916 -0.00017551552916838706 0 -0.0018640469190222407 -0.00020226969448009001 0 -0.0019226098937744792 -0.00020202385425866664 0 -0.0018640469190222407 -0.00020226969448009001 0 -0.0019226098937744792 -0.00020202385425866664 0 -0.0019040543232055447 -0.00021924409014982443 0 -0.0016397930784339508 3.2140548191582562e-05 0 -0.001650077442487013 5.3359517919937835e-05 0 -0.0014459074139092018 0.00034703649945716443 0 -0.0014011540707417299 0.00031720877235340901 0 -0.0014167063849368151 0.00036749655385892956 0 -0.0014011540707417299 0.00031720877235340901 0 -0.0014167063849368151 0.00036749655385892956 0 -0.0013947111793854595 0.00035760450802425767 0 -0.0019226098937744792 -0.00020202385425866664 0 -0.0019040543232055447 -0.00021924409014982443 0 -0.001929284941538435 -0.00023879551094329864 0 -0.001650077442487013 5.3359517919937835e-05 0 -0.0016616463064146863 5.059292154022898e-05 0 -0.0019844485115753968 -0.00016929814320998943 0 -0.0019607455350658756 -0.00020631602088923089 0 -0.002018151459701743 -0.00013594440977464522 0 -0.0019607455350658756 -0.00020631602088923089 0 -0.0019438709397059098 -0.0002411041069766942 0 -0.001929284941538435 -0.00023879551094329864 0 -0.0019226098937744792 -0.00020202385425866664 0 -0.0019607455350658756 -0.00020631602088923089 0 -0.001929284941538435 -0.00023879551094329864 0 -0.0019631229484764769 -0.0001809094043386886 0 -0.0019905804443921147 -0.00023130603204527304 0 -0.0019438709397059098 -0.0002411041069766942 0 -0.0019398666496947112 -0.00024017912719626636 0 -0.0019366405217701925 -0.0002280612574035761 0 -0.0019438709397059098 -0.0002411041069766942 0 -0.0019398666496947112 -0.00024017912719626636 0 -0.001929284941538435 -0.00023879551094329864 0 -0.0016465899487872653 8.3653024458662926e-05 0 -0.0016616463064146863 5.059292154022898e-05 0 -0.0013894749423058472 0.0003768460881320054 0 -0.0014167063849368151 0.00036749655385892956 0 -0.0013947111793854595 0.00035760450802425767 0 -0.0013894749423058472 0.0003768460881320054 0 -0.0014167063849368151 0.00036749655385892956 0 -0.0014114695157567783 0.0003921379232185612 0 -0.0014415765865367846 0.00039604438806220202 0 -0.0014167063849368151 0.00036749655385892956 0 -0.0014114695157567783 0.0003921379232185612 0 -0.0014415765865367846 0.00039604438806220202 0 -0.0014114695157567783 0.0003921379232185612 0 -0.0014074810871439116 0.00041610436441700144 0 -0.0014058510711497329 0.00043444963148248328 0 -0.0013016978938879243 0.00049607122088273425 0 -0.0014114695157567783 0.0003921379232185612 0 -0.0014074810871439116 0.00041610436441700144 0 -0.0013960297655050576 0.00040293181500985478 0 -0.0013894749423058472 0.0003768460881320054 0 -0.0014114695157567783 0.0003921379232185612 0 -0.0013960297655050576 0.00040293181500985478 0 -0.0013894749423058472 0.0003768460881320054 0 -0.0013960297655050576 0.00040293181500985478 0 -0.0013783680525852619 0.000408733020957914 0 -0.002018151459701743 -0.00013594440977464522 0 -0.0020181732877383421 -6.5227485633228893e-05 0 -0.0019980338705748646 -9.106062754538626e-05 0 -0.0019905804443921147 -0.00023130603204527304 0 -0.0018094916959081368 6.9439340628003109e-05 0 -0.0016465899487872653 8.3653024458662926e-05 0 -0.0018094916959081368 6.9439340628003109e-05 0 -0.0014074810871439116 0.00041610436441700144 0 -0.0013960297655050576 0.00040293181500985478 0 -0.0013886529856558417 0.00041885541843921312 0 -0.0013960297655050576 0.00040293181500985478 0 -0.0013783680525852619 0.000408733020957914 0 -0.0013886529856558417 0.00041885541843921312 0 -0.0018094916959081368 6.9439340628003109e-05 0 -0.0019820284429798675 0.00016574323851691221 0 -0.0020181732877383421 -6.5227485633228893e-05 0 -0.0019980338705748646 -9.106062754538626e-05 0 -0.0020055124614804026 -4.5226592535041653e-05 0 -0.0019746934303313218 -7.3405477683979211e-05 0 -0.0020356352560454709 0.00010042601543462651 0 -0.0021975995280718859 0.00012786554987870508 0 -0.0020048318736438451 -8.8921309481451843e-05 0 -0.0019820284429798675 0.00016574323851691221 0 -0.0019980338705748646 -9.106062754538626e-05 0 -0.0019746934303313218 -7.3405477683979211e-05 0 -0.0020055124614804026 -4.5226592535041653e-05 0 -0.002018151459701743 -0.00013594440977464522 0 -0.0019980338705748646 -9.106062754538626e-05 0 -0.0019901469543145973 -0.00013399163945732148 0 -0.0019980338705748646 -9.106062754538626e-05 0 -0.0019788725460756136 -0.00011349188275838819 0 -0.0019901469543145973 -0.00013399163945732148 0 -0.0019980338705748646 -9.106062754538626e-05 0 -0.0019788725460756136 -0.00011349188275838819 0 -0.0019746934303313218 -7.3405477683979211e-05 0 -0.0019756440051125587 -0.00015756863358774541 0 -0.0019788725460756136 -0.00011349188275838819 0 -0.0019901469543145973 -0.00013399163945732148 0 -0.0019844485115753968 -0.00016929814320998943 0 -0.0019756440051125587 -0.00015756863358774541 0 -0.0019901469543145973 -0.00013399163945732148 0 -0.0019844485115753968 -0.00016929814320998943 0 -0.002018151459701743 -0.00013594440977464522 0 -0.0019901469543145973 -0.00013399163945732148 0 -0.0018745810199882111 -3.0393408419915467e-05 0 -0.0019203663252241438 -0.00017312978424034278 0 -0.0019531571255404249 -0.00012780235880674286 0 -0.0019756440051125587 -0.00015756863358774541 0 -0.0019612466495523492 -0.00017206938878409152 0 -0.0019531571255404249 -0.00012780235880674286 0 -0.0019756440051125587 -0.00015756863358774541 0 -0.0019788725460756136 -0.00011349188275838819 0 -0.0019531571255404249 -0.00012780235880674286 0 -0.0019788725460756136 -0.00011349188275838819 0 -0.0019531571255404249 -0.00012780235880674286 0 -0.0019746934303313218 -7.3405477683979211e-05 0 -0.0018745810199882111 -3.0393408419915467e-05 0 -0.0019531571255404249 -0.00012780235880674286 0 -0.0019746934303313218 -7.3405477683979211e-05 0 -0.0019746934303313218 -7.3405477683979211e-05 0 -0.0019533850378760827 9.9674423680081695e-05 0 -0.0020356352560454709 0.00010042601543462651 0 -0.0018745810199882111 -3.0393408419915467e-05 0 -0.0019746934303313218 -7.3405477683979211e-05 0 -0.0019533850378760827 9.9674423680081695e-05 0 -0.0019533850378760827 9.9674423680081695e-05 0 -0.0020040486089743055 0.00022640097661877153 0 -0.0018592888493438131 0.00029895572260736208 0 -0.002978315967561848 0.00042212218389688083 0 -0.0031566062793361234 0.00056673889387453169 0 -0.0018745810199882111 -3.0393408419915467e-05 0 -0.0019533850378760827 9.9674423680081695e-05 0 -0.0018592888493438131 0.00029895572260736208 0 -0.0019533850378760827 9.9674423680081695e-05 0 -0.0020040486089743055 0.00022640097661877153 0 -0.0020356352560454709 0.00010042601543462651 0 -0.0018592888493438131 0.00029895572260736208 0 -0.002049348503508621 0.00046977547777655353 0 -0.0018760698342714145 0.00063752604136170282 0 -0.0018592888493438131 0.00029895572260736208 0 -0.002049348503508621 0.00046977547777655353 0 -0.0020748870294525551 0.00032968187514802465 0 -0.0020040486089743055 0.00022640097661877153 0 -0.0018592888493438131 0.00029895572260736208 0 -0.0020748870294525551 0.00032968187514802465 0 -0.0031566062793361234 0.00056673889387453169 0 -0.0026590160852996039 0.0010763454838402869 0 -0.0017368438674337545 0.0009311945005362871 0 -0.001536600165367394 0.0016348711794569467 0 -0.001563904026791823 0.0014501207323977844 0 -0.0015703419315913623 0.0014366582290394889 0 -0.0015642154373383282 0.0014533320327771715 0 -0.0017231871393936431 0.0010079466713815359 0 -0.0017368438674337545 0.0009311945005362871 0 -0.002049348503508621 0.00046977547777655353 0 -0.0020748870294525551 0.00032968187514802465 0 -0.0022174434168909748 0.0003071183809104501 0 -0.0020748870294525551 0.00032968187514802465 0 -0.0022174434168909748 0.0003071183809104501 0 -0.002143821594552447 0.00022842445206948541 0 -0.0022174434168909748 0.0003071183809104501 0 -0.002143821594552447 0.00022842445206948541 0 -0.0022296635267608921 0.00018009785537506493 0 -0.0020871178699977794 0.00015605645930059727 0 -0.0019820284429798675 0.00016574323851691221 0 -0.0020040486089743055 0.00022640097661877153 0 -0.002143821594552447 0.00022842445206948541 0 -0.0020356352560454709 0.00010042601543462651 0 -0.0020040486089743055 0.00022640097661877153 0 -0.0020748870294525551 0.00032968187514802465 0 -0.002143821594552447 0.00022842445206948541 0 -0.002143821594552447 0.00022842445206948541 0 -0.0020356352560454709 0.00010042601543462651 0 -0.0021975995280718859 0.00012786554987870508 0 -0.002143821594552447 0.00022842445206948541 0 -0.0021919560928092309 0.00014093340174989088 0 -0.0022296635267608921 0.00018009785537506493 0 -0.0019820284429798675 0.00016574323851691221 0 -0.0017571116325197876 0.00036855638526368025 0 -0.0013772652300391799 0.00042873192883512574 0 -0.0013886529856558417 0.00041885541843921312 0 -0.0013845120229411378 0.00043722295186108786 0 -0.0018299190526554366 9.2077979217834279e-05 0 -0.0017587118257361585 0.00022205163219146069 0 -0.0018083420454540684 0.00027438439149832358 0 -0.0018094916959081368 6.9439340628003109e-05 0 -0.0017571116325197876 0.00036855638526368025 0 -0.0013783680525852619 0.000408733020957914 0 -0.0013772652300391799 0.00042873192883512574 0 -0.0013886529856558417 0.00041885541843921312 0 -0.0014074810871439116 0.00041610436441700144 0 -0.0013886529856558417 0.00041885541843921312 0 -0.0013845120229411378 0.00043722295186108786 0 -0.0013016978938879243 0.00049607122088273425 0 -0.001493198012099067 0.0007643108882959299 0 -0.0012339081722896048 0.00058725923409008783 0 -0.0011099571402726036 0.00070149346957726723 0 -0.0012259623172738675 0.00070674931989191526 0 -0.0016663516622535532 0.00082133078726464139 0 -0.0016941913169386366 0.00058624500947189277 0 -0.0018012564589428904 0.00069940323932385893 0 -0.0017368438674337545 0.0009311945005362871 0 -0.0017571116325197876 0.00036855638526368025 0 -0.0017368438674337545 0.0009311945005362871 0 -0.001493198012099067 0.0007643108882959299 0 -0.0017571116325197876 0.00036855638526368025 0 -0.001493198012099067 0.0007643108882959299 0 -0.0012339081722896048 0.00058725923409008783 0 -0.0012259623172738675 0.00070674931989191526 0 -0.0013893996699187875 0.00070974714051539255 0 -0.0012259623172738675 0.00070674931989191526 0 -0.0012249583413040123 0.00082784017677147391 0 -0.0013893996699187875 0.00070974714051539255 0 -0.0015588256230620256 0.0014412881287122715 0 -0.0015622324124797663 0.0014481775268647763 0 -0.0015642154373383282 0.0014533320327771715 0 -0.0015588256230620256 0.0014412881287122715 0 -0.001562059413979652 0.0014368398367841403 0 -0.0015622324124797663 0.0014481775268647763 0 -0.001562059413979652 0.0014368398367841403 0 -0.0015650488381627867 0.0014498067028104621 0 -0.0015622324124797663 0.0014481775268647763 0 -0.001493198012099067 0.0007643108882959299 0 -0.0013963704261064367 0.0011703284738905069 0 -0.0011099571402726036 0.00070149346957726723 0 -0.0012259623172738675 0.00070674931989191526 0 -0.0012249583413040123 0.00082784017677147391 0 -0.0015650488381627867 0.0014498067028104621 0 -0.0015622324124797663 0.0014481775268647763 0 -0.0015625196736285499 0.0014549851856517776 0 -0.0015622324124797663 0.0014481775268647763 0 -0.0015625196736285499 0.0014549851856517776 0 -0.0015642154373383282 0.0014533320327771715 0 -0.0015625196736285499 0.0014549851856517776 0 -0.0015615757692732028 0.0014617922065124635 0 -0.0015625050302828282 0.0014591400378394562 0 -0.0015625196736285499 0.0014549851856517776 0 -0.0015625050302828282 0.0014591400378394562 0 -0.0015642154373383282 0.0014533320327771715 0 -0.0015650488381627867 0.0014498067028104621 0 -0.0015625196736285499 0.0014549851856517776 0 -0.0015615757692732028 0.0014617922065124635 0 -0.0015650488381627867 0.0014498067028104621 0 -0.0015615757692732028 0.0014617922065124635 0 -0.0015639354842410592 0.0014598056657223837 0 -0.0013963704261064367 0.0011703284738905069 0 -0.0014511338179900067 0.0011929714177346077 0 -0.0015615757692732028 0.0014617922065124635 0 -0.0015639354842410592 0.0014598056657223837 0 -0.0015593529176100411 0.0014720903895688842 0 -0.0015615757692732028 0.0014617922065124635 0 -0.0015601421692381201 0.0014703734376388953 0 -0.0015593529176100411 0.0014720903895688842 0 -0.0015615757692732028 0.0014617922065124635 0 -0.0015625050302828282 0.0014591400378394562 0 -0.0015601421692381201 0.0014703734376388953 0 -0.0015625050302828282 0.0014591400378394562 0 -0.0015655304579463875 0.0014556713281217882 0 -0.0015633101692950388 0.0014606074281649103 0 -0.0022135799375401412 0.0016206922500064628 0 -0.0015005044811232961 0.0018515528750827155 0 -0.0015710925066214027 0.0014553184722690372 0 -0.0015655304579463875 0.0014556713281217882 0 -0.0015633101692950388 0.0014606074281649103 0 -0.0022135799375401412 0.0016206922500064628 0 -0.0028577795335816203 0.001647326958780582 0 -0.0022135799375401412 0.0016206922500064628 0 -0.0026590160852996039 0.0010763454838402869 0 -0.0015710925066214027 0.0014553184722690372 0 -0.0015709762032288035 0.0014538166544548106 0 -0.0015655304579463875 0.0014556713281217882 0 -0.001563904026791823 0.0014501207323977844 0 -0.0015709762032288035 0.0014538166544548106 0 -0.0015655304579463875 0.0014556713281217882 0 -0.0017231871393936431 0.0010079466713815359 0 -0.0026590160852996039 0.0010763454838402869 0 -0.001563904026791823 0.0014501207323977844 0 -0.0015642154373383282 0.0014533320327771715 0 -0.0015655304579463875 0.0014556713281217882 0 -0.0015625050302828282 0.0014591400378394562 0 -0.0015642154373383282 0.0014533320327771715 0 -0.0015655304579463875 0.0014556713281217882 0 -0.0002968353927382419 0.0013147998704111732 0 -0.00025208064375879997 0.0014112742840715767 0 -0.0016071564932586917 0.00087312179313379663 0 -0.0015328418668854637 0.0011687789837480551 0 -0.0013426182617872681 0.00096339546903198873 0 0.0010761755283326055 0.0017348220980056236 0 0.0010181015803908833 0.0017576494677466244 0 0.00098827315543032401 0.0016889368651229939 0 -0.0015328418668854637 0.0011687789837480551 0 -0.0013426182617872681 0.00096339546903198873 0 -0.0012684982571167132 0.0012503876686286123 0 -0.0015840462890124351 0.00063794306122896458 0 -0.0013893996699187875 0.00070974714051539255 0 -0.0015279535815370436 0.0008634985217081234 0 -0.0014629554637638185 0.00080693173662541267 0 -0.0013909344945845807 0.0010286943444445559 0 -0.0014207265169961442 0.0005831194453709812 0 -0.0015840462890124351 0.00063794306122896458 0 -0.0013893996699187875 0.00070974714051539255 0 -0.0014207265169961442 0.0005831194453709812 0 -0.0012339081722896048 0.00058725923409008783 0 -0.0013893996699187875 0.00070974714051539255 0 -0.0013893996699187875 0.00070974714051539255 0 -0.00140133551081876 0.00084064872380304858 0 -0.0015279535815370436 0.0008634985217081234 0 -0.0012249583413040123 0.00082784017677147391 0 -0.0013893996699187875 0.00070974714051539255 0 -0.00140133551081876 0.00084064872380304858 0 -0.00140133551081876 0.00084064872380304858 0 -0.0013416712292590894 0.00095815021701247999 0 -0.0015279535815370436 0.0008634985217081234 0 -0.0012249583413040123 0.00082784017677147391 0 -0.00140133551081876 0.00084064872380304858 0 -0.0013416712292590894 0.00095815021701247999 0 -0.0015639354842410592 0.0014598056657223837 0 -0.0015662395427538576 0.0014732665942601339 0 -0.0015593529176100411 0.0014720903895688842 0 -0.0014511338179900067 0.0011929714177346077 0 -0.0014456311715885541 0.0014072777122312063 0 -0.0013155811254771193 0.0014227198205576407 0 -0.0012456263541091681 0.0014589844589771887 0 -0.0013320060677343354 0.0014629360119190653 0 -0.0013155811254771193 0.0014227198205576407 0 -0.0012456263541091681 0.0014589844589771887 0 -0.0012684982571167132 0.0012503876686286123 0 -0.0013416712292590894 0.00095815021701247999 0 -0.0014641636555933063 0.0010914977139921556 0 -0.0015279535815370436 0.0008634985217081234 0 -0.0014456311715885541 0.0014072777122312063 0 -0.0013909344945845807 0.0010286943444445559 0 -0.0015328418668854637 0.0011687789837480551 0 -0.0013880635111924383 0.0013187065842375474 0 -0.0014730482309081114 0.0014118694695773844 0 -0.0013155811254771193 0.0014227198205576407 0 -0.0012684982571167132 0.0012503876686286123 0 -0.0013880635111924383 0.0013187065842375474 0 -0.0015328418668854637 0.0011687789837480551 0 -0.0012684982571167132 0.0012503876686286123 0 -0.0013880635111924383 0.0013187065842375474 0 -0.0013155811254771193 0.0014227198205576407 0 -0.0013880635111924383 0.0013187065842375474 0 -0.0014730482309081114 0.0014118694695773844 0 -0.0016630766965555356 0.0013720961515665793 0 -0.00044307859455961347 0.0015875628782172297 0 -0.0013155811254771193 0.0014227198205576407 0 -0.0013320060677343354 0.0014629360119190653 0 -0.0013665795331804205 0.0014221745497814161 0 -0.0013320060677343354 0.0014629360119190653 0 -0.0013665795331804205 0.0014221745497814161 0 -0.0013584194209731227 0.0014922930673442769 0 0.00084752762795523582 0.0023395429346005259 0 0.00033655661985270015 0.002327700119219451 0 8.886901200460966e-05 0.002170087890890491 0 -1.7323645518524305e-05 0.0021520920953832213 0 2.9435716613115208e-05 0.0020495774321053766 0 0.00084752762795523582 0.0023395429346005259 0 -0.00044307859455961347 0.0015875628782172297 0 -0.00044307859455961347 0.0015875628782172297 0 -0.00071740335064396788 0.0017519831650623164 0 0.0010252275040240465 0.0016160875527002577 0 0.00095835255354532317 0.0016058679138921121 0 0.0010172328844077322 0.0016546260050247167 0 -0.00025208064375879997 0.0014112742840715767 0 -0.00044307859455961347 0.0015875628782172297 0 0.00098827315543032401 0.0016889368651229939 0 0.00095835255354532317 0.0016058679138921121 0 0.0010172328844077322 0.0016546260050247167 0 0.0010459304047451205 0.0031044372493030698 0 0.00090858630362531377 0.0028736297012599155 0 0.00063572325492699459 0.0028723465480096906 0 0.0010114014288512621 0.0028237751438193416 0 0.00026462245125793152 0.0023764151087585341 0 0.00090858630362531377 0.0028736297012599155 0 0.00063572325492699459 0.0028723465480096906 0 0.00091275557487902862 0.002606888299199622 0 -2.6499493643302909e-05 0.0019404447592662403 0 2.9435716613115208e-05 0.0020495774321053766 0 -3.6442588207370182e-05 0.0020332303844001168 0 0.00026462245125793152 0.0023764151087585341 0 0.00033655661985270015 0.002327700119219451 0 0.00090501660015002811 0.0024931155037055067 0 0.00055442831407994568 0.0022924399544605708 0 0.00071165046025715398 0.0026455258056534673 0 -1.7323645518524305e-05 0.0021520920953832213 0 2.9435716613115208e-05 0.0020495774321053766 0 -3.6442588207370182e-05 0.0020332303844001168 0 -0.0013320060677343354 0.0014629360119190653 0 -0.0013584194209731227 0.0014922930673442769 0 -0.0013521048853034152 0.0015092969992836092 0 -0.0013584194209731227 0.0014922930673442769 0 -0.0013521048853034152 0.0015092969992836092 0 -0.0013484417099199144 0.0015065141675180997 0 -0.0013521048853034152 0.0015092969992836092 0 -0.0013679034220573801 0.0014995668177660839 0 -0.0014233082819930386 0.0015317382927767962 0 -2.6499493643302909e-05 0.0019404447592662403 0 -3.6442588207370182e-05 0.0020332303844001168 0 -5.7481577300980539e-05 0.0019238323017312393 0 -0.00071740335064396788 0.0017519831650623164 0 -0.00059335005117029888 0.0019266803302499527 0 -0.0013521048853034152 0.0015092969992836092 0 -0.0013484417099199144 0.0015065141675180997 0 -0.0013679034220573801 0.0014995668177660839 0 -0.0013517417312054135 0.0015001041541247695 0 -0.0013484417099199144 0.0015065141675180997 0 -0.0013679034220573801 0.0014995668177660839 0 0.00026462245125793152 0.0023764151087585341 0 -0.00059335005117029888 0.0019266803302499527 0 -0.0001197963055214935 0.002273666218675321 0 -0.0001223664821684111 0.0022591407064364338 0 -0.00010881662629971243 0.0022545168098917993 0 -9.1917678244868845e-05 0.0022884306159316145 0 -0.0001197963055214935 0.002273666218675321 0 -0.00010881662629971243 0.0022545168098917993 0 0.00026462245125793152 0.0023764151087585341 0 -5.4250672746369406e-05 0.0025624749984109766 0 -0.00072322749658690919 0.0018522093450942371 0 -0.00059335005117029888 0.0019266803302499527 0 -0.00059335005117029888 0.0019266803302499527 0 -0.00063454102605456494 0.0023016299163752633 0 -0.0013517417312054135 0.0015001041541247695 0 -0.0013443883912025356 0.0015045921609196035 0 -0.0013464340588166509 0.0014969255203425393 0 -0.0013517417312054135 0.0015001041541247695 0 -0.0013464340588166509 0.0014969255203425393 0 -0.0013932803615073213 0.0014924169744750695 0 -0.00063454102605456494 0.0023016299163752633 0 -0.0014284600215692237 0.0020568707810366166 0 -0.0013517417312054135 0.0015001041541247695 0 -0.0013679034220573801 0.0014995668177660839 0 -0.0013932803615073213 0.0014924169744750695 0 -0.0014236172792590918 0.0014495510956219484 0 -0.0014233082819930386 0.0015317382927767962 0 -0.0015318635938413956 0.001480646973786251 0 -0.0020219129223588571 0.0023148737996125518 0 -0.0017663769691064273 0.0022339610859828337 0 -0.0019435128843169292 0.0024701127081018428 0 -0.0014284600215692237 0.0020568707810366166 0 -0.0017115786272914309 0.0018517608664924798 0 -0.0013679034220573801 0.0014995668177660839 0 -0.0013932803615073213 0.0014924169744750695 0 -0.0014233082819930386 0.0015317382927767962 0 -0.0014284600215692237 0.0020568707810366166 0 -0.0013950750897129781 0.0013904745656906339 0 -0.0012456263541091681 0.0014589844589771887 0 -0.0013320060677343354 0.0014629360119190653 0 -0.0013521048853034152 0.0015092969992836092 0 -0.001475704359147503 0.0016334208805035672 0 -0.0014233082819930386 0.0015317382927767962 0 -0.0015318635938413956 0.001480646973786251 0 -0.001475704359147503 0.0016334208805035672 0 -0.0013521048853034152 0.0015092969992836092 0 -0.0014233082819930386 0.0015317382927767962 0 -0.0014456311715885541 0.0014072777122312063 0 -0.0013289994294125912 0.0015548388472358301 0 -0.0015662395427538576 0.0014732665942601339 0 -0.0015543391396091333 0.001479501528739019 0 -0.0015318635938413956 0.001480646973786251 0 -0.0015662395427538576 0.0014732665942601339 0 -0.0015543391396091333 0.001479501528739019 0 -0.0015593529176100411 0.0014720903895688842 0 -0.0015543391396091333 0.001479501528739019 0 -0.0015618147183879775 0.0014815513751212197 0 -0.0015593529176100411 0.0014720903895688842 0 -0.0014456311715885541 0.0014072777122312063 0 -0.0015405426893193796 0.0015352258160565896 0 -0.0015543391396091333 0.001479501528739019 0 -0.0015618147183879775 0.0014815513751212197 0 -0.0015318635938413956 0.001480646973786251 0 -0.0017663769691064273 0.0022339610859828337 0 -0.0017727011082262632 0.0024850140712357684 0 -0.001681248600238709 0.0023647807435489753 0 -0.0014236172792590918 0.0014495510956219484 0 -0.0015618147183879775 0.0014815513751212197 0 -0.0015318635938413956 0.001480646973786251 0 -0.0017663769691064273 0.0022339610859828337 0 -0.0017727011082262632 0.0024850140712357684 0 -0.0019435128843169292 0.0024701127081018428 0 -0.0017727011082262632 0.0024850140712357684 0 -0.0017305227352318959 0.0026460714669558983 0 -0.001852973070009991 0.0027495190050117833 0 -0.0017727011082262632 0.0024850140712357684 0 -0.001852973070009991 0.0027495190050117833 0 -0.0019435128843169292 0.0024701127081018428 0 -0.0016550892767949437 0.0027738742148595277 0 -0.0017305227352318959 0.0026460714669558983 0 -0.001852973070009991 0.0027495190050117833 0 -0.001852973070009991 0.0027495190050117833 0 -0.0020700554990818465 0.0026091107913706118 0 -0.0019435128843169292 0.0024701127081018428 0 -0.0019798520325926949 0.0029009528324390821 0 -0.001852973070009991 0.0027495190050117833 0 -0.0020700554990818465 0.0026091107913706118 0 -0.0014284600215692237 0.0020568707810366166 0 -0.0014869022568610032 0.0027854033812124124 0 -0.0020219129223588571 0.0023148737996125518 0 -0.0020700554990818465 0.0026091107913706118 0 -0.0019435128843169292 0.0024701127081018428 0 -0.00075864846047205394 0.0023680104687965587 0 -0.00080387035775948874 0.0028300032854161345 0 -0.0009803765150488788 0.0026681070494544382 0 -0.0010117785360216833 0.0024625710489195921 0 -0.00075864846047205394 0.0023680104687965587 0 -0.0009803765150488788 0.0026681070494544382 0 -5.4250672746369406e-05 0.0025624749984109766 0 -0.00051681240613074921 0.0028493029241366858 0 0.00024636923689065669 0.0032180606806352791 0 0.00023911975899292009 0.0032026805957145687 0 0.00025501772706364059 0.0032046984304638444 0 -0.00063454102605456494 0.0023016299163752633 0 -0.00051681240613074921 0.0028493029241366858 0 -0.0005008451592965333 0.0023666715514810291 0 -0.00061394328749639349 0.0024077344938330239 0 -0.00043276758282230992 0.0028332052330785739 0 -0.00063454102605456494 0.0023016299163752633 0 -5.4250672746369406e-05 0.0025624749984109766 0 0.00023911975899292009 0.0032026805957145687 0 0.00025133718267804361 0.0031865675733571183 0 0.00025501772706364059 0.0032046984304638444 0 -0.00051681240613074921 0.0028493029241366858 0 -0.00090048287648448967 0.0028212461303895914 0 -0.00084686291440398307 0.0032709787521288114 0 -0.00080387035775948874 0.0028300032854161345 0 -0.00085246914410261907 0.0029507442462779281 0 -0.00080387035775948874 0.0028300032854161345 0 -0.0009803765150488788 0.0026681070494544382 0 -0.00085246914410261907 0.0029507442462779281 0 0.00022757048226307869 0.0031709370985763246 0 0.00023521588306598475 0.0031846434010117291 0 0.00025133718267804361 0.0031865675733571183 0 -0.00094741780255159559 0.0027171747587359804 0 -0.00085246914410261907 0.0029507442462779281 0 -0.00092185038431849239 0.0029474824986423305 0 -0.00051681240613074921 0.0028493029241366858 0 -0.00034621255880850374 0.0030468135661560996 0 0.00023911975899292009 0.0032026805957145687 0 0.00023521588306598475 0.0031846434010117291 0 0.00025133718267804361 0.0031865675733571183 0 0.0011015336780662746 0.0038908853191449923 0 0.00095062598783246511 0.0039194177718878051 0 0.0010516514096312632 0.0040461477914340615 0 0.0011015336780662746 0.0038908853191449923 0 0.00098253318239036611 0.0038109454938552133 0 0.00095062598783246511 0.0039194177718878051 0 0.00024636923689065669 0.0032180606806352791 0 0.00025501772706364059 0.0032046984304638444 0 0.00027869225676442887 0.0032106150346051573 0 0.00025133718267804361 0.0031865675733571183 0 0.00025501772706364059 0.0032046984304638444 0 0.00027869225676442887 0.0032106150346051573 0 0.00063572325492699459 0.0028723465480096906 0 0.00057113715936531152 0.0027254316703695125 0 0.00091275557487902862 0.002606888299199622 0 -5.4250672746369406e-05 0.0025624749984109766 0 0.0011151139733932198 0.0033193884207918028 0 0.00064822421481335404 0.0036172550252042126 0 0.0011151139733932198 0.0033193884207918028 0 -0.0031926839305918054 0.0014629959757859687 0 -0.0029384047683595925 0.0015313585429464246 0 -0.0031208842784841676 0.0013119439538020203 0 -0.0031926839305918054 0.0014629959757859687 0 -0.0031411079212970523 0.0016108738844234024 0 -0.0029384047683595925 0.0015313585429464246 0 -0.003347744058530474 0.0015177813190807479 0 -0.0031926839305918054 0.0014629959757859687 0 -0.00336221366694116 0.0013040044081477358 0 -0.0031926839305918054 0.0014629959757859687 0 -0.0031208842784841676 0.0013119439538020203 0 -0.00336221366694116 0.0013040044081477358 0 -0.003347744058530474 0.0015177813190807479 0 -0.0031926839305918054 0.0014629959757859687 0 -0.0031411079212970523 0.0016108738844234024 0 -0.003347744058530474 0.0015177813190807479 0 -0.0033505197429718812 0.0016923695400310539 0 -0.0031411079212970523 0.0016108738844234024 0 -0.0017695283348046877 0.0022778082054361612 0 -0.0017659942842494138 0.002218014246369587 0 -0.0016256679363712556 0.0022330363584644381 0 -0.0017659942842494138 0.002218014246369587 0 -0.0016644573226675826 0.0021922464266039103 0 -0.0016256679363712556 0.0022330363584644381 0 -0.0032429944844743499 0.0015662871813324865 0 -0.0028577795335816203 0.001647326958780582 0 -0.0028577795335816203 0.001647326958780582 0 -0.0024172717085795921 0.0019073592673010313 0 -0.0024172717085795921 0.0019073592673010313 0 -0.0019152739827370464 0.0020861564835754679 0 -0.0016644573226675826 0.0021922464266039103 0 -0.0016040662166492115 0.0022077011066525664 0 -0.0015939712443917358 0.002189667473740929 0 -0.0016644573226675826 0.0021922464266039103 0 -0.0016256679363712556 0.0022330363584644381 0 -0.0016040662166492115 0.0022077011066525664 0 -0.0016256679363712556 0.0022330363584644381 0 -0.0015858757751544474 0.0022044385834116263 0 -0.0016040662166492115 0.0022077011066525664 0 -0.0015625050302828282 0.0014591400378394562 0 -0.0015633101692950388 0.0014606074281649103 0 -0.0015601421692381201 0.0014703734376388953 0 -0.0015005044811232961 0.0018515528750827155 0 -0.0015880666328024974 0.001840291543759455 0 -0.0015858757751544474 0.0022044385834116263 0 -0.0016040662166492115 0.0022077011066525664 0 -0.0015896568804020968 0.0022115173832229938 0 -0.001830063627321202 0.0021075090107456145 0 -0.0019152739827370464 0.0020861564835754679 0 -0.0015618147183879775 0.0014815513751212197 0 -0.0015601421692381201 0.0014703734376388953 0 -0.0015593529176100411 0.0014720903895688842 0 -0.0017115786272914309 0.0018517608664924798 0 -0.0015880666328024974 0.001840291543759455 0 -0.0017663769691064273 0.0022339610859828337 0 -0.0015858757751544474 0.0022044385834116263 0 -0.0016011138425123617 0.0022791926108469526 0 -0.0017663769691064273 0.0022339610859828337 0 -0.0016011138425123617 0.0022791926108469526 0 -0.001681248600238709 0.0023647807435489753 0 -0.0016011138425123617 0.0022791926108469526 0 -0.0014224020315006156 0.0022041835370843355 0 -0.0015376493931639568 0.0024875890804464456 0 -0.0019152739827370464 0.0020861564835754679 0 -0.0021976512481732334 0.0017716452259010716 0 -0.0015858757751544474 0.0022044385834116263 0 -0.0016011138425123617 0.0022791926108469526 0 -0.0015896568804020968 0.0022115173832229938 0 -0.0014904932010166283 0.002228905327196099 0 -0.0019152739827370464 0.0020861564835754679 0 -0.0029384047683595925 0.0015313585429464246 0 -0.0027924700905588603 0.0012160778142674728 0 -0.0031208842784841676 0.0013119439538020203 0 -0.0016011138425123617 0.0022791926108469526 0 -0.001681248600238709 0.0023647807435489753 0 -0.0015376493931639568 0.0024875890804464456 0 -0.0017727011082262632 0.0024850140712357684 0 -0.0017305227352318959 0.0026460714669558983 0 -0.0015376493931639568 0.0024875890804464456 0 -0.0017727011082262632 0.0024850140712357684 0 -0.001681248600238709 0.0023647807435489753 0 -0.0015376493931639568 0.0024875890804464456 0 -0.0020782629717144099 0.0020953605602067374 0 -0.0021976512481732334 0.0017716452259010716 0 -0.0016550892767949437 0.0027738742148595277 0 -0.0017305227352318959 0.0026460714669558983 0 -0.0015376493931639568 0.0024875890804464456 0 -0.0029664755401031667 0.00083282968649385568 0 -0.0027924700905588603 0.0012160778142674728 0 -0.0030312063704950177 0.0011022306497464672 0 -0.0029664755401031667 0.00083282968649385568 0 -0.0026427301713329286 0.00091726305875325105 0 -0.0027924700905588603 0.0012160778142674728 0 -0.0029664755401031667 0.00083282968649385568 0 -0.0030312063704950177 0.0011022306497464672 0 -0.0032475117099741353 0.0010536278478486788 0 -0.0030312063704950177 0.0011022306497464672 0 -0.0031208842784841676 0.0013119439538020203 0 -0.0032475117099741353 0.0010536278478486788 0 -0.0027924700905588603 0.0012160778142674728 0 -0.0030312063704950177 0.0011022306497464672 0 -0.0031208842784841676 0.0013119439538020203 0 -0.0031208842784841676 0.0013119439538020203 0 -0.00336221366694116 0.0013040044081477358 0 -0.0032475117099741353 0.0010536278478486788 0 -0.00336221366694116 0.0013040044081477358 0 -0.0032475117099741353 0.0010536278478486788 0 -0.0035158463000642881 0.0011138470886926182 0 -0.003547120718039783 0.0012532700517073391 0 -0.0032963592943601218 0.00093045755535025828 0 -0.003611412867153811 0.00085499568274163189 0 -0.0035158463000642881 0.0011138470886926182 0 -0.0037087438444104569 0.0011024561846989741 0 -0.003611412867153811 0.00085499568274163189 0 -0.0032475117099741353 0.0010536278478486788 0 -0.0035158463000642881 0.0011138470886926182 0 -0.003547120718039783 0.0012532700517073391 0 -0.0039710142240796196 0.0011381665769839935 0 -0.003611412867153811 0.00085499568274163189 0 -0.0037087438444104569 0.0011024561846989741 0 -0.0038574786561317658 0.00099891874755018268 0 -0.0037087438444104569 0.0011024561846989741 0 -0.0038715496485847347 0.0012053136885619236 0 -0.0038574786561317658 0.00099891874755018268 0 -0.0036290658074549058 0.0012869403555078513 0 -0.0037934815666092292 0.0013748867478547804 0 -0.0038715496485847347 0.0012053136885619236 0 -0.0037087438444104569 0.0011024561846989741 0 -0.0036290658074549058 0.0012869403555078513 0 -0.0038715496485847347 0.0012053136885619236 0 -0.0035158463000642881 0.0011138470886926182 0 -0.0037087438444104569 0.0011024561846989741 0 -0.0036290658074549058 0.0012869403555078513 0 -0.00336221366694116 0.0013040044081477358 0 -0.0035158463000642881 0.0011138470886926182 0 -0.0036290658074549058 0.0012869403555078513 0 -0.003347744058530474 0.0015177813190807479 0 -0.00336221366694116 0.0013040044081477358 0 -0.0034871706966593274 0.001409341133217754 0 -0.0036290658074549058 0.0012869403555078513 0 -0.0034871706966593274 0.001409341133217754 0 -0.0035994379273244781 0.0015342899322274403 0 -0.003347744058530474 0.0015177813190807479 0 -0.0034871706966593274 0.001409341133217754 0 -0.0035994379273244781 0.0015342899322274403 0 -0.00336221366694116 0.0013040044081477358 0 -0.0036290658074549058 0.0012869403555078513 0 -0.0034871706966593274 0.001409341133217754 0 -0.0036290658074549058 0.0012869403555078513 0 -0.0037934815666092292 0.0013748867478547804 0 -0.0035994379273244781 0.0015342899322274403 0 -0.0037934815666092292 0.0013748867478547804 0 -0.0035994379273244781 0.0015342899322274403 0 -0.0038520395200279125 0.0015645454400178488 0 -0.0040456947781502646 0.0013810551256145634 0 -0.0038831256292029392 0.0012611790997957115 0 -0.0042479274678673563 0.00116586976287545 0 -0.0043094978844437047 0.0010663471261109596 0 -0.0042581333212545428 0.0010826018940046805 0 -0.0035994379273244781 0.0015342899322274403 0 -0.0038520395200279125 0.0015645454400178488 0 -0.0036109325872995439 0.0017832352091589941 0 -0.0028577795335816203 0.001647326958780582 0 -0.0038831256292029392 0.0012611790997957115 0 -0.0035994379273244781 0.0015342899322274403 0 -0.003510717921696107 0.0016642218498664689 0 -0.0036109325872995439 0.0017832352091589941 0 -0.003347744058530474 0.0015177813190807479 0 -0.0035994379273244781 0.0015342899322274403 0 -0.003510717921696107 0.0016642218498664689 0 -0.0033556364013912002 0.0016861683257197409 0 -0.003510717921696107 0.0016642218498664689 0 -0.0036109325872995439 0.0017832352091589941 0 -0.003347744058530474 0.0015177813190807479 0 -0.0033556364013912002 0.0016861683257197409 0 -0.003510717921696107 0.0016642218498664689 0 -0.0041123964936203563 0.0011857588646199547 0 -0.0042026134342897014 0.0010803526548661168 0 -0.0040524381798102077 0.0011538512743628551 0 -0.0041123964936203563 0.0011857588646199547 0 -0.0040700880931304872 0.0012385504377904139 0 -0.0040524381798102077 0.0011538512743628551 0 -0.0042007699246749425 0.0010871536595688199 0 -0.0041224396165217064 0.0011193561810879642 0 -0.0041123964936203563 0.0011857588646199547 0 -0.0042026134342897014 0.0010803526548661168 0 -0.0042479274678673563 0.00116586976287545 0 -0.0042026134342897014 0.0010803526548661168 0 -0.0042479274678673563 0.00116586976287545 0 -0.0042581333212545428 0.0010826018940046805 0 -0.0041123964936203563 0.0011857588646199547 0 -0.0042479274678673563 0.00116586976287545 0 -0.0040815105746130178 0.0012929900507727783 0 -0.0037934815666092292 0.0013748867478547804 0 -0.0038520395200279125 0.0015645454400178488 0 -0.0040815105746130178 0.0012929900507727783 0 -0.0040456947781502646 0.0013810551256145634 0 -0.004084057796123002 0.0012983351222987086 0 -0.0037934815666092292 0.0013748867478547804 0 -0.0040815105746130178 0.0012929900507727783 0 -0.0038715496485847347 0.0012053136885619236 0 -0.0041123964936203563 0.0011857588646199547 0 -0.0040815105746130178 0.0012929900507727783 0 -0.0040700880931304872 0.0012385504377904139 0 -0.0040815105746130178 0.0012929900507727783 0 -0.0040700880931304872 0.0012385504377904139 0 -0.0040797880873461312 0.001246644289987621 0 -0.0040797880873461312 0.001246644289987621 0 -0.004064625896913315 0.0011546581822737506 0 -0.0040722357136167469 0.0012583489317858697 0 -0.0040505166699916157 0.001214344887697681 0 -0.0040715787370125475 0.0012478091928440065 0 -0.0040815105746130178 0.0012929900507727783 0 -0.0040797880873461312 0.001246644289987621 0 -0.004064625896913315 0.0011546581822737506 0 -0.0040815105746130178 0.0012929900507727783 0 -0.0038715496485847347 0.0012053136885619236 0 -0.004064625896913315 0.0011546581822737506 0 -0.0040307086022398969 0.0012803992819367142 0 -0.0040666349040010012 0.0012811920669569613 0 -0.0040641726101805029 0.001271851413941193 0 -0.0038715496485847347 0.0012053136885619236 0 -0.0038574786561317658 0.00099891874755018268 0 -0.004064625896913315 0.0011546581822737506 0 -0.0039710142240796196 0.0011381665769839935 0 -0.0040505166699916157 0.001214344887697681 0 -0.004191348186293028 0.0013669880709115366 0 -0.0041257422502724139 0.0014099506792696079 0 -0.0040666349040010012 0.0012811920669569613 0 -0.0040641726101805029 0.001271851413941193 0 -0.0040669958701997251 0.0012799264695921909 0 -0.0042110238449440526 0.0015881784836894524 0 -0.0042319829173803405 0.0015776452889326683 0 -0.0042012210780524263 0.0015320137865083832 0 -0.0042110238449440526 0.0015881784836894524 0 -0.0042012210780524263 0.0015320137865083832 0 -0.0041468868429995242 0.0015572660892363077 0 -0.0042012210780524263 0.0015320137865083832 0 -0.0041468868429995242 0.0015572660892363077 0 -0.0041400987037213044 0.0014657540452410267 0 -0.0041257422502724139 0.0014099506792696079 0 -0.0040700899400399138 0.0013594708713375026 0 -0.0040669958701997251 0.0012799264695921909 0 -0.0040026642634374962 0.0012575823128339843 0 -0.0040722357136167469 0.0012583489317858697 0 -0.0040666349040010012 0.0012811920669569613 0 -0.0040669958701997251 0.0012799264695921909 0 -0.0040722357136167469 0.0012583489317858697 0 -0.0040700880931304872 0.0012385504377904139 0 -0.0040797880873461312 0.001246644289987621 0 -0.0040722357136167469 0.0012583489317858697 0 -0.0043224136873040078 0.0023507726325702888 0 -0.0043473338860883269 0.0023475360009072893 0 -0.0043281300462190567 0.0022825667650174753 0 -0.0043224136873040078 0.0023507726325702888 0 -0.0042581261708103876 0.0023250831755882054 0 -0.0043281300462190567 0.0022825667650174753 0 -0.0042386784767338105 0.0019597833649860879 0 -0.0041824020020931798 0.001894323069739549 0 -0.0043473338860883269 0.0023475360009072893 0 -0.0043603204564451265 0.0023487957806042612 0 -0.0043281300462190567 0.0022825667650174753 0 -0.0041468868429995242 0.0015572660892363077 0 -0.0041400987037213044 0.0014657540452410267 0 -0.0040407614712279329 0.0015091773131510448 0 -0.0041400987037213044 0.0014657540452410267 0 -0.0040407614712279329 0.0015091773131510448 0 -0.0040472381205441509 0.0013849373657756931 0 -0.0039663326452210514 0.0013856346830469493 0 -0.0040407614712279329 0.0015091773131510448 0 -0.0040472381205441509 0.0013849373657756931 0 -0.0038965502342959515 0.0012409920376113394 0 -0.0040009490407085235 0.0013071207872602977 0 -0.0039491139359569228 0.0012264196137817883 0 -0.0039878794520550069 0.0012137329944096708 0 -0.0039543031549119489 0.0011897393894475467 0 -0.0040700899400399138 0.0013594708713375026 0 -0.0040009490407085235 0.0013071207872602977 0 -0.0040026642634374962 0.0012575823128339843 0 -0.0039491139359569228 0.0012264196137817883 0 -0.0039878794520550069 0.0012137329944096708 0 -0.0039878794520550069 0.0012137329944096708 0 -0.0039543031549119489 0.0011897393894475467 0 -0.0040084290461949211 0.001180126186785882 0 -0.0039422132586095157 0.0011823491693220751 0 -0.0040403501913679569 0.0011573231639433489 0 -0.0039389728616494851 0.0011794775062834969 0 -0.0040757131355538831 0.0011364330927558107 0 -0.0039450047046907105 0.0011130995654137013 0 -0.0038548921462473176 0.0012220336412353515 0 -0.0039389728616494851 0.0011794775062834969 0 -0.003896307548477705 0.0011775931027105254 0 -0.0038493364439792983 0.0011929726093929125 0 -0.003896307548477705 0.0011775931027105254 0 -0.0039450047046907105 0.0011130995654137013 0 -0.0038991476898343506 0.0011968786475105597 0 -0.0039491139359569228 0.0012264196137817883 0 -0.0039543031549119489 0.0011897393894475467 0 -0.0038965502342959515 0.0012409920376113394 0 -0.0039422132586095157 0.0011823491693220751 0 -0.0039389728616494851 0.0011794775062834969 0 -0.003896307548477705 0.0011775931027105254 0 -0.0039450047046907105 0.0011130995654137013 0 -0.0040700880931304872 0.0012385504377904139 0 -0.0040722357136167469 0.0012583489317858697 0 -0.0040301662335661681 0.001218376568281864 0 -0.0040026642634374962 0.0012575823128339843 0 -0.0040722357136167469 0.0012583489317858697 0 -0.0040301662335661681 0.001218376568281864 0 -0.0040026642634374962 0.0012575823128339843 0 -0.0039878794520550069 0.0012137329944096708 0 -0.0040301662335661681 0.001218376568281864 0 -0.0039878794520550069 0.0012137329944096708 0 -0.0040301662335661681 0.001218376568281864 0 -0.0040084290461949211 0.001180126186785882 0 -0.0040301662335661681 0.001218376568281864 0 -0.0040084290461949211 0.001180126186785882 0 -0.0040524381798102077 0.0011538512743628551 0 -0.0040700880931304872 0.0012385504377904139 0 -0.0040301662335661681 0.001218376568281864 0 -0.0040524381798102077 0.0011538512743628551 0 -0.0040403501913679569 0.0011573231639433489 0 -0.0041224396165217064 0.0011193561810879642 0 -0.0041879664152567643 0.001086650398995827 0 -0.0041233603636228987 0.001029499420289545 0 -0.0042140076279583386 0.00098501959555569586 0 -0.0040757131355538831 0.0011364330927558107 0 -0.0041879664152567643 0.001086650398995827 0 -0.0041233603636228987 0.001029499420289545 0 -0.0040757131355538831 0.0011364330927558107 0 -0.0041233603636228987 0.001029499420289545 0 -0.0040350730033300768 0.0010631394195265969 0 -0.0041233603636228987 0.001029499420289545 0 -0.0040350730033300768 0.0010631394195265969 0 -0.0040363358910868027 0.00095768529810455103 0 -0.0041233603636228987 0.001029499420289545 0 -0.0041269789596164192 0.00090457949328726518 0 -0.0040363358910868027 0.00095768529810455103 0 -0.0041269789596164192 0.00090457949328726518 0 -0.0040363358910868027 0.00095768529810455103 0 -0.0040395216270467773 0.00085427131011026937 0 -0.0041233603636228987 0.001029499420289545 0 -0.0041269789596164192 0.00090457949328726518 0 -0.0042140076279583386 0.00098501959555569586 0 -0.0041269789596164192 0.00090457949328726518 0 -0.0042140076279583386 0.00098501959555569586 0 -0.0042196817179062296 0.00080716149781369427 0 -0.0037884108525547333 0.0011732736632742392 0 -0.0038693680501051099 0.0010904035209529203 0 -0.0039450047046907105 0.0011130995654137013 0 -0.0038357548233484856 0.0011855496182824254 0 -0.0039350902440221129 0.0011208386335323703 0 -0.0038693680501051099 0.0010904035209529203 0 -0.0039450047046907105 0.0011130995654137013 0 -0.0039570450539112784 0.0010131413538904891 0 -0.0040757131355538831 0.0011364330927558107 0 -0.0039450047046907105 0.0011130995654137013 0 -0.0040350730033300768 0.0010631394195265969 0 -0.0039450047046907105 0.0011130995654137013 0 -0.0040350730033300768 0.0010631394195265969 0 -0.0039570450539112784 0.0010131413538904891 0 -0.0040350730033300768 0.0010631394195265969 0 -0.0040363358910868027 0.00095768529810455103 0 -0.0039570450539112784 0.0010131413538904891 0 -0.0040363358910868027 0.00095768529810455103 0 -0.0039532771577132095 0.00089866433082807845 0 -0.0040395216270467773 0.00085427131011026937 0 -0.0040363358910868027 0.00095768529810455103 0 -0.0039570450539112784 0.0010131413538904891 0 -0.0039532771577132095 0.00089866433082807845 0 -0.0039570450539112784 0.0010131413538904891 0 -0.0038645310913206516 0.00096506182858191643 0 -0.0039532771577132095 0.00089866433082807845 0 -0.003815995671346834 0.0010255678708409037 0 -0.0038693680501051099 0.0010904035209529203 0 -0.0038645310913206516 0.00096506182858191643 0 -0.0038693680501051099 0.0010904035209529203 0 -0.0039570450539112784 0.0010131413538904891 0 -0.0038645310913206516 0.00096506182858191643 0 -0.0038770461863924101 0.00085123351281671126 0 -0.0039532771577132095 0.00089866433082807845 0 -0.0039791916430158402 0.00076413902810577362 0 -0.0038645310913206516 0.00096506182858191643 0 -0.0038770461863924101 0.00085123351281671126 0 -0.0039532771577132095 0.00089866433082807845 0 -0.0039532771577132095 0.00089866433082807845 0 -0.0040395216270467773 0.00085427131011026937 0 -0.0039791916430158402 0.00076413902810577362 0 -0.0040395216270467773 0.00085427131011026937 0 -0.0039791916430158402 0.00076413902810577362 0 -0.0041216340979250863 0.0007474448512936109 0 -0.0041101809758404741 0.00057303424384665006 0 -0.0040670277107994011 0.00051859571259199784 0 -0.0040628896182282725 0.00062740374107593533 0 -0.0040333265327692977 0.0007002111575681642 0 -0.0039206706476079371 0.00064130706740837503 0 -0.0038770461863924101 0.00085123351281671126 0 -0.0039791916430158402 0.00076413902810577362 0 -0.0038457882614728405 0.00073719205815276875 0 -0.0040670277107994011 0.00051859571259199784 0 -0.0040628896182282725 0.00062740374107593533 0 -0.0040269429122361021 0.00056765103927846239 0 -0.0041269789596164192 0.00090457949328726518 0 -0.0042196817179062296 0.00080716149781369427 0 -0.0041216340979250863 0.0007474448512936109 0 -0.0041269789596164192 0.00090457949328726518 0 -0.0040395216270467773 0.00085427131011026937 0 -0.0041216340979250863 0.0007474448512936109 0 -0.0041101809758404741 0.00057303424384665006 0 -0.0040628896182282725 0.00062740374107593533 0 -0.0041216340979250863 0.0007474448512936109 0 -0.0040333265327692977 0.0007002111575681642 0 -0.0041222694820984259 0.00074062964548704101 0 -0.0041101809758404741 0.00057303424384665006 0 -0.0041216340979250863 0.0007474448512936109 0 -0.0042314204554349324 0.00063574708481221572 0 -0.0042196817179062296 0.00080716149781369427 0 -0.0041216340979250863 0.0007474448512936109 0 -0.0042314204554349324 0.00063574708481221572 0 -0.0043530300439468816 0.00061245517708596365 0 -0.0042314204554349324 0.00063574708481221572 0 -0.0043742461197620371 0.00079429014217436171 0 -0.0042140076279583386 0.00098501959555569586 0 -0.0042196817179062296 0.00080716149781369427 0 -0.0043742461197620371 0.00079429014217436171 0 -0.0042196817179062296 0.00080716149781369427 0 -0.0042314204554349324 0.00063574708481221572 0 -0.0043742461197620371 0.00079429014217436171 0 -0.0042092485180193814 0.00096139960533286602 0 -0.0042380591924096305 0.00097937631250235506 0 -0.004250906950367817 0.00094562520622816742 0 -0.0043530300439468816 0.00061245517708596365 0 -0.0043742461197620371 0.00079429014217436171 0 -0.0044872036888227622 0.00065523489765008326 0 -0.0042092485180193814 0.00096139960533286602 0 -0.0042338841205535717 0.00089879248066117193 0 -0.004250906950367817 0.00094562520622816742 0 -0.004291915059748146 0.00087793737547243588 0 -0.0043557276504846473 0.00077804902900969325 0 -0.0042338841205535717 0.00089879248066117193 0 -0.0042835512689431759 0.00090148381984765115 0 -0.004250906950367817 0.00094562520622816742 0 -0.0042835512689431759 0.00090148381984765115 0 -0.004287110592817979 0.00094677616642007735 0 -0.004250906950367817 0.00094562520622816742 0 -0.0043252118228093266 0.00085056189242357103 0 -0.0043237680566758684 0.00094002231548056051 0 -0.0042835512689431759 0.00090148381984765115 0 -0.0043237680566758684 0.00094002231548056051 0 -0.0042835512689431759 0.00090148381984765115 0 -0.004287110592817979 0.00094677616642007735 0 -0.0043237680566758684 0.00094002231548056051 0 -0.0043200481520715619 0.0010169272735159017 0 -0.0042986962913028511 0.00097996645310007794 0 -0.0043237680566758684 0.00094002231548056051 0 -0.004287110592817979 0.00094677616642007735 0 -0.0042986962913028511 0.00097996645310007794 0 -0.004287110592817979 0.00094677616642007735 0 -0.0042986962913028511 0.00097996645310007794 0 -0.0042719550310435245 0.00098312853814953795 0 -0.004287110592817979 0.00094677616642007735 0 -0.004250906950367817 0.00094562520622816742 0 -0.0042719550310435245 0.00098312853814953795 0 -0.0042380591924096305 0.00097937631250235506 0 -0.004250906950367817 0.00094562520622816742 0 -0.0042719550310435245 0.00098312853814953795 0 -0.0042380591924096305 0.00097937631250235506 0 -0.0042719550310435245 0.00098312853814953795 0 -0.0042650009576397771 0.0010218147710598995 0 -0.0042650009576397771 0.0010218147710598995 0 -0.0042901566623091943 0.0010093451565103152 0 -0.0042890085747145515 0.0010333792704926407 0 -0.0042719550310435245 0.00098312853814953795 0 -0.0042650009576397771 0.0010218147710598995 0 -0.0042901566623091943 0.0010093451565103152 0 -0.0043200481520715619 0.0010169272735159017 0 -0.0042901566623091943 0.0010093451565103152 0 -0.0042890085747145515 0.0010333792704926407 0 -0.0043200481520715619 0.0010169272735159017 0 -0.0042986962913028511 0.00097996645310007794 0 -0.0042901566623091943 0.0010093451565103152 0 -0.0042986962913028511 0.00097996645310007794 0 -0.0042719550310435245 0.00098312853814953795 0 -0.0042901566623091943 0.0010093451565103152 0 -0.0026590160852996039 0.0010763454838402869 0 -0.0038831256292029392 0.0012611790997957115 0 -0.0043200481520715619 0.0010169272735159017 0 -0.0042890085747145515 0.0010333792704926407 0 -0.0042875689028267147 0.0010588336575683155 0 -0.0028430923334952889 0.0011943626737717036 0 -0.0030210345358274862 0.0014348072727526603 0 -0.0031841044393598359 0.001322893525258794 0 -0.0028534892844404385 0.0016107206778040166 0 -0.0030210345358274862 0.0014348072727526603 0 -0.0031841044393598359 0.001322893525258794 0 -0.0028429005444698331 0.0013708537550847653 0 -0.0028534892844404385 0.0016107206778040166 0 -0.0030210345358274862 0.0014348072727526603 0 -0.0028494279115974762 0.0013750292991977608 0 -0.0028430923334952889 0.0011943626737717036 0 -0.0030210345358274862 0.0014348072727526603 0 -0.0022135799375401412 0.0016206922500064628 0 -0.0029536934714675584 0.0016033023607338675 0 -0.0042650009576397771 0.0010218147710598995 0 -0.0042488432256475124 0.0010475236568013679 0 -0.0042335454979495575 0.0010130156393794428 0 -0.0042650009576397771 0.0010218147710598995 0 -0.0042488432256475124 0.0010475236568013679 0 -0.0042815890611858963 0.0010574178461657644 0 -0.0042650009576397771 0.0010218147710598995 0 -0.0042890085747145515 0.0010333792704926407 0 -0.0042815890611858963 0.0010574178461657644 0 -0.0043094978844437047 0.0010663471261109596 0 -0.0042815890611858963 0.0010574178461657644 0 -0.0042581333212545428 0.0010826018940046805 0 -0.0042890085747145515 0.0010333792704926407 0 -0.0042875689028267147 0.0010588336575683155 0 -0.0042815890611858963 0.0010574178461657644 0 -0.0038831256292029392 0.0012611790997957115 0 -0.0041382456687536632 0.0012485461645243222 0 -0.0042488432256475124 0.0010475236568013679 0 -0.0042815890611858963 0.0010574178461657644 0 -0.0042581333212545428 0.0010826018940046805 0 -0.0042026134342897014 0.0010803526548661168 0 -0.0042124204243188992 0.00102057179999339 0 -0.0042335454979495575 0.0010130156393794428 0 -0.0042026134342897014 0.0010803526548661168 0 -0.0042488432256475124 0.0010475236568013679 0 -0.0042335454979495575 0.0010130156393794428 0 -0.0042026134342897014 0.0010803526548661168 0 -0.0042488432256475124 0.0010475236568013679 0 -0.0042581333212545428 0.0010826018940046805 0 -0.0041879664152567643 0.001086650398995827 0 -0.0042140076279583386 0.00098501959555569586 0 -0.0042124204243188992 0.00102057179999339 0 -0.0042026134342897014 0.0010803526548661168 0 -0.0041879664152567643 0.001086650398995827 0 -0.0042124204243188992 0.00102057179999339 0 -0.0042186036598654362 0.00097680935823799692 0 -0.004291915059748146 0.00087793737547243588 0 -0.0042140076279583386 0.00098501959555569586 0 -0.0042092485180193814 0.00096139960533286602 0 -0.0042124204243188992 0.00102057179999339 0 -0.0042092485180193814 0.00096139960533286602 0 -0.0042380591924096305 0.00097937631250235506 0 -0.0042335454979495575 0.0010130156393794428 0 -0.0042092485180193814 0.00096139960533286602 0 -0.0042124204243188992 0.00102057179999339 0 -0.0042335454979495575 0.0010130156393794428 0 -0.0042380591924096305 0.00097937631250235506 0 -0.0042650009576397771 0.0010218147710598995 0 -0.0042335454979495575 0.0010130156393794428 0 
</DataArray>
</PointData>
<CellData Scalars="region_id,cross_section_updated," Vectors="" Tensors="stress,">
<DataArray type="Float64" Name="region_id" format="ascii">
5 5 5 5 5 5 5 5 5 5 5 5 5 6 5 5 5 5 5 5 5 6 5 5 6 5 5 5 5 5 5 5 5 5 5 5 5 5 5 5 5 6 5 5 5 5 5 5 5 5 5 5 5 5 5 5 5 5 5 5 5 5 5 5 5 5 5 5 5 5 5 5 5 5 5 5 5 5 5 5 5 5 5 5 5 5 5 5 5 5 5 5 5 5 5 5 5 5 5 6 5 5 5 5 5 5 5 5 6 5 5 5 5 5 6 5 5 5 5 5 6 5 5 5 5 5 5 5 5 6 5 6 5 5 5 5 5 5 5 6 5 6 5 6 5 5 5 5 5 5 5 5 5 6 5 6 6 5 5 5 6 5 5 5 6 5 6 5 5 5 5 6 5 6 5 5 5 5 5 6 5 5 5 5 5 5 5 5 5 5 5 5 5 5 5 6 5 5 5 5 5 5 6 5 5 5 5 5 5 5 5 5 5 5 5 6 6 5 5 5 6 5 5 6 5 5 5 6 5 5 5 5 5 5 5 6 5 5 5 5 5 5 5 5 5 5 5 5 5 5 5 6 5 6 5 5 6 5 5 5 6 5 5 5 5 5 5 5 5 5 5 5 6 5 5 5 5 5 5 6 5 5 5 5 6 5 5 5 5 6 5 6 5 6 5 5 5 5 6 6 5 5 5 5 6 5 5 5 6 5 5 5 5 6 5 6 5 5 5 5 5 5 5 5 5 6 5 5 5 6 5 5 5 5 5 5 5 5 5 5 5 5 5 5 5 5 5 5 5 5 5 5 5 5 5 5 5 5 5 5 5 6 5 5 5 5 5 5 5 5 5 5 5 5 5 5 5 5 6 5 5 5 5 5 5 5 5 5 5 5 5 6 5 5 5 6 5 5 6 5 5 5 5 5 5 5 6 5 5 5 5 5 5 5 5 6 5 6 5 5 5 6 5 5 5 5 5 5 5 5 6 5 6 5 5 5 6 5 6 5 5 6 5 5 5 6 5 5 5 6 5 5 6 5 5 5 5 5 5 5 5 5 6 5 5 5 5 5 6 5 6 5 5 5 6 5 5 5 5 5 5 5 5 6 5 5 6 5 6 5 5 5 5 5 6 5 5 5 5 5 5 5 5 5 5 5 5 5 5 6 5 5 5 6 5 5 5 5 6 5 5 5 5 6 5 5 5 5 5 5 5 5 5 5 5 5 5 5 5 5 5 5 5 5 5 5 5 5 5 5 5 5 5 5 5 5 5 6 5 5 5 5 5 5 5 5 5 6 5 5 5 5 5 5 5 5 5 5 5 6 5 5 5 5 6 5 5 5 5 5 5 6 5 5 6 5 5 5 5 5 5 5 5 5 5 5 5 5 5 5 5 5 5 5 5 5 5 5 5 5 5 5 5 5 5 5 5 5 5 5 5 5 5 5 5 5 5 5 5 5 5 5 5 5 5 5 6 5 5 5 5 5 5 6 5 5 5 5 5 5 5 5 5 5 5 5 5 5 5 5 5 5 5 5 6 5 5 5 5 5 5 5 5 5 5 5 5 5 5 5 5 5 5 5 5 5 5 5 5 5 5 5 5 5 5 5 5 5 5 5 5 5 5 5 5 5 5 5 5 5 5 5 5 5 5 5 5 5 5 5 5 5 5 5 5 5 5 5 5 5 5 5 5 5 5 5 5 5 5 5 5 5 5 5 5 5 5 5 5 5 5 5 5 5 5 5 5 5 5 5 5 5 5 6 5 5 5 5 5 5 5 5 5 5 5 6 5 5 5 5 5 5 5 6 5 5 6 5 5 5 5 5 5 5 5 5 5 5 5 5 5 5 5 5 5 5 5 5 5 5 6 5 5 5 5 5 5 5 5 5 5 5 5 5 5 5 5 5 5 5 5 5 5 5 5 5 5 5 5 6 5 5 6 5 5 5 5 5 5 5 5 5 5 5 5 6 5 5 5 5 5 6 5 5 6 5 5 5 5 5 5 5 5 5 5 5 5 5 6 6 5 5 5 5 5 5 5 5 5 5 5 5 5 5 6 5 5 5 5 6 5 6 5 5 5 6 5 5 5 5 5 5 5 5 5 5 5 5 5 5 5 6 5 5 5 5 5 5 5 5 5 5 5 5 5 5 5 5 5 5 5 5 5 5 5 5 5 5 5 5 5 5 5 5 5 6 5 6 5 5 5 6 5 5 5 6 5 5 5 5 5 5 5 5 5 5 5 5 5 5 5 5 5 5 5 5 5 5 5 5 5 5 6 5 5 5 6 5 5 5 5 6 5 5 5 5 6 5 5 5 5 5 5 6 5 5 5 6 5 5 5 5 5 5 5 5 5 5 5 5 5 5 5 5 5 5 5 5 5 5 5 6 5 5 5 5 6 5 5 5 5 5 5 5 5 5 6 5 6 5 5 5 5 5 5 5 5 6 5 5 5 5 5 5 5 5 5 5 5 6 5 5 5 5 5 5 5 5 5 5 5 5 5 5 5 6 5 5 5 5 5 6 5 5 5 5 5 5 5 6 5 5 5 5 5 5 5 5 5 5 5 5 5 5 6 5 5 5 5 5 5 5 5 6 5 5 6 5 5 5 5 5 5 5 6 5 5 5 5 5 5 5 5 5 5 5 5 5 5 5 6 5 6 5 5 5 5 5 5 5 5 5 5 5 5 5 5 5 5 5 5 5 5 5 5 5 5 6 5 5 5 6 5 5 5 5 5 6 5 5 6 5 5 5 6 5 5 5 5 5 5 6 5 5 5 5 5 5 5 5 5 6 6 5 5 5 6 6 5 5 6 5 5 6 5 5 5 5 5 5 6 5 5 6 6 5 5 6 5 5 5 6 5 5 5 5 5 5 5 5 5 5 5 5 5 5 5 5 5 5 5 5 5 5 5 5 6 5 5 5 5 6 5 5 5 5 5 6 5 5 5 5 5 5 5 6 5 5 5 5 5 6 5 5 5 5 5 5 5 5 6 5 5 5 5 5 5 6 5 6 5 5 5 6 5 5 6 5 5 5 6 5 5 5 5 5 5 5 5 5 5 5 5 5 5 5 6 5 5 5 5 6 5 5 5 5 5 6 5 5 5 5 6 5 5 5 5 5 5 5 5 5 6 6 5 5 5 5 5 5 5 5 5 6 5 5 5 5 5 5 5 5 6 5 5 5 5 5 5 5 5 5 6 5 5 5 5 5 5 6 5 5 5 5 5 5 5 5 5 6 5 5 5 5 5 6 5 6 5 5 5 5 5 5 5 5 5 5 5 5 5 5 5 5 5 5 5 5 5 5 5 5 5 5 5 5 5 5 5 6 5 5 5 5 5 5 5 5 5 5 5 5 5 5 5 5 5 5 5 5 5 5 5 5 5 5 5 5 5 5 5 5 5 5 5 6 5 5 5 5 6 5 5 5 5 5 5 5 5 5 5 5 5 5 5 6 5 5 5 5 5 5 5 5 5 5 5 5 5 5 5 6 5 5 6 5 5 5 6 5 5 5 5 5 5 5 5 5 5 5 6 5 5 5 5 5 5 5 5 5 5 5 5 5 5 6 5 5 5 5 5 5 5 5 5 6 5 5 5 5 5 5 6 5 5 6 5 5 5 5 5 5 5 5 5 6 5 6 6 5 5 5 5 5 5 5 6 6 5 5 5 5 5 5 5 5 5 5 5 5 5 5 6 5 5 6 5 5 5 5 5 5 5 5 5 5 5 5 5 5 5 5 5 5 5 6 6 5 5 5 5 5 5 5 5 5 5 5 5 5 5 5 5 5 5 5 5 5 5 5 5 5 5 5 5 5 5 5 5 6 5 6 5 5 5 5 5 5 5 5 5 5 5 5 5 5 5 5 6 5 5 5 5 5 5 5 6 5 5 5 5 5 5 5 5 5 5 5 5 6 5 5 5 5 5 5 5 5 5 5 5 5 5 5 5 5 5 5 5 5 5 5 5 5 5 5 5 6 5 5 5 5 5 5 5 5 5 5 6 5 5 5 5 5 6 5 5 5 5 5 6 5 5 5 5 5 5 5 6 5 5 5 5 5 5 5 5 5 5 5 5 5 5 5 5 5 5 6 5 5 5 5 5 5 6 6 5 5 5 5 5 6 6 5 5 5 5 5 5 5 5 5 5 5 5 5 6 5 5 5 5 5 5 5 5 5 5 5 5 5 5 5 5 5 5 5 5 5 5 5 5 5 5 5 6 5 5 6 5 5 6 5 5 5 6 5 5 5 5 5 5 5 5 6 6 5 5 5 5 5 5 5 5 5 6 5 6 5 5 5 5 5 5 6 5 6 5 5 5 5 5 5 5 5 5 6 5 5 5 5 5 5 5 6 5 5 5 6 5 6 6 5 5 6 5 5 6 5 6 5 6 5 5 5 6 5 5 5 5 5 5 5 5 5 5 6 5 6 5 6 5 6 5 5 6 5 5 6 6 5 5 5 5 5 6 5 5 5 5 5 6 5 5 5 5 5 5 5 6 5 5 5 5 5 5 5 5 5 5 5 5 5 5 5 5 5 5 5 5 6 5 5 5 5 6 5 5 5 5 5 6 5 5 5 5 6 5 5 6 5 5 5 5 5 5 5 5 5 5 6 5 5 5 5 5 5 5 5 5 6 5 5 5 5 5 5 5 5 5 5 5 5 5 5 5 5 5 5 5 5 5 5 5 6 5 5 5 5 5 5 5 5 5 6 6 5 5 5 5 5 5 5 6 5 5 5 5 6 5 6 5 5 5 6 5 5 5 5 5 5 5 5 5 5 5 5 5 5 5 5 5 6 5 5 6 6 6 5 6 5 6 5 5 5 5 5 6 6 5 6 5 5 6 5 6 5 5 6 6 5 5 5 5 5 5 5 5 5 5 5 5 5 5 5 5 5 5 6 5 5 5 5 5 5 5 5 5 5 5 5 5 5 5 5 5 5 5 5 5 5 5 5 5 5 5 5 5 5 5 5 5 5 5 5 5 5 5 5 5 5 5 5 5 5 5 5 5 5 6 5 5 5 5 5 5 5 5 5 5 5 5 5 5 5 5 5 5 5 5 5 6 5 5 5 5 5 6 5 5 5 5 5 5 5 5 5 5 5 5 5 5 5 5 5 5 5 5 5 5 5 5 5 5 5 5 5 5 5 5 5 5 5 5 5 5 5 5 5 6 5 5 5 5 5 5 5 5 5 5 5 5 5 5 5 5 5 5 5 5 5 5 5 5 5 5 6 5 5 5 5 5 5 5 5 5 5 5 6 5 5 5 5 5 5 5 5 5 5 5 5 6 5 6 5 5 5 5 5 5 5 5 5 5 5 5 5 5 5 5 5 5 5 5 5 5 6 5 5 5 5 6 6 5 5 5 5 5 5 5 5 5 5 5 5 5 5 5 5 6 6 5 5 6 6 5 6 5 5 5 6 6 5 5 5 6 5 5 5 5 5 5 5 6 5 5 5 5 5 5 5 6 5 6 5 6 5 5 5 5 5 5 5 5 5 5 5 6 5 5 5 5 5 5 5 5 5 5 5 5 5 5 5 5 5 5 5 5 5 5 5 6 5 5 5 5 6 6 5 5 5 5 5 5 5 5 5 6 5 6 5 5 5 5 5 5 5 5 5 5 5 5 5 5 5 5 6 5 5 5 5 5 5 5 5 6 5 5 5 5 6 5 5 5 5 5 5 6 5 5 5 5 6 5 5 5 5 6 5 5 5 5 5 5 5 5 5 5 5 5 5 5 5 5 5 5 5 5 5 5 5 5 5 5 5 5 5 6 5 5 5 5 5 5 5 5 5 5 5 5 5 5 5 5 5 5 5 5 5 5 5 5 5 5 5 5 5 5 5 5 5 5 5 5 5 5 5 5 5 6 5 5 5 5 5 5 5 5 5 5 5 5 5 5 5 5 5 5 5 6 6 5 5 5 5 5 6 5 6 5 5 5 5 5 5 5 5 5 5 5 5 5 5 5 5 5 6 5 5 5 5 5 5 5 5 6 5 5 6 5 5 5 5 5 5 5 5 5 6 5 5 5 5 5 6 5 5 5 6 5 5 5 6 5 5 6 5 6 5 5 5 5 5 5 5 5 5 5 5 5 5 5 5 5 5 5 5 5 5 6 5 5 5 5 5 6 5 6 5 5 5 5 5 5 5 5 6 6 5 6 5 5 6 6 5 5 6 5 5 5 5 5 5 5 5 5 5 5 5 5 5 5 5 5 5 5 5 5 5 5 5 5 5 5 5 5 5 5 5 5 5 5 5 5 5 5 5 5 5 5 5 5 5 5 5 5 5 5 5 5 5 5 5 5 5 5 5 5 5 5 5 5 5 5 5 5 5 5 5 5 5 5 5 5 5 5 5 5 5 5 5 5 5 5 5 5 5 6 5 5 6 5 5 5 5 5 5 5 5 5 5 5 5 5 5 5 5 5 5 5 5 5 5 5 5 5 5 5 5 5 5 5 6 5 5 5 5 5 6 5 5 5 5 5 5 5 5 5 5 5 5 5 5 5 5 5 5 5 6 5 5 5 5 5 5 5 5 5 5 5 5 5 5 5 5 5 5 5 5 5 5 5 5 5 5 6 5 5 5 5 5 5 5 5 6 5 5 5 5 5 5 5 5 5 5 5 5 5 5 5 6 5 5 5 5 5 5 6 5 5 5 6 5 5 5 5 5 6 6 5 5 5 5 5 5 5 5 5 5 5 5 5 5 5 5 6 5 5 6 5 5 5 5 5 6 5 5 5 5 5 5 5 5 5 5 6 5 5 5 5 5 5 6 5 6 5 5 5 5 6 5 5 5 5 5 5 5 5 5 5 5 5 5 5 5 5 5 5 5 5 5 5 5 5 5 5 5 5 5 5 6 5 5 5 5 5 5 5 5 5 5 5 5 5 5 6 5 5 6 5 5 5 5 5 5 5 5 5 5 5 5 5 5 5 5 5 5 5 6 5 5 6 5 5 6 5 5 5 6 5 5 5 6 5 5 5 5 6 5 5 5 5 6 5 6 5 5 5 5 5 6 6 5 5 5 6 5 5 5 6 5 6 5 6 5 5 6 5 5 5 5 5 5 6 5 6 5 5 6 5 5 5 5 5 5 5 5 5 5 5 5 5 5 5 5 5 6 5 6 5 6 5 6 5 5 5 6 5 5 5 5 5 5 5 6 5 5 5 5 5 5 5 5 5 6 5 5 5 5 5 5 5 5 5 5 5 5 5 6 5 6 5 5 5 5 5 5 5 5 5 5 6 5 5 5 5 5 5 6 5 5 5 6 5 6 5 6 5 5 5 5 5 5 5 5 5 5 5 5 5 5 6 5 5 5 5 5 5 5 5 6 5 5 5 5 5 6 5 5 5 5 5 5 5 5 5 5 5 6 5 5 5 5 5 5 5 5 5 5 5 5 5 5 5 5 5 5 5 5 5 5 5 5 5 5 5 6 5 5 5 5 5 5 6 5 5 5 5 5 5 5 6 5 5 5 5 5 5 5 5 5 5 5 5 5 5 5 5 5 5 5 5 5 5 5 5 6 5 5 5 5 5 5 5 5 5 5 5 5 5 5 5 5 5 5 5 5 5 5 5 5 5 5 5 5 5 6 5 5 5 5 5 6 6 5 5 5 5 5 5 5 5 5 5 5 5 5 5 5 5 5 5 5 5 5 5 5 5 5 5 5 6 5 5 5 5 6 5 5 6 5 5 6 5 6 5 5 5 5 5 5 5 5 5 5 5 5 5 5 5 5 5 5 5 5 5 5 5 5 5 5 5 5 5 5 5 5 5 5 5 5 5 5 5 6 5 5 5 5 5 5 5 5 5 5 5 5 5 5 5 5 5 5 5 5 5 6 5 5 5 5 5 5 5 5 5 5 5 5 5 5 5 5 5 5 5 5 6 5 5 5 6 5 5 5 5 5 5 6 5 5 5 5 6 5 5 5 5 5 6 5 6 5 5 5 6 5 5 5 5 5 5 5 5 5 5 6 5 5 5 6 5 5 6 5 6 5 6 5 5 5 5 5 6 5 5 5 6 5 5 6 5 5 5 6 5 5 5 5 5 6 5 5 5 5 5 5 5 5 5 5 5 5 5 5 5 5 5 5 5 5 5 5 5 5 5 5 5 5 5 5 5 5 5 5 5 6 5 5 5 5 5 5 5 5 5 6 5 5 5 5 5 5 5 5 5 5 5 5 5 5 5 5 5 5 5 5 5 5 5 5 5 5 5 6 5 5 5 5 5 5 5 5 5 5 5 5 5 5 5 5 5 5 6 5 5 5 5 5 5 5 5 5 5 6 5 5 5 6 5 5 5 5 6 5 5 5 5 5 6 5 5 5 5 5 5 5 5 5 5 5 6 5 5 5 5 5 6 5 5 5 5 5 5 5 5 5 5 5 5 5 5 6 5 5 5 5 5 5 5 5 5 5 5 5 6 5 5 6 5 5 5 5 5 6 5 5 5 6 5 5 5 5 5 5 5 5 5 5 5 5 5 5 5 5 5 5 5 5 5 5 5 5 6 6 6 5 5 6 5 6 6 5 5 6 5 5 5 5 5 5 6 5 5 5 5 5 6 5 5 6 5 5 6 6 5 5 5 5 5 5 5 5 5 5 5 5 5 5 6 5 5 5 5 5 5 5 5 6 5 5 5 6 5 5 5 5 5 5 6 5 5 5 5 5 5 5 5 5 5 5 5 6 5 5 5 5 5 5 5 5 5 5 5 5 5 5 5 5 5 5 5 5 5 5 5 5 5 5 5 5 5 5 5 5 6 5 5 5 5 6 6 5 5 5 5 6 5 5 5 5 5 5 5 5 5 5 5 5 5 5 5 6 5 5 5 5 5 5 5 5 5 5 5 5 5 5 5 5 5 5 5 5 5 5 6 5 5 5 6 5 5 5 5 5 5 5 5 5 6 5 6 5 5 5 5 5 6 5 5 5 5 6 5 5 5 5 5 5 5 5 5 6 5 5 5 5 6 5 5 5 5 5 5 5 6 6 5 5 6 5 5 5 5 5 5 5 5 5 5 5 5 5 5 5 5 5 5 5 5 5 5 5 5 5 5 5 6 5 5 5 5 5 5 5 5 5 5 5 5 5 5 5 5 5 5 5 5 5 5 5 5 5 5 5 5 5 5 5 5 5 5 5 5 5 5 5 5 6 5 5 5 5 5 5 5 5 5 6 5 5 5 6 5 5 6 5 6 5 6 5 5 5 5 5 5 5 6 5 5 5 5 5 5 5 5 5 5 5 5 5 5 5 5 5 5 6 5 5 5 5 5 5 5 5 5 5 5 5 5 5 5 5 5 5 5 5 5 5 5 5 5 6 5 5 5 5 5 5 5 5 5 5 5 5 6 5 5 5 5 5 5 5 6 5 5 5 6 5 5 5 6 6 5 5 5 5 5 5 5 5 5 6 5 5 5 5 5 5 5 5 5 5 5 6 6 5 6 6 6 5 6 5 5 5 5 5 5 5 5 5 5 5 5 5 5 6 5 5 5 5 5 5 5 5 5 5 5 5 5 5 5 5 5 5 5 5 5 5 6 5 5 5 5 5 5 5 5 5 5 5 5 5 6 5 6 5 5 5 5 5 5 5 5 5 5 5 5 5 5 5 5 5 5 5 5 5 5 5 6 5 5 5 5 5 5 5 5 5 5 5 5 5 5 5 5 5 5 5 5 5 5 5 5 5 5 5 5 6 5 5 5 5 5 5 5 5 5 5 5 5 5 5 5 5 6 5 5 5 5 5 5 5 5 5 5 5 5 5 5 5 5 5 5 5 5 5 5 5 5 5 5 6 5 5 5 5 5 5 5 5 6 5 5 6 5 5 6 5 5 5 5 5 5 5 5 5 6 5 5 5 5 5 5 5 5 5 5 6 5 5 5 5 6 6 5 5 5 5 5 5 5 6 5 6 5 5 5 5 5 6 6 5 6 5 5 5 6 5 5 6 6 5 6 5 5 5 5 5 6 5 5 6 5 5 6 6 5 5 5 5 6 5 6 5 5 5 5 5 5 5 6 6 5 5 5 5 5 5 5 5 6 6 5 6 6 6 5 6 5 5 5 5 5 5 5 5 5 5 5 5 5 5 6 5 5 6 5 5 5 5 5 5 5 5 5 5 5 5 5 5 5 5 5 5 5 5 5 5 5 5 5 5 5 5 5 5 5 5 5 5 5 5 5 5 5 5 5 5 5 5 5 5 5 5 5 5 5 5 5 5 5 5 5 5 5 5 6 6 5 5 5 5 5 5 5 5 5 5 5 5 5 5 5 5 5 5 5 5 5 5 5 5 5 5 5 5 5 5 5 5 5 5 5 5 5 5 5 5 5 5 5 5 5 5 5 5 5 5 5 5 5 5 5 5 5 5 5 5 5 5 5 5 6 5 5 5 5 5 5 5 5 5 6 5 5 5 6 6 5 5 5 5 5 5 5 5 5 6 5 6 5 5 6 6 5 5 5 5 5 6 6 5 5 5 5 6 5 5 5 6 5 6 5 5 5 5 6 5 5 5 5 6 5 5 6 5 5 5 5 5 5 6 5 5 5 5 5 5 5 5 5 6 5 5 5 5 6 5 5 5 5 5 5 5 5 5 5 5 5 5 5 5 5 5 5 5 5 5 5 5 5 5 5 5 5 5 5 5 5 5 5 5 5 5 6 5 5 5 5 6 5 5 6 5 6 5 5 6 5 5 5 6 5 5 5 6 5 5 5 5 5 5 5 5 5 5 5 6 5 5 5 5 5 5 5 5 5 6 5 5 5 5 5 6 5 5 5 5 5 6 5 5 5 5 5 6 5 5 6 6 5 6 5 6 5 6 5 5 5 5 5 5 5 5 5 5 5 6 5 5 5 5 5 5 5 5 6 5 5 5 5 5 5 5 6 6 5 5 6 5 6 5 5 5 5 5 5 6 5 5 5 5 5 5 5 5 5 5 5 5 5 6 5 5 5 5 5 5 6 5 5 5 5 5 5 5 5 5 5 5 5 5 5 5 5 5 5 5 5 5 5 5 5 5 5 5 5 5 6 6 5 5 5 6 5 5 5 6 5 5 5 5 5 5 5 5 6 5 5 5 5 5 5 5 5 5 5 5 5 5 5 5 5 5 5 5 5 5 5 5 5 5 5 5 5 5 5 6 5 5 5 5 5 5 5 5 5 5 5 5 5 5 5 5 5 5 5 5 5 5 6 5 5 5 5 6 5 5 5 5 5 5 5 5 5 5 5 5 5 5 5 5 5 5 5 5 5 5 5 5 5 5 5 5 6 5 6 5 6 5 5 5 5 5 5 5 5 5 5 5 5 5 5 5 5 5 5 5 5 5 5 5 5 6 5 5 5 5 5 5 5 5 5 5 5 5 6 5 5 5 5 5 5 5 5 5 5 5 5 5 5 5 5 5 6 6 5 5 5 5 5 5 5 5 5 5 5 6 6 5 5 6 5 5 5 6 6 5 5 5 6 6 5 5 6 5 5 6 5 5 6 5 5 5 5 6 5 5 5 6 5 6 5 5 5 5 5 5 5 5 5 5 5 5 5 5 5 5 5 5 5 6 5 5 5 5 5 5 5 5 5 5 5 5 5 6 5 6 5 5 5 5 5 6 5 6 5 5 5 5 5 5 5 5 5 5 5 5 5 5 5 5 5 5 5 6 5 6 5 6 5 5 6 5 6 5 6 5 5 6 5 5 5 5 5 6 5 5 5 5 6 5 5 6 5 5 6 5 6 6 5 6 5 5 6 5 6 5 5 5 6 6 5 5 6 6 5 5 6 5 5 5 5 5 5 5 5 5 5 6 5 5 5 5 5 5 5 5 5 5 5 5 5 5 5 6 5 5 5 5 5 6 5 5 6 6 6 6 5 6 5 5 6 5 5 6 5 5 6 5 5 5 6 5 5 5 5 6 5 5 5 5 5 5 6 5 5 5 5 5 5 5 5 5 5 5 5 5 6 5 5 6 5 5 5 5 5 5 5 6 5 5 5 5 6 5 5 5 5 5 5 5 6 5 5 6 5 5 5 6 5 5 5 6 5 5 5 5 5 5 5 5 5 5 5 5 5 5 5 5 5 5 5 5 5 5 5 5 5 5 5 5 5 5 5 5 5 5 5 5 5 5 5 5 6 5 5 5 5 5 5 5 5 6 5 5 5 5 5 6 5 5 5 6 6 5 5 6 5 5 6 5 5 5 5 5 6 5 5 5 5 5 6 5 5 6 5 6 5 5 5 5 6 5 5 5 5 5 5 6 6 5 6 5 5 5 5 5 5 5 6 5 6 5 5 5 5 5 6 5 5 5 6 5 5 5 5 5 6 5 5 6 5 6 6 5 5 5 5 6 6 5 5 5 5 6 5 5 6 6 5 5 5 6 5 6 5 5 5 5 5 6 5 5 5 5 5 5 6 5 6 5 6 6 6 5 5 6 6 5 5 5 5 5 5 5 5 6 5 6 6 5 6 6 5 6 6 5 6 5 5 5 5 5 5 5 5 5 5 6 5 5 6 5 5 5 5 6 5 6 5 5 5 6 5 6 6 6 5 5 5 5 5 5 6 5 5 5 5 6 5 5 5 6 5 5 6 5 5 5 5 5 5 5 5 5 5 5 5 6 5 5 5 6 5 5 5 5 5 5 5 5 5 5 5 5 5 5 6 5 5 5 5 5 6 5 5 5 5 5 5 5 5 5 5 5 5 5 5 5 5 5 5 5 5 5 5 5 5 5 5 5 6 5 6 5 5 5 5 6 5 5 5 5 5 5 5 5 5 5 5 5 5 6 5 5 6 5 5 5 5 5 5 5 5 6 5 5 5 5 5 5 5 6 5 5 5 5 5 5 5 5 5 5 5 5 5 5 5 5 5 5 5 5 5 5 5 6 6 5 5 5 5 5 5 5 5 6 5 5 5 5 6 6 5 5 5 5 5 5 5 5 6 5 6 5 5 5 5 5 5 5 5 6 5 5 5 5 5 5 5 5 5 5 5 5 5 5 5 5 6 5 5 5 6 5 5 5 5 5 5 5 5 5 6 5 5 5 5 5 5 5 6 5 5 5 5 5 6 5 5 5 6 5 6 5 5 5 5 5 5 5 5 5 5 6 5 5 5 6 6 5 5 5 5 6 5 5 5 5 5 6 6 6 5 5 5 6 5 5 6 6 5 5 5 5 5 5 6 5 6 5 5 5 5 5 6 5 5 6 5 5 5 5 5 6 5 5 5 5 5 5 5 6 5 5 5 5 5 5 5 6 5 5 5 6 5 5 5 6 5 5 5 5 5 5 5 5 5 5 5 5 5 6 5 5 6 5 5 5 6 5 6 5 5 5 5 5 6 6 5 5 5 6 5 5 5 5 5 5 5 5 5 6 6 5 5 6 5 5 5 6 5 5 5 6 5 5 5 6 5 5 5 5 5 6 5 5 5 5 5 5 5 6 5 5 5 5 5 6 5 5 5 5 5 5 5 5 5 5 6 5 5 6 5 5 5 6 5 5 6 5 5 5 5 5 5 5 5 5 5 6 5 5 6 5 5 5 5 5 5 5 5 6 5 5 6 5 5 5 5 5 5 5 5 6 5 5 6 5 5 5 5 5 5 6 5 5 5 5 5 5 5 5 5 5 5 5 6 5 5 5 5 5 5 5 5 5 6 5 5 5 5 5 5 6 5 5 5 5 6 5 5 5 6 5 5 5 5 6 5 5 5 5 6 5 5 5 5 5 5 6 5 6 5 5 5 5 6 5 5 5 5 5 5 5 5 5 5 5 5 6 5 5 5 5 5 5 5 6 5 5 5 6 5 5 5 5 5 5 5 5 5 5 6 5 6 5 6 5 5 5 5 5 5 6 5 5 5 6 5 5 5 5 5 6 5 5 5 5 5 5 5 5 5 5 5 5 5 6 5 5 5 5 5 6 5 5 5 5 5 6 5 5 6 6 5 5 6 5 5 6 5 5 5 5 5 6 5 5 5 5 5 6 5 5 6 5 5 5 5 5 5 6 5 5 5 5 5 5 5 5 5 5 5 6 5 5 6 5 5 5 5 5 5 5 5 5 6 6 5 5 5 6 5 5 5 5 6 5 5 5 5 5 5 5 5 5 6 5 6 5 5 6 5 5 5 5 5 6 5 5 5 5 5 5 6 5 5 5 6 5 5 6 5 6 5 5 6 5 5 5 5 5 5 5 5 6 5 5 5 5 5 5 5 5 6 5 6 5 5 5 6 5 5 5 6 5 5 5 5 5 5 5 5 5 5 5 6 5 5 5 5 5 5 5 6 5 5 5 5 5 5 5 6 5 5 6 5 5 5 5 5 5 5 5 5 5 5 5 5 6 5 5 6 5 5 5 5 6 5 5 6 5 6 5 5 5 5 5 5 5 5 5 5 5 5 5 5 5 5 5 5 5 5 5 5 5 5 5 5 5 5 5 5 5 5 5 5 5 6 5 5 5 5 5 6 5 5 5 5 5 6 5 5 5 5 5 5 5 5 5 5 5 5 5 5 5 6 5 5 5 6 5 5 5 5 5 5 5 5 5 5 6 5 5 5 5 6 5 5 5 5 5 5 5 6 5 5 5 5 5 5 5 5 5 5 5 5 5 5 5 6 5 6 5 5 5 6 5 5 5 5 5 6 6 5 5 5 5 5 5 5 5 5 5 5 5 5 5 5 5 5 5 5 5 5 5 5 5 5 5 5 5 5 5 5 5 5 5 5 5 5 6 5 5 5 5 5 5 5 5 5 5 5 5 6 5 5 5 5 6 5 5 5 5 5 5 6 5 5 5 6 5 5 5 5 6 5 5 5 6 5 5 6 5 5 6 5 5 6 5 6 6 5 5 5 5 6 5 5 5 5 5 5 5 6 5 5 5 5 5 5 5 6 5 5 5 5 6 5 5 6 5 5 5 5 5 5 5 6 5 6 5 5 6 5 5 5 5 5 5 6 5 5 5 5 5 6 5 6 5 6 5 6 5 5 5 5 5 6 5 5 5 5 5 5 5 5 5 5 5 5 5 5 5 5 5 6 5 5 5 6 5 5 5 6 5 5 5 5 5 5 6 5 5 5 5 5 6 5 5 5 5 6 5 5 5 5 5 5 5 5 5 5 5 5 5 5 6 5 5 5 5 5 5 5 6 5 5 5 5 6 5 5 6 5 5 6 6 5 5 5 5 5 5 5 5 5 5 6 5 6 5 5 5 5 5 6 5 5 5 5 5 5 5 5 5 5 5 5 5 5 5 6 5 5 6 5 6 6 5 5 5 5 5 5 5 5 5 6 5 5 5 6 5 5 5 5 5 6 5 5 5 5 5 5 6 5 5 6 5 5 6 5 5 5 5 5 5 6 5 5 5 5 6 6 5 5 5 5 5 5 5 5 5 5 5 5 5 5 5 5 5 5 5 5 5 5 5 5 5 5 5 5 5 5 5 5 5 5 5 5 5 5 5 5 6 5 5 5 5 5 5 6 5 5 5 5 5 5 5 5 5 5 5 5 5 5 6 5 5 5 6 5 6 5 5 5 5 5 5 5 5 5 5 5 5 5 5 5 5 5 5 5 5 6 5 5 5 6 5 5 6 5 5 5 5 5 5 5 5 5 5 5 5 5 5 5 5 6 5 5 5 6 5 5 5 5 5 6 5 5 5 5 5 5 5 5 5 5 5 5 5 5 6 5 5 5 6 5 5 5 5 5 5 5 5 5 6 5 5 5 5 5 5 5 6 5 5 5 6 6 6 5 5 5 5 5 5 5 5 5 5 5 5 5 5 5 5 5 5 5 5 5 5 5 5 5 5 5 5 5 5 5 5 5 6 6 5 5 6 5 5 5 5 6 5 6 5 5 5 6 5 5 5 5 5 5 5 6 5 5 5 5 6 5 5 6 5 5 5 5 5 5 6 5 5 5 5 6 5 5 6 5 5 5 5 5 5 5 6 6 5 5 5 5 5 5 5 5 5 5 6 5 5 5 6 5 5 5 5 5 6 5 5 5 6 6 6 5 5 5 5 6 5 5 5 5 5 5 5 5 5 6 5 5 5 6 5 5 5 5 5 5 5 5 5 5 5 5 5 6 5 5 5 5 5 5 5 5 5 5 5 5 5 6 5 5 5 5 6 5 5 5 5 5 5 5 5 5 5 5 5 5 5 5 6 6 5 5 5 5 6 5 5 5 5 5 6 5 5 5 5 5 5 5 5 5 5 5 5 5 5 5 6 5 5 5 6 5 5 5 6 5 5 5 5 5 5 5 5 5 6 5 5 5 5 5 5 5 5 5 5 5 5 5 5 5 5 5 5 5 5 5 5 5 5 5 5 6 5 5 5 6 5 5 6 5 6 5 5 5 5 5 5 5 5 5 5 5 5 5 5 6 5 5 5 5 6 5 5 5 5 5 5 5 5 5 5 5 6 5 5 5 5 5 5 5 5 5 5 5 5 5 6 5 5 5 5 6 5 5 5 5 5 5 6 5 5 5 5 5 5 5 5 5 5 5 6 5 5 5 5 5 5 5 5 5 5 5 6 5 6 5 5 5 5 5 5 5 5 5 5 5 5 5 5 5 5 5 5 5 5 5 5 6 5 5 5 5 6 5 5 5 5 5 5 5 5 5 6 6 6 5 5 5 5 5 5 5 5 5 5 5 6 5 5 5 5 6 5 5 5 5 6 5 5 5 5 6 5 5 5 5 5 5 5 5 6 5 5 5 5 5 5 5 5 6 6 5 5 5 5 5 5 5 6 5 5 5 6 5 5 5 5 5 5 5 6 5 5 5 5 5 5 5 5 5 5 5 5 5 5 5 5 5 5 5 5 6 5 5 5 5 5 5 5 5 5 5 5 6 5 5 5 5 6 5 5 5 5 5 5 5 5 5 5 5 6 5 5 5 5 5 5 5 5 6 5 5 5 5 5 6 5 5 5 5 5 5 5 5 5 5 6 6 6 5 5 6 5 5 5 6 5 5 5 5 5 5 5 5 5 5 5 5 5 5 5 5 5 5 5 5 5 5 5 5 5 5 5 6 5 5 5 5 6 5 5 5 5 5 6 5 5 6 5 5 5 5 5 6 5 6 5 5 5 5 5 5 5 5 5 5 5 5 5 5 5 5 5 5 5 5 5 5 5 5 5 6 5 6 5 5 5 5 5 5 5 5 6 5 5 5 5 6 5 5 5 5 5 6 5 6 5 5 5 6 5 6 5 5 5 6 5 5 5 5 5 6 5 5 5 5 5 5 5 5 5 5 5 5 5 5 5 5 5 6 5 5 5 5 5 6 5 5 5 5 6 5 5 5 5 5 6 5 5 5 5 5 6 5 5 5 5 5 5 5 5 6 5 5 6 5 5 5 5 5 5 5 5 5 5 5 5 5 5 6 5 5 5 5 5 6 5 5 6 5 5 5 5 5 5 5 5 5 5 6 5 5 5 5 5 5 5 5 5 6 5 5 5 5 5 5 5 5 5 5 5 6 5 5 5 5 5 5 5 5 5 5 5 5 5 5 5 5 5 5 5 5 5 5 5 5 5 5 5 5 5 5 5 5 5 5 6 5 5 5 5 5 5 5 5 5 5 5 5 5 5 5 5 5 5 6 5 6 5 5 5 5 5 5 6 5 5 5 6 5 5 5 5 5 5 5 5 5 5 5 5 6 5 5 5 5 6 5 5 5 5 5 5 5 5 6 5 5 6 5 6 6 5 5 5 5 5 6 5 5 5 6 5 5 6 5 5 6 5 5 5 5 5 5 5 5 5 5 5 5 5 5 5 5 6 5 5 5 5 5 5 5 5 6 5 5 5 5 5 5 5 5 5 5 6 5 5 5 5 5 5 5 5 5 6 5 5 6 5 5 5 5 5 5 5 5 5 5 5 5 5 6 5 5 5 6 6 5 5 6 5 5 5 6 6 5 5 5 6 5 5 5 5 5 5 5 5 5 5 5 5 5 5 5 5 5 5 5 5 6 5 5 5 5 6 5 5 5 5 5 5 5 5 5 5 5 5 5 5 5 5 5 5 5 5 5 5 5 5 5 5 5 5 5 5 5 5 5 5 5 5 5 5 5 5 5 5 5 5 6 5 5 5 5 5 5 5 5 5 5 5 5 5 5 5 6 6 5 5 6 5 5 6 6 5 5 5 5 5 5 5 5 5 5 5 5 5 5 5 5 5 5 5 5 5 5 5 6 5 5 6 5 5 5 6 5 5 5 5 5 5 5 5 5 5 6 5 6 5 5 5 5 5 5 5 5 5 6 5 5 5 5 5 5 5 5 5 5 5 6 5 5 5 5 5 5 6 5 5 5 5 5 5 5 5 5 6 5 5 5 5 5 6 5 6 5 5 5 5 6 5 6 5 6 6 5 5 5 5 5 5 5 5 5 5 5 5 5 5 5 5 5 6 5 5 5 6 5 5 6 5 5 5 5 5 5 5 6 5 6 5 5 5 5 6 5 5 5 6 5 5 5 6 6 5 5 5 5 5 5 5 5 6 5 6 6 5 6 5 5 5 5 5 6 5 5 5 5 5 5 5 5 5 5 5 5 5 5 5 5 5 5 5 6 5 5 5 5 5 5 5 5 5 5 5 5 6 5 5 5 5 5 5 5 5 5 5 5 5 5 5 5 5 5 6 5 5 5 5 6 5 5 5 5 5 5 6 5 5 5 5 5 5 5 6 5 5 5 6 5 6 5 5 6 5 6 5 5 5 5 6 5 5 5 6 5 5 6 5 5 5 5 5 5 5 5 5 5 5 5 6 5 5 5 5 5 5 5 5 5 5 5 5 5 6 5 6 5 5 5 6 6 5 5 5 6 5 5 5 6 5 5 5 5 5 5 5 5 5 5 5 5 5 5 5 5 5 5 5 5 5 5 5 5 5 5 5 5 5 5 5 5 6 5 5 5 5 5 6 5 5 5 5 6 5 5 6 5 6 5 5 5 5 5 5 5 5 5 5 6 6 5 5 5 6 5 5 5 5 5 5 5 6 6 5 5 5 5 6 5 5 5 5 5 5 5 5 5 5 5 5 6 6 5 5 5 6 5 6 5 5 5 6 5 5 6 5 5 6 6 5 5 5 5 5 6 5 5 5 5 5 5 5 5 5 5 5 5 6 5 5 5 5 5 5 5 5 5 5 5 5 5 5 5 5 5 5 5 5 5 5 5 5 5 5 5 6 6 5 5 5 5 5 5 6 5 5 5 5 5 6 5 5 5 5 5 5 5 5 5 5 5 5 5 5 5 5 5 5 5 5 6 5 6 5 5 6 5 5 6 5 6 5 6 5 5 5 5 5 6 5 5 6 5 6 5 5 5 5 5 5 5 6 5 5 6 5 5 6 6 5 5 6 5 5 5 6 6 5 5 5 5 5 5 5 5 5 5 5 5 6 6 5 6 5 5 5 5 6 6 5 5 5 6 5 6 5 6 5 6 5 5 5 6 5 5 6 5 6 5 5 5 6 5 5 5 5 5 5 5 5 5 5 5 5 5 5 5 5 5 6 5 6 6 5 6 5 6 5 5 6 6 5 5 5 5 5 5 6 5 6 5 6 6 5 5 6 5 5 5 5 5 5 5 5 5 5 5 5 5 5 5 5 5 5 5 5 5 5 5 5 5 5 5 5 5 5 5 5 5 5 5 6 5 5 5 5 5 5 5 6 5 5 5 5 6 6 6 5 5 6 5 5 6 5 5 5 5 5 6 5 5 6 5 5 6 5 6 5 6 5 5 5 5 5 5 5 5 6 6 5 5 6 5 5 5 6 5 6 6 5 6 5 6 5 5 5 6 5 5 5 5 6 5 6 5 5 5 5 6 5 5 5 5 5 5 5 5 5 5 5 5 5 6 5 5 5 5 5 5 6 5 5 5 5 5 5 5 5 5 5 5 5 5 5 5 5 5 5 5 5 5 5 5 5 5 5 5 5 5 5 5 5 5 5 5 5 6 5 5 6 6 5 5 6 6 5 5 6 5 6 5 5 5 5 6 5 5 5 5 5 5 6 5 5 5 5 5 6 5 6 5 5 5 5 5 5 5 5 6 5 6 5 5 6 5 5 5 6 5 5 5 5 5 5 5 5 5 5 5 5 6 6 5 5 5 6 5 6 5 5 5 5 5 5 5 6 6 5 5 5 5 5 5 5 5 5 5 5 5 5 5 5 6 5 5 6 6 5 5 5 5 6 5 5 5 5 5 6 5 5 6 6 5 5 5 6 6 5 5 5 6 5 5 5 5 5 5 5 5 5 6 5 5 6 5 5 5 5 5 5 6 5 5 5 6 5 5 5 5 5 5 5 5 5 5 5 5 5 6 5 5 5 5 5 5 5 5 5 5 5 5 6 5 5 5 5 5 5 5 5 5 5 5 5 5 5 5 5 5 5 5 5 5 5 6 5 5 5 6 6 6 5 5 6 5 5 6 6 5 5 5 5 5 5 5 5 6 5 6 5 5 5 5 5 5 5 5 5 5 5 5 5 5 5 5 6 5 5 5 5 6 5 5 6 5 5 5 5 5 5 5 5 6 6 5 5 5 5 5 5 5 5 5 5 5 5 5 5 5 5 5 5 5 5 5 5 5 6 5 5 6 5 5 5 5 5 5 5 6 6 5 5 5 5 5 5 5 5 5 5 5 5 5 5 5 5 6 5 6 5 6 5 5 5 5 5 6 5 5 5 5 6 5 6 5 5 5 5 5 5 5 5 5 5 5 5 5 5 5 5 5 5 5 5 5 6 5 5 5 5 5 5 5 5 5 6 5 5 5 5 5 6 5 5 5 5 5 5 5 5 5 5 5 5 5 5 5 5 6 5 5 5 5 5 5 6 5 5 5 5 5 6 6 5 5 5 5 5 5 5 6 5 5 5 5 6 5 6 5 5 5 6 5 5 6 5 6 5 5 5 5 6 5 5 5 5 5 6 5 5 5 5 5 5 5 5 5 6 5 6 5 5 5 6 5 5 6 5 5 5 5 5 5 6 5 5 6 5 5 5 6 5 5 6 5 6 5 5 6 5 5 6 5 6 5 5 5 6 5 5 5 5 5 5 5 5 5 6 5 5 5 5 5 6 6 5 6 5 5 5 5 5 6 5 5 6 6 5 6 6 5 5 5 5 5 5 5 5 5 5 5 6 5 5 5 5 6 5 5 5 5 5 6 5 5 5 5 6 5 5 5 5 6 5 5 5 5 5 5 5 6 5 5 5 5 5 5 6 5 5 6 5 5 6 5 5 6 5 5 5 5 5 5 5 5 5 5 5 5 5 5 5 5 5 6 5 5 6 5 6 5 5 5 5 5 5 6 5 5 6 5 5 6 5 6 5 6 5 5 5 5 5 5 6 5 5 5 5 5 6 5 6 5 5 5 5 6 5 5 5 6 5 6 5 5 5 5 5 5 5 5 5 5 5 5 5 5 5 5 5 5 5 5 5 5 5 5 5 5 5 5 5 5 5 6 5 5 6 5 5 5 6 6 5 6 5 5 6 5 6 5 5 5 6 5 5 5 6 5 6 5 5 5 6 6 6 5 6 5 6 5 6 5 5 6 6 5 6 5 6 6 5 5 5 6 6 5 5 5 6 5 5 5 5 5 6 5 5 5 5 6 5 5 5 5 5 5 5 5 5 5 5 5 5 5 5 5 5 6 5 5 5 5 5 5 5 5 5 5 5 5 5 5 5 5 5 5 5 5 5 5 5 5 5 5 5 5 5 6 5 5 5 5 6 5 5 6 5 5 5 6 5 6 5 5 5 5 6 5 6 6 6 6 5 5 5 5 5 5 5 5 5 5 5 5 5 5 5 5 5 5 5 5 5 5 5 5 6 5 5 5 5 5 5 5 5 5 5 6 5 5 6 5 5 5 5 5 6 6 5 5 5 5 5 5 5 5 5 5 6 5 5 5 5 6 5 5 5 5 6 5 5 5 5 6 5 5 6 5 5 6 5 5 5 5 5 5 5 5 5 5 6 5 5 5 5 5 5 5 5 5 5 5 5 5 5 5 6 5 5 5 5 5 5 5 6 6 5 5 5 5 5 5 5 5 5 5 5 5 5 5 5 5 5 5 5 5 5 5 5 5 5 5 5 5 5 5 5 5 5 5 5 5 5 5 5 5 5 5 5 6 5 5 5 5 5 5 5 5 6 5 5 5 5 5 5 5 6 6 6 5 5 5 5 5 5 6 5 5 5 5 5 5 5 5 5 5 6 5 5 5 5 6 5 5 6 5 5 5 5 5 5 5 5 5 5 5 5 5 5 6 5 5 5 5 5 5 5 5 6 5 5 5 5 6 5 5 5 5 5 5 5 5 5 5 5 5 5 5 5 5 5 5 5 5 5 5 5 5 5 5 5 5 5 5 5 5 6 5 6 5 5 5 6 5 6 5 5 5 5 5 6 5 5 6 6 5 5 5 5 5 5 5 5 5 5 5 5 5 5 5 5 5 5 5 5 5 5 5 5 5 5 5 5 5 5 5 5 5 5 5 5 5 5 5 5 5 5 5 6 5 6 5 6 5 5 5 5 5 5 6 5 5 5 6 5 5 5 5 5 5 5 5 5 5 5 5 5 6 5 5 5 5 5 6 5 5 5 5 5 6 5 5 6 5 5 5 5 5 5 5 5 5 5 6 5 6 6 5 5 5 5 5 5 5 5 5 6 5 5 5 5 6 6 5 5 5 5 5 5 5 6 5 5 6 5 6 5 5 5 5 5 5 5 6 5 5 6 6 5 5 6 5 5 5 5 6 5 5 5 5 5 5 5 6 5 5 5 5 5 5 5 5 5 5 5 5 5 5 5 5 5 5 6 5 5 5 5 5 5 5 5 5 5 5 5 5 5 5 5 6 5 5 6 5 5 5 6 5 5 6 5 5 6 5 5 6 5 5 6 5 5 5 5 5 5 5 5 5 5 5 6 5 5 5 5 5 5 5 6 6 6 6 6 5 5 5 5 5 5 5 5 5 5 5 5 6 5 5 5 5 6 5 5 5 5 5 5 5 5 5 5 5 5 5 5 5 5 6 5 5 6 5 5 5 6 5 5 5 5 5 5 5 5 5 5 6 5 5 5 6 5 5 5 5 6 5 5 6 5 5 6 5 5 5 5 5 5 6 5 5 5 5 5 5 5 5 5 5 5 5 5 5 5 5 5 5 5 6 5 6 5 5 6 5 5 5 5 5 5 5 5 5 5 5 5 5 5 5 5 5 5 5 5 5 5 5 5 5 5 5 5 5 5 5 5 5 5 5 5 5 5 5 5 5 5 5 5 5 5 5 5 5 5 5 5 5 5 6 5 5 5 6 5 5 5 5 5 5 5 5 5 5 5 5 5 5 5 6 5 5 5 5 5 5 5 5 5 5 6 5 5 5 5 6 5 5 5 5 6 5 5 5 6 5 5 6 5 5 5 5 6 5 5 5 5 5 6 6 5 6 5 5 5 6 5 6 5 6 5 5 6 5 6 5 5 5 6 5 5 5 6 5 5 6 5 6 6 5 6 5 5 5 5 5 5 5 6 5 6 5 5 6 5 6 5 5 5 5 5 5 5 5 6 5 5 6 5 5 5 6 6 5 5 5 5 5 5 5 5 5 5 6 5 5 6 5 5 5 6 5 5 5 5 5 5 5 6 5 6 5 5 5 5 5 5 5 5 5 6 5 5 5 6 5 5 5 5 5 5 5 6 5 5 5 5 5 5 5 5 6 5 6 5 5 5 5 5 5 5 6 5 5 5 5 5 6 5 5 5 5 5 6 5 5 5 5 5 5 5 5 5 5 5 5 5 5 5 5 5 5 5 5 5 5 5 5 5 5 5 5 5 5 5 5 5 5 5 5 5 5 5 6 6 5 6 5 5 5 5 5 5 5 5 5 6 5 5 5 5 5 5 5 5 5 6 5 5 5 5 5 5 5 5 6 5 5 5 6 5 5 6 5 5 5 5 5 5 5 5 5 5 5 5 5 5 5 5 5 6 5 6 5 5 5 5 5 6 5 5 5 5 6 5 5 5 5 5 6 5 5 5 5 5 5 6 5 5 5 5 5 5 5 5 5 6 5 5 5 5 5 5 5 5 5 5 5 5 5 6 5 5 5 5 5 5 5 6 5 5 5 5 5 5 5 5 5 5 6 5 5 5 5 6 5 5 5 5 5 5 5 5 6 6 5 5 5 5 5 5 5 6 5 5 6 5 5 5 5 5 5 5 5 5 5 5 5 5 5 6 5 5 5 6 5 5 5 6 5 5 6 5 5 5 5 6 5 5 5 5 6 6 5 5 6 5 5 6 5 5 5 5 5 5 5 5 5 5 5 5 5 5 5 6 5 5 5 5 5 6 6 5 6 5 5 5 6 5 5 5 5 6 5 5 6 5 5 6 5 5 6 6 6 5 5 5 5 5 6 5 5 5 5 5 5 5 6 5 5 5 5 6 5 6 6 5 5 6 5 5 6 5 5 5 5 6 5 5 5 5 5 5 5 6 5 5 5 6 5 5 5 5 6 5 5 6 5 6 6 5 6 5 5 6 5 5 6 5 5 5 5 5 5 6 5 5 6 5 5 6 6 6 5 5 6 5 5 5 6 5 6 5 5 5 6 5 5 5 6 5 5 5 5 5 5 5 5 5 6 5 5 5 6 5 6 5 6 5 6 5 5 5 5 6 5 5 5 5 5 5 6 6 5 5 5 5 5 5 5 5 6 6 6 5 5 5 5 6 5 6 5 6 5 5 5 6 5 6 5 5 5 5 6 5 5 5 5 5 5 5 5 6 5 5 6 5 5 5 5 5 5 5 5 5 5 5 5 6 5 5 6 5 5 5 5 5 5 6 5 5 5 5 6 5 5 5 5 6 5 5 5 5 6 6 5 5 5 5 6 5 5 5 5 5 6 5 5 5 5 6 5 6 5 5 6 5 5 5 5 6 5 5 5 5 5 5 5 6 5 5 5 5 5 5 5 5 5 6 5 5 5 5 5 5 5 5 5 5 5 5 5 5 6 5 5 5 5 5 6 5 5 5 5 5 5 5 5 6 5 5 5 5 5 5 5 5 5 5 5 5 5 5 5 6 5 5 5 5 5 6 5 5 5 5 5 6 5 5 5 5 5 5 6 5 5 5 5 
</DataArray>
<DataArray type="Float64" Name="stress" NumberOfComponents="9" format="ascii">
-172.13536767858932 398.86268249767909 0 398.86268249767909 0.19322093794107786 0 0 0 0 0.23417582395632053 403.34952646890906 0 403.34952646890906 -223.50381104620647 0 0 0 0 -64.197560726075608 418.41580539694405 0 418.41580539694405 -442.71576595645047 0 0 0 0 -115.26592658149457 286.68554097581591 0 286.68554097581591 -332.80562323624963 0 0 0 0 188.75287586831473 283.04123538585191 0 283.04123538585191 -420.01563287211138 0 0 0 0 -102.07397430437049 375.80513352919752 0 375.80513352919752 -379.99395236602504 0 0 0 0 -166.54265152439802 382.2069359456284 0 382.2069359456284 -208.39063875556349 0 0 0 0 -40.561032936151605 274.98378946209914 0 274.98378946209914 -251.54273583987924 0 0 0 0 -223.57789993876031 226.98611454763704 0 226.98611454763704 -240.71456794360893 0 0 0 0 -202.33600698474993 301.69406847385903 0 301.69406847385903 -123.80197139911252 0 0 0 0 -204.92676262627083 315.88231381228525 0 315.88231381228525 -169.9397812360146 0 0 0 0 -296.00200965601653 167.07768007016057 0 167.07768007016057 -75.364989449389896 0 0 0 0 -302.17161637294248 249.85710792308555 0 249.85710792308555 -0.23379159046726272 0 0 0 0 -0.56272882433239957 0.38525087758842957 0 0.38525087758842957 0.15603346625266568 0 0 0 0 -256.98530329878031 266.43173687169565 0 266.43173687169565 -306.39013398254065 0 0 0 0 -265.33602844666166 239.44600172884384 0 239.44600172884384 -105.58756340936634 0 0 0 0 -266.91790563821996 252.6287132836751 0 252.6287132836751 -93.360767396250594 0 0 0 0 -223.04562866786182 251.62629231117353 0 251.62629231117353 -130.66455874616258 0 0 0 0 -90.543992207467454 136.78309721528876 0 136.78309721528876 -0.29183803743762837 0 0 0 0 -123.44968383725303 195.69842508039088 0 195.69842508039088 -101.94099535373061 0 0 0 0 -123.63180457780254 177.73544085024514 0 177.73544085024514 -152.68303176866539 0 0 0 0 -0.61196479554861227 0.39384828314588916 0 0.39384828314588916 0.16978096295481748 0 0 0 0 -167.68190530200445 114.02798780663034 0 114.02798780663034 -130.20267419430638 0 0 0 0 -153.22705621989735 138.20856234860184 0 138.20856234860184 -92.667835915574415 0 0 0 0 -5.9506289723074772 -1.084759147170395 0 -1.084759147170395 0.23188322350585011 0 0 0 0 72.66765806308922 104.47534063320722 0 104.47534063320722 -322.64596718729081 0 0 0 0 -83.111898925378227 9.9952233458784576 0 9.9952233458784576 -43.846756312368598 0 0 0 0 -316.85982415065882 303.30209921793994 0 303.30209921793994 -154.68740554284886 0 0 0 0 -166.91485755647409 168.48178251280933 0 168.48178251280933 -72.839682642654225 0 0 0 0 -14.706573572811578 -3.7046418408019122 0 -3.7046418408019122 -110.13927441519263 0 0 0 0 -158.3852307934394 179.21052991584475 0 179.21052991584475 -66.74632659845679 0 0 0 0 -10.362874131911326 122.79311698720841 0 122.79311698720841 -117.09709011253653 0 0 0 0 -113.44059616891354 52.782162580276236 0 52.782162580276236 -139.88842861947705 0 0 0 0 -232.63197125188162 106.69056512659608 0 106.69056512659608 -100.66291883422673 0 0 0 0 -343.30002941596467 158.58467940591072 0 158.58467940591072 -62.12989715544154 0 0 0 0 -217.82649987678042 152.36741350229681 0 152.36741350229681 -98.492856980737997 0 0 0 0 -408.9481677499025 104.07108739546311 0 104.07108739546311 -98.844416677058689 0 0 0 0 -332.14488109170088 203.93580095776997 0 203.93580095776997 -124.62651321379963 0 0 0 0 -199.23636123126198 118.45673818695832 0 118.45673818695832 -320.7177493249801 0 0 0 0 -411.32801215922518 246.4483152681787 0 246.4483152681787 -200.43397420357724 0 0 0 0 -256.22249253640621 205.78006346375696 0 205.78006346375696 -190.57755440158508 0 0 0 0 -2.6075595035741159 -0.34088499334242073 0 -0.34088499334242073 -0.10839122247354283 0 0 0 0 -322.88560213514575 383.62223890279347 0 383.62223890279347 -274.10517938502289 0 0 0 0 -107.32438992526113 -43.758068393643953 0 -43.758068393643953 -22.245754734285583 0 0 0 0 -243.69921557839189 28.474671214031332 0 28.474671214031332 -48.753931950785045 0 0 0 0 -138.6655531772285 39.471749082066253 0 39.471749082066253 -103.56781536386916 0 0 0 0 -143.63368440816703 46.606858580487824 0 46.606858580487824 -105.68833065652757 0 0 0 0 -221.93924294995668 240.75502906701331 0 240.75502906701331 -241.50549579413655 0 0 0 0 -41.387409921213475 114.30614095453348 0 114.30614095453348 -170.13463859355397 0 0 0 0 -213.97920382853044 74.862281292289481 0 74.862281292289481 -45.674851906720505 0 0 0 0 -122.02318546000242 110.01096437503293 0 110.01096437503293 -39.540138317900983 0 0 0 0 -141.70532400417142 55.61375489744205 0 55.61375489744205 -100.1909452184168 0 0 0 0 -138.14937988775455 57.715356833527039 0 57.715356833527039 -100.8141489468544 0 0 0 0 -174.20477520093118 102.06392599493483 0 102.06392599493483 -94.207359409154378 0 0 0 0 -170.3239284887004 64.513088073646941 0 64.513088073646941 -30.593047509313692 0 0 0 0 -150.81538112694125 99.804789007489717 0 99.804789007489717 34.79015055732998 0 0 0 0 -194.34907552279765 131.31563639741489 0 131.31563639741489 11.981826898412692 0 0 0 0 -70.25880361434065 52.798061392606542 0 52.798061392606542 20.534586147610753 0 0 0 0 -138.5171761220131 138.38879084827022 0 138.38879084827022 77.445512049695026 0 0 0 0 -366.35563331585581 189.40796563035474 0 189.40796563035474 -259.71414734960945 0 0 0 0 -411.76992216343206 36.248622457100282 0 36.248622457100282 -171.51244142372161 0 0 0 0 -654.92245326255215 211.63572722191293 0 211.63572722191293 -103.76564584629887 0 0 0 0 -363.63808933518158 163.94542762100536 0 163.94542762100536 -130.22206490280951 0 0 0 0 -370.42900380607534 178.0693450034305 0 178.0693450034305 -78.083728923840681 0 0 0 0 -226.6624654331099 109.3441495250172 0 109.3441495250172 -195.268114019731 0 0 0 0 -173.36651061537123 99.081404942564404 0 99.081404942564404 -146.06362549104847 0 0 0 0 -202.33243877047425 131.47496525028509 0 131.47496525028509 -141.9851868586502 0 0 0 0 -226.316791232475 103.35523984404233 0 103.35523984404233 -96.052269527892349 0 0 0 0 -196.87350739310205 107.69436643910103 0 107.69436643910103 -38.772102965613158 0 0 0 0 -191.6095543769261 124.3685302386466 0 124.3685302386466 -59.764622781611251 0 0 0 0 -246.41376745299567 119.21650973347369 0 119.21650973347369 23.211651427354809 0 0 0 0 -274.87869072789181 155.9287425798193 0 155.9287425798193 -19.503854360575133 0 0 0 0 -270.15699117052236 130.133946251883 0 130.133946251883 -60.008751017216127 0 0 0 0 -319.25531684150337 160.8841907189435 0 160.8841907189435 16.244724635454986 0 0 0 0 -258.58831722198738 20.759324035605459 0 20.759324035605459 31.894910928066793 0 0 0 0 -348.16963856302755 64.437970365885576 0 64.437970365885576 66.865560650669067 0 0 0 0 -589.3288335338857 79.644292325633614 0 79.644292325633614 26.126166563633888 0 0 0 0 -215.9058227094265 66.309520454958147 0 66.309520454958147 56.817869165810407 0 0 0 0 -253.1284065275504 106.59242550071394 0 106.59242550071394 58.708061460232784 0 0 0 0 -260.35983287081035 116.43420747129994 0 116.43420747129994 86.341635486423911 0 0 0 0 -251.09955278933057 161.00762649418971 0 161.00762649418971 38.114688909698089 0 0 0 0 -219.52803438933006 129.91600543823552 0 129.91600543823552 64.844360852250247 0 0 0 0 -215.63607847049025 135.23370068727672 0 135.23370068727672 79.463196259421238 0 0 0 0 -208.43640139194758 119.23566136584395 0 119.23566136584395 101.63336309161423 0 0 0 0 -232.5106664734376 143.51161233313815 0 143.51161233313815 83.595757693041378 0 0 0 0 -163.81590283945479 85.326214367932153 0 85.326214367932153 108.30321397802209 0 0 0 0 -185.26834358938686 106.42862096287627 0 106.42862096287627 99.567587752098916 0 0 0 0 -215.59842681755617 91.215198162002707 0 91.215198162002707 97.142482407845819 0 0 0 0 -156.1291228515347 97.343250498476664 0 97.343250498476664 91.865490443758972 0 0 0 0 -26.902010606650947 131.07566574753582 0 131.07566574753582 39.486045845666013 0 0 0 0 -197.21842750976793 158.85432458318246 0 158.85432458318246 56.989099803311092 0 0 0 0 -226.71791271621623 141.29976741841165 0 141.29976741841165 80.991881864509196 0 0 0 0 -160.35661054569209 141.76490854637905 0 141.76490854637905 60.130064403330834 0 0 0 0 -202.82334719902337 132.50136383476161 0 132.50136383476161 84.994945289199677 0 0 0 0 -182.46699043553417 152.65443703594428 0 152.65443703594428 63.303476970339943 0 0 0 0 -205.30999196651646 141.43375884925899 0 141.43375884925899 78.571587142120734 0 0 0 0 -30.004971872647729 90.935444861621363 0 90.935444861621363 44.680565131031472 0 0 0 0 11.043257936871669 134.85011939920878 0 134.85011939920878 46.89286927826106 0 0 0 0 -0.10600560402425251 296.43039650983536 0 296.43039650983536 -212.98803736418813 0 0 0 0 -1.3101560950320934 3.2133006708908241 0 3.2133006708908241 -3.9760931392186549 0 0 0 0 -10.269140429767504 70.883380208103517 0 70.883380208103517 97.605252512800689 0 0 0 0 148.55926358343822 188.46853206834294 0 188.46853206834294 -36.575239673804845 0 0 0 0 147.74324453791633 21.880922624621235 0 21.880922624621235 -19.664775916613507 0 0 0 0 180.51094637212191 69.872520876104318 0 69.872520876104318 36.396437962621349 0 0 0 0 149.33762675100661 110.67674084651208 0 110.67674084651208 18.715497864763165 0 0 0 0 290.02484070107857 91.196091930353305 0 91.196091930353305 -20.07552688648957 0 0 0 0 19.977347557998655 46.123082870659346 0 46.123082870659346 -242.5369500361553 0 0 0 0 19.430916025456099 58.0159881025711 0 58.0159881025711 50.485123368907807 0 0 0 0 0.39507295287159394 0.18441013698820186 0 0.18441013698820186 -0.41876724735980986 0 0 0 0 0.15168427064054413 230.45996359049377 0 230.45996359049377 -378.99623085548956 0 0 0 0 -55.550652210111821 332.19409214036705 0 332.19409214036705 -248.2245433465323 0 0 0 0 -88.15682173444111 266.21233882174238 0 266.21233882174238 -98.284391675543247 0 0 0 0 -21.811430766009835 101.81975151568258 0 101.81975151568258 31.20470373588978 0 0 0 0 -394.91635784123264 302.34139573624043 0 302.34139573624043 3.9176633265542478 0 0 0 0 -0.70567070858896841 1.8391498696325215 0 1.8391498696325215 -2.4942349581137151 0 0 0 0 440.77970064103283 92.429511996598194 0 92.429511996598194 -282.42324851145349 0 0 0 0 -46.491852350673071 92.72473689286835 0 92.72473689286835 -59.750694376565662 0 0 0 0 19.68766831569701 144.39651045658593 0 144.39651045658593 -81.88690996369678 0 0 0 0 34.468388612507624 74.515456451145837 0 74.515456451145837 133.80692096553867 0 0 0 0 251.72943675981696 202.5984422499273 0 202.5984422499273 20.128530777312335 0 0 0 0 -1.3989403249973797 3.7698691565554299 0 3.7698691565554299 -5.0398262578638224 0 0 0 0 -17.294493339666587 14.507254038758219 0 14.507254038758219 6.8952963103702132 0 0 0 0 -18.235588384658968 11.066067274389297 0 11.066067274389297 -2.0314255594057613 0 0 0 0 -2.0421072680601355 5.7178026469064207 0 5.7178026469064207 5.819400487135681 0 0 0 0 -13.071741423674212 6.3618100655585295 0 6.3618100655585295 17.881555171265063 0 0 0 0 -9.7828583735094981 7.748198353856651 0 7.748198353856651 5.3421084802193946 0 0 0 0 -10.338249366879609 4.3202964793063074 0 4.3202964793063074 -0.44714820272838551 0 0 0 0 -15.794110600218119 9.5608428339764941 0 9.5608428339764941 -5.4805004602476401 0 0 0 0 -0.17696461768036897 5.8746827580675927 0 5.8746827580675927 -23.30692492182061 0 0 0 0 -14.521725895544233 6.4252620598774612 0 6.4252620598774612 -0.41345618427719533 0 0 0 0 -18.208907333028037 3.329019878518011 0 3.329019878518011 -3.4964443185854179 0 0 0 0 4.225906766679163 2.8641102496976387 0 2.8641102496976387 -0.072789204287651121 0 0 0 0 3.6289027693228491 1.0955703386589448 0 1.0955703386589448 -0.43549011046343367 0 0 0 0 -21.213552939840156 16.148167501014541 0 16.148167501014541 -28.196527307279439 0 0 0 0 -0.98285423681227257 2.1739920227782932 0 2.1739920227782932 5.6802882468455209 0 0 0 0 4.5996092796346773 5.7230478098256299 0 5.7230478098256299 4.0361926092446083 0 0 0 0 2.7669172599380545 2.7044805640362028 0 2.7044805640362028 -0.0032410479288955685 0 0 0 0 1.4754746415947011 -0.62271052258984128 0 -0.62271052258984128 8.4718972244093038 0 0 0 0 -21.166785766725297 -0.78376718128629363 0 -0.78376718128629363 0.64899075198081846 0 0 0 0 -2.6118096007977485 2.555140366148084 0 2.555140366148084 0.32770426954256654 0 0 0 0 -2.2805102737747802 5.4113546118392151 0 5.4113546118392151 -1.1025098323461862 0 0 0 0 -1.0907196542022177 0.69440278618975171 0 0.69440278618975171 0.15789667330590973 0 0 0 0 3.1879409084631334 -4.3018342401737755 0 -4.3018342401737755 7.8544968180794967 0 0 0 0 -8.9419436496261362 2.7855563521509126 0 2.7855563521509126 -0.36057932485829269 0 0 0 0 3.8954725864878128 -2.5569887952397039 0 -2.5569887952397039 2.6982822216778004 0 0 0 0 4.4430564880913153 -3.5800783032273102 0 -3.5800783032273102 3.475010994119657 0 0 0 0 2.965282544011643 0.90435376183995686 0 0.90435376183995686 1.7785812843940221 0 0 0 0 1.5893459043691109 0.60930275823193369 0 0.60930275823193369 5.8219972772176334 0 0 0 0 -5.4702780968709703 -3.520679144312453 0 -3.520679144312453 0.076393268413057047 0 0 0 0 -17.487788258570617 9.354139880094408 0 9.354139880094408 -5.8862021196673595 0 0 0 0 -12.389348972437801 -3.7776292100488718 0 -3.7776292100488718 16.621601724646098 0 0 0 0 -63.693854294338962 -67.370812858454883 0 -67.370812858454883 56.866389585207344 0 0 0 0 2.6921916217734179 1.6721126798383921 0 1.6721126798383921 13.312147763384928 0 0 0 0 -0.83258839922256911 0.077004714150469056 0 0.077004714150469056 0.43511361519383251 0 0 0 0 -11.02546811286993 -12.975906429306633 0 -12.975906429306633 0.90353316455002641 0 0 0 0 2.1263927664769824 5.6586713806983049 0 5.6586713806983049 3.056054948029427 0 0 0 0 -13.77109475915378 1.8842622499313002 0 1.8842622499313002 0.86556229266832041 0 0 0 0 -8.8427509710199956 37.394131812194246 0 37.394131812194246 19.65300383655449 0 0 0 0 -0.62985353615658823 24.480841399416022 0 24.480841399416022 10.967162229990208 0 0 0 0 -2.6276189368199994 10.520634366700278 0 10.520634366700278 4.0571290578809567 0 0 0 0 -5.9464251456323183 5.2803004704107934 0 5.2803004704107934 0.28198026861885284 0 0 0 0 -3.2773593557139975 7.29345399295471 0 7.29345399295471 -1.5828367421396479 0 0 0 0 -2.0574411547640921 3.0241612257323141 0 3.0241612257323141 -5.4999854620346014 0 0 0 0 -4.5191114174676841 6.3649228370645687 0 6.3649228370645687 5.4789740414253174 0 0 0 0 -4.8209473195049952 3.1292787758444547 0 3.1292787758444547 -0.89608883321660215 0 0 0 0 -2.713907936375108 10.952878770292045 0 10.952878770292045 9.5170573854984468 0 0 0 0 -4.3072933225732442 4.1747913927985074 0 4.1747913927985074 -0.19672112281301324 0 0 0 0 -3.8889225918610464 9.1855864156896132 0 9.1855864156896132 4.8402007537665668 0 0 0 0 -5.681236833355797 3.5256552422979439 0 3.5256552422979439 2.4236467806777 0 0 0 0 -0.58325814913405338 15.857514457520665 0 15.857514457520665 -10.082475733237516 0 0 0 0 -3.8756870634108438 6.5098647192412749 0 6.5098647192412749 0.092225016222073464 0 0 0 0 -1.9317546989768886 3.796707334560665 0 3.796707334560665 5.723336672696874 0 0 0 0 -47.834321372734848 40.896405521329143 0 40.896405521329143 -9.2680352107502131 0 0 0 0 -0.492453578975244 0.45334771304049326 0 0.45334771304049326 2.491012383461495 0 0 0 0 21.150991239437644 18.570611152470065 0 18.570611152470065 -61.818767576280152 0 0 0 0 8.1573934799962444 30.348481319907478 0 30.348481319907478 -33.497639907312987 0 0 0 0 6.6717006801281968 63.327118982325374 0 63.327118982325374 30.028505234598924 0 0 0 0 17.164453246783523 31.412775421529659 0 31.412775421529659 -34.657518736810744 0 0 0 0 -53.612778811335374 8.8645995644064897 0 8.8645995644064897 122.34361202704895 0 0 0 0 -12.254428082680306 2.0156060492061592 0 2.0156060492061592 -0.057725909225391003 0 0 0 0 -21.411501864142338 50.541471724436633 0 50.541471724436633 83.484365280133716 0 0 0 0 15.51655162183124 34.772363120478076 0 34.772363120478076 -39.823951856509666 0 0 0 0 -53.772056717279156 39.294796820196552 0 39.294796820196552 10.250473894899187 0 0 0 0 -21.304797741697257 -13.413532658594704 0 -13.413532658594704 1.3825153070029046 0 0 0 0 -4.4067896759625 3.4340138179777568 0 3.4340138179777568 -69.51595638372055 0 0 0 0 32.079314161535876 -3.6386870354326675 0 -3.6386870354326675 22.049927775006836 0 0 0 0 100.39628949307462 17.016770896064372 0 17.016770896064372 -64.634632096405767 0 0 0 0 -16.859885275355737 4.7604939368923169 0 4.7604939368923169 -31.89098454401028 0 0 0 0 -33.583529821001321 0.30629686020984082 0 0.30629686020984082 -0.31180178043723572 0 0 0 0 -59.944798241158423 9.8945820384496983 0 9.8945820384496983 -0.95560690087950206 0 0 0 0 -155.72109977991477 182.7862751990433 0 182.7862751990433 -188.10876151639241 0 0 0 0 51.147382755181752 -113.29589096289055 0 -113.29589096289055 -5.2488784946781379 0 0 0 0 -56.134800033871215 -35.385521200415496 0 -35.385521200415496 173.47841231852362 0 0 0 0 -408.13117399439579 423.13712129704527 0 423.13712129704527 -323.9760901962054 0 0 0 0 -761.72520953544335 488.46436614134745 0 488.46436614134745 -148.48937734330502 0 0 0 0 -5.3764581876314921 1.3530551092090342 0 1.3530551092090342 -0.16387518380191501 0 0 0 0 -600.35860275661616 198.80396395369098 0 198.80396395369098 -136.5431169988733 0 0 0 0 14.231518519818565 214.62962085704385 0 214.62962085704385 -321.66965796545264 0 0 0 0 -661.79195230543337 250.69065266232974 0 250.69065266232974 0.17556276200957655 0 0 0 0 -173.21902548772596 150.38708571007464 0 150.38708571007464 -234.74458482816044 0 0 0 0 -286.0489872823091 -0.56227843897613639 0 -0.56227843897613639 140.3636119665498 0 0 0 0 -838.35245149376715 386.72162806398228 0 386.72162806398228 -266.03087709165447 0 0 0 0 -3.9888986786876046 -0.21837546105289363 0 -0.21837546105289363 0.42556867313337676 0 0 0 0 22.859730443703029 319.05836112295401 0 319.05836112295401 -505.66002130966081 0 0 0 0 -707.7365275666707 515.53657731389558 0 515.53657731389558 -160.10760452985778 0 0 0 0 -351.48192608405498 268.73809454816455 0 268.73809454816455 1.4588296411056945 0 0 0 0 -546.94928537362466 -38.79394942338331 0 -38.79394942338331 159.45546923021368 0 0 0 0 -37.460551049958667 -6.7389760332107471 0 -6.7389760332107471 -5.8558478274771915 0 0 0 0 15.337171720081642 61.076858314657329 0 61.076858314657329 -28.514172321680235 0 0 0 0 -33.904063781192235 -24.079779902845985 0 -24.079779902845985 -12.944127498298258 0 0 0 0 -422.48162480559768 184.53041097236201 0 184.53041097236201 -32.834962334860393 0 0 0 0 -4.2304862477867573 97.544470763497884 0 97.544470763497884 -128.163655680597 0 0 0 0 -466.84602289676332 111.37100250571893 0 111.37100250571893 -4.0137273478994757 0 0 0 0 -371.2767914909291 227.89562441272301 0 227.89562441272301 3.2876835676033807 0 0 0 0 -316.05421191857386 -235.51786036419617 0 -235.51786036419617 -17.729961015510526 0 0 0 0 -1.4328940757913671 -0.075286328474057029 0 -0.075286328474057029 2.8481004591272141 0 0 0 0 -1.8944278429306038 2.8667734161148282 0 2.8667734161148282 0.72683446710768607 0 0 0 0 -617.47852981511824 257.79954364769856 0 257.79954364769856 -98.047327493441117 0 0 0 0 40.091594442909809 10.273552465917874 0 10.273552465917874 -80.509224845925928 0 0 0 0 -60.70301418834606 73.483013600195591 0 73.483013600195591 -29.964151960513846 0 0 0 0 -7.655919186715245 8.1745907590105986 0 8.1745907590105986 4.5923663470545311 0 0 0 0 -14.744659915770171 8.3697634149084479 0 8.3697634149084479 -24.369273959074235 0 0 0 0 -48.587612871253441 18.394636336814074 0 18.394636336814074 46.831509822379303 0 0 0 0 -0.93306705844899085 1.9636167721069668 0 1.9636167721069668 -3.1715990278796724 0 0 0 0 -25.88017167752696 15.213987695857213 0 15.213987695857213 30.167956925136423 0 0 0 0 -4.7560788897385464 -15.124938773351914 0 -15.124938773351914 53.891352684124286 0 0 0 0 -118.72632056457769 -22.48655846652855 0 -22.48655846652855 -61.634699512715088 0 0 0 0 -1.3295024266688973 -2.2414993842673923 0 -2.2414993842673923 14.217995119379751 0 0 0 0 -21.253762656004255 -12.039115810029216 0 -12.039115810029216 47.126227637450938 0 0 0 0 -264.69465185328681 10.710613521834148 0 10.710613521834148 42.613950308536005 0 0 0 0 -25.744228474981355 41.213742290874052 0 41.213742290874052 36.868239752709997 0 0 0 0 -130.78365460097484 -31.597201313103142 0 -31.597201313103142 55.754235414937284 0 0 0 0 -220.46106603957651 62.518754452501071 0 62.518754452501071 78.291331398315378 0 0 0 0 -101.97395710971978 39.09960279830193 0 39.09960279830193 79.932985453327092 0 0 0 0 -95.016529620239908 52.331134811197671 0 52.331134811197671 74.609202907675353 0 0 0 0 0.3214752063234414 -1.5652004692000254 0 -1.5652004692000254 8.3346826267980276 0 0 0 0 -13.000984452026387 -2.1694646274017941 0 -2.1694646274017941 -0.48778068724732293 0 0 0 0 -50.80607911288007 -9.8926477986476584 0 -9.8926477986476584 15.390623677694748 0 0 0 0 -17.497579862693328 16.434969609504151 0 16.434969609504151 16.323903928741856 0 0 0 0 -12.386199244130694 8.6144211831169741 0 8.6144211831169741 10.356788881237662 0 0 0 0 -21.063950132423997 3.2246780968043822 0 3.2246780968043822 14.213531244409296 0 0 0 0 -32.340790151078181 8.836768420757835 0 8.836768420757835 18.46843495653593 0 0 0 0 -20.01563230485408 -2.5464810264038533 0 -2.5464810264038533 41.449046640479992 0 0 0 0 -23.994001577861127 19.668048112557699 0 19.668048112557699 24.72569782665596 0 0 0 0 -2.6766237297269981 20.017871913290037 0 20.017871913290037 14.754508046673891 0 0 0 0 -12.544694826660702 16.650274532935981 0 16.650274532935981 17.94388616730248 0 0 0 0 -9.4530305843873066 16.476326222265016 0 16.476326222265016 14.188509098597933 0 0 0 0 -1.7501555544258736 5.6075452142595168 0 5.6075452142595168 18.120416132250739 0 0 0 0 -6.1698288032202981 7.5299887100336491 0 7.5299887100336491 23.21904994385477 0 0 0 0 -11.051698760403269 11.000751915601313 0 11.000751915601313 25.957911441557371 0 0 0 0 -3.1796704530970601 6.2211551950167632 0 6.2211551950167632 -6.3935162832458445 0 0 0 0 -3.4903069206115163 4.5176173738858623 0 4.5176173738858623 2.254301338598399 0 0 0 0 -9.1499920763581031 1.339648090422088 0 1.339648090422088 39.556391212993731 0 0 0 0 -3.9515644680361106 5.1558347387820795 0 5.1558347387820795 2.0829573132959167 0 0 0 0 -5.6946615005617787 6.6995154172473121 0 6.6995154172473121 0.081614275017727778 0 0 0 0 -9.7659019189250102 8.4968365066147271 0 8.4968365066147271 29.466389394712678 0 0 0 0 -3.875120447052474 5.3073324491070757 0 5.3073324491070757 1.1528459476795185 0 0 0 0 -2.4761102787306299 6.3865248825723029 0 6.3865248825723029 -2.8305275027105381 0 0 0 0 -0.76473998921210296 8.156518121983936 0 8.156518121983936 1.1572495733544201 0 0 0 0 -11.247638573186123 10.665690756770346 0 10.665690756770346 19.63032989223575 0 0 0 0 -3.87301835392946 6.5736508541762042 0 6.5736508541762042 -1.2812624047951111 0 0 0 0 -26.633720178027943 32.257266540649653 0 32.257266540649653 -1.4812123330530085 0 0 0 0 6.2663722196921299 25.99219926786418 0 25.99219926786418 -56.805100481769841 0 0 0 0 -9.1463177142995846 2.7427754971763534 0 2.7427754971763534 7.1546888020666302 0 0 0 0 -3.3480687770534132 24.778836097182648 0 24.778836097182648 -15.297201443136146 0 0 0 0 3.4697001294844085 63.816019963387589 0 63.816019963387589 25.979294947022026 0 0 0 0 -44.905263011098214 21.164881284285912 0 21.164881284285912 50.357841879212174 0 0 0 0 -26.185965254596567 27.959240031783452 0 27.959240031783452 52.149186473869122 0 0 0 0 -39.271889085481234 66.953834809586624 0 66.953834809586624 82.360088882280252 0 0 0 0 0.11774512227930245 45.885356030328694 0 45.885356030328694 91.445060671782358 0 0 0 0 17.168312572126524 -12.294649718378423 0 -12.294649718378423 -56.200763144183199 0 0 0 0 -13.746482456508602 85.39367435444592 0 85.39367435444592 83.768240351999339 0 0 0 0 0.36897849658361537 0.44973886454262679 0 0.44973886454262679 -0.79620778732985897 0 0 0 0 18.808772624881385 -20.757284951170732 0 -20.757284951170732 -16.00283768164627 0 0 0 0 9.5002428868756397 -0.70168308200754836 0 -0.70168308200754836 -40.555882261760416 0 0 0 0 9.2715405726703466 -1.1525747604437129 0 -1.1525747604437129 -0.68921795869300695 0 0 0 0 155.10533799402401 88.385305698880984 0 88.385305698880984 59.862454946527578 0 0 0 0 -1.6355173264691985 -31.245876884224344 0 -31.245876884224344 12.607413685618667 0 0 0 0 70.246948342832184 139.67424364045064 0 139.67424364045064 201.89831259248058 0 0 0 0 0.51151202949569097 0.86785965587098879 0 0.86785965587098879 -1.4685607335057469 0 0 0 0 -40.283710090701788 35.886397480257983 0 35.886397480257983 -14.932245052993039 0 0 0 0 22.96222921003573 -1.1668781656735518 0 -1.1668781656735518 -31.605629663721629 0 0 0 0 -30.473506892032674 42.095857215930664 0 42.095857215930664 -40.134076879685381 0 0 0 0 20.38571344056254 -0.91966577185303322 0 -0.91966577185303322 -18.522420579680329 0 0 0 0 -0.46053472417545294 -0.59131415502979934 0 -0.59131415502979934 0.10924995611456012 0 0 0 0 -11.167655336908865 -12.422345711114303 0 -12.422345711114303 -6.4609239291366976 0 0 0 0 -11.451074681632235 -2.0661625909951908 0 -2.0661625909951908 15.647462443754193 0 0 0 0 5.5568957948707975 13.603429835315183 0 13.603429835315183 -25.829291397724774 0 0 0 0 6.8163112226629892 6.5265850667265113 0 6.5265850667265113 -14.17364424257903 0 0 0 0 -2.0991763278047149 1.5979876559916519 0 1.5979876559916519 -2.0100672417619379 0 0 0 0 -20.736495061695678 15.389807214788561 0 15.389807214788561 -1.996260895361047 0 0 0 0 -5.8559004802125258 5.9252818843187489 0 5.9252818843187489 -6.5437509421818554 0 0 0 0 4.4498416222231754 12.554104806615214 0 12.554104806615214 -7.5478183577297386 0 0 0 0 -6.4519640839742038 8.1059626676484218 0 8.1059626676484218 -6.9042993105807078 0 0 0 0 8.2308196250005494 15.41662835919351 0 15.41662835919351 -15.664625930041439 0 0 0 0 4.3526826121978957 14.223804704187387 0 14.223804704187387 -13.373519437071081 0 0 0 0 5.4007457747538865 16.813143134763777 0 16.813143134763777 -31.786355377012114 0 0 0 0 -12.348908017149995 28.291460268762876 0 28.291460268762876 5.9525480531538051 0 0 0 0 -0.38928610777219319 1.3976128225061473 0 1.3976128225061473 -1.7881741258273847 0 0 0 0 -7.2141616474066126 8.5224482453978538 0 8.5224482453978538 -5.3014733222768644 0 0 0 0 -16.055744075226812 7.7769989927762708 0 7.7769989927762708 -7.2940120594957989 0 0 0 0 -23.153854755237262 23.035063134810116 0 23.035063134810116 6.3323962633385236 0 0 0 0 1.9485673975377722 3.9906065416671481 0 3.9906065416671481 0.38897886599806952 0 0 0 0 1.1970033142583816 2.7560476551593638 0 2.7560476551593638 2.6930142603341665 0 0 0 0 0.67181055732127248 2.5266720565610221 0 2.5266720565610221 4.262907255772177 0 0 0 0 0.34556526237429352 5.7208805730133463 0 5.7208805730133463 -0.80620022544644598 0 0 0 0 2.3698338644753676 4.2388416531166513 0 4.2388416531166513 6.0097982355478052 0 0 0 0 -15.004906782942271 14.198039419980887 0 14.198039419980887 3.4506240587204502 0 0 0 0 2.5305303575679012 4.1723470860414871 0 4.1723470860414871 2.311026937566659 0 0 0 0 -0.47745605240197619 16.692369310903814 0 16.692369310903814 -5.8948341801124116 0 0 0 0 -8.399182641979678 21.229519903101391 0 21.229519903101391 -2.0832349690044794 0 0 0 0 -20.638253876502858 8.2500249846043516 0 8.2500249846043516 2.1203787636632114 0 0 0 0 -3.2027386214558646 -0.30363142248688746 0 -0.30363142248688746 5.4725016441443586 0 0 0 0 -0.3811966101687041 0.30239909211169191 0 0.30239909211169191 1.1847643535497241 0 0 0 0 143.16258116762765 173.17681928700677 0 173.17681928700677 222.72503160180349 0 0 0 0 -0.55913954641807351 0.52799969566209803 0 0.52799969566209803 2.4273263223535082 0 0 0 0 129.69902543300532 128.17702818463249 0 128.17702818463249 95.218425524213671 0 0 0 0 111.37718288223311 142.11716197176469 0 142.11716197176469 85.191787704288799 0 0 0 0 112.80694370885976 60.499402530866973 0 60.499402530866973 86.166291184797956 0 0 0 0 19.485305908056034 79.798172986875215 0 79.798172986875215 112.0370675260383 0 0 0 0 43.586468253330167 51.371362352774668 0 51.371362352774668 -46.224942835659022 0 0 0 0 199.25667949350827 68.749361031170338 0 68.749361031170338 58.921395002851568 0 0 0 0 81.755119833009303 142.82971126056054 0 142.82971126056054 72.147571848097868 0 0 0 0 165.23623679995944 145.04628933998174 0 145.04628933998174 49.470602966186561 0 0 0 0 21.234827233824944 -8.4947627169503903 0 -8.4947627169503903 21.817877807145123 0 0 0 0 1.5150120533177542 1.1291947082926255 0 1.1291947082926255 -2.9451618192434097 0 0 0 0 247.07672445865501 190.60901004210064 0 190.60901004210064 66.974258903448572 0 0 0 0 -131.38458768272176 -25.772763905429201 0 -25.772763905429201 34.875449489456514 0 0 0 0 -99.899610636675789 -17.59346275794087 0 -17.59346275794087 5.7670415084212436 0 0 0 0 -0.10932591709455863 0.1433327690067312 0 0.1433327690067312 0.40415805046908559 0 0 0 0 259.26570818603068 122.63527016346052 0 122.63527016346052 21.692935181237772 0 0 0 0 -38.700068983725942 4.1380748593373937 0 4.1380748593373937 -4.6993165132980721 0 0 0 0 -36.75836068170247 22.924650343470603 0 22.924650343470603 9.8796364217341761 0 0 0 0 -19.645206451247759 9.2250005284677172 0 9.2250005284677172 -4.4996422523981892 0 0 0 0 -63.70662469929448 16.008952001032412 0 16.008952001032412 8.6266469956208311 0 0 0 0 -46.36901912004214 40.619984669640871 0 40.619984669640871 20.293839769507031 0 0 0 0 -31.158256383492699 50.484104456134446 0 50.484104456134446 11.84133732765622 0 0 0 0 -49.454222456159187 42.692571244382634 0 42.692571244382634 23.075272919653798 0 0 0 0 -61.306097244834746 31.765636293868283 0 31.765636293868283 34.203172327928769 0 0 0 0 -50.846760571213963 28.707944910742299 0 28.707944910742299 21.892442965141868 0 0 0 0 -123.21846671142202 20.496205872704081 0 20.496205872704081 56.795383199963908 0 0 0 0 -50.256012699694111 28.228966272748949 0 28.228966272748949 45.773454916712581 0 0 0 0 -51.185502246832584 29.058336737304899 0 29.058336737304899 47.314970286559401 0 0 0 0 -44.926439347738778 38.693093190952368 0 38.693093190952368 47.809081001221784 0 0 0 0 -46.266876123037946 44.039684428713372 0 44.039684428713372 28.096121242828303 0 0 0 0 -54.228368880940252 64.250895924808901 0 64.250895924808901 32.418322126881321 0 0 0 0 -16.095634569427602 68.002467311618148 0 68.002467311618148 2.9944572070053255 0 0 0 0 -12.758339745672856 53.152501376234795 0 53.152501376234795 -26.163218972218601 0 0 0 0 -36.774975510692457 59.310517506391989 0 59.310517506391989 9.7949476918474829 0 0 0 0 -28.238616678603648 43.298411201874842 0 43.298411201874842 0.73440876558925083 0 0 0 0 -25.346287934858992 25.474214344566462 0 25.474214344566462 4.535126178653627 0 0 0 0 -14.171479380416713 42.817719739382483 0 42.817719739382483 -5.7233176449408347 0 0 0 0 -6.8745111128891949 30.295467323106095 0 30.295467323106095 -22.134316786683485 0 0 0 0 4.7385610539840854 16.022449834266808 0 16.022449834266808 -9.621114216101887 0 0 0 0 -9.1799048502871301 20.651541213213022 0 20.651541213213022 -0.53915011832395976 0 0 0 0 6.4884622022746044 24.827504661121566 0 24.827504661121566 -50.335724190725159 0 0 0 0 -3.4852639140262909 51.803820670719688 0 51.803820670719688 -29.543174620554055 0 0 0 0 24.986984339846458 10.205624784454812 0 10.205624784454812 -71.607647396497669 0 0 0 0 5.9716674304927437 59.897287946733286 0 59.897287946733286 -36.157196073132582 0 0 0 0 -5.1519118616160995 93.432148572998813 0 93.432148572998813 -135.21387758910714 0 0 0 0 -61.348746034020223 173.4856140482907 0 173.4856140482907 -206.63024319754732 0 0 0 0 -0.65904617783952801 -0.2029835259490298 0 -0.2029835259490298 -0.18162630585010575 0 0 0 0 28.766165776554772 -24.527624788105641 0 -24.527624788105641 -4.0865313428766967 0 0 0 0 88.400566001666448 136.91916507316182 0 136.91916507316182 -39.294544705884618 0 0 0 0 2.1176843192833985 34.247714174421162 0 34.247714174421162 -105.58582321477661 0 0 0 0 -32.70260711521405 94.826131874014209 0 94.826131874014209 -14.659647594456146 0 0 0 0 -77.935988971174083 102.15544632521141 0 102.15544632521141 -15.38901875146621 0 0 0 0 -22.049670871013404 85.92456890793801 0 85.92456890793801 -47.579425619111134 0 0 0 0 -49.837944107022849 106.40834958371124 0 106.40834958371124 36.349878539609563 0 0 0 0 -54.70505488627532 59.955772333107234 0 59.955772333107234 74.434290121958838 0 0 0 0 -71.041523684105414 45.852873171641477 0 45.852873171641477 63.865920470769197 0 0 0 0 -39.159570649115267 9.4144483668526391 0 9.4144483668526391 70.885434823105243 0 0 0 0 -58.997084474660369 39.182330268256464 0 39.182330268256464 65.768379100867605 0 0 0 0 -38.503773482068937 -62.578950663123578 0 -62.578950663123578 82.901936581181872 0 0 0 0 -20.309203983601037 151.46626069345166 0 151.46626069345166 128.30525638098334 0 0 0 0 -70.994805079656999 39.045359408537479 0 39.045359408537479 209.65671663459943 0 0 0 0 -65.169629289823206 53.304801838862659 0 53.304801838862659 284.50022319499112 0 0 0 0 91.111489956165315 -41.109159415528211 0 -41.109159415528211 60.291351450857292 0 0 0 0 0.049147597705307078 -0.29808092989143731 0 -0.29808092989143731 2.9738593838937533 0 0 0 0 157.25034008781222 195.55402037814383 0 195.55402037814383 143.5116977935395 0 0 0 0 -83.604849432789706 127.17649312368758 0 127.17649312368758 117.73090329969637 0 0 0 0 -16.106235911507611 43.273762204586092 0 43.273762204586092 73.941597992606432 0 0 0 0 -157.86319296459078 62.679673576500136 0 62.679673576500136 174.04105889917264 0 0 0 0 -59.183267822224479 69.758923955902446 0 69.758923955902446 69.421816590038361 0 0 0 0 -64.928446508134584 -3.4483979145525154 0 -3.4483979145525154 90.400036553450263 0 0 0 0 10.026176730834777 74.027772509874012 0 74.027772509874012 -87.073591735506852 0 0 0 0 15.388797346289721 62.13621030394188 0 62.13621030394188 -162.97765156592868 0 0 0 0 -18.776389602062409 47.247360728166313 0 47.247360728166313 -93.685528629845521 0 0 0 0 -19.247528430267266 80.658491264831355 0 80.658491264831355 -147.18477955711205 0 0 0 0 -18.002346615079603 55.525349668430891 0 55.525349668430891 -161.516374103001 0 0 0 0 -62.873758693780474 65.415928198803158 0 65.415928198803158 -163.59045804193238 0 0 0 0 -7.2321134810226084 2.4761816003082195 0 2.4761816003082195 0.63254514961900155 0 0 0 0 -20.041890568598319 71.567989726436736 0 71.567989726436736 -200.84676292131826 0 0 0 0 -13.370275767567364 52.134379646627167 0 52.134379646627167 -173.72324526779266 0 0 0 0 -20.697341320574196 91.521067670209959 0 91.521067670209959 -181.38923641149722 0 0 0 0 0.39326220200240414 -0.41030454344424783 0 -0.41030454344424783 -4.1123592246240754 0 0 0 0 18.020183873359201 -6.9882921724565676 0 -6.9882921724565676 -49.719811606656549 0 0 0 0 10.111313648596706 25.513138222313614 0 25.513138222313614 -11.157211953322985 0 0 0 0 17.396860570435074 9.8793420976240185 0 9.8793420976240185 2.0571730749756014 0 0 0 0 3.879426350003996 54.582624134158323 0 54.582624134158323 23.569953496853486 0 0 0 0 29.680417630579541 -1.7175341417223535 0 -1.7175341417223535 -69.006687539605991 0 0 0 0 75.235139058859204 -61.298421340332425 0 -61.298421340332425 -100.16933998134937 0 0 0 0 21.213400389218805 -24.08490593919214 0 -24.08490593919214 -32.538980691084362 0 0 0 0 47.314743368031486 4.5887698762699074 0 4.5887698762699074 51.865427735716366 0 0 0 0 20.411098330571804 36.152905173740692 0 36.152905173740692 45.859263999485847 0 0 0 0 -54.564055691576868 35.353033804004554 0 35.353033804004554 275.70170752860577 0 0 0 0 1.3346844263566453 -0.27510340633335062 0 -0.27510340633335062 -0.015493487465633615 0 0 0 0 50.627560577198892 35.491757449602119 0 35.491757449602119 14.692445532002239 0 0 0 0 31.826007623949408 38.070962618081467 0 38.070962618081467 14.338639562692833 0 0 0 0 28.070515476327273 26.122758073459408 0 26.122758073459408 1.5553935595562507 0 0 0 0 27.25443131359134 28.633226776144511 0 28.633226776144511 11.549164306162083 0 0 0 0 31.685758150904803 26.618562141424718 0 26.618562141424718 3.6507747008990918 0 0 0 0 0.49813964590975957 11.184846022737929 0 11.184846022737929 14.916285286267339 0 0 0 0 20.020611086672943 3.7440409073003593 0 3.7440409073003593 -8.8898386693899738 0 0 0 0 2.3423407967256935 -0.90774261834712888 0 -0.90774261834712888 1.9794231627568024 0 0 0 0 3.6798800307202555 -0.29824343411639553 0 -0.29824343411639553 -0.041534619422759378 0 0 0 0 35.623378538368343 -1.5027610080337581 0 -1.5027610080337581 1.3911265158375272 0 0 0 0 0.26615358898833463 0.093809749767636674 0 0.093809749767636674 -0.15159697392326166 0 0 0 0 -24.37755103159725 26.775712064860272 0 26.775712064860272 -23.148155473431871 0 0 0 0 -36.336845550493308 37.663998364285362 0 37.663998364285362 -32.729702306209902 0 0 0 0 3.9858578855014457 -2.6348736943306221 0 -2.6348736943306221 -4.4604263509654629 0 0 0 0 5.4549947692517904 0.6936413389546594 0 0.6936413389546594 -0.37956077079591111 0 0 0 0 10.699612696260374 12.684824271389061 0 12.684824271389061 -31.350291847054905 0 0 0 0 16.002421479756094 19.791448257024399 0 19.791448257024399 -10.630625532139675 0 0 0 0 -1.284054247365475 18.207021573281224 0 18.207021573281224 -10.739816097087896 0 0 0 0 -3.4645724873984136 -1.7672648500973764 0 -1.7672648500973764 -12.242391476693228 0 0 0 0 20.253955798165407 9.1789364744363411 0 9.1789364744363411 -63.548320115757747 0 0 0 0 18.155782441055635 -0.35146201062161708 0 -0.35146201062161708 -12.208131920257557 0 0 0 0 -6.0755524344258447 5.4335318747425845 0 5.4335318747425845 27.591911976758638 0 0 0 0 19.775460010643656 2.0072180477282018 0 2.0072180477282018 -35.567615714471685 0 0 0 0 11.078845543857021 7.9620671537815078 0 7.9620671537815078 1.1073298127422895 0 0 0 0 1.4330275325846742 15.261471297047137 0 15.261471297047137 -27.98961607558158 0 0 0 0 6.0474912009459487 6.1321205373067329 0 6.1321205373067329 0.97109102077382214 0 0 0 0 -0.80908388696843758 12.341979681321391 0 12.341979681321391 12.545649704556467 0 0 0 0 8.747517552035788 9.01926314264756 0 9.01926314264756 -10.998703634895719 0 0 0 0 -4.5794356965507177 15.793335982845747 0 15.793335982845747 -2.7566914855779032 0 0 0 0 0.79577736632415252 6.8942853013085745 0 6.8942853013085745 1.9661998143175596 0 0 0 0 -3.8270676527572505 12.940691978459654 0 12.940691978459654 -4.7039611983973373 0 0 0 0 7.871635214070082 3.7080412842145734 0 3.7080412842145734 -2.731317279113405 0 0 0 0 -6.1899616304799565 13.116249640685965 0 13.116249640685965 9.5139163976309646 0 0 0 0 11.579947147070925 12.495945003926863 0 12.495945003926863 -11.715924031521354 0 0 0 0 7.5201670726053464 2.9965620318552375 0 2.9965620318552375 -1.4545561169404486 0 0 0 0 1.1882263142797456 13.334388590580602 0 13.334388590580602 -10.335188466286695 0 0 0 0 -40.767590027202459 26.531583394950758 0 26.531583394950758 -34.837561489241125 0 0 0 0 -41.140413055783938 23.974949736585586 0 23.974949736585586 -52.115977499708606 0 0 0 0 1.0046516652117248 0.25518853909072448 0 0.25518853909072448 -0.68277260858398847 0 0 0 0 -44.918202550663409 33.595441858012009 0 33.595441858012009 -76.38109961477312 0 0 0 0 -63.695923921035501 38.671735583805912 0 38.671735583805912 -23.038555221477509 0 0 0 0 -53.724265689037566 26.269243585639288 0 26.269243585639288 -9.6663755360823416 0 0 0 0 0.32505487358450935 0.60376248812093536 0 0.60376248812093536 0.27271588662889457 0 0 0 0 51.751015642510538 67.584421445119915 0 67.584421445119915 -6.738836378214728 0 0 0 0 26.712471837112389 64.393571299282485 0 64.393571299282485 -157.35916060474847 0 0 0 0 -1.6827197328559222 1.1602172627821155 0 1.1602172627821155 -0.080606109666000902 0 0 0 0 -63.919115281689983 42.796773712998004 0 42.796773712998004 -42.711834991119758 0 0 0 0 53.163680630991394 91.285808492518385 0 91.285808492518385 -145.19253123364251 0 0 0 0 77.848768803516577 33.405568611244234 0 33.405568611244234 -78.269060949392042 0 0 0 0 -34.773731866804155 91.00938676743317 0 91.00938676743317 -49.284918123374155 0 0 0 0 -38.593971168493226 9.1767573228294168 0 9.1767573228294168 -158.93956250613337 0 0 0 0 -3.5960671336142696 47.963543723492876 0 47.963543723492876 -154.63222807906641 0 0 0 0 -29.875283357881926 51.890096442084996 0 51.890096442084996 -130.71252519673362 0 0 0 0 -63.265973542367647 38.302199520394424 0 38.302199520394424 -112.1532851828124 0 0 0 0 -9.6984883661789354 75.744148013511222 0 75.744148013511222 -115.66431011149132 0 0 0 0 0.48926334697902263 0.156220234182749 0 0.156220234182749 0.044445057737758031 0 0 0 0 16.320339311130738 45.637875782975243 0 45.637875782975243 -178.49335011343737 0 0 0 0 -31.166283765938715 52.048161013646677 0 52.048161013646677 271.69508837326828 0 0 0 0 -3.1437799129687392 3.3132562953696834 0 3.3132562953696834 -84.393247807573061 0 0 0 0 0.27119680489704479 35.952387522759636 0 35.952387522759636 -131.21189707504291 0 0 0 0 -30.88778829981311 25.440524757643743 0 25.440524757643743 -33.711915608634627 0 0 0 0 1.765693660581249 1.0999566982834725 0 1.0999566982834725 0.47998278892621837 0 0 0 0 30.576349533734174 61.489647035223243 0 61.489647035223243 125.96512834831174 0 0 0 0 0.37565151167940769 0.035594782949250003 0 0.035594782949250003 -0.25188646947260018 0 0 0 0 5.9869825505411427 21.84607135989063 0 21.84607135989063 169.00607371906972 0 0 0 0 -28.880003723083064 51.225538175389374 0 51.225538175389374 -111.28641709954172 0 0 0 0 -2.4092260558500129 50.83504332461689 0 50.83504332461689 -74.777574457832998 0 0 0 0 -0.39448445777594543 -0.22466016321041238 0 -0.22466016321041238 -0.1401150132800868 0 0 0 0 -25.443733117597731 90.77864994643096 0 90.77864994643096 -148.5498250112596 0 0 0 0 15.242017699487405 50.489052872469983 0 50.489052872469983 -248.73401570853184 0 0 0 0 -11.233555076414632 24.038678728329614 0 24.038678728329614 -103.55001550765792 0 0 0 0 -11.039069257341907 21.412982018442563 0 21.412982018442563 61.913336272052533 0 0 0 0 -4.0093882892433612 63.896419054947728 0 63.896419054947728 -22.825593433395625 0 0 0 0 11.317643624905315 5.814942300559224 0 5.814942300559224 -4.9615685116441455 0 0 0 0 15.015450022996447 9.9630347009019715 0 9.9630347009019715 -19.544174888817906 0 0 0 0 3.146415414801595 13.263856681127436 0 13.263856681127436 -5.2045261430920959 0 0 0 0 3.7180607020614573 3.210123797296113 0 3.210123797296113 0.81607299243496145 0 0 0 0 4.3587969054642599 19.622944928852121 0 19.622944928852121 -11.601853844603696 0 0 0 0 8.4942058811802781 -0.69989023802941119 0 -0.69989023802941119 -34.240544498783493 0 0 0 0 2.355419192726103 1.6634914066127315 0 1.6634914066127315 0.37214089408295248 0 0 0 0 154.40670559612681 186.25969297557117 0 186.25969297557117 -15.932481237321554 0 0 0 0 -2.9423110214739481 3.9367810571839348 0 3.9367810571839348 -4.1847483142404904 0 0 0 0 77.546346283988896 93.954954953215292 0 93.954954953215292 76.07239626515593 0 0 0 0 -37.620078240379371 118.08456431725517 0 118.08456431725517 32.455337240829067 0 0 0 0 83.264142268216347 15.802950472073235 0 15.802950472073235 107.23411994123308 0 0 0 0 54.895775159802724 175.40889158440768 0 175.40889158440768 90.881141689931781 0 0 0 0 91.444393357693116 114.1712489161373 0 114.1712489161373 73.136377159921722 0 0 0 0 -3.341338645541601 4.0419883753985593 0 4.0419883753985593 -3.9039048871098458 0 0 0 0 67.502553907885158 46.404467587552062 0 46.404467587552062 50.259315856857484 0 0 0 0 55.567730418157225 66.968189958042785 0 66.968189958042785 19.059088010184496 0 0 0 0 55.595143073669533 67.915060371059553 0 67.915060371059553 50.857002636696961 0 0 0 0 66.009673465807282 42.978016518756704 0 42.978016518756704 16.744166540915103 0 0 0 0 2.778819709095842 84.763961922741146 0 84.763961922741146 35.149184062653148 0 0 0 0 0.058580272061590222 97.790584415934518 0 97.790584415934518 -26.992923984631489 0 0 0 0 23.39346827258305 65.510475122626758 0 65.510475122626758 52.91756234307104 0 0 0 0 47.631654627373791 75.510907827712799 0 75.510907827712799 11.687152663334018 0 0 0 0 43.111727808922296 96.426999047964728 0 96.426999047964728 -12.298845365239686 0 0 0 0 36.813006277792738 71.201821652061881 0 71.201821652061881 52.10459747039306 0 0 0 0 78.810307563220704 67.163161859430147 0 67.163161859430147 39.086094378177222 0 0 0 0 46.737893721860928 57.172417624511127 0 57.172417624511127 65.889144511851555 0 0 0 0 54.77313734970312 79.338466525680246 0 79.338466525680246 62.49819843253681 0 0 0 0 117.3482685625313 32.723618206153333 0 32.723618206153333 -47.844447250865414 0 0 0 0 -1.9092208602550365 2.6026972486287887 0 2.6026972486287887 -2.9446603959880377 0 0 0 0 -0.060365225259374711 61.297824980168116 0 61.297824980168116 69.688480468710623 0 0 0 0 45.295231762374897 48.700438197723088 0 48.700438197723088 50.680922564795765 0 0 0 0 -24.105326778433437 44.696621532726624 0 44.696621532726624 52.077788834732928 0 0 0 0 -0.77057506417520827 0.8863972889689915 0 0.8863972889689915 -0.84820708261117161 0 0 0 0 -7.9461658719956176 -0.97040997074145707 0 -0.97040997074145707 56.092847404663189 0 0 0 0 22.691267035754208 -10.320936027755124 0 -10.320936027755124 -5.4967399264824053 0 0 0 0 87.9746658071208 -55.876007449207009 0 -55.876007449207009 -89.803116849587241 0 0 0 0 197.95412644132739 81.301810623242091 0 81.301810623242091 22.061135039349438 0 0 0 0 0.47277895565460426 0.2255094881926949 0 0.2255094881926949 -0.45551547220372868 0 0 0 0 133.94966562919217 85.455873689094915 0 85.455873689094915 30.726190149470312 0 0 0 0 133.60323511067691 -16.967318686817862 0 -16.967318686817862 -107.38952352518936 0 0 0 0 -205.37614784658581 73.957362821874995 0 73.957362821874995 46.32416758587533 0 0 0 0 108.79628780341727 164.90381630900538 0 164.90381630900538 -121.12966126650281 0 0 0 0 -0.68302831989692336 1.3428094812912654 0 1.3428094812912654 -1.3808206894248656 0 0 0 0 230.17166475721933 47.989292604760067 0 47.989292604760067 28.292791377905814 0 0 0 0 251.27165925823556 64.374079372017604 0 64.374079372017604 -75.268850878843296 0 0 0 0 -319.66484834672337 96.882299274279831 0 96.882299274279831 37.022092598909694 0 0 0 0 -200.06539934848479 59.734571547150153 0 59.734571547150153 45.69295751203299 0 0 0 0 -190.95588202588624 114.23698139165572 0 114.23698139165572 8.6943750659193029 0 0 0 0 -192.62274250221571 115.15138991008098 0 115.15138991008098 89.361621318752441 0 0 0 0 -192.40923509927234 55.63914967668893 0 55.63914967668893 2.0287735745205282 0 0 0 0 -174.26834285330187 78.143044166035907 0 78.143044166035907 28.150483458287454 0 0 0 0 -185.23656405656402 116.30417680995174 0 116.30417680995174 -103.73856166427504 0 0 0 0 -122.64340269951208 -5.7439777029730976 0 -5.7439777029730976 -63.649756905385402 0 0 0 0 -201.24036990245986 124.02350105176356 0 124.02350105176356 103.87444434471581 0 0 0 0 -197.4578893493599 84.68122227096319 0 84.68122227096319 127.16946399953667 0 0 0 0 -198.76543845792185 94.952024148517921 0 94.952024148517921 55.936265638381883 0 0 0 0 -197.08711623727368 63.148298281358166 0 63.148298281358166 76.685101889162979 0 0 0 0 -196.79574942306499 47.905904663040928 0 47.905904663040928 48.896288879868735 0 0 0 0 -196.73185800552346 71.303771928310198 0 71.303771928310198 95.398599679737345 0 0 0 0 -159.31232392317906 75.399342717767013 0 75.399342717767013 80.978444582439806 0 0 0 0 -161.54826723292535 21.02521339823511 0 21.02521339823511 50.07469790146024 0 0 0 0 -115.63636934927126 79.814438909485034 0 79.814438909485034 -45.900633407611167 0 0 0 0 -236.81408757202098 47.119704528204011 0 47.119704528204011 54.783458589117799 0 0 0 0 -187.10094290470079 61.397207956990314 0 61.397207956990314 -2.4810742719528207 0 0 0 0 -219.75897889429689 54.63147154914941 0 54.63147154914941 -31.453302349735168 0 0 0 0 -284.95779315421169 88.226180662205479 0 88.226180662205479 1.0223077958885369 0 0 0 0 -105.44394097823897 73.72695962693615 0 73.72695962693615 -45.25611063467386 0 0 0 0 -140.21427729357492 145.16650905011466 0 145.16650905011466 -173.75922631325557 0 0 0 0 -187.96382771452591 2.9048909494185864 0 2.9048909494185864 27.715785867838349 0 0 0 0 -81.833676457508773 -29.950317532973713 0 -29.950317532973713 36.53455388123075 0 0 0 0 -220.26915816191286 11.692661231971442 0 11.692661231971442 55.929496421318618 0 0 0 0 -192.93749242448393 13.557691133631124 0 13.557691133631124 30.549815396387203 0 0 0 0 -249.7789312356017 62.731129309077005 0 62.731129309077005 25.20347236692578 0 0 0 0 40.128583784418879 -17.134790887624149 0 -17.134790887624149 31.728828612482175 0 0 0 0 -229.94027053742911 -5.4764812497502362 0 -5.4764812497502362 100.69183983030962 0 0 0 0 -317.53465306562794 13.881911380235579 0 13.881911380235579 120.68769345386136 0 0 0 0 -1.9201731327384906 1.8656777280369496 0 1.8656777280369496 -1.4817946392057166 0 0 0 0 -339.45927119797852 200.0942660424962 0 200.0942660424962 11.323286171713789 0 0 0 0 -273.08264270725567 105.42687954882695 0 105.42687954882695 -137.88651909009059 0 0 0 0 -323.11029378899957 311.99148536450213 0 311.99148536450213 -271.47438382224755 0 0 0 0 -292.79411736756083 295.47023914172587 0 295.47023914172587 -307.10482415596016 0 0 0 0 -322.14700436484054 66.5620728301501 0 66.5620728301501 -147.90064730084487 0 0 0 0 129.8378147772728 50.915651651462667 0 50.915651651462667 -173.19191699421935 0 0 0 0 29.370024828174792 194.10128558926863 0 194.10128558926863 -257.14896260372825 0 0 0 0 -214.91217504982887 298.08523750069162 0 298.08523750069162 -191.20245508312473 0 0 0 0 -63.259839733314948 72.287071134353937 0 72.287071134353937 -199.10321451138407 0 0 0 0 -2.523437842986084 -0.11382886033890571 0 -0.11382886033890571 -0.30211876143364425 0 0 0 0 -416.40960368930428 190.86546879369598 0 190.86546879369598 -40.581878551897205 0 0 0 0 -150.30894145505954 253.78287759676596 0 253.78287759676596 -469.65340198522063 0 0 0 0 -323.00980713767967 208.61366240040297 0 208.61366240040297 -11.011976356723608 0 0 0 0 -130.5420813382334 81.097986065276928 0 81.097986065276928 -103.27743003603337 0 0 0 0 -75.583716533597908 -1.7321789239231293 0 -1.7321789239231293 -25.159200678072921 0 0 0 0 -251.70698097578679 114.79822534412006 0 114.79822534412006 82.158817399740656 0 0 0 0 43.717965294139503 -7.1864479553491947 0 -7.1864479553491947 -7.6860907186637633 0 0 0 0 -153.00611113806735 4.9180445914707889 0 4.9180445914707889 179.02636837501018 0 0 0 0 -35.382177850202424 39.302241362498535 0 39.302241362498535 -30.809936317179563 0 0 0 0 -22.667591640598403 7.1865677385731033 0 7.1865677385731033 -44.918149629325399 0 0 0 0 -4.3586912383361778 60.541371712318323 0 60.541371712318323 20.452787304158846 0 0 0 0 14.555663810390932 9.7270265480962834 0 9.7270265480962834 3.0561263735494002 0 0 0 0 24.004797917421911 20.103920373089522 0 20.103920373089522 10.58269468465005 0 0 0 0 35.102041938503135 28.434829377156348 0 28.434829377156348 8.1029147664339689 0 0 0 0 -29.622010086282899 69.380128581027293 0 69.380128581027293 91.527628854542854 0 0 0 0 -38.214105418001054 108.06663252165617 0 108.06663252165617 -2.6964221076632384 0 0 0 0 2.0696680859016254 1.1234242552300255 0 1.1234242552300255 0.73410108681770581 0 0 0 0 -228.89867270379909 50.826870651487297 0 50.826870651487297 -49.577856104702732 0 0 0 0 -47.285555975484385 85.43041977512803 0 85.43041977512803 -55.272754200144846 0 0 0 0 -218.32861953545216 58.615402520760654 0 58.615402520760654 1.3250735067249479 0 0 0 0 -6.8909079561599356 10.984784673538798 0 10.984784673538798 33.378946650936996 0 0 0 0 -102.94197192572938 65.086919007748293 0 65.086919007748293 -29.382926479425805 0 0 0 0 -154.12093686431399 59.41417584669307 0 59.41417584669307 -28.776242110187752 0 0 0 0 -2.4035456795727583 1.239048667902523 0 1.239048667902523 1.2924276612102474 0 0 0 0 20.947349436257355 32.924790983372532 0 32.924790983372532 -19.950736320960459 0 0 0 0 11.608540906641792 7.9283157230515826 0 7.9283157230515826 -8.346295434082549 0 0 0 0 -10.672097942483379 9.2091014670842544 0 9.2091014670842544 1.9965161275820229 0 0 0 0 8.6506484729870863 191.40657214404655 0 191.40657214404655 -142.15798326275217 0 0 0 0 -156.45851524567934 226.5023873707662 0 226.5023873707662 -105.85363063510522 0 0 0 0 -197.8825704735973 168.25735791011994 0 168.25735791011994 -45.512993648803786 0 0 0 0 -420.71874974308594 194.81998227654913 0 194.81998227654913 -54.649493570581399 0 0 0 0 -263.13783604145647 200.00285086088115 0 200.00285086088115 -58.887537452325887 0 0 0 0 -223.92196330661477 142.23254273718501 0 142.23254273718501 -90.980253034715133 0 0 0 0 -210.41197534294042 115.82572612951481 0 115.82572612951481 -25.684662496734745 0 0 0 0 -314.82543062559853 100.92600960483469 0 100.92600960483469 -21.299389143449844 0 0 0 0 -228.31710628316432 113.97350891985661 0 113.97350891985661 -20.352869006383116 0 0 0 0 -150.81397162160874 111.74691235466972 0 111.74691235466972 -55.169609112945182 0 0 0 0 -140.12181882475124 149.82935153573453 0 149.82935153573453 -52.088377266541102 0 0 0 0 -209.55564731775485 167.19029098165777 0 167.19029098165777 -44.577796190973459 0 0 0 0 -120.87644622002699 194.08343560152662 0 194.08343560152662 -63.51240855963033 0 0 0 0 -60.562406246311184 158.25781861343512 0 158.25781861343512 -43.175888418061731 0 0 0 0 -55.203379623089859 164.26302622524872 0 164.26302622524872 -66.262971880425084 0 0 0 0 -15.972483417535841 148.35055271866713 0 148.35055271866713 -74.264469587868007 0 0 0 0 -43.11692675328959 164.38813790295808 0 164.38813790295808 -83.083662689332414 0 0 0 0 -39.482609625989426 177.78077865093019 0 177.78077865093019 -87.518094189863405 0 0 0 0 -31.286095913394092 141.51465536938667 0 141.51465536938667 -65.397657060727397 0 0 0 0 -19.032238218816929 124.23612950486813 0 124.23612950486813 -56.290354460578783 0 0 0 0 -16.634261462117138 130.13849691849464 0 130.13849691849464 -61.420345704597366 0 0 0 0 -2.3854388282370564 129.55300823013499 0 129.55300823013499 -72.041806460678345 0 0 0 0 11.626919255875691 105.56059370845105 0 105.56059370845105 -63.243212881975069 0 0 0 0 32.403230718689883 100.21296699975665 0 100.21296699975665 -81.253380310772627 0 0 0 0 -20.551519657805329 144.56510074194011 0 144.56510074194011 -101.64134720031961 0 0 0 0 13.15453803632181 137.5645010111956 0 137.5645010111956 -104.53776877054952 0 0 0 0 49.816944154761586 105.96384800839769 0 105.96384800839769 -133.12933492015418 0 0 0 0 66.449625487452067 42.196965035125231 0 42.196965035125231 -69.210268350941988 0 0 0 0 37.484120213808637 64.529092156220031 0 64.529092156220031 -46.563777451650822 0 0 0 0 48.41327838575387 68.040346548588218 0 68.040346548588218 -46.438676993664558 0 0 0 0 55.462077107498772 28.048800750260853 0 28.048800750260853 -13.800865101123691 0 0 0 0 50.887647098001253 45.841029463427276 0 45.841029463427276 23.984610030231124 0 0 0 0 69.930012982418702 55.779463239674556 0 55.779463239674556 21.593159839703731 0 0 0 0 57.177541176943123 66.444389504193168 0 66.444389504193168 -47.366707894618685 0 0 0 0 3.778010785310471 26.769792142783899 0 26.769792142783899 69.357606079217476 0 0 0 0 -27.269474470816931 79.885018898079579 0 79.885018898079579 -22.853036340074141 0 0 0 0 123.33674290031922 45.64555134740931 0 45.64555134740931 -24.792721089474071 0 0 0 0 92.310475678474177 61.10134407091391 0 61.10134407091391 -23.768933732808364 0 0 0 0 62.476760073339392 78.233191398614508 0 78.233191398614508 -29.926947152762295 0 0 0 0 69.289443147165002 40.332200445094713 0 40.332200445094713 -6.0262931610686792 0 0 0 0 80.02766079785215 50.387157965513325 0 50.387157965513325 3.1656958425151061 0 0 0 0 68.208211637498607 42.785646328721668 0 42.785646328721668 16.135144739070711 0 0 0 0 56.296768266126492 28.857810342231915 0 28.857810342231915 1.9790860249122488 0 0 0 0 92.140950222687266 29.741573645794816 0 29.741573645794816 -2.4139225436920242 0 0 0 0 64.134446349256905 28.977041795712466 0 28.977041795712466 0.1388816776980093 0 0 0 0 95.61136901307691 10.071522524933243 0 10.071522524933243 -1.535221919464675 0 0 0 0 64.985129451186367 38.061190949725642 0 38.061190949725642 -13.313114234662862 0 0 0 0 46.720316274946299 38.91275046210518 0 38.91275046210518 -7.6809789655035274 0 0 0 0 41.509880893016089 66.780549071236237 0 66.780549071236237 -41.962266900211944 0 0 0 0 53.423340190063755 38.14286914681179 0 38.14286914681179 -3.1317675476766453 0 0 0 0 48.089711464341235 35.109147934599605 0 35.109147934599605 -0.43319226067251293 0 0 0 0 0.14797592388353831 0.65763579328375954 0 0.65763579328375954 -0.36286659931430165 0 0 0 0 156.91027260485316 -0.91128744855632249 0 -0.91128744855632249 -22.285701636585145 0 0 0 0 67.147274280592683 -7.0451551184451091 0 -7.0451551184451091 34.483040306480689 0 0 0 0 74.927482831710222 22.371302120342989 0 22.371302120342989 0.43090925607248209 0 0 0 0 -0.16348153599938087 -6.4293831586396664 0 -6.4293831586396664 -6.1265105007551028 0 0 0 0 -1.724598807255461 -7.8001059046882801 0 -7.8001059046882801 -3.8915245027383207 0 0 0 0 46.548835416904694 34.972292972907326 0 34.972292972907326 -22.353705262571566 0 0 0 0 0.11353729727416484 1.0806928356884811 0 1.0806928356884811 -0.5954998634431341 0 0 0 0 37.439681485397159 50.203742526061433 0 50.203742526061433 6.0779022060728494 0 0 0 0 37.607726517355331 22.852960146440637 0 22.852960146440637 25.511780959204771 0 0 0 0 6.6550055497064022 72.307424483287832 0 72.307424483287832 -30.532345294376682 0 0 0 0 23.775339627442918 71.955221018217799 0 71.955221018217799 -26.379635690660507 0 0 0 0 52.665496079931472 48.24146980297337 0 48.24146980297337 -26.98651164905823 0 0 0 0 8.7060675503671519 60.062595730911198 0 60.062595730911198 -17.858986169687341 0 0 0 0 34.54518953958177 77.136574041605854 0 77.136574041605854 -49.636479396185678 0 0 0 0 4.9889780370863264 102.20502613882059 0 102.20502613882059 -51.674644779470327 0 0 0 0 -7.5075387838842289 97.170383572660285 0 97.170383572660285 -47.045592746878697 0 0 0 0 10.678252691906891 73.612695389271721 0 73.612695389271721 -34.115982924826312 0 0 0 0 -36.425722721032798 94.552490037146526 0 94.552490037146526 -35.275663920871011 0 0 0 0 -15.781953098095983 98.99962175418932 0 98.99962175418932 -46.444219326505845 0 0 0 0 -24.74237183632431 120.46740933953515 0 120.46740933953515 -58.127513714414363 0 0 0 0 0.095893530169632868 -16.147251672308812 0 -16.147251672308812 4.9060527671026648 0 0 0 0 31.881145686435048 18.453763931551975 0 18.453763931551975 -27.904214267271527 0 0 0 0 -31.012309676338191 91.45425604285083 0 91.45425604285083 -42.030777457854128 0 0 0 0 -59.217455128672555 24.649512329682238 0 24.649512329682238 -8.2922920623605023 0 0 0 0 -205.28142714713795 104.15455479905836 0 104.15455479905836 3.9451704008633897 0 0 0 0 24.626564001880979 34.655064467962802 0 34.655064467962802 -3.9399858448814484 0 0 0 0 -144.6038504670978 43.277544776802642 0 43.277544776802642 -8.6445564801870205 0 0 0 0 -0.065341871222295733 0.80754256449777273 0 0.80754256449777273 -0.26347644986467955 0 0 0 0 -65.76911773232132 106.25768965066436 0 106.25768965066436 -51.205097838337224 0 0 0 0 -94.425395725767885 110.14057166885186 0 110.14057166885186 -43.794846600148958 0 0 0 0 -49.594963600331994 111.51235514181519 0 111.51235514181519 -51.041206287032765 0 0 0 0 -44.931100930250977 86.103006393038413 0 86.103006393038413 -44.00507349513191 0 0 0 0 -35.155530846586771 111.66612799365703 0 111.66612799365703 -57.137540943612294 0 0 0 0 -38.407974435037886 126.42713568796512 0 126.42713568796512 -55.44929755006342 0 0 0 0 -63.30861648048085 115.85937973661066 0 115.85937973661066 -50.130415437507509 0 0 0 0 -48.465904890173988 117.33741894448985 0 117.33741894448985 -55.766480145597598 0 0 0 0 -51.38324107922017 108.85153366775103 0 108.85153366775103 -38.581154523540135 0 0 0 0 -69.792985749259969 119.67413650629874 0 119.67413650629874 -40.158621011007199 0 0 0 0 -57.725663494184118 104.17018090387228 0 104.17018090387228 -42.027192182182262 0 0 0 0 0.15918342052827938 223.90015220550436 0 223.90015220550436 -34.83555516602064 0 0 0 0 -44.610236939974129 140.62241861041048 0 140.62241861041048 -58.665892251359764 0 0 0 0 -20.224199960717669 124.90589425471717 0 124.90589425471717 -50.585513158906906 0 0 0 0 -137.63403178687622 150.93913542999826 0 150.93913542999826 -47.048682413534152 0 0 0 0 -69.5589533191378 131.18485077885953 0 131.18485077885953 5.4574906150301103 0 0 0 0 -110.06261328629989 169.52708072597761 0 169.52708072597761 -27.66370729213304 0 0 0 0 -70.353389937674365 138.34604970080318 0 138.34604970080318 -29.599352230890872 0 0 0 0 -44.870067054034735 138.65629836927837 0 138.65629836927837 -48.144930276939931 0 0 0 0 -34.968088742663895 143.13175716456726 0 143.13175716456726 -49.939094029412445 0 0 0 0 -41.358750656290795 128.21347876290292 0 128.21347876290292 -52.170042181396639 0 0 0 0 -48.711894825758009 116.76023180529819 0 116.76023180529819 -41.261035458559491 0 0 0 0 -55.109760732673749 116.78975787307081 0 116.78975787307081 -37.493754136527969 0 0 0 0 -54.517356632467454 112.82164607664686 0 112.82164607664686 -12.213514783299615 0 0 0 0 -65.032892816376261 106.46559382073701 0 106.46559382073701 -15.170218701211525 0 0 0 0 -62.58177816105399 97.146990371572883 0 97.146990371572883 14.19585343655308 0 0 0 0 -82.074044511566171 117.57387354685034 0 117.57387354685034 -3.3533761375788345 0 0 0 0 -55.233794199765725 71.744219489538295 0 71.744219489538295 16.640980709445103 0 0 0 0 -58.964703401135921 83.562185886251427 0 83.562185886251427 -7.5597488433268154 0 0 0 0 -55.415686391238069 99.324083851432931 0 99.324083851432931 -22.713421734595613 0 0 0 0 -54.175976752565475 91.023141777935507 0 91.023141777935507 -0.30490952345917322 0 0 0 0 -50.509129419420788 101.16582971214393 0 101.16582971214393 -22.864166168857537 0 0 0 0 -46.029025585747149 88.341056373218635 0 88.341056373218635 -13.306840992291654 0 0 0 0 -46.932867029368936 82.825509460668854 0 82.825509460668854 -18.913860353190103 0 0 0 0 -47.327935524965142 74.434302033910171 0 74.434302033910171 -1.62183487539005 0 0 0 0 -31.75612713825285 114.47810355809952 0 114.47810355809952 -41.144554825239197 0 0 0 0 -35.353997204841562 125.84434487732892 0 125.84434487732892 -49.03010613186234 0 0 0 0 -44.656998086313251 98.705227866786572 0 98.705227866786572 -29.553139109335916 0 0 0 0 -48.100078657436825 101.29794985302397 0 101.29794985302397 -26.855982680629495 0 0 0 0 -37.843399314738235 82.325625674502817 0 82.325625674502817 -22.682203931046388 0 0 0 0 -27.890803185688128 91.937539910518353 0 91.937539910518353 -26.847220381543366 0 0 0 0 -25.649425759464975 91.192399353318478 0 91.192399353318478 -42.060534397628544 0 0 0 0 -0.12926670188426215 106.27499142222337 0 106.27499142222337 -44.919260968871185 0 0 0 0 0.0033381714265454292 85.089098157504239 0 85.089098157504239 -41.174823570660919 0 0 0 0 -20.657881284118048 68.437749940436788 0 68.437749940436788 -53.890621005369667 0 0 0 0 -21.977340746794653 73.858701046792476 0 73.858701046792476 -32.783623082964823 0 0 0 0 -33.428423773752002 73.003134789368232 0 73.003134789368232 -30.33508725065758 0 0 0 0 -35.249195508583398 65.515702841090018 0 65.515702841090018 -20.473140659555611 0 0 0 0 -44.104439560229366 63.986690041689144 0 63.986690041689144 -15.11318408971465 0 0 0 0 -26.112910616251611 44.629872100827242 0 44.629872100827242 -43.277102404079073 0 0 0 0 -20.03698942495339 55.964861967391926 0 55.964861967391926 -23.212748341278257 0 0 0 0 -23.139991093923072 65.706038428090437 0 65.706038428090437 -52.839888185384552 0 0 0 0 1.8689372706812719 58.894460141948059 0 58.894460141948059 -55.506721649318933 0 0 0 0 -8.2403014279061608 42.201780577126101 0 42.201780577126101 -42.969279995367287 0 0 0 0 -5.3460256490543543 45.219892837114458 0 45.219892837114458 -58.049135275884055 0 0 0 0 13.699494691600194 53.312245877435089 0 53.312245877435089 -55.967865551429725 0 0 0 0 -15.686907197110486 81.602772829505511 0 81.602772829505511 -84.287975810369062 0 0 0 0 -24.756035340262315 50.801681853842865 0 50.801681853842865 -75.14339684654243 0 0 0 0 -0.023734980113658821 70.952988697323008 0 70.952988697323008 -58.727558877562842 0 0 0 0 -14.603541649259569 51.797305800864251 0 51.797305800864251 -35.726382631750539 0 0 0 0 -55.700895862562902 32.774089171919059 0 32.774089171919059 -14.028500817926215 0 0 0 0 -14.519923954931983 45.283958331743179 0 45.283958331743179 -12.070517899649985 0 0 0 0 -64.826625960477031 170.32556906343143 0 170.32556906343143 -109.32768435393018 0 0 0 0 -117.76565545489029 6.4220970824446795 0 6.4220970824446795 -77.122420973760427 0 0 0 0 -68.573544117763959 60.040429631529605 0 60.040429631529605 -35.614450927094595 0 0 0 0 -22.921057915435085 29.614477401849172 0 29.614477401849172 -85.597151755544473 0 0 0 0 -60.190914693492005 8.6541155167919044 0 8.6541155167919044 -50.973239085979912 0 0 0 0 -23.810413112270908 30.113081656911845 0 30.113081656911845 -56.051323008975487 0 0 0 0 -14.523052836455463 30.488953299995501 0 30.488953299995501 -56.976461817790096 0 0 0 0 -33.868593852355843 25.348777721329952 0 25.348777721329952 -37.072931857471758 0 0 0 0 -30.728647443185764 34.527106924106192 0 34.527106924106192 -35.485500486176306 0 0 0 0 -29.84489738755974 49.309333763848542 0 49.309333763848542 -11.801340148714189 0 0 0 0 -36.119437740077046 34.785324342672538 0 34.785324342672538 -7.6115982932733459 0 0 0 0 -25.713272099674214 41.833531874071014 0 41.833531874071014 -25.029475632814865 0 0 0 0 -41.569209926852636 55.646609198710507 0 55.646609198710507 7.3140433004600709 0 0 0 0 -37.422038006188814 53.678264312777628 0 53.678264312777628 -5.5168732553870541 0 0 0 0 -31.087451826517281 43.261016424327408 0 43.261016424327408 8.9193094218735496 0 0 0 0 -29.531347515268862 55.702591633464635 0 55.702591633464635 10.856968448775547 0 0 0 0 -18.304613778998828 34.849977907737411 0 34.849977907737411 4.4942517562561761 0 0 0 0 -14.978755569012606 65.675601977535493 0 65.675601977535493 -6.6279517394168579 0 0 0 0 19.941275901512199 42.601875386329311 0 42.601875386329311 6.2659360229438334 0 0 0 0 12.120732614715052 63.937966206406713 0 63.937966206406713 22.323634769471028 0 0 0 0 -12.415103294222376 58.890077268508534 0 58.890077268508534 31.396056259390207 0 0 0 0 -10.827052950929556 44.026884554147927 0 44.026884554147927 17.463034934823554 0 0 0 0 -28.305262081972614 63.248681801385374 0 63.248681801385374 28.276453781836835 0 0 0 0 -10.917364423845356 46.119925607828009 0 46.119925607828009 43.715276532027019 0 0 0 0 -47.173945206111966 64.082347968943395 0 64.082347968943395 1.0874369315356489 0 0 0 0 -46.379520734706603 59.128458927623797 0 59.128458927623797 20.539772388753818 0 0 0 0 -30.609136911632959 52.068971188257137 0 52.068971188257137 22.295529625590916 0 0 0 0 -67.007787304959493 68.45956422725385 0 68.45956422725385 55.626149335497757 0 0 0 0 -60.322907910920549 74.804435539764654 0 74.804435539764654 27.608315786575986 0 0 0 0 -71.179379614764912 89.493150637073995 0 89.493150637073995 8.9794375198957823 0 0 0 0 -87.312025693299802 97.855508685745235 0 97.855508685745235 31.419349710569804 0 0 0 0 -68.127345381941268 90.016774210454059 0 90.016774210454059 30.277520389728124 0 0 0 0 -51.086984185692927 57.573644065977987 0 57.573644065977987 101.40974083338642 0 0 0 0 -68.384381468651554 89.896697316365135 0 89.896697316365135 42.667933101757626 0 0 0 0 -15.848658934790365 -20.117894641285147 0 -20.117894641285147 124.80579097228474 0 0 0 0 -185.1481044241591 190.83353092464176 0 190.83353092464176 -113.66945108553955 0 0 0 0 0.37044677626319356 0.15835862230033015 0 0.15835862230033015 -0.25649790989817944 0 0 0 0 -186.62290208897775 185.17301940312211 0 185.17301940312211 -13.363506308591241 0 0 0 0 -120.76167958108999 120.19744532549339 0 120.19744532549339 49.92618918508515 0 0 0 0 10.765359944813099 44.338286237902594 0 44.338286237902594 43.201527739767698 0 0 0 0 -12.992514256689901 58.79349180605459 0 58.79349180605459 43.298502850290546 0 0 0 0 -17.332628485484747 11.365062417503395 0 11.365062417503395 34.04177714557045 0 0 0 0 -6.9592305628703599 19.478989651685872 0 19.478989651685872 32.370665427129097 0 0 0 0 -13.537509283396048 19.901748828797054 0 19.901748828797054 33.547175791191876 0 0 0 0 25.648797570152965 28.376950403861883 0 28.376950403861883 6.7885438321600304 0 0 0 0 17.222129362416354 25.737701846342929 0 25.737701846342929 6.2252884008221372 0 0 0 0 24.918026272182033 29.167738006374748 0 29.167738006374748 6.4071535194830176 0 0 0 0 25.138930383633578 66.644332740393565 0 66.644332740393565 36.77106114275557 0 0 0 0 -12.796420401248092 9.1040389389436562 0 9.1040389389436562 0.82748999291438707 0 0 0 0 24.011587150464948 28.832885474811064 0 28.832885474811064 8.6645004008032629 0 0 0 0 25.362576424576218 29.462932158705371 0 29.462932158705371 2.7848932000724744 0 0 0 0 21.753850259669889 37.105608299905271 0 37.105608299905271 -13.912890163002203 0 0 0 0 -27.356514756937031 34.004658968298827 0 34.004658968298827 -12.78516464286713 0 0 0 0 -17.145756156071002 14.599225770929024 0 14.599225770929024 -4.5143222370634248 0 0 0 0 23.261530866577232 30.529649105435738 0 30.529649105435738 6.7205551343058687 0 0 0 0 36.643126933610802 35.085584031548706 0 35.085584031548706 0.9167042835497341 0 0 0 0 0.20346725826220791 0.37068419530639218 0 0.37068419530639218 0.29671753498108444 0 0 0 0 17.789591128085704 40.71147142631412 0 40.71147142631412 27.646806092266161 0 0 0 0 60.030903968634448 81.991475097152488 0 81.991475097152488 24.080782854828939 0 0 0 0 -12.555685959446084 9.6403245421947119 0 9.6403245421947119 -0.10242795406269423 0 0 0 0 24.182264759841928 44.819808478678169 0 44.819808478678169 45.39829128861038 0 0 0 0 18.535032406209666 39.609107200582571 0 39.609107200582571 13.669881433049341 0 0 0 0 6.9185889710715855 33.797076993153041 0 33.797076993153041 9.1936981122371435 0 0 0 0 -6.658070125076847 32.906546867130601 0 32.906546867130601 11.011280550606898 0 0 0 0 -24.392161448884508 38.260221752409961 0 38.260221752409961 55.331012349001867 0 0 0 0 -17.002741898646491 39.96037806177992 0 39.96037806177992 106.49187707969395 0 0 0 0 0.22213074207684258 -12.816599601553207 0 -12.816599601553207 217.66021706846641 0 0 0 0 36.716653377365674 59.375939157977086 0 59.375939157977086 111.75183766505688 0 0 0 0 49.704351574516295 -4.1229221501565689 0 -4.1229221501565689 130.44973019997633 0 0 0 0 1.7482103211586946 39.902161477519257 0 39.902161477519257 99.177430010907301 0 0 0 0 33.118507695115113 20.24227638830962 0 20.24227638830962 60.142530360263663 0 0 0 0 11.84505050273583 34.586496256391456 0 34.586496256391456 77.954263389121479 0 0 0 0 25.741457223931775 2.0015058790472722 0 2.0015058790472722 14.855647533029696 0 0 0 0 3.663047413574418 0.76359632642007114 0 0.76359632642007114 131.52925428887283 0 0 0 0 13.929098834310935 11.026001278486547 0 11.026001278486547 133.35248273898105 0 0 0 0 -2.4028584350180608 -6.990598726087228 0 -6.990598726087228 22.92829933649773 0 0 0 0 7.5446836922055809 5.0997224814605033 0 5.0997224814605033 -18.25853455142078 0 0 0 0 -39.234466080124548 20.874333056673777 0 20.874333056673777 6.8279187286379965 0 0 0 0 -13.88220381427891 -9.4373558404445248 0 -9.4373558404445248 -16.130100005847225 0 0 0 0 -16.68267287348317 -6.3409924779098219 0 -6.3409924779098219 21.078632617693984 0 0 0 0 -13.46742121735042 -16.457414214662549 0 -16.457414214662549 54.818463202669591 0 0 0 0 48.87459713888893 92.148753433745696 0 92.148753433745696 105.06547378534651 0 0 0 0 4.2640627393157047 -21.467051020591498 0 -21.467051020591498 -75.384445524307012 0 0 0 0 0.32253107982301721 0.74741425606022105 0 0.74741425606022105 0.76844999760589516 0 0 0 0 -94.294606269863834 16.501558801404144 0 16.501558801404144 59.380401898145465 0 0 0 0 -24.869595799407762 22.891935162395839 0 22.891935162395839 -2.0520433883671103 0 0 0 0 -39.732645560570745 16.455238827006269 0 16.455238827006269 -4.8160966738046227 0 0 0 0 -22.04745159699587 -5.9192996302100482 0 -5.9192996302100482 -17.64025874433446 0 0 0 0 -33.580542204717858 3.6164653957112023 0 3.6164653957112023 4.577107372439059 0 0 0 0 -11.800907420951262 47.553049364632443 0 47.553049364632443 40.31193887252266 0 0 0 0 -16.019551150521693 26.363328148107485 0 26.363328148107485 -23.130603708139915 0 0 0 0 -15.717934364631219 13.533623396661369 0 13.533623396661369 0.53262082210630979 0 0 0 0 -30.041602014949603 -2.4539794656998311 0 -2.4539794656998311 -18.729944212343071 0 0 0 0 -35.925528163563285 49.273239127611305 0 49.273239127611305 -21.240489740956036 0 0 0 0 -13.342471675032812 22.500489275922519 0 22.500489275922519 -68.497993692234559 0 0 0 0 -36.994596504786387 61.264653613201517 0 61.264653613201517 -154.68956135157259 0 0 0 0 -99.125349975045538 3.5968708299951686 0 3.5968708299951686 -59.609151153113089 0 0 0 0 -24.894605086882393 34.939199327518907 0 34.939199327518907 -53.456869701296455 0 0 0 0 -134.99042982630544 103.85449196739046 0 103.85449196739046 -69.383004432171219 0 0 0 0 -39.05551596031728 7.294532504907238 0 7.294532504907238 -5.416341060110426 0 0 0 0 -47.211387768831173 59.008563623878445 0 59.008563623878445 -3.6042584315764543 0 0 0 0 -40.58911718516174 44.111888960378565 0 44.111888960378565 -45.836659835852515 0 0 0 0 -37.910159565331924 78.61852168297969 0 78.61852168297969 13.698167440315046 0 0 0 0 -67.655057324560403 62.715823699009206 0 62.715823699009206 21.404031107005721 0 0 0 0 -128.28188422185485 122.59090703690981 0 122.59090703690981 -6.9065138415130605 0 0 0 0 -39.122079739661785 63.076569662674729 0 63.076569662674729 -34.032393871747217 0 0 0 0 -79.832063552353247 81.430714841069857 0 81.430714841069857 28.853990078959214 0 0 0 0 -91.415326134736461 81.761903629077096 0 81.761903629077096 29.484752076429913 0 0 0 0 -56.859063189214794 61.280177061512859 0 61.280177061512859 30.998821479672642 0 0 0 0 -37.490150239174227 48.824540037040492 0 48.824540037040492 17.754335691158303 0 0 0 0 -6.698350119184397 44.208449496413323 0 44.208449496413323 13.247883799072042 0 0 0 0 -9.9922051933526745 15.081201978978015 0 15.081201978978015 64.715359216103025 0 0 0 0 -1.5594018799184006 1.7380862355608961 0 1.7380862355608961 -0.41462257383091838 0 0 0 0 -82.350979189337522 32.8143934011905 0 32.8143934011905 -14.501963607138805 0 0 0 0 -199.17891947037606 87.757799209244695 0 87.757799209244695 -35.333599775638959 0 0 0 0 0.7298183702400749 2.7129028973449749 0 2.7129028973449749 -2.4089421320264464 0 0 0 0 -66.895105504709136 54.292076211375843 0 54.292076211375843 43.75278057333071 0 0 0 0 -123.77162614608778 118.61725184220779 0 118.61725184220779 6.5824282640860474 0 0 0 0 -48.987670810271993 63.260753306535889 0 63.260753306535889 -154.34230659550485 0 0 0 0 -57.763775961899228 42.164143967672544 0 42.164143967672544 2.7119904294854678 0 0 0 0 1.0643565896925793 63.588807238689924 0 63.588807238689924 -48.987318971756849 0 0 0 0 -43.495321542214697 88.887958681300915 0 88.887958681300915 -21.905438098928698 0 0 0 0 -12.656465183976252 45.661868601972401 0 45.661868601972401 22.350033644437644 0 0 0 0 75.854255942649615 38.646625437905413 0 38.646625437905413 -20.530907779004224 0 0 0 0 25.614146275554958 73.888720944761644 0 73.888720944761644 -6.9951896396755728 0 0 0 0 56.959919237711802 42.154523049525324 0 42.154523049525324 24.565633573084341 0 0 0 0 20.455835182528972 24.406534227392513 0 24.406534227392513 17.479283639753476 0 0 0 0 28.8859332987995 38.480248097832373 0 38.480248097832373 -0.75354365012617563 0 0 0 0 -12.869614852831226 9.6776955017867419 0 9.6776955017867419 -0.69176195400480545 0 0 0 0 71.243068849995325 65.8592533545131 0 65.8592533545131 7.1324478611049926 0 0 0 0 -7.4337268695117018 41.314631675945293 0 41.314631675945293 15.714459672130033 0 0 0 0 47.313399386364836 30.562028372241912 0 30.562028372241912 10.671498083974313 0 0 0 0 -3.0730847417048608 27.030211320634237 0 27.030211320634237 22.374950225617795 0 0 0 0 46.855116158862074 27.14748655447238 0 27.14748655447238 -4.9978792589836303 0 0 0 0 -10.880957201660177 10.445681082559727 0 10.445681082559727 -0.81046179148030539 0 0 0 0 38.039758955423167 21.0319894058307 0 21.0319894058307 -0.82358236901632154 0 0 0 0 59.165173887718993 78.25581832488183 0 78.25581832488183 -201.9160753675319 0 0 0 0 11.123553613888802 8.5287158507969707 0 8.5287158507969707 1.8383677534450023 0 0 0 0 46.658137760082354 5.541209108353371 0 5.541209108353371 -26.001827507279359 0 0 0 0 100.18194587254038 -22.237472029089531 0 -22.237472029089531 -12.526413447930736 0 0 0 0 90.221907212244332 10.235627647371984 0 10.235627647371984 -51.850491727967892 0 0 0 0 73.664426123965313 27.861576982335237 0 27.861576982335237 -18.554036413717768 0 0 0 0 21.485296997616388 81.630000420008855 0 81.630000420008855 -53.77456507550778 0 0 0 0 136.97793947689934 38.346862314459486 0 38.346862314459486 -64.367421351268376 0 0 0 0 340.84278951854509 -190.43359380908902 0 -190.43359380908902 64.99261790836681 0 0 0 0 324.92218271437378 125.15316896372724 0 125.15316896372724 -116.67786707470441 0 0 0 0 15.959304950771184 66.995320872268621 0 66.995320872268621 345.86019291304365 0 0 0 0 255.86268234569297 136.06285498764646 0 136.06285498764646 -102.72820541200963 0 0 0 0 329.3503266546868 -131.24426858892048 0 -131.24426858892048 -41.250932648301841 0 0 0 0 81.322967535892531 219.56372495804362 0 219.56372495804362 -84.201963147451693 0 0 0 0 -75.646406295396446 219.17286152315432 0 219.17286152315432 -81.816395515955151 0 0 0 0 2.822146996173899 1.7563395011192 0 1.7563395011192 1.0439124049034252 0 0 0 0 9.0184534160626768 4.3211193642204719 0 4.3211193642204719 1.7734699823070841 0 0 0 0 -33.653348827334412 162.81414582626894 0 162.81414582626894 -236.61164496728725 0 0 0 0 -49.495310424567379 132.47340854901967 0 132.47340854901967 -127.80200677224366 0 0 0 0 -53.624915492029686 117.86238621526218 0 117.86238621526218 -19.735451478869891 0 0 0 0 -30.626390775836626 78.653824805169734 0 78.653824805169734 -127.79698927750078 0 0 0 0 -9.9853469108420541 87.618468583419599 0 87.618468583419599 -39.344362279838151 0 0 0 0 -38.442880450911616 135.35006789624504 0 135.35006789624504 -74.518455369814546 0 0 0 0 -73.117924546412908 58.823289325385382 0 58.823289325385382 -151.89580249951359 0 0 0 0 -40.198257979373011 110.12335669517824 0 110.12335669517824 2.3865254935080884 0 0 0 0 -8.0793162289446627 49.926549686167618 0 49.926549686167618 75.13384404345652 0 0 0 0 -52.33575482121546 59.492366620345706 0 59.492366620345706 90.139042344100744 0 0 0 0 12.406906931986668 25.386270998587861 0 25.386270998587861 82.352338023657467 0 0 0 0 1.88185693403193 2.1896089038359605 0 2.1896089038359605 31.713950499645762 0 0 0 0 -14.914408656304659 63.140565767860153 0 63.140565767860153 86.802685726047457 0 0 0 0 73.254831471343095 40.519843042192861 0 40.519843042192861 -2.1276771490383908 0 0 0 0 2.4467925668991484 13.665886762096488 0 13.665886762096488 -16.35683055141893 0 0 0 0 95.627880650627048 8.3006412544486921 0 8.3006412544486921 10.121718662543515 0 0 0 0 -128.54771901644926 143.84091579952542 0 143.84091579952542 60.409247341834714 0 0 0 0 -61.359495083885122 128.49812732601367 0 128.49812732601367 -117.9337977706291 0 0 0 0 23.866456043365361 17.724996086747531 0 17.724996086747531 2.8721063057085416 0 0 0 0 -0.018003205477869599 1.7389013711884687 0 1.7389013711884687 8.4980772654836834 0 0 0 0 105.16931226570159 54.093971914739996 0 54.093971914739996 -53.519989976360193 0 0 0 0 3.7619503675422195 12.525166136453091 0 12.525166136453091 -16.086351479530492 0 0 0 0 -36.465562014785974 32.556119639409644 0 32.556119639409644 -342.43273898961343 0 0 0 0 0.34943409588368013 106.87310809642582 0 106.87310809642582 -186.47586430951742 0 0 0 0 -90.558463593724809 -134.48720540207046 0 -134.48720540207046 -202.58776549696267 0 0 0 0 -1.2639640821679219 7.2885961487568274 0 7.2885961487568274 3.0993926986055058 0 0 0 0 43.982075120167792 90.769615828985479 0 90.769615828985479 -14.839089964648338 0 0 0 0 37.860980721907254 114.4815182244165 0 114.4815182244165 -104.51190919291366 0 0 0 0 -44.121234699812703 141.2498225069553 0 141.2498225069553 -39.27466106591055 0 0 0 0 -188.66179484152417 13.382971227259191 0 13.382971227259191 -24.957917462078512 0 0 0 0 -12.940703465059414 -17.949527110783038 0 -17.949527110783038 -87.754573929745675 0 0 0 0 -64.816444382960981 -37.125162763870776 0 -37.125162763870776 -216.07208615777881 0 0 0 0 -112.44415866268309 -90.654831549712071 0 -90.654831549712071 -137.59487059141338 0 0 0 0 -39.068775168823777 -223.79509842796301 0 -223.79509842796301 -74.642486025373955 0 0 0 0 -79.713878065155768 13.436388019986907 0 13.436388019986907 270.94816091395296 0 0 0 0 -26.160496172701187 57.932792808009708 0 57.932792808009708 -472.96144744492176 0 0 0 0 39.818322653881751 7.43087083472534 0 7.43087083472534 -437.29888547384962 0 0 0 0 -53.78067587995622 118.75608451860143 0 118.75608451860143 296.33569230170724 0 0 0 0 124.55712354018942 273.18927730213068 0 273.18927730213068 -190.02487577548527 0 0 0 0 368.24701237104773 75.324082176194565 0 75.324082176194565 -2.4154301127891813 0 0 0 0 -32.602448564521183 -22.693684869736899 0 -22.693684869736899 56.913920983499338 0 0 0 0 0.31705117899647339 -0.039603443390987536 0 -0.039603443390987536 4.5622960523732878 0 0 0 0 -0.66649249087095086 12.198589917436038 0 12.198589917436038 -6.7747384031372349 0 0 0 0 19.843993060138018 130.08667540793908 0 130.08667540793908 -4.1459480117569001 0 0 0 0 20.762420231818396 133.80206907085221 0 133.80206907085221 5.4270126768253988 0 0 0 0 124.37318132147084 259.16846206718492 0 259.16846206718492 28.047662233761912 0 0 0 0 -77.045266025758792 133.4455826674664 0 133.4455826674664 104.39683020382472 0 0 0 0 -75.234069145972171 129.56200138749 0 129.56200138749 -13.404821441471995 0 0 0 0 -352.24748255329268 -9.6661951677027105 0 -9.6661951677027105 19.185613111378643 0 0 0 0 -264.58626836354961 211.49865312236989 0 211.49865312236989 3.1788556134029022 0 0 0 0 -6.3968242467744858 73.709867154164385 0 73.709867154164385 -32.562368765797373 0 0 0 0 -0.64064891821931269 69.488837481263161 0 69.488837481263161 -29.649151007832188 0 0 0 0 -55.943078676031291 99.888737949510414 0 99.888737949510414 -1.6814683531722494 0 0 0 0 -122.18349202470529 83.400448874677537 0 83.400448874677537 10.436271275260424 0 0 0 0 -22.933129831058977 82.998352305791968 0 82.998352305791968 4.3186871800080553 0 0 0 0 -50.546205796261347 34.639177252146055 0 34.639177252146055 19.26873537352094 0 0 0 0 -59.380751563077865 162.28659910292436 0 162.28659910292436 -11.028770131486908 0 0 0 0 -115.74723596710749 160.44749046194423 0 160.44749046194423 27.127200114816787 0 0 0 0 -56.9471945116386 153.40666113073652 0 153.40666113073652 -21.37278851127985 0 0 0 0 -69.533758773375666 159.01778910227222 0 159.01778910227222 -23.412740772564575 0 0 0 0 -45.21379970425096 128.51761075230183 0 128.51761075230183 -31.005420449385383 0 0 0 0 -32.764929091670638 132.72227762430362 0 132.72227762430362 -42.067773356643784 0 0 0 0 -4.5826259642162768 99.772607410337059 0 99.772607410337059 -100.10028647717786 0 0 0 0 -37.016043263778556 151.0855186396733 0 151.0855186396733 -94.187848842597305 0 0 0 0 -38.653843613119534 148.20746631147836 0 148.20746631147836 -100.03144782616783 0 0 0 0 -228.66784328404538 167.86578636934053 0 167.86578636934053 -59.46647425903106 0 0 0 0 -114.04594199354869 148.36331467295327 0 148.36331467295327 -57.157818509114804 0 0 0 0 -108.42747151649201 135.33624765802824 0 135.33624765802824 -29.63643854404836 0 0 0 0 -110.28213621473333 146.65444200807906 0 146.65444200807906 -12.26916091116891 0 0 0 0 -91.400835936692602 196.2841282587292 0 196.2841282587292 -85.771158471005606 0 0 0 0 -64.190668920835378 159.53019013300809 0 159.53019013300809 -0.95870132123718577 0 0 0 0 3.8994226509057626 112.69055301357912 0 112.69055301357912 -7.0909703489251115 0 0 0 0 100.23559068480608 77.516801494610718 0 77.516801494610718 -26.174276926798029 0 0 0 0 -18.598140034291646 32.484839010368432 0 32.484839010368432 34.323679345746314 0 0 0 0 -14.444992708107748 24.534091953059658 0 24.534091953059658 36.06916462630943 0 0 0 0 -0.68487076697663918 3.7252525542299821 0 3.7252525542299821 13.2929280025872 0 0 0 0 -130.82159484711883 97.807534701360055 0 97.807534701360055 61.814191419800409 0 0 0 0 1.2080754235132662 3.9114546842896161 0 3.9114546842896161 -10.643344716021272 0 0 0 0 -205.58226721780557 58.570171357715822 0 58.570171357715822 -16.252396263042783 0 0 0 0 29.675893311844561 50.751550812974351 0 50.751550812974351 24.005359370787346 0 0 0 0 -168.30845401364422 98.584090257940034 0 98.584090257940034 -14.622401040694285 0 0 0 0 1.2143925246021041 0.96512711702104959 0 0.96512711702104959 -0.33267835023136261 0 0 0 0 -43.372346524163731 69.372350104589941 0 69.372350104589941 -9.7901144861380089 0 0 0 0 -175.89800516606829 114.62041228818094 0 114.62041228818094 -46.587691625449224 0 0 0 0 -631.01963934520268 248.3777653524148 0 248.3777653524148 -89.162058307633288 0 0 0 0 -0.2345107609648065 0.04259003729198696 0 0.04259003729198696 -3.6087147249049893 0 0 0 0 221.23821161792955 42.067548656539088 0 42.067548656539088 -226.14284005065051 0 0 0 0 -194.83480189536931 105.11494023840271 0 105.11494023840271 -49.776657587931822 0 0 0 0 104.28213385355502 -53.662733916903733 0 -53.662733916903733 -391.49501148172078 0 0 0 0 -14.957846914378024 422.80185713387107 0 422.80185713387107 -546.8327851322706 0 0 0 0 151.59593265188596 55.829678393227596 0 55.829678393227596 -113.18404979078194 0 0 0 0 -382.96865313159833 227.00267077653834 0 227.00267077653834 -133.85255094256104 0 0 0 0 -5.9302925069714547 93.68780993300129 0 93.68780993300129 -117.39568922828636 0 0 0 0 -177.83554713769263 338.43105559817695 0 338.43105559817695 -433.70645483712207 0 0 0 0 23.813189966964273 104.6912776189601 0 104.6912776189601 -220.23556539123842 0 0 0 0 -115.07776081784141 244.44187528497093 0 244.44187528497093 -217.81682070395664 0 0 0 0 2.3914263254278012 80.058589464282278 0 80.058589464282278 -131.48779294981773 0 0 0 0 -38.23874990958484 150.05009459125148 0 150.05009459125148 -91.984298880855476 0 0 0 0 16.163309693218253 98.903090009422726 0 98.903090009422726 -159.86709908362138 0 0 0 0 29.37988795243291 62.104577755442961 0 62.104577755442961 -75.804422221985078 0 0 0 0 33.052996627696757 -53.216544661941867 0 -53.216544661941867 -53.347311685302884 0 0 0 0 61.774993899771289 27.943072213264543 0 27.943072213264543 -166.31403889502846 0 0 0 0 53.686074609166781 -12.108487307982557 0 -12.108487307982557 -57.154209684434591 0 0 0 0 41.506795205335948 -4.5045783217926214 0 -4.5045783217926214 -45.001118315823476 0 0 0 0 51.805287929133556 8.5751570451882344 0 8.5751570451882344 -93.692948284719023 0 0 0 0 50.526113884639926 -15.67380308172261 0 -15.67380308172261 -40.974304557462482 0 0 0 0 39.775589603422304 4.9559032651964969 0 4.9559032651964969 -40.51174592974121 0 0 0 0 19.769153725239448 53.458778165746708 0 53.458778165746708 -79.085527446867786 0 0 0 0 33.760731542275607 37.303770405076648 0 37.303770405076648 -61.041630380408151 0 0 0 0 -10.735275951496988 111.74233849300964 0 111.74233849300964 -33.964078467765603 0 0 0 0 -199.45640740111776 -38.254810194600054 0 -38.254810194600054 59.25840334264376 0 0 0 0 56.977866521780015 30.349180341046818 0 30.349180341046818 18.805193537464675 0 0 0 0 -0.35895215259076707 -0.42163063359199882 0 -0.42163063359199882 4.9683758183935218 0 0 0 0 19.67474003238749 30.551052164910288 0 30.551052164910288 45.167062671085148 0 0 0 0 35.791022806135516 5.8402135017277601 0 5.8402135017277601 11.174662695222707 0 0 0 0 -124.28953024183784 -72.403578836669311 0 -72.403578836669311 69.917651647311004 0 0 0 0 -0.17252711558679579 0.53258999675429308 0 0.53258999675429308 -1.4203450747580284 0 0 0 0 67.241424719773931 22.275216746457431 0 22.275216746457431 3.3755252661703707 0 0 0 0 47.834462739781884 51.480709204045183 0 51.480709204045183 -1.9482479991299897 0 0 0 0 72.444041316181028 29.960460820812955 0 29.960460820812955 12.102830505042903 0 0 0 0 2.4163520631218489 27.926509320182788 0 27.926509320182788 25.108328851496594 0 0 0 0 1.3342753828103895 13.939946160288006 0 13.939946160288006 -15.970527646469975 0 0 0 0 11.305858782263385 12.933811676013818 0 12.933811676013818 -7.5136274573882247 0 0 0 0 -18.882463665001524 29.957690025976262 0 29.957690025976262 44.759429165060283 0 0 0 0 77.600695721421289 56.681454587778248 0 56.681454587778248 13.191606811388457 0 0 0 0 73.291752136527066 16.01751829334917 0 16.01751829334917 9.1633054935774396 0 0 0 0 -0.7727807743786812 1.7510465169221874 0 1.7510465169221874 -3.0352145331376472 0 0 0 0 -41.381292431968177 61.246527291263746 0 61.246527291263746 32.937459713818697 0 0 0 0 -11.556476542245946 -9.5122872746053488 0 -9.5122872746053488 41.043076739487475 0 0 0 0 -186.15513118606577 186.79688838180667 0 186.79688838180667 -62.312262244282167 0 0 0 0 -33.045352537746112 395.50161396116965 0 395.50161396116965 -300.17203683133602 0 0 0 0 104.07040040760148 263.89778652880233 0 263.89778652880233 -239.5926633535293 0 0 0 0 -204.53646301443587 406.39314378525245 0 406.39314378525245 -304.42628188927841 0 0 0 0 -0.0067126411850111367 0.88485469634830594 0 0.88485469634830594 -2.2105180274388343 0 0 0 0 -218.23695959754696 -4.4347461929895644 0 -4.4347461929895644 -9.0696103091493114 0 0 0 0 -246.00053440813281 -34.898499309096138 0 -34.898499309096138 -31.431576294034073 0 0 0 0 -53.054842306916726 -153.59382840007805 0 -153.59382840007805 121.39776810085118 0 0 0 0 -0.0061976785950665914 -0.28096199718927295 0 -0.28096199718927295 1.9311078510386215 0 0 0 0 18.561182232344436 12.258745837885726 0 12.258745837885726 42.47087138090199 0 0 0 0 128.64032123494144 75.965605556537128 0 75.965605556537128 -21.899116305919421 0 0 0 0 16.07358623953769 55.201488735200485 0 55.201488735200485 -53.530532130438075 0 0 0 0 -23.321657539770968 114.82102603100682 0 114.82102603100682 -13.975252575689638 0 0 0 0 -17.811633739598619 37.521540334486929 0 37.521540334486929 23.960746682109928 0 0 0 0 -32.904818669012457 22.186192511039657 0 22.186192511039657 15.752913993372488 0 0 0 0 -43.159190843194665 56.899907120991941 0 56.899907120991941 46.340461755642707 0 0 0 0 -36.503134547068839 8.1951860518734705 0 8.1951860518734705 44.592964783104449 0 0 0 0 -42.676600219150714 10.329101779855947 0 10.329101779855947 52.12964574442654 0 0 0 0 -13.480464811240381 2.2525596482975061 0 2.2525596482975061 53.15650970684392 0 0 0 0 -16.808025682923471 14.187663827121071 0 14.187663827121071 42.725285992118302 0 0 0 0 16.332898344868227 18.656584519723907 0 18.656584519723907 33.921518874527919 0 0 0 0 18.090304389601556 11.932531282310432 0 11.932531282310432 27.597648050494172 0 0 0 0 9.0835194931132719 17.939171789522874 0 17.939171789522874 31.275028297663567 0 0 0 0 -13.645579225085385 -9.3714744117751678 0 -9.3714744117751678 29.088914068733317 0 0 0 0 -10.86050946274554 12.636057917186832 0 12.636057917186832 25.832204770729867 0 0 0 0 -7.5644377745556994 17.570053256034157 0 17.570053256034157 -2.0287688808210902 0 0 0 0 -21.18144820814814 -0.63205065160613572 0 -0.63205065160613572 8.7755351522267233 0 0 0 0 -8.6800953520723851 15.316889189855317 0 15.316889189855317 18.273583274701963 0 0 0 0 13.812530907322071 13.033418032068511 0 13.033418032068511 16.16532990242699 0 0 0 0 3.8826529676298378 6.8925793964460809 0 6.8925793964460809 12.448424035560095 0 0 0 0 -5.3926096591058013 51.593543239634641 0 51.593543239634641 -32.674050118071591 0 0 0 0 -4.0970237136916694 22.609878329336311 0 22.609878329336311 -13.304382353673248 0 0 0 0 0.92141733294859307 2.1807758899013123 0 2.1807758899013123 4.7785782848428617 0 0 0 0 -34.166821883837656 9.6233143702643673 0 9.6233143702643673 19.357309051343691 0 0 0 0 -16.026700984240051 2.0597661725167331 0 2.0597661725167331 8.8206662787270886 0 0 0 0 -5.6708662459095649 28.721182587531473 0 28.721182587531473 -10.344980798314026 0 0 0 0 15.438093648126596 10.848456573526022 0 10.848456573526022 -2.1043339076011307 0 0 0 0 0.47817598751788282 0.82625954993788042 0 0.82625954993788042 1.6819762692692515 0 0 0 0 114.96307183439149 52.667724412048941 0 52.667724412048941 9.0632684406560884 0 0 0 0 -37.710026711247338 16.198918796524438 0 16.198918796524438 100.62540006017485 0 0 0 0 10.602424780245201 -45.34886413895974 0 -45.34886413895974 50.691821007167761 0 0 0 0 13.699039116956556 -60.907859525746474 0 -60.907859525746474 122.48466766986353 0 0 0 0 -23.512686442440099 14.044780764919231 0 14.044780764919231 74.591919177820088 0 0 0 0 -22.410877995760529 37.007771801171678 0 37.007771801171678 259.28632122680858 0 0 0 0 -5.7363233224969008 87.394605666616414 0 87.394605666616414 96.358510630788544 0 0 0 0 112.65153420530623 -44.444711269067838 0 -44.444711269067838 105.76020803079781 0 0 0 0 79.954900056531187 140.77515007211554 0 140.77515007211554 87.402992072325219 0 0 0 0 -0.44972218700988265 -0.016458482336567215 0 -0.016458482336567215 0.2589931123206905 0 0 0 0 7.5495302671752142 57.823216342261006 0 57.823216342261006 65.438473746527563 0 0 0 0 -0.9696092851797502 0.2248463948509194 0 0.2248463948509194 0.27273848226751662 0 0 0 0 -5.0852570156494039 58.039494738083647 0 58.039494738083647 111.01615268363491 0 0 0 0 25.274072662017716 90.695688298933931 0 90.695688298933931 139.61358307520754 0 0 0 0 4.7437231160956799 48.568524027210231 0 48.568524027210231 55.470666710640671 0 0 0 0 10.952699023250716 31.39001662156479 0 31.39001662156479 34.972855444314831 0 0 0 0 8.6957251707899559 20.0590687092172 0 20.0590687092172 76.598318502755518 0 0 0 0 -13.647044946406822 117.9753765024077 0 117.9753765024077 -29.564115242718799 0 0 0 0 -8.3240438764296414 49.638959227551823 0 49.638959227551823 91.700988984808674 0 0 0 0 0.032135732581082266 44.985870031348497 0 44.985870031348497 85.73819310295687 0 0 0 0 -0.67936873880950799 0.12750261254137385 0 0.12750261254137385 0.2507695038502159 0 0 0 0 -0.58267881525875298 154.98184033524996 0 154.98184033524996 -2.3915295416852587 0 0 0 0 -67.79354930210684 147.93705534939147 0 147.93705534939147 15.238982952544575 0 0 0 0 24.973900131502887 84.644394221443861 0 84.644394221443861 -11.45787893533452 0 0 0 0 20.5157910829044 14.968093967222062 0 14.968093967222062 43.104386644511806 0 0 0 0 -77.294044440957805 85.243098621849185 0 85.243098621849185 2.7831092194495568 0 0 0 0 -17.809876822404476 71.429931236067205 0 71.429931236067205 -41.580599632870758 0 0 0 0 -46.177802290130785 45.054931774927809 0 45.054931774927809 -60.940094634310071 0 0 0 0 -22.438101911498052 43.48642932890138 0 43.48642932890138 -22.262739827100859 0 0 0 0 -40.024322989099346 86.763244814182826 0 86.763244814182826 -12.388500531293175 0 0 0 0 -165.45106899311759 128.02746001113519 0 128.02746001113519 17.851207732263674 0 0 0 0 -0.0044187170463975117 5.7540328772310447 0 5.7540328772310447 -5.9973299902508188 0 0 0 0 0.43226984795748891 0.68602583993452271 0 0.68602583993452271 -0.28032696256224732 0 0 0 0 -130.37658360462592 47.505697775750264 0 47.505697775750264 -20.497202136263695 0 0 0 0 16.331405361102043 59.83496507654516 0 59.83496507654516 52.951691325171282 0 0 0 0 43.940695925392902 48.463417942336946 0 48.463417942336946 -10.173064358372585 0 0 0 0 1.6747056880194577 64.398652443610558 0 64.398652443610558 -4.6234340251940012 0 0 0 0 19.075914605791695 34.228647021092343 0 34.228647021092343 -3.6294360976298776 0 0 0 0 0.14244548459646467 47.548298543932788 0 47.548298543932788 -39.553335420083386 0 0 0 0 28.40116776668583 31.47381046232249 0 31.47381046232249 -21.235320111712554 0 0 0 0 12.944587835318089 64.58641932338287 0 64.58641932338287 -23.265013667145695 0 0 0 0 14.649056949274382 51.850511976669793 0 51.850511976669793 -47.545886542178778 0 0 0 0 5.7453627564318595 64.155295791163212 0 64.155295791163212 -53.662417547679979 0 0 0 0 -12.607868565793979 66.6877327739561 0 66.6877327739561 -46.094905084636139 0 0 0 0 3.148994183718969 56.245583810782023 0 56.245583810782023 -43.316934160310211 0 0 0 0 5.5297568161868185 58.325607948049935 0 58.325607948049935 -47.50071823827534 0 0 0 0 -6.1955524172535661 62.665927802381361 0 62.665927802381361 -46.060694813507212 0 0 0 0 -19.872928075754317 20.123724515188769 0 20.123724515188769 -16.360301719766312 0 0 0 0 0.89299704838234817 1.0480901726268144 0 1.0480901726268144 -0.43011555524087974 0 0 0 0 -66.614610501101197 79.943619058517356 0 79.943619058517356 -51.4351904177189 0 0 0 0 -27.210498686223218 39.994680291458224 0 39.994680291458224 -38.576076135392213 0 0 0 0 20.396853716556507 31.831470788209117 0 31.831470788209117 -37.599061186375366 0 0 0 0 -0.041292709785921033 19.64038148897032 0 19.64038148897032 -27.123306216022911 0 0 0 0 -39.07436767521358 46.946731089241098 0 46.946731089241098 -46.217178099783723 0 0 0 0 0.93332629517804477 0.94275825386781875 0 0.94275825386781875 -0.73185682421992837 0 0 0 0 -42.237973146782679 45.026455786025849 0 45.026455786025849 -46.972718533008447 0 0 0 0 -101.18341420999423 104.77875250563102 0 104.77875250563102 -73.672546890578531 0 0 0 0 -0.0073022036140173441 58.98459217089453 0 58.98459217089453 -78.027307415396393 0 0 0 0 9.2186800661147572 46.076866750924864 0 46.076866750924864 -28.524700368872118 0 0 0 0 15.51851621064543 51.512146107290846 0 51.512146107290846 -58.456478896620411 0 0 0 0 11.573785868171399 54.132159587850765 0 54.132159587850765 -45.307734264979331 0 0 0 0 107.31235043589913 2.1567101376541586 0 2.1567101376541586 -47.187119210018864 0 0 0 0 0.54338878825571513 0.5382058458436525 0 0.5382058458436525 -0.558961142889709 0 0 0 0 -20.049898367520655 46.236720975826756 0 46.236720975826756 -49.76879414763971 0 0 0 0 8.174048343665163 31.400211246810272 0 31.400211246810272 -71.465107809060555 0 0 0 0 1.9994234837986369 67.065245077663462 0 67.065245077663462 -64.511053168562739 0 0 0 0 -30.13591881940556 59.316693603431531 0 59.316693603431531 -49.77897619806663 0 0 0 0 -61.818567536451155 71.890717549181318 0 71.890717549181318 -69.362731009083063 0 0 0 0 -33.658127477916423 69.5188404245539 0 69.5188404245539 -71.325095290457284 0 0 0 0 -60.693332489739987 33.126050302324529 0 33.126050302324529 -77.3057987327918 0 0 0 0 -20.496865128102286 51.828764786864042 0 51.828764786864042 -99.407067019900296 0 0 0 0 -130.20212543787784 130.35276048164906 0 130.35276048164906 -148.20239033756229 0 0 0 0 -46.590376746113634 52.552981388870307 0 52.552981388870307 -182.22744050941219 0 0 0 0 196.96813896535969 5.3006473977477526 0 5.3006473977477526 -198.42620995254219 0 0 0 0 -103.56926321261562 -73.645616397446247 0 -73.645616397446247 9.2294436183642574 0 0 0 0 -155.47774099389608 34.44526954190485 0 34.44526954190485 5.398905610237307 0 0 0 0 -16.549315644246235 -90.442644258227119 0 -90.442644258227119 -72.084189442102797 0 0 0 0 1.0731758881944629 0.32259904069486112 0 0.32259904069486112 -3.1571609817592723 0 0 0 0 33.053133227682792 5.5541942613466517 0 5.5541942613466517 2.5453297242838744 0 0 0 0 -44.917929247941174 -55.933162293409509 0 -55.933162293409509 -86.470797063459941 0 0 0 0 -28.286558010593581 -131.02677818591474 0 -131.02677818591474 151.89696532173912 0 0 0 0 -48.227247399598127 -61.271355170391644 0 -61.271355170391644 -78.657144818427696 0 0 0 0 28.356840224735606 -205.12022811924817 0 -205.12022811924817 -15.713831594181102 0 0 0 0 -194.72178958605946 139.45579138143785 0 139.45579138143785 -87.559111676596785 0 0 0 0 -58.822221143671413 77.009717204076424 0 77.009717204076424 -110.45133788044677 0 0 0 0 -155.947519527439 86.204255944667239 0 86.204255944667239 -40.676287520837377 0 0 0 0 1.4985113526581344 5.0535301502887791 0 5.0535301502887791 8.9704483758826221 0 0 0 0 -4.5636146025235576 21.335026699094804 0 21.335026699094804 5.2685347720679943 0 0 0 0 -81.772077540339524 62.3588244531486 0 62.3588244531486 -34.193340944509146 0 0 0 0 3.9526222602106813 7.6407741676274421 0 7.6407741676274421 -6.6205533313315179 0 0 0 0 15.911792998398596 8.9204833595673847 0 8.9204833595673847 2.7345481487314771 0 0 0 0 -0.47843384321095073 15.268876861687971 0 15.268876861687971 7.1498125541088768 0 0 0 0 20.521801626731758 -124.5580085989568 0 -124.5580085989568 -40.808795039549295 0 0 0 0 1.3234677835644106 19.492011844801794 0 19.492011844801794 7.1380541627688103 0 0 0 0 14.163469865090974 13.608629731265559 0 13.608629731265559 1.5947544482477838 0 0 0 0 -3.4875681082594383 9.7577446851692571 0 9.7577446851692571 -3.7906053366554318 0 0 0 0 -31.369440250186926 22.042497874804297 0 22.042497874804297 10.787666499047248 0 0 0 0 1.1371223667056114 2.9773694402798938 0 2.9773694402798938 7.5432995644611234 0 0 0 0 -36.820891176046644 41.616550532395138 0 41.616550532395138 -20.973104324478072 0 0 0 0 -6.1514061402033349 62.724788079141661 0 62.724788079141661 -53.43610352705582 0 0 0 0 -49.159413508241414 47.278690682539263 0 47.278690682539263 -19.741495901059409 0 0 0 0 -84.738749173031465 68.727873584337829 0 68.727873584337829 -29.718952090464882 0 0 0 0 -32.539366610751131 -6.4646246181571314 0 -6.4646246181571314 22.642938457403943 0 0 0 0 25.510744826777227 77.2562005995253 0 77.2562005995253 -20.878745714075194 0 0 0 0 -6.6526271128077497 18.494168399686487 0 18.494168399686487 -30.212331445276959 0 0 0 0 -30.574939210070625 11.533209772798386 0 11.533209772798386 23.242351553599974 0 0 0 0 -5.2533129900075437 28.475416910527258 0 28.475416910527258 32.778476982204666 0 0 0 0 -0.75298788402233185 60.442508682460129 0 60.442508682460129 5.2396718546924603 0 0 0 0 -5.6665231020251667 0.17907115762409376 0 0.17907115762409376 12.697781631757152 0 0 0 0 1.7905305633639728 30.993596261339007 0 30.993596261339007 -3.9403435711647035 0 0 0 0 -20.97484925201752 47.089118141258496 0 47.089118141258496 -3.4529899725883411 0 0 0 0 -88.638864048832147 103.91057419019126 0 103.91057419019126 -51.023659686296469 0 0 0 0 -66.611295760430949 12.286769027610717 0 12.286769027610717 34.839887805472472 0 0 0 0 -1.1554174538732127 1.210740358571651 0 1.210740358571651 -1.4251775680596914 0 0 0 0 5.5179197902230044 35.833303299253316 0 35.833303299253316 44.686238588109063 0 0 0 0 -3.4798273206004033 3.8026102365454078 0 3.8026102365454078 -3.866341121422824 0 0 0 0 73.545790863490765 32.763208462175498 0 32.763208462175498 -61.37239849664752 0 0 0 0 29.330778231979821 -0.60371932522070892 0 -0.60371932522070892 -77.151375145040674 0 0 0 0 36.244857721407243 51.113471867012777 0 51.113471867012777 -62.146941710207784 0 0 0 0 31.91573219156021 40.683159715714169 0 40.683159715714169 -62.925760036205247 0 0 0 0 -7.4308112988528592 66.351648661857325 0 66.351648661857325 -78.763124441346008 0 0 0 0 19.370371327730027 74.914829449140598 0 74.914829449140598 -33.916613979191879 0 0 0 0 17.73986608739142 51.36366929630185 0 51.36366929630185 -12.729472945392445 0 0 0 0 40.383739827720774 32.652095105329522 0 32.652095105329522 -29.64268944088326 0 0 0 0 15.951570549195822 53.864874982804395 0 53.864874982804395 -0.20757437859538186 0 0 0 0 -86.57863399998314 105.06127084031914 0 105.06127084031914 -143.29601885421016 0 0 0 0 -27.877280893064381 23.339083665271573 0 23.339083665271573 -65.886557933337826 0 0 0 0 -8.6344509460668633 65.60357256610223 0 65.60357256610223 -119.42676975200584 0 0 0 0 18.034390144614008 27.68765008092123 0 27.68765008092123 -140.56886511047105 0 0 0 0 8.8987951664421416 26.495348170673424 0 26.495348170673424 -123.83899331999237 0 0 0 0 -9.6034536625984401 46.805210854127381 0 46.805210854127381 -51.300884164566014 0 0 0 0 -12.155995835437352 61.50750209917851 0 61.50750209917851 -2.1225432292058031 0 0 0 0 14.285403037003221 34.362215817516983 0 34.362215817516983 -45.927383907937838 0 0 0 0 -7.9076640339144433 12.653071576457478 0 12.653071576457478 11.614343983516846 0 0 0 0 -36.735495321509916 58.614268964397979 0 58.614268964397979 -39.330873014660483 0 0 0 0 -23.61539766462829 45.224220322187648 0 45.224220322187648 38.176446525305892 0 0 0 0 -1.9404961829501701 30.240173444543956 0 30.240173444543956 46.936306239460464 0 0 0 0 -0.6902088753759017 67.620924067239685 0 67.620924067239685 79.304956251863132 0 0 0 0 46.827460153286665 13.097532978928939 0 13.097532978928939 33.213095156668714 0 0 0 0 72.484833295489807 68.039620606586141 0 68.039620606586141 31.183290586794101 0 0 0 0 -1.2804122948571752 0.32592803033037043 0 0.32592803033037043 1.0264143071702279 0 0 0 0 39.328760763407445 22.406687358833551 0 22.406687358833551 16.208222206671053 0 0 0 0 -9.0592358595131373 29.638101362968882 0 29.638101362968882 30.748178430258122 0 0 0 0 10.369238737706382 51.043658395791681 0 51.043658395791681 51.662350009328293 0 0 0 0 -5.9467946464972421 5.9649422562000813 0 5.9649422562000813 -5.6309859865016207 0 0 0 0 5.4567333132290514 40.19098672517066 0 40.19098672517066 2.7653450809141304 0 0 0 0 5.152257635623755 40.430780190668884 0 40.430780190668884 52.624048567205136 0 0 0 0 17.660530251231648 79.801562861471666 0 79.801562861471666 16.814640595059245 0 0 0 0 35.644261163805595 44.861520486711754 0 44.861520486711754 -28.57174022189065 0 0 0 0 -21.089169281996874 9.3689955374957208 0 9.3689955374957208 26.45989979089336 0 0 0 0 -6.8182329400606676 7.6961443089606476 0 7.6961443089606476 -7.7042432885423295 0 0 0 0 -10.4867850560222 26.296700517695172 0 26.296700517695172 51.707412559120712 0 0 0 0 4.7357208052835631 -44.773816527519102 0 -44.773816527519102 -58.346985419539351 0 0 0 0 -0.95743879561624112 0.025769940558396209 0 0.025769940558396209 -0.0014709469076183979 0 0 0 0 16.078258036490297 4.3516501025057437 0 4.3516501025057437 24.935916464459297 0 0 0 0 3.58517090384521 18.15041068349592 0 18.15041068349592 14.866985258955992 0 0 0 0 6.3696557546168151 30.046265906895712 0 30.046265906895712 23.1728452528655 0 0 0 0 -0.81089940470562283 2.6252500890413386 0 2.6252500890413386 -1.1685363202420493 0 0 0 0 6.4628010179985722 27.142894104071729 0 27.142894104071729 7.0091839917158723 0 0 0 0 -3.6218342391166516 21.174758079168896 0 21.174758079168896 20.740680107412118 0 0 0 0 -1.7871458116223948 29.596841645087352 0 29.596841645087352 -2.8252096624169099 0 0 0 0 -13.123133250439423 14.541001136527484 0 14.541001136527484 1.8997741262510317 0 0 0 0 -3.4023423388425726 19.331585870926119 0 19.331585870926119 0.23504902618424239 0 0 0 0 1.3911659927571236 8.4232844624539212 0 8.4232844624539212 7.2511368204213795 0 0 0 0 4.691273108479443 12.112974738983191 0 12.112974738983191 -2.6378703388728377 0 0 0 0 -16.131691506863717 28.076747791777962 0 28.076747791777962 -1.8331837436712703 0 0 0 0 13.295567518604457 24.991101196267664 0 24.991101196267664 5.3017844822588813 0 0 0 0 8.8243341591842182 41.101600088261421 0 41.101600088261421 23.101150618891552 0 0 0 0 18.29276226831098 32.335770750388292 0 32.335770750388292 10.422820689727814 0 0 0 0 -3.3138721503091801 40.242595169867855 0 40.242595169867855 7.7929010584985008 0 0 0 0 15.812564172061684 24.924797253090219 0 24.924797253090219 -18.374933697698907 0 0 0 0 10.593188052171172 -2.4961263212726408 0 -2.4961263212726408 -18.772577277743039 0 0 0 0 24.536523089594994 -5.8152228856797592 0 -5.8152228856797592 -28.889573827720596 0 0 0 0 3.6717624240809528 17.772073297100633 0 17.772073297100633 20.908439913700931 0 0 0 0 -4.8204815001277463 10.37018714079826 0 10.37018714079826 -7.9913595668646664 0 0 0 0 2.3972709459811412 0.63749616566196288 0 0.63749616566196288 -2.4104797040964989 0 0 0 0 -7.7236084634698727 21.793545613775791 0 21.793545613775791 20.3687634570706 0 0 0 0 11.675860944016677 21.688484995052477 0 21.688484995052477 8.4601662924069387 0 0 0 0 4.1093186124271597 17.638591966070635 0 17.638591966070635 10.383008069983589 0 0 0 0 18.191516719428549 17.027920179636954 0 17.027920179636954 9.1831723293979515 0 0 0 0 3.1057756145962987 11.93487986413253 0 11.93487986413253 5.3910821396996447 0 0 0 0 4.4157132944828845 6.6991434239170644 0 6.6991434239170644 11.615432547807565 0 0 0 0 7.6166729789631518 11.844226767776888 0 11.844226767776888 4.011653366689643 0 0 0 0 6.6331169388193985 9.6875335936586708 0 9.6875335936586708 4.0554082617752876 0 0 0 0 -12.156427801190603 27.093018612844084 0 27.093018612844084 -7.8459408527971632 0 0 0 0 38.027101763536848 10.278689526051469 0 10.278689526051469 -7.3732968237319767 0 0 0 0 3.4903918733461552 2.1601094793351381 0 2.1601094793351381 0.70737562905382378 0 0 0 0 26.930374345745804 26.916317477399115 0 26.916317477399115 -29.29029710765866 0 0 0 0 21.292040919306601 10.214190311501937 0 10.214190311501937 -25.457758121322307 0 0 0 0 3.271237307571937 33.470470306366565 0 33.470470306366565 -17.077107587461768 0 0 0 0 -15.237200595872309 40.969649391154761 0 40.969649391154761 -19.242650443375588 0 0 0 0 4.8171808524239168 10.537785424130107 0 10.537785424130107 -19.751948069753325 0 0 0 0 -0.2137452384486096 27.086185152140843 0 27.086185152140843 -25.342180537584909 0 0 0 0 2.8296876817699257 1.6441739147174061 0 1.6441739147174061 0.98643414652497619 0 0 0 0 -28.639560277552164 -38.281744450562911 0 -38.281744450562911 45.922722870811413 0 0 0 0 -9.3101439836427744 37.858632035492974 0 37.858632035492974 16.137855137718816 0 0 0 0 14.214512854146987 11.650971567366074 0 11.650971567366074 8.9931006337192763 0 0 0 0 1.5647659471751751 4.7880470735709864 0 4.7880470735709864 5.249926442642157 0 0 0 0 -5.539527041981124 105.32975682908429 0 105.32975682908429 -38.152481424414347 0 0 0 0 -6.7416208101531083 32.688786110171833 0 32.688786110171833 -38.08169311380054 0 0 0 0 13.037824810264764 12.66613442561699 0 12.66613442561699 10.853190379297832 0 0 0 0 -52.575024708450655 76.408547102671037 0 76.408547102671037 29.769763986512686 0 0 0 0 -20.68774301171652 -43.866656409669758 0 -43.866656409669758 120.92923846341546 0 0 0 0 36.632539507425463 10.308506083101975 0 10.308506083101975 -31.048906363301285 0 0 0 0 0.74839689780086616 0.58320015742870268 0 0.58320015742870268 0.49041207972296519 0 0 0 0 48.05505921903432 57.057777131698828 0 57.057777131698828 13.889448718906351 0 0 0 0 12.275695960062876 29.014874900311725 0 29.014874900311725 -4.5630743588851601 0 0 0 0 -8.9781084481478501 10.83050005821832 0 10.83050005821832 -7.3965128873433059 0 0 0 0 15.043170728247787 15.184557273189512 0 15.184557273189512 1.155687647380546 0 0 0 0 7.4854245334190637 6.6944026120884246 0 6.6944026120884246 -7.8332882431454891 0 0 0 0 12.861259154455979 30.406806813725993 0 30.406806813725993 -6.1578360235234868 0 0 0 0 5.0006199092258612 37.422954059438553 0 37.422954059438553 1.7563003452657995 0 0 0 0 -3.9969867963100114 47.443992863231642 0 47.443992863231642 -7.1828170054398015 0 0 0 0 5.106283966510091 10.493868630904217 0 10.493868630904217 8.9162798053889674 0 0 0 0 -9.1463233216240951 34.599453105896202 0 34.599453105896202 25.126224189956702 0 0 0 0 6.0724035630428261 43.064554007284414 0 43.064554007284414 -13.994545869103376 0 0 0 0 -3.5570784889105198 41.482140305277881 0 41.482140305277881 -7.4423683002764847 0 0 0 0 13.286376900777668 39.430465084559842 0 39.430465084559842 -10.888838493165622 0 0 0 0 -0.90207346282659273 20.305169873983914 0 20.305169873983914 64.103315342549195 0 0 0 0 -15.85765486218861 26.138846042574869 0 26.138846042574869 14.449896855872566 0 0 0 0 -0.82711661711255147 22.921626314360992 0 22.921626314360992 4.0958553003752058 0 0 0 0 -17.219340194980418 34.049051712702635 0 34.049051712702635 -4.3946778380982323 0 0 0 0 -30.110568677173433 23.791904022302333 0 23.791904022302333 -12.552551601082541 0 0 0 0 -33.910029715721066 40.097395452475894 0 40.097395452475894 -3.6699234095101474 0 0 0 0 -27.309626805668813 53.044876930492819 0 53.044876930492819 19.310291534795937 0 0 0 0 -20.482139301351481 78.751433826336751 0 78.751433826336751 -33.297716973381739 0 0 0 0 -63.77692664028109 37.288204857609344 0 37.288204857609344 39.878380287876098 0 0 0 0 -16.890018099242297 28.496150681681684 0 28.496150681681684 -12.251912638013891 0 0 0 0 1.3189901691489467 49.353859073827721 0 49.353859073827721 23.025939495654711 0 0 0 0 0.43301895741819152 0.43540429735134367 0 0.43540429735134367 0.14447177124364075 0 0 0 0 4.3987648614356658 48.985981515321555 0 48.985981515321555 -53.461112639366092 0 0 0 0 -57.137046001078488 32.512158562583636 0 32.512158562583636 17.102067611353277 0 0 0 0 20.223456742660346 14.855794228033119 0 14.855794228033119 -48.726699744326993 0 0 0 0 11.944654756213822 8.0978857258867265 0 8.0978857258867265 -41.935714135595845 0 0 0 0 1.0550495531033093 0.46047853937006522 0 0.46047853937006522 0.21125700139554571 0 0 0 0 0.51501892305714136 17.499994780452198 0 17.499994780452198 147.44497293255358 0 0 0 0 -41.985367152323306 96.292531155300708 0 96.292531155300708 5.0754719057695183 0 0 0 0 4.5830635405072826 57.96141999946849 0 57.96141999946849 -34.245164291597234 0 0 0 0 -13.454490008999528 24.692800141401904 0 24.692800141401904 -28.165206645048784 0 0 0 0 -46.043965336837573 49.355908547537638 0 49.355908547537638 -19.447051634147897 0 0 0 0 0.60856548271912203 0.81434671417771654 0 0.81434671417771654 0.61528767651146055 0 0 0 0 41.349835783557864 6.4703989128787498 0 6.4703989128787498 -45.359063632555262 0 0 0 0 31.286869323457722 32.017640537853595 0 32.017640537853595 -29.526057826414899 0 0 0 0 56.187953804113931 23.769198761538973 0 23.769198761538973 -27.864602622746588 0 0 0 0 39.626871741507784 7.5693202034820501 0 7.5693202034820501 -18.751198658138946 0 0 0 0 17.872075657878668 1.142219981424887 0 1.142219981424887 -19.520412212442313 0 0 0 0 20.949101423950196 10.966734961478096 0 10.966734961478096 -13.477307343048892 0 0 0 0 20.652971595263807 7.7560369645789535 0 7.7560369645789535 -10.381384198137681 0 0 0 0 -5.2211125011612154 9.4566935096773737 0 9.4566935096773737 -9.3846810105207155 0 0 0 0 25.914189441808048 16.600404343940681 0 16.600404343940681 -14.369143626269761 0 0 0 0 34.124233098638797 30.118916758869545 0 30.118916758869545 -17.800493537854038 0 0 0 0 -3.5548364240767114 13.857694823798738 0 13.857694823798738 -4.8115916288867311 0 0 0 0 1.2384365193793201 12.84495244549862 0 12.84495244549862 -5.398769542491209 0 0 0 0 -1.9809969724447001 16.715120248144331 0 16.715120248144331 -3.2426915909500167 0 0 0 0 -1.4042327841526721 2.4638844540925398 0 2.4638844540925398 -3.3365889843362515 0 0 0 0 15.693378424692128 -53.936578349890397 0 -53.936578349890397 31.082617939544434 0 0 0 0 -51.803771450226122 -8.7167054760302562 0 -8.7167054760302562 44.427009362674198 0 0 0 0 1.5175238925203303 1.8127199937252954 0 1.8127199937252954 9.5419507136002721 0 0 0 0 -7.1245653603691608 22.445906511292378 0 22.445906511292378 -0.26966480631222112 0 0 0 0 9.7707155598400277 0.14881703220771669 0 0.14881703220771669 10.027701862993126 0 0 0 0 -6.7247530443382857 24.54089235665333 0 24.54089235665333 -25.884576299442415 0 0 0 0 0.81254477549828152 18.429868203649107 0 18.429868203649107 -34.326693347304172 0 0 0 0 -1.6166891237935488 15.800488826657329 0 15.800488826657329 -26.688305169985995 0 0 0 0 3.2911668853927267 1.1134518831059399 0 1.1134518831059399 0.64543170738122413 0 0 0 0 -5.5284104514557839 6.6532144494949534 0 6.6532144494949534 56.528405244906253 0 0 0 0 2.6522514121888889 7.1432178202783234 0 7.1432178202783234 24.536170871953345 0 0 0 0 -0.36539116638618907 17.381277890484625 0 17.381277890484625 -12.758062680471994 0 0 0 0 0.98673407854494144 10.649411500376345 0 10.649411500376345 -22.347142087674911 0 0 0 0 4.0532538856418796 14.847262642391911 0 14.847262642391911 -15.558851209725617 0 0 0 0 3.8478269364277367 18.440184896979645 0 18.440184896979645 -18.848315382515466 0 0 0 0 4.6412639646308236 3.6468437382717038 0 3.6468437382717038 -1.6558899021375977 0 0 0 0 14.07888524352893 26.168151440366046 0 26.168151440366046 6.1655576909861338 0 0 0 0 -5.3744836579518918 8.8994739496576472 0 8.8994739496576472 -8.1817828155784138 0 0 0 0 13.696785321181778 34.159869085299079 0 34.159869085299079 15.348499918113703 0 0 0 0 -4.2004652808900573 12.805725083055677 0 12.805725083055677 21.415978775042959 0 0 0 0 -47.89742731790102 36.652154668604453 0 36.652154668604453 -11.749095345424848 0 0 0 0 -1.8900753770787979 5.2448839004542336 0 5.2448839004542336 -7.9487898231195437 0 0 0 0 -27.330966877283572 80.691919636724037 0 80.691919636724037 11.136631418196885 0 0 0 0 43.855187684370321 9.1473059967784138 0 9.1473059967784138 -14.872973665024347 0 0 0 0 -0.97870096161610576 2.6352020364924833 0 2.6352020364924833 -2.5732277856457872 0 0 0 0 19.274605024465927 42.400765648344134 0 42.400765648344134 33.310562383039723 0 0 0 0 46.279565635481049 46.064614661501082 0 46.064614661501082 1.8323758924639151 0 0 0 0 -3.2041595308471642 41.533352687348469 0 41.533352687348469 28.558516574920304 0 0 0 0 -1.4117550057453521 1.7585079438042559 0 1.7585079438042559 -2.8068605355122678 0 0 0 0 54.271382717228789 13.037860574458364 0 13.037860574458364 -147.25244571514168 0 0 0 0 -18.822447661897968 19.194082717125411 0 19.194082717125411 21.662744804283307 0 0 0 0 -5.8967428067307992 10.182045318775522 0 10.182045318775522 -48.331172208867429 0 0 0 0 -4.7592242470927886 67.126660432931203 0 67.126660432931203 -83.270917515724477 0 0 0 0 -7.6070259533480566 30.674240888150507 0 30.674240888150507 -32.790151164285817 0 0 0 0 -19.637950905345861 21.892488283267767 0 21.892488283267767 30.159410691496305 0 0 0 0 10.336425659001179 8.4902757315423969 0 8.4902757315423969 28.310183417289409 0 0 0 0 20.314410680928177 50.448863593973783 0 50.448863593973783 43.20028250915766 0 0 0 0 17.218898742919009 32.684535849070016 0 32.684535849070016 -36.664816904058171 0 0 0 0 12.623614350744674 29.981246392587082 0 29.981246392587082 -62.50437473965394 0 0 0 0 -14.650899809114435 99.140750189675032 0 99.140750189675032 -70.142655370374996 0 0 0 0 -96.708556290528577 172.33711106379405 0 172.33711106379405 -131.9027799812277 0 0 0 0 14.778102032893912 78.002927679267486 0 78.002927679267486 -153.90150803791767 0 0 0 0 -21.691660297832641 56.070585612398872 0 56.070585612398872 -90.252270895503898 0 0 0 0 314.98692886791287 49.289145876591192 0 49.289145876591192 -121.12999486187232 0 0 0 0 0.1184704628822093 0.82033873231208787 0 0.82033873231208787 -0.80000470516237954 0 0 0 0 -42.712741018412999 181.39230931151224 0 181.39230931151224 -147.33943407122752 0 0 0 0 -3.8582058872016205 135.60989032978796 0 135.60989032978796 -213.82679664616057 0 0 0 0 -31.952048688106515 42.180578262581093 0 42.180578262581093 48.679502385650608 0 0 0 0 -3.7533700042758937 54.893932401631446 0 54.893932401631446 -9.6132480499545636 0 0 0 0 0.33678116665458191 0.41775931988032866 0 0.41775931988032866 0.29966007139394613 0 0 0 0 -66.421976844167148 10.849892825147663 0 10.849892825147663 59.779409064321953 0 0 0 0 -46.48052642474795 -17.066883452566799 0 -17.066883452566799 54.826206461063066 0 0 0 0 21.805474151660746 -1.0833299210908081 0 -1.0833299210908081 6.7697725085490674 0 0 0 0 27.309246005672776 100.32015311174935 0 100.32015311174935 6.1587022011663066 0 0 0 0 -96.370130704481198 96.910155065485924 0 96.910155065485924 15.781443580558744 0 0 0 0 0.21593640349608023 0.19559310316146394 0 0.19559310316146394 -0.23621554244851595 0 0 0 0 107.59220639242722 -11.512205792902023 0 -11.512205792902023 -27.495988431720434 0 0 0 0 -61.9804889586012 9.6760151340836273 0 9.6760151340836273 10.875541325817608 0 0 0 0 -33.685480313655717 29.49167925015081 0 29.49167925015081 -36.985051161224419 0 0 0 0 -43.071954156426727 60.988840763372536 0 60.988840763372536 -28.596030162174429 0 0 0 0 0.59430787530609308 0.42098901689125867 0 0.42098901689125867 -0.82213691222070651 0 0 0 0 27.428233158077092 17.977749953587363 0 17.977749953587363 -47.607939929181157 0 0 0 0 -0.23078981680009747 40.499677234158753 0 40.499677234158753 -16.548479625660605 0 0 0 0 -13.839238454160295 83.029509431910355 0 83.029509431910355 -79.513077443739235 0 0 0 0 -18.745602790335397 38.050446820286652 0 38.050446820286652 -33.308597628047892 0 0 0 0 -25.880325349488885 42.414125213972966 0 42.414125213972966 -16.541059082338506 0 0 0 0 -22.645476326038988 65.493625277681986 0 65.493625277681986 -34.144215484902361 0 0 0 0 20.033997210123744 -34.838741420388033 0 -34.838741420388033 9.1725743627666816 0 0 0 0 -99.505163823352632 98.149862166827688 0 98.149862166827688 -80.509256613529487 0 0 0 0 18.604627732489917 -20.133951087312539 0 -20.133951087312539 -137.39706097987346 0 0 0 0 0.16545275368203605 0.12188505442809827 0 0.12188505442809827 -0.52066970465580908 0 0 0 0 0.52275551499871753 0.30457450655626417 0 0.30457450655626417 -1.0528826629865264 0 0 0 0 40.912575539412501 13.951410679212131 0 13.951410679212131 -81.406730433377561 0 0 0 0 -40.543095360379539 62.939963115104774 0 62.939963115104774 -59.01337644546129 0 0 0 0 -48.222578413930023 63.686645618246075 0 63.686645618246075 -58.25908958348964 0 0 0 0 -59.723761256709622 79.644423370249115 0 79.644423370249115 -69.675887883427094 0 0 0 0 -30.029253087880534 80.113310045147728 0 80.113310045147728 -71.161576063666871 0 0 0 0 -71.731600507934672 68.031715278133674 0 68.031715278133674 -31.231166334438058 0 0 0 0 -84.24623968007154 99.627654075969872 0 99.627654075969872 -84.724421143329891 0 0 0 0 -169.97718293239632 74.823071049336249 0 74.823071049336249 269.80123174603364 0 0 0 0 -20.65802513545168 78.545758029706121 0 78.545758029706121 -160.58742178938246 0 0 0 0 -0.66041669179136164 0.52958179707910702 0 0.52958179707910702 -0.030560576502475012 0 0 0 0 -56.403415554894309 34.507207019108591 0 34.507207019108591 2.4389147521751511 0 0 0 0 13.407563251408646 31.816249039029117 0 31.816249039029117 0.2350196725404885 0 0 0 0 -28.157209170658462 74.097513115932543 0 74.097513115932543 -91.542645917609434 0 0 0 0 -67.481648578543172 63.81210548342051 0 63.81210548342051 7.4636278629950539 0 0 0 0 -20.823300587328049 46.189812153830189 0 46.189812153830189 -68.926447545572955 0 0 0 0 44.963485246438722 89.728661063682921 0 89.728661063682921 8.482340405753348 0 0 0 0 16.426013270398471 25.942317168778573 0 25.942317168778573 37.162509274905005 0 0 0 0 -289.16515355099114 122.45296279523279 0 122.45296279523279 -35.976270131995989 0 0 0 0 0.37308746781080471 1.952476008434811 0 1.952476008434811 -1.3598932093671436 0 0 0 0 140.49324585852253 23.085276599831019 0 23.085276599831019 -10.67852510578814 0 0 0 0 -69.208678531875194 74.89345565247595 0 74.89345565247595 -26.384060945551482 0 0 0 0 -85.341944813154441 64.387654830685278 0 64.387654830685278 -30.981882154108916 0 0 0 0 -26.214962803707749 79.036043180808292 0 79.036043180808292 -77.689312598795823 0 0 0 0 -48.80372090408855 97.903366940661726 0 97.903366940661726 -80.50476716432388 0 0 0 0 -65.892848344749837 100.33399586275891 0 100.33399586275891 -62.433748909612405 0 0 0 0 -58.973020230601719 88.588629546059025 0 88.588629546059025 -50.175717564318802 0 0 0 0 -6.1718903380087795 48.148525213396852 0 48.148525213396852 -99.329199993360817 0 0 0 0 25.495109759252955 94.838586034760738 0 94.838586034760738 81.851366669526215 0 0 0 0 -0.22327896090181554 1.6241803852410346 0 1.6241803852410346 -0.61394848143297542 0 0 0 0 -15.269146737929987 20.011261504984304 0 20.011261504984304 -17.651969050218213 0 0 0 0 -18.178622924875526 10.294772962618481 0 10.294772962618481 -15.562209452458774 0 0 0 0 -28.25634234599238 19.422742702158303 0 19.422742702158303 -13.217898008002066 0 0 0 0 20.757486989896279 42.060518552406165 0 42.060518552406165 -1.1341668390568884 0 0 0 0 -4.4063219975905668 14.240624668189866 0 14.240624668189866 -21.069196364898289 0 0 0 0 46.086056683774814 25.765341263300968 0 25.765341263300968 -1.7344332368920732 0 0 0 0 -0.06082846561678279 2.5850888918399875 0 2.5850888918399875 -0.49011715149084623 0 0 0 0 15.67305659473277 23.387144475679634 0 23.387144475679634 21.939452919088581 0 0 0 0 -73.720471291452668 17.887466948249994 0 17.887466948249994 72.521544003548115 0 0 0 0 9.8550489750377892 38.960533501543068 0 38.960533501543068 4.0523190409209064 0 0 0 0 7.6028425961521862 26.264183267913722 0 26.264183267913722 7.2048013644624689 0 0 0 0 -63.66187518371953 71.837550742562598 0 71.837550742562598 -9.1261778994630731 0 0 0 0 -38.343510111611977 98.039517493617495 0 98.039517493617495 -46.912656638105545 0 0 0 0 -22.360369741358454 79.814848140335073 0 79.814848140335073 -72.829998506143966 0 0 0 0 -52.72832374708014 95.487852752368781 0 95.487852752368781 -78.791484385431431 0 0 0 0 -57.687481403403581 132.40886840748772 0 132.40886840748772 -217.39490387878323 0 0 0 0 -1.0848589712042909 0.36500922680670911 0 0.36500922680670911 -0.20353116720991293 0 0 0 0 5.0231418260045757 36.762367155497486 0 36.762367155497486 -332.34165106306227 0 0 0 0 -8.0798789296004543 102.40712584874291 0 102.40712584874291 -146.66698636230649 0 0 0 0 -0.61320410600819741 19.443004212955657 0 19.443004212955657 -147.84647691346618 0 0 0 0 -6.8367389075610845 24.610337341624472 0 24.610337341624472 -102.82996530400487 0 0 0 0 3.3897682249262289 40.145288921299652 0 40.145288921299652 -96.74894342267271 0 0 0 0 -2.8618976108387173 1.7166362068244059 0 1.7166362068244059 -0.10643684942577281 0 0 0 0 66.649590799127282 3.0146830841249539 0 3.0146830841249539 -68.253553411144821 0 0 0 0 -0.27007480122934258 0.95133218976419798 0 0.95133218976419798 -0.19193060198104206 0 0 0 0 7.1294069868581573 55.435429124835991 0 55.435429124835991 -24.965135381089567 0 0 0 0 13.730049317702651 42.634939100463271 0 42.634939100463271 -104.27695930672053 0 0 0 0 31.677647645137768 80.382844050805943 0 80.382844050805943 -70.000384327774555 0 0 0 0 17.508677986488692 75.287800665337727 0 75.287800665337727 -66.009501065458608 0 0 0 0 -19.143207951305612 100.70400116061728 0 100.70400116061728 -68.41357937570865 0 0 0 0 15.129564184120682 82.915194729940595 0 82.915194729940595 -87.459454145793643 0 0 0 0 5.7338210793677717 72.603015247477288 0 72.603015247477288 -88.022416808189519 0 0 0 0 5.7338113001642341 78.644241178673838 0 78.644241178673838 -50.742674431713567 0 0 0 0 -22.161505226969894 91.850131486954524 0 91.850131486954524 -27.509998706835177 0 0 0 0 3.2938106053902629 86.058919642483716 0 86.058919642483716 -49.324310956944828 0 0 0 0 19.226966269165132 73.597877327650167 0 73.597877327650167 -41.490544783640871 0 0 0 0 20.759171101966785 73.023359956106106 0 73.023359956106106 -49.903860056472695 0 0 0 0 43.078410113743303 66.199545917949763 0 66.199545917949763 -57.931956141191222 0 0 0 0 53.531031406458169 63.120791896823903 0 63.120791896823903 -88.438412148419957 0 0 0 0 51.729400405063643 80.319788391495422 0 80.319788391495422 -65.98816008762833 0 0 0 0 57.865049546500813 74.676302742442886 0 74.676302742442886 -82.340444575595029 0 0 0 0 48.396509704577511 69.406639893272313 0 69.406639893272313 -72.483885286943405 0 0 0 0 48.582087356411648 79.654824611709955 0 79.654824611709955 -71.244909814974562 0 0 0 0 50.546025746359192 63.993310203716248 0 63.993310203716248 -46.610669523635806 0 0 0 0 25.380325508622263 28.225448697920001 0 28.225448697920001 41.77532252551282 0 0 0 0 70.187678531136044 89.7556431442963 0 89.7556431442963 -30.783405595602744 0 0 0 0 33.010126827108252 70.898000993373898 0 70.898000993373898 -45.137323879808719 0 0 0 0 50.570786855280858 55.053249360105383 0 55.053249360105383 -33.127287418779815 0 0 0 0 108.75505813352356 105.91377389522586 0 105.91377389522586 -14.982881961945168 0 0 0 0 72.750419173834871 8.6300112597267571 0 8.6300112597267571 8.0051639726370922 0 0 0 0 -133.29071548548018 34.914761701476891 0 34.914761701476891 4.7036183733426924 0 0 0 0 27.4270808173234 83.19969298111549 0 83.19969298111549 -80.786978178509344 0 0 0 0 32.38937801015652 77.964386183006752 0 77.964386183006752 -104.33395066441881 0 0 0 0 26.262566823679663 38.862598425833767 0 38.862598425833767 -63.629185418199086 0 0 0 0 70.698253950023997 7.1834649104309847 0 7.1834649104309847 -21.323988993512103 0 0 0 0 71.424465394132156 89.392831652645469 0 89.392831652645469 -45.417070503724062 0 0 0 0 0.15554488014240064 0.28045939671948261 0 0.28045939671948261 0.79862312065108298 0 0 0 0 114.94674894383752 -8.4708383022593807 0 -8.4708383022593807 -5.3232153738845227 0 0 0 0 74.864629995783616 73.884983222659685 0 73.884983222659685 -8.2195098079095033 0 0 0 0 60.110905036446638 71.788257012343138 0 71.788257012343138 28.56843018127438 0 0 0 0 17.934994285016728 36.19877961489783 0 36.19877961489783 -1.0735632270971109 0 0 0 0 -2.3548505915205169 17.796151521772572 0 17.796151521772572 -3.216156939387929 0 0 0 0 -6.8433484574052272 47.699447784875701 0 47.699447784875701 20.377827116594744 0 0 0 0 19.380451774126414 43.122942891988828 0 43.122942891988828 14.189723251780379 0 0 0 0 9.1215576577196771 45.097344240560233 0 45.097344240560233 16.177112843322902 0 0 0 0 19.946966002979025 28.305308996288659 0 28.305308996288659 36.604173129062474 0 0 0 0 15.305237356657017 43.6122302927497 0 43.6122302927497 -12.70054469027491 0 0 0 0 41.734811026821262 52.41059952172327 0 52.41059952172327 -54.084428364273663 0 0 0 0 25.144166706833857 52.684518500977447 0 52.684518500977447 -35.137578816953464 0 0 0 0 29.316030168611178 43.154216416818144 0 43.154216416818144 -13.36695528391283 0 0 0 0 -7.9011155677048919 70.846816287900538 0 70.846816287900538 -2.0198390908808506 0 0 0 0 -8.702753374720487 79.501982411135032 0 79.501982411135032 -19.913641733208351 0 0 0 0 -12.384555081946928 68.639291664458824 0 68.639291664458824 22.901228053613522 0 0 0 0 -12.458067511440277 71.471487314317073 0 71.471487314317073 -1.2442669646388822 0 0 0 0 0.95489675811768393 62.863129532845051 0 62.863129532845051 -9.986214528088567 0 0 0 0 0.5800901973289001 61.890966489822858 0 61.890966489822858 -0.77933458673214773 0 0 0 0 -9.1895635289874917 53.05213888783419 0 53.05213888783419 24.29306162733792 0 0 0 0 -8.3440003460764274 49.432488803759952 0 49.432488803759952 35.984548786071173 0 0 0 0 -12.020075607271792 22.832501652520932 0 22.832501652520932 28.673289257080341 0 0 0 0 -15.921585558236984 20.118457015254535 0 20.118457015254535 67.475142496432909 0 0 0 0 -20.447221079242809 54.436834806840579 0 54.436834806840579 53.149618577763249 0 0 0 0 -25.012056599411153 58.974920060766635 0 58.974920060766635 90.418164732343826 0 0 0 0 -17.094975983076438 54.194865442995706 0 54.194865442995706 40.361574548875069 0 0 0 0 -6.0086126124369912 22.560435574133407 0 22.560435574133407 86.504470346035362 0 0 0 0 1.8236196245889005 54.865418638403298 0 54.865418638403298 50.105921288241007 0 0 0 0 -27.25139535974813 55.502627663405292 0 55.502627663405292 50.402386159541493 0 0 0 0 -25.365682861771347 70.688316713221866 0 70.688316713221866 40.06907545705748 0 0 0 0 -16.913733680969017 69.937139923507857 0 69.937139923507857 11.628402290640224 0 0 0 0 -20.569439627055772 73.57051116594954 0 73.57051116594954 -17.035635829681269 0 0 0 0 -34.176904450698203 80.122794074981357 0 80.122794074981357 7.2789333988839644 0 0 0 0 -21.655997555768408 59.429956433917141 0 59.429956433917141 -6.064262800627148 0 0 0 0 -23.616703916844926 73.509476109483103 0 73.509476109483103 19.934868722823012 0 0 0 0 -5.2056694460962589 0.5489783106132311 0 0.5489783106132311 0.93222954258628388 0 0 0 0 -64.529066893464915 143.04735122012744 0 143.04735122012744 -35.400588321516352 0 0 0 0 -27.023956131762588 47.849036286334467 0 47.849036286334467 3.0833391597107038 0 0 0 0 -45.50610765892543 51.868774278011188 0 51.868774278011188 100.52728988544186 0 0 0 0 -102.00787497525198 17.280128616444472 0 17.280128616444472 309.69341811943195 0 0 0 0 -1.925065877349823 0.3944919692903337 0 0.3944919692903337 0.37742222739262754 0 0 0 0 -145.2069907566929 257.99242216696075 0 257.99242216696075 -244.84753308923837 0 0 0 0 -114.82902500015553 74.216814720539332 0 74.216814720539332 -67.745237410628761 0 0 0 0 -37.638303200848895 126.82023165671262 0 126.82023165671262 -206.73843479240804 0 0 0 0 -90.087286901502466 105.8905481184529 0 105.8905481184529 -84.377284483764925 0 0 0 0 -74.093510505144877 83.57175264220723 0 83.57175264220723 -119.87341769693103 0 0 0 0 -69.592097277610947 90.140250507248993 0 90.140250507248993 -115.4525472079813 0 0 0 0 -63.558867170422673 125.20325073784898 0 125.20325073784898 -81.219818710157142 0 0 0 0 -70.644901517971448 90.408595664580389 0 90.408595664580389 -56.935817120243883 0 0 0 0 -33.8402486375835 59.82249615845376 0 59.82249615845376 -51.197584065942465 0 0 0 0 -16.212974639982349 10.163612613739588 0 10.163612613739588 -23.394118453260035 0 0 0 0 -31.653958279646758 52.980244785640025 0 52.980244785640025 7.3519554105046154 0 0 0 0 -13.913325780773448 73.502699853286686 0 73.502699853286686 -97.806886031052272 0 0 0 0 12.895499206584645 15.560940482286696 0 15.560940482286696 -75.574014485830048 0 0 0 0 -14.472470718195837 2.0481161446864462 0 2.0481161446864462 -1.1133980787162727 0 0 0 0 -2.0123052893484452 0.3908889528964572 0 0.3908889528964572 -0.13346648089650159 0 0 0 0 -1.4092758865026553 71.55887769460287 0 71.55887769460287 -110.43439215499143 0 0 0 0 0.77618806864484213 6.3895922412493746 0 6.3895922412493746 -0.86185050326821511 0 0 0 0 -68.298892687157604 75.885455452807491 0 75.885455452807491 -49.301859355021406 0 0 0 0 -2.8967128223193868 82.862097374688801 0 82.862097374688801 -176.73861989282841 0 0 0 0 33.343307492099484 118.63155790017527 0 118.63155790017527 -145.45394442141651 0 0 0 0 -23.299844059934912 121.89409809267727 0 121.89409809267727 -95.207631934332312 0 0 0 0 -24.972907466582001 131.50317726220248 0 131.50317726220248 -146.32084973857945 0 0 0 0 26.126784531038084 101.0331838003741 0 101.0331838003741 -69.593231163016753 0 0 0 0 -2.4918945571316726 171.94029423646316 0 171.94029423646316 -98.09347947896913 0 0 0 0 -75.757141979578591 212.21613768828684 0 212.21613768828684 -83.030247273013629 0 0 0 0 41.90314660322224 85.411740733540682 0 85.411740733540682 -525.61250039399783 0 0 0 0 29.879476278427319 144.95549163572332 0 144.95549163572332 -337.20388622636983 0 0 0 0 47.444136327554588 31.870654886233751 0 31.870654886233751 -211.15571955907762 0 0 0 0 -212.71089811543243 456.78318209578447 0 456.78318209578447 -480.98783991906043 0 0 0 0 -580.402452666709 476.9169820113683 0 476.9169820113683 -358.21828268157333 0 0 0 0 -2.3795109388408342 0.81416210373174991 0 0.81416210373174991 -0.52177893093709971 0 0 0 0 -174.6205558125921 -18.281081619894849 0 -18.281081619894849 243.77022496110931 0 0 0 0 26.309294441309362 -262.52038196266562 0 -262.52038196266562 98.838290562367547 0 0 0 0 -2.6220205954602136 -0.63501432006921732 0 -0.63501432006921732 -0.068728044743409988 0 0 0 0 -317.58104780310532 -29.585330240664916 0 -29.585330240664916 340.62283715977082 0 0 0 0 -766.82350070968459 -68.03400229284307 0 -68.03400229284307 92.189327633070207 0 0 0 0 92.44247236370461 50.018024039069019 0 50.018024039069019 60.784552485473796 0 0 0 0 -5.3340320219849602 3.8963585599022945 0 3.8963585599022945 -1.0212543173009654 0 0 0 0 88.799897399769179 -48.045496884589738 0 -48.045496884589738 -413.61559024082533 0 0 0 0 106.40072279583183 -79.333479149644972 0 -79.333479149644972 0.27875044127085857 0 0 0 0 -167.25559206553953 128.65149778884233 0 128.65149778884233 238.89840456042214 0 0 0 0 82.854830471162131 15.466948980096731 0 15.466948980096731 -66.088708600286736 0 0 0 0 -9.3981826374929369 -39.965311927574476 0 -39.965311927574476 -64.19246452297557 0 0 0 0 -21.56058729761935 14.585553796718159 0 14.585553796718159 -39.787079286099925 0 0 0 0 -116.61188945278536 133.26784242721442 0 133.26784242721442 -138.48203827255452 0 0 0 0 -162.08501737178085 -6.0316525811144857 0 -6.0316525811144857 -19.496488744687213 0 0 0 0 -81.055401855476703 45.717026638880952 0 45.717026638880952 -13.759286320877436 0 0 0 0 -13.331694164466171 -0.15892558481300512 0 -0.15892558481300512 -33.949727788491145 0 0 0 0 -11.39814087049308 6.4207729150775776 0 6.4207729150775776 -17.800582203052727 0 0 0 0 -6.065331574754115 -0.28298502635697886 0 -0.28298502635697886 0.71639555174148217 0 0 0 0 -48.684435484896312 69.941624557942305 0 69.941624557942305 -22.523354578115232 0 0 0 0 -53.32108494577551 45.927315871050723 0 45.927315871050723 -49.746348009614394 0 0 0 0 -35.832752586507922 76.817773805729303 0 76.817773805729303 -38.513456479134675 0 0 0 0 -53.563657815214356 73.192965026542197 0 73.192965026542197 1.1204269485624536 0 0 0 0 -40.714835652466718 70.047809037882871 0 70.047809037882871 -24.220593396059485 0 0 0 0 -61.759887343583614 81.139232619672157 0 81.139232619672157 0.85216059274353029 0 0 0 0 -59.123492026204076 74.747108301085746 0 74.747108301085746 13.679892160223062 0 0 0 0 -55.036249547549232 90.124837665543964 0 90.124837665543964 9.1562478827818268 0 0 0 0 31.286507384636934 41.117162834097144 0 41.117162834097144 -13.679481696961403 0 0 0 0 6.7943322075834658 -8.0209550388385651 0 -8.0209550388385651 -8.7022912186275789 0 0 0 0 -10.961476969128853 22.948205022610978 0 22.948205022610978 -12.370997374931903 0 0 0 0 49.596184922269458 112.53601946642812 0 112.53601946642812 11.975980866348891 0 0 0 0 85.548818533341546 7.4999045109884719 0 7.4999045109884719 -10.680534618900992 0 0 0 0 98.25627029532734 38.402787032348954 0 38.402787032348954 -141.74295963256691 0 0 0 0 1.9085819114621145 -0.086968126097025866 0 -0.086968126097025866 0.078241535649958394 0 0 0 0 51.989770751083597 118.90849979346922 0 118.90849979346922 93.033859236216813 0 0 0 0 6.9975625104634673 -6.7636212776517368 0 -6.7636212776517368 6.3656937325440595 0 0 0 0 51.485111788084396 20.84861593059577 0 20.84861593059577 -36.514575286220861 0 0 0 0 -117.58193103578287 12.48446895950724 0 12.48446895950724 -5.7610250726063441 0 0 0 0 -101.89349209758439 81.616582289646658 0 81.616582289646658 66.492680434587555 0 0 0 0 -26.908894342431722 -91.006505537799853 0 -91.006505537799853 -152.03410433911222 0 0 0 0 31.711533476552518 -3.5987483210568314 0 -3.5987483210568314 -0.49805537313295645 0 0 0 0 -6.3358937409411737 0.91789919306984302 0 0.91789919306984302 -5.8928745683788293 0 0 0 0 -2.9803013829364318 3.4470563910952023 0 3.4470563910952023 -5.5202167856832602 0 0 0 0 2.9616823134208037 4.9937854959371588 0 4.9937854959371588 -2.580577506841383 0 0 0 0 1.4774501791339389 -3.6660705435481304 0 -3.6660705435481304 -9.4225107931761158 0 0 0 0 1.9411733785091201 -4.991049921859485 0 -4.991049921859485 -14.357083635869685 0 0 0 0 -7.6547657416667789 12.839693287766295 0 12.839693287766295 -20.094011973205852 0 0 0 0 5.9455160858233285 6.0403973086058613 0 6.0403973086058613 -19.020154023845862 0 0 0 0 -38.887162541784619 2.7989450635836874 0 2.7989450635836874 21.007172140418334 0 0 0 0 11.805346603983708 13.979832411147981 0 13.979832411147981 -276.10847597577776 0 0 0 0 -0.82887927934062589 0.44738958294426912 0 0.44738958294426912 -0.29573257820362642 0 0 0 0 9.694131375239067 13.091137369985518 0 13.091137369985518 -115.22977784376417 0 0 0 0 2.5592938297893397 13.352071794735593 0 13.352071794735593 4.4338658637007029 0 0 0 0 -1.6522919935181726 2.4961361630503767 0 2.4961361630503767 -0.85437516597756691 0 0 0 0 -5.3351296262080723 31.83086699735486 0 31.83086699735486 -92.821676279972962 0 0 0 0 -5.0991506904392736 4.9589660922611074 0 4.9589660922611074 -20.261755565872591 0 0 0 0 -9.027103789136163 58.87995231070272 0 58.87995231070272 -120.36398812746847 0 0 0 0 17.521820293464771 32.528720580920606 0 32.528720580920606 -138.22134290177019 0 0 0 0 19.411634181191403 32.736229056547018 0 32.736229056547018 21.880228662706486 0 0 0 0 21.981008368678886 -30.129851040005633 0 -30.129851040005633 -61.326839554803882 0 0 0 0 45.217228236939263 36.467178431485536 0 36.467178431485536 -59.840829783544905 0 0 0 0 51.421732313916436 24.801175982704081 0 24.801175982704081 -136.04760866080505 0 0 0 0 9.5639172814626363 -17.362013971205215 0 -17.362013971205215 -9.4878002281384397 0 0 0 0 2.0845501202652001 -0.44979572636924559 0 -0.44979572636924559 -0.36323378471426793 0 0 0 0 -35.956462118325362 15.301890308833208 0 15.301890308833208 -0.26216653284791391 0 0 0 0 10.292066591944117 3.019547212846355 0 3.019547212846355 -5.9083496453432822 0 0 0 0 0.45314937343562445 0.3087577449735015 0 0.3087577449735015 -0.14852469486146802 0 0 0 0 -6.901281996484613 -9.2275834117535851 0 -9.2275834117535851 -10.840256241253883 0 0 0 0 55.036893053837048 24.550437376925402 0 24.550437376925402 -66.455806484748564 0 0 0 0 56.984452031412729 39.267372781762788 0 39.267372781762788 -40.534550737183963 0 0 0 0 6.1053592210264469 0.34663485469445732 0 0.34663485469445732 -1.2444339753983513 0 0 0 0 31.702008062597088 -3.1943860984433741 0 -3.1943860984433741 -0.27201774408331403 0 0 0 0 12.0722379396002 -3.4208756334041936 0 -3.4208756334041936 -1.7488092053808941 0 0 0 0 9.5704296784715552 -1.2496051046546199 0 -1.2496051046546199 -2.6317515835999075 0 0 0 0 5.7407873423217275 -0.74355763686220389 0 -0.74355763686220389 -0.36748173336442047 0 0 0 0 2.0137370946876127 -0.23091079669635306 0 -0.23091079669635306 -0.92167196704552268 0 0 0 0 11.753659329340735 -2.7572111354393201 0 -2.7572111354393201 -2.1902627790932456 0 0 0 0 9.9824226240525604 -2.080825690731217 0 -2.080825690731217 -1.9539961604664313 0 0 0 0 8.886940256365051 -3.6489124514582727 0 -3.6489124514582727 1.8812019942315601 0 0 0 0 11.219026434493571 -3.8401571891117783 0 -3.8401571891117783 -0.074634195760154398 0 0 0 0 7.1493161019025138 -2.3353129426109263 0 -2.3353129426109263 0.90393279129875737 0 0 0 0 7.1684785044344608 -5.8942671506160877 0 -5.8942671506160877 -2.3362895618938637 0 0 0 0 11.725108794953485 0.09210218095631717 0 0.09210218095631717 1.8300238713249755 0 0 0 0 0.058073211808732594 -1.8632908392310128 0 -1.8632908392310128 3.7500571654395571 0 0 0 0 1.9148078876128238 -0.25355557498073722 0 -0.25355557498073722 3.2866081783313348 0 0 0 0 2.2792154004073382 5.3204869213814163 0 5.3204869213814163 -19.538439744785592 0 0 0 0 5.3974122510207962 -5.2311899953137981 0 -5.2311899953137981 -13.461258981590618 0 0 0 0 21.410240590826106 -4.6719704081626787 0 -4.6719704081626787 -4.5223571741062187 0 0 0 0 6.9582997674333456 0.64247135484765749 0 0.64247135484765749 -3.2125548062748521 0 0 0 0 10.707635116523761 -7.64863003339849 0 -7.64863003339849 1.5392111852597736 0 0 0 0 2.7247911021757414 5.3577682607820662 0 5.3577682607820662 -2.4497276982607232 0 0 0 0 34.568348844000866 -4.5637373789104458 0 -4.5637373789104458 -0.56055414735101294 0 0 0 0 -50.802538206732606 4.4872007694877993 0 4.4872007694877993 19.812324427246494 0 0 0 0 -0.096935958048197879 0.14345799066642329 0 0.14345799066642329 -0.68471702770730403 0 0 0 0 33.183558900973367 -1.2817019050313547 0 -1.2817019050313547 -0.019207262557756621 0 0 0 0 -17.58575195492449 12.4211446757472 0 12.4211446757472 -6.4453329556754397 0 0 0 0 -1.6774531835135349 -0.32891383202604629 0 -0.32891383202604629 -15.012884837124147 0 0 0 0 -3.1815070936454504 -1.1913716627245776 0 -1.1913716627245776 -6.8144801023372565 0 0 0 0 52.541784915596509 -5.2250396445188017 0 -5.2250396445188017 -15.445553151772856 0 0 0 0 13.671531458510799 -9.0353605078048531 0 -9.0353605078048531 -10.225962847198389 0 0 0 0 -23.988321136653667 -12.06880337995085 0 -12.06880337995085 12.890723647662526 0 0 0 0 14.017449351038294 -6.2737608151399513 0 -6.2737608151399513 0.21603190828318475 0 0 0 0 23.313184562604192 -5.1786986253056284 0 -5.1786986253056284 31.967569318389906 0 0 0 0 24.214626549750392 -5.7031948886824466 0 -5.7031948886824466 -0.07208897828741101 0 0 0 0 -23.927788013554618 -36.036439805015334 0 -36.036439805015334 -5.1606874136505212 0 0 0 0 106.90433927878712 33.719188108489561 0 33.719188108489561 0.32984152507560793 0 0 0 0 26.693820239943307 -13.647742681177988 0 -13.647742681177988 22.445778854136734 0 0 0 0 -94.693835661340927 39.322307520212689 0 39.322307520212689 42.160481119638462 0 0 0 0 95.4088419396885 -29.254235863961185 0 -29.254235863961185 18.595924551796998 0 0 0 0 37.41900331006218 30.387875460820396 0 30.387875460820396 10.457352716230844 0 0 0 0 2.4556966019572428 35.161017117236042 0 35.161017117236042 -38.203672313034986 0 0 0 0 30.832067926255149 -0.78489400838952861 0 -0.78489400838952861 0.86532496667223313 0 0 0 0 35.626023959839586 -1.7291800780390076 0 -1.7291800780390076 -21.258313754893607 0 0 0 0 2.8664581261468811 5.5124044571742807 0 5.5124044571742807 -2.8809521521802886 0 0 0 0 0.054993329399491309 0.079928714198885586 0 0.079928714198885586 -0.26773968241083779 0 0 0 0 3.902741507785322 20.633341970260062 0 20.633341970260062 -4.4840122140813037 0 0 0 0 3.0891222584250499 25.494849651749064 0 25.494849651749064 -8.9626434004371731 0 0 0 0 -66.08536475953133 -32.926502895054682 0 -32.926502895054682 41.722952151882055 0 0 0 0 69.9426416221213 35.733526314086703 0 35.733526314086703 43.995448490302806 0 0 0 0 55.777599749904766 82.292212108942294 0 82.292212108942294 -62.756797437634191 0 0 0 0 42.866845689339243 -40.413388709716855 0 -40.413388709716855 -46.388635774019235 0 0 0 0 73.710128871860888 36.905385512374323 0 36.905385512374323 33.537123606263776 0 0 0 0 5.3606740394188819 -0.70473340387025019 0 -0.70473340387025019 -32.38470952503485 0 0 0 0 15.35508132740506 7.401926837766041 0 7.401926837766041 -32.887491826355301 0 0 0 0 11.822034985039863 8.6794436768386731 0 8.6794436768386731 -19.940445904050648 0 0 0 0 9.6195156119429157 19.291121011608993 0 19.291121011608993 -30.842389503326558 0 0 0 0 2.264836736464531 17.053287193755637 0 17.053287193755637 -18.00474479004879 0 0 0 0 11.780329430146594 8.8895533208419693 0 8.8895533208419693 -20.998708272514705 0 0 0 0 3.0766488005356223 10.134023256337969 0 10.134023256337969 -0.19515399876638639 0 0 0 0 23.055268967644224 19.997821855007714 0 19.997821855007714 -34.125996592128104 0 0 0 0 3.9904535655186919 10.220004576874089 0 10.220004576874089 -23.917204408248381 0 0 0 0 17.298258102217915 9.8331278446573833 0 9.8331278446573833 -41.568732053372514 0 0 0 0 -10.613698873308294 -8.9548185974651915 0 -8.9548185974651915 -40.881906642280228 0 0 0 0 35.26153484121096 27.088307660017563 0 27.088307660017563 -31.205206931434532 0 0 0 0 26.418032569585193 0.77498236223800632 0 0.77498236223800632 -60.214571408387201 0 0 0 0 61.829932504517728 93.26120003059907 0 93.26120003059907 19.23235147993546 0 0 0 0 47.802672631185487 35.725228650340341 0 35.725228650340341 -40.334434160792625 0 0 0 0 28.613867094021771 25.519504806699842 0 25.519504806699842 -15.16300390536162 0 0 0 0 3.8103815769954963 17.0674396100585 0 17.0674396100585 43.901565436395231 0 0 0 0 34.483207731403354 49.531928562095345 0 49.531928562095345 3.71865711141254 0 0 0 0 17.28018827748383 21.86389672250607 0 21.86389672250607 -15.780739146699489 0 0 0 0 20.134042721616879 29.34010691922083 0 29.34010691922083 -9.7532481557118444 0 0 0 0 -0.74188625781062001 21.182803556156614 0 21.182803556156614 10.633234836270276 0 0 0 0 5.4859900062037923 16.917298804075926 0 16.917298804075926 6.598331088285704 0 0 0 0 -76.565994208307529 127.05236310739019 0 127.05236310739019 -168.50209163667159 0 0 0 0 54.980011483966337 10.415257100992221 0 10.415257100992221 -271.51765441110911 0 0 0 0 0.99535625499811431 68.320843906131358 0 68.320843906131358 102.15427068342888 0 0 0 0 -7.5303300831053903 5.8849669120690891 0 5.8849669120690891 -1.3424329793765915 0 0 0 0 153.39427517428703 235.58945315343863 0 235.58945315343863 -121.71759788923919 0 0 0 0 2.7834444813892798 6.111551810171294 0 6.111551810171294 -5.1029759611317473 0 0 0 0 3.8584337047559529 19.249172037507151 0 19.249172037507151 1.0725247477603261 0 0 0 0 -35.616464945654116 61.804434381212559 0 61.804434381212559 37.87894793867963 0 0 0 0 34.880690292493455 -48.967973531386633 0 -48.967973531386633 -82.578819332476996 0 0 0 0 -5.3544313504107777 -26.730685293468014 0 -26.730685293468014 4.5079733211787243 0 0 0 0 34.890570090065012 -52.918308442367561 0 -52.918308442367561 -32.390450098548172 0 0 0 0 135.4757373429311 -41.439692145551817 0 -41.439692145551817 -104.91227121093107 0 0 0 0 122.08375460722891 -11.8674835019483 0 -11.8674835019483 -62.830204396355839 0 0 0 0 171.84708133754611 -9.8362974998235586 0 -9.8362974998235586 -76.895442571611056 0 0 0 0 148.55388632433096 21.847198414638115 0 21.847198414638115 -21.959650745426188 0 0 0 0 69.99530442518153 3.2885927571678621 0 3.2885927571678621 -23.327225636083313 0 0 0 0 28.333328106968111 50.875881945357833 0 50.875881945357833 8.7420912435300124 0 0 0 0 137.06012366708092 49.483172432515858 0 49.483172432515858 -1.277206955186557 0 0 0 0 0.74922855076511041 20.457736239009591 0 20.457736239009591 5.8403580191657056 0 0 0 0 0.19675464509055018 23.931029047941593 0 23.931029047941593 1.1821019673998308 0 0 0 0 1.7213117673118177 19.692010995756391 0 19.692010995756391 5.2554464992426801 0 0 0 0 -43.00557318114079 -23.195254177411698 0 -23.195254177411698 17.528568230165547 0 0 0 0 -8.9604281521417875 6.7089639738114286 0 6.7089639738114286 -1.0783421497308376 0 0 0 0 -27.043613708403427 -5.3349625001392269 0 -5.3349625001392269 24.941892082467348 0 0 0 0 -27.660827951176543 -34.571697377807141 0 -34.571697377807141 -2.8881888576725032 0 0 0 0 -23.486439245720248 -29.740449763634388 0 -29.740449763634388 -45.20119625217194 0 0 0 0 -23.202687759422588 -11.450968281436417 0 -11.450968281436417 3.9106533755693818 0 0 0 0 -30.129665223405027 4.7005564388491621 0 4.7005564388491621 0.099734548310152604 0 0 0 0 4.1956454321152705 -3.9779911867699411 0 -3.9779911867699411 -9.3930136886501714 0 0 0 0 1.5397548566324986 -4.9093111528491136 0 -4.9093111528491136 3.9579557664324057 0 0 0 0 -0.9368243241517451 2.5001526003225081 0 2.5001526003225081 1.9332199348563783 0 0 0 0 20.038281706025373 -6.8029113451393641 0 -6.8029113451393641 -0.61208280542996363 0 0 0 0 5.0923941121800453 0.49662742478722066 0 0.49662742478722066 7.3824240100730094 0 0 0 0 306.18182622850691 28.318079595199833 0 28.318079595199833 17.869718651141739 0 0 0 0 17.474407646663394 -8.4175959595310132 0 -8.4175959595310132 4.0717594671295956 0 0 0 0 17.638035681247402 -5.3319780584924956 0 -5.3319780584924956 -4.0851960912259528 0 0 0 0 14.092147553452378 -1.1958294220439711 0 -1.1958294220439711 4.3064699844405823 0 0 0 0 202.34453397187463 -2.2947483921798266 0 -2.2947483921798266 -52.585012165051012 0 0 0 0 176.68848514340789 25.011454129369667 0 25.011454129369667 -81.599433447577212 0 0 0 0 194.18151058029412 -22.554718999211616 0 -22.554718999211616 -96.5505277985867 0 0 0 0 76.360600398191309 -87.489539922826225 0 -87.489539922826225 -112.31210466143966 0 0 0 0 -95.382663858290471 -69.801710023220949 0 -69.801710023220949 92.497912553579226 0 0 0 0 -76.242504783804179 69.58772244228021 0 69.58772244228021 -205.16123920648533 0 0 0 0 0.25486581439689715 1.4393292493060414 0 1.4393292493060414 -0.40242311290131827 0 0 0 0 177.97891792634618 -26.546812540629617 0 -26.546812540629617 -129.50302522943093 0 0 0 0 167.29499522503465 -67.267145910205727 0 -67.267145910205727 -15.248633800641983 0 0 0 0 273.35851002910204 28.728013055744668 0 28.728013055744668 -46.580917758241412 0 0 0 0 260.93832651151752 -17.876852880257502 0 -17.876852880257502 -14.187864255916793 0 0 0 0 20.182270207791987 -0.32604267418085442 0 -0.32604267418085442 32.733111794190336 0 0 0 0 -19.790314651585504 60.595372794202376 0 60.595372794202376 -28.071313625987386 0 0 0 0 8.8018598925737024 -5.6651126356373425 0 -5.6651126356373425 17.331443505656352 0 0 0 0 8.7957075643080316 21.159316017188758 0 21.159316017188758 5.503426560596381 0 0 0 0 -16.362285924686148 35.572194520906123 0 35.572194520906123 133.57843905244226 0 0 0 0 -10.340488664836812 134.23748500401234 0 134.23748500401234 27.056440600737915 0 0 0 0 8.344450677362147 13.75228754179534 0 13.75228754179534 132.96147348679006 0 0 0 0 -7.3297640027158195 164.8628118323777 0 164.8628118323777 291.45200952069536 0 0 0 0 -77.676489407709596 119.84314513829304 0 119.84314513829304 -67.933021017378451 0 0 0 0 -14.969248828903801 41.742381567388293 0 41.742381567388293 -113.85858871316123 0 0 0 0 -19.633252943956904 19.314769317337777 0 19.314769317337777 17.809048039307527 0 0 0 0 -40.548659951722584 63.860382238486636 0 63.860382238486636 14.003529837904352 0 0 0 0 -121.17634343776172 103.49779320134076 0 103.49779320134076 -23.259473463951508 0 0 0 0 -37.003285029755261 158.6013697087763 0 158.6013697087763 -74.602177685992501 0 0 0 0 -142.45010041715977 154.18910120154578 0 154.18910120154578 -29.632566342857899 0 0 0 0 -70.50212167891732 141.86853561717089 0 141.86853561717089 -60.825428807485878 0 0 0 0 -65.081125572818564 164.29958976044782 0 164.29958976044782 24.842591151107058 0 0 0 0 -35.326814847312562 171.21874344415482 0 171.21874344415482 -93.880970508122118 0 0 0 0 205.07322878767991 244.59709877007845 0 244.59709877007845 36.28523500083611 0 0 0 0 -42.463188510760119 132.55169162081165 0 132.55169162081165 62.391430877931271 0 0 0 0 13.891048907360528 249.32461401958062 0 249.32461401958062 -20.93167219568295 0 0 0 0 -26.00981556381339 280.36581777343872 0 280.36581777343872 -77.68400794104673 0 0 0 0 57.481776400310082 150.25519108977142 0 150.25519108977142 -16.60861935354842 0 0 0 0 -5.8998952544663403 2.1362479184028036 0 2.1362479184028036 -0.60569228055815572 0 0 0 0 67.968484257600721 245.09918870592264 0 245.09918870592264 -220.14231524365459 0 0 0 0 -128.83094790139512 -19.3372654040013 0 -19.3372654040013 226.89288223161748 0 0 0 0 -242.94284629521462 85.646205264389209 0 85.646205264389209 399.75990711149279 0 0 0 0 13.014828036423751 59.095380076472338 0 59.095380076472338 -93.974619788858035 0 0 0 0 40.636430392463808 89.413530951690518 0 89.413530951690518 -260.99877966564327 0 0 0 0 -72.805810188054238 22.388741513066634 0 22.388741513066634 234.02207074908438 0 0 0 0 -50.758672897604356 -31.557560440904126 0 -31.557560440904126 149.40361746152121 0 0 0 0 49.120162249776513 148.96862582691938 0 148.96862582691938 200.08269175199985 0 0 0 0 -19.893897539708632 53.033814039920799 0 53.033814039920799 104.028496884177 0 0 0 0 11.593047862863386 1.1865880495470265 0 1.1865880495470265 -17.928775244122789 0 0 0 0 -14.487655025960958 7.1484750580813898 0 7.1484750580813898 -3.0182574185280728 0 0 0 0 -40.318221510609874 51.669761891398593 0 51.669761891398593 68.23479319199987 0 0 0 0 -26.160245184328488 158.55433650980092 0 158.55433650980092 353.1764129720741 0 0 0 0 -55.829357593144778 -10.364456438735033 0 -10.364456438735033 35.285410968257565 0 0 0 0 -40.146531269408115 19.101772163818623 0 19.101772163818623 -25.745043060045646 0 0 0 0 -69.447463048745703 -21.548266973905356 0 -21.548266973905356 4.620355532186295 0 0 0 0 -3.1532289708506909 3.9231015547275314 0 3.9231015547275314 -0.96449170096465764 0 0 0 0 -122.45528128772821 8.4971207515172864 0 8.4971207515172864 -21.979297016862802 0 0 0 0 -189.8787390909838 231.99394828872391 0 231.99394828872391 -127.66031009518565 0 0 0 0 -380.99123969251923 30.28983990247616 0 30.28983990247616 8.0383168623338861 0 0 0 0 392.48892744675777 242.61937107472932 0 242.61937107472932 -172.04715338084679 0 0 0 0 310.82178475420596 9.1371986998399279 0 9.1371986998399279 -124.93097831863452 0 0 0 0 -1.5940787863190931 1.8151872027253964 0 1.8151872027253964 -0.76882564966727429 0 0 0 0 -26.677816953533238 3.4897042569959922 0 3.4897042569959922 -90.681412948093566 0 0 0 0 -72.04764062643153 39.162569722129774 0 39.162569722129774 -149.71334487991862 0 0 0 0 -99.669488290059235 29.508005258508092 0 29.508005258508092 22.170950703726703 0 0 0 0 88.563147906023005 81.653616757476811 0 81.653616757476811 -176.72056502084297 0 0 0 0 50.506548830514475 91.058103120424221 0 91.058103120424221 154.14231275543625 0 0 0 0 -460.14847186014094 64.7985510969188 0 64.7985510969188 -391.3898389415117 0 0 0 0 6.2019567519510019 -51.742908780434846 0 -51.742908780434846 -275.72434468789743 0 0 0 0 -1.3045316945431775 2.4445595707913306 0 2.4445595707913306 -5.9354739586438185 0 0 0 0 -617.48520607171167 158.84569523468872 0 158.84569523468872 41.968840721880042 0 0 0 0 -468.27439156928858 -42.820584254486675 0 -42.820584254486675 164.61713783619416 0 0 0 0 -526.40251465611209 337.03212347374142 0 337.03212347374142 -171.61302829204942 0 0 0 0 -308.57953763419209 127.49908571499691 0 127.49908571499691 -177.15901947944477 0 0 0 0 -117.55388416880669 199.55297583543961 0 199.55297583543961 -769.72730196237399 0 0 0 0 -80.524419970894655 -35.579035286986425 0 -35.579035286986425 -294.5572032541204 0 0 0 0 -188.46821901498151 163.04254327877516 0 163.04254327877516 -175.79899122404413 0 0 0 0 -289.56267888642378 30.810658228317607 0 30.810658228317607 8.9554908301124669 0 0 0 0 -207.97067286027959 -111.46037030202933 0 -111.46037030202933 58.462307072823023 0 0 0 0 -276.8724629587723 58.543481069117661 0 58.543481069117661 40.792390447734761 0 0 0 0 -159.34063300780508 16.605517088309398 0 16.605517088309398 -11.634801347527173 0 0 0 0 -179.91082830358482 47.658045656883587 0 47.658045656883587 35.69514823593272 0 0 0 0 -201.5608214799081 37.254583752227063 0 37.254583752227063 78.537173393578996 0 0 0 0 -200.0428687640615 39.090512392836899 0 39.090512392836899 45.630698569920696 0 0 0 0 -6.8196465339260612 108.92394516464628 0 108.92394516464628 42.696181384406827 0 0 0 0 -220.43049545757913 25.203732958801083 0 25.203732958801083 74.503982129479482 0 0 0 0 -27.37964070302678 1.1267570201598573 0 1.1267570201598573 122.49540286806041 0 0 0 0 -286.52987098771155 186.69929731955654 0 186.69929731955654 -47.12820068572546 0 0 0 0 -0.048884714130899454 -0.70702595397115076 0 -0.70702595397115076 -1.5878730063848785 0 0 0 0 329.52707248732895 258.55430741990767 0 258.55430741990767 50.468788549804685 0 0 0 0 -30.958300568414415 131.19571672568236 0 131.19571672568236 44.074621786949137 0 0 0 0 103.76179762585434 41.015181960050995 0 41.015181960050995 75.858979619672027 0 0 0 0 178.43419214058031 208.09253546079526 0 208.09253546079526 78.627968598689677 0 0 0 0 -18.583966265905246 124.8440534995151 0 124.8440534995151 155.53837825775736 0 0 0 0 -41.834773442157257 7.2559710659152188 0 7.2559710659152188 40.767611704057344 0 0 0 0 -15.317222831331376 10.559866237349905 0 10.559866237349905 -5.5280650216732141 0 0 0 0 -8.136344687835102 4.2886319868965188 0 4.2886319868965188 3.1413171031354068 0 0 0 0 -8.7088671093486028 400.40558889906424 0 400.40558889906424 289.60025346559405 0 0 0 0 16.085551133355693 74.843289858282333 0 74.843289858282333 157.35933631493754 0 0 0 0 -32.219488322994948 178.68475417982609 0 178.68475417982609 224.3308312549043 0 0 0 0 362.08836064257389 183.30805063524895 0 183.30805063524895 88.990909687698149 0 0 0 0 -46.869963366048296 25.475183700718844 0 25.475183700718844 56.658846857171739 0 0 0 0 -18.591765156956782 10.057237573517543 0 10.057237573517543 -2.9572171931336655 0 0 0 0 -7.0015240792749438 1.7115842611992527 0 1.7115842611992527 4.539462263585925 0 0 0 0 94.104387855523328 94.457691660116325 0 94.457691660116325 118.13902288763074 0 0 0 0 -3.6166917322107111 32.801817679837768 0 32.801817679837768 113.14479305343411 0 0 0 0 170.43986564392344 0.38632568388584332 0 0.38632568388584332 95.545437549215421 0 0 0 0 160.4621987095461 5.4591625907396519 0 5.4591625907396519 19.181697006501054 0 0 0 0 -5.0825247034021004 46.281034138598443 0 46.281034138598443 23.461346823372878 0 0 0 0 -125.39025917024355 -26.138186189733915 0 -26.138186189733915 121.14277045723975 0 0 0 0 -241.6770380052003 37.021761124729892 0 37.021761124729892 226.18617398249899 0 0 0 0 -1.3652706727680197 128.85823233444535 0 128.85823233444535 -8.8262604243000169 0 0 0 0 -175.87471736802854 179.82305183384597 0 179.82305183384597 146.07187616774536 0 0 0 0 12.328523645577661 135.32977549962561 0 135.32977549962561 155.78437981287243 0 0 0 0 67.718091885086778 115.54062638576579 0 115.54062638576579 89.821127460108073 0 0 0 0 -101.41295064227415 6.3351218795924069 0 6.3351218795924069 232.00442464573098 0 0 0 0 -106.27748704822625 -46.522896366670466 0 -46.522896366670466 183.42197493195363 0 0 0 0 -12.345216550812141 5.4754449617284529 0 5.4754449617284529 -2.4428048513090488 0 0 0 0 -95.126269187380558 -79.953733131715808 0 -79.953733131715808 259.34896841159934 0 0 0 0 20.421135517225579 6.3599828661176048 0 6.3599828661176048 -86.916625034686149 0 0 0 0 21.243028416160087 67.145380542436214 0 67.145380542436214 -17.191074309596843 0 0 0 0 21.56346123039021 55.632111683109173 0 55.632111683109173 12.148298760457692 0 0 0 0 59.200324788247599 111.83201885146082 0 111.83201885146082 -115.44621785285563 0 0 0 0 46.551597726749378 107.35928610878182 0 107.35928610878182 -63.161475470187725 0 0 0 0 21.713506887130734 143.50551215744417 0 143.50551215744417 -132.20088805722935 0 0 0 0 -18.753141721881093 112.07816735048436 0 112.07816735048436 -128.76334339575624 0 0 0 0 26.730143002243835 30.759886756165088 0 30.759886756165088 -9.9729434469954867 0 0 0 0 25.308265752194529 32.001070328513379 0 32.001070328513379 17.695621915114316 0 0 0 0 68.779835113273748 84.764627381622631 0 84.764627381622631 -8.0278571236785865 0 0 0 0 99.053338656582582 95.426017808391407 0 95.426017808391407 -69.918423423825516 0 0 0 0 98.74440477242797 38.003041871997993 0 38.003041871997993 11.894759913204325 0 0 0 0 102.7295951604865 51.477178807294877 0 51.477178807294877 -42.490473003294028 0 0 0 0 65.886080733498829 95.11936453945782 0 95.11936453945782 -76.184211766749286 0 0 0 0 15.256231564170776 64.083445837233739 0 64.083445837233739 -44.299948943491927 0 0 0 0 21.784323990727671 54.92840689230934 0 54.92840689230934 -44.335537991628371 0 0 0 0 -58.328363062999415 43.519804153022051 0 43.519804153022051 -9.7316286416225921 0 0 0 0 -60.49145912163209 35.322032757442912 0 35.322032757442912 9.1051807002768328 0 0 0 0 -111.75254256346352 68.647631232299318 0 68.647631232299318 3.1920906971549812 0 0 0 0 -75.148785246545458 -3.6387330963561908 0 -3.6387330963561908 49.037211397473584 0 0 0 0 -121.79855376622731 89.802082216396229 0 89.802082216396229 -14.991193331782597 0 0 0 0 -108.25357005206558 70.365261176094464 0 70.365261176094464 -3.5337932774600631 0 0 0 0 -96.774895614706111 72.120812694086453 0 72.120812694086453 -24.539318768433077 0 0 0 0 -91.616949486132398 40.153506464655948 0 40.153506464655948 -7.7181915757314528 0 0 0 0 -227.60956782597725 68.781923688115057 0 68.781923688115057 -12.463416067237176 0 0 0 0 -93.251608686415466 36.145121287509937 0 36.145121287509937 -14.768491333914426 0 0 0 0 0.24150680247466666 0.46962652085623313 0 0.46962652085623313 -0.80685240086316412 0 0 0 0 -24.638513910850349 53.183204620061133 0 53.183204620061133 -71.627200247879955 0 0 0 0 -42.200033287614133 5.6102672728065954 0 5.6102672728065954 8.402687253043041 0 0 0 0 -5.7202846358251938 3.2007091914468533 0 3.2007091914468533 0.53711531023844827 0 0 0 0 -27.92145128721495 13.321186631615092 0 13.321186631615092 4.5915045112615189 0 0 0 0 -33.040073141793755 5.0500165469347849 0 5.0500165469347849 -8.3231297710717627 0 0 0 0 -19.325962276501635 1.8302694762523082 0 1.8302694762523082 2.9896448282608068 0 0 0 0 4.0518096591722497 2.1329804604129095 0 2.1329804604129095 22.144065060832872 0 0 0 0 -39.249176937584025 10.950568213893348 0 10.950568213893348 12.994905793833823 0 0 0 0 -70.419627165996644 127.48011016290002 0 127.48011016290002 -176.61187584787922 0 0 0 0 -6.3044681653801513 -0.020093216437892636 0 -0.020093216437892636 -0.49979686150818559 0 0 0 0 65.723559664495497 -249.47270263022619 0 -249.47270263022619 80.985332777243457 0 0 0 0 105.66279140435336 534.68139587690894 0 534.68139587690894 -505.02693074723356 0 0 0 0 -208.8822214939222 168.84301087539865 0 168.84301087539865 -20.32208545156027 0 0 0 0 -223.59829691012237 2.0765521467164945 0 2.0765521467164945 96.977572137077004 0 0 0 0 -114.50172347436182 70.048225822129098 0 70.048225822129098 10.818953672616772 0 0 0 0 2.6650428878938328 -9.4327242470885722 0 -9.4327242470885722 -101.71190748573281 0 0 0 0 -3.3906974014025764 -1.0882526462901296 0 -1.0882526462901296 -13.901870495221033 0 0 0 0 105.89021800815499 49.953228507613858 0 49.953228507613858 23.59164893027264 0 0 0 0 -0.17382375845733833 0.94384931325819466 0 0.94384931325819466 0.29030294978278448 0 0 0 0 0.029534066152066885 0.22280902561728055 0 0.22280902561728055 0.10157075316606434 0 0 0 0 27.074338068570796 135.72554127954481 0 135.72554127954481 26.333912006140963 0 0 0 0 12.89564982162392 86.912547835886926 0 86.912547835886926 -99.796641111374811 0 0 0 0 -35.027792402010618 40.190259684932357 0 40.190259684932357 -58.252646453704074 0 0 0 0 -0.30540365006891079 62.094351704858127 0 62.094351704858127 -89.607790098341866 0 0 0 0 -16.897647425598279 77.263810415641842 0 77.263810415641842 -102.79507911975634 0 0 0 0 -9.2732417687657289 42.428007612858892 0 42.428007612858892 -92.390828593391007 0 0 0 0 -15.40117293241201 47.475426101199446 0 47.475426101199446 -49.08240645567821 0 0 0 0 -33.019722802044498 50.228042843493881 0 50.228042843493881 -72.916233276913772 0 0 0 0 -9.5281836174190175 2.2473519618417868 0 2.2473519618417868 -33.990069499449419 0 0 0 0 -0.80999523375528071 0.58065702083651693 0 0.58065702083651693 0.45031123111975424 0 0 0 0 -23.654863392013795 29.641859841807673 0 29.641859841807673 86.818669531797696 0 0 0 0 5.2186326098064413 2.7738477567449742 0 2.7738477567449742 1.1908173537816644 0 0 0 0 19.278073630517611 14.997260129187453 0 14.997260129187453 -91.11380479028503 0 0 0 0 12.275485996434327 -11.051538493386488 0 -11.051538493386488 0.3928059424733874 0 0 0 0 -6.4422817540380493 13.308210410690663 0 13.308210410690663 9.7310451748163445 0 0 0 0 3.3083676997448492 36.221163336158497 0 36.221163336158497 -70.753517896552694 0 0 0 0 7.5743672372136643 31.988580083506349 0 31.988580083506349 -13.570539297872529 0 0 0 0 -3.3008725966919883 32.670854174202304 0 32.670854174202304 -38.740948931777439 0 0 0 0 8.0495476259728562 4.218629292761122 0 4.218629292761122 2.4676432430381805 0 0 0 0 -6.303512572816544 18.834527230879758 0 18.834527230879758 12.390748219791931 0 0 0 0 -0.30638553014845371 0.16976480876807543 0 0.16976480876807543 -0.038114295540089521 0 0 0 0 41.98814318134464 35.728225817159 0 35.728225817159 -41.235394799747155 0 0 0 0 -8.0602051602145366 18.702218572297625 0 18.702218572297625 50.390743774209568 0 0 0 0 25.251906983957269 9.4981763065122777 0 9.4981763065122777 -4.9160004857822059 0 0 0 0 -16.03934655863759 -18.204908101130513 0 -18.204908101130513 12.615437419231966 0 0 0 0 16.55532947546817 34.605445951412548 0 34.605445951412548 18.470469304108519 0 0 0 0 31.692348240087995 17.848700858784696 0 17.848700858784696 -2.0848860242058436 0 0 0 0 19.290956584320156 12.358355671221489 0 12.358355671221489 -28.296640587210277 0 0 0 0 7.7168017351896196 2.2204435042026489 0 2.2204435042026489 -6.793892403058635 0 0 0 0 -11.4918225543679 21.481598499159645 0 21.481598499159645 -14.411897662676893 0 0 0 0 10.633372781313838 6.4438788248877863 0 6.4438788248877863 0.61850846187940789 0 0 0 0 -1.7024083404803605 32.485361957310261 0 32.485361957310261 -39.693892757868525 0 0 0 0 -42.430698545806081 78.523177311301879 0 78.523177311301879 5.8478610482574709 0 0 0 0 -40.164578745279869 55.547450058138566 0 55.547450058138566 -26.001779141431143 0 0 0 0 -10.790032387471911 88.482938078178449 0 88.482938078178449 6.0309135122588486 0 0 0 0 -20.811767939334459 30.561880325456059 0 30.561880325456059 6.1103973555700577 0 0 0 0 -15.004535277295872 25.036137320815669 0 25.036137320815669 -16.516826759194373 0 0 0 0 13.28269010195072 14.94186593725135 0 14.94186593725135 -3.8146333356080504 0 0 0 0 1.5811661413721136 4.9601708627488676 0 4.9601708627488676 -9.3528646938494013 0 0 0 0 37.958972312719197 26.525756477337382 0 26.525756477337382 -8.4646813573640429 0 0 0 0 23.767537747160532 26.249681144741771 0 26.249681144741771 -7.3279819318163391 0 0 0 0 -5.7565227388786298 14.921722239554583 0 14.921722239554583 -8.8089129219733877 0 0 0 0 8.3511329394117588 10.214101204414458 0 10.214101204414458 0.80119859615676248 0 0 0 0 -7.3015605005507496 13.797093241789298 0 13.797093241789298 -5.0981563399509469 0 0 0 0 2.390925169250087 4.8611960643771432 0 4.8611960643771432 -1.075481955758999 0 0 0 0 3.0193264300819926 5.7154667631433185 0 5.7154667631433185 -8.2428130010861196 0 0 0 0 11.672898420908496 7.0421417345523878 0 7.0421417345523878 -8.4523479884574044 0 0 0 0 3.3993243463737599 14.925521241443676 0 14.925521241443676 -8.023155138797847 0 0 0 0 -0.73467251109988041 2.8157872094224246 0 2.8157872094224246 0.37115367846992164 0 0 0 0 29.54006703990126 1.6829991486338258 0 1.6829991486338258 -8.1620607657079063 0 0 0 0 -6.8861048802336882 5.3241766853584522 0 5.3241766853584522 -6.4550275070796488 0 0 0 0 -1.4402863085071429 7.1819605352102247 0 7.1819605352102247 -7.4568906876436785 0 0 0 0 -6.9195327101296726 19.789653061697429 0 19.789653061697429 2.7514617831548094 0 0 0 0 -1.4611131792007264 0.88116222175809256 0 0.88116222175809256 -0.080569999607941867 0 0 0 0 -24.546480123052788 -3.5755996700972901 0 -3.5755996700972901 -15.403240729348909 0 0 0 0 -5.9201759003545575 0.66095443519811781 0 0.66095443519811781 5.0489690739266564 0 0 0 0 -15.184255880110413 11.171781204683384 0 11.171781204683384 -11.111298044061186 0 0 0 0 -15.100940213017566 12.817711005061938 0 12.817711005061938 -3.8830289808356611 0 0 0 0 -15.888020032998611 19.440803576387225 0 19.440803576387225 -6.4689414629065141 0 0 0 0 3.4098197820188965 5.6331394828698826 0 5.6331394828698826 -1.0825655044900415 0 0 0 0 -15.86401616222588 19.967704160306539 0 19.967704160306539 0.095725232948097982 0 0 0 0 -3.0726306342130556 24.109061096978621 0 24.109061096978621 -14.46069983077814 0 0 0 0 -32.084955372334662 1.9806134632517569 0 1.9806134632517569 4.2420249252782014 0 0 0 0 1.8009985674634663 29.408795009584082 0 29.408795009584082 11.151273133147697 0 0 0 0 -20.665417869776206 25.77558915178065 0 25.77558915178065 -54.879809207597646 0 0 0 0 13.347570702990197 -3.6909954635784743 0 -3.6909954635784743 -92.638231066483058 0 0 0 0 -20.383792919687039 -62.982381842489303 0 -62.982381842489303 -31.348883773145644 0 0 0 0 15.063001784375956 5.2303364413037343 0 5.2303364413037343 -229.60176493566496 0 0 0 0 9.7627291420158144 46.839796939946154 0 46.839796939946154 13.143099619477198 0 0 0 0 -24.707213260637218 39.717363109023154 0 39.717363109023154 54.189219037136354 0 0 0 0 -2.9187620086129087 6.7425089592352681 0 6.7425089592352681 -14.740878835446605 0 0 0 0 -79.159921766307434 -11.308677233731487 0 -11.308677233731487 -2.6533364278766385 0 0 0 0 -4.4513686567168769 0.051488808357952109 0 0.051488808357952109 -4.8698908911859178 0 0 0 0 -31.591304657198634 -6.681621635601914 0 -6.681621635601914 -13.05878379427304 0 0 0 0 -3.7694609986339316 4.9285786859757899 0 4.9285786859757899 6.1574096654856607 0 0 0 0 -3.8660910673024773 10.744454043573569 0 10.744454043573569 -20.948055951869264 0 0 0 0 -1.9191840784870422 1.0149470416715927 0 1.0149470416715927 1.850934689650952 0 0 0 0 -51.655467000849967 -0.36786094642593525 0 -0.36786094642593525 4.7132668704598473 0 0 0 0 -37.098628148878561 28.228573899206822 0 28.228573899206822 9.2938635134350989 0 0 0 0 -9.5736188161099811 -0.40832009783652623 0 -0.40832009783652623 7.5794276808369929 0 0 0 0 -50.912617772655722 14.032005136497901 0 14.032005136497901 -6.117534985554812 0 0 0 0 -13.664729941473524 7.0424371571225493 0 7.0424371571225493 4.6697750977138845 0 0 0 0 -6.5805022834525051 18.723696011622998 0 18.723696011622998 -3.2816348490305529 0 0 0 0 -6.6308899857642523 6.0733440283252591 0 6.0733440283252591 1.4795069736117306 0 0 0 0 -20.808316407606071 40.847412859560791 0 40.847412859560791 -22.678745322959003 0 0 0 0 -19.988664680025067 6.3910515852803655 0 6.3910515852803655 -6.9002014585876168 0 0 0 0 -60.668093932953525 42.830605902317075 0 42.830605902317075 107.60948730498421 0 0 0 0 -55.41155183059891 44.384774296645446 0 44.384774296645446 71.320554642676143 0 0 0 0 -8.4438171811088978 25.214318823873327 0 25.214318823873327 0.49250413979734731 0 0 0 0 -6.1573660023773913 9.3626526323016339 0 9.3626526323016339 -3.300711791843824 0 0 0 0 -16.854140645881671 -3.6170403814694509 0 -3.6170403814694509 19.460571013320077 0 0 0 0 -2.1827433585049221 19.385730304945355 0 19.385730304945355 -11.175665934941208 0 0 0 0 -55.192253690712278 92.972644026506714 0 92.972644026506714 319.78183676963999 0 0 0 0 12.714402301261543 -169.71414767155147 0 -169.71414767155147 381.60903572210736 0 0 0 0 58.340163931863572 77.283589973700145 0 77.283589973700145 -3.8061382220730593 0 0 0 0 -1.7679571842008652 2.9501182716344729 0 2.9501182716344729 -0.31804300935773 0 0 0 0 -60.439316943882659 -19.29704848905385 0 -19.29704848905385 72.728801326367147 0 0 0 0 -62.097075750692966 -23.520527023369141 0 -23.520527023369141 134.85367493855483 0 0 0 0 -77.607104221624013 68.608822389161105 0 68.608822389161105 290.69691822278037 0 0 0 0 -121.52778754447354 125.96621092840178 0 125.96621092840178 98.686018761938612 0 0 0 0 -106.86063021729433 172.53674549955576 0 172.53674549955576 138.52357327974823 0 0 0 0 49.483104097444084 -57.22532756824603 0 -57.22532756824603 1.1137164137180662 0 0 0 0 -174.00936074789024 155.98484521417595 0 155.98484521417595 482.02339522403736 0 0 0 0 -4.375693775621901 1.6407602394800804 0 1.6407602394800804 -0.87912457580007697 0 0 0 0 15.432108668164005 61.696300898690993 0 61.696300898690993 -362.60011072240195 0 0 0 0 -301.16562972553766 -178.82430324119196 0 -178.82430324119196 -40.478626969481411 0 0 0 0 -143.72746213563642 239.9328623070196 0 239.9328623070196 -259.09725050478755 0 0 0 0 -141.4124371400103 11.959733813166167 0 11.959733813166167 -30.000500986076077 0 0 0 0 -492.24079054019376 -0.51395499598675087 0 -0.51395499598675087 -103.63193685755687 0 0 0 0 -96.480686061392589 48.892309990607828 0 48.892309990607828 -101.17290031224275 0 0 0 0 -31.95982536535621 78.736149704699528 0 78.736149704699528 -476.90218564723182 0 0 0 0 -367.02908345106476 320.91424813147489 0 320.91424813147489 -36.479221862609847 0 0 0 0 87.069446143528694 24.495178688558553 0 24.495178688558553 -15.388502084784704 0 0 0 0 55.400519855733364 107.70079181631627 0 107.70079181631627 -101.76988094601802 0 0 0 0 -32.007761460325995 78.894918091438313 0 78.894918091438313 -56.903943214150786 0 0 0 0 96.011583701501877 162.89884933025132 0 162.89884933025132 -62.326732860246011 0 0 0 0 -9.4664406985143614 -68.056433744358401 0 -68.056433744358401 -101.24692072997505 0 0 0 0 61.209163938960046 86.095881923297384 0 86.095881923297384 -155.94853502827209 0 0 0 0 74.319726951945995 5.4748600717994123 0 5.4748600717994123 -27.502842815918484 0 0 0 0 119.22355975739174 98.61700092463434 0 98.61700092463434 -18.696904627824551 0 0 0 0 144.69271901401771 47.951458456664113 0 47.951458456664113 -75.703088440255669 0 0 0 0 105.53850838687003 101.48681164032041 0 101.48681164032041 121.65358924042812 0 0 0 0 202.13229930563625 54.532306418744611 0 54.532306418744611 -18.838773325296643 0 0 0 0 133.98044730736365 240.33973008019257 0 240.33973008019257 43.647952464103128 0 0 0 0 -18.991855601213672 18.29920109990606 0 18.29920109990606 -9.656273609384499 0 0 0 0 137.87589389370078 67.590668933133657 0 67.590668933133657 -37.686402386376358 0 0 0 0 108.16763551375107 120.81806145001519 0 120.81806145001519 84.889616692289565 0 0 0 0 -74.340682473188508 247.80120469746407 0 247.80120469746407 -3.1516951024786977 0 0 0 0 -5.049945546285926 70.780470324980115 0 70.780470324980115 123.84442927076088 0 0 0 0 -17.681997618412097 16.019327907433535 0 16.019327907433535 -4.8725007134439409 0 0 0 0 -81.289251532351784 97.498896615924082 0 97.498896615924082 115.02867722970041 0 0 0 0 33.416541721620888 18.800217860437442 0 18.800217860437442 4.4096656135234298 0 0 0 0 33.579411913422518 13.632908174051408 0 13.632908174051408 -4.8143094918373208 0 0 0 0 -82.78895289319189 19.697939632722409 0 19.697939632722409 4.436873652831764 0 0 0 0 -83.01803790127633 19.362615611659749 0 19.362615611659749 4.9964629268879435 0 0 0 0 -0.89789156269782566 1.9265574927032674 0 1.9265574927032674 -5.6925249026375653 0 0 0 0 -151.79937505699854 40.862141449872979 0 40.862141449872979 31.57605642861563 0 0 0 0 -67.633257523382781 72.878434018635176 0 72.878434018635176 37.306045582243314 0 0 0 0 -97.624362109848335 1.4448961304051409 0 1.4448961304051409 -12.047334847879029 0 0 0 0 -218.03015832354686 52.411124210977505 0 52.411124210977505 -31.285992609548885 0 0 0 0 -0.47615115909482952 0.9032361190944016 0 0.9032361190944016 -1.5937774267960165 0 0 0 0 1.9330229954130118 -42.601141473978714 0 -42.601141473978714 142.52953580507892 0 0 0 0 218.99716445458898 152.65598705543766 0 152.65598705543766 -4.2677407710434636 0 0 0 0 -19.607107164137137 19.226019893288942 0 19.226019893288942 -11.309874771101164 0 0 0 0 -54.887070727012542 275.15019044606288 0 275.15019044606288 -117.96907154210658 0 0 0 0 122.57701321338118 103.67133316576678 0 103.67133316576678 50.24516364739975 0 0 0 0 98.505929024362558 41.355822096385964 0 41.355822096385964 12.332281263445111 0 0 0 0 18.078419879513604 -59.759888162527773 0 -59.759888162527773 -6.0930799873458454 0 0 0 0 -51.740971900926525 4.7197300678417378 0 4.7197300678417378 70.881831160292222 0 0 0 0 -41.566138851681899 10.534552560968223 0 10.534552560968223 17.96375082173472 0 0 0 0 -98.797106178390095 83.112954709455153 0 83.112954709455153 -90.627456945891026 0 0 0 0 -20.78210196526561 27.823875465766832 0 27.823875465766832 -95.850459121324093 0 0 0 0 -27.001733715296723 -12.782838165914654 0 -12.782838165914654 32.924589045893299 0 0 0 0 -72.397764719251882 -9.8757477519715167 0 -9.8757477519715167 -24.377629404096297 0 0 0 0 -1.1161322552461073 0.29631252588716706 0 0.29631252588716706 0.051794858945026334 0 0 0 0 -24.093442409246734 -64.656757436778264 0 -64.656757436778264 -9.7572062869458023 0 0 0 0 -36.989109250083857 2.0943313788120577 0 2.0943313788120577 29.42734086089331 0 0 0 0 -41.578721756992309 9.1110505223768996 0 9.1110505223768996 22.405056475450692 0 0 0 0 -20.075634449992322 5.3118094762666033 0 5.3118094762666033 2.7556386764736089 0 0 0 0 -19.522891781097314 -3.5844634642171513 0 -3.5844634642171513 12.191258651222597 0 0 0 0 -19.676449621125812 1.8245452518476668 0 1.8245452518476668 11.549797390507592 0 0 0 0 -28.144099347246083 11.190298162551699 0 11.190298162551699 2.4927148268543533 0 0 0 0 -28.734578003506613 4.4791511916118907 0 4.4791511916118907 14.335553014716425 0 0 0 0 -36.792106599230465 14.962048277488066 0 14.962048277488066 1.6365661070994975 0 0 0 0 -2.1871394801523678 1.8371720659347881 0 1.8371720659347881 -0.73536348415305852 0 0 0 0 -18.094180571869401 -3.9352713608259364 0 -3.9352713608259364 -0.41308232158553437 0 0 0 0 -11.363857900090807 0.80768039001668512 0 0.80768039001668512 0.10013167613965379 0 0 0 0 -15.921251440798187 6.0689666398757254 0 6.0689666398757254 -2.8143993940466316 0 0 0 0 -16.16758600371395 5.6320350958976633 0 5.6320350958976633 0.88763783548711217 0 0 0 0 23.577347152175207 -44.358974531774948 0 -44.358974531774948 -4.9989892909898117 0 0 0 0 137.39660371157515 48.639618530438383 0 48.639618530438383 -32.145777001482202 0 0 0 0 -43.617873341978338 60.018910305173449 0 60.018910305173449 80.569576285195581 0 0 0 0 123.80238397528342 33.59286302476653 0 33.59286302476653 14.766097854178952 0 0 0 0 241.08506961663079 77.316498236999905 0 77.316498236999905 19.172144501183539 0 0 0 0 97.429739273158702 32.974337133297013 0 32.974337133297013 232.67507155350177 0 0 0 0 209.44803311122087 167.84025782682147 0 167.84025782682147 93.039357776156976 0 0 0 0 331.33499302137716 54.547463691654229 0 54.547463691654229 12.182734844815059 0 0 0 0 111.06720872120786 100.34042473478075 0 100.34042473478075 29.440999110809571 0 0 0 0 111.18663893104895 98.172759936707735 0 98.172759936707735 59.332041871548427 0 0 0 0 103.35109636538436 41.051103996833262 0 41.051103996833262 39.358870649793971 0 0 0 0 16.28970405079599 55.576755622665587 0 55.576755622665587 -40.455692255713075 0 0 0 0 -27.289300294560235 -41.662658404308786 0 -41.662658404308786 -7.2276423931616591 0 0 0 0 -66.774217542842962 112.2189257763057 0 112.2189257763057 20.993331085509453 0 0 0 0 7.2566118933318648 73.368961441047759 0 73.368961441047759 115.25244226545146 0 0 0 0 50.509431849204702 100.17306731814142 0 100.17306731814142 42.414912866741361 0 0 0 0 35.921804008434265 65.591796498310032 0 65.591796498310032 27.436015764729746 0 0 0 0 -18.182988492811091 120.10410691208608 0 120.10410691208608 46.628537238530043 0 0 0 0 46.556880905965954 59.998529942842652 0 59.998529942842652 74.984558965928045 0 0 0 0 -0.66594444221376392 1.1730722934852871 0 1.1730722934852871 2.0902631605907835 0 0 0 0 140.75935743073569 82.058426844646419 0 82.058426844646419 20.664594403733645 0 0 0 0 102.50139647295873 75.570361044025049 0 75.570361044025049 18.572625580037311 0 0 0 0 158.26197201884861 82.478012756420867 0 82.478012756420867 17.442360085646214 0 0 0 0 155.85449806793258 126.47130016622395 0 126.47130016622395 127.25380555466154 0 0 0 0 180.52125257173975 66.095687117071975 0 66.095687117071975 13.841456539014416 0 0 0 0 92.900178385156323 115.72550768724614 0 115.72550768724614 34.51835541341552 0 0 0 0 138.09697375174255 91.494372994330206 0 91.494372994330206 8.3127198781148763 0 0 0 0 142.94280519576569 116.16179626596659 0 116.16179626596659 23.630652440202539 0 0 0 0 -11.275069554430956 5.6701252212469626 0 5.6701252212469626 -4.4400311314857959 0 0 0 0 -2.46655273386245 2.1675868427434182 0 2.1675868427434182 0.16524696363450175 0 0 0 0 -0.19949944155788613 3.4890769570175664 0 3.4890769570175664 -2.8871500425132197 0 0 0 0 -14.300724083328532 4.6142051593506039 0 4.6142051593506039 -2.9611000704899197 0 0 0 0 -11.92336181632345 5.472859768964554 0 5.472859768964554 -4.4331705486229112 0 0 0 0 -9.163392359335603 5.9982975976847683 0 5.9982975976847683 -6.1295451745827449 0 0 0 0 -78.513428151969492 23.933369226804643 0 23.933369226804643 18.971484862816396 0 0 0 0 -8.9975538343805965 6.9435335027105793 0 6.9435335027105793 -6.81294965943016 0 0 0 0 -8.2551800651854137 6.6336823302553967 0 6.6336823302553967 -6.3456716450309614 0 0 0 0 2.0417170344558144 28.700612100363287 0 28.700612100363287 -16.76198257870783 0 0 0 0 -7.1502724761775642 8.136221643489403 0 8.136221643489403 -5.2901156571356296 0 0 0 0 -34.049546262633612 28.24212169287739 0 28.24212169287739 20.717628662288917 0 0 0 0 -10.635125330560186 6.1157404993246018 0 6.1157404993246018 -5.4025226849007595 0 0 0 0 -9.9033411500349757 7.2162286126003892 0 7.2162286126003892 -6.5462067915914304 0 0 0 0 -13.959514524394763 6.7615752989513567 0 6.7615752989513567 -4.5971027320192661 0 0 0 0 -2.4555035519110411 4.2699482350275311 0 4.2699482350275311 -4.9092540739637727 0 0 0 0 -11.61809022125999 7.3883514171075149 0 7.3883514171075149 -6.4320345406467823 0 0 0 0 -1.725620693428338 2.4026599167544553 0 2.4026599167544553 -8.3124938543236695 0 0 0 0 -10.071940359667678 1.0229485209415543 0 1.0229485209415543 -7.7724275686741748 0 0 0 0 -6.4440159572768607 -1.6475075675789412 0 -1.6475075675789412 -8.5300130496161728 0 0 0 0 -11.182406227864703 -1.8315393298034905 0 -1.8315393298034905 -6.4711234099722788 0 0 0 0 0.11088162756749398 1.8517528221107327 0 1.8517528221107327 -3.3787547921490599 0 0 0 0 -3.4360329300766352 2.744127496936926 0 2.744127496936926 -7.4406540299860353 0 0 0 0 -13.671863954044966 5.2633700796541234 0 5.2633700796541234 -7.4519942612741943 0 0 0 0 -9.4420407334710035 7.4996268214708834 0 7.4996268214708834 -8.3044766098391847 0 0 0 0 -13.745645988436081 8.7298345403141866 0 8.7298345403141866 -8.2750520007393789 0 0 0 0 -11.11662265690029 4.5049654914755592 0 4.5049654914755592 -2.5376931770952069 0 0 0 0 -6.1795369226420007 6.3811213761509862 0 6.3811213761509862 -9.181432203080476 0 0 0 0 -43.171841807605233 15.198516035708963 0 15.198516035708963 -6.4646141425473616 0 0 0 0 -29.124611899328556 9.7052202588704404 0 9.7052202588704404 -4.4513502715926734 0 0 0 0 -18.677975384136516 8.8661826033749094 0 8.8661826033749094 -2.3856361852449481 0 0 0 0 -18.683394541734742 8.8861171743337763 0 8.8861171743337763 -2.095625106818261 0 0 0 0 -27.15888983743298 16.49971792378642 0 16.49971792378642 -9.1171256057059509 0 0 0 0 -14.136714101012331 7.2380443248785014 0 7.2380443248785014 -12.456328347574981 0 0 0 0 -21.902898523487238 11.717621346153464 0 11.717621346153464 -14.621203883369162 0 0 0 0 -22.008199053103453 10.753514687490224 0 10.753514687490224 -23.26625498640351 0 0 0 0 -30.968093984192819 21.36218692707007 0 21.36218692707007 -34.411709090538352 0 0 0 0 -8.5082911062781932 5.5712173225692823 0 5.5712173225692823 -5.5343258030479774 0 0 0 0 -15.211595619260152 2.7435589352603529 0 2.7435589352603529 -7.4490475477341533 0 0 0 0 -9.7803856717926827 4.4479944205785582 0 4.4479944205785582 -2.513149076427581 0 0 0 0 -20.403603133767319 -3.9288867101931828 0 -3.9288867101931828 -15.115553405213177 0 0 0 0 -17.412425237530442 0.21469786940770064 0 0.21469786940770064 -30.927265828893724 0 0 0 0 -1.2695083319016192 11.46700655260401 0 11.46700655260401 -9.6592647695940386 0 0 0 0 -12.892557242354421 2.6162193261529119 0 2.6162193261529119 1.847408294042566 0 0 0 0 -11.041818741706864 8.7006562818505984 0 8.7006562818505984 -3.2581706581921566 0 0 0 0 9.2417067995920661 13.386170788420714 0 13.386170788420714 5.3601737581193447 0 0 0 0 -12.608329107809109 8.1410177403841608 0 8.1410177403841608 -5.7299712089547228 0 0 0 0 -50.622573019632 6.6377783881207506 0 6.6377783881207506 7.9816672267043032 0 0 0 0 -3.4298909930752348 1.3700974844619873 0 1.3700974844619873 1.3947153230728091 0 0 0 0 101.47762304198432 28.917456947784558 0 28.917456947784558 -5.9793798210321256 0 0 0 0 85.592849560177456 36.575197642749117 0 36.575197642749117 2.2606073580500379 0 0 0 0 78.004707319112242 27.770207920069652 0 27.770207920069652 18.677928944402083 0 0 0 0 89.937905398361181 50.202799131217034 0 50.202799131217034 -9.151176655832387 0 0 0 0 78.299490591661552 45.763312439621728 0 45.763312439621728 -8.9281305730619351 0 0 0 0 4.3510687755483879 3.2462280491804556 0 3.2462280491804556 -3.0119691805992375 0 0 0 0 -11.169402614547618 8.9172950409879768 0 8.9172950409879768 -4.1437244005098464 0 0 0 0 -73.478381527664169 -25.884838163570748 0 -25.884838163570748 4.7520207636025589 0 0 0 0 -6.6324994829948558 1.0523494885224594 0 1.0523494885224594 1.3688073553761697 0 0 0 0 0.62880608341583866 10.889439659735217 0 10.889439659735217 0.0098573241593840066 0 0 0 0 -114.57237081132553 55.040755911074484 0 55.040755911074484 88.352185561976512 0 0 0 0 -5.1538940084964864 10.91779048285572 0 10.91779048285572 -6.2892673402503547 0 0 0 0 29.127935023179816 4.1921088286399026 0 4.1921088286399026 -23.293843050505529 0 0 0 0 -22.80619534642063 13.804199716513654 0 13.804199716513654 -3.4417551315001731 0 0 0 0 -67.198468696111377 -48.46369260053325 0 -48.46369260053325 -78.869312515987986 0 0 0 0 109.61609276705212 67.222276403183059 0 67.222276403183059 -4.2473473539466795 0 0 0 0 -17.444097063126208 18.204828341895631 0 18.204828341895631 -10.474339543225419 0 0 0 0 -5.7530714706835804 1.7249758394877226 0 1.7249758394877226 0.36271473884774963 0 0 0 0 -38.15600137353249 5.0068280280526096 0 5.0068280280526096 -6.7409977879942744 0 0 0 0 -48.530425669428951 22.882146659419959 0 22.882146659419959 -14.344459333646228 0 0 0 0 61.03225048762215 46.191648713727773 0 46.191648713727773 3.3377639042755618 0 0 0 0 111.60609603046305 42.948547984777178 0 42.948547984777178 -15.136191921334103 0 0 0 0 97.238433332022396 47.694398145948071 0 47.694398145948071 -14.426464210682752 0 0 0 0 85.971556357811096 32.765228256888804 0 32.765228256888804 -19.623751665395503 0 0 0 0 82.574623605567467 34.324033366033291 0 34.324033366033291 -15.998280414292822 0 0 0 0 94.654885873259445 43.787953866700263 0 43.787953866700263 -12.458476046165742 0 0 0 0 77.54427616407429 37.104141998288469 0 37.104141998288469 -4.4399773404184089 0 0 0 0 85.667144228070356 35.862516229834 0 35.862516229834 -15.645977752144063 0 0 0 0 70.04921279120299 24.076536445554666 0 24.076536445554666 -16.034540613909485 0 0 0 0 58.982267708838208 40.791414237527533 0 40.791414237527533 8.6834694502031198 0 0 0 0 75.824100769202232 21.215654540706964 0 21.215654540706964 -8.7213038418221913 0 0 0 0 80.526141673664142 32.402002040010757 0 32.402002040010757 15.492796077196545 0 0 0 0 147.48469918401406 7.8260255203822453 0 7.8260255203822453 3.869128281259691 0 0 0 0 -43.377402047039595 20.162755117296001 0 20.162755117296001 15.504928824846502 0 0 0 0 97.333416471731198 35.397830856378278 0 35.397830856378278 -6.8224684344677371 0 0 0 0 214.71089308718911 42.3393599613064 0 42.3393599613064 -26.841031523323181 0 0 0 0 0.3657910724540811 -0.017478992635617807 0 -0.017478992635617807 0.47162519355528332 0 0 0 0 145.93590010212847 79.133477444222081 0 79.133477444222081 9.0589553621339292 0 0 0 0 53.052293772791678 20.863671885092813 0 20.863671885092813 -6.4103476002346724 0 0 0 0 53.456801343341795 43.094551399894044 0 43.094551399894044 30.742802432585449 0 0 0 0 6.588817453171032 16.696722915121427 0 16.696722915121427 16.451554066989047 0 0 0 0 18.33422677048793 9.7173977697002556 0 9.7173977697002556 6.862531586408295 0 0 0 0 -2.4402541508870854 -2.1606257229059338 0 -2.1606257229059338 -0.30808026145678014 0 0 0 0 12.10068672477064 18.763070493218038 0 18.763070493218038 -5.5315535679783352 0 0 0 0 7.8030657875551697 -10.094037163815301 0 -10.094037163815301 -28.066626810825255 0 0 0 0 -14.587722463615137 -13.943290147210064 0 -13.943290147210064 -15.358968144180835 0 0 0 0 -21.618412023071869 -10.206386862297222 0 -10.206386862297222 -34.89370629525456 0 0 0 0 -13.230198515332631 7.1798801858940351 0 7.1798801858940351 -38.869737447315856 0 0 0 0 -4.2082236901878787 6.4379615498673957 0 6.4379615498673957 -26.457662214886113 0 0 0 0 -17.141403375805112 0.43157113665711222 0 0.43157113665711222 -3.6008581821952248 0 0 0 0 -4.2281620262710931 5.8299546380876563 0 5.8299546380876563 -4.7733844226117981 0 0 0 0 -22.049706277175574 3.8214729062810875 0 3.8214729062810875 6.8476709186379594 0 0 0 0 24.642382544659995 6.1738175712162047 0 6.1738175712162047 -6.2479475392101449 0 0 0 0 -3.9867640329236522 16.89661541580476 0 16.89661541580476 1.5634665261350165 0 0 0 0 23.54294385158255 14.787531262300035 0 14.787531262300035 0.0057205283410439733 0 0 0 0 56.070211717459642 28.931894860108514 0 28.931894860108514 -2.9087419420143306 0 0 0 0 30.997305941409195 2.0518350017100602 0 2.0518350017100602 -15.891550317574001 0 0 0 0 12.61242928298816 12.048071850877022 0 12.048071850877022 -2.0083328706714383 0 0 0 0 61.641544894687286 17.029866026252421 0 17.029866026252421 -20.924785647443059 0 0 0 0 65.553978605023985 19.831821142333865 0 19.831821142333865 -48.534807901334716 0 0 0 0 61.903485069961789 16.553540345276815 0 16.553540345276815 -20.336208089465799 0 0 0 0 95.510880639158444 22.833485198004439 0 22.833485198004439 -38.700143647118239 0 0 0 0 24.889827909677479 -23.728568307266869 0 -23.728568307266869 -37.221145928926489 0 0 0 0 107.2938988555984 45.973398907912269 0 45.973398907912269 -26.555857453273347 0 0 0 0 -19.082746089184184 -0.49705167797037575 0 -0.49705167797037575 -11.456951816267974 0 0 0 0 -20.797974720117054 4.2386123077785669 0 4.2386123077785669 6.7288873042052728 0 0 0 0 -19.61109769350287 -1.4600461982754496 0 -1.4600461982754496 -4.4964804416849802 0 0 0 0 0.55834383782189434 -7.8012314026113927 0 -7.8012314026113927 -5.6872381313078222 0 0 0 0 -39.93625971793972 -10.562218252091043 0 -10.562218252091043 -1.1077456395059926 0 0 0 0 -50.051684345327885 22.62527856415818 0 22.62527856415818 -3.2296861206550602 0 0 0 0 -60.813025961077983 24.134952372663975 0 24.134952372663975 13.538722996250726 0 0 0 0 -66.421589352138653 -22.585599959658794 0 -22.585599959658794 -19.297531061973132 0 0 0 0 -100.79929924856697 50.841995078294758 0 50.841995078294758 -17.889202728583768 0 0 0 0 -137.29046520095335 180.90549639836991 0 180.90549639836991 -99.394557249433092 0 0 0 0 -123.00873958253214 15.885867734407839 0 15.885867734407839 -45.475151713168088 0 0 0 0 -82.561612103986363 62.824984091104398 0 62.824984091104398 23.397098611312686 0 0 0 0 23.127441419827846 74.74726750202808 0 74.74726750202808 12.990460988974519 0 0 0 0 -18.623552496303546 50.107942009637554 0 50.107942009637554 7.9976114524033619 0 0 0 0 -3.6631846474047052 27.581237467773462 0 27.581237467773462 10.538237966783527 0 0 0 0 -26.079590839497769 10.422999222404997 0 10.422999222404997 2.9536906865832862 0 0 0 0 30.350740605898409 24.379409061083607 0 24.379409061083607 -70.967412007024905 0 0 0 0 12.800420759375811 -20.009601608371668 0 -20.009601608371668 -98.170389844236524 0 0 0 0 -13.004291080559597 18.964596981229988 0 18.964596981229988 2.3049230410122163 0 0 0 0 92.540573997223419 106.03127847769611 0 106.03127847769611 7.6303072767606679 0 0 0 0 63.512173935957435 111.09292488068513 0 111.09292488068513 51.02598019920697 0 0 0 0 79.904846778365254 61.862942504192233 0 61.862942504192233 26.80353764512256 0 0 0 0 113.62766044056457 144.41698315648318 0 144.41698315648318 97.458082353598002 0 0 0 0 0.93213000160621462 0.2546214601361676 0 0.2546214601361676 -0.20758846299055733 0 0 0 0 108.32745868144639 137.83226846375146 0 137.83226846375146 125.5418298849745 0 0 0 0 141.83619196489599 162.68554265282 0 162.68554265282 141.56201623032166 0 0 0 0 133.40042260186237 78.755531372815312 0 78.755531372815312 142.56077237502197 0 0 0 0 96.213387394246638 109.09798132313745 0 109.09798132313745 126.61099135285622 0 0 0 0 85.208448267967469 66.179537226124012 0 66.179537226124012 67.046504729946719 0 0 0 0 147.25538333237091 93.128841343188469 0 93.128841343188469 79.554935185937211 0 0 0 0 70.147580314698644 73.845630256051663 0 73.845630256051663 90.265929104495626 0 0 0 0 113.38281083710172 90.752824064169545 0 90.752824064169545 70.53204546332563 0 0 0 0 66.880484677262757 36.780493231692162 0 36.780493231692162 45.283161163119075 0 0 0 0 78.447204214918202 75.978327345781508 0 75.978327345781508 67.344983690560184 0 0 0 0 27.386319962293783 21.644055839081375 0 21.644055839081375 27.725295454602019 0 0 0 0 43.37894577440602 63.832675101330096 0 63.832675101330096 87.482072061162398 0 0 0 0 54.229433831912957 55.137020801381368 0 55.137020801381368 26.896025587055192 0 0 0 0 19.565643036870824 21.753116563046206 0 21.753116563046206 48.811428657319084 0 0 0 0 23.668825998678585 26.299021468753381 0 26.299021468753381 -14.839776162891212 0 0 0 0 36.856814186317933 11.330539177750325 0 11.330539177750325 7.0132763379242533 0 0 0 0 38.171743950820201 32.772589001713641 0 32.772589001713641 20.226505627761071 0 0 0 0 32.171121110994136 42.061533495661934 0 42.061533495661934 52.862407482192793 0 0 0 0 -0.81562673243206518 9.0894841297031235 0 9.0894841297031235 17.566847101748863 0 0 0 0 9.4563473686816906 -5.5909798649745426 0 -5.5909798649745426 8.0558627924910979 0 0 0 0 21.096190279422899 -0.42246364746824838 0 -0.42246364746824838 -16.780472966198431 0 0 0 0 0.97226639497126399 0.6749497526538164 0 0.6749497526538164 -0.17305886872807275 0 0 0 0 4.4229347510575963 2.4538341554521139 0 2.4538341554521139 0.0089941177629953017 0 0 0 0 12.091609355009496 -27.805544054863276 0 -27.805544054863276 -38.197085614032403 0 0 0 0 16.105655221797861 -19.245911398647877 0 -19.245911398647877 -46.827919775911141 0 0 0 0 -15.19890235577077 -28.032691556443751 0 -28.032691556443751 -14.882554839066302 0 0 0 0 -35.322825435530376 9.8822586267770021 0 9.8822586267770021 3.6324838000145974 0 0 0 0 1.4069943767025794 0.87463231643791772 0 0.87463231643791772 -0.19873308944742618 0 0 0 0 4.0999614282339962 2.8725219658676906 0 2.8725219658676906 1.5364167875213752 0 0 0 0 44.424350720330949 5.1287021691387054 0 5.1287021691387054 -54.788428154243775 0 0 0 0 5.9271586417630715 40.486946792929302 0 40.486946792929302 -17.298849437142053 0 0 0 0 43.643508121087507 29.058479103434365 0 29.058479103434365 -13.898439156575478 0 0 0 0 42.184830896414496 34.492234431119869 0 34.492234431119869 7.105433459058986 0 0 0 0 30.559252719150209 29.868266686518837 0 29.868266686518837 25.446248115506023 0 0 0 0 37.865826929829382 48.289877684134353 0 48.289877684134353 46.051636075848364 0 0 0 0 59.408388309633665 52.274221409992606 0 52.274221409992606 25.773871659512224 0 0 0 0 25.68531550338048 9.3826569314151129 0 9.3826569314151129 -2.4670575021900731 0 0 0 0 6.3942259240457133 29.777495497599375 0 29.777495497599375 18.35131686040404 0 0 0 0 42.050413208442478 29.222777912407764 0 29.222777912407764 16.485721195902443 0 0 0 0 25.967055156092101 17.570227289168542 0 17.570227289168542 30.905116222522338 0 0 0 0 42.439476805993763 47.723400751667214 0 47.723400751667214 38.623991184736951 0 0 0 0 52.250494881487612 39.178032187272947 0 39.178032187272947 45.183817172015551 0 0 0 0 58.184127397804332 74.226694700299049 0 74.226694700299049 81.409887962872745 0 0 0 0 72.142891551075991 66.86384584010284 0 66.86384584010284 48.035809510969557 0 0 0 0 80.563252220014874 73.594248197561683 0 73.594248197561683 55.664179905870697 0 0 0 0 63.915490687268175 94.752641212129674 0 94.752641212129674 96.541126745371002 0 0 0 0 86.998759164078365 93.2518749297451 0 93.2518749297451 92.658604960190132 0 0 0 0 78.438699544701194 120.44679304082274 0 120.44679304082274 132.76933276448472 0 0 0 0 93.379956005504937 117.21480460234307 0 117.21480460234307 100.24459766806081 0 0 0 0 70.660918656887588 98.157670210723154 0 98.157670210723154 98.231183129242709 0 0 0 0 62.852364835368462 96.174098171941296 0 96.174098171941296 82.225815109704854 0 0 0 0 84.242006217262315 109.08695570128111 0 109.08695570128111 85.174814877951576 0 0 0 0 77.159553449228042 95.665706222851441 0 95.665706222851441 72.295784825815645 0 0 0 0 64.199778815622267 94.968713822820064 0 94.968713822820064 79.869342949234124 0 0 0 0 41.167041335698741 67.406755963242176 0 67.406755963242176 67.682391125606955 0 0 0 0 55.221953409420166 54.805218562685695 0 54.805218562685695 46.093126475130703 0 0 0 0 41.544944142780878 76.709030393121793 0 76.709030393121793 76.419831696427991 0 0 0 0 37.011150531491239 55.091704632121036 0 55.091704632121036 51.671567452583986 0 0 0 0 48.768142896398786 18.826894384252228 0 18.826894384252228 -7.4744071892346255 0 0 0 0 -3.7648256129250512 -2.4013620947334857 0 -2.4013620947334857 0.0017658057124836607 0 0 0 0 5.0193913010425604 -28.116844796571968 0 -28.116844796571968 8.2805341835583022 0 0 0 0 20.040086295863148 22.658068790195102 0 22.658068790195102 39.455894487240585 0 0 0 0 8.1468489473154477 13.789899710762256 0 13.789899710762256 38.733566517381405 0 0 0 0 46.586729981347162 73.666843338705803 0 73.666843338705803 71.900684716576507 0 0 0 0 48.104994576358536 94.004117671557424 0 94.004117671557424 94.308695791143691 0 0 0 0 -1.7633322939145728 61.31186901484034 0 61.31186901484034 115.3805683493265 0 0 0 0 7.0811327364826866 66.781427197056473 0 66.781427197056473 145.38207910147321 0 0 0 0 -35.239264473786534 17.618406794914335 0 17.618406794914335 89.662095517647685 0 0 0 0 -38.188730329373357 -12.267336482105748 0 -12.267336482105748 78.615047354960552 0 0 0 0 0.74203003328117489 0.77526423274323975 0 0.77526423274323975 -0.037519816931147254 0 0 0 0 51.108241405348963 126.75468845680552 0 126.75468845680552 182.94951972760282 0 0 0 0 130.55810054088215 164.40477304227534 0 164.40477304227534 -0.16567837931154325 0 0 0 0 8.097134133587133 7.4820813275900946 0 7.4820813275900946 -23.019450295369097 0 0 0 0 133.93268840998826 159.61860165912003 0 159.61860165912003 114.73325815167118 0 0 0 0 76.84453311921061 119.66479036041346 0 119.66479036041346 117.18794229500963 0 0 0 0 90.232092077641937 107.94377073821852 0 107.94377073821852 87.491709192654525 0 0 0 0 105.04818121318385 127.36692317705456 0 127.36692317705456 112.44104283661659 0 0 0 0 122.11792774981586 96.719956839796396 0 96.719956839796396 64.366227724574856 0 0 0 0 106.30875264316182 98.317818211715348 0 98.317818211715348 75.270051290026458 0 0 0 0 92.193374328335267 109.43840138059022 0 109.43840138059022 87.674386961451546 0 0 0 0 83.83827292278329 111.80871366682914 0 111.80871366682914 87.620416998895962 0 0 0 0 85.404125580949767 104.84785354215637 0 104.84785354215637 88.259923717654601 0 0 0 0 82.841787306791957 103.43807067361558 0 103.43807067361558 103.99251769067632 0 0 0 0 84.985558535188829 101.46439299684971 0 101.46439299684971 102.79376951990707 0 0 0 0 84.008969477194114 106.53107238666234 0 106.53107238666234 88.788788995184404 0 0 0 0 70.52832652590314 67.974753368562688 0 67.974753368562688 79.953384818381892 0 0 0 0 60.875237341526372 78.991985106720676 0 78.991985106720676 122.29540464870661 0 0 0 0 76.046056901170232 86.175483879313106 0 86.175483879313106 76.646857780101072 0 0 0 0 35.426576445142928 125.78911590626376 0 125.78911590626376 246.7338040812283 0 0 0 0 34.416127012403877 40.23393066587937 0 40.23393066587937 113.5065257121787 0 0 0 0 -10.289876336109046 -37.654473216016413 0 -37.654473216016413 -116.90442692679426 0 0 0 0 37.524045391221648 59.304906688221308 0 59.304906688221308 187.68131380318664 0 0 0 0 66.676619948995722 109.71849996626406 0 109.71849996626406 144.9946012497021 0 0 0 0 90.482222087734044 196.09090114573701 0 196.09090114573701 225.88250912000149 0 0 0 0 73.232530839064111 99.395849092119533 0 99.395849092119533 149.47171361452274 0 0 0 0 -9.9531077948686288 -37.291706677617185 0 -37.291706677617185 -117.66475126446676 0 0 0 0 1.6310692204872943 0.49754726962465057 0 0.49754726962465057 -0.41965880319316184 0 0 0 0 81.821198264759914 164.00805591124845 0 164.00805591124845 187.2730554776781 0 0 0 0 132.7573576175073 136.47295279223181 0 136.47295279223181 111.16228603532727 0 0 0 0 80.286185537232086 116.47676401882381 0 116.47676401882381 125.93342388430392 0 0 0 0 100.14899391309518 125.17733409518405 0 125.17733409518405 128.48138719004419 0 0 0 0 220.36222654650237 159.62170437500754 0 159.62170437500754 126.24094110827355 0 0 0 0 -9.8947623903040949 -36.547823386816162 0 -36.547823386816162 -117.76671520906439 0 0 0 0 -11.943968742584957 1.1758848705230776 0 1.1758848705230776 -55.621583942483994 0 0 0 0 -6.7570735948033871 -28.969819284786354 0 -28.969819284786354 -58.789601469774425 0 0 0 0 -30.640187500481261 -17.736664831356393 0 -17.736664831356393 -9.2761441132170148 0 0 0 0 2.5900924793686499 -24.869966512080282 0 -24.869966512080282 -71.961158710547352 0 0 0 0 -10.237617116865295 -36.971777017533896 0 -36.971777017533896 -116.91241122025895 0 0 0 0 1.9277855321765767 0.20863895394107601 0 0.20863895394107601 -0.51863207870318817 0 0 0 0 34.073417379611556 30.264805166626502 0 30.264805166626502 31.566738621128025 0 0 0 0 46.412432290099787 -18.8625561238714 0 -18.8625561238714 -69.797132667049482 0 0 0 0 22.136105296018286 22.284051378188451 0 22.284051378188451 -56.259571004571626 0 0 0 0 -20.028557192096969 15.779481451798802 0 15.779481451798802 -24.651885902167123 0 0 0 0 17.333124586313716 -11.85891706579423 0 -11.85891706579423 -4.5842002851622965 0 0 0 0 50.700046126753932 4.4169255168153541 0 4.4169255168153541 -45.097372271062341 0 0 0 0 39.64390967632994 51.925928678491118 0 51.925928678491118 1.2107195181342831 0 0 0 0 -28.85569926693006 -14.756753411378668 0 -14.756753411378668 -5.8642732023772624 0 0 0 0 56.398975271978088 8.9401407075511088 0 8.9401407075511088 -12.184805802566189 0 0 0 0 23.828651942120814 42.06933946533718 0 42.06933946533718 23.044122378101747 0 0 0 0 -5.2993010743502964 -42.116830633274731 0 -42.116830633274731 -108.23766472966963 0 0 0 0 -4.3376811828984501 -34.066127046880865 0 -34.066127046880865 -105.57895513505673 0 0 0 0 1.8605947731256656 0.19405584224940853 0 0.19405584224940853 -0.51443322703328143 0 0 0 0 -7.4719833726467186 -36.729044465006154 0 -36.729044465006154 -105.92864519868453 0 0 0 0 4.2367664238366629 0.51059083378954639 0 0.51059083378954639 -0.86983792423908568 0 0 0 0 -8.5145316101697972 -34.539791091485313 0 -34.539791091485313 -102.34366564647448 0 0 0 0 59.324577860015779 43.788206300192542 0 43.788206300192542 66.441582863224539 0 0 0 0 -11.965724880255493 -37.339722039851949 0 -37.339722039851949 -102.31080915815255 0 0 0 0 82.356190724808584 79.987822645111009 0 79.987822645111009 81.228522559995326 0 0 0 0 35.06222610493478 53.470819665833915 0 53.470819665833915 69.473105942992333 0 0 0 0 75.745467437600382 70.363405521577079 0 70.363405521577079 57.300084571881598 0 0 0 0 78.892162879870511 55.662965349677961 0 55.662965349677961 50.309617731702019 0 0 0 0 94.119821082894305 81.985693648710367 0 81.985693648710367 59.47924144724675 0 0 0 0 76.307980911393315 73.70906789003493 0 73.70906789003493 74.821573928020371 0 0 0 0 101.69880172209196 68.186374261259971 0 68.186374261259971 43.592991632634948 0 0 0 0 111.1824597779887 98.298477509002623 0 98.298477509002623 69.320539841188292 0 0 0 0 91.759590281729288 92.021163841527596 0 92.021163841527596 69.532449388281748 0 0 0 0 137.38958306494169 67.560700529502355 0 67.560700529502355 35.246251139433298 0 0 0 0 169.39053977699768 136.47470537556728 0 136.47470537556728 73.295870853113684 0 0 0 0 47.704502013028105 34.872116703124448 0 34.872116703124448 0.171378118917346 0 0 0 0 85.762399073111055 70.799637133052101 0 70.799637133052101 33.828075100158458 0 0 0 0 19.743899469988719 24.845711258263691 0 24.845711258263691 33.952577598964126 0 0 0 0 14.881035285300186 38.633862640474035 0 38.633862640474035 56.405288825146272 0 0 0 0 45.850550488055887 34.804588902754404 0 34.804588902754404 36.766082521037788 0 0 0 0 -2.8730187599358032 20.015974601874404 0 20.015974601874404 57.602484209515524 0 0 0 0 7.5414260961661057 14.796442114988167 0 14.796442114988167 20.05711120558226 0 0 0 0 -26.412634699390765 -18.389968671268434 0 -18.389968671268434 -92.34329094415807 0 0 0 0 6.0650595946438077 0.68957000613678687 0 0.68957000613678687 -0.68813491139664862 0 0 0 0 3.0281752233149746 7.3981197191637875 0 7.3981197191637875 40.535553776222514 0 0 0 0 114.28916180563465 35.161017140715558 0 35.161017140715558 -117.45513043308529 0 0 0 0 114.06917998236895 -63.193067015286942 0 -63.193067015286942 -162.53765696279652 0 0 0 0 18.899565523159254 7.6813043511556316 0 7.6813043511556316 -4.3863831470589503 0 0 0 0 6.8773003717645818 1.5125843759335922 0 1.5125843759335922 -0.26858669772919175 0 0 0 0 0.89616810275112968 1.056952240221932 0 1.056952240221932 0.0012408164199371186 0 0 0 0 21.352575853838971 14.132601206542859 0 14.132601206542859 26.272443600140832 0 0 0 0 10.588438251295997 3.8665746755498276 0 3.8665746755498276 24.870302529498076 0 0 0 0 8.8094012345172814 17.891783071054306 0 17.891783071054306 30.524954890572189 0 0 0 0 27.371098570503818 31.192987014419487 0 31.192987014419487 29.046901200846833 0 0 0 0 24.621630694848818 22.239657937739821 0 22.239657937739821 12.233592281441815 0 0 0 0 4.3528715801931526 10.023937812136126 0 10.023937812136126 11.185958885958826 0 0 0 0 16.655361437218744 11.280830369882096 0 11.280830369882096 -0.017174012701629247 0 0 0 0 18.074788790541788 6.6554899461643799 0 6.6554899461643799 14.421027592729843 0 0 0 0 -1.5122591641338659 -2.8003763721153518 0 -2.8003763721153518 11.63860021165965 0 0 0 0 4.7819949971635651 5.8967134419908689 0 5.8967134419908689 7.5695100649281812 0 0 0 0 120.44708276937308 125.32744610006921 0 125.32744610006921 -38.13602265581585 0 0 0 0 11.590354260089953 14.352014790750218 0 14.352014790750218 16.185438102333137 0 0 0 0 -6.1113941943949612 3.1531863429991063 0 3.1531863429991063 23.50477725726887 0 0 0 0 -274.4416639644196 -118.90590303714271 0 -118.90590303714271 125.59310513404489 0 0 0 0 -584.70245204460298 404.16223109469865 0 404.16223109469865 469.33061738314427 0 0 0 0 158.79854445761316 158.0401788527015 0 158.0401788527015 78.522135797626106 0 0 0 0 -4.4899161887404624 1.8743395121351067 0 1.8743395121351067 0.95346978381456182 0 0 0 0 -7.6068665011832461 7.3627697746908289 0 7.3627697746908289 -4.2437972224599321 0 0 0 0 9.5864028935684473 24.879714743761724 0 24.879714743761724 -28.042324251000537 0 0 0 0 -28.174824273395643 5.4588631517399335 0 5.4588631517399335 -3.3336289591097739 0 0 0 0 2.5801275170001432 -1.0051277618565067 0 -1.0051277618565067 -1.2010271915208506 0 0 0 0 2.7671658197630844 1.3410200189443131 0 1.3410200189443131 -2.4780192792429716 0 0 0 0 44.591085140220457 24.079176066463333 0 24.079176066463333 -3.0725466521507769 0 0 0 0 -2.6315748848019656 4.1301598431587223 0 4.1301598431587223 -2.1725690922087182 0 0 0 0 -3.8782413535482192 2.7502256592779304 0 2.7502256592779304 -2.3409120102551242 0 0 0 0 65.12818118182804 28.579038684987609 0 28.579038684987609 -4.8006456781840825 0 0 0 0 120.24639703608591 -23.4941730468272 0 -23.4941730468272 -39.447019437910058 0 0 0 0 0.1615669357258227 1.4110491271599912 0 1.4110491271599912 -0.52238111775368168 0 0 0 0 -7.6548959096128897 6.4551204295733164 0 6.4551204295733164 -1.0506545024540452 0 0 0 0 -2.4811570467661568 4.1066385586402703 0 4.1066385586402703 -1.0714674176851986 0 0 0 0 -21.539726078255626 8.3381481985852588 0 8.3381481985852588 27.163953584437422 0 0 0 0 -9.96735769658153 -28.716109261054953 0 -28.716109261054953 133.07412213723001 0 0 0 0 -1.5378234982831707 1.0388730672946558 0 1.0388730672946558 -0.31306285730740768 0 0 0 0 89.077456834895202 7.7547214602673193 0 7.7547214602673193 -4.0258978710448901 0 0 0 0 89.326963295074165 -7.1195594301988763 0 -7.1195594301988763 -11.831052140914835 0 0 0 0 -17.258584170538597 -25.321976095055106 0 -25.321976095055106 -129.64249493906209 0 0 0 0 36.626241054047568 52.602052659640322 0 52.602052659640322 28.090039472790522 0 0 0 0 -28.020772625242671 -7.8146873226484104 0 -7.8146873226484104 -129.25805521927941 0 0 0 0 62.714108936301272 70.905862052019074 0 70.905862052019074 27.981908618236048 0 0 0 0 151.86560475782335 34.298993511507433 0 34.298993511507433 -23.443488845918182 0 0 0 0 0.8838834143119918 0.25113595515185239 0 0.25113595515185239 -0.31964035957836323 0 0 0 0 61.683843385577347 60.088001009940854 0 60.088001009940854 11.885101910422236 0 0 0 0 75.387030778878398 39.08431160976761 0 39.08431160976761 -3.7388149215476005 0 0 0 0 61.648601242475706 31.19328453963135 0 31.19328453963135 -5.7727638118067262 0 0 0 0 34.066576620443357 45.748074371637813 0 45.748074371637813 11.632608363024701 0 0 0 0 25.535399943662014 22.167920524009787 0 22.167920524009787 2.3971995944521041 0 0 0 0 52.213311370845076 49.703247522124002 0 49.703247522124002 0.98270951350423275 0 0 0 0 -9.7689910900244286 4.23205227282142 0 4.23205227282142 -3.2362370629416546 0 0 0 0 -4.1110936223472132 7.6135836135775463 0 7.6135836135775463 -3.4349626006527245 0 0 0 0 -24.74839662208251 10.420686705087064 0 10.420686705087064 1.3545087652964867 0 0 0 0 -2.2653705256676093 2.5160800968395591 0 2.5160800968395591 -3.1436098304864615 0 0 0 0 -4.5711274446493917 1.3959823914401568 0 1.3959823914401568 -2.1712968378560618 0 0 0 0 -7.154628413233894 1.8601848770639506 0 1.8601848770639506 -1.3665670326912505 0 0 0 0 -75.990920280929231 60.180356017825034 0 60.180356017825034 -66.85590050832252 0 0 0 0 -83.074784666792539 90.911554132065248 0 90.911554132065248 -78.499407438016078 0 0 0 0 -129.07740548040971 56.507217064439374 0 56.507217064439374 -27.498085959365199 0 0 0 0 -66.331462140279427 80.912477507277799 0 80.912477507277799 -48.28492820741576 0 0 0 0 -80.879179953596974 80.679683002173988 0 80.679683002173988 -46.937091816660541 0 0 0 0 -71.833419323519934 87.855331376569666 0 87.855331376569666 -47.684846564110558 0 0 0 0 -73.283806805463826 95.044544409202899 0 95.044544409202899 -36.651208898078039 0 0 0 0 -72.494158254956773 87.66681161996712 0 87.66681161996712 -46.83728005130979 0 0 0 0 -86.504510181234195 68.510155510485674 0 68.510155510485674 -50.157698823381224 0 0 0 0 -83.365408705599521 68.878590299751522 0 68.878590299751522 -53.997638573207951 0 0 0 0 -84.528738335207493 77.825046259711598 0 77.825046259711598 -26.5121107683226 0 0 0 0 -0.18163212854159755 0.43651224803526345 0 0.43651224803526345 -0.34442475659497518 0 0 0 0 159.5236412665962 50.831345104177217 0 50.831345104177217 -50.108981160828989 0 0 0 0 -93.042308281351836 79.942582412694719 0 79.942582412694719 -62.173911337637037 0 0 0 0 -76.527379503919292 47.507306567265914 0 47.507306567265914 -31.533847739181283 0 0 0 0 -96.243118812775492 67.426272978859174 0 67.426272978859174 -48.932420280172664 0 0 0 0 -78.883765489649534 60.649878355176952 0 60.649878355176952 -50.924918974438697 0 0 0 0 -83.922402621999822 66.606013365477338 0 66.606013365477338 -55.854948073199921 0 0 0 0 -51.018298211595038 70.166133171669117 0 70.166133171669117 -55.494928933892879 0 0 0 0 -47.935710381826993 64.243105128383831 0 64.243105128383831 -44.966246248945936 0 0 0 0 6.23677730009058 106.52070185736056 0 106.52070185736056 -56.514642382002421 0 0 0 0 8.8301499618048638 110.0808176964174 0 110.0808176964174 -77.391906792327177 0 0 0 0 -13.84286996221158 102.3956479565004 0 102.3956479565004 -79.093908893766638 0 0 0 0 -55.30972302512555 95.944690909550445 0 95.944690909550445 -107.76344887059895 0 0 0 0 -63.392839897853264 90.077235811910214 0 90.077235811910214 -52.245348538712506 0 0 0 0 -12.412550635670868 106.65770048841387 0 106.65770048841387 -57.361765313768046 0 0 0 0 26.752091729054882 140.82469467889905 0 140.82469467889905 -61.717589950525507 0 0 0 0 26.671974450364814 160.51317228154585 0 160.51317228154585 -103.82830325039049 0 0 0 0 -21.682112762242923 115.92070420155687 0 115.92070420155687 26.089887146428737 0 0 0 0 48.692658361820577 155.2335744735301 0 155.2335744735301 -56.053032529748634 0 0 0 0 59.180505181048375 70.350717798198275 0 70.350717798198275 -4.1547211456327204 0 0 0 0 6.837492979135277 121.95833962665711 0 121.95833962665711 -53.159136654432587 0 0 0 0 11.57599723164526 132.027791074579 0 132.027791074579 65.810900890286575 0 0 0 0 174.56136082235844 118.09659180970175 0 118.09659180970175 -2.0345407394561335 0 0 0 0 -169.6875766212803 84.031027815577545 0 84.031027815577545 26.37167940827203 0 0 0 0 0.10796743616409543 0.48173619129526557 0 0.48173619129526557 0.88118925906165657 0 0 0 0 55.812394119292549 77.994277754925861 0 77.994277754925861 -11.7006504558085 0 0 0 0 -215.29734476963506 116.18543058945943 0 116.18543058945943 -44.415222878797977 0 0 0 0 156.93948181011001 51.874857609353967 0 51.874857609353967 -66.687329852563835 0 0 0 0 4.3291728915804697 -18.68629638821767 0 -18.68629638821767 -15.171678772333507 0 0 0 0 -0.02780029585590843 0.34299456234601511 0 0.34299456234601511 -0.60170600024847687 0 0 0 0 0.069783987973335626 1.2021656590185095 0 1.2021656590185095 -0.88058666417748555 0 0 0 0 -78.173976122747263 53.738158364978517 0 53.738158364978517 23.431583127236536 0 0 0 0 35.502471395735483 59.010118229120053 0 59.010118229120053 -34.989588830194407 0 0 0 0 -39.014893166136062 57.964807781984746 0 57.964807781984746 17.556842066007448 0 0 0 0 -6.5002053002108369 39.933776286656212 0 39.933776286656212 0.40165890565549489 0 0 0 0 -70.066533023677849 38.216244521291117 0 38.216244521291117 -18.395086396347324 0 0 0 0 71.765735488056407 19.486205297167544 0 19.486205297167544 -20.919830248771177 0 0 0 0 -38.038028321395359 12.925495228832006 0 12.925495228832006 1.5379753289389555 0 0 0 0 -10.076269404149571 36.580467242200029 0 36.580467242200029 30.214835395279806 0 0 0 0 32.907307107062024 90.846188541452648 0 90.846188541452648 41.03700134396604 0 0 0 0 0.32294077246362152 1.1703060916036154 0 1.1703060916036154 1.8118937166743194 0 0 0 0 -35.736082789150487 66.717143335682749 0 66.717143335682749 4.2369346018949727 0 0 0 0 0.27920112871244385 1.0482029301136357 0 1.0482029301136357 1.4565738852307888 0 0 0 0 -96.808757576223343 33.210968008661439 0 33.210968008661439 1.464441821033688 0 0 0 0 -40.504462577582217 -2.0745603667219257 0 -2.0745603667219257 5.1871807328859347 0 0 0 0 -103.88229549904236 52.262937899084136 0 52.262937899084136 -22.444389788688568 0 0 0 0 -3.4942598272245959 25.685465474716693 0 25.685465474716693 41.672082481423786 0 0 0 0 -6.7260570573080258 40.272677085282339 0 40.272677085282339 -16.706682296695362 0 0 0 0 11.317317368485419 2.0435386677399947 0 2.0435386677399947 -30.721279561181291 0 0 0 0 8.3627548081094574 -9.7085103867648286 0 -9.7085103867648286 -20.559550026911893 0 0 0 0 10.240201391954542 -5.2351174337072734 0 -5.2351174337072734 -41.330876635662207 0 0 0 0 -5.6207650909955191 -5.4471928255725288 0 -5.4471928255725288 -0.62781995182376704 0 0 0 0 -20.817234758259474 13.523934574222949 0 13.523934574222949 -24.286407782794413 0 0 0 0 -68.147521398352183 29.648918257194964 0 29.648918257194964 -36.944156100260443 0 0 0 0 -20.487599414701663 9.6103007352588747 0 9.6103007352588747 -36.335786427276616 0 0 0 0 -137.33407447261061 26.134814472321523 0 26.134814472321523 -33.02438293677551 0 0 0 0 -66.682816768386175 14.107615844720499 0 14.107615844720499 -45.519312744479976 0 0 0 0 -4.1573000927086241 6.8627996909277726 0 6.8627996909277726 64.117876382875693 0 0 0 0 -81.375019943852749 93.063528939970638 0 93.063528939970638 0.050659110902415705 0 0 0 0 0.29244939154931515 0.49375667545680457 0 0.49375667545680457 -0.087557558546586201 0 0 0 0 -56.930837154119217 23.817674067719054 0 23.817674067719054 -49.794650394989731 0 0 0 0 -1.1570182033619858 6.0736423097241641 0 6.0736423097241641 -48.822330974508986 0 0 0 0 2.7682587761728428 19.702459241825636 0 19.702459241825636 8.1965853589490507 0 0 0 0 11.183598315265954 -13.125639316065644 0 -13.125639316065644 -35.830651918502554 0 0 0 0 -14.189201381664361 18.023676896011239 0 18.023676896011239 -15.422113570857618 0 0 0 0 -24.844846338437321 64.611079804308929 0 64.611079804308929 7.7510111771916854 0 0 0 0 9.254808943304198 2.5341248717901976 0 2.5341248717901976 -14.867142738447001 0 0 0 0 4.8487388609378286 35.093590025238882 0 35.093590025238882 2.4380269288139971 0 0 0 0 0.12985845041175018 1.5165751779552816 0 1.5165751779552816 -0.21999984307498721 0 0 0 0 -18.005869241059827 29.308994348695705 0 29.308994348695705 11.154588922654511 0 0 0 0 49.219490626855986 -19.515247681134497 0 -19.515247681134497 -27.133814590461043 0 0 0 0 -4.4760541260507125 23.22209832938097 0 23.22209832938097 13.832743132517862 0 0 0 0 -133.1210425527222 51.382152281806157 0 51.382152281806157 72.202966263270355 0 0 0 0 0.084873654881735927 0.30297578572609574 0 0.30297578572609574 0.55509924873811656 0 0 0 0 158.40360770534608 28.071413543537346 0 28.071413543537346 -84.378158154853736 0 0 0 0 74.369742673572773 165.53484846111405 0 165.53484846111405 -47.947775255524903 0 0 0 0 -171.76602905949721 17.974161140836259 0 17.974161140836259 10.942206396250015 0 0 0 0 -165.76047577828103 54.76945627492023 0 54.76945627492023 -0.020101846586840111 0 0 0 0 -56.607049734854286 134.58378531748349 0 134.58378531748349 -6.9252908324269811 0 0 0 0 15.518081708411614 2.3132917186962914 0 2.3132917186962914 -12.515511089208303 0 0 0 0 0.56920923063518558 0.075314278872901319 0 0.075314278872901319 -0.73370187113774676 0 0 0 0 -6.394769378357978 23.374456131159604 0 23.374456131159604 -32.754138593878452 0 0 0 0 -2.5125782386082847 -1.8881881112693009 0 -1.8881881112693009 0.055728173056195374 0 0 0 0 -8.5455176806639486 2.8288526216969103 0 2.8288526216969103 1.1909456786779629 0 0 0 0 -2.3799384123069558 1.8690996748209727 0 1.8690996748209727 -0.037232958353342838 0 0 0 0 1.4000780417229048 1.3028513072127481 0 1.3028513072127481 0.43824779225463217 0 0 0 0 -3.6877377099699515 2.8401637824354111 0 2.8401637824354111 0.22549578581310925 0 0 0 0 3.9060762316521505 2.3498341494778288 0 2.3498341494778288 -0.80176497111096978 0 0 0 0 2.6126603301196667 1.0048585493545943 0 1.0048585493545943 0.010371687845690758 0 0 0 0 6.2291421449189102 47.516781992445431 0 47.516781992445431 -69.777681946307894 0 0 0 0 0.29662671619729464 0.62163342892256424 0 0.62163342892256424 0.35010209960497107 0 0 0 0 -23.382152719199212 36.467992389760184 0 36.467992389760184 -58.997427904132564 0 0 0 0 -17.998276651782021 24.929036473008182 0 24.929036473008182 -34.769913863765396 0 0 0 0 -4.095759529169527 54.437589031406787 0 54.437589031406787 -42.884261471986974 0 0 0 0 -41.291059255350092 43.238227281819491 0 43.238227281819491 -21.927059580670175 0 0 0 0 -41.080424880565246 64.916182542060653 0 64.916182542060653 -43.884407322988409 0 0 0 0 -28.125826215634788 19.381080281564209 0 19.381080281564209 -14.011249448386479 0 0 0 0 -44.00841258705799 47.280881924976711 0 47.280881924976711 -27.208594985140735 0 0 0 0 -53.762349528183449 34.407340897974791 0 34.407340897974791 -5.2029774230595649 0 0 0 0 -62.384129431826011 83.7957292956944 0 83.7957292956944 -46.334441904884443 0 0 0 0 -79.716433262343969 56.589956939605599 0 56.589956939605599 -23.078039173580692 0 0 0 0 -63.086515725885192 40.47779215434457 0 40.47779215434457 -24.914698300622149 0 0 0 0 -62.502234695105017 102.26244880878312 0 102.26244880878312 -44.671472103987981 0 0 0 0 -73.653498201968532 100.9607043372298 0 100.9607043372298 -41.688492419032627 0 0 0 0 -71.097687867057857 89.603448675897198 0 89.603448675897198 -45.005889717029277 0 0 0 0 -54.508847365267457 90.132503423563321 0 90.132503423563321 -45.525546955491791 0 0 0 0 -64.401600408889237 85.142456611320995 0 85.142456611320995 -45.186235050599862 0 0 0 0 -29.378728194292194 71.82593963231011 0 71.82593963231011 -41.639267088950419 0 0 0 0 -67.527730850773992 103.04351684416815 0 103.04351684416815 -44.619690911821635 0 0 0 0 -44.582976370163749 101.84094286546042 0 101.84094286546042 -54.580994543220186 0 0 0 0 -50.123840011877974 100.0430793907118 0 100.0430793907118 -51.857910972074023 0 0 0 0 15.157379663782706 54.11641372925078 0 54.11641372925078 -66.140434654756973 0 0 0 0 35.684449518681333 117.533513560561 0 117.533513560561 -50.172024102344494 0 0 0 0 -55.182342759839003 136.87502039462925 0 136.87502039462925 -0.15346846295506111 0 0 0 0 -97.685364603588056 98.064277095323632 0 98.064277095323632 -26.772703221415213 0 0 0 0 -124.94404291377066 121.06067733991858 0 121.06067733991858 -0.01867895668692654 0 0 0 0 -54.713287647979577 123.06403972410385 0 123.06403972410385 -49.953838638639354 0 0 0 0 -181.13409783501385 95.364974633139582 0 95.364974633139582 0.069025698370751343 0 0 0 0 -46.198580996911232 186.62129718780761 0 186.62129718780761 -15.888508667255337 0 0 0 0 -159.30569676382981 80.393407581736483 0 80.393407581736483 -45.742857300274409 0 0 0 0 -0.52364340053971903 0.6943064944269377 0 0.6943064944269377 -1.0091491639390355 0 0 0 0 90.639947162215435 111.38679476319794 0 111.38679476319794 -42.213268084762603 0 0 0 0 -329.51170738274448 -5.1085247521987185 0 -5.1085247521987185 8.344470638256098 0 0 0 0 -200.99405898693402 151.91950640175219 0 151.91950640175219 -48.283142756004708 0 0 0 0 -107.03753446958319 11.502954064188998 0 11.502954064188998 9.5004022663526939 0 0 0 0 -151.3620212670042 84.297840288994848 0 84.297840288994848 -0.53841151495726081 0 0 0 0 -110.1162819600531 122.39052748239828 0 122.39052748239828 -41.372948159018961 0 0 0 0 -68.490976532568894 107.18062986666632 0 107.18062986666632 -42.311694065574557 0 0 0 0 -118.04941625109937 90.560187844356733 0 90.560187844356733 -33.588664074204644 0 0 0 0 -99.16670607239692 93.684583593281786 0 93.684583593281786 -25.194390184376971 0 0 0 0 -102.51191827247345 99.498679030582935 0 99.498679030582935 -35.299487432793967 0 0 0 0 -80.020046947254869 108.94240357705985 0 108.94240357705985 -41.663873492464973 0 0 0 0 -71.383377332935169 74.730770557887126 0 74.730770557887126 -13.667524725224212 0 0 0 0 -70.97876149365122 94.052801884004111 0 94.052801884004111 -40.647566331885173 0 0 0 0 -73.465231105554579 62.481485311807774 0 62.481485311807774 -27.443544073608791 0 0 0 0 -67.798072315561882 32.41811347631392 0 32.41811347631392 18.405959584531956 0 0 0 0 -89.174055684371893 90.074378782817803 0 90.074378782817803 -26.873711952450321 0 0 0 0 -102.69614294862576 55.657326554854308 0 55.657326554854308 15.157511356208488 0 0 0 0 -99.825356877898628 16.788556626426271 0 16.788556626426271 3.0044159677217976 0 0 0 0 -18.338213186224039 17.54701964861033 0 17.54701964861033 2.5424332580150804 0 0 0 0 -83.883858018896717 31.218717691443999 0 31.218717691443999 50.560608485886405 0 0 0 0 -79.460684217388859 48.252395914479166 0 48.252395914479166 4.1053074032242876 0 0 0 0 -65.535563231878641 12.349222339303196 0 12.349222339303196 3.7106890946961357 0 0 0 0 -69.683010921760513 9.1228966160388154 0 9.1228966160388154 26.610310150534133 0 0 0 0 -54.748884077848402 -5.4707834895543783 0 -5.4707834895543783 40.695024466636823 0 0 0 0 -7.0777455656781285 45.189754972275296 0 45.189754972275296 69.323659508980199 0 0 0 0 -39.010121775381208 -13.976211547886123 0 -13.976211547886123 33.619342425959985 0 0 0 0 -66.830444783636253 -19.885869230688286 0 -19.885869230688286 6.3792807527934201 0 0 0 0 -59.256216512623567 16.384306047213158 0 16.384306047213158 -1.4310118272514956 0 0 0 0 -33.460544454398132 -9.7683212434039888 0 -9.7683212434039888 -44.735680613868681 0 0 0 0 -52.005342976819492 0.68807608480892668 0 0.68807608480892668 -25.256194233803399 0 0 0 0 -51.947090533118882 1.7446205138930964 0 1.7446205138930964 -6.1277297701717544 0 0 0 0 -10.973672546565609 32.111595389811555 0 32.111595389811555 0.83778715753487631 0 0 0 0 40.800234930736337 82.466732288596177 0 82.466732288596177 -50.273943450289153 0 0 0 0 -11.066935153917882 11.13847835667184 0 11.13847835667184 -10.414580276548804 0 0 0 0 -31.645856915775731 38.996992643079466 0 38.996992643079466 -14.784435239052982 0 0 0 0 -55.713796275022702 93.354032407621162 0 93.354032407621162 -37.786098019256315 0 0 0 0 -45.86561284529229 6.8255509024147614 0 6.8255509024147614 -2.8749218363873297 0 0 0 0 -40.091726645921696 30.098790713736889 0 30.098790713736889 -22.501527901442387 0 0 0 0 -8.7583423578651036 40.7762879364318 0 40.7762879364318 34.649095769760606 0 0 0 0 4.9967240378034035 10.247866096457983 0 10.247866096457983 23.862520763512293 0 0 0 0 -27.381936099984159 21.400768118563064 0 21.400768118563064 85.585924089844411 0 0 0 0 -2.8886768968322221 3.3186205192201399 0 3.3186205192201399 -0.63811178641052635 0 0 0 0 5.4364205920269342 -3.3785991109816678 0 -3.3785991109816678 24.353234197616985 0 0 0 0 -32.457120943112386 31.578350821080676 0 31.578350821080676 -46.205706678746765 0 0 0 0 15.02147043077116 29.484010739730365 0 29.484010739730365 -47.32543451255151 0 0 0 0 -21.92630654294635 31.19841013012956 0 31.19841013012956 -44.870885171450027 0 0 0 0 4.7143443757279329 50.695552929406404 0 50.695552929406404 -36.132269202707903 0 0 0 0 -17.095783264479223 9.539641574223424 0 9.539641574223424 -59.04615097595098 0 0 0 0 -2.6327059093007392 6.9769063448438828 0 6.9769063448438828 6.6432688302229508 0 0 0 0 -6.9894429361891071 36.814085844111105 0 36.814085844111105 24.520412512101757 0 0 0 0 13.635134189554719 26.759560777729348 0 26.759560777729348 -58.526891049568917 0 0 0 0 11.831846992618011 30.126884021792648 0 30.126884021792648 -72.174773721963902 0 0 0 0 -48.693378813319441 8.1369847611731529 0 8.1369847611731529 0.81154218753363239 0 0 0 0 -33.087875715812402 38.709000051771 0 38.709000051771 133.38065326157084 0 0 0 0 -0.76283761124886951 27.994178460858166 0 27.994178460858166 7.9157502096504686 0 0 0 0 -1.7429535596930918 -6.2397053442919059 0 -6.2397053442919059 107.08602174274711 0 0 0 0 36.02578331131599 65.982861928539933 0 65.982861928539933 131.37623898328457 0 0 0 0 -3.0610469257158002 -9.8802189814159647 0 -9.8802189814159647 101.60571334489487 0 0 0 0 -22.325305033215614 21.684248972806927 0 21.684248972806927 111.11295196894571 0 0 0 0 40.610939333528677 25.565248189126578 0 25.565248189126578 11.554626825092328 0 0 0 0 26.913664752450586 53.644321733450852 0 53.644321733450852 29.646266928113619 0 0 0 0 -1.1503282100419341 0.61278032784356817 0 0.61278032784356817 1.0454383302788983 0 0 0 0 -4.0093423258691772 3.5301362401047065 0 3.5301362401047065 -0.87472058399584984 0 0 0 0 -4.1786986856955082 9.6576594468861003 0 9.6576594468861003 14.69329627706793 0 0 0 0 4.2514383005150194 9.8654967224629218 0 9.8654967224629218 12.394959388930147 0 0 0 0 -5.9178613382919139 13.457332106765534 0 13.457332106765534 13.309390754908236 0 0 0 0 -7.0246873878464839 6.6146963675453208 0 6.6146963675453208 11.674561466465093 0 0 0 0 -20.652255505605467 12.099937670587678 0 12.099937670587678 -7.638905435475408 0 0 0 0 -2.0075035719463905 2.9756688250156653 0 2.9756688250156653 -3.360544852097938 0 0 0 0 12.999673884168033 25.260553505566804 0 25.260553505566804 9.7559239768343105 0 0 0 0 0.55896294064949226 0.98707361732414611 0 0.98707361732414611 -0.87564829203671746 0 0 0 0 -18.303501671411141 19.219293063799341 0 19.219293063799341 17.531022154249968 0 0 0 0 -5.2031330812587839 26.308821096634347 0 26.308821096634347 16.967083391849883 0 0 0 0 -7.9481749241672333 9.902513032709976 0 9.902513032709976 7.421498698186042 0 0 0 0 -8.8161771172608496 8.0659949363252963 0 8.0659949363252963 12.386161953450937 0 0 0 0 -21.72904279848126 0.36496445821831003 0 0.36496445821831003 8.2988930911819807 0 0 0 0 -12.783383588790684 3.7511432443998274 0 3.7511432443998274 -5.8378513798343192 0 0 0 0 -20.847798388682804 0.82241587515636638 0 0.82241587515636638 6.5793783977896965 0 0 0 0 -9.1382905243563073 -0.37362782086893276 0 -0.37362782086893276 5.2385071705339215 0 0 0 0 -14.278904019739002 7.2775660465795227 0 7.2775660465795227 12.655156498236465 0 0 0 0 -10.903757196314473 2.795764634038278 0 2.795764634038278 11.280780436052737 0 0 0 0 -2.6268825779351346 0.6679475835244375 0 0.6679475835244375 11.698824001290632 0 0 0 0 -4.4226188802622346 10.299189110057341 0 10.299189110057341 13.782389417319791 0 0 0 0 -9.3359643082840194 4.3520828352193348 0 4.3520828352193348 18.590399212289867 0 0 0 0 -4.1025279395421421 -2.8922166469060357 0 -2.8922166469060357 -2.2367851962117129 0 0 0 0 -1.2202875416192001 5.9221421741794984 0 5.9221421741794984 8.3507389337792119 0 0 0 0 -14.244343028083676 -8.9204221003819839 0 -8.9204221003819839 1.1351514000152747 0 0 0 0 97.516575665026494 74.367685006903031 0 74.367685006903031 133.0278592486211 0 0 0 0 -0.40923093526851595 -0.31497781268943825 0 -0.31497781268943825 1.2805097643426677 0 0 0 0 98.419987563053269 55.476237493326607 0 55.476237493326607 -35.896318430521205 0 0 0 0 216.93490217001045 55.029682982138183 0 55.029682982138183 133.12030345322637 0 0 0 0 63.589029885248237 144.63631724935658 0 144.63631724935658 199.88867757497383 0 0 0 0 69.905763786984664 182.98634778432483 0 182.98634778432483 147.78769579642903 0 0 0 0 141.65098343676937 159.08881708576882 0 159.08881708576882 48.36852170245038 0 0 0 0 1.6893476983464097 64.50323862735695 0 64.50323862735695 56.355964095576951 0 0 0 0 35.205535647835632 18.883664657524605 0 18.883664657524605 4.8323954726256488 0 0 0 0 -50.439886987836871 23.469440654424034 0 23.469440654424034 50.298663316183593 0 0 0 0 -1.3550222237403111 2.0158012088091883 0 2.0158012088091883 -2.458654551128916 0 0 0 0 42.265814471074123 37.825867624207149 0 37.825867624207149 16.419895336384798 0 0 0 0 -35.366132418093002 -36.943466541954876 0 -36.943466541954876 -4.7325306931630848 0 0 0 0 0.12730271820417727 -0.11900099673251319 0 -0.11900099673251319 0.48060868423254988 0 0 0 0 20.736950862049525 91.848400910615965 0 91.848400910615965 149.61893895819691 0 0 0 0 24.370471618399279 60.142823682355811 0 60.142823682355811 66.16258083763114 0 0 0 0 43.527822689600271 61.133525226698566 0 61.133525226698566 22.644894339460734 0 0 0 0 34.789528515069378 112.22084567458114 0 112.22084567458114 9.3971568233309881 0 0 0 0 -6.7114335045089319 88.221590069121703 0 88.221590069121703 -0.060139419329061639 0 0 0 0 66.784240830083036 110.38425666220019 0 110.38425666220019 23.65979967624844 0 0 0 0 33.294029303134344 64.150160216686643 0 64.150160216686643 13.149931783445936 0 0 0 0 -98.452449645401089 -28.042548814509928 0 -28.042548814509928 6.3085078837666515 0 0 0 0 -24.480189514532867 99.714471924183272 0 99.714471924183272 -0.047044360519066686 0 0 0 0 -0.09693481392922898 0.20922695366722976 0 0.20922695366722976 -0.69620940807928378 0 0 0 0 4.0172833370361332 3.9576294880916976 0 3.9576294880916976 0.0040748787596385228 0 0 0 0 -26.658339491837069 16.682388763691051 0 16.682388763691051 23.158189466477779 0 0 0 0 -34.647499161566543 -4.209977146172605 0 -4.209977146172605 6.3994292282695824 0 0 0 0 2.0164051350157024 5.0291678771554871 0 5.0291678771554871 1.8729426271502234 0 0 0 0 1.6470913703824408 4.6025093829448451 0 4.6025093829448451 2.2060252305082031 0 0 0 0 -0.22144839425706309 1.5418821176353106 0 1.5418821176353106 -0.53345628218718133 0 0 0 0 1.3550193804585433 4.0351397959702808 0 4.0351397959702808 -0.00061854615341871977 0 0 0 0 3.2929384875833421 3.1416855517891236 0 3.1416855517891236 0.09757239318878419 0 0 0 0 0.24766450980223453 3.1221874451339318 0 3.1221874451339318 -0.75269298459170386 0 0 0 0 0.61675605433816472 1.2462254139569549 0 1.2462254139569549 0.95946876856424268 0 0 0 0 -1.4115507595315648 2.4828198382001574 0 2.4828198382001574 -0.30427723759567016 0 0 0 0 0.11780891566138507 3.5073429891308479 0 3.5073429891308479 -0.001233716364367865 0 0 0 0 0.19019846688161124 21.848092281763002 0 21.848092281763002 -35.498923042026945 0 0 0 0 0.8178991809447389 2.1152376197515999 0 2.1152376197515999 0.70301688753347058 0 0 0 0 0.98583946229518915 1.7611302247769345 0 1.7611302247769345 0.40806749005605525 0 0 0 0 1.960853382187679 4.0956251810023332 0 4.0956251810023332 -3.7689387029786303 0 0 0 0 0.063443318200301135 0.79573559573692165 0 0.79573559573692165 0.83557906768500168 0 0 0 0 1.5431624770935741 5.2529465854149748 0 5.2529465854149748 6.4231500596661135 0 0 0 0 1.0264727561848535 2.9872123060023306 0 2.9872123060023306 2.4792941415133818 0 0 0 0 -5.315391825234201 23.59110709839706 0 23.59110709839706 -19.777783850713604 0 0 0 0 -18.897274645952621 11.316012190146466 0 11.316012190146466 0.16025462220568443 0 0 0 0 -5.7439274907319486 32.81829966676014 0 32.81829966676014 -11.049532431343323 0 0 0 0 -0.91107194718188111 23.19976605586271 0 23.19976605586271 -31.91835799175351 0 0 0 0 -7.5316335782554233 32.899570297170612 0 32.899570297170612 3.4650821328250458 0 0 0 0 -3.3491440550396874 42.710959599603484 0 42.710959599603484 -38.26379616522172 0 0 0 0 -17.317659998801446 48.032656908468198 0 48.032656908468198 23.426131558211637 0 0 0 0 -15.61600618486591 49.78097844713966 0 49.78097844713966 10.539567186449858 0 0 0 0 -22.519187747042452 55.833459615547326 0 55.833459615547326 51.91548584764314 0 0 0 0 -23.529303332176823 35.701263635448413 0 35.701263635448413 46.127081890153931 0 0 0 0 -33.201401708748506 49.445409114000199 0 49.445409114000199 27.783387699604646 0 0 0 0 -29.655519575933113 11.377301291667436 0 11.377301291667436 19.36258454689596 0 0 0 0 -18.365798705908674 42.536144637912003 0 42.536144637912003 39.75317376989733 0 0 0 0 -21.751563137642734 56.727043453583974 0 56.727043453583974 69.272255447127463 0 0 0 0 -28.164855124370661 34.444891493167233 0 34.444891493167233 64.768107076262822 0 0 0 0 10.623654093460573 21.454374044035831 0 21.454374044035831 29.388925237746662 0 0 0 0 -19.442675583094569 41.841682135791416 0 41.841682135791416 98.197526616735558 0 0 0 0 -12.120598792440887 30.317259086178183 0 30.317259086178183 80.518209673926322 0 0 0 0 -7.9992847795347188 26.587573674616579 0 26.587573674616579 45.496495969839089 0 0 0 0 -6.0308522384857497 45.89479975744689 0 45.89479975744689 73.968163392682982 0 0 0 0 -22.631995625070886 41.710418365581063 0 41.710418365581063 151.91150065476177 0 0 0 0 0.65215926364771093 0.94067594515928477 0 0.94067594515928477 1.0550358788026699 0 0 0 0 -7.7749507478156374 29.444675034381362 0 29.444675034381362 285.11199557238706 0 0 0 0 -5.8566060340117474 7.6205340927999714 0 7.6205340927999714 81.90228074661718 0 0 0 0 76.401460820211014 149.55573424717204 0 149.55573424717204 183.56138809887852 0 0 0 0 -34.213439060293865 19.59153039740977 0 19.59153039740977 0.016662751302646939 0 0 0 0 -31.058275858812522 -0.9259942135449819 0 -0.9259942135449819 10.107459454769923 0 0 0 0 1.8862474751609355 2.5033885590948017 0 2.5033885590948017 1.7922312353523822 0 0 0 0 4.2616319956459847 12.509863662653515 0 12.509863662653515 32.638168653536013 0 0 0 0 0.7902387092117884 0.80282725844179126 0 0.80282725844179126 0.41208138813166784 0 0 0 0 2.1082724312254868 0.99994649802101776 0 0.99994649802101776 -6.3734857361250761 0 0 0 0 -37.376591933084455 86.559798986567785 0 86.559798986567785 27.160306827827299 0 0 0 0 -4.1604755600983481 195.15113179916989 0 195.15113179916989 0.050907941880723229 0 0 0 0 142.7488906036242 151.22449487627 0 151.22449487627 -34.787209198231722 0 0 0 0 122.91427314212342 195.55662084907271 0 195.55662084907271 120.27137352096543 0 0 0 0 134.44462156753025 149.73810947435231 0 149.73810947435231 -0.070989295894833049 0 0 0 0 -33.272122826419945 96.233966487105135 0 96.233966487105135 -247.86835994310854 0 0 0 0 60.980717205791734 156.80451360985171 0 156.80451360985171 231.05055122075646 0 0 0 0 1.2016469536516396 0.90525551258170722 0 0.90525551258170722 -0.27762713266692973 0 0 0 0 0.44695927600923291 0.75876875275722 0 0.75876875275722 -0.12065663630417589 0 0 0 0 70.581523337915769 108.16696339372629 0 108.16696339372629 105.78406036767774 0 0 0 0 0.98587261437098483 0.72536528651923859 0 0.72536528651923859 -0.68496114049187895 0 0 0 0 112.3837981019758 24.608450714592891 0 24.608450714592891 4.5871449309852323 0 0 0 0 0.45470909735740861 0.76843110794652603 0 0.76843110794652603 -0.00028929417027243531 0 0 0 0 -0.14098060846815486 0.30025112199119164 0 0.30025112199119164 0.30850483289798092 0 0 0 0 0.72294590952797577 0.18567826583961633 0 0.18567826583961633 -0.27295569775446182 0 0 0 0 0.9828187986595367 1.8051697196387977 0 1.8051697196387977 0.75979938674754521 0 0 0 0 3.9415833988023223 27.871159990096203 0 27.871159990096203 -97.815738450598701 0 0 0 0 1.3040312347888552 1.705264482899409 0 1.705264482899409 -0.54695715717019455 0 0 0 0 -1.3923793266573057 18.084976676324459 0 18.084976676324459 -67.703722292295424 0 0 0 0 -6.9249152737829718 64.943506919862557 0 64.943506919862557 -61.937436951809559 0 0 0 0 -15.49038082791958 71.25752920711875 0 71.25752920711875 -23.553132112363528 0 0 0 0 -8.0062329516440514 50.407069307731035 0 50.407069307731035 -5.3950610307329043 0 0 0 0 -14.206447734766698 57.014705048419273 0 57.014705048419273 -7.144136241000524 0 0 0 0 -29.013132419253452 71.921827908010528 0 71.921827908010528 20.885270663846313 0 0 0 0 -33.031132689113292 64.005702509602997 0 64.005702509602997 48.169806637573856 0 0 0 0 -46.035036766084886 85.948489742060701 0 85.948489742060701 51.831944106334049 0 0 0 0 -30.380833911542368 67.315418843258385 0 67.315418843258385 24.235004400357866 0 0 0 0 -32.717627305175483 95.255531895014428 0 95.255531895014428 -16.07866951491269 0 0 0 0 -54.018139666155548 90.012788333805474 0 90.012788333805474 35.930180662468047 0 0 0 0 -53.811081641395958 83.756989897286076 0 83.756989897286076 76.260812578664627 0 0 0 0 -42.388403348997599 72.226998696805822 0 72.226998696805822 39.222722110484938 0 0 0 0 -43.849987422252525 64.873438249953324 0 64.873438249953324 69.206645387876051 0 0 0 0 -45.647922908327018 97.767507106813355 0 97.767507106813355 40.823163443870726 0 0 0 0 -34.158997019560047 83.555177291166729 0 83.555177291166729 -11.447187479014246 0 0 0 0 -87.983708464315896 119.79115266863755 0 119.79115266863755 -56.906123814966122 0 0 0 0 -74.421598013298535 91.537984864898135 0 91.537984864898135 -10.758115773500322 0 0 0 0 -20.889914654489075 103.07845627328334 0 103.07845627328334 -127.57137989539842 0 0 0 0 4.3926762214014161 24.488517266418967 0 24.488517266418967 -110.22775010523765 0 0 0 0 1.0446456902436694 52.884417114207963 0 52.884417114207963 -344.57082598459237 0 0 0 0 94.061774704838172 101.27964156438611 0 101.27964156438611 -262.69963045122859 0 0 0 0 -69.991764536367555 24.287248806649586 0 24.287248806649586 -80.16424845833717 0 0 0 0 -35.871578518377419 59.821451373265063 0 59.821451373265063 45.234428005052905 0 0 0 0 1.4393725786612777 72.019528397377144 0 72.019528397377144 95.896361288476328 0 0 0 0 5.3578982702638314 84.727931329452986 0 84.727931329452986 60.279688911799894 0 0 0 0 25.274676494373125 97.714475852802934 0 97.714475852802934 -28.937010128942347 0 0 0 0 25.492718123604085 66.592360693547391 0 66.592360693547391 10.134430463876924 0 0 0 0 92.703248203759358 91.13139332220635 0 91.13139332220635 18.765031116139653 0 0 0 0 113.81972879972045 129.10431982116052 0 129.10431982116052 79.315484449274663 0 0 0 0 129.61453652160208 122.73050910245274 0 122.73050910245274 14.521177242539125 0 0 0 0 115.25271056245492 162.02978102645284 0 162.02978102645284 -88.681377105918727 0 0 0 0 26.292576527916026 71.189692968620875 0 71.189692968620875 244.54838654821287 0 0 0 0 0.74445936617848929 23.837367418866052 0 23.837367418866052 190.29757489538133 0 0 0 0 27.924684813880958 65.476471279009274 0 65.476471279009274 224.7319739046543 0 0 0 0 -6.9992200084802789 30.914522991586182 0 30.914522991586182 184.30301332983072 0 0 0 0 7.4911714012851007 42.778240043090591 0 42.778240043090591 153.12361871568282 0 0 0 0 30.264870078621243 78.590841927165457 0 78.590841927165457 198.41831880720724 0 0 0 0 61.092762154118645 78.409397527120746 0 78.409397527120746 111.80897449406984 0 0 0 0 59.472902405786499 92.824222459872317 0 92.824222459872317 102.7194966216266 0 0 0 0 -12.259689154701846 69.178952785905494 0 69.178952785905494 167.70083032605908 0 0 0 0 -35.039497315678091 66.806067097231789 0 66.806067097231789 115.63596147635326 0 0 0 0 -32.173922814714388 76.29555834058101 0 76.29555834058101 78.219797480589477 0 0 0 0 -35.618266546374798 62.745968310497119 0 62.745968310497119 138.08309092503987 0 0 0 0 -13.222316702818716 61.203858630875402 0 61.203858630875402 109.20626729009837 0 0 0 0 -29.794052429584553 37.912657008031601 0 37.912657008031601 141.26516436261227 0 0 0 0 -22.707552923764524 38.899381586596064 0 38.899381586596064 137.55479594753706 0 0 0 0 -22.651211814074486 40.633943055541749 0 40.633943055541749 177.76230007812774 0 0 0 0 -13.910704178511878 12.749057649760289 0 12.749057649760289 157.58498703306032 0 0 0 0 -29.545218771629152 29.718748821904228 0 29.718748821904228 152.85620896391629 0 0 0 0 -27.194415179817952 32.547062578149053 0 32.547062578149053 126.52067130476644 0 0 0 0 -25.223906023235031 27.3631263750176 0 27.3631263750176 132.17133936133541 0 0 0 0 -28.132318209824007 35.407595612145087 0 35.407595612145087 117.48906818668183 0 0 0 0 -23.825518514244322 39.186753301537465 0 39.186753301537465 116.95854125685901 0 0 0 0 -37.376500016378486 53.151916861619611 0 53.151916861619611 110.01935362294171 0 0 0 0 -39.268716509017395 53.086713778575358 0 53.086713778575358 113.81573846767333 0 0 0 0 -33.939533619683971 42.500296266032819 0 42.500296266032819 124.87559462878562 0 0 0 0 -33.172141113533144 49.218012131608702 0 49.218012131608702 116.89623248791395 0 0 0 0 -37.896652596060449 41.368049170738232 0 41.368049170738232 135.33663633176184 0 0 0 0 -37.347367029295128 49.131730153916578 0 49.131730153916578 129.7699542649807 0 0 0 0 -32.962100115473731 59.702902009550598 0 59.702902009550598 105.38799003050372 0 0 0 0 -46.721433419037567 59.339560764536145 0 59.339560764536145 122.01219465122176 0 0 0 0 -46.823368121391468 66.946658118664345 0 66.946658118664345 110.03503914692919 0 0 0 0 -40.814407246904466 71.219262646804964 0 71.219262646804964 75.688052722201974 0 0 0 0 -53.605732120146058 67.029663808343685 0 67.029663808343685 99.343049859056919 0 0 0 0 -41.142384834874974 62.437405314568423 0 62.437405314568423 99.222428169996419 0 0 0 0 -48.948231286742157 61.511909741757336 0 61.511909741757336 110.90042000272661 0 0 0 0 -46.175850127583544 67.921241955620644 0 67.921241955620644 99.263486628835381 0 0 0 0 -45.168371370680688 61.638425269113213 0 61.638425269113213 91.987272299982578 0 0 0 0 -46.346199396776228 76.766119991075357 0 76.766119991075357 81.205680385650339 0 0 0 0 -43.26125998956195 61.602968297849657 0 61.602968297849657 66.008943480521339 0 0 0 0 -43.978905991909414 66.964771105241311 0 66.964771105241311 84.103016224049497 0 0 0 0 -45.564030513462058 58.973875286274051 0 58.973875286274051 99.543509251543583 0 0 0 0 -44.350886019608424 68.248663933126409 0 68.248663933126409 84.467564076123381 0 0 0 0 -48.628653283003587 66.350052494959527 0 66.350052494959527 110.55840066636665 0 0 0 0 -46.201169175281393 60.191878594658192 0 60.191878594658192 106.08485348474096 0 0 0 0 -43.978151161596543 62.08205926275059 0 62.08205926275059 107.52940668551309 0 0 0 0 -30.696327807620037 54.437660553841852 0 54.437660553841852 109.53883135226079 0 0 0 0 -31.090104288869043 51.451911933196243 0 51.451911933196243 102.4671467930275 0 0 0 0 -38.813586837830371 69.179570477412199 0 69.179570477412199 97.683694408598967 0 0 0 0 -50.484656884305878 68.404727059798461 0 68.404727059798461 109.59943626545282 0 0 0 0 -23.251501661075963 65.085817944636801 0 65.085817944636801 98.109241952173988 0 0 0 0 -8.8486142446899976 40.353319191953233 0 40.353319191953233 106.03811940152809 0 0 0 0 -20.026952992171118 61.54713520608766 0 61.54713520608766 81.503156754697557 0 0 0 0 6.2743538553186227 40.992311281654111 0 40.992311281654111 75.789103400836211 0 0 0 0 -2.5050493313637503 54.997322010818948 0 54.997322010818948 55.932492214924423 0 0 0 0 -3.661441468082046 39.014790088004816 0 39.014790088004816 81.692524538077123 0 0 0 0 22.798854209535875 4.9886241353478908 0 4.9886241353478908 11.16240344392827 0 0 0 0 45.574096390053455 21.178351689113697 0 21.178351689113697 71.357438946466573 0 0 0 0 28.807161328137227 -13.459301183340358 0 -13.459301183340358 114.59657880463055 0 0 0 0 1.4705989155049473 0.016968012932789378 0 0.016968012932789378 1.5107835385292674 0 0 0 0 19.363203819804767 -3.1117212523313356 0 -3.1117212523313356 104.21238730093683 0 0 0 0 7.5204830104121356 -11.144181808624126 0 -11.144181808624126 131.12209438040372 0 0 0 0 -2.5498650547497945 5.3814220332035525 0 5.3814220332035525 0.75487312668151585 0 0 0 0 8.658931074267457 -3.3811655828503717 0 -3.3811655828503717 -32.837051054024414 0 0 0 0 -3.5149252475403046 -1.7662033616270492 0 -1.7662033616270492 128.63772766716284 0 0 0 0 -16.968809676463025 -5.9678544955786492 0 -5.9678544955786492 35.789266124487767 0 0 0 0 -10.640164459853622 0.86427092684607487 0 0.86427092684607487 138.52171972108772 0 0 0 0 -2.0616981671046233 4.7858448153710924 0 4.7858448153710924 118.99667404162756 0 0 0 0 -3.3515678820926951 -2.0431373500791778 0 -2.0431373500791778 116.08279119646613 0 0 0 0 -7.8248730494342453 8.187340967122509 0 8.187340967122509 112.88538668549518 0 0 0 0 -11.107158249671556 1.9309239891690595 0 1.9309239891690595 124.2721205808557 0 0 0 0 1.6952937713685969 2.6089292628712428 0 2.6089292628712428 116.06703647238464 0 0 0 0 12.352740920656515 17.821910843157184 0 17.821910843157184 98.227825172580197 0 0 0 0 1.9319341339542007 14.415391704038484 0 14.415391704038484 99.998417125649212 0 0 0 0 -12.436910093259939 33.303272874305549 0 33.303272874305549 95.904926301906926 0 0 0 0 -7.8125123925992739 23.186619013305062 0 23.186619013305062 112.35065717969701 0 0 0 0 -17.78808223073429 18.232986832314054 0 18.232986832314054 121.49306972818886 0 0 0 0 -15.665141765201042 17.332556771905729 0 17.332556771905729 120.15444359698449 0 0 0 0 -20.022139221604903 13.700390146882455 0 13.700390146882455 133.94324715236144 0 0 0 0 -20.962173480082129 11.984179948904057 0 11.984179948904057 138.76770075731292 0 0 0 0 -16.810819892563813 -5.7740665275177889 0 -5.7740665275177889 142.71415438693293 0 0 0 0 -20.079435459715569 16.014530235759594 0 16.014530235759594 157.1688436063705 0 0 0 0 -16.051519095304684 1.0893556556075055 0 1.0893556556075055 130.85031534814334 0 0 0 0 -17.239571182046348 -5.3296048595257162 0 -5.3296048595257162 128.21499039675655 0 0 0 0 -15.310528229889314 0.57664028472936479 0 0.57664028472936479 131.00034173450331 0 0 0 0 -12.873729477330926 -0.89999780565267429 0 -0.89999780565267429 125.17730172356823 0 0 0 0 -15.574695544722999 -1.3547448666695345 0 -1.3547448666695345 126.15235663176281 0 0 0 0 -12.855701763524849 -2.5824586964772607 0 -2.5824586964772607 120.27889885901823 0 0 0 0 -9.5062580146222899 -4.9960620287019992 0 -4.9960620287019992 114.67740245847745 0 0 0 0 -15.580732351094412 1.3774239416507044 0 1.3774239416507044 113.04355073386978 0 0 0 0 -13.695808237205711 -5.823579861473263 0 -5.823579861473263 115.77447583666435 0 0 0 0 17.663322723205056 9.1192815894210071 0 9.1192815894210071 95.993851799699769 0 0 0 0 -16.130405319217971 -1.9095352103395271 0 -1.9095352103395271 114.49620204718849 0 0 0 0 -24.273071665775205 30.447542115667602 0 30.447542115667602 -43.231261129240465 0 0 0 0 -0.4965439289826179 4.2921641453520998 0 4.2921641453520998 1.3366937312338143 0 0 0 0 -22.982512184935331 2.1307228117184422 0 2.1307228117184422 115.05819068281562 0 0 0 0 -22.251674046237667 11.817792652341268 0 11.817792652341268 107.43495344756229 0 0 0 0 -11.979326738579402 -5.8963924784475239 0 -5.8963924784475239 102.29264233489812 0 0 0 0 17.812783137478618 -25.621420094428686 0 -25.621420094428686 34.463893068676043 0 0 0 0 -1.0969504100903578 -21.626726339056404 0 -21.626726339056404 96.346337186512756 0 0 0 0 -0.36490490506138329 4.4417788135702878 0 4.4417788135702878 -0.83103813168994911 0 0 0 0 -1.9125320326511428 13.485180593970654 0 13.485180593970654 70.265031589260616 0 0 0 0 -6.0042830247434722 -5.5705226815136939 0 -5.5705226815136939 124.15091698509787 0 0 0 0 -6.2068683334418893 -26.1311067779734 0 -26.1311067779734 144.45933934740242 0 0 0 0 -10.592712689342079 5.0965874398079904 0 5.0965874398079904 140.93440101973601 0 0 0 0 -17.077490830530223 -8.2679056424276496 0 -8.2679056424276496 138.98972910871453 0 0 0 0 -10.501893260840006 -6.1484171258871356 0 -6.1484171258871356 165.26392862925786 0 0 0 0 -1.1516205917937441 21.771965486118461 0 21.771965486118461 178.92907932083835 0 0 0 0 17.798622361393427 86.569342436148872 0 86.569342436148872 106.13895278917744 0 0 0 0 26.184099949568918 86.700299152667867 0 86.700299152667867 106.11387714594457 0 0 0 0 16.255260167947199 73.666166242197505 0 73.666166242197505 111.51782594908218 0 0 0 0 -6.8236264060760732 70.599163987388238 0 70.599163987388238 112.51915833857129 0 0 0 0 16.148433845153704 73.130334772056813 0 73.130334772056813 113.56208008819522 0 0 0 0 33.396907126951191 65.857834012458625 0 65.857834012458625 115.87289746620627 0 0 0 0 26.590720162388607 76.450817719207407 0 76.450817719207407 104.2878838012939 0 0 0 0 43.532583986219834 80.034147909856983 0 80.034147909856983 104.93866424909538 0 0 0 0 42.54270268266373 84.716395669620397 0 84.716395669620397 83.956292380520608 0 0 0 0 60.585229457195965 99.746592718227475 0 99.746592718227475 80.624613063656398 0 0 0 0 -1.84088692838003 0.68347637280663776 0 0.68347637280663776 8.5989502901811647 0 0 0 0 41.124696351511375 76.124479458476344 0 76.124479458476344 93.041980995167251 0 0 0 0 -1.399907333568791 -0.013310650045855965 0 -0.013310650045855965 1.9096850264058389 0 0 0 0 30.32587949581557 104.48804765826571 0 104.48804765826571 120.74569862770659 0 0 0 0 100.8283365825578 132.33133909116708 0 132.33133909116708 106.88588481139232 0 0 0 0 29.436360042699562 113.55576935159115 0 113.55576935159115 161.78462779693655 0 0 0 0 23.807918433739587 92.062907871778407 0 92.062907871778407 121.53843518028589 0 0 0 0 9.3399099822763674 94.936682184054007 0 94.936682184054007 136.30481713002109 0 0 0 0 12.929333710224455 86.988936879508401 0 86.988936879508401 112.69106806159107 0 0 0 0 -10.921146196392783 68.010849661503016 0 68.010849661503016 111.86767389726083 0 0 0 0 -4.187528583654057 69.950117327847693 0 69.950117327847693 96.235797266868758 0 0 0 0 -23.008546601221497 53.585834619185334 0 53.585834619185334 99.12556030738051 0 0 0 0 -24.51656975300898 44.42591122647309 0 44.42591122647309 78.590033561871678 0 0 0 0 -20.379298008854676 58.181089335485012 0 58.181089335485012 84.749288392520612 0 0 0 0 -17.369626924382828 57.182840782856147 0 57.182840782856147 96.583360883520072 0 0 0 0 -1.2766009834485885 69.082788650386647 0 69.082788650386647 100.12927398140027 0 0 0 0 -32.480098152713254 58.576495873881868 0 58.576495873881868 50.162287733574885 0 0 0 0 -34.828645966788827 55.89804475962319 0 55.89804475962319 79.11182666492823 0 0 0 0 -29.631426476054003 51.004502798710746 0 51.004502798710746 81.570509034743736 0 0 0 0 -32.551495884988981 58.160751967621763 0 58.160751967621763 97.931568946012703 0 0 0 0 -44.89893347501129 62.754577854682793 0 62.754577854682793 101.35334431823867 0 0 0 0 -36.483526558762605 50.03521518242087 0 50.03521518242087 117.56387800663288 0 0 0 0 -45.544869175104395 66.814010719670478 0 66.814010719670478 120.89947602704342 0 0 0 0 -49.13497313446851 64.566342784327389 0 64.566342784327389 120.51460467423021 0 0 0 0 -20.783746046711713 59.008743213628804 0 59.008743213628804 116.37023544453768 0 0 0 0 -24.432132786418151 42.290965521469843 0 42.290965521469843 149.33930082484585 0 0 0 0 6.8121005766661256 60.704272552853581 0 60.704272552853581 113.94305429860015 0 0 0 0 -1.9816000171585983 64.264775853624997 0 64.264775853624997 128.16622279963849 0 0 0 0 14.966409854496305 60.35301111921035 0 60.35301111921035 129.0634349374086 0 0 0 0 -0.56154173703678012 0.98587332443277731 0 0.98587332443277731 -0.18875828164699726 0 0 0 0 -31.005663925746376 41.871682599558426 0 41.871682599558426 237.85604041495026 0 0 0 0 26.569308904503487 6.2496069286862621 0 6.2496069286862621 -225.40324905610669 0 0 0 0 -7.3426269237315864 44.634794162204344 0 44.634794162204344 -57.784842380697228 0 0 0 0 -54.159868313923653 105.85737892280486 0 105.85737892280486 102.70446828911918 0 0 0 0 -27.456223693128322 82.751844810342845 0 82.751844810342845 33.465262488345616 0 0 0 0 -52.776320574885176 93.031703152009868 0 93.031703152009868 156.10316868043446 0 0 0 0 -51.85724826193109 19.873901904251397 0 19.873901904251397 30.949117311075725 0 0 0 0 -41.263283303364915 40.56984560046476 0 40.56984560046476 93.359404948401789 0 0 0 0 0.53572835631898386 0.48297007947246939 0 0.48297007947246939 -0.063884066992486943 0 0 0 0 -93.822739375736091 27.606291309024527 0 27.606291309024527 90.297614044080547 0 0 0 0 -22.387453676912628 -32.550401438213157 0 -32.550401438213157 40.257077117610606 0 0 0 0 -121.77506145152802 14.793046264650002 0 14.793046264650002 84.534389339065456 0 0 0 0 -9.7521047550153526 62.863488250637602 0 62.863488250637602 -34.201614074547251 0 0 0 0 -33.786080298045817 39.005025096827012 0 39.005025096827012 -12.943535404991053 0 0 0 0 37.117745071695026 103.61908354226762 0 103.61908354226762 -132.99510743070823 0 0 0 0 8.6358366895492509 51.646881146600208 0 51.646881146600208 -9.3198087069449684 0 0 0 0 -1.6871313312703933 11.660506711143171 0 11.660506711143171 -4.0643494831620046 0 0 0 0 16.807872120873071 9.1295759378626826 0 9.1295759378626826 -60.972067261929169 0 0 0 0 7.2258682512908763 54.352320594655339 0 54.352320594655339 -62.965102881073108 0 0 0 0 -5.9070978767722409 60.065301095504765 0 60.065301095504765 -48.968964588259041 0 0 0 0 11.925347203107776 45.380051632542745 0 45.380051632542745 -58.113164111828155 0 0 0 0 -2.0491096711484715 2.2458399141178234 0 2.2458399141178234 -70.0438747223061 0 0 0 0 11.431842841003345 37.888079875543553 0 37.888079875543553 -72.174690278559865 0 0 0 0 18.221313400577856 58.181056923785945 0 58.181056923785945 136.81570206279594 0 0 0 0 -1.8838418207994625 2.2023005452926157 0 2.2023005452926157 0.54073619579555388 0 0 0 0 16.275554290212312 33.187356832961086 0 33.187356832961086 -40.978924867340538 0 0 0 0 13.218678912387986 28.674695144491125 0 28.674695144491125 -30.200076103683386 0 0 0 0 5.4223226759022509 40.254396600983455 0 40.254396600983455 -29.180174087028718 0 0 0 0 9.6785444643392111 25.503542718783137 0 25.503542718783137 -12.233255799063045 0 0 0 0 81.239623237695923 44.225321239071491 0 44.225321239071491 -15.643338965390285 0 0 0 0 48.155082876917277 61.514069435043893 0 61.514069435043893 114.57178227697295 0 0 0 0 -0.72956564431106763 0.1194574210378363 0 0.1194574210378363 1.0516280759862084 0 0 0 0 11.247039254078118 63.442506213230445 0 63.442506213230445 132.87854066838918 0 0 0 0 -33.871513445721575 30.6587663768114 0 30.6587663768114 45.200533383421316 0 0 0 0 13.32052400631369 50.582930080402321 0 50.582930080402321 -9.9490174128804938 0 0 0 0 -0.89222956835395806 3.6032166217349335 0 3.6032166217349335 -0.8019343372890102 0 0 0 0 -8.3620096622248639 7.3151734381922324 0 7.3151734381922324 11.129806549615751 0 0 0 0 8.08769080179718 -3.952293371912674 0 -3.952293371912674 8.9449003705631185 0 0 0 0 -11.102258749353496 81.225932135635958 0 81.225932135635958 -93.40066627398437 0 0 0 0 -7.901647307413441 6.1157387334042141 0 6.1157387334042141 -67.604008293523293 0 0 0 0 -37.644546607686607 33.706550544053243 0 33.706550544053243 -4.5971605508075299 0 0 0 0 -1.2640578208044406 6.1085777534953678 0 6.1085777534953678 1.9767492439923071 0 0 0 0 -1.4629939658735225 0.61023470792601842 0 0.61023470792601842 -0.87681181795944241 0 0 0 0 7.8678842904373596 6.1680799281716645 0 6.1680799281716645 -12.655444477642959 0 0 0 0 -4.9855588507687116 -1.9525533726973663 0 -1.9525533726973663 39.426903052883063 0 0 0 0 -8.352896501541295 -1.973862837813158 0 -1.973862837813158 37.262269330167328 0 0 0 0 -9.928614678266058 3.6798381722592239 0 3.6798381722592239 33.179360653750336 0 0 0 0 -11.322459093143152 3.117185137434717 0 3.117185137434717 28.734443712293796 0 0 0 0 -3.1253272081880823 3.5475071095388557 0 3.5475071095388557 27.869288791966028 0 0 0 0 -10.701174949759661 5.8834873710584361 0 5.8834873710584361 23.456806288835651 0 0 0 0 -12.805121181772847 9.0023128344437282 0 9.0023128344437282 23.630357375792755 0 0 0 0 -7.6105490104018827 8.3698347106219444 0 8.3698347106219444 22.894922700428651 0 0 0 0 -7.3991589854713311 2.5949487459511147 0 2.5949487459511147 27.309828191249835 0 0 0 0 -13.046699023649126 8.0207450614143454 0 8.0207450614143454 32.675356860452666 0 0 0 0 -8.3833859523007277 10.073794398505129 0 10.073794398505129 29.553950416357111 0 0 0 0 -5.0200676216966258 10.137973172657894 0 10.137973172657894 33.186151133337262 0 0 0 0 2.5605919103591077 -0.45003318570525153 0 -0.45003318570525153 32.043263094630674 0 0 0 0 -27.187688691215044 34.341898432294329 0 34.341898432294329 30.841872035976849 0 0 0 0 -12.050023223492644 9.7883834233689413 0 9.7883834233689413 35.187124685427079 0 0 0 0 -2.1704015464486375 5.8659089425225979 0 5.8659089425225979 1.301541316425376 0 0 0 0 -13.621997378290985 8.6414621708900086 0 8.6414621708900086 34.483722263346863 0 0 0 0 -13.935298679993139 9.532660871544067 0 9.532660871544067 34.412786911572994 0 0 0 0 -2.4507606523663306 5.7171116943712015 0 5.7171116943712015 1.4207016181635721 0 0 0 0 15.894046872763283 27.335115513664277 0 27.335115513664277 -10.373232849677606 0 0 0 0 -5.405568752952604 11.644595422592829 0 11.644595422592829 28.726893508932335 0 0 0 0 -11.907302982584611 2.9462530561675067 0 2.9462530561675067 24.554494025655003 0 0 0 0 -6.7502193226309828 24.286613099984606 0 24.286613099984606 78.022137778045362 0 0 0 0 -2.165335759832999 -16.502413417902972 0 -16.502413417902972 67.447967117166627 0 0 0 0 0.12829356111016388 0.76135769362799088 0 0.76135769362799088 1.0059531908781878 0 0 0 0 -0.32092802426541311 -7.2111350939994736 0 -7.2111350939994736 20.456695560778826 0 0 0 0 -13.46170933050962 7.5440163673847564 0 7.5440163673847564 32.397293252980944 0 0 0 0 -12.11050389467664 9.1884379885741509 0 9.1884379885741509 32.599669579984038 0 0 0 0 -12.581311671601725 1.3399891364260839 0 1.3399891364260839 42.4366402219473 0 0 0 0 -14.11655716306359 12.050612578032087 0 12.050612578032087 41.06226414226694 0 0 0 0 -12.391790170313925 4.1180354258976877 0 4.1180354258976877 22.206706217311876 0 0 0 0 -11.4330532988497 7.8679086900992843 0 7.8679086900992843 21.964636538148625 0 0 0 0 -10.668897073446715 14.586844561792532 0 14.586844561792532 3.5116333956320887 0 0 0 0 -10.211549368905025 5.8680804032219385 0 5.8680804032219385 14.544727275606419 0 0 0 0 -6.2494705138662994 14.805194853587182 0 14.805194853587182 2.8929978763844701 0 0 0 0 1.3715336679744716 1.6622839631555912 0 1.6622839631555912 3.0734727727526732 0 0 0 0 -0.83241368145445449 3.8002519735764508 0 3.8002519735764508 1.9717379369067203 0 0 0 0 -12.070899848078625 6.8997754629881456 0 6.8997754629881456 7.1373385568876984 0 0 0 0 -7.5110759802191751 7.5384859547739325 0 7.5384859547739325 -10.743228265786456 0 0 0 0 -5.5421491484462422 24.504684299145083 0 24.504684299145083 -42.474166441129455 0 0 0 0 -12.231004413718438 19.802367226465321 0 19.802367226465321 -36.681642411689609 0 0 0 0 6.5622272032533147 27.913425543478297 0 27.913425543478297 -44.553901086752376 0 0 0 0 -0.66903212865927131 4.9459635931361241 0 4.9459635931361241 5.5003371514878658 0 0 0 0 -6.8195284949124471 12.164237242559466 0 12.164237242559466 47.28855271223847 0 0 0 0 0.39877005855352721 0.3762758354206106 0 0.3762758354206106 -0.025978040451321682 0 0 0 0 -8.010705218755902 21.02699902140921 0 21.02699902140921 -38.56307844784169 0 0 0 0 58.140247638477376 27.906187699281872 0 27.906187699281872 -44.834889111007215 0 0 0 0 -21.03877845891293 20.466323710939832 0 20.466323710939832 -23.628805740805547 0 0 0 0 -19.165821859838616 -16.01934641689877 0 -16.01934641689877 1.28456414908851 0 0 0 0 1.8447308444436672 5.91195822726527 0 5.91195822726527 -1.8344187638070721 0 0 0 0 -16.518841910427682 44.013116300335696 0 44.013116300335696 -69.080389884464239 0 0 0 0 -6.644935254250413 26.561329543772445 0 26.561329543772445 -16.115647341024669 0 0 0 0 -3.3713279794765185 12.882374006365353 0 12.882374006365353 -22.507462935529475 0 0 0 0 -17.435865690878927 3.0933993168546294 0 3.0933993168546294 -4.7063950750089134 0 0 0 0 -5.4640753125349875 19.171128262021739 0 19.171128262021739 -12.221218645725457 0 0 0 0 -6.1998932365340806 19.012952850600414 0 19.012952850600414 -5.2624105758695805 0 0 0 0 -11.101704169527693 26.675544171472211 0 26.675544171472211 -6.4552258962103224 0 0 0 0 -13.650417841713534 22.631364446529915 0 22.631364446529915 -5.2639164756074024 0 0 0 0 -8.0787211043016214 22.814510858304857 0 22.814510858304857 -8.1483139540359844 0 0 0 0 -10.084949424047863 21.599477579224185 0 21.599477579224185 1.3386144838368637 0 0 0 0 -6.7994108911050262 20.447252846156516 0 20.447252846156516 -8.5831031857378548 0 0 0 0 -9.9502361282875427 18.565721639559342 0 18.565721639559342 11.775614344944188 0 0 0 0 -7.0584218448084357 18.05585087862346 0 18.05585087862346 -0.71976134267970338 0 0 0 0 -7.9776760310460304 18.695536638737394 0 18.695536638737394 1.1252425576385576 0 0 0 0 -8.6429009262992622 19.572643249113753 0 19.572643249113753 2.835994828499679 0 0 0 0 -7.155341491418767 11.184969191710479 0 11.184969191710479 4.2863780549705552 0 0 0 0 -11.443435370449151 10.292835831527555 0 10.292835831527555 12.776400963248307 0 0 0 0 -7.082410920384973 13.990853855504611 0 13.990853855504611 9.4084640645378386 0 0 0 0 -10.188368899660418 14.567384221743851 0 14.567384221743851 16.779092068780301 0 0 0 0 -7.9239540543279645 9.3614774116688295 0 9.3614774116688295 22.076484660530696 0 0 0 0 -10.157101267605867 6.6447985912964214 0 6.6447985912964214 19.802869434892273 0 0 0 0 -7.724416229002145 10.798804603190547 0 10.798804603190547 12.726396921767446 0 0 0 0 -11.929249240434729 5.8051135034147592 0 5.8051135034147592 21.401287534314179 0 0 0 0 -13.638346192563404 6.1570887778470933 0 6.1570887778470933 13.755315769594745 0 0 0 0 -8.4776148827127145 8.6984347534616973 0 8.6984347534616973 15.003363340241776 0 0 0 0 -10.64915699067933 11.783523104604683 0 11.783523104604683 12.624493479602279 0 0 0 0 -9.9396095224328747 13.881884989761602 0 13.881884989761602 5.8571385675531928 0 0 0 0 -13.371915453470137 5.1797903068618325 0 5.1797903068618325 -1.667241234001267 0 0 0 0 -8.7763080913482554 12.497318425819685 0 12.497318425819685 5.0086886022982071 0 0 0 0 -7.2857437932843823 -15.146699490326682 0 -15.146699490326682 94.277087565578768 0 0 0 0 0.88491267431736276 0.59547130130978587 0 0.59547130130978587 0.58412638798147754 0 0 0 0 10.114170077569725 -18.265929749220049 0 -18.265929749220049 15.16515063922634 0 0 0 0 91.867998966788946 56.819605994733138 0 56.819605994733138 -25.771139925403986 0 0 0 0 26.573690930311386 35.415542844533775 0 35.415542844533775 69.156487725795159 0 0 0 0 60.025936990242371 4.3104929961427842 0 4.3104929961427842 -60.460100145643082 0 0 0 0 16.33970054688325 2.1536769300928427 0 2.1536769300928427 -4.5932287989235192 0 0 0 0 8.345529806214472 -11.221409516019776 0 -11.221409516019776 32.973570104665328 0 0 0 0 -31.110390248913973 17.220336820398188 0 17.220336820398188 31.010833807438758 0 0 0 0 -30.658305499480775 6.1333305520947761 0 6.1333305520947761 15.663154211322762 0 0 0 0 -27.324748113936948 -8.2643734628400125 0 -8.2643734628400125 -3.9490918256851728 0 0 0 0 -56.671137693588207 21.318988221387372 0 21.318988221387372 9.2324492474799627 0 0 0 0 -17.241912768417933 13.81914811803108 0 13.81914811803108 -5.3468692342285067 0 0 0 0 -27.694393212655996 26.170241099511259 0 26.170241099511259 7.0122652577410918 0 0 0 0 -26.939983885000402 14.556510053873353 0 14.556510053873353 28.684568735563971 0 0 0 0 -22.533834616518106 17.194574131057834 0 17.194574131057834 24.34552537053969 0 0 0 0 2.5467294404976393 2.5375951950064 0 2.5375951950064 -0.1368181612016599 0 0 0 0 9.2490361713480524 4.1466045700781251 0 4.1466045700781251 -3.9041885283295414 0 0 0 0 3.3862074745393329 11.019866839917086 0 11.019866839917086 25.621527217006133 0 0 0 0 0.28844649800075484 1.5401033629020677 0 1.5401033629020677 0.039740878129215673 0 0 0 0 -89.619423354402898 16.206420777190942 0 16.206420777190942 24.225401297078861 0 0 0 0 -25.353539964793526 29.890424239218191 0 29.890424239218191 10.183125575067606 0 0 0 0 -35.958853594518587 14.673226006834739 0 14.673226006834739 28.741979850397911 0 0 0 0 -5.9355379656844889 5.6821501489393995 0 5.6821501489393995 -22.304222564001975 0 0 0 0 -17.206608678625798 14.634529411866879 0 14.634529411866879 0.5494031600683229 0 0 0 0 -23.109444895000706 6.3567365561248153 0 6.3567365561248153 0.013458400757372146 0 0 0 0 -2.2224361996231892 -12.921023253647945 0 -12.921023253647945 12.703456449500663 0 0 0 0 -40.345829422178213 10.59344085468274 0 10.59344085468274 55.878204663385986 0 0 0 0 -14.629802115970961 -11.694832319417401 0 -11.694832319417401 30.409742551331874 0 0 0 0 -9.2524334165773325 -7.6565240853351497 0 -7.6565240853351497 15.648380446251394 0 0 0 0 64.052435315963521 8.794800883577409 0 8.794800883577409 14.060279409059149 0 0 0 0 28.157769607983028 -44.677754394615476 0 -44.677754394615476 51.392518267879495 0 0 0 0 -18.141731837554289 -8.7696579125276912 0 -8.7696579125276912 10.802327768142277 0 0 0 0 9.4363279699027771 -27.009429951864149 0 -27.009429951864149 -19.980837713268556 0 0 0 0 -3.6382864777424402 39.396112098651429 0 39.396112098651429 25.869708684775105 0 0 0 0 37.26698188428054 49.939872598915827 0 49.939872598915827 27.40987129369978 0 0 0 0 23.374610584647598 45.411196698042659 0 45.411196698042659 -19.72436286852826 0 0 0 0 -31.433095664255234 29.527679580565746 0 29.527679580565746 111.22994312511219 0 0 0 0 11.026855277728828 32.216329090701947 0 32.216329090701947 -33.823264277809358 0 0 0 0 -0.65340058396806455 5.7967664905598699 0 5.7967664905598699 4.3947527466900809 0 0 0 0 -3.6337570213568142 0.017870381379907485 0 0.017870381379907485 -10.371930313880512 0 0 0 0 4.417391150003823 1.4788678701452227 0 1.4788678701452227 -16.353744181049478 0 0 0 0 1.4471012465740998 1.6064707332650272 0 1.6064707332650272 -0.53101686791308911 0 0 0 0 2.3840940289537684 4.3686522454081569 0 4.3686522454081569 -7.6887250619556653 0 0 0 0 9.2105670388691578 5.8199896026708302 0 5.8199896026708302 -12.468028760273228 0 0 0 0 0.93529297361243424 3.2076871025104996 0 3.2076871025104996 -6.60589332327433 0 0 0 0 9.9396059842383693 10.225599817260445 0 10.225599817260445 -11.277544320611923 0 0 0 0 1.911741046642419 14.028479804885137 0 14.028479804885137 -19.367646355726492 0 0 0 0 14.690681404237921 4.0488491311898542 0 4.0488491311898542 -10.529358423769736 0 0 0 0 0.90260352567510682 3.6862673832368955 0 3.6862673832368955 -8.2506013166445129 0 0 0 0 4.3900935701894923 -4.6796131876271829 0 -4.6796131876271829 -0.18156007130164653 0 0 0 0 9.8256923270805601 10.11435582464901 0 10.11435582464901 -27.300465254556912 0 0 0 0 6.2994461186790431 4.4280929682936403 0 4.4280929682936403 -7.0901054496407596 0 0 0 0 4.0656185123878714 3.5697922914400877 0 3.5697922914400877 2.3031566904171044 0 0 0 0 0.59774106454096909 19.488204571622191 0 19.488204571622191 -18.053410823251397 0 0 0 0 -0.36966377226809755 7.4757583567147776 0 7.4757583567147776 -4.9683629843711969 0 0 0 0 1.8162765130527987 4.9351829762267698 0 4.9351829762267698 1.0322434111549228 0 0 0 0 -4.7773854914448748 -10.376368159547383 0 -10.376368159547383 -16.863533678912063 0 0 0 0 -0.1932139786807987 -0.020900630212773663 0 -0.020900630212773663 0.049190983073977179 0 0 0 0 -48.460765679848919 51.420245903120303 0 51.420245903120303 -58.992643763831438 0 0 0 0 10.017827378074799 -5.2822740650472042 0 -5.2822740650472042 11.24539403700328 0 0 0 0 -41.292847446591622 50.452476287509853 0 50.452476287509853 -59.3599151529761 0 0 0 0 -39.997508089662006 53.208539917888629 0 53.208539917888629 -57.770666657099355 0 0 0 0 0.57368822929052499 0.20266369988012123 0 0.20266369988012123 -0.83652678115513623 0 0 0 0 15.532500759518371 2.6491471110412022 0 2.6491471110412022 -7.8946807975398769 0 0 0 0 2.2842000893908079 2.9858437617612985 0 2.9858437617612985 0.53206197002137223 0 0 0 0 2.5819633830019484 8.810479603299882 0 8.810479603299882 -0.023408666309478576 0 0 0 0 32.176093497637339 7.7081474303449795 0 7.7081474303449795 -3.3365114136395277 0 0 0 0 5.5832192082589245 18.90337304231889 0 18.90337304231889 15.466159352929026 0 0 0 0 5.3633659293955134 1.9956375910496718 0 1.9956375910496718 -2.1417952219794643 0 0 0 0 15.956240267047178 11.169989765723585 0 11.169989765723585 -1.8972559753310634 0 0 0 0 6.2013564852939922 6.3316706769436841 0 6.3316706769436841 -1.2456702900104801 0 0 0 0 2.2913088109721507 0.2399171755577072 0 0.2399171755577072 -2.6991320741584843 0 0 0 0 -9.8764513863497996 24.449931826180546 0 24.449931826180546 1.1841797055458301 0 0 0 0 3.0581323836722731 13.23893055467579 0 13.23893055467579 10.541362650386873 0 0 0 0 43.33735237692963 -12.758580832721236 0 -12.758580832721236 -13.710457159220823 0 0 0 0 0.50687665829795492 1.8930664082563915 0 1.8930664082563915 -1.4130371885646484 0 0 0 0 1.4010075489004521 6.7112052552756722 0 6.7112052552756722 -7.0620054513165087 0 0 0 0 27.571924387718354 2.7925147755120179 0 2.7925147755120179 -16.661457745107327 0 0 0 0 23.932493598049405 -1.0773321773740463 0 -1.0773321773740463 -0.27067383893518127 0 0 0 0 -0.3562952757081348 0.96359473674192841 0 0.96359473674192841 -2.5045385084549299 0 0 0 0 1.5827280524263188 6.6864845888321724 0 6.6864845888321724 -18.036392397794771 0 0 0 0 1.877885178620077 2.291809159143396 0 2.291809159143396 -10.544179009274671 0 0 0 0 4.4470397141146236 9.6228884208620968 0 9.6228884208620968 6.4900411413627808 0 0 0 0 0.93034874119059463 6.0662800792030307 0 6.0662800792030307 3.4891959265061487 0 0 0 0 3.0079954693228501 10.282750514842519 0 10.282750514842519 1.2693880035549228 0 0 0 0 1.6897347637896019 16.173995829407431 0 16.173995829407431 12.89334097731853 0 0 0 0 3.9095803675058036 9.5550394346369369 0 9.5550394346369369 -2.7782817232029355 0 0 0 0 -6.3839198705641138 0.36967448087034427 0 0.36967448087034427 -15.815236152479883 0 0 0 0 5.3210187200456858 0.45086392329994851 0 0.45086392329994851 -27.657212947935932 0 0 0 0 3.6740551326809054 5.0276577035476748 0 5.0276577035476748 -14.714863765715563 0 0 0 0 14.516755053816951 13.899122392646746 0 13.899122392646746 -56.024777118196653 0 0 0 0 11.450368915617105 -18.144744543344473 0 -18.144744543344473 -76.802111984507064 0 0 0 0 -50.662912464396868 -65.002448997796819 0 -65.002448997796819 -73.306928068877824 0 0 0 0 -0.064103423244641355 -0.50035891412968425 0 -0.50035891412968425 -2.3796824498354141 0 0 0 0 -17.882602856873746 -15.407538005277274 0 -15.407538005277274 -12.06914002038684 0 0 0 0 0.78028632118299157 1.9624901845221974 0 1.9624901845221974 -0.89514335099556774 0 0 0 0 1.1544678005539026 -1.7058512611238257 0 -1.7058512611238257 -26.89962426114198 0 0 0 0 -0.95004880605938524 -1.3735944842646859 0 -1.3735944842646859 -9.9891038771693275 0 0 0 0 0.35948625415965174 -0.45783509726450333 0 -0.45783509726450333 -6.6519390536778502 0 0 0 0 -29.779427134297862 36.363001934432077 0 36.363001934432077 -35.290017826137046 0 0 0 0 44.634953137405319 5.104972329389966 0 5.104972329389966 -25.654782521761263 0 0 0 0 -65.668477119152158 40.399924140275289 0 40.399924140275289 -15.56753021390432 0 0 0 0 -208.58221598003911 122.9553868748153 0 122.9553868748153 -63.217956557196885 0 0 0 0 -67.290421140659646 84.223185233405815 0 84.223185233405815 -66.993336804676801 0 0 0 0 -19.47388848911578 72.502061762799713 0 72.502061762799713 -101.82529380619053 0 0 0 0 0.00836313807303668 32.940260929280157 0 32.940260929280157 -52.008000342164451 0 0 0 0 -103.8618059346818 105.34548501640074 0 105.34548501640074 -58.981105193646727 0 0 0 0 -39.676442111626784 77.426188544794968 0 77.426188544794968 -68.879937061685268 0 0 0 0 -38.170410439337502 77.182079057677583 0 77.182079057677583 -73.499171057261265 0 0 0 0 6.8251746482692397 26.799002402013684 0 26.799002402013684 -26.931989825583514 0 0 0 0 2.1993455786941922 19.610093729666914 0 19.610093729666914 -19.273007825428977 0 0 0 0 7.6857375143022182 28.363179521498751 0 28.363179521498751 -20.378533811148486 0 0 0 0 -11.013622014730345 34.74641470615552 0 34.74641470615552 2.7467268996679195 0 0 0 0 -15.461356874837577 20.08992662278888 0 20.08992662278888 -21.167457564668439 0 0 0 0 -13.850371540863534 21.00123068893754 0 21.00123068893754 -20.989527150505637 0 0 0 0 -14.354427958293664 33.372875408539571 0 33.372875408539571 -26.40170596794087 0 0 0 0 -1.8800979185509483 4.8881577915352903 0 4.8881577915352903 -4.5942157344734618 0 0 0 0 -14.095172171321565 20.879719250613562 0 20.879719250613562 -50.555998254038059 0 0 0 0 -1.4209437173055091 2.9369004422577696 0 2.9369004422577696 -6.1015453345318136 0 0 0 0 -10.524640231415333 19.110869967302278 0 19.110869967302278 -8.3296154733834555 0 0 0 0 -5.5012320525609901 10.645316276660004 0 10.645316276660004 0.45597985912088879 0 0 0 0 -20.673010558663009 21.454601904969422 0 21.454601904969422 -7.5895442167111469 0 0 0 0 -2.8698422415090938 6.4121423883257584 0 6.4121423883257584 1.980415449994485 0 0 0 0 3.9279251068533085 17.668351008879199 0 17.668351008879199 -37.87792059970252 0 0 0 0 22.657954663510736 26.490816457624987 0 26.490816457624987 18.45036870628428 0 0 0 0 14.03197772528074 4.9112125935698714 0 4.9112125935698714 4.4535142575468853 0 0 0 0 -0.62116270518720285 9.686060652134767 0 9.686060652134767 -2.2117111278739352 0 0 0 0 -7.9673269595546117 -1.9227836972108889 0 -1.9227836972108889 36.880908442009968 0 0 0 0 8.5599288341154534 2.9223582986205656 0 2.9223582986205656 -43.556982761392305 0 0 0 0 20.868807750356609 0.60734295945803751 0 0.60734295945803751 -21.492205371511773 0 0 0 0 -4.0662610136232615 -1.0029578124440377 0 -1.0029578124440377 -21.154728035756307 0 0 0 0 49.266887888703423 2.2747417282917013 0 2.2747417282917013 -12.501501741672314 0 0 0 0 17.244170035541458 -1.1014179125916712 0 -1.1014179125916712 -12.579099671576842 0 0 0 0 12.240594078395588 -10.110214225454911 0 -10.110214225454911 9.3957905910629052 0 0 0 0 0.91718043251540848 1.6173091613839095 0 1.6173091613839095 1.1537322537011008 0 0 0 0 -4.4651119209152057 -0.62787556251350907 0 -0.62787556251350907 -3.1216145358630456 0 0 0 0 27.751543059377582 0.56149949491191364 0 0.56149949491191364 -115.06122907479039 0 0 0 0 -3.1040243685310998 3.848899237614205 0 3.848899237614205 -1.13182041307482 0 0 0 0 -46.183943554675352 -35.288532281037988 0 -35.288532281037988 -32.597288581944667 0 0 0 0 -80.545005122186012 115.52098651444567 0 115.52098651444567 116.56902357843137 0 0 0 0 12.795092403090166 -0.36878580640041037 0 -0.36878580640041037 -36.63573670234473 0 0 0 0 32.914167650713352 56.839334769281777 0 56.839334769281777 32.129886041371719 0 0 0 0 47.539417786138074 -15.318575298270844 0 -15.318575298270844 9.9201019606744012 0 0 0 0 101.67012995593905 124.01109159345651 0 124.01109159345651 17.311930880270666 0 0 0 0 -0.040576464825711867 1.450463946080669 0 1.450463946080669 1.0537579996756889 0 0 0 0 135.45366494637074 164.2505658760092 0 164.2505658760092 27.31278680619107 0 0 0 0 -12.883238603029895 100.93400655405094 0 100.93400655405094 13.375398431540361 0 0 0 0 -34.744947994925951 25.902871512243109 0 25.902871512243109 77.911289583434154 0 0 0 0 48.089775092618879 72.612042952782758 0 72.612042952782758 31.802579174360289 0 0 0 0 62.199309161576821 11.486134341830621 0 11.486134341830621 -32.978045258299971 0 0 0 0 100.19406763495999 28.929036160971918 0 28.929036160971918 -5.966987198959032 0 0 0 0 41.251616627195517 25.069484779929553 0 25.069484779929553 -12.73783895343422 0 0 0 0 -5.9261416158267366 49.805135555696324 0 49.805135555696324 22.173649390786522 0 0 0 0 20.159845421367507 30.247108870855783 0 30.247108870855783 -13.962262166909568 0 0 0 0 28.845279740515025 23.468676412416698 0 23.468676412416698 -5.9986759986732068 0 0 0 0 -9.9829694516160998 38.880250598195744 0 38.880250598195744 8.5876882939928691 0 0 0 0 -21.403514376311591 32.561360592531855 0 32.561360592531855 5.5967820012238008 0 0 0 0 -21.271255668030477 39.406937368823492 0 39.406937368823492 17.006165186896396 0 0 0 0 -18.002827263281837 12.34485788934585 0 12.34485788934585 -8.0779450232920418 0 0 0 0 -16.88274256017985 7.0005257853208605 0 7.0005257853208605 -2.0140269506259756 0 0 0 0 -13.032200120114814 9.7809161692645397 0 9.7809161692645397 -6.3609809921173781 0 0 0 0 12.72024829845941 121.89180780308243 0 121.89180780308243 114.63436823675738 0 0 0 0 68.106911020460757 35.907959519056021 0 35.907959519056021 -29.312194830279168 0 0 0 0 -33.7080451590341 -10.043221010380876 0 -10.043221010380876 20.503580715616408 0 0 0 0 10.716883562084604 2.1461327458382584 0 2.1461327458382584 -40.767573839005308 0 0 0 0 -24.432549659565268 33.646176863698201 0 33.646176863698201 9.5698026008667512 0 0 0 0 -2.2799514962212015 59.980158888872211 0 59.980158888872211 34.263261533227706 0 0 0 0 -19.628847362227035 39.170963349263275 0 39.170963349263275 21.325759956755064 0 0 0 0 -15.183244967177302 42.150854945719402 0 42.150854945719402 11.027248201819475 0 0 0 0 -27.81036066580522 16.870090469959905 0 16.870090469959905 6.9314671656311475 0 0 0 0 48.222883602644288 21.199927052291059 0 21.199927052291059 -31.395921163968524 0 0 0 0 -1.2527089089243113 0.67182769428152511 0 0.67182769428152511 1.9368500888349303 0 0 0 0 -24.090640301056794 30.576008079393205 0 30.576008079393205 38.643074365834764 0 0 0 0 47.552326012538742 54.306177377383392 0 54.306177377383392 6.7147137410211144 0 0 0 0 58.511528353206813 58.275349795479997 0 58.275349795479997 -15.866596621031931 0 0 0 0 67.887541915744805 138.33453575957355 0 138.33453575957355 54.023312809889376 0 0 0 0 30.03386739510097 56.401254703059749 0 56.401254703059749 5.3509566406337399 0 0 0 0 17.516977087480882 38.703923496314019 0 38.703923496314019 -18.763303392460898 0 0 0 0 -11.830039197422288 17.733289100473101 0 17.733289100473101 -3.5043912661118268 0 0 0 0 -12.695480339157257 15.567629143139129 0 15.567629143139129 -40.036963448701499 0 0 0 0 -10.309643855366858 25.246408453464483 0 25.246408453464483 -45.522660838722913 0 0 0 0 -4.4350989211616252 22.421945253223384 0 22.421945253223384 -15.534971100911662 0 0 0 0 -8.3701043662305725 18.155600172529219 0 18.155600172529219 -2.5905149079493199 0 0 0 0 12.606746058048657 4.767494651960078 0 4.767494651960078 -29.890992269382707 0 0 0 0 -2.3622718302615606 1.1489372056779068 0 1.1489372056779068 -0.12172449444988143 0 0 0 0 -83.943902817512935 99.16023089081591 0 99.16023089081591 -9.6278455371066229 0 0 0 0 -13.907643731920636 16.959451066203279 0 16.959451066203279 -3.1043511946832938 0 0 0 0 -325.8263172669117 -39.392032972971265 0 -39.392032972971265 280.42236144945491 0 0 0 0 209.73932646025241 78.119902363687288 0 78.119902363687288 62.738646041755601 0 0 0 0 -9.420350307957051 211.33977080849854 0 211.33977080849854 31.19282479301728 0 0 0 0 -126.96431746272265 43.756995854752631 0 43.756995854752631 -70.823326215540874 0 0 0 0 269.63605692711008 46.062684124770385 0 46.062684124770385 -188.69633607314245 0 0 0 0 -43.034551042144813 -68.061730694165817 0 -68.061730694165817 -117.67742840636811 0 0 0 0 -44.93981797147535 0.039754752494445711 0 0.039754752494445711 -26.364211429268835 0 0 0 0 -2.6858424750234917 -6.8606436440713878 0 -6.8606436440713878 -57.388447386250846 0 0 0 0 98.489977538668882 42.524469257871715 0 42.524469257871715 -53.939264484528394 0 0 0 0 12.868491042160258 1.5549600519289015 0 1.5549600519289015 -293.66623898520629 0 0 0 0 -28.842035022096297 -4.0421249197429461 0 -4.0421249197429461 -59.695552502091232 0 0 0 0 50.391673680334634 40.317560090959887 0 40.317560090959887 67.874171738056248 0 0 0 0 -16.772850657212302 -22.289242470061708 0 -22.289242470061708 -32.778073627645426 0 0 0 0 -3.8930276639193835 114.69942428378818 0 114.69942428378818 180.18035720653916 0 0 0 0 -8.3522482225368684 6.4120010835026857 0 6.4120010835026857 -4.1921411831038302 0 0 0 0 -13.083798667911651 76.468382794756508 0 76.468382794756508 59.530285108864518 0 0 0 0 -13.905199913529032 32.145330805678896 0 32.145330805678896 134.20767637048812 0 0 0 0 25.159840543909922 43.6247108933444 0 43.6247108933444 3.2293507824515473 0 0 0 0 13.742773130296882 26.149934655237757 0 26.149934655237757 66.058490120502938 0 0 0 0 -65.960673602960924 -7.3971636408296035 0 -7.3971636408296035 73.679046927493175 0 0 0 0 -63.516838176259171 16.919290580636925 0 16.919290580636925 13.055385409679729 0 0 0 0 -81.035795258632788 -6.4410632412673294 0 -6.4410632412673294 9.0945685818221591 0 0 0 0 -128.9137147480742 67.43704790053016 0 67.43704790053016 55.566017146789818 0 0 0 0 -0.15784117101369066 0.092623035788967911 0 0.092623035788967911 0.66697870964036099 0 0 0 0 -116.84148334150359 64.151390374290713 0 64.151390374290713 39.921601567257312 0 0 0 0 -12.526989579447218 2.0445290388695412 0 2.0445290388695412 21.059069449698654 0 0 0 0 -128.12695738829461 61.345762155492139 0 61.345762155492139 76.706421714543467 0 0 0 0 -79.748069862893317 -6.5748916424108756 0 -6.5748916424108756 120.66724250726588 0 0 0 0 -115.62937592005528 53.346602307779449 0 53.346602307779449 50.448254757719042 0 0 0 0 -1.2937531962535065 4.3099095083104526 0 4.3099095083104526 4.7210904222128391 0 0 0 0 293.27841854806502 91.744237552703453 0 91.744237552703453 211.64442724468836 0 0 0 0 298.34678267407617 60.928826806088637 0 60.928826806088637 59.692756578280751 0 0 0 0 -3.4257201773889392 3.8005005169975448 0 3.8005005169975448 -2.6171030377554416 0 0 0 0 -17.484961701156863 7.4439162279227276 0 7.4439162279227276 1.2470514430974617 0 0 0 0 -8.2256344114921376 1.4460139990655989 0 1.4460139990655989 7.8879419500317454 0 0 0 0 -8.1460480463601925 1.4847232574920781 0 1.4847232574920781 -5.6717369536900151 0 0 0 0 -9.0930363461357047 -4.3140599728581037 0 -4.3140599728581037 4.4473398460268072 0 0 0 0 -8.1130439860107799 3.7053980618702553 0 3.7053980618702553 18.000849371816003 0 0 0 0 -8.2104715223031235 -2.1095954450993304 0 -2.1095954450993304 3.9252667866639968 0 0 0 0 -22.566586722091415 -7.7616052834912352 0 -7.7616052834912352 7.9497242180541434 0 0 0 0 337.90250521925191 80.238155865917179 0 80.238155865917179 -254.0368181636768 0 0 0 0 -0.63989949113407629 3.9688865191269507 0 3.9688865191269507 10.274394551729898 0 0 0 0 -15.772378016345101 -0.65997298223192047 0 -0.65997298223192047 7.3003613131322709 0 0 0 0 177.73556604821715 -48.883444406829767 0 -48.883444406829767 125.99795773309506 0 0 0 0 -13.346593342459528 -14.167544413809992 0 -14.167544413809992 0.36075666820033803 0 0 0 0 154.24452404788872 -281.19026757687152 0 -281.19026757687152 -702.06640198752211 0 0 0 0 -6.9090580291958759 5.6798778252650663 0 5.6798778252650663 -6.8444887992798726 0 0 0 0 -3.1443218890108255 -12.464297513481142 0 -12.464297513481142 -7.3772097680703155 0 0 0 0 5.5004713641592389 -4.2830092432113815 0 -4.2830092432113815 0.1705686825698649 0 0 0 0 19.341210503542243 -2.8278969607399631 0 -2.8278969607399631 -1.1856717708533324 0 0 0 0 -13.156512328828029 -3.9570363386705765 0 -3.9570363386705765 4.5131471564491221 0 0 0 0 2.0359573240370992 -1.0740119408133069 0 -1.0740119408133069 -0.80192062275273202 0 0 0 0 -6.3209384916153795 15.360084551633918 0 15.360084551633918 -0.58877454134835716 0 0 0 0 15.338735530433041 14.420040466129649 0 14.420040466129649 -9.3090615132477978 0 0 0 0 41.672883035359519 14.310768820766498 0 14.310768820766498 -40.473716371390765 0 0 0 0 40.907076080367915 8.5562749232503847 0 8.5562749232503847 -8.3016580456633164 0 0 0 0 23.273491534706409 -8.5241992082592333 0 -8.5241992082592333 6.8348798246952356 0 0 0 0 28.821757759734282 -32.95127183184286 0 -32.95127183184286 53.873295142297138 0 0 0 0 29.49232642953757 -28.192447720121891 0 -28.192447720121891 28.408885748121975 0 0 0 0 41.621191843815723 -16.23640734527271 0 -16.23640734527271 18.049122037358757 0 0 0 0 25.322961904661497 -35.474386740204864 0 -35.474386740204864 91.168026366787672 0 0 0 0 90.168001081550756 -40.735353271116765 0 -40.735353271116765 89.981332107979142 0 0 0 0 22.266358712939109 -17.732222935535901 0 -17.732222935535901 53.997366934316233 0 0 0 0 14.402166376054993 -34.227439340933415 0 -34.227439340933415 89.731949711756897 0 0 0 0 -6.2668510301773495 -10.099593602484674 0 -10.099593602484674 64.472076047732116 0 0 0 0 -4.5872386559851748 -19.705679221031687 0 -19.705679221031687 67.663500083606777 0 0 0 0 13.750557949748327 -6.6179739311155572 0 -6.6179739311155572 8.5115472621164372 0 0 0 0 15.544316029540596 -17.199135861898981 0 -17.199135861898981 25.613211866570055 0 0 0 0 -3.879150205910264 -2.7924778911092289 0 -2.7924778911092289 16.80876513200019 0 0 0 0 -6.841979506294833 5.4362320435690705 0 5.4362320435690705 20.822837366648606 0 0 0 0 -45.949420947772751 -1.769366436070186 0 -1.769366436070186 52.77793852321156 0 0 0 0 -21.967528014456548 -0.40868833111471758 0 -0.40868833111471758 47.790954875632451 0 0 0 0 -41.354057355778423 12.609969040899159 0 12.609969040899159 32.736060589728368 0 0 0 0 -21.571303632549643 -8.4869167816476647 0 -8.4869167816476647 54.873159235259664 0 0 0 0 -22.1763699388448 19.602459957086467 0 19.602459957086467 79.416977034316005 0 0 0 0 -38.29754560544643 4.7441721422819683 0 4.7441721422819683 69.808982962993468 0 0 0 0 -2.7958362155796088 2.4319137323827364 0 2.4319137323827364 -1.8081097523211831 0 0 0 0 -145.2487854842002 71.748559432763614 0 71.748559432763614 140.52861393887247 0 0 0 0 -169.12461643695474 134.71774061935753 0 134.71774061935753 35.804078489476524 0 0 0 0 -3.7344397047127131 29.208832918868097 0 29.208832918868097 49.372121874070217 0 0 0 0 8.8457846226647234 93.756447289782955 0 93.756447289782955 -22.086600739649839 0 0 0 0 58.005031654731283 17.890381604902359 0 17.890381604902359 -110.29452705914809 0 0 0 0 8.8384330534281617 97.202331579092061 0 97.202331579092061 -241.84984822179285 0 0 0 0 -88.304125157625094 -151.96802717710489 0 -151.96802717710489 -260.88836995516135 0 0 0 0 -6.4543122351905691 1.6110790579063821 0 1.6110790579063821 -0.26815718468321581 0 0 0 0 -138.26676182076699 48.17740481293913 0 48.17740481293913 336.28037305958287 0 0 0 0 12.23830053274105 -7.1154591081140097 0 -7.1154591081140097 -71.382200004831247 0 0 0 0 -43.498295820543717 15.0585704489622 0 15.0585704489622 146.08425565995822 0 0 0 0 -189.81225239270134 -128.1132853079871 0 -128.1132853079871 40.417929283396916 0 0 0 0 47.190605911673629 -36.800462058819903 0 -36.800462058819903 -10.544114540059127 0 0 0 0 33.821418095953049 -1.3531290725804865 0 -1.3531290725804865 -6.058485937783189 0 0 0 0 15.996144875808795 -37.998675955932413 0 -37.998675955932413 -52.333557703903352 0 0 0 0 43.271790625436552 -36.42957887258126 0 -36.42957887258126 9.7450249776147757 0 0 0 0 66.724539865569568 -3.1392149292378235 0 -3.1392149292378235 77.195875880519452 0 0 0 0 64.689554543059785 -45.868442232900634 0 -45.868442232900634 46.230753146714051 0 0 0 0 49.473989020785666 -1.3177179361046001 0 -1.3177179361046001 79.350858480782335 0 0 0 0 25.87407867526781 62.075033894457647 0 62.075033894457647 161.62256661954962 0 0 0 0 78.982468093392526 83.508157031472365 0 83.508157031472365 141.7395963865165 0 0 0 0 132.83520507988214 35.323552968322474 0 35.323552968322474 92.442565437222584 0 0 0 0 -55.687885577313864 -13.876178478155452 0 -13.876178478155452 137.21298375976767 0 0 0 0 -159.34252736430608 -149.84124516721204 0 -149.84124516721204 224.46142170876556 0 0 0 0 -233.83770751740303 -81.971928351543283 0 -81.971928351543283 307.11983947987574 0 0 0 0 78.709277637595733 184.36155745275573 0 184.36155745275573 -265.97114041600821 0 0 0 0 -156.54494274103445 -18.741630279161882 0 -18.741630279161882 96.505452563113067 0 0 0 0 -346.15106083961655 -136.93751699587028 0 -136.93751699587028 25.533807507530582 0 0 0 0 -223.01733352719793 214.49640446706621 0 214.49640446706621 -99.885544065464273 0 0 0 0 221.65818293431767 43.971514890308754 0 43.971514890308754 -68.731567090900853 0 0 0 0 -28.987869541828545 -12.614650334198814 0 -12.614650334198814 12.267632259394304 0 0 0 0 -69.110707954895005 -39.35373503473329 0 -39.35373503473329 38.886032490423531 0 0 0 0 -13.721921943153964 15.420604444093374 0 15.420604444093374 -2.5128713289576297 0 0 0 0 -156.13939350970077 -28.875335991896918 0 -28.875335991896918 237.36439751899525 0 0 0 0 -42.473045303821465 -33.339076266026495 0 -33.339076266026495 39.997994737852423 0 0 0 0 -91.918981969253196 -9.1261506514383655 0 -9.1261506514383655 58.497143755492289 0 0 0 0 -63.725158435713553 -0.41877870461667044 0 -0.41877870461667044 61.183421147012268 0 0 0 0 -61.681378432665326 3.7524714307210161 0 3.7524714307210161 147.80656990892749 0 0 0 0 31.070509729620881 -45.929430030988442 0 -45.929430030988442 81.116488573741663 0 0 0 0 -60.389595558394859 10.668230549681539 0 10.668230549681539 67.334101934045975 0 0 0 0 -53.165700742105173 -17.857299110488384 0 -17.857299110488384 79.920770071295919 0 0 0 0 -49.348066297348367 -8.0502395047788013 0 -8.0502395047788013 27.11111926259764 0 0 0 0 -41.760869212511068 -35.509927154882462 0 -35.509927154882462 27.311205323821923 0 0 0 0 -16.281666008795696 8.4806510749695008 0 8.4806510749695008 20.418733458884162 0 0 0 0 82.50717834671741 58.946606188652368 0 58.946606188652368 158.46751263705846 0 0 0 0 -26.464595120024967 2.5177220673431293 0 2.5177220673431293 22.938111064277109 0 0 0 0 -8.6885861737949597 12.927510146892018 0 12.927510146892018 22.697799122943252 0 0 0 0 -2.3246212204732899 34.143224552079573 0 34.143224552079573 26.706753809841757 0 0 0 0 -25.995891494109642 33.749165701180573 0 33.749165701180573 27.312930921179941 0 0 0 0 -18.995605739014849 11.117922254896257 0 11.117922254896257 31.334266019584902 0 0 0 0 -27.503815459275259 14.676949755350961 0 14.676949755350961 32.179599831957603 0 0 0 0 -34.606533274712461 13.663736921163945 0 13.663736921163945 47.810528580168466 0 0 0 0 -43.447445045448362 2.3513289429392898 0 2.3513289429392898 38.63383348685602 0 0 0 0 -55.529419406830471 58.991464356984579 0 58.991464356984579 22.83258927278257 0 0 0 0 -59.89941268709191 26.811840118149121 0 26.811840118149121 42.834969639568953 0 0 0 0 -31.065502592781815 36.508978801788544 0 36.508978801788544 37.561100255054043 0 0 0 0 -11.604238361710458 57.969540462980149 0 57.969540462980149 72.382600994034874 0 0 0 0 -34.178963139254833 25.799590387574426 0 25.799590387574426 27.67021893151832 0 0 0 0 -70.04754595357241 42.679916229104492 0 42.679916229104492 65.807343984849467 0 0 0 0 -54.855203250250995 15.139665426858301 0 15.139665426858301 69.835060519937542 0 0 0 0 -3.0223221770177133 21.39543352732835 0 21.39543352732835 -1.4493250375780917 0 0 0 0 -40.62124051426872 -6.0295338112700847 0 -6.0295338112700847 43.8256190872562 0 0 0 0 -19.764441814729214 18.744871649173142 0 18.744871649173142 4.1586410515235901 0 0 0 0 -24.677223828985007 -2.8205142250481003 0 -2.8205142250481003 20.475650515169036 0 0 0 0 -16.447951762796947 10.587592538067838 0 10.587592538067838 41.978519409156434 0 0 0 0 -7.9535664384906681 36.176722940388572 0 36.176722940388572 17.533324142983474 0 0 0 0 -66.981276561770528 14.343970889005504 0 14.343970889005504 227.96500480764826 0 0 0 0 -4.4658150122650113 -14.667775501303367 0 -14.667775501303367 124.18199579516477 0 0 0 0 -11.699299029773321 16.107536339182893 0 16.107536339182893 -4.9562810252638121 0 0 0 0 -9.5199618768492034 0.446232215310852 0 0.446232215310852 4.8207082884851182 0 0 0 0 -16.074824793704977 38.950592542092636 0 38.950592542092636 30.019966397631833 0 0 0 0 -18.605813012715657 37.703863740549423 0 37.703863740549423 29.583253729053467 0 0 0 0 -8.9659727716980342 35.840575947611796 0 35.840575947611796 20.876729294675897 0 0 0 0 -21.517220060306499 7.6793854096003997 0 7.6793854096003997 104.21325426097246 0 0 0 0 -16.652561023392408 37.215447696204137 0 37.215447696204137 27.567249601528601 0 0 0 0 -4.3395169510249048 47.857003415327199 0 47.857003415327199 13.208581962148855 0 0 0 0 -18.428946096870106 49.821028054580893 0 49.821028054580893 16.320179820868361 0 0 0 0 -33.139616178715343 41.137369731681247 0 41.137369731681247 27.276460220310923 0 0 0 0 -8.0110537383101814 40.971904534369969 0 40.971904534369969 20.493401062607518 0 0 0 0 12.381397395855366 36.737347570033307 0 36.737347570033307 7.0792188805899059 0 0 0 0 1.2229826417657392 40.048535196493503 0 40.048535196493503 9.4408407874852855 0 0 0 0 -7.1784323328081427 40.014471268539637 0 40.014471268539637 12.627603965571325 0 0 0 0 0.87238296534218307 40.100331411351362 0 40.100331411351362 12.146423919637527 0 0 0 0 78.256795458721086 36.805718569931742 0 36.805718569931742 -2.3916002306923474 0 0 0 0 4.9157411384266823 27.437257341310215 0 27.437257341310215 -21.039801591188734 0 0 0 0 -30.410431648489492 56.94080059152202 0 56.94080059152202 11.030425967634073 0 0 0 0 -21.902670645221583 3.2449724685370711 0 3.2449724685370711 -25.429648580324283 0 0 0 0 -26.902855943053112 33.08243473931725 0 33.08243473931725 -8.2582350773009239 0 0 0 0 12.774136128369562 48.834710421317141 0 48.834710421317141 18.356848987457852 0 0 0 0 43.537656320012431 7.3481640461241113 0 7.3481640461241113 6.3642929666984855 0 0 0 0 -99.248917920158291 29.850606711053388 0 29.850606711053388 28.314326434827308 0 0 0 0 -57.339467844313646 84.592786879346022 0 84.592786879346022 -45.797874892170512 0 0 0 0 -34.55693981575245 41.730379420994723 0 41.730379420994723 9.2514887505085426 0 0 0 0 -35.179926916533987 2.6454979454101704 0 2.6454979454101704 -78.682678240298628 0 0 0 0 -99.797961572298277 -6.9208547082771474 0 -6.9208547082771474 -22.858986505503708 0 0 0 0 -98.957756858080074 59.525477602394858 0 59.525477602394858 -70.555623328306865 0 0 0 0 -24.364265350359801 18.949664494079116 0 18.949664494079116 -75.297293059806634 0 0 0 0 -1.1143306003522491 0.39563516915129071 0 0.39563516915129071 -0.019425120344642721 0 0 0 0 -12.218991253920194 41.75189320532445 0 41.75189320532445 -216.29940171378985 0 0 0 0 -32.307608951421372 -15.343877905681438 0 -15.343877905681438 47.173996199686371 0 0 0 0 -24.644735935766846 -0.54412593165579892 0 -0.54412593165579892 1.4611969715715531 0 0 0 0 12.25921970615002 14.772818083441052 0 14.772818083441052 7.8107642238246626 0 0 0 0 1.6175012128718655 2.2955018321104674 0 2.2955018321104674 2.8914100055026069 0 0 0 0 -9.8951122035416006 39.259091401503611 0 39.259091401503611 -13.57009807957337 0 0 0 0 17.472531964335417 29.970867104053013 0 29.970867104053013 -168.02807080108505 0 0 0 0 -3.2214975492771765 0.71248305675926105 0 0.71248305675926105 0.019103765838084819 0 0 0 0 -26.976977028033161 0.56086462892199052 0 0.56086462892199052 47.944252104769475 0 0 0 0 -18.397358999610105 20.72957047197815 0 20.72957047197815 14.890609931761901 0 0 0 0 -5.5179802553563126 1.4682092158862545 0 1.4682092158862545 0.84557491622731362 0 0 0 0 4.43097312119869 38.752948389311769 0 38.752948389311769 -121.80676838864019 0 0 0 0 2.4299369201006908 4.6919527011929567 0 4.6919527011929567 2.890437159884879 0 0 0 0 5.3678323250919675 -2.2282104158066431 0 -2.2282104158066431 34.714302495898664 0 0 0 0 4.2874343185145136 -11.615883825134347 0 -11.615883825134347 40.784555432665002 0 0 0 0 -4.686535921009181 -6.0136700991970429 0 -6.0136700991970429 46.188444139326748 0 0 0 0 -4.6036548776496602 4.2601166528456815 0 4.2601166528456815 31.549856480125527 0 0 0 0 7.6779904088311923 -7.6268180320439569 0 -7.6268180320439569 38.967330970093826 0 0 0 0 11.771418779924346 -39.013489985158003 0 -39.013489985158003 83.930600248546398 0 0 0 0 10.825328525400266 -8.663717718094631 0 -8.663717718094631 -11.848223666336708 0 0 0 0 21.007226011371813 -19.662261574345393 0 -19.662261574345393 42.993789944623131 0 0 0 0 -7.6411361654668326 -5.513402510105152 0 -5.513402510105152 63.582815883883086 0 0 0 0 5.3820933911720203 -3.3244366425878979 0 -3.3244366425878979 40.976841359013633 0 0 0 0 -9.8331174438135349 2.9621653252943361 0 2.9621653252943361 31.69529959432839 0 0 0 0 -3.6993115419912215 5.9915050115348549 0 5.9915050115348549 35.238773273991683 0 0 0 0 -8.694306175478232 3.8083459697809303 0 3.8083459697809303 34.580441906520718 0 0 0 0 -9.1997639274954963 14.622703785311387 0 14.622703785311387 24.019517658351106 0 0 0 0 -9.6825554469342023 11.73858679616751 0 11.73858679616751 20.356377890973818 0 0 0 0 -7.7694777058427462 17.392364083323628 0 17.392364083323628 4.3431905806501163 0 0 0 0 -9.5435179413307196 21.244842665881151 0 21.244842665881151 15.43454442242728 0 0 0 0 -6.8500628668227819 20.560638914689662 0 20.560638914689662 5.4018387223732134 0 0 0 0 -16.149835607932346 21.528925328073456 0 21.528925328073456 28.974755100684888 0 0 0 0 -13.516532530850782 29.591119083052035 0 29.591119083052035 -6.3472334739235521 0 0 0 0 -8.5572317903233852 19.278536960177007 0 19.278536960177007 4.9346515728966551 0 0 0 0 -9.382841433836802 23.790133180264093 0 23.790133180264093 1.4324973857583245 0 0 0 0 2.6911139129210824 30.942975887865032 0 30.942975887865032 -48.023170096596459 0 0 0 0 -19.620638063664273 21.494077829438538 0 21.494077829438538 51.206898509437451 0 0 0 0 -3.7738825241698351 18.793070929223177 0 18.793070929223177 4.8520110761892283 0 0 0 0 -21.364118569036918 10.958023834851701 0 10.958023834851701 3.1546922960806114 0 0 0 0 -38.239058874130251 58.806278194406332 0 58.806278194406332 3.755430881628854 0 0 0 0 -10.248500668810266 9.9282887581539399 0 9.9282887581539399 25.871992103207049 0 0 0 0 -35.853037697697118 11.368878784936896 0 11.368878784936896 87.148666399749345 0 0 0 0 -30.710914442094179 -0.46171727729051781 0 -0.46171727729051781 122.98341758539391 0 0 0 0 -4.0180733782353855 7.038523392222487 0 7.038523392222487 39.808062557814992 0 0 0 0 -21.712458178509621 -41.039449805354707 0 -41.039449805354707 -8.0873412243563507 0 0 0 0 -75.946373948995983 15.346897253743919 0 15.346897253743919 45.764016906985489 0 0 0 0 61.88806355183101 -1.2098600400095165 0 -1.2098600400095165 -79.485563203340462 0 0 0 0 50.704800657643545 82.417910792551993 0 82.417910792551993 -27.151443226452102 0 0 0 0 93.862146604575997 107.02219386452771 0 107.02219386452771 132.81220245552686 0 0 0 0 45.456912371799262 15.163155279093189 0 15.163155279093189 16.748817792818954 0 0 0 0 28.343941898645539 -11.015998447926904 0 -11.015998447926904 43.565754890163589 0 0 0 0 -9.7707716195800387 39.436612960781304 0 39.436612960781304 -23.611185768450014 0 0 0 0 0.35843103818536604 0.78325674624687025 0 0.78325674624687025 1.1499109387981932 0 0 0 0 -7.9044836260111424 -91.639825255030701 0 -91.639825255030701 218.37722846822408 0 0 0 0 -1.0617705628490057 -4.4209864337099134 0 -4.4209864337099134 79.145920986854208 0 0 0 0 31.662374504045886 -15.194215710487697 0 -15.194215710487697 63.746997813883354 0 0 0 0 40.358779211718797 -73.099855774822572 0 -73.099855774822572 107.10673885239794 0 0 0 0 -31.484179418825079 85.831449271120619 0 85.831449271120619 134.89811084011023 0 0 0 0 44.002845815999535 69.739613467309482 0 69.739613467309482 136.43748238075386 0 0 0 0 -0.11251697596890153 140.16128081336319 0 140.16128081336319 269.9940487880458 0 0 0 0 -30.633901518349376 51.132137507429434 0 51.132137507429434 294.16063287878205 0 0 0 0 8.3434493145614397 178.38631228521808 0 178.38631228521808 251.87555209965831 0 0 0 0 75.899717577581441 91.225169977010609 0 91.225169977010609 334.43539495290861 0 0 0 0 44.856451078339887 245.09111769662923 0 245.09111769662923 283.08642525126379 0 0 0 0 68.415728078029247 221.65571516658434 0 221.65571516658434 355.41358713818408 0 0 0 0 60.216352502658992 164.2533340097707 0 164.2533340097707 255.51158479002333 0 0 0 0 5.921476083851303 212.20355610077968 0 212.20355610077968 230.59499083231003 0 0 0 0 50.470507583573635 204.42803192163137 0 204.42803192163137 129.72769999040975 0 0 0 0 18.527946284788413 154.23157141509364 0 154.23157141509364 122.01044549618746 0 0 0 0 -133.99150930804535 158.32306141464505 0 158.32306141464505 136.40479206020268 0 0 0 0 36.579830757579657 113.99318868198975 0 113.99318868198975 146.45036132971654 0 0 0 0 35.972279505012921 32.707923669196134 0 32.707923669196134 -91.776222638040963 0 0 0 0 29.163516377841006 195.51214893388305 0 195.51214893388305 -57.068507843472617 0 0 0 0 40.830943339422902 61.267541634651593 0 61.267541634651593 41.258270708191048 0 0 0 0 -0.18462381824727947 0.010403418166337275 0 0.010403418166337275 -2.447829477705433 0 0 0 0 29.089150288264136 -3.3319462732997636 0 -3.3319462732997636 -12.965910664363037 0 0 0 0 -142.00474731776853 119.82133896974494 0 119.82133896974494 -26.753801512242717 0 0 0 0 28.741433986393531 168.7442869688357 0 168.7442869688357 -127.04730127179755 0 0 0 0 -11.281943414504894 8.5316259083322166 0 8.5316259083322166 -83.261525977501151 0 0 0 0 0.11400090284041653 143.01082175749207 0 143.01082175749207 -14.380869389202417 0 0 0 0 32.309762034570895 146.37828454216628 0 146.37828454216628 -20.720331227475981 0 0 0 0 0.021983424143400043 161.85980431359303 0 161.85980431359303 -27.731016057116904 0 0 0 0 77.859417052379285 225.99850316496577 0 225.99850316496577 25.085057373271411 0 0 0 0 62.611943986616097 135.27772527696379 0 135.27772527696379 4.7575834093768208 0 0 0 0 123.31523833972824 84.176681518061741 0 84.176681518061741 -24.20495933655684 0 0 0 0 135.84181418715525 200.72498203100076 0 200.72498203100076 76.510951019648928 0 0 0 0 192.68946132156452 173.94869161087536 0 173.94869161087536 16.213642978917051 0 0 0 0 190.22406969455551 138.55358445084539 0 138.55358445084539 60.428965347025951 0 0 0 0 169.98950623471865 157.60148861401922 0 157.60148861401922 43.913720005810319 0 0 0 0 202.78798217092844 162.31787115046245 0 162.31787115046245 24.274400346335824 0 0 0 0 385.11557521539726 103.76331167537774 0 103.76331167537774 35.393525851246523 0 0 0 0 240.96242046896077 217.05519785019897 0 217.05519785019897 20.110226749482536 0 0 0 0 0.2433904334062939 276.40335566001784 0 276.40335566001784 90.440804884130557 0 0 0 0 139.51815972281656 210.86733211418232 0 210.86733211418232 28.625638840194824 0 0 0 0 213.25859908651 208.63255494532859 0 208.63255494532859 -16.240966236792701 0 0 0 0 0.28981466697543823 0.76098716512355224 0 0.76098716512355224 0.10572407485220836 0 0 0 0 432.1832080496788 185.37439420859027 0 185.37439420859027 21.115747077280759 0 0 0 0 219.40937178412241 263.46886270920459 0 263.46886270920459 233.98059769173051 0 0 0 0 554.69884859572539 349.59202100478933 0 349.59202100478933 251.50308183809466 0 0 0 0 0.62249247657742046 0.91091744862140445 0 0.91091744862140445 -0.1120173381983065 0 0 0 0 -0.0074140382880798121 394.98748111721852 0 394.98748111721852 352.1209696244623 0 0 0 0 286.57827401793838 256.87656532044093 0 256.87656532044093 0.25071886108643304 0 0 0 0 23.620074216221838 2.6500159104944032 0 2.6500159104944032 1.7194572377920849 0 0 0 0 -5.4462531554809175 16.948948866929641 0 16.948948866929641 -0.019254902807006147 0 0 0 0 899.73139265088685 242.21553172693348 0 242.21553172693348 41.436354199209745 0 0 0 0 -41.396739106865425 4.7143017175603745 0 4.7143017175603745 15.021449367066452 0 0 0 0 0.77445554972630681 0.76079835181931088 0 0.76079835181931088 1.6952709061953826 0 0 0 0 518.11315125755664 474.80633740439907 0 474.80633740439907 2.7788240652262175 0 0 0 0 410.98785163162165 99.901265009379813 0 99.901265009379813 51.981086546038568 0 0 0 0 -13.772296442448351 16.523024074303066 0 16.523024074303066 9.068528487585354 0 0 0 0 401.28776380337877 119.30955052004538 0 119.30955052004538 21.677052942475711 0 0 0 0 0.44897651113090631 3.4132831653651792 0 3.4132831653651792 5.1402608967320731 0 0 0 0 9.9146941006374618 29.574237896907107 0 29.574237896907107 7.4970090593487839 0 0 0 0 -8.328295403303855 13.756328659710562 0 13.756328659710562 0.76455120268110477 0 0 0 0 -9.6488553284489171 16.129075552714085 0 16.129075552714085 25.51707578780406 0 0 0 0 13.583084827900166 11.293487911638294 0 11.293487911638294 -8.329940546956891 0 0 0 0 -1.9596024681522977 17.698851487205502 0 17.698851487205502 -3.7520258026215743 0 0 0 0 5.1637874717902079 8.8897242618100414 0 8.8897242618100414 0.5120277141810532 0 0 0 0 401.64644930592476 130.13075078631391 0 130.13075078631391 45.813236930851417 0 0 0 0 0.13276710101919775 1.4938154024617347 0 1.4938154024617347 -0.22815363655792487 0 0 0 0 322.46218562851209 -29.220668795281199 0 -29.220668795281199 -73.945317259480362 0 0 0 0 20.781194507168209 11.827399493116559 0 11.827399493116559 -15.127303951116119 0 0 0 0 89.021593349922114 68.29627025206446 0 68.29627025206446 -0.36347855142594199 0 0 0 0 1.3513162470654836 1.6067794931201149 0 1.6067794931201149 -7.2040664782454726 0 0 0 0 11.425817272593122 7.8863894631931544 0 7.8863894631931544 -3.4770949218500391 0 0 0 0 9.4818134484621623 2.1114641340116123 0 2.1114641340116123 -19.556246430458486 0 0 0 0 8.8895901895339193 18.71775991954928 0 18.71775991954928 -20.070171275274333 0 0 0 0 -15.949124880005911 13.246542211188171 0 13.246542211188171 15.121759813817334 0 0 0 0 12.460698777944344 28.096410794090843 0 28.096410794090843 -25.598830250121409 0 0 0 0 -1.3456883287126402 23.69526233765373 0 23.69526233765373 33.870728733571013 0 0 0 0 2.4320166657926165 -17.967033236629504 0 -17.967033236629504 -36.117217120829537 0 0 0 0 2.78498340585611 16.273947870700795 0 16.273947870700795 44.131898872821694 0 0 0 0 19.875456560990642 24.730803652820214 0 24.730803652820214 -1.7829715968200617 0 0 0 0 -5.7046496193033818 7.5896867688161365 0 7.5896867688161365 1.3522846942205433 0 0 0 0 4.8340034172743742 6.0448751457865164 0 6.0448751457865164 1.0158947039110786 0 0 0 0 2.5554013291493902 5.6419983233354287 0 5.6419983233354287 -0.57681191185656644 0 0 0 0 27.893735309296972 8.7980148954266042 0 8.7980148954266042 -32.792207914288156 0 0 0 0 -5.8013712577558181 4.3069694463065389 0 4.3069694463065389 -7.6555253815204196 0 0 0 0 3.6361091564576071 7.6376947550975096 0 7.6376947550975096 -0.49838587239422338 0 0 0 0 20.848262508163316 10.644636864348286 0 10.644636864348286 -20.879824517709721 0 0 0 0 -5.4243653624162107 12.402247971528141 0 12.402247971528141 11.275143665028736 0 0 0 0 5.2026264333339896 8.6120465303339202 0 8.6120465303339202 -0.61119277444253717 0 0 0 0 26.964487198363713 7.4285169528611732 0 7.4285169528611732 -19.197443436666617 0 0 0 0 0.71651066538135666 1.6149962758295828 0 1.6149962758295828 2.1310975986219809 0 0 0 0 14.898790500672476 -0.87605262017495988 0 -0.87605262017495988 -7.9484948242678684 0 0 0 0 -0.50569645217233727 1.196837834777547 0 1.196837834777547 -0.94599878677204075 0 0 0 0 0.65416018069481652 12.050444345084543 0 12.050444345084543 18.022445632963354 0 0 0 0 -3.9783982533720064 2.1845576003356655 0 2.1845576003356655 12.231975370887085 0 0 0 0 8.8863365175702711 9.5784565598441986 0 9.5784565598441986 0.035349589639736223 0 0 0 0 20.521197687523454 20.99985027976345 0 20.99985027976345 11.218731055385888 0 0 0 0 -125.82601524624624 109.88247255277565 0 109.88247255277565 -55.75435541646948 0 0 0 0 -2.4552478731972904 1.253891604420506 0 1.253891604420506 -0.89604075399985206 0 0 0 0 -377.42447460786934 -85.18535844541293 0 -85.18535844541293 2.9800404475039386 0 0 0 0 9.0901617910358254 4.8956730840213822 0 4.8956730840213822 12.665103611459926 0 0 0 0 9.7848889841607161 0.54128949212281441 0 0.54128949212281441 -0.081994728404413617 0 0 0 0 -4.9609840361856143 4.5970451076392536 0 4.5970451076392536 -2.3704493679488152 0 0 0 0 -137.28729720973934 -45.365672109109255 0 -45.365672109109255 -0.85662480106657313 0 0 0 0 -3.8228165247164725 14.25248731460124 0 14.25248731460124 -18.806840086224838 0 0 0 0 -0.11619824323621941 1.6312089718468137 0 1.6312089718468137 1.8817757606553531 0 0 0 0 -94.313828062777546 59.537379317930416 0 59.537379317930416 17.035118476353091 0 0 0 0 -94.601930585954364 42.897072341812581 0 42.897072341812581 -11.928868130693445 0 0 0 0 -6.6851265555160353 17.092373128500185 0 17.092373128500185 0.07588611318533367 0 0 0 0 6.1041717876933284 4.5378824152192418 0 4.5378824152192418 -1.583725289038739 0 0 0 0 19.540247580083815 49.197473186255593 0 49.197473186255593 78.433253092637642 0 0 0 0 -3.4698456583191728 -10.660770102600509 0 -10.660770102600509 28.110530142609605 0 0 0 0 31.332957912272832 -21.027275189075226 0 -21.027275189075226 69.765569509166198 0 0 0 0 25.196974236531332 46.154620362776541 0 46.154620362776541 39.592878455845494 0 0 0 0 -84.198028317112403 70.491817723195709 0 70.491817723195709 -21.179206447371939 0 0 0 0 7.917871868521317 6.3834769666637801 0 6.3834769666637801 3.8648860047614697 0 0 0 0 -1.8530735772660591 113.36142808561385 0 113.36142808561385 191.48056926565005 0 0 0 0 10.093997600682997 76.284227924837069 0 76.284227924837069 221.85889639142806 0 0 0 0 29.116852584493245 151.85920808080846 0 151.85920808080846 230.66001036672515 0 0 0 0 42.008637124001325 107.87656680788132 0 107.87656680788132 151.74018816013267 0 0 0 0 26.432869248390489 109.56033003869197 0 109.56033003869197 190.44598580359661 0 0 0 0 22.667990334408387 94.648156115077654 0 94.648156115077654 165.70749391385743 0 0 0 0 3.5565059422606282 33.795492217923652 0 33.795492217923652 100.69211307860314 0 0 0 0 14.364019245720556 62.481964039327067 0 62.481964039327067 85.194032586543472 0 0 0 0 13.515678427966009 32.79339278808628 0 32.79339278808628 28.385380900966993 0 0 0 0 12.632756865360989 54.864441550538459 0 54.864441550538459 94.422624861485019 0 0 0 0 17.872301765786688 25.346920227810187 0 25.346920227810187 6.7622981770487058 0 0 0 0 12.677511030356982 63.542031288339786 0 63.542031288339786 75.544038464639016 0 0 0 0 27.629412096794113 70.435854420575197 0 70.435854420575197 35.123587325584595 0 0 0 0 28.356492896383827 98.901027055065327 0 98.901027055065327 117.62847110270013 0 0 0 0 32.782375866576331 130.54722231834785 0 130.54722231834785 100.5406190863041 0 0 0 0 22.296794425366897 102.04395519985792 0 102.04395519985792 135.59222390257128 0 0 0 0 36.44339628666512 94.142798972894525 0 94.142798972894525 139.96422556872858 0 0 0 0 24.212137148650072 68.728312568641741 0 68.728312568641741 70.804503230539012 0 0 0 0 45.870890306909132 134.92346035757873 0 134.92346035757873 159.24348871765869 0 0 0 0 23.812161682619262 121.99555134569346 0 121.99555134569346 184.15926930795104 0 0 0 0 17.095180833970517 163.73749107027106 0 163.73749107027106 203.04757550341674 0 0 0 0 33.414316026638573 132.50081055858664 0 132.50081055858664 240.97465826267216 0 0 0 0 38.337534836980922 157.92385240697786 0 157.92385240697786 68.41362098935997 0 0 0 0 22.663065430475399 158.6503077705529 0 158.6503077705529 174.48092540208563 0 0 0 0 13.409761625083775 149.3905829262676 0 149.3905829262676 183.69377370425445 0 0 0 0 -0.73424483987582789 192.48676316232741 0 192.48676316232741 242.37302459972307 0 0 0 0 1.4111023538207519 195.19490032853491 0 195.19490032853491 228.18691192907863 0 0 0 0 -21.466853409692703 174.06054559317727 0 174.06054559317727 291.07743285506876 0 0 0 0 -61.654520690986828 179.21190615926571 0 179.21190615926571 297.25412492020405 0 0 0 0 -16.107591388372839 196.09474120541336 0 196.09474120541336 346.90562803440844 0 0 0 0 30.602183134704319 113.66020697022486 0 113.66020697022486 282.80961747065339 0 0 0 0 -27.553796401927684 159.2297112073993 0 159.2297112073993 263.05415928027378 0 0 0 0 93.135128195157449 205.5713386949601 0 205.5713386949601 267.3727300853443 0 0 0 0 117.84024060386037 143.25432983716473 0 143.25432983716473 231.60899892853558 0 0 0 0 -24.162052988462165 228.5654762428394 0 228.5654762428394 335.4705967914233 0 0 0 0 -3.1123949962812745 2.8335071811604848 0 2.8335071811604848 -1.1437734194097899 0 0 0 0 96.161570803882114 220.93366279995018 0 220.93366279995018 -62.752676034295291 0 0 0 0 57.536605892615626 164.74368957860861 0 164.74368957860861 263.32969826580666 0 0 0 0 106.14611542413149 160.39066910507518 0 160.39066910507518 210.9752312629862 0 0 0 0 73.82239001279595 139.18353519846823 0 139.18353519846823 204.11580727926412 0 0 0 0 33.696258574116655 149.00280773039594 0 149.00280773039594 206.48585274125389 0 0 0 0 34.385075364701493 156.83128586031702 0 156.83128586031702 238.22924231886282 0 0 0 0 16.222952358372595 173.70258321191238 0 173.70258321191238 240.40481286195063 0 0 0 0 105.5057788968343 179.01059881790107 0 179.01059881790107 147.60434906347473 0 0 0 0 18.830453865331947 149.18239553228796 0 149.18239553228796 256.7365769073449 0 0 0 0 -1.2514018517140784 1.3217484593465798 0 1.3217484593465798 -0.40873686259836362 0 0 0 0 78.259595851008271 119.6385806070798 0 119.6385806070798 211.04371655660816 0 0 0 0 46.636228503872189 186.39882570126974 0 186.39882570126974 198.46418285242567 0 0 0 0 110.28034941485748 207.54319051892253 0 207.54319051892253 162.07105955990846 0 0 0 0 59.920668397860936 217.8972302619286 0 217.8972302619286 271.55366344452341 0 0 0 0 256.78940790258639 214.29557202647084 0 214.29557202647084 76.912776928387757 0 0 0 0 144.456432621766 199.09682658373276 0 199.09682658373276 89.530067868564402 0 0 0 0 123.72704104853256 221.66695916682693 0 221.66695916682693 266.14576682964434 0 0 0 0 119.2929348765083 255.01864669961378 0 255.01864669961378 272.69653862334235 0 0 0 0 111.79373200814371 174.80372933087892 0 174.80372933087892 468.30803047260997 0 0 0 0 140.49371040012738 317.87540572246689 0 317.87540572246689 525.11189138615737 0 0 0 0 73.380231938488578 68.684375466018537 0 68.684375466018537 293.64497859146832 0 0 0 0 127.08676725003261 52.237511988468668 0 52.237511988468668 586.22176091025904 0 0 0 0 66.768967854288348 87.758337223740455 0 87.758337223740455 602.78029045418225 0 0 0 0 86.325191736763372 -59.179638147068999 0 -59.179638147068999 413.72610932642783 0 0 0 0 36.707081380154705 179.57039180853553 0 179.57039180853553 223.75671281231007 0 0 0 0 50.51578250464263 193.16381771404758 0 193.16381771404758 391.20031128332448 0 0 0 0 50.544481112843641 158.9132648857485 0 158.9132648857485 253.20979648692401 0 0 0 0 90.621005685294222 39.340861035196212 0 39.340861035196212 167.210718977954 0 0 0 0 103.64966738161638 -11.352284099721601 0 -11.352284099721601 354.74805167719387 0 0 0 0 142.04335112171066 -90.981320151589898 0 -90.981320151589898 234.09200456802137 0 0 0 0 97.646234604566416 -19.972483859015483 0 -19.972483859015483 347.2278289354399 0 0 0 0 119.54225355833842 97.24993327096854 0 97.24993327096854 -39.380544421485865 0 0 0 0 21.696111401031885 9.0609352923765982 0 9.0609352923765982 238.0012898035784 0 0 0 0 119.72717744061993 106.57701055572852 0 106.57701055572852 380.95103424172612 0 0 0 0 118.47904399249592 322.61987457674013 0 322.61987457674013 433.23921408125898 0 0 0 0 207.19185499173818 -33.152241866249824 0 -33.152241866249824 212.28475188213633 0 0 0 0 104.98583831524411 242.28122310654453 0 242.28122310654453 200.45250670256974 0 0 0 0 2.7699734731532928 2.4725631364650278 0 2.4725631364650278 2.2696906244197592 0 0 0 0 -23.447856295226302 32.713434746448911 0 32.713434746448911 588.07452823130643 0 0 0 0 -13.177468724508799 -21.60878385257729 0 -21.60878385257729 289.40774353594361 0 0 0 0 24.744768510080121 197.38995078131984 0 197.38995078131984 410.54020634537665 0 0 0 0 -31.241218516524896 59.778909959164594 0 59.778909959164594 -76.251119169601225 0 0 0 0 284.10136940043276 288.47698862988545 0 288.47698862988545 -38.768702005732848 0 0 0 0 230.30876731897661 119.46224037762295 0 119.46224037762295 -126.90035296625047 0 0 0 0 192.25568365266872 174.08460855463045 0 174.08460855463045 -41.457218907426068 0 0 0 0 -68.99161161887605 174.837382744975 0 174.837382744975 -0.66388434175405564 0 0 0 0 -81.607119721776144 80.688570236024589 0 80.688570236024589 9.2106081281108345 0 0 0 0 -85.084445148620944 80.394387943309994 0 80.394387943309994 42.038629805498203 0 0 0 0 -321.01724086725335 98.304072407692729 0 98.304072407692729 55.282190717629419 0 0 0 0 -111.16226349251883 203.30757815070592 0 203.30757815070592 46.527866597523825 0 0 0 0 117.23248639799658 324.26689628280292 0 324.26689628280292 5.6781265158206224 0 0 0 0 -42.112466243990639 176.69916345276397 0 176.69916345276397 -3.8268003259436227 0 0 0 0 78.564073856300638 193.24119838252 0 193.24119838252 -36.68272593821348 0 0 0 0 -73.523338927458099 320.42484701622107 0 320.42484701622107 -55.995379618856532 0 0 0 0 -480.65055581616616 221.44771835464599 0 221.44771835464599 61.716537722645626 0 0 0 0 -583.83383602008689 93.863859552780923 0 93.863859552780923 -0.22709026027338533 0 0 0 0 1.4194414013852086 1.5934614431500753 0 1.5934614431500753 1.2297037820411774 0 0 0 0 826.75163095409061 101.56254450283905 0 101.56254450283905 -111.67501904547134 0 0 0 0 309.62018860425269 355.63340274826896 0 355.63340274826896 0.096334429664646504 0 0 0 0 325.24529810127024 206.7992227331215 0 206.7992227331215 -95.853786139034128 0 0 0 0 236.38639258453804 142.14165806908568 0 142.14165806908568 -58.302568522532965 0 0 0 0 171.05278225133043 176.32746852768196 0 176.32746852768196 -68.239746346057473 0 0 0 0 221.00972703313255 174.11640469811482 0 174.11640469811482 -83.297621408686609 0 0 0 0 172.58188346272891 203.84211714740627 0 203.84211714740627 -55.699475772073129 0 0 0 0 207.23412158979772 206.94582560899926 0 206.94582560899926 -95.524007827708942 0 0 0 0 -9.5747259860718259 70.94674296795074 0 70.94674296795074 -3.8858288632072799 0 0 0 0 -177.5387640834706 259.1401869636793 0 259.1401869636793 -92.580573687442666 0 0 0 0 2.3773124347948809 4.6583680210460514 0 4.6583680210460514 5.0194709349681901 0 0 0 0 71.453440433691867 40.337637747033568 0 40.337637747033568 -18.799737924097826 0 0 0 0 -5.4170959842504089 126.51815811539655 0 126.51815811539655 -38.181516907845776 0 0 0 0 9.8543939854625933 8.6612410515117517 0 8.6612410515117517 -17.000365436993661 0 0 0 0 2.4350150684013343 4.1047425516616016 0 4.1047425516616016 3.6447857174871814 0 0 0 0 -138.54505652973512 132.79897852557906 0 132.79897852557906 -14.770796868491743 0 0 0 0 27.115460974374855 123.77004982073686 0 123.77004982073686 0.0734114149800007 0 0 0 0 -199.86417764736507 118.64013273645924 0 118.64013273645924 -0.0039203541364258854 0 0 0 0 -76.636392560977583 7.6463584096609338 0 7.6463584096609338 -10.02516262834223 0 0 0 0 0.038038758157826535 0.68701085645851023 0 0.68701085645851023 -0.6072108356983108 0 0 0 0 -161.83089959439758 124.93941146332099 0 124.93941146332099 69.26699778274633 0 0 0 0 310.82342282390982 129.18246298001759 0 129.18246298001759 -0.14818713571032754 0 0 0 0 160.38783138299414 -10.337887647684511 0 -10.337887647684511 -10.936482401855756 0 0 0 0 143.68973712455136 125.46150860935086 0 125.46150860935086 2.9613647173873687 0 0 0 0 64.29352729060497 108.82390227129235 0 108.82390227129235 55.107085028086658 0 0 0 0 -0.10799698703847493 1.7913633353052418 0 1.7913633353052418 -0.85365156603904779 0 0 0 0 273.2645941443152 114.17851976591464 0 114.17851976591464 -59.451782292316238 0 0 0 0 167.74154692300363 60.426595760396594 0 60.426595760396594 57.7685695695709 0 0 0 0 250.851753786259 79.13585191493803 0 79.13585191493803 56.744818847677379 0 0 0 0 176.94298329545927 169.51404310331509 0 169.51404310331509 182.43388608091118 0 0 0 0 99.391811868500554 134.14427804203387 0 134.14427804203387 263.52738535629032 0 0 0 0 44.406019829757497 161.16535881237814 0 161.16535881237814 378.69963948523218 0 0 0 0 66.737113594264883 54.36475951497232 0 54.36475951497232 211.61585947380991 0 0 0 0 39.269794424260908 90.782099728869071 0 90.782099728869071 645.94732446158923 0 0 0 0 28.035619260263047 95.072103842310753 0 95.072103842310753 298.76628711563171 0 0 0 0 429.86071953308056 291.27532659506551 0 291.27532659506551 175.58399790163276 0 0 0 0 -129.38282125579735 181.29037079416935 0 181.29037079416935 191.19214812649079 0 0 0 0 0.058814683965541903 1.00355546781309 0 1.00355546781309 -0.28795688586315293 0 0 0 0 229.58763375211674 61.395391482210471 0 61.395391482210471 -56.666525723462655 0 0 0 0 63.016608419002296 45.731538637425729 0 45.731538637425729 -163.38142654756894 0 0 0 0 -274.08673482470658 -45.86862951475814 0 -45.86862951475814 241.8505977070472 0 0 0 0 183.86472836138455 219.94882587635402 0 219.94882587635402 391.6920447399898 0 0 0 0 51.455041518904181 -104.53743461747945 0 -104.53743461747945 414.15673161536324 0 0 0 0 0.83579006038089432 1.964438354016913 0 1.964438354016913 2.8188934574483966 0 0 0 0 508.47147855713047 193.50204459997258 0 193.50204459997258 -11.133955612704085 0 0 0 0 -405.64416143566496 419.2629514207913 0 419.2629514207913 498.22492839170445 0 0 0 0 348.21296684543086 519.60875686718009 0 519.60875686718009 378.39010608840363 0 0 0 0 76.501365583555526 370.84130993193503 0 370.84130993193503 474.24961651748526 0 0 0 0 267.21900017028111 132.57716104879728 0 132.57716104879728 425.01855951319158 0 0 0 0 20.31215590564716 405.19729495999854 0 405.19729495999854 736.01943627198489 0 0 0 0 29.878715103128343 91.702899999807414 0 91.702899999807414 510.91076873981365 0 0 0 0 -98.889219615113689 108.41659553364116 0 108.41659553364116 574.30068475180451 0 0 0 0 50.38220531747902 122.40560263623047 0 122.40560263623047 460.60790561469184 0 0 0 0 -10.56888221511781 -42.503405413070141 0 -42.503405413070141 264.49839624900414 0 0 0 0 332.40713918818983 -189.95008748873624 0 -189.95008748873624 1190.2837812840735 0 0 0 0 279.04909436590242 -8.5257618419454957 0 -8.5257618419454957 592.3407074747447 0 0 0 0 97.706568414254434 129.21354468573918 0 129.21354468573918 537.72997573127759 0 0 0 0 753.11308757455481 372.47087562242814 0 372.47087562242814 617.9548903224204 0 0 0 0 1.3855854511002015 2.8064049099510937 0 2.8064049099510937 3.6756245651393726 0 0 0 0 726.84313591633145 334.80780177269571 0 334.80780177269571 171.5685468028787 0 0 0 0 -69.000511298905622 -52.429973809141302 0 -52.429973809141302 720.56419282822935 0 0 0 0 37.295220256253742 356.94515770763974 0 356.94515770763974 1011.4095172939851 0 0 0 0 260.8929146976152 694.54427415499231 0 694.54427415499231 1184.9324780264942 0 0 0 0 368.09872447891394 469.01515859569918 0 469.01515859569918 523.41118319491216 0 0 0 0 116.87589092317648 264.26599598298162 0 264.26599598298162 978.31001604349149 0 0 0 0 227.97775103552704 353.93472468331311 0 353.93472468331311 540.91558037360755 0 0 0 0 483.59979889370879 360.81662750683972 0 360.81662750683972 140.35660438656669 0 0 0 0 261.19027851680585 262.64933960620874 0 262.64933960620874 216.33161807700526 0 0 0 0 210.24864442228773 144.97470802324233 0 144.97470802324233 68.810206055179151 0 0 0 0 171.91729591214607 -4.7630240979215159 0 -4.7630240979215159 -7.7412081840193423 0 0 0 0 529.94448378731158 166.41447524743853 0 166.41447524743853 68.026846942488191 0 0 0 0 -1.3070713586752021 -0.3652877405765258 0 -0.3652877405765258 0.58860182657466709 0 0 0 0 -9.9933036797810928 -19.184430830860947 0 -19.184430830860947 -1.7829557529880731 0 0 0 0 8.562133501010976 -9.9259364222452859 0 -9.9259364222452859 -6.9398013649479253 0 0 0 0 0.029889707969758206 1.1375805629108342 0 1.1375805629108342 -0.73656189497314273 0 0 0 0 115.31448195385019 104.3462092962709 0 104.3462092962709 72.45925870998326 0 0 0 0 217.36561684841035 99.031242906117768 0 99.031242906117768 39.586586805013212 0 0 0 0 183.20069980976768 139.15575524581072 0 139.15575524581072 89.094348885628278 0 0 0 0 53.346396056440426 66.03535201788327 0 66.03535201788327 127.0026777610874 0 0 0 0 6.5681101691961885 -179.7509553304094 0 -179.7509553304094 56.143368233148067 0 0 0 0 -0.92406047095205324 4.7769926472872282 0 4.7769926472872282 5.8873747521738622 0 0 0 0 -6.2180859344589408 9.236348210793949 0 9.236348210793949 -2.8442318772504223 0 0 0 0 -28.749775564757329 5.2338960366428182 0 5.2338960366428182 7.4768675036866625 0 0 0 0 -0.29229797485641029 138.83302089625977 0 138.83302089625977 -73.958525784089943 0 0 0 0 2.0418740803792943 4.0484101562507933 0 4.0484101562507933 0.95706407844140529 0 0 0 0 -73.45913983594437 4.0856563314973755 0 4.0856563314973755 97.251102204858398 0 0 0 0 -5.321638622230239 -70.171481731471431 0 -70.171481731471431 47.791661450249876 0 0 0 0 82.484526798300976 -13.386909600229956 0 -13.386909600229956 -55.208283513771676 0 0 0 0 62.370848482070869 -50.88684366252528 0 -50.88684366252528 48.719524455153646 0 0 0 0 -17.414538479159091 -54.389814915337411 0 -54.389814915337411 86.504202228778013 0 0 0 0 37.921597219074101 -14.766181135752049 0 -14.766181135752049 111.22579135359592 0 0 0 0 -63.876981168405109 49.848628713660219 0 49.848628713660219 77.338022916650516 0 0 0 0 -34.247438276373941 16.234386647060091 0 16.234386647060091 213.8741144706255 0 0 0 0 30.965248551858167 44.603581315092015 0 44.603581315092015 197.92500572412973 0 0 0 0 -5.9532491233803739 6.242467516574834 0 6.242467516574834 211.32763086078785 0 0 0 0 12.488824529402336 40.390782265974849 0 40.390782265974849 252.32817537759502 0 0 0 0 33.717173144958451 94.546833946827519 0 94.546833946827519 293.39837348014407 0 0 0 0 36.190859763784374 149.92327770523207 0 149.92327770523207 478.57912682602182 0 0 0 0 38.9936899854697 32.15953011090096 0 32.15953011090096 186.11237929361596 0 0 0 0 48.73270399672947 -47.158241670560528 0 -47.158241670560528 305.7436333927526 0 0 0 0 12.82759866098877 -23.077137873899119 0 -23.077137873899119 226.86711819707125 0 0 0 0 -3.4895390549172589 9.368937503093548 0 9.368937503093548 -0.02620751334814031 0 0 0 0 -0.55274663527779921 5.6897427570556829 0 5.6897427570556829 0.55581191882822623 0 0 0 0 86.041109562505881 49.604238745348994 0 49.604238745348994 -31.872921412987125 0 0 0 0 -11.823646953903847 59.554820375659006 0 59.554820375659006 -18.716603094257152 0 0 0 0 -56.326408880732288 -2.9747176840751308 0 -2.9747176840751308 78.803459354247025 0 0 0 0 -11.919207939145053 -53.043997163476888 0 -53.043997163476888 40.482073166875125 0 0 0 0 -29.921581180734847 -19.03950321305274 0 -19.03950321305274 -20.787267291605531 0 0 0 0 -58.891457683840372 15.413151900951448 0 15.413151900951448 8.2542249532216374 0 0 0 0 -2.0409506947819622 4.9838242152562025 0 4.9838242152562025 0.63426103301988412 0 0 0 0 2.6123323011524882 3.6433103946651846 0 3.6433103946651846 2.5824945815437488 0 0 0 0 2.0982955084359567 4.3471300089972349 0 4.3471300089972349 3.6894402464884024 0 0 0 0 -3.5894730270902073 9.012270030363652 0 9.012270030363652 -1.2061741836296278 0 0 0 0 -2.8643337618032092 18.622088542825622 0 18.622088542825622 -2.8184030525953858 0 0 0 0 -2.5579462178440622 7.8166945783317416 0 7.8166945783317416 8.6749388532843632 0 0 0 0 -3.3067935434773972 4.4354896998311233 0 4.4354896998311233 -0.8849474428193389 0 0 0 0 -2.5490300807845401 3.1805627820167039 0 3.1805627820167039 1.0255278108232653 0 0 0 0 0.10812306417646322 0.71567568450104524 0 0.71567568450104524 -3.8685110112644807 0 0 0 0 -39.21946091706468 21.870818375293311 0 21.870818375293311 -15.121308776500427 0 0 0 0 170.89966173315588 67.448852110300322 0 67.448852110300322 23.346869163447991 0 0 0 0 -0.14117760437193994 0.14983494460209812 0 0.14983494460209812 -0.83789054660249729 0 0 0 0 -7.1465015827852767 8.9133585937834141 0 8.9133585937834141 4.487361333311128 0 0 0 0 28.502193219608671 90.88026686614694 0 90.88026686614694 6.9728312248662405 0 0 0 0 15.059672886977296 9.9086479527545634 0 9.9086479527545634 -7.8886630709421297 0 0 0 0 -3.0275571865204256 1.6381325488491711 0 1.6381325488491711 -1.1977090979494278 0 0 0 0 3.4504972385038855 16.419566680395292 0 16.419566680395292 -7.0335270028795094 0 0 0 0 46.949032021810126 12.086195311049778 0 12.086195311049778 -12.642596560443963 0 0 0 0 0.11679059677113823 0.33125838307217315 0 0.33125838307217315 -2.1269191392515836 0 0 0 0 -108.5120931731949 48.365320862382873 0 48.365320862382873 0.3187686093388038 0 0 0 0 -2.3826076099012425 21.870591228437661 0 21.870591228437661 5.0296190275093977 0 0 0 0 70.572545145891127 -18.776131739791708 0 -18.776131739791708 -35.857900693040392 0 0 0 0 -28.939008699640908 27.343652088666204 0 27.343652088666204 -15.462166914130648 0 0 0 0 -7.3120245208492634 11.450391795453015 0 11.450391795453015 -8.7602375381175079 0 0 0 0 2.4688151984736209 3.1438148643487489 0 3.1438148643487489 4.042745550903156 0 0 0 0 -17.483717146596973 30.469849509888491 0 30.469849509888491 0.96442664967435121 0 0 0 0 -0.50547887983248074 6.3696327483567075 0 6.3696327483567075 1.3233651849841408 0 0 0 0 3.509145364866594 3.4389209660713798 0 3.4389209660713798 3.5856961592526879 0 0 0 0 -36.422491215822447 12.435298450076516 0 12.435298450076516 0.025937840709957527 0 0 0 0 2.1255293340454955 4.3229650004022915 0 4.3229650004022915 1.6332488728027101 0 0 0 0 2.3596889719716181 3.020983995201096 0 3.020983995201096 2.9992595745915125 0 0 0 0 0.096591468511768142 1.0359117660847055 0 1.0359117660847055 0.20001163375396835 0 0 0 0 -32.767262813398702 41.517536444256621 0 41.517536444256621 -50.691492393387307 0 0 0 0 -32.51569851065392 39.183056775835666 0 39.183056775835666 -65.862434637616388 0 0 0 0 -39.519918868667446 49.344875762270021 0 49.344875762270021 -59.751310404593823 0 0 0 0 -1.0613476294493012 9.2111285601267809 0 9.2111285601267809 -37.778062244945431 0 0 0 0 17.950072068361351 34.671880622380058 0 34.671880622380058 -89.192227650715722 0 0 0 0 -5.7828206216786384 55.915792032069248 0 55.915792032069248 -88.743596661108313 0 0 0 0 -0.8795850692958993 44.583943874226179 0 44.583943874226179 -77.345781909232755 0 0 0 0 -19.684191598209509 52.795484896756534 0 52.795484896756534 -62.643382097223366 0 0 0 0 -34.85541195798578 59.723129116681321 0 59.723129116681321 -61.565561128711124 0 0 0 0 -19.448082149949187 40.070211180665865 0 40.070211180665865 -65.893005545976223 0 0 0 0 -45.280353021018982 59.37951658096722 0 59.37951658096722 -61.5658112173478 0 0 0 0 -10.633179841948731 74.953360400036217 0 74.953360400036217 -60.834379091877054 0 0 0 0 -19.363994171299055 37.363271943007021 0 37.363271943007021 -31.27637702726679 0 0 0 0 2.0407039461824752 51.565764860209129 0 51.565764860209129 -80.018487950419058 0 0 0 0 0.084288982375760213 0.40368398487583335 0 0.40368398487583335 0.044869279234848847 0 0 0 0 -7.8077490103114542 46.747100319908895 0 46.747100319908895 -75.190135788685438 0 0 0 0 5.1299017688997992 29.637228760553626 0 29.637228760553626 7.3539052272308254 0 0 0 0 14.180518421236229 22.737826525401033 0 22.737826525401033 12.603599277712419 0 0 0 0 12.840287866371909 37.704262638228101 0 37.704262638228101 -47.326591597713559 0 0 0 0 -8.6618073716281287 38.008151579312653 0 38.008151579312653 -18.836824175754373 0 0 0 0 12.562291865402585 15.023952658526468 0 15.023952658526468 14.998647173284979 0 0 0 0 -11.186327508914474 10.92915859360437 0 10.92915859360437 15.144665303697792 0 0 0 0 6.6340914230613635 25.35810948844437 0 25.35810948844437 -40.516754520402174 0 0 0 0 0.46593299706346158 0.50837796687842385 0 0.50837796687842385 0.044300057886283994 0 0 0 0 -3.1074065346056159 4.9937128025403581 0 4.9937128025403581 -68.525702740624183 0 0 0 0 -26.067799745822413 54.245846875442567 0 54.245846875442567 -75.032582295643806 0 0 0 0 -38.529712829318669 6.920432830847858 0 6.920432830847858 -30.501134705662707 0 0 0 0 -0.027526653037479143 0.062434850431285938 0 0.062434850431285938 -0.70842072311219084 0 0 0 0 -128.86970512140783 90.486865721770073 0 90.486865721770073 -84.273141928097175 0 0 0 0 -53.815064030680333 7.9394544843585209 0 7.9394544843585209 -14.771709549815569 0 0 0 0 17.983526783482375 11.507134990157283 0 11.507134990157283 -78.783204059674972 0 0 0 0 9.9694503786845416 14.929063569871232 0 14.929063569871232 -13.613485240635782 0 0 0 0 70.913393409298806 31.552060368116145 0 31.552060368116145 -39.769183933429304 0 0 0 0 -2.840893802517968 -7.025117154605482 0 -7.025117154605482 -41.826907268050491 0 0 0 0 0.86029289868158543 0.41242721760575307 0 0.41242721760575307 -0.029093977468932941 0 0 0 0 21.0266170984778 27.522405052376598 0 27.522405052376598 -84.487186293237073 0 0 0 0 -14.678881674648437 5.6834907554866732 0 5.6834907554866732 -12.476937299888959 0 0 0 0 2.0909299063268918 34.932064073443598 0 34.932064073443598 -11.419674037395453 0 0 0 0 1.8240781138720195 5.154707413414144 0 5.154707413414144 6.9197598648565872 0 0 0 0 6.2714596855003037 40.760453622530804 0 40.760453622530804 9.3066635968589253 0 0 0 0 60.732446484214961 22.911210421382748 0 22.911210421382748 -34.170643714089238 0 0 0 0 100.03410991610872 -19.342034229428464 0 -19.342034229428464 -82.603369783940252 0 0 0 0 108.15126725011578 -0.57522423874547712 0 -0.57522423874547712 -45.640356879061073 0 0 0 0 47.875714265661372 31.71656176075976 0 31.71656176075976 -30.341237253855525 0 0 0 0 52.54199064525892 7.8872375272712816 0 7.8872375272712816 -19.573920064071899 0 0 0 0 109.35291832332723 19.027467019726146 0 19.027467019726146 -33.62658752425159 0 0 0 0 68.340530666231643 58.776150859966947 0 58.776150859966947 -38.617960564493387 0 0 0 0 0.50405010381232529 0.21875867771637658 0 0.21875867771637658 -0.048492643068122732 0 0 0 0 111.93073769601506 23.088254714140021 0 23.088254714140021 -39.351932137562471 0 0 0 0 104.83820589583411 30.420395369797006 0 30.420395369797006 -41.499084343655795 0 0 0 0 106.64876568760155 24.463544390334391 0 24.463544390334391 -34.099945010828378 0 0 0 0 93.932005890069377 11.60242234063935 0 11.60242234063935 -2.1790976316533488 0 0 0 0 97.043315361081568 55.966350214970134 0 55.966350214970134 53.111502824125637 0 0 0 0 98.194179661964881 8.9820042634619313 0 8.9820042634619313 131.8263674499176 0 0 0 0 51.06918947194572 67.723915881587345 0 67.723915881587345 92.628741721352526 0 0 0 0 66.851169851518534 34.357837687745359 0 34.357837687745359 10.290623286168739 0 0 0 0 92.243219385292718 26.56343007906645 0 26.56343007906645 11.896597763323371 0 0 0 0 -4.2305171719999635 37.566877986749205 0 37.566877986749205 12.837256988919762 0 0 0 0 5.2591426120234246 25.299777844164055 0 25.299777844164055 -37.368921706241053 0 0 0 0 21.146648248872225 83.842637305237986 0 83.842637305237986 48.901340459301537 0 0 0 0 63.682563766884414 47.562237395060038 0 47.562237395060038 -7.4850120103001245 0 0 0 0 67.833522150104614 129.6764070272452 0 129.6764070272452 128.4864859236277 0 0 0 0 71.960365143961099 90.645477308577938 0 90.645477308577938 30.120722022820701 0 0 0 0 22.313616601346439 24.457791817990255 0 24.457791817990255 -27.696194457315869 0 0 0 0 39.240398360759173 71.949716596237067 0 71.949716596237067 37.551872182622901 0 0 0 0 80.249449984689818 140.53837205771924 0 140.53837205771924 82.621419055030856 0 0 0 0 98.618545044566417 198.4525509410123 0 198.4525509410123 162.64496667185097 0 0 0 0 154.88569350130274 143.59553441962453 0 143.59553441962453 0.82528356294824334 0 0 0 0 70.053814135657376 175.9005778979581 0 175.9005778979581 196.35589799432614 0 0 0 0 79.634764647295015 144.31818926527922 0 144.31818926527922 79.331238545441011 0 0 0 0 69.935366216333932 138.32358213853877 0 138.32358213853877 123.27964969577079 0 0 0 0 69.813984336826252 143.98148468421823 0 143.98148468421823 178.62141152433924 0 0 0 0 142.37065134677687 157.86083632770988 0 157.86083632770988 200.7164825434902 0 0 0 0 90.83720041468132 91.367091479879491 0 91.367091479879491 142.19089445623104 0 0 0 0 90.695956472685793 104.87370732718773 0 104.87370732718773 73.495722473435308 0 0 0 0 -76.834364675300094 29.931423365948831 0 29.931423365948831 345.00505503730528 0 0 0 0 54.041996573805591 -4.33429724906091 0 -4.33429724906091 501.63444484222236 0 0 0 0 58.363412152139347 129.83339295081277 0 129.83339295081277 416.10137272019165 0 0 0 0 120.14215283058911 137.6234656868628 0 137.6234656868628 257.48377887208517 0 0 0 0 76.518359431393037 173.81618764736777 0 173.81618764736777 541.91081509868673 0 0 0 0 0.15366351098561637 1.7223859059417208 0 1.7223859059417208 0.063041692320711107 0 0 0 0 210.60963528169123 -19.312023817782574 0 -19.312023817782574 -394.45491462744212 0 0 0 0 -20.716075714499311 89.489936736510572 0 89.489936736510572 707.01256911986457 0 0 0 0 -1.6426926276271843 -178.39049598711335 0 -178.39049598711335 -12.430771368343812 0 0 0 0 -49.573399324028287 118.9739039069791 0 118.9739039069791 282.60615045807754 0 0 0 0 -0.8497460792411502 4.4911651811888973 0 4.4911651811888973 0.028957948536692424 0 0 0 0 -1.3417733194239929 1.8575586128502835 0 1.8575586128502835 -1.0856578919161137 0 0 0 0 111.16430763870926 239.80326656197508 0 239.80326656197508 -35.028989438716962 0 0 0 0 125.55897347730934 157.80258800072988 0 157.80258800072988 77.960146393932519 0 0 0 0 -340.27565268271792 -68.405131857555716 0 -68.405131857555716 302.62144628354145 0 0 0 0 1.313347783703648 -31.529297853045136 0 -31.529297853045136 306.41810230668943 0 0 0 0 -1.4673262944785037 4.9889639524933074 0 4.9889639524933074 -0.42326584680310386 0 0 0 0 -114.36657592254051 160.37040544296724 0 160.37040544296724 323.4906400068212 0 0 0 0 -104.60300802014899 201.45036307143164 0 201.45036307143164 336.96063854178283 0 0 0 0 -23.059389815029135 218.44241079013727 0 218.44241079013727 310.76921826435137 0 0 0 0 -10.895261203349946 221.82111049637842 0 221.82111049637842 289.31709299442809 0 0 0 0 -316.07690762396669 172.27272609627107 0 172.27272609627107 349.44344095078304 0 0 0 0 231.9416398724461 128.24426035708711 0 128.24426035708711 207.08808850037985 0 0 0 0 -6.8144929623340431 110.27714814854517 0 110.27714814854517 354.63620595603425 0 0 0 0 -205.41070687727552 194.35819047868426 0 194.35819047868426 343.78083969467707 0 0 0 0 -135.73464817928107 82.637907094378534 0 82.637907094378534 573.66259733836137 0 0 0 0 -65.073139394971804 97.76735972071674 0 97.76735972071674 297.92905791651174 0 0 0 0 -143.36294983892367 18.860896301110188 0 18.860896301110188 467.60235663109404 0 0 0 0 -160.54369693086483 -18.002717448423937 0 -18.002717448423937 469.71258734148068 0 0 0 0 -17.107783629255209 93.560671797422401 0 93.560671797422401 7.0373208865266861 0 0 0 0 -248.77344413733408 -47.814011167999524 0 -47.814011167999524 183.65629689625348 0 0 0 0 -569.790724878334 -123.55476854926019 0 -123.55476854926019 139.92474498739466 0 0 0 0 -0.27906035724732803 1.0594544474529712 0 1.0594544474529712 3.2578144379773804 0 0 0 0 -335.35453962497741 54.422723929303174 0 54.422723929303174 47.054249024777164 0 0 0 0 -156.44782597666261 108.42324114290136 0 108.42324114290136 -34.767886920433739 0 0 0 0 -156.90353888661411 78.658705529425788 0 78.658705529425788 51.063556419231645 0 0 0 0 79.600410622522759 83.876196876981339 0 83.876196876981339 6.6711657053283488 0 0 0 0 -24.264486241811028 81.218904521330842 0 81.218904521330842 23.564501241961807 0 0 0 0 -25.603714259303388 57.198964018100128 0 57.198964018100128 114.94083660727483 0 0 0 0 55.185239927244766 46.848992417359341 0 46.848992417359341 218.61389813554706 0 0 0 0 84.310926993166504 96.126095532074942 0 96.126095532074942 127.87669288768484 0 0 0 0 150.73157987729064 74.244516844739337 0 74.244516844739337 75.332642886913163 0 0 0 0 83.270037002946992 66.428407355814215 0 66.428407355814215 2.2451160489772519 0 0 0 0 64.174436648759865 32.749063851298274 0 32.749063851298274 57.516245373797574 0 0 0 0 59.536666379775852 43.220062225773745 0 43.220062225773745 -18.250314246486596 0 0 0 0 -27.387358314334051 60.856609119779932 0 60.856609119779932 -13.683183526653693 0 0 0 0 45.860375846968964 38.94297293728232 0 38.94297293728232 -29.408635773215792 0 0 0 0 36.752784004653222 14.586681681164919 0 14.586681681164919 -38.508522369327693 0 0 0 0 -32.844238646106987 56.965567885745031 0 56.965567885745031 -35.714933622573881 0 0 0 0 -39.89157234697268 43.532987597760439 0 43.532987597760439 -23.718208610161128 0 0 0 0 -45.115634683239477 48.444793285645574 0 48.444793285645574 -68.037770925950099 0 0 0 0 -60.337148912596604 33.740370837868795 0 33.740370837868795 -28.442401311838239 0 0 0 0 58.66978528735126 -8.6085714740174808 0 -8.6085714740174808 -41.454542530373146 0 0 0 0 -9.34664099193742 2.1117889708202711 0 2.1117889708202711 7.980424290699375 0 0 0 0 -105.57079384448116 97.300216152789289 0 97.300216152789289 -58.584525168272194 0 0 0 0 -1.8052361399300132 -0.9120513103741299 0 -0.9120513103741299 -0.55368067194127946 0 0 0 0 -106.05156833755063 53.900340053160107 0 53.900340053160107 -30.169591415014111 0 0 0 0 -93.494414094302556 64.804200280974328 0 64.804200280974328 -9.1137222366605783 0 0 0 0 -89.085257354623536 62.036041761328306 0 62.036041761328306 -29.263362134825911 0 0 0 0 -5.9041195084871418 -1.6201950591364778 0 -1.6201950591364778 2.6887179261198852 0 0 0 0 -82.981081307475506 47.166122226350581 0 47.166122226350581 -5.6020581912107446 0 0 0 0 -121.16312776413179 47.122940855964316 0 47.122940855964316 1.6482251334600733 0 0 0 0 -24.787801647409196 67.286778470726631 0 67.286778470726631 -10.988620217694915 0 0 0 0 -18.76961384868855 90.489232749444227 0 90.489232749444227 -21.939834999066079 0 0 0 0 -123.46049779692657 89.175398737742853 0 89.175398737742853 10.577610939573788 0 0 0 0 -121.93365741198679 45.430979151421582 0 45.430979151421582 -0.6841009079671494 0 0 0 0 154.72878887397928 140.30420301670529 0 140.30420301670529 56.056651884085568 0 0 0 0 128.5169209527603 165.31488257740443 0 165.31488257740443 86.060035937211069 0 0 0 0 93.921554775812183 96.861212054569933 0 96.861212054569933 18.518759640550343 0 0 0 0 -1.146454934496866 0.73475872816611787 0 0.73475872816611787 2.7432626898706971 0 0 0 0 -5.9116055183621938 21.839071619075185 0 21.839071619075185 131.71281670909161 0 0 0 0 -1.7702508624882247 3.4818968365307654 0 3.4818968365307654 11.035604500281728 0 0 0 0 1.9521605674526654 -2.9714191920784288 0 -2.9714191920784288 7.9537898706830674 0 0 0 0 16.025977010804127 -3.5240977293728974 0 -3.5240977293728974 -9.9512011789283861 0 0 0 0 16.195447161235279 -1.214280036845139 0 -1.214280036845139 10.28051378732107 0 0 0 0 -65.967532150889383 -4.3956084139417726 0 -4.3956084139417726 41.129244937280419 0 0 0 0 -29.961733375396761 -10.201626559110991 0 -10.201626559110991 27.976581172429178 0 0 0 0 -2.896584436328733 6.683875994234981 0 6.683875994234981 15.02308024605076 0 0 0 0 0.033419485542253824 46.836816074308899 0 46.836816074308899 102.40956455136347 0 0 0 0 79.154899863482569 71.159214352893287 0 71.159214352893287 42.08351535161637 0 0 0 0 0.78592849443884916 -22.858051513734154 0 -22.858051513734154 81.217899825999666 0 0 0 0 15.459723650401429 -36.10445207849807 0 -36.10445207849807 25.698644658431476 0 0 0 0 0.14529451419222461 0.50606329005719175 0 0.50606329005719175 1.0159896195217364 0 0 0 0 86.659755852762828 115.97628185110898 0 115.97628185110898 87.018718155983152 0 0 0 0 59.003767724314457 94.213105268894651 0 94.213105268894651 131.10653383741283 0 0 0 0 24.911571119821929 93.655599756884385 0 93.655599756884385 190.44837937729335 0 0 0 0 81.562241661626103 75.350137161697603 0 75.350137161697603 158.63924040044367 0 0 0 0 42.193079087544902 134.41781932802496 0 134.41781932802496 146.56206257708072 0 0 0 0 66.514803227191805 107.59475899931613 0 107.59475899931613 126.07533378706512 0 0 0 0 0.057389415298530366 106.63118370950542 0 106.63118370950542 148.49912601669803 0 0 0 0 76.192857825826195 147.79740040313629 0 147.79740040313629 119.07485071042174 0 0 0 0 -0.015371051370450034 157.71445217765418 0 157.71445217765418 90.665951859054076 0 0 0 0 -0.31706349597195782 0.69658128040161671 0 0.69658128040161671 -0.12025300196482114 0 0 0 0 14.793665505170793 23.117319741201754 0 23.117319741201754 -12.712431782393878 0 0 0 0 76.666953022493544 136.56610521830225 0 136.56610521830225 12.875119176929275 0 0 0 0 59.032697969036235 143.0163747395959 0 143.0163747395959 91.022553101776793 0 0 0 0 165.31238696441324 156.84207868683689 0 156.84207868683689 81.027546246003112 0 0 0 0 -1.0954303012812696 2.93072571223815 0 2.93072571223815 8.4111474736717255 0 0 0 0 198.32436824246724 115.85608801340368 0 115.85608801340368 105.99930653823321 0 0 0 0 448.51117102296121 191.92253977810014 0 191.92253977810014 76.165246891792776 0 0 0 0 642.5299753459326 498.21048985147581 0 498.21048985147581 235.48977416333946 0 0 0 0 181.2013884372027 194.43145835470568 0 194.43145835470568 101.05593531883551 0 0 0 0 28.892665018705884 130.89775049067521 0 130.89775049067521 177.81749190668597 0 0 0 0 176.62796080221597 221.22444654042192 0 221.22444654042192 260.93707120603608 0 0 0 0 76.357138721118645 34.702699536596356 0 34.702699536596356 94.896693212053833 0 0 0 0 -1.1014268405500047 2.4977368865585134 0 2.4977368865585134 -0.44764012696039401 0 0 0 0 0.80146718668637362 0.59464209614834118 0 0.59464209614834118 -0.33721210288027548 0 0 0 0 -59.835209801261954 137.84305323854915 0 137.84305323854915 473.2026447364733 0 0 0 0 20.10531389985772 376.08885214621023 0 376.08885214621023 512.99619242656536 0 0 0 0 0.22118450898778974 0.057610711331669506 0 0.057610711331669506 1.8800460896917741 0 0 0 0 47.256642169933912 207.35934572825136 0 207.35934572825136 650.2210447876605 0 0 0 0 27.063605144656321 208.11128915860536 0 208.11128915860536 741.29669328505088 0 0 0 0 64.974339310033429 178.16389210859097 0 178.16389210859097 518.21874873152774 0 0 0 0 71.221247196081094 104.2577816884077 0 104.2577816884077 460.19060158778302 0 0 0 0 44.546845288012264 129.16911543730021 0 129.16911543730021 557.61905139810551 0 0 0 0 99.738943703168843 155.44426641431801 0 155.44426641431801 303.58618084601585 0 0 0 0 54.790320809311197 91.600639920779258 0 91.600639920779258 400.24810838133635 0 0 0 0 142.3283066878048 232.65386814375233 0 232.65386814375233 431.27968911133576 0 0 0 0 11.422237348728231 145.78879319257067 0 145.78879319257067 337.95610434770742 0 0 0 0 -17.102735971376205 87.164970978460246 0 87.164970978460246 360.7353009536946 0 0 0 0 9.2866485421218385 135.80107824423249 0 135.80107824423249 364.69339250835912 0 0 0 0 0.11955636755174483 143.28165850675313 0 143.28165850675313 385.04595846905249 0 0 0 0 -3.0319888616759272 140.49635395052155 0 140.49635395052155 400.36503606714905 0 0 0 0 8.0297040421046404 125.28786962335744 0 125.28786962335744 385.8436565167849 0 0 0 0 29.753089724090387 171.34543529152324 0 171.34543529152324 446.32563313160836 0 0 0 0 3.0011752441059798 15.484179624734679 0 15.484179624734679 -3.9061843596064136 0 0 0 0 12.072522239141108 12.65333112983808 0 12.65333112983808 -7.2427449283431997 0 0 0 0 -21.268975530863599 23.012573966658124 0 23.012573966658124 -12.912268809608577 0 0 0 0 -1.4914727419818519 9.39677044689779 0 9.39677044689779 -8.7824787791541894 0 0 0 0 -20.296005503172637 11.329751429742828 0 11.329751429742828 -1.4715364255362147 0 0 0 0 -1.6729744045733241 7.8622518198653779 0 7.8622518198653779 -12.365090112261896 0 0 0 0 -13.192234067013487 -4.843368939940774 0 -4.843368939940774 -19.917875826753516 0 0 0 0 -4.0928316616700613 17.949652322992733 0 17.949652322992733 -7.5447646268894459 0 0 0 0 5.2449854087317362 17.032585048076726 0 17.032585048076726 -13.309928707301879 0 0 0 0 5.2456543051102926 16.654883098493769 0 16.654883098493769 -5.8603776905365521 0 0 0 0 15.597832226048922 14.797403843548636 0 14.797403843548636 -8.6558744656686031 0 0 0 0 14.833649262262043 17.594801418790667 0 17.594801418790667 -8.9246530590362454 0 0 0 0 0.015395909961867238 0.54314197919772766 0 0.54314197919772766 0.073738300692015812 0 0 0 0 18.888823063789459 16.398273582773072 0 16.398273582773072 -5.7992252494805143 0 0 0 0 -8.194078943299246 1.4321089888064762 0 1.4321089888064762 0.16658761589133064 0 0 0 0 15.629418840289873 15.250389791606722 0 15.250389791606722 -3.3740151513004548 0 0 0 0 50.035907445586417 16.823823999577826 0 16.823823999577826 -10.910328161044163 0 0 0 0 28.186779890173057 10.039364004145682 0 10.039364004145682 -4.4786109276174102 0 0 0 0 27.839179683913244 9.0362011207362229 0 9.0362011207362229 -7.3319033339294037 0 0 0 0 27.63390132522909 15.531180435817987 0 15.531180435817987 -5.7580983215229935 0 0 0 0 37.00084779811732 8.406043211773067 0 8.406043211773067 -7.7171683914093592 0 0 0 0 26.725521363026928 13.920141322527343 0 13.920141322527343 -6.9283856322363135 0 0 0 0 46.139360508019308 4.0650837967207281 0 4.0650837967207281 -12.221624280751712 0 0 0 0 37.608757260448328 -4.1908136591464427 0 -4.1908136591464427 -4.2724036613435601 0 0 0 0 44.302634446245065 13.380544821481635 0 13.380544821481635 -11.146123136733877 0 0 0 0 16.274678887744813 16.469827758665815 0 16.469827758665815 -4.6010401962685137 0 0 0 0 27.262845966135501 15.185000857142768 0 15.185000857142768 -6.0087875033855198 0 0 0 0 38.46675643492199 16.872450492407552 0 16.872450492407552 -7.4889076609397307 0 0 0 0 27.564066713894135 16.655789488756454 0 16.655789488756454 -4.9405480634341075 0 0 0 0 34.838107987954572 19.150995145512752 0 19.150995145512752 -4.1005662761035637 0 0 0 0 12.324697753851069 14.343753162988833 0 14.343753162988833 1.232579848478963 0 0 0 0 19.882234560554934 16.26364341962676 0 16.26364341962676 1.5365703573024803 0 0 0 0 7.3390904590632999 10.494120538509378 0 10.494120538509378 8.8681958490287798 0 0 0 0 -0.033084589651480201 29.731740234342396 0 29.731740234342396 2.2831654356186846 0 0 0 0 19.17843178405019 18.177989925286965 0 18.177989925286965 8.1608974363944071 0 0 0 0 21.351615034351198 21.150227474639451 0 21.150227474639451 9.0950363021802332 0 0 0 0 12.989113879732031 23.011604490149693 0 23.011604490149693 22.145736629687462 0 0 0 0 14.674937022813538 17.53812835552435 0 17.53812835552435 15.546175102312191 0 0 0 0 7.4421314900646394 12.183524392071604 0 12.183524392071604 15.423930692551949 0 0 0 0 43.46043202767396 30.851211817703188 0 30.851211817703188 2.9892607472374948 0 0 0 0 25.316430044740628 31.376335071610583 0 31.376335071610583 19.870254363260756 0 0 0 0 4.0387203073387354 20.270206243021221 0 20.270206243021221 22.033819487313849 0 0 0 0 3.1908070127938117 19.793902975699439 0 19.793902975699439 22.137702679724384 0 0 0 0 0.49410629206249723 15.42087731322772 0 15.42087731322772 25.36036955705481 0 0 0 0 2.5078276319618453 10.580286164771678 0 10.580286164771678 24.165243779879575 0 0 0 0 -2.9901400220187497 2.4698837714172441 0 2.4698837714172441 12.459032287867558 0 0 0 0 6.3087201826492674 12.614048049261555 0 12.614048049261555 6.3939085013207659 0 0 0 0 -1.9317183396487962 8.8932032067641558 0 8.8932032067641558 4.8517999144787609 0 0 0 0 -11.655493014997774 7.4047247004823475 0 7.4047247004823475 -20.853791588000604 0 0 0 0 -12.444118468392844 11.141081552257219 0 11.141081552257219 2.9674428967173299 0 0 0 0 -17.434655808589014 -4.9913704878963472 0 -4.9913704878963472 6.8593311986944627 0 0 0 0 -11.977289522634237 3.7219640077400982 0 3.7219640077400982 26.476575363138181 0 0 0 0 -8.4663282293677184 8.8382615958264523 0 8.8382615958264523 22.206640227184835 0 0 0 0 0.19537405299178801 0.7159305182800999 0 0.7159305182800999 0.56692411212460314 0 0 0 0 68.464405786327916 4.9801465552695845 0 4.9801465552695845 14.835279889144203 0 0 0 0 -36.849828246471588 19.179159300403171 0 19.179159300403171 77.231353730383489 0 0 0 0 -46.719086578210408 -5.0498992807069953 0 -5.0498992807069953 36.308712492626 0 0 0 0 172.80131229680046 42.173123787945769 0 42.173123787945769 13.145393888288254 0 0 0 0 -33.321260393277043 12.671077857882665 0 12.671077857882665 -7.8184953054224025 0 0 0 0 -16.557921491565139 -4.8835645434076014 0 -4.8835645434076014 -8.0594284546350536 0 0 0 0 70.330570874828481 41.26958138363716 0 41.26958138363716 11.342486074264798 0 0 0 0 6.3903164325238322 17.023807632246417 0 17.023807632246417 59.666626749115949 0 0 0 0 -3.246340057834459 12.829595247246516 0 12.829595247246516 8.0200951899710162 0 0 0 0 0.21348344739533687 0.99101487317936687 0 0.99101487317936687 0.16295502321144362 0 0 0 0 87.538688667953465 7.8340532599340804 0 7.8340532599340804 -6.0515199806286546 0 0 0 0 -58.169924533767698 0.81698721613929592 0 0.81698721613929592 1.025861403696581 0 0 0 0 -0.12386790049458796 17.848136627745589 0 17.848136627745589 -7.0518025474027581 0 0 0 0 0.28067261687976419 1.2648419187025262 0 1.2648419187025262 1.7906461892371421 0 0 0 0 -36.884639743758726 -9.5460199771696921 0 -9.5460199771696921 68.942640083780134 0 0 0 0 40.221692164135675 4.824021781760166 0 4.824021781760166 12.462556977945042 0 0 0 0 0.21969021659707355 1.565531310003891 0 1.565531310003891 2.120494226863137 0 0 0 0 54.276635908117896 21.050715263241727 0 21.050715263241727 -11.616717650914325 0 0 0 0 0.026237451534143474 0.81102719660173861 0 0.81102719660173861 0.89999905028290783 0 0 0 0 34.584507958233644 33.514126220876108 0 33.514126220876108 -16.578202426865573 0 0 0 0 9.4315777247205901 12.7100263563505 0 12.7100263563505 14.719324038797048 0 0 0 0 -16.471806925053897 47.559317046361571 0 47.559317046361571 2.1337533310861545 0 0 0 0 20.843289266211286 -0.28771293930003594 0 -0.28771293930003594 3.5606504022089212 0 0 0 0 15.268612757465235 23.512784232427748 0 23.512784232427748 2.6689413440166874 0 0 0 0 4.2621517161242082 10.896084537965862 0 10.896084537965862 1.0228019933711039 0 0 0 0 10.968859780468847 -4.1346824495017245 0 -4.1346824495017245 -0.91949915386697967 0 0 0 0 64.240044624630173 27.75440477321763 0 27.75440477321763 -41.419294062167864 0 0 0 0 -2.2471588228218025 -0.56086828314391823 0 -0.56086828314391823 4.7420794140489306 0 0 0 0 0.18237684297854884 0.704233186331642 0 0.704233186331642 0.56371006520489786 0 0 0 0 -6.178341357041063 0.21328898360479798 0 0.21328898360479798 5.9287498155426874 0 0 0 0 -6.1060379008231394 2.5187798660854241 0 2.5187798660854241 24.976090330553689 0 0 0 0 -7.073573572096393 18.127048144693447 0 18.127048144693447 15.980346097843722 0 0 0 0 -6.5516251228473266 23.957890592525473 0 23.957890592525473 41.522069085453495 0 0 0 0 -10.533125032241514 9.3276990280919563 0 9.3276990280919563 27.617126103656119 0 0 0 0 13.933292707154578 36.878616396997018 0 36.878616396997018 14.935093107475041 0 0 0 0 18.121931750873046 20.570460839752286 0 20.570460839752286 -7.239372356889362 0 0 0 0 6.261159861986016 25.210552675649126 0 25.210552675649126 2.8718789801459934 0 0 0 0 6.2105739664912107 24.638406343808128 0 24.638406343808128 1.6478138990305524 0 0 0 0 2.4234800209160312 24.04462877376136 0 24.04462877376136 13.408159892434924 0 0 0 0 8.3586046311684186 21.328894555950683 0 21.328894555950683 -1.4020683015951363 0 0 0 0 9.4565408338385168 22.908421189658839 0 22.908421189658839 -5.4600401475245235 0 0 0 0 11.551886417146306 19.713435883285456 0 19.713435883285456 -0.66862071775904042 0 0 0 0 7.5104746587785485 18.122106506244563 0 18.122106506244563 -12.529124372000297 0 0 0 0 7.5343245401018066 8.9665705727629756 0 8.9665705727629756 -18.609376939227332 0 0 0 0 9.6104878880578326 27.296197971768379 0 27.296197971768379 -2.5990594932991371 0 0 0 0 -0.034474678082915489 0.93586634784628586 0 0.93586634784628586 0.10254867082164765 0 0 0 0 -15.091222903507514 8.0180283625231823 0 8.0180283625231823 12.382056509238282 0 0 0 0 -0.021403076407810084 0.64410177471620855 0 0.64410177471620855 0.22226333319800418 0 0 0 0 -3.1173483778329683 -2.0911190724373228 0 -2.0911190724373228 3.5577241559903996 0 0 0 0 17.290131543799362 -3.740567934104547 0 -3.740567934104547 2.4348293928560452 0 0 0 0 14.386706705001416 12.131424855420846 0 12.131424855420846 -0.54897687807715556 0 0 0 0 16.994677538721589 11.14604914620395 0 11.14604914620395 -0.6362549564037181 0 0 0 0 12.665639043058036 19.764424276163481 0 19.764424276163481 -4.2142854115659247 0 0 0 0 16.496178797864559 14.822321130498494 0 14.822321130498494 -0.33242062799399719 0 0 0 0 9.091223338546115 16.304169249357074 0 16.304169249357074 -0.56171000945823835 0 0 0 0 9.2810732171728887 17.960310183425236 0 17.960310183425236 2.7127162160868465 0 0 0 0 -1.8233374932315201 11.173015190230217 0 11.173015190230217 4.5714698764004424 0 0 0 0 9.9792827658020542 9.8033202332881046 0 9.8033202332881046 0.76963941402755154 0 0 0 0 0.47225281933424412 14.823680324989255 0 14.823680324989255 10.370265042043684 0 0 0 0 -0.7738491427662666 17.841584080320899 0 17.841584080320899 3.0951872940199792 0 0 0 0 -7.3840536790012266 18.074489588913821 0 18.074489588913821 16.262941468308327 0 0 0 0 -11.560882498088176 11.119370282524869 0 11.119370282524869 11.149310042082789 0 0 0 0 0.005071249603133765 0.78880439464523988 0 0.78880439464523988 0.36964526466908865 0 0 0 0 -12.643597163396407 13.043574333065635 0 13.043574333065635 10.984254652406889 0 0 0 0 -11.729972937702769 11.286291190690235 0 11.286291190690235 1.3250703395588062 0 0 0 0 -6.5986214984823164 15.760896415245725 0 15.760896415245725 13.67101257061222 0 0 0 0 -12.40299145989411 11.911026794293321 0 11.911026794293321 16.477074734061716 0 0 0 0 -10.251808763508961 9.2079631722128852 0 9.2079631722128852 4.5573749728391704 0 0 0 0 -9.4829554067837307 2.5568043710354686 0 2.5568043710354686 8.9881208906908796 0 0 0 0 -8.8129907085976811 1.449887321218057 0 1.449887321218057 -11.191036886635629 0 0 0 0 -5.3531701483516372 1.5240726125884976 0 1.5240726125884976 -1.5443025772765395 0 0 0 0 -24.476927916668501 -3.3572269073238203 0 -3.3572269073238203 3.0288419410053393 0 0 0 0 -0.65787842308782274 0.22556968172966663 0 0.22556968172966663 -0.075191564950728207 0 0 0 0 -0.034692172003526478 0.57266392829674118 0 0.57266392829674118 0.25511996300250672 0 0 0 0 -14.217703984533728 -8.8189191542178378 0 -8.8189191542178378 -4.7312797463273455 0 0 0 0 -13.897726262698143 -2.9812256480393557 0 -2.9812256480393557 1.795173180213169 0 0 0 0 -8.9184175136106205 -2.100712296652091 0 -2.100712296652091 -1.0153873251620098 0 0 0 0 -12.594476000838768 -1.2318397716535401 0 -1.2318397716535401 -2.3864001699985238 0 0 0 0 -18.208052279965159 1.6552287529559635 0 1.6552287529559635 -0.8372857132453646 0 0 0 0 -17.551091691564579 -1.519076618141753 0 -1.519076618141753 1.9824993331421865 0 0 0 0 34.494421834720924 12.503846854662697 0 12.503846854662697 -2.5908257900755416 0 0 0 0 -6.3700161936139921 4.0657278202500038 0 4.0657278202500038 0.97301811872603139 0 0 0 0 -12.522204550939932 -0.66805193108666572 0 -0.66805193108666572 0.44633036362881739 0 0 0 0 74.992907975220078 27.898453687543679 0 27.898453687543679 -82.38781327088509 0 0 0 0 -12.011941041288082 -1.4882524245513196 0 -1.4882524245513196 -2.1989445867111499 0 0 0 0 1.9214813320199937 -0.64985228008765716 0 -0.64985228008765716 30.225319866087375 0 0 0 0 0.18008697602069823 0.96768286157126582 0 0.96768286157126582 1.8719467388101521 0 0 0 0 -12.741604886442474 -1.161710550998805 0 -1.161710550998805 -0.34743831237210543 0 0 0 0 -0.0087986354301392566 -1.1481356572646746 0 -1.1481356572646746 -2.024782506730844 0 0 0 0 -14.818439167695033 0.96024539491554606 0 0.96024539491554606 -3.6817161714097892 0 0 0 0 -12.568709723625943 -1.3966432271645317 0 -1.3966432271645317 -3.7265555735704652 0 0 0 0 4.1132087554597092 5.1372992631081615 0 5.1372992631081615 5.8102115363017219 0 0 0 0 -15.47700475799985 -1.6378048502343745 0 -1.6378048502343745 3.3782305732947862 0 0 0 0 0.05389199871387973 10.447179452129149 0 10.447179452129149 18.188928959483746 0 0 0 0 -0.01969947900892699 0.4704020176424244 0 0.4704020176424244 0.10657164947166109 0 0 0 0 -15.438453565438977 1.6744473057897267 0 1.6744473057897267 14.81548941567371 0 0 0 0 -20.62112510197403 -41.953153034484785 0 -41.953153034484785 161.89074697164324 0 0 0 0 -14.310970806045589 1.2223175622521012 0 1.2223175622521012 -1.0368960184041498 0 0 0 0 0.11343928791526903 0.83280142567925708 0 0.83280142567925708 2.310745687526655 0 0 0 0 -15.520453129318412 6.7870396931889445 0 6.7870396931889445 13.131263090154789 0 0 0 0 63.590832296504232 -88.251074492662156 0 -88.251074492662156 67.091656545571823 0 0 0 0 37.104640430334257 -65.040184253637563 0 -65.040184253637563 123.60953363520093 0 0 0 0 0.32216636749349448 0.19194488742232707 0 0.19194488742232707 0.025187553532639129 0 0 0 0 0.13772686994772165 0.18354607414662993 0 0.18354607414662993 -0.035098635871463557 0 0 0 0 16.064634768597898 -7.9763149801510735 0 -7.9763149801510735 191.73825587256579 0 0 0 0 47.835923599915986 -10.220044757521691 0 -10.220044757521691 -75.291180509149854 0 0 0 0 42.948681126217252 2.3835903868464356 0 2.3835903868464356 -20.414729186688419 0 0 0 0 -45.483916141359259 26.290931671255976 0 26.290931671255976 79.063952359465475 0 0 0 0 59.151296189163986 68.760687787737879 0 68.760687787737879 40.977502170047956 0 0 0 0 -0.61105214539202279 8.0176887932693717 0 8.0176887932693717 9.4752955332669444 0 0 0 0 80.044535784320033 63.574961606633678 0 63.574961606633678 20.99280059089233 0 0 0 0 -17.281317488746936 8.5056420075056849 0 8.5056420075056849 19.46383090398831 0 0 0 0 -41.522400862398626 -1.0869137939955635 0 -1.0869137939955635 31.191473980888986 0 0 0 0 -2.5622547843727475 6.4523574245589081 0 6.4523574245589081 15.192852839788458 0 0 0 0 -58.241333243398913 -10.925530979892756 0 -10.925530979892756 25.824230987269857 0 0 0 0 37.000004428351531 11.057708832991921 0 11.057708832991921 -26.495955605178096 0 0 0 0 -8.6423704101725889 26.041670064809296 0 26.041670064809296 51.563911062359693 0 0 0 0 -7.4382997911598068 28.961765007530403 0 28.961765007530403 26.048367630291978 0 0 0 0 -15.342413909129391 -26.963128623011016 0 -26.963128623011016 0.50254964801524693 0 0 0 0 -10.885015599962571 -13.142905699822222 0 -13.142905699822222 15.976428933479838 0 0 0 0 46.047479833046964 -51.851160989457867 0 -51.851160989457867 34.48063593981351 0 0 0 0 3.3194219839697325 33.894340749852745 0 33.894340749852745 56.552045173748411 0 0 0 0 -21.489535910147424 16.209417994386513 0 16.209417994386513 16.75163723856258 0 0 0 0 -22.570338671697755 19.135371141341238 0 19.135371141341238 16.055938213092304 0 0 0 0 -26.040525889837227 16.418104606827455 0 16.418104606827455 21.973383779793949 0 0 0 0 -0.42699617514556376 7.5529609251570555 0 7.5529609251570555 14.825346956251074 0 0 0 0 -1.1509132020168877 -0.5497627055806511 0 -0.5497627055806511 0.2211491647474304 0 0 0 0 -4.0700966901508764 -6.6591099297340293 0 -6.6591099297340293 5.4991319597502297 0 0 0 0 -0.015306011165046485 1.2547946533260266 0 1.2547946533260266 2.3020562152311506 0 0 0 0 0.34955115790433666 1.7910580507387408 0 1.7910580507387408 2.3203376590893896 0 0 0 0 1.4615644343125656 1.8046664594609361 0 1.8046664594609361 1.8022964784541031 0 0 0 0 -2.8645003429919598 11.608346103205804 0 11.608346103205804 7.821711257149218 0 0 0 0 6.7944821409169904 10.958433603524281 0 10.958433603524281 13.419833053373544 0 0 0 0 -20.931694189867812 22.415212770165454 0 22.415212770165454 17.375430582409535 0 0 0 0 -19.956121114311372 21.31303216193578 0 21.31303216193578 15.689293277342585 0 0 0 0 -17.57530221394336 24.120851579648843 0 24.120851579648843 18.223260689851486 0 0 0 0 -18.431136833793062 27.507458420919647 0 27.507458420919647 19.53394388111883 0 0 0 0 -17.576252236091932 24.212319560847391 0 24.212319560847391 25.867892312715412 0 0 0 0 -20.026772726702802 11.935998084245512 0 11.935998084245512 37.501107298216084 0 0 0 0 -23.622165309961929 26.392211829753251 0 26.392211829753251 34.625295010917398 0 0 0 0 -22.048722517565693 21.538679461591073 0 21.538679461591073 26.431063734551572 0 0 0 0 -19.716530195510131 12.662785079821333 0 12.662785079821333 23.78013332525029 0 0 0 0 -22.073677760377905 12.733568503309016 0 12.733568503309016 41.495952373985347 0 0 0 0 2.5162739133494725 -50.806006531072214 0 -50.806006531072214 89.322563285524666 0 0 0 0 2.3316143318144427 -7.0229537037233953 0 -7.0229537037233953 26.677575142592104 0 0 0 0 -7.258912591405533 -15.401323352173677 0 -15.401323352173677 46.404202733676357 0 0 0 0 -78.266795330624518 13.030994822158391 0 13.030994822158391 33.696489648189527 0 0 0 0 -0.85261947441285457 -0.1991040192095328 0 -0.1991040192095328 0.081745431185460404 0 0 0 0 -190.62521135275347 151.89835562113876 0 151.89835562113876 -69.466512563381855 0 0 0 0 -79.685991039053079 49.497236815309861 0 49.497236815309861 55.997445493749183 0 0 0 0 -62.31767617191872 -3.1983478824977283 0 -3.1983478824977283 62.068277090729225 0 0 0 0 -7.3812259539172373 72.931675043301766 0 72.931675043301766 1.8994260407939692 0 0 0 0 -18.362396529404577 57.448745596648223 0 57.448745596648223 55.949957287590593 0 0 0 0 -24.604196101357957 29.806661638832793 0 29.806661638832793 27.720573604321544 0 0 0 0 14.072862873445047 52.077248366779713 0 52.077248366779713 12.441498920163212 0 0 0 0 2.3577097350475924 36.257935212674283 0 36.257935212674283 4.3956980221082631 0 0 0 0 16.401897487221504 48.325874093029597 0 48.325874093029597 13.557114210922009 0 0 0 0 4.9420270785594766 31.450675422815038 0 31.450675422815038 -0.19606869087056111 0 0 0 0 15.779813225834005 37.356910929247533 0 37.356910929247533 2.7588083024638763 0 0 0 0 -4.3484299026465383 28.729103281292506 0 28.729103281292506 4.8218941068698769 0 0 0 0 4.9920083366250765 32.894138679505886 0 32.894138679505886 5.6773704178849584 0 0 0 0 0.43531484168624957 32.474520046144789 0 32.474520046144789 5.8699089751116844 0 0 0 0 -7.6649782461572613 34.332239522812415 0 34.332239522812415 18.725642274725942 0 0 0 0 -13.455636514953767 26.485313544621022 0 26.485313544621022 9.1378015473619598 0 0 0 0 -15.973383737298718 30.21561266380013 0 30.21561266380013 7.5379077171537574 0 0 0 0 -20.218281059793298 31.968754890741366 0 31.968754890741366 9.3156302196889555 0 0 0 0 -18.577144149813648 28.538573602914312 0 28.538573602914312 10.406255568710549 0 0 0 0 -4.3479217383755895 28.464725775836087 0 28.464725775836087 4.7285204622667152 0 0 0 0 -12.235013363551843 31.421947670743975 0 31.421947670743975 7.0332082668728617 0 0 0 0 -45.693741323608265 66.93959656170216 0 66.93959656170216 21.83536301281174 0 0 0 0 9.6298168084171678 13.267020432255153 0 13.267020432255153 17.175588080863498 0 0 0 0 -46.489337846479884 7.8835104568926511 0 7.8835104568926511 57.401633920008408 0 0 0 0 10.749920567832305 33.065297121979711 0 33.065297121979711 1.8773157282012107 0 0 0 0 -5.3134853760766418 23.376615605216557 0 23.376615605216557 10.11414601670549 0 0 0 0 3.3082264566655795 26.739197385489661 0 26.739197385489661 10.116041548173824 0 0 0 0 11.345362687612578 24.082686030988043 0 24.082686030988043 6.9964789555242533 0 0 0 0 5.1145428610816452 28.227954653850247 0 28.227954653850247 4.6669465130294157 0 0 0 0 11.856808547492165 29.24397225132634 0 29.24397225132634 0.43440086918235465 0 0 0 0 4.7627573713944003 28.876169125575416 0 28.876169125575416 4.1254054177134094 0 0 0 0 17.003840622055577 -16.122736223816901 0 -16.122736223816901 4.5842140645336258 0 0 0 0 5.1059937146840184 18.570069965599487 0 18.570069965599487 21.258911416098272 0 0 0 0 12.955048583753978 27.091592011521016 0 27.091592011521016 -3.0889873117394018 0 0 0 0 4.5437912106899603 21.811482175137826 0 21.811482175137826 2.7105440435898345 0 0 0 0 8.8252181243133236 28.612229917356672 0 28.612229917356672 8.0829489507868857 0 0 0 0 -0.86373230192270967 11.94294893856959 0 11.94294893856959 -12.348949989539374 0 0 0 0 6.8202703000024485 26.653389983965553 0 26.653389983965553 0.36094077574392713 0 0 0 0 -4.1762654204797158 13.882367323658329 0 13.882367323658329 -12.989383976979658 0 0 0 0 5.2759857161690888 25.212448400438234 0 25.212448400438234 0.5098717029846398 0 0 0 0 6.8856076350493822 26.91701153698159 0 26.91701153698159 -1.9723256563779614 0 0 0 0 6.7885654452870767 27.292011085657236 0 27.292011085657236 2.5458910942152215 0 0 0 0 7.4099814825021895 32.38149790292573 0 32.38149790292573 5.2854203076080921 0 0 0 0 7.2778300193097039 30.02712646717427 0 30.02712646717427 1.25722097527796 0 0 0 0 6.9601568952639354 26.096859096341177 0 26.096859096341177 3.8544910778077792 0 0 0 0 0.82584369808319025 24.009466242494 0 24.009466242494 -5.6965779883967116 0 0 0 0 1.3677714742061653 22.540854910642565 0 22.540854910642565 -5.8966897877062365 0 0 0 0 0.5010457277749083 23.518939113265333 0 23.518939113265333 -6.8370295170534519 0 0 0 0 -0.78906055200786795 20.126797240758606 0 20.126797240758606 -7.3469226059443145 0 0 0 0 5.3495135663833935 23.884360988568915 0 23.884360988568915 -6.6467237053282133 0 0 0 0 4.5515259442254319 25.704849787335661 0 25.704849787335661 -5.8111803450219668 0 0 0 0 5.4589222717222583 27.583943668229949 0 27.583943668229949 -2.5828429562370729 0 0 0 0 4.9205264736956451 23.827370105599584 0 23.827370105599584 -5.1904728808385698 0 0 0 0 4.2788576399179874 24.976208177216904 0 24.976208177216904 -3.0071903503749127 0 0 0 0 8.7801592016439827 27.975118841610765 0 27.975118841610765 -3.1506170021616526 0 0 0 0 9.3039543416161905 31.50428027689577 0 31.50428027689577 0.50981067321686169 0 0 0 0 5.7573204381842515 27.846598607686929 0 27.846598607686929 1.6544295186940872 0 0 0 0 7.6375371707799786 27.679124125911585 0 27.679124125911585 -4.133608088883193 0 0 0 0 4.5215266638442699 25.604350155056181 0 25.604350155056181 -2.2757776601365549 0 0 0 0 9.117562199528038 29.8710829859765 0 29.8710829859765 -2.7761014114595923 0 0 0 0 5.0699476829104242 26.375033095426261 0 26.375033095426261 -5.9616728510745816 0 0 0 0 1.4978834902067319 22.493711313610902 0 22.493711313610902 -6.2682488329883199 0 0 0 0 -4.7760942252251084 14.720366325122605 0 14.720366325122605 -14.263598131861929 0 0 0 0 8.4836541354161454 42.26241735027952 0 42.26241735027952 19.529752622957403 0 0 0 0 5.5772442307134042 5.2458773418766214 0 5.2458773418766214 2.9067511813063902 0 0 0 0 11.081110341187014 31.82036842923435 0 31.82036842923435 -0.37754952590057655 0 0 0 0 4.8748191158447298 26.638552457676496 0 26.638552457676496 -0.99435357847232808 0 0 0 0 8.0842210809969401 32.467945864879539 0 32.467945864879539 5.5779683877435673 0 0 0 0 9.63561212777131 36.791167899005814 0 36.791167899005814 9.5675022189784613 0 0 0 0 7.8274803925560263 35.754784410037246 0 35.754784410037246 10.456142024044311 0 0 0 0 7.0024174370555556 29.606114398025738 0 29.606114398025738 3.4094393913164822 0 0 0 0 11.907346462896385 34.758847370022522 0 34.758847370022522 3.8376011990249026 0 0 0 0 9.5214482513692928 34.704839574632388 0 34.704839574632388 6.2441464155954236 0 0 0 0 6.7220665815293614 30.867816775369192 0 30.867816775369192 8.0522855731505842 0 0 0 0 5.6228970871998172 33.934320884261069 0 33.934320884261069 14.069370971804346 0 0 0 0 8.447771014857608 40.084221039949625 0 40.084221039949625 15.073859915292815 0 0 0 0 9.8047501927503617 38.971541651093958 0 38.971541651093958 11.890221659524741 0 0 0 0 20.875752197051042 40.700984521262853 0 40.700984521262853 10.806960614142668 0 0 0 0 19.197606914080097 35.426219955243141 0 35.426219955243141 5.1289198794175945 0 0 0 0 26.196350786731273 27.211656983615626 0 27.211656983615626 11.325847126345252 0 0 0 0 8.6860445114689355 31.593518979143937 0 31.593518979143937 10.233414420006739 0 0 0 0 7.6007866043005379 237.51031512009354 0 237.51031512009354 -202.35289608540188 0 0 0 0 4.2040040762658464 24.875926581189105 0 24.875926581189105 8.6123676194674772 0 0 0 0 3.8047418096120964 25.179300121132883 0 25.179300121132883 16.578022330164458 0 0 0 0 2.0279015761916526 36.0401554344744 0 36.0401554344744 22.879143290997035 0 0 0 0 5.2835202125079377 29.445853733154308 0 29.445853733154308 14.520151853212155 0 0 0 0 4.9681904172612121 34.024266125218674 0 34.024266125218674 14.573240484886213 0 0 0 0 5.8950985065966961 29.764427788422836 0 29.764427788422836 8.0066643226964516 0 0 0 0 1.3250492934821523 28.937108546033869 0 28.937108546033869 22.656978615065327 0 0 0 0 5.6854713189022732 33.538099177837466 0 33.538099177837466 12.276033684575395 0 0 0 0 6.0522763426997699 29.736208043949773 0 29.736208043949773 9.3597654167670044 0 0 0 0 -1.3734358530922499 1.2624264254616264 0 1.2624264254616264 -1.2961073608998355 0 0 0 0 -50.027737558864828 15.453559005003626 0 15.453559005003626 1.259162874033791 0 0 0 0 -41.273841411911235 29.957455707512963 0 29.957455707512963 0.82044773258530768 0 0 0 0 93.309591374799311 -28.07125786873894 0 -28.07125786873894 -184.43868497649237 0 0 0 0 -83.323493641299137 58.024546348787226 0 58.024546348787226 -17.60869926000305 0 0 0 0 188.5609486739304 162.9848431866576 0 162.9848431866576 -1124.3995038888243 0 0 0 0 -50.149923305858465 61.601254044786401 0 61.601254044786401 -18.831217527051194 0 0 0 0 -28.761224379763007 19.667645708692362 0 19.667645708692362 7.3412705226819526 0 0 0 0 -8.7655809471380053 45.176862504380551 0 45.176862504380551 -12.640938621312671 0 0 0 0 -21.51494733672007 -0.38665422412213957 0 -0.38665422412213957 9.3378973573962867 0 0 0 0 -42.615443554986996 29.355413284556562 0 29.355413284556562 0.56801704872668779 0 0 0 0 -13.026197682718703 5.7869009973592256 0 5.7869009973592256 7.6731390605709748 0 0 0 0 -4.8303017481266579 18.401737166368548 0 18.401737166368548 4.2208311107606278 0 0 0 0 1.1789562288395246 5.7425979182735318 0 5.7425979182735318 4.9910573765791924 0 0 0 0 3.7092634125801851 -4.3594396720691293 0 -4.3594396720691293 6.0357686911920609 0 0 0 0 15.963401164020979 9.8342383298158893 0 9.8342383298158893 2.1385061142718769 0 0 0 0 7.9523956654156791 15.153068733814507 0 15.153068733814507 5.1430151842541818 0 0 0 0 -3.1965124881231368 4.6363107091433164 0 4.6363107091433164 -2.7897954393312148 0 0 0 0 -1.498635794610891 17.076575034519919 0 17.076575034519919 -1.5662972932004777 0 0 0 0 -3.5903125698187068 9.7972332636018109 0 9.7972332636018109 2.9377929406517467 0 0 0 0 -0.60629912246076856 12.829838273685709 0 12.829838273685709 0.87695633745897794 0 0 0 0 2.765019476722955 13.385906938901826 0 13.385906938901826 4.8972673416064936 0 0 0 0 4.32477926242791 9.2474315669596763 0 9.2474315669596763 2.9172630777102313 0 0 0 0 2.3498839132225839 12.379325099918788 0 12.379325099918788 2.6090445882728091 0 0 0 0 0.54245513360365294 6.618477754005653 0 6.618477754005653 2.0602242235828214 0 0 0 0 6.7577280096247705 17.079238048108891 0 17.079238048108891 -0.62739423860602983 0 0 0 0 0.51641703291693375 6.8202880661713152 0 6.8202880661713152 3.4110940304781252 0 0 0 0 3.0946890455470566 7.2135603413807985 0 7.2135603413807985 2.542786087150489 0 0 0 0 -3.893840462847038 18.62807692558772 0 18.62807692558772 1.1218007031275192 0 0 0 0 18.160629026189781 28.226687230242533 0 28.226687230242533 -9.5559978299588693 0 0 0 0 17.524834878062393 27.636158736148445 0 27.636158736148445 -33.489393924881369 0 0 0 0 -0.025131604528723983 33.202200357409311 0 33.202200357409311 -10.149859448816869 0 0 0 0 16.058793769947442 31.949845285103038 0 31.949845285103038 -9.8745842456519313 0 0 0 0 17.516055230422353 25.801533654986997 0 25.801533654986997 -5.9442594759184431 0 0 0 0 15.191861975302345 36.060057021625767 0 36.060057021625767 -4.0850291806000314 0 0 0 0 16.432304514879434 36.525089191573898 0 36.525089191573898 -4.3334038483881159 0 0 0 0 44.258340724927621 49.004275248984413 0 49.004275248984413 0.68510173952472542 0 0 0 0 30.796410310294959 12.844563034773273 0 12.844563034773273 -3.7993577727393131 0 0 0 0 13.926372359885136 13.304773031274635 0 13.304773031274635 2.9352819730156625 0 0 0 0 120.13111891371966 -9.5085300403973747 0 -9.5085300403973747 -12.627307657427082 0 0 0 0 109.59816258646788 97.651338818112436 0 97.651338818112436 22.046093094787011 0 0 0 0 15.852231085288167 54.424069836680019 0 54.424069836680019 2.6410481233888277 0 0 0 0 -9.7854193417272199 68.35871423336755 0 68.35871423336755 134.42091935113967 0 0 0 0 0.74002739664865658 -12.781419391223608 0 -12.781419391223608 133.16687153170687 0 0 0 0 1.0533002681191626 0.96054854939514112 0 0.96054854939514112 1.0354248210438826 0 0 0 0 84.184623045870012 100.42663155875152 0 100.42663155875152 118.32060548202207 0 0 0 0 163.752753849687 -33.357329446599579 0 -33.357329446599579 -4.0022890004438523 0 0 0 0 -17.636825475246951 19.500135031360742 0 19.500135031360742 52.950944510232148 0 0 0 0 43.775914031872162 37.089067898064059 0 37.089067898064059 26.500564940513868 0 0 0 0 2.1036857972958387 -21.967838449101691 0 -21.967838449101691 47.304282951240566 0 0 0 0 -18.652549242196073 19.801621078072458 0 19.801621078072458 97.724142429929998 0 0 0 0 -1.6321039308140826 10.817301391624824 0 10.817301391624824 18.797905492225709 0 0 0 0 -0.14193534528408236 1.4317688528825556 0 1.4317688528825556 19.261977331821981 0 0 0 0 2.9361819965962503 2.7205442858840225 0 2.7205442858840225 2.6744345018034821 0 0 0 0 -1.6898032090030028 5.441351682997265 0 5.441351682997265 2.6508675541181219 0 0 0 0 13.676750948856807 9.9806278995177422 0 9.9806278995177422 -3.9923167265096708 0 0 0 0 3.3611604583964692 4.5776117969490304 0 4.5776117969490304 4.2487211830722096 0 0 0 0 11.320446722191264 6.9238734695973108 0 6.9238734695973108 -2.6368388430919367 0 0 0 0 6.349176497944427 11.744815805487633 0 11.744815805487633 -3.7788414904114234 0 0 0 0 0.36079837525367076 0.68944836540622134 0 0.68944836540622134 1.1897078171567443 0 0 0 0 4.5272207429679838 5.7185898374700628 0 5.7185898374700628 2.1801276159612826 0 0 0 0 -14.128890012677402 4.8785756415345531 0 4.8785756415345531 15.937887682517612 0 0 0 0 -0.46528028653483489 12.544424763568713 0 12.544424763568713 -18.616026385024213 0 0 0 0 11.189073224912136 13.994072146560484 0 13.994072146560484 -18.553665184948841 0 0 0 0 9.43880749075106 -0.3733078596269479 0 -0.3733078596269479 8.5211550466137851 0 0 0 0 14.647802426092312 10.715103739241385 0 10.715103739241385 10.892876037760971 0 0 0 0 -10.472550312288149 15.427128289302345 0 15.427128289302345 51.334871276261822 0 0 0 0 2.2427833311194263 16.847276859036356 0 16.847276859036356 51.243851884268224 0 0 0 0 2.8283545072208653 35.86196532847498 0 35.86196532847498 61.947226317450259 0 0 0 0 0.065922305618034471 -0.33532647455049869 0 -0.33532647455049869 0.12580852367516115 0 0 0 0 38.531738028860673 39.065842209417497 0 39.065842209417497 38.199234324632926 0 0 0 0 -52.761842764766698 -14.983720674851611 0 -14.983720674851611 50.009350176003863 0 0 0 0 -17.568883333366102 20.973032314722332 0 20.973032314722332 61.002613370041217 0 0 0 0 -9.6006127929722425 12.102374769442577 0 12.102374769442577 44.540858880476662 0 0 0 0 10.614895170036107 -8.1632177343853982 0 -8.1632177343853982 -1.8121762657974614 0 0 0 0 29.313979908878537 2.4756761653366084 0 2.4756761653366084 4.2186661226260185 0 0 0 0 6.583906272063814 28.4053339372756 0 28.4053339372756 23.795252748990606 0 0 0 0 -22.403524248111353 9.3358330026776457 0 9.3358330026776457 45.691066513536498 0 0 0 0 11.682936008437537 63.847529837235925 0 63.847529837235925 68.952300156112869 0 0 0 0 -6.3242700233995492 -19.96877904529174 0 -19.96877904529174 97.99005661820047 0 0 0 0 0.37874360791077955 -0.55314558174548267 0 -0.55314558174548267 0.37746176264872844 0 0 0 0 -51.835658554839938 -37.402364354606561 0 -37.402364354606561 31.909625914120625 0 0 0 0 94.544975531945965 74.066693570461211 0 74.066693570461211 -164.66810822320258 0 0 0 0 5.5148619610831702 23.616827306942014 0 23.616827306942014 -14.261538245562406 0 0 0 0 -7.969124747335627 22.298179813981278 0 22.298179813981278 -14.178441081625351 0 0 0 0 -0.74986510501841153 0.53755611089758304 0 0.53755611089758304 3.8962090225359418 0 0 0 0 -0.7128703867847932 0.49065892488845364 0 0.49065892488845364 -0.6498995620327328 0 0 0 0 -36.325424880008086 3.1895176979601274 0 3.1895176979601274 27.798488499414816 0 0 0 0 -31.508902064702852 -96.115949067818292 0 -96.115949067818292 117.05801429580606 0 0 0 0 25.255324637741069 29.019484157226543 0 29.019484157226543 -6.652177885310266 0 0 0 0 3.2776887781319601 6.6056875582116845 0 6.6056875582116845 16.456624113448925 0 0 0 0 5.3687265305597975 12.087125800810099 0 12.087125800810099 -20.128112290816716 0 0 0 0 -26.297600047440937 32.789359427912132 0 32.789359427912132 9.4197803029692295 0 0 0 0 14.965722718970937 16.490776500049833 0 16.490776500049833 11.644469510469207 0 0 0 0 0.26122427603531406 5.21041140582971 0 5.21041140582971 -4.9078529232053043 0 0 0 0 -3.6543161973368115 36.812745298886966 0 36.812745298886966 32.821961153658776 0 0 0 0 -8.2810561841679444 6.5836097743059412 0 6.5836097743059412 -1.131363405589962 0 0 0 0 6.9103020173204186 26.63142399813637 0 26.63142399813637 13.92343435782459 0 0 0 0 12.94845172400278 3.9011522466557835 0 3.9011522466557835 4.6915648929170857 0 0 0 0 -1.3097429724575704 9.3006017742829954 0 9.3006017742829954 3.5287463830081833 0 0 0 0 -1.2409600694591063 10.426149036312836 0 10.426149036312836 10.646041560031335 0 0 0 0 0.098326631519739749 12.164456304504711 0 12.164456304504711 5.1184982372869854 0 0 0 0 -4.8239948687274605 4.118793470042128 0 4.118793470042128 1.610854936449833 0 0 0 0 -5.3659348300885288 7.9795574030145637 0 7.9795574030145637 5.6035413602366049 0 0 0 0 1.9491420673989523 10.666703800881123 0 10.666703800881123 10.679715084050258 0 0 0 0 -0.41875466182095522 8.327122348578591 0 8.327122348578591 6.3611701457044356 0 0 0 0 -3.9561730724817608 6.9349367889553832 0 6.9349367889553832 10.095804531109025 0 0 0 0 -3.4958816728758393 7.9786655748721387 0 7.9786655748721387 9.4988534184140008 0 0 0 0 -3.4964467936442816 8.0646745555059169 0 8.0646745555059169 8.0033560634856258 0 0 0 0 -0.89353492456737271 11.795283320961548 0 11.795283320961548 8.6664108400645787 0 0 0 0 -1.3080215387781209 23.254355712185315 0 23.254355712185315 10.618044122349602 0 0 0 0 -25.838882207039205 -0.72557124171180476 0 -0.72557124171180476 22.940881221187738 0 0 0 0 -5.1622219209770108 7.3684151633535819 0 7.3684151633535819 -4.8465327202360413 0 0 0 0 -1.8458168619051598 2.6349065234839699 0 2.6349065234839699 0.061454452535514292 0 0 0 0 -7.0963262869718164 19.392358664685162 0 19.392358664685162 21.926319760706292 0 0 0 0 -2.6413883999289496 7.097919888905043 0 7.097919888905043 -0.44039048190262342 0 0 0 0 -9.1609614153626353 2.6317657866129593 0 2.6317657866129593 9.1381137103271612 0 0 0 0 -14.712257589419096 10.818893896760528 0 10.818893896760528 20.618931762506691 0 0 0 0 1.8362765797719476 11.7615942938628 0 11.7615942938628 6.8101693663443257 0 0 0 0 2.8583919467419037 9.2003802048748184 0 9.2003802048748184 2.7396118250617292 0 0 0 0 0.78147195246128831 10.445556015325565 0 10.445556015325565 0.75116196651538303 0 0 0 0 -1.1594873931071774 9.3983985937656556 0 9.3983985937656556 0.91658223207512179 0 0 0 0 -2.6542522514420739 13.002663435119473 0 13.002663435119473 -4.6342371117389121 0 0 0 0 -2.8455290221320411 9.207421150749667 0 9.207421150749667 -0.51896974409464747 0 0 0 0 -3.064061244064554 6.3368816861899981 0 6.3368816861899981 1.6820298136680982 0 0 0 0 0.18729179997171741 13.554806255491712 0 13.554806255491712 8.1784748803183902 0 0 0 0 -0.93666711932382896 4.8015984407938959 0 4.8015984407938959 4.1370797838826547 0 0 0 0 -3.0493895282060777 6.6935079877263988 0 6.6935079877263988 4.1840993956446582 0 0 0 0 -0.22703371645950909 7.1446885655506236 0 7.1446885655506236 0.6340123815396872 0 0 0 0 -3.6999945944553474 8.8280282292271295 0 8.8280282292271295 4.3967959559668088 0 0 0 0 -2.084493272632244 11.015637343345588 0 11.015637343345588 7.1596229244532879 0 0 0 0 -9.7218505380351417 40.690113116856764 0 40.690113116856764 35.424836289315309 0 0 0 0 1.8588199212863401 10.34214115233317 0 10.34214115233317 -6.4517283122750086 0 0 0 0 -3.5560526794193663 14.90166303954935 0 14.90166303954935 -9.6920067182703988 0 0 0 0 -2.1881573998580279 12.628515222299939 0 12.628515222299939 -7.3429299548370182 0 0 0 0 -1.0596518314382717 1.8019995600117475 0 1.8019995600117475 1.406501056783835 0 0 0 0 5.5893994787784322 8.2969210317351099 0 8.2969210317351099 -5.6818833479101158 0 0 0 0 -3.7998037346260389 42.428887183938059 0 42.428887183938059 27.090363744042179 0 0 0 0 -10.935763598521589 32.421093297211428 0 32.421093297211428 22.306893431080653 0 0 0 0 -15.4529255096204 41.802998144721641 0 41.802998144721641 28.972995126029673 0 0 0 0 -1.4587929043100303 11.849650833826672 0 11.849650833826672 9.0490984944080992 0 0 0 0 8.3930627755180467 19.206841366596677 0 19.206841366596677 32.717971652229608 0 0 0 0 5.1217606049376627 15.040824400392239 0 15.040824400392239 34.75311390173556 0 0 0 0 -0.33149778313571332 13.333942545321259 0 13.333942545321259 6.3704618048058812 0 0 0 0 -0.51703520789584445 0.18008927357054416 0 0.18008927357054416 4.7420417561550661 0 0 0 0 3.2440664056448441 37.110151395922685 0 37.110151395922685 23.781245729591319 0 0 0 0 4.5396562285168329 27.567095124054504 0 27.567095124054504 17.271066534408419 0 0 0 0 -1.817750486933619 12.612127330817771 0 12.612127330817771 11.094006093378084 0 0 0 0 -20.596003170176118 24.07870904531319 0 24.07870904531319 18.364462387621188 0 0 0 0 -10.212438881935668 9.5041687408397593 0 9.5041687408397593 13.685137805713566 0 0 0 0 -4.3925958938461918 5.163558512381428 0 5.163558512381428 14.717310391292813 0 0 0 0 -6.6102468251738173 11.428865623987804 0 11.428865623987804 14.626135122546202 0 0 0 0 -4.3057259183915448 5.6661066071537789 0 5.6661066071537789 3.8798914336039161 0 0 0 0 -4.1426282924461972 3.9445687564290166 0 3.9445687564290166 11.680423042443866 0 0 0 0 -2.1481837916112241 6.7570649038319059 0 6.7570649038319059 6.7890933223377372 0 0 0 0 -3.9836178712794208 6.3617748401848075 0 6.3617748401848075 8.5897130880039185 0 0 0 0 -1.307403658601654 9.6824512218412124 0 9.6824512218412124 8.3275807117572924 0 0 0 0 -2.4884867234224721 4.908165681426242 0 4.908165681426242 2.9272759281811069 0 0 0 0 1.8649149175789255 4.3949321838568256 0 4.3949321838568256 0.61821014376165628 0 0 0 0 4.5200766911966639 7.9150743577775984 0 7.9150743577775984 16.291034215660602 0 0 0 0 -0.71782390852788858 3.1167469858177679 0 3.1167469858177679 7.4131250736365253 0 0 0 0 0.74939274703865522 4.4988953130850859 0 4.4988953130850859 3.8667194754380034 0 0 0 0 -10.637387592683808 11.067222406355427 0 11.067222406355427 12.509763622346327 0 0 0 0 -13.078401603263046 7.0214853113493518 0 7.0214853113493518 14.328131625094443 0 0 0 0 -29.422971208550734 32.678746955770293 0 32.678746955770293 13.807555330478863 0 0 0 0 -17.065291019614961 25.770813181156427 0 25.770813181156427 17.442523313789934 0 0 0 0 -23.579635611713456 28.164154870128641 0 28.164154870128641 2.1967684016053681 0 0 0 0 -71.352222497702314 1.7262683039671174 0 1.7262683039671174 12.450194571099502 0 0 0 0 -32.521574804755801 2.6523194969731776 0 2.6523194969731776 12.389139207039989 0 0 0 0 -46.881362041402099 37.137576098804061 0 37.137576098804061 -1.0413085142936325 0 0 0 0 -38.319018683578179 24.382421029432862 0 24.382421029432862 -13.121440315926975 0 0 0 0 -23.047878495992336 35.717797107432943 0 35.717797107432943 -24.382997049021469 0 0 0 0 -32.622177946032025 20.15127394609317 0 20.15127394609317 -18.302582136949695 0 0 0 0 -74.262402780172124 46.887314973466346 0 46.887314973466346 -23.046189055938157 0 0 0 0 25.394178217911758 20.35527374130379 0 20.35527374130379 -18.631563306775206 0 0 0 0 0.85717895105328878 0.81663087946643387 0 0.81663087946643387 0.27128664812978265 0 0 0 0 3.3246038010038319 34.568038913781493 0 34.568038913781493 -27.745989280804679 0 0 0 0 -84.652029163506086 21.180199954338605 0 21.180199954338605 2.9611796600256639 0 0 0 0 0.78004787166144496 0.67933622002213312 0 0.67933622002213312 0.54387315231537681 0 0 0 0 3.1001768992537109 22.28793232944372 0 22.28793232944372 34.469559725637509 0 0 0 0 10.381147471780423 31.874411138085406 0 31.874411138085406 4.2957581029077119 0 0 0 0 1.7576397922166507 24.703147674731099 0 24.703147674731099 11.734963967086969 0 0 0 0 -6.5748625824999181 34.070328075988982 0 34.070328075988982 20.967199482118303 0 0 0 0 -6.6703832753000825 35.064937886702182 0 35.064937886702182 10.693825088988888 0 0 0 0 -10.900532646526699 31.829079629893386 0 31.829079629893386 11.287423771671911 0 0 0 0 -12.39630005487561 32.585575720804172 0 32.585575720804172 19.92388224811657 0 0 0 0 -17.839968116485352 38.386056438846737 0 38.386056438846737 17.197151407326601 0 0 0 0 -14.673510952205106 39.318583201015826 0 39.318583201015826 5.1277269099982732 0 0 0 0 -25.901915388434645 31.58998680997081 0 31.58998680997081 14.28877359989292 0 0 0 0 -21.559143089993086 29.894308877658091 0 29.894308877658091 -2.7888540885396651 0 0 0 0 -8.1093783161959436 26.390803247706572 0 26.390803247706572 -17.807070608092545 0 0 0 0 -7.7269286313130578 29.019061861608861 0 29.019061861608861 -6.1274553916382501 0 0 0 0 -10.720836104363116 29.318244852985117 0 29.318244852985117 -4.1082486764980786 0 0 0 0 -3.1749236130308418 24.668576511485753 0 24.668576511485753 -1.9699324596740553 0 0 0 0 -1.7695560156862484 31.379065646091021 0 31.379065646091021 -0.56185690833171975 0 0 0 0 0.85957586233416805 23.353809004514915 0 23.353809004514915 -5.2676589114826129 0 0 0 0 2.6699039625236765 30.064638291387382 0 30.064638291387382 -3.4987665553442184 0 0 0 0 4.7416884227459377 26.459016350444699 0 26.459016350444699 2.1881134478899185 0 0 0 0 0.37957486811137642 23.916798461040344 0 23.916798461040344 -8.020947767112375 0 0 0 0 5.1335322995582828 27.860046365191465 0 27.860046365191465 -5.3131922731718078 0 0 0 0 -3.5857779847301572 20.952330256199957 0 20.952330256199957 -13.270692837772003 0 0 0 0 -1.2264420093742956 25.73959754737416 0 25.73959754737416 -7.9381700648154947 0 0 0 0 -4.5102727396588307 19.76095155035091 0 19.76095155035091 -8.735582037965969 0 0 0 0 -5.3392270870699576 21.333793250539202 0 21.333793250539202 -11.469891416714745 0 0 0 0 -11.084579971771745 21.357491460814344 0 21.357491460814344 -9.0104402698889317 0 0 0 0 -19.978915683721425 21.041830442985884 0 21.041830442985884 -12.526799515140738 0 0 0 0 -11.880767058057245 18.664263720493409 0 18.664263720493409 -16.941914747796545 0 0 0 0 -23.852385520538519 18.322109811831069 0 18.322109811831069 -9.1983852933117305 0 0 0 0 -20.554165070872841 15.780889963909431 0 15.780889963909431 -9.8266690452064722 0 0 0 0 -14.959785143953923 17.800829489169246 0 17.800829489169246 -6.7655781586469175 0 0 0 0 -15.210526451957776 20.729097778293408 0 20.729097778293408 -7.1640471866739972 0 0 0 0 -10.991329389788007 16.57961133247727 0 16.57961133247727 -9.2496322205465731 0 0 0 0 -5.6912011679814896 21.543466903061926 0 21.543466903061926 -7.62968070905481 0 0 0 0 -6.7615728464552376 18.344347868647674 0 18.344347868647674 -7.8177476306020708 0 0 0 0 -2.8626315034125582 19.53482498190715 0 19.53482498190715 -8.143779476556702 0 0 0 0 -8.8115377862104651 27.892938875952041 0 27.892938875952041 -12.438041273506315 0 0 0 0 -35.752392679738477 41.422771932700584 0 41.422771932700584 -15.883296163357954 0 0 0 0 -50.53069801426318 13.317098622412459 0 13.317098622412459 -17.993232118538799 0 0 0 0 -31.678748357961013 30.828442001879921 0 30.828442001879921 -44.472676676444735 0 0 0 0 -19.595581693896747 21.723156607891269 0 21.723156607891269 -22.550423311318809 0 0 0 0 -30.737563426468114 10.558531713179946 0 10.558531713179946 -17.88087270577671 0 0 0 0 -38.072397515410557 25.039312617196174 0 25.039312617196174 -7.4036777423070816 0 0 0 0 -25.827265505860851 24.298117918276148 0 24.298117918276148 -7.3770532657639478 0 0 0 0 -29.602423940234075 22.455159682812791 0 22.455159682812791 -4.1103561736144911 0 0 0 0 -23.142564110727108 21.047619711776406 0 21.047619711776406 -3.9103925840769307 0 0 0 0 -24.844100626047293 26.482066317668341 0 26.482066317668341 -2.9129438236345777 0 0 0 0 -17.143450266627042 27.269454219303043 0 27.269454219303043 -5.2838636934484384 0 0 0 0 -28.216063423364176 24.52151810325995 0 24.52151810325995 -4.0069784983325007 0 0 0 0 -23.98231507739365 30.954807123947717 0 30.954807123947717 -6.7341970731877154 0 0 0 0 -17.249991506854712 23.287195573616827 0 23.287195573616827 0.70614091024208392 0 0 0 0 -6.4170928022185763 19.034595744727426 0 19.034595744727426 -7.9030230564026169 0 0 0 0 -11.141707504222722 24.72164055914925 0 24.72164055914925 -13.475380777039391 0 0 0 0 -9.4602363141439128 16.126173967875729 0 16.126173967875729 2.2779904856281519 0 0 0 0 -3.9134412323287506 15.383812432146129 0 15.383812432146129 -2.8801423646418698 0 0 0 0 -1.4744279655824357 7.0596942678943151 0 7.0596942678943151 -7.7387497853474088 0 0 0 0 -7.6559837954864634 14.718470221926964 0 14.718470221926964 0.068041127537526336 0 0 0 0 -4.9774076384856016 14.178784844144502 0 14.178784844144502 -6.4454733556121937 0 0 0 0 -1.3127558803080319 8.840643519300329 0 8.840643519300329 -2.3961265161760821 0 0 0 0 2.5752681038884475 14.38568106025923 0 14.38568106025923 -2.6541791906402068 0 0 0 0 -0.67203365084585442 7.8459155270987484 0 7.8459155270987484 3.7767461551015669 0 0 0 0 3.491516415817955 5.1209025043402967 0 5.1209025043402967 3.7306158071886655 0 0 0 0 3.704157069131611 10.564054038918869 0 10.564054038918869 -8.1397276428688201 0 0 0 0 -19.749777168870423 27.529845892523099 0 27.529845892523099 -3.4089892297666893 0 0 0 0 -15.468152171855763 31.726141304723342 0 31.726141304723342 -20.397064559822411 0 0 0 0 -23.817738261421255 33.160389781097365 0 33.160389781097365 -4.8875616785904867 0 0 0 0 -28.491145660454094 41.009028706482468 0 41.009028706482468 -17.896132219635547 0 0 0 0 -43.293270066997138 28.105650109777798 0 28.105650109777798 4.4113685802149121 0 0 0 0 -26.626299160112922 10.502094408022572 0 10.502094408022572 5.3266416831470451 0 0 0 0 -17.741865775922633 18.911916971235087 0 18.911916971235087 1.9392806987489735 0 0 0 0 -8.1268163157234312 -0.082703759819906963 0 -0.082703759819906963 14.357422404647878 0 0 0 0 -22.931173252811277 12.50027192493485 0 12.50027192493485 16.428002058621132 0 0 0 0 -21.919277772794885 18.704444008290579 0 18.704444008290579 9.1931980899457812 0 0 0 0 -18.744357007891722 27.735034719576106 0 27.735034719576106 -3.5754887084340226 0 0 0 0 -19.619028545603214 27.422509339745147 0 27.422509339745147 -0.92538722233348381 0 0 0 0 -22.338270369054953 27.875652564857774 0 27.875652564857774 -1.7175143602021308 0 0 0 0 -21.765773986009208 25.846190829963405 0 25.846190829963405 -2.9858226728447335 0 0 0 0 -19.308244871570423 28.13946808416506 0 28.13946808416506 -3.3346097999419726 0 0 0 0 -19.382405692141674 22.486481433463695 0 22.486481433463695 -3.8556811731741618 0 0 0 0 -19.971040369768161 26.357940746755048 0 26.357940746755048 -3.3038528205470357 0 0 0 0 -15.823890637781005 24.535461439593291 0 24.535461439593291 -6.3718739656922025 0 0 0 0 -15.738553895078439 26.642110683207648 0 26.642110683207648 -6.8582591189165214 0 0 0 0 -20.011636334249488 27.320345637259834 0 27.320345637259834 -4.3876652410122006 0 0 0 0 -20.000258452775597 27.490879950015824 0 27.490879950015824 -3.9077529535597932 0 0 0 0 -6.9886914713206352 20.686326883387665 0 20.686326883387665 -7.059743325897216 0 0 0 0 -6.6359027935504855 19.852336259376898 0 19.852336259376898 -6.7898525472419351 0 0 0 0 -3.4402301472273393 21.887497316548433 0 21.887497316548433 -7.0332927028612175 0 0 0 0 -20.124536888108196 22.743794949937637 0 22.743794949937637 -3.9373475628926826 0 0 0 0 -11.880639763958243 21.272861474346428 0 21.272861474346428 -6.2513379175825321 0 0 0 0 -12.969273899635311 21.334399689256578 0 21.334399689256578 -5.9663562709802136 0 0 0 0 -13.057440557109658 23.691981225160362 0 23.691981225160362 -6.1288463271685032 0 0 0 0 -6.6544768661406124 21.400868316439755 0 21.400868316439755 -7.9529234570472909 0 0 0 0 -6.3961598225846501 22.290305634315814 0 22.290305634315814 -7.2069830609616474 0 0 0 0 -5.7658332793434965 21.386360154648628 0 21.386360154648628 -10.529262196486343 0 0 0 0 -5.7643412061559047 21.453779662825866 0 21.453779662825866 -8.8428414479503772 0 0 0 0 -10.548192499484571 24.659525498413444 0 24.659525498413444 -10.419921753774361 0 0 0 0 -10.620472323611466 22.468073203714084 0 22.468073203714084 -7.7474861539176345 0 0 0 0 -8.6907898781137192 23.465629660933473 0 23.465629660933473 -10.176332727694898 0 0 0 0 -8.5152410921518822 23.585893412942937 0 23.585893412942937 -12.288846660047057 0 0 0 0 -3.5419454385591962 19.79300926308315 0 19.79300926308315 -15.350257916421469 0 0 0 0 -20.65279445629676 29.456581227567995 0 29.456581227567995 -4.9853723811193049 0 0 0 0 -17.778610503115488 29.512646810980641 0 29.512646810980641 -10.414133906903771 0 0 0 0 -12.52970134115003 28.358456744719888 0 28.358456744719888 -16.323715508240639 0 0 0 0 -13.942294481621502 27.699779990724437 0 27.699779990724437 -10.825482889434056 0 0 0 0 -5.5564525970166869 30.174816696790231 0 30.174816696790231 -40.594324531675738 0 0 0 0 -4.3332103859829658 22.866394525831765 0 22.866394525831765 -21.733981507108183 0 0 0 0 -1.3786085471510887 20.933000310629268 0 20.933000310629268 -20.637230785115662 0 0 0 0 -3.6318377374659576 19.150090922859448 0 19.150090922859448 -11.937688871854334 0 0 0 0 -4.8100059327043709 20.478039043053741 0 20.478039043053741 -15.681430389929119 0 0 0 0 -1.8001724691966956 19.663456987599602 0 19.663456987599602 -23.76990356159331 0 0 0 0 -0.30255189515446546 16.748039361064457 0 16.748039361064457 -19.164721683065181 0 0 0 0 -0.97086734705726485 15.281451183928084 0 15.281451183928084 -15.436769852074576 0 0 0 0 1.5158488167544419 10.426790115823678 0 10.426790115823678 -18.113822757890375 0 0 0 0 1.6741270589109263 9.453140999829202 0 9.453140999829202 -16.21267081716087 0 0 0 0 3.2962061596458625 10.736078940248831 0 10.736078940248831 -26.768795882139784 0 0 0 0 2.1040097105815221 9.3690395131338846 0 9.3690395131338846 -15.623841945086042 0 0 0 0 2.9930162031323562 7.5707445219272813 0 7.5707445219272813 -16.980019584173533 0 0 0 0 2.4770108498034915 6.2581228320840978 0 6.2581228320840978 -13.993508172501606 0 0 0 0 2.5381424263325698 10.745171382526735 0 10.745171382526735 -40.277903372343644 0 0 0 0 1.2055029609691701 -2.4236110174588248 0 -2.4236110174588248 -19.416070384470004 0 0 0 0 2.0014741155700904 6.726167030007673 0 6.726167030007673 -18.201056709623117 0 0 0 0 -0.32763402926775598 8.8278956047868178 0 8.8278956047868178 -101.61620787380355 0 0 0 0 -17.701636656391202 33.119360100391987 0 33.119360100391987 -20.960895466786042 0 0 0 0 -17.716537802464529 33.367860585769463 0 33.367860585769463 -24.946221925547434 0 0 0 0 -78.485796897678938 41.952946077501338 0 41.952946077501338 0.42744873401716177 0 0 0 0 -36.982220635269186 67.925205968694627 0 67.925205968694627 -69.374491300099635 0 0 0 0 -0.61467536059384642 0.72331141432611901 0 0.72331141432611901 -0.91812147365800545 0 0 0 0 -28.33057766714262 11.59641598119282 0 11.59641598119282 13.663521998638771 0 0 0 0 17.648932661713843 17.686048602477513 0 17.686048602477513 8.5520493406638707 0 0 0 0 5.2362480933461484 -0.065153613510346986 0 -0.065153613510346986 2.5581820343950312 0 0 0 0 33.303900849973878 9.7245371610366611 0 9.7245371610366611 -7.486396397956014 0 0 0 0 33.229147920470496 51.356425861742991 0 51.356425861742991 46.585506788282146 0 0 0 0 -7.6279829998921969 36.980961965499603 0 36.980961965499603 42.169851310074591 0 0 0 0 -4.5095331904349223 16.07332341493111 0 16.07332341493111 14.137616236544545 0 0 0 0 1.4594783320517308 19.929773733639422 0 19.929773733639422 9.0649998200124173 0 0 0 0 14.353556822850805 -11.463997139868752 0 -11.463997139868752 77.77869277274317 0 0 0 0 0.29014140087720008 0.29635298127540555 0 0.29635298127540555 0.28523937594280913 0 0 0 0 45.172398838163645 33.410533138441338 0 33.410533138441338 12.907163670795853 0 0 0 0 -0.8548567397538136 27.740999443693909 0 27.740999443693909 14.189338508611968 0 0 0 0 2.2656320432529355 15.863785312429854 0 15.863785312429854 32.11980399570848 0 0 0 0 -1.2404360447455574 3.9903602422503504 0 3.9903602422503504 2.0234498668213341 0 0 0 0 4.5155892944448155 9.6359147843995707 0 9.6359147843995707 -7.0661218251952134 0 0 0 0 9.1918209883133386 -18.20916567912036 0 -18.20916567912036 17.437279712040549 0 0 0 0 5.5515500148630963 23.673500258132208 0 23.673500258132208 15.396163030561638 0 0 0 0 -0.37340029383358342 13.309144180052272 0 13.309144180052272 22.904953899032535 0 0 0 0 15.988875494258991 16.598226098622263 0 16.598226098622263 -8.9994645960978232 0 0 0 0 -1.3487976450824135 12.58764231834698 0 12.58764231834698 22.387698741667464 0 0 0 0 -1.2748753902460521 15.109310039196316 0 15.109310039196316 91.826947040504365 0 0 0 0 -2.9809729717501341 5.8496476834806401 0 5.8496476834806401 32.274119430272549 0 0 0 0 -2.7445260805554881 5.6414069445966106 0 5.6414069445966106 18.134166311832359 0 0 0 0 -1.6706106290184835 7.430083466123051 0 7.430083466123051 5.5699536819429341 0 0 0 0 -0.088038177043465282 1.4007267748758201 0 1.4007267748758201 1.4829159464203716 0 0 0 0 -3.5479823656451117 8.3454083187339165 0 8.3454083187339165 -10.076561546902894 0 0 0 0 -2.0180624841527184 2.4076559718166841 0 2.4076559718166841 -0.24258660595491044 0 0 0 0 0.4743741054826387 4.461637021446677 0 4.461637021446677 -9.491559824153228 0 0 0 0 1.3027301484053169 6.6776680552698053 0 6.6776680552698053 7.377573878133262 0 0 0 0 2.3570205142428229 6.9392979364051177 0 6.9392979364051177 4.3434207974801247 0 0 0 0 0.30314293883335353 1.3857494826857391 0 1.3857494826857391 1.2937701637888224 0 0 0 0 0.4663606978374446 5.0902511860676896 0 5.0902511860676896 4.3688208911353286 0 0 0 0 2.1995831199037639 4.707453148004106 0 4.707453148004106 -6.5246095525526471 0 0 0 0 4.7891406298276706 6.7649449314230878 0 6.7649449314230878 -13.988931630321531 0 0 0 0 0.9612767723374418 5.9188755175755432 0 5.9188755175755432 -12.476197200513525 0 0 0 0 1.6495619669476582 6.6275994179766258 0 6.6275994179766258 -12.838687217589722 0 0 0 0 0.90379274566804213 0.90292349606869982 0 0.90292349606869982 -0.20274726754125538 0 0 0 0 2.9871935499794162 5.2264988155436933 0 5.2264988155436933 -0.017479178121553973 0 0 0 0 4.7213691374654445 -0.70585867492854959 0 -0.70585867492854959 -9.4440710970775399 0 0 0 0 -39.610968260458321 22.816171652476761 0 22.816171652476761 37.310234381403461 0 0 0 0 0.2712678727657476 15.137826368741912 0 15.137826368741912 21.527455499841835 0 0 0 0 6.7514939945940569 16.884984843540678 0 16.884984843540678 -3.3069505557486423 0 0 0 0 -5.4601261351320005 -0.41347474002423645 0 -0.41347474002423645 3.6093199529693392 0 0 0 0 -2.6223152168804518 7.4286271679038691 0 7.4286271679038691 20.028388629492838 0 0 0 0 -2.4476370107579442 9.5075720411789035 0 9.5075720411789035 13.39507800356705 0 0 0 0 -7.3167556377957226 9.2096781188208752 0 9.2096781188208752 34.264327483459965 0 0 0 0 -5.2589321752096012 -0.21004333205509518 0 -0.21004333205509518 3.4196808253737219 0 0 0 0 -4.9566578260646565 10.477385342826892 0 10.477385342826892 14.085802063430492 0 0 0 0 3.603588752253728 5.7027572135452971 0 5.7027572135452971 8.164511087255411 0 0 0 0 6.2337489639503474 -2.7069547963130844 0 -2.7069547963130844 1.9843281376290633 0 0 0 0 3.9920742903123028 10.203582161310123 0 10.203582161310123 7.4401708156274253 0 0 0 0 -0.43418656640915287 9.6981897894227131 0 9.6981897894227131 7.6637463754022974 0 0 0 0 0.59861999348686368 13.379381626005852 0 13.379381626005852 15.027645372005054 0 0 0 0 6.7384725755053232 7.3462000655161361 0 7.3462000655161361 8.5966246127462114 0 0 0 0 -2.4202923167035806 30.195782219318005 0 30.195782219318005 -1.0507095003401901 0 0 0 0 6.3407828829695063 64.138794533618238 0 64.138794533618238 19.247050270921818 0 0 0 0 -19.945814087473991 -5.0113333733434047 0 -5.0113333733434047 4.9770114425307383 0 0 0 0 -0.92362418149787118 10.146092507012781 0 10.146092507012781 15.768374123231069 0 0 0 0 -0.64611189350316778 -0.087192931786429284 0 -0.087192931786429284 1.3676163798767718 0 0 0 0 35.188078462011617 37.636780865814444 0 37.636780865814444 12.372115191362809 0 0 0 0 80.251626578137802 18.868102764364039 0 18.868102764364039 -1.3277333894791354 0 0 0 0 0.8109351424356035 0.67183013381329459 0 0.67183013381329459 1.1331343586983667 0 0 0 0 30.066544883687584 21.750277945060759 0 21.750277945060759 -22.138394975961091 0 0 0 0 -30.849110367567846 7.5565674325684995 0 7.5565674325684995 17.389338881663889 0 0 0 0 -32.099344486949121 -2.5285998816926281 0 -2.5285998816926281 7.8889974862563577 0 0 0 0 -10.254195590721793 48.838870347159229 0 48.838870347159229 36.345658930384616 0 0 0 0 114.07552164433582 -7.9607851152945841 0 -7.9607851152945841 -33.36964889609385 0 0 0 0 10.941995521145145 -30.928425520664632 0 -30.928425520664632 41.76887186314525 0 0 0 0 2.3179873725477833 4.7651043914004179 0 4.7651043914004179 -1.5993703816922784 0 0 0 0 -35.466324611602317 -21.350668760956665 0 -21.350668760956665 50.222346316309086 0 0 0 0 -2.6117819674946077 5.9893867069820317 0 5.9893867069820317 -10.729614120412862 0 0 0 0 -9.8624735828816483 -21.870419820902498 0 -21.870419820902498 -39.977984647300104 0 0 0 0 -41.203388347111968 25.507766681478302 0 25.507766681478302 121.16137276795052 0 0 0 0 -33.315244676990915 -27.860017028087668 0 -27.860017028087668 -9.7735000800453236 0 0 0 0 44.166997038044883 34.958239078298448 0 34.958239078298448 -9.1149956265353467 0 0 0 0 -25.732873652203125 -4.4619145981796464 0 -4.4619145981796464 29.719296699678125 0 0 0 0 -3.7494840255712916 15.401818792697668 0 15.401818792697668 34.984343652420876 0 0 0 0 46.534874763288826 40.657797542027083 0 40.657797542027083 10.256881987512088 0 0 0 0 -0.12228329729212817 0.42714021082720688 0 0.42714021082720688 0.50600906952178892 0 0 0 0 -5.6437530291425446 6.0069277424388474 0 6.0069277424388474 -1.9798687937318391 0 0 0 0 -21.260209542027951 -11.175279065880659 0 -11.175279065880659 -1.1672893708412175 0 0 0 0 -1.1398702083752141 11.844332988650422 0 11.844332988650422 -8.2132599644019137 0 0 0 0 -3.5445680958373487 7.0305982760494317 0 7.0305982760494317 -9.2876455252403503 0 0 0 0 0.13259783839581019 0.77280492721676541 0 0.77280492721676541 0.89431106336323385 0 0 0 0 1.0450753383047413 6.9794685759004551 0 6.9794685759004551 -13.870092219376602 0 0 0 0 1.8810495749748952 6.1776104127511644 0 6.1776104127511644 -13.104674459635135 0 0 0 0 -0.23732471759649343 6.1716652931104363 0 6.1716652931104363 -12.519893950896972 0 0 0 0 0.73421590572979767 9.6166002615391335 0 9.6166002615391335 -12.701376812847457 0 0 0 0 -1.4031610562215064 10.212408460594816 0 10.212408460594816 -12.035364405163364 0 0 0 0 -0.84253538818666129 15.309309642346307 0 15.309309642346307 -10.299955469145061 0 0 0 0 -1.0605267071696289 14.452619226474326 0 14.452619226474326 -9.3687365637597395 0 0 0 0 -1.0406071182987944 14.538981736161077 0 14.538981736161077 -14.023500010704083 0 0 0 0 -2.4559106545366376 13.332108638247973 0 13.332108638247973 -6.6584583091846525 0 0 0 0 -3.6386339047676302 17.685168964005697 0 17.685168964005697 11.464857101916095 0 0 0 0 -1.1087924060475416 11.632941186006178 0 11.632941186006178 -5.2800973629491637 0 0 0 0 -1.827767234064595 15.298035352056104 0 15.298035352056104 -2.7244392724833233 0 0 0 0 3.9491536525347328 23.277184947371779 0 23.277184947371779 -6.3876478000565839 0 0 0 0 3.1354251003926947 25.25772014009209 0 25.25772014009209 -1.3047287636240981 0 0 0 0 -0.65462186982767889 22.172902381760196 0 22.172902381760196 -1.7603026738595986 0 0 0 0 -2.4024646808611578 18.633359833328541 0 18.633359833328541 -11.850152737462849 0 0 0 0 -2.4124144600748423 18.47217547150899 0 18.47217547150899 -6.4943106748705759 0 0 0 0 -0.74985427895626344 19.761831329376491 0 19.761831329376491 -8.7632615164379786 0 0 0 0 -2.9364848210570926 21.165025066291946 0 21.165025066291946 -6.4459360543960429 0 0 0 0 -2.9103387919567467 20.393529491740992 0 20.393529491740992 -9.0104789347069527 0 0 0 0 0.74247234397262218 22.748622453811777 0 22.748622453811777 -8.0390135438319703 0 0 0 0 -3.1588641540583922 20.417524538851467 0 20.417524538851467 -7.2125734990848684 0 0 0 0 0.55617675428584334 22.284691162605327 0 22.284691162605327 -5.2388228940017143 0 0 0 0 4.0265563757993732 25.806198717610641 0 25.806198717610641 -5.6730009674715802 0 0 0 0 -1.5723296281248622 22.820065976005935 0 22.820065976005935 -7.3420038136506207 0 0 0 0 0.69083149556900025 21.291049535925822 0 21.291049535925822 -7.178880335305621 0 0 0 0 6.2351980234216171 24.659758693183903 0 24.659758693183903 -5.5541811126020093 0 0 0 0 5.8476296841135991 28.229720771888239 0 28.229720771888239 -3.0770245531407454 0 0 0 0 8.3136569252001209 27.717115914255373 0 27.717115914255373 -4.0262504104721302 0 0 0 0 11.435667286768876 23.865441611363167 0 23.865441611363167 -4.2077986544677515 0 0 0 0 2.6878399489723961 22.946612086991308 0 22.946612086991308 -2.960919398338774 0 0 0 0 8.2715813126360445 17.024424464302399 0 17.024424464302399 -13.311732061732073 0 0 0 0 6.2605150200397475 25.094727323536517 0 25.094727323536517 -1.2586711797816861 0 0 0 0 13.114198472719863 21.669292923894261 0 21.669292923894261 -0.37578726715901212 0 0 0 0 10.280888426186721 30.54970401973651 0 30.54970401973651 2.5267210414203873 0 0 0 0 0.080728655502753099 11.113645918974044 0 11.113645918974044 -2.7244602006023797 0 0 0 0 -4.5893084065064613 5.1103554039732444 0 5.1103554039732444 4.6593065251854568 0 0 0 0 -0.11908231083661036 2.0639100095246867 0 2.0639100095246867 -2.170278499572369 0 0 0 0 -15.640108700143173 9.3049278254438832 0 9.3049278254438832 7.2063355067409702 0 0 0 0 7.9314135472450289 8.922707531990909 0 8.922707531990909 -2.123178833729753 0 0 0 0 5.6026133799020954 2.3226516069301226 0 2.3226516069301226 -8.5754089740730706 0 0 0 0 13.817371873468801 24.444792287742757 0 24.444792287742757 -7.7340583286591027 0 0 0 0 3.0836414298923742 11.365650162492082 0 11.365650162492082 -9.2167098021616738 0 0 0 0 1.898297498926695 27.881522560986468 0 27.881522560986468 17.420549711556305 0 0 0 0 -50.649825373429849 34.834107166346854 0 34.834107166346854 31.668264226999781 0 0 0 0 8.0416770449465886 15.651163513067733 0 15.651163513067733 17.055150230847808 0 0 0 0 -10.321771104438085 13.300014981368122 0 13.300014981368122 -1.7573166055697129 0 0 0 0 -1.1872470902952443 1.0543632902184754 0 1.0543632902184754 -0.50516209987280547 0 0 0 0 -9.9910296784655657 23.505493836041978 0 23.505493836041978 7.7293051928800196 0 0 0 0 -9.4496147739555454 -18.183536111886269 0 -18.183536111886269 39.689363520410097 0 0 0 0 -3.7290973167873886 3.2542395761222256 0 3.2542395761222256 -1.0589557343749467 0 0 0 0 -4.1346641276686569 -10.212703427282577 0 -10.212703427282577 -9.1628076337151469 0 0 0 0 76.274852526559698 13.452339124401533 0 13.452339124401533 -191.70721877029928 0 0 0 0 -40.047768551176659 1.6669995314298092 0 1.6669995314298092 -26.059480118057309 0 0 0 0 -9.8465016168293431 7.0915539600173272 0 7.0915539600173272 3.6783704330993201 0 0 0 0 -6.979939611384907 12.14811064891046 0 12.14811064891046 0.39728675003152603 0 0 0 0 -43.861470271517192 30.447833773864062 0 30.447833773864062 -6.3959644639498947 0 0 0 0 -14.215386260118976 15.980211019871149 0 15.980211019871149 3.2638057442761692 0 0 0 0 -0.38045711347150046 4.5937059192785963 0 4.5937059192785963 4.3226609498556732 0 0 0 0 -26.006272903581703 3.2026151842696891 0 3.2026151842696891 28.254157341889822 0 0 0 0 -25.071798362703703 46.674354741699517 0 46.674354741699517 3.4646786004232126 0 0 0 0 -34.670292388636881 17.937523181395136 0 17.937523181395136 45.34811441765487 0 0 0 0 -27.913004173704394 11.132176851871009 0 11.132176851871009 12.092697844250665 0 0 0 0 81.631744385311322 307.3357072571298 0 307.3357072571298 -90.075827797715192 0 0 0 0 -38.847904657242907 65.339148225635313 0 65.339148225635313 225.28491529683924 0 0 0 0 -19.353116676063564 13.454184509508508 0 13.454184509508508 -29.861698301624529 0 0 0 0 -19.837445605189714 57.898545268728867 0 57.898545268728867 25.785799031868919 0 0 0 0 22.472855607920792 -32.495333171616949 0 -32.495333171616949 41.434846779906366 0 0 0 0 -20.682085272466793 -17.288804528713968 0 -17.288804528713968 90.825378965635537 0 0 0 0 5.7324066623350518 -58.389370762202759 0 -58.389370762202759 127.48400445064044 0 0 0 0 0.87015752047916095 1.4185925978392611 0 1.4185925978392611 2.2277762167955526 0 0 0 0 79.084070217042608 21.850342668904659 0 21.850342668904659 -28.403276907874513 0 0 0 0 -33.157597862205876 37.790833207915512 0 37.790833207915512 48.945136107848612 0 0 0 0 26.618502436851486 -3.1837904645724393 0 -3.1837904645724393 -30.348354124583238 0 0 0 0 42.5334012136409 38.307587026028159 0 38.307587026028159 42.460833850311928 0 0 0 0 -27.142349909321638 0.69977606341899445 0 0.69977606341899445 24.631249469314753 0 0 0 0 -24.428942603786709 14.156016213259136 0 14.156016213259136 9.2751132825374043 0 0 0 0 11.918076770489279 -11.001529916586605 0 -11.001529916586605 26.451476824758402 0 0 0 0 -29.489151386711455 43.660574552039407 0 43.660574552039407 -3.6055907042978106 0 0 0 0 -38.615668016798736 22.066775369646621 0 22.066775369646621 15.053432568039398 0 0 0 0 3.0733955599331537 4.1969453282259632 0 4.1969453282259632 5.7921409316304713 0 0 0 0 -44.348699477366608 11.669037207210295 0 11.669037207210295 22.836202773142531 0 0 0 0 10.592146954870259 -51.241665483266388 0 -51.241665483266388 67.435775550877224 0 0 0 0 -26.231048005993728 -2.8894558284575069 0 -2.8894558284575069 28.91331931910554 0 0 0 0 -14.39642295228623 9.8341976870160579 0 9.8341976870160579 23.013144777448133 0 0 0 0 0.90823230770365626 21.77543676574669 0 21.77543676574669 -3.6427731495946318 0 0 0 0 1.0220254964693218 1.9111075436362341 0 1.9111075436362341 3.4138779369055072 0 0 0 0 -2.7247087894756987 3.908981513891149 0 3.908981513891149 -1.2781243351746525 0 0 0 0 1.3405212074430892 18.428121683910376 0 18.428121683910376 19.725470415171912 0 0 0 0 15.294896282756781 0.043108271741516546 0 0.043108271741516546 8.5245975335988078 0 0 0 0 103.67695171603737 42.125759906181429 0 42.125759906181429 -10.872160511654783 0 0 0 0 43.951287207028145 34.219791646287717 0 34.219791646287717 -11.634563122626332 0 0 0 0 -0.11436134634096007 0.57127293937747403 0 0.57127293937747403 1.6168020805183865 0 0 0 0 140.43528152714589 36.851678129026368 0 36.851678129026368 -109.51419816661064 0 0 0 0 -53.774674368833075 24.451063434552452 0 24.451063434552452 75.224407805545411 0 0 0 0 -59.274559014387478 75.081062223313552 0 75.081062223313552 -0.083243338190186478 0 0 0 0 -31.034545638918644 -4.5607801076228043 0 -4.5607801076228043 13.092500227334313 0 0 0 0 -6.4482924869007547 28.734008941301909 0 28.734008941301909 1.2806312100360628 0 0 0 0 3.6374675325345578 8.2506204880802354 0 8.2506204880802354 7.0573943072832472 0 0 0 0 -3.5194981502445444 9.4210870526450208 0 9.4210870526450208 -1.0529376319365085 0 0 0 0 -18.839054806603599 15.04735327836022 0 15.04735327836022 -11.18572409904391 0 0 0 0 -1.0759248768757512 1.6121888059902929 0 1.6121888059902929 -0.78515307806540591 0 0 0 0 -8.963489985633224 7.4906411125228711 0 7.4906411125228711 7.9560266651837832 0 0 0 0 -27.913807420474768 -1.1354460125685364 0 -1.1354460125685364 -2.2109365167250985 0 0 0 0 -0.20856192162711551 6.0942333257344492 0 6.0942333257344492 0.64893413033943204 0 0 0 0 -30.642032858639141 4.2944106420445678 0 4.2944106420445678 2.6127149911028482 0 0 0 0 3.4333018565714184 5.2590426091952196 0 5.2590426091952196 4.3276635386273865 0 0 0 0 0.10077842716054874 3.7852207408144096 0 3.7852207408144096 0.17464517175972105 0 0 0 0 0.91389676019877264 4.8970969611225783 0 4.8970969611225783 1.3096241799742729 0 0 0 0 -3.264861472098346 11.344946138192427 0 11.344946138192427 -5.7782816169832358 0 0 0 0 2.8289209743561514 4.4414803973413655 0 4.4414803973413655 -0.86499952257270252 0 0 0 0 -7.3381634639135882 15.06263145619198 0 15.06263145619198 -9.3247588497465088 0 0 0 0 -5.4962893032261491 11.149124950062173 0 11.149124950062173 -8.7556250796265545 0 0 0 0 -5.5011590884023462 3.1980320312392223 0 3.1980320312392223 1.3927344271909874 0 0 0 0 -12.401381553441752 10.798837565601161 0 10.798837565601161 -1.9657842535682448 0 0 0 0 -5.8177148348149785 11.719247565969681 0 11.719247565969681 -8.1100135028208911 0 0 0 0 -2.5342384341893194 3.8675029432608312 0 3.8675029432608312 0.42056955695417741 0 0 0 0 -1.8915989132327695 8.6745679169762298 0 8.6745679169762298 -10.238512703871493 0 0 0 0 -1.3053668166066927 13.983338447562801 0 13.983338447562801 6.9790586523636193 0 0 0 0 0.62751189813411656 -5.0060147117461113 0 -5.0060147117461113 0.19939736979222289 0 0 0 0 -2.9028854863276905 4.3674591334752293 0 4.3674591334752293 -0.39281992933427407 0 0 0 0 -4.7333205966569949 6.2890485509243774 0 6.2890485509243774 8.1315292552046685 0 0 0 0 -16.510454405630298 13.260679477568601 0 13.260679477568601 18.419495991110125 0 0 0 0 9.9935123421973913 11.132891825314516 0 11.132891825314516 11.897132008824883 0 0 0 0 -29.035634350537293 11.441954276266415 0 11.441954276266415 11.950529271529604 0 0 0 0 -14.349523830907856 6.7618401494040654 0 6.7618401494040654 -9.9493305060068451 0 0 0 0 -17.713034432338645 -6.729076231519997 0 -6.729076231519997 0.89522520491391333 0 0 0 0 -16.499429898376547 6.7171452957300062 0 6.7171452957300062 3.587071869585543 0 0 0 0 -13.459581442142735 6.1195767881186498 0 6.1195767881186498 -0.22242068497689615 0 0 0 0 0.00093772979985828897 -0.083136906083094431 0 -0.083136906083094431 0.34923078874627311 0 0 0 0 64.009065184905921 56.577790596374598 0 56.577790596374598 13.412598731572672 0 0 0 0 60.402939754803811 69.259785141410248 0 69.259785141410248 35.994655814421748 0 0 0 0 29.736819517631375 31.769809304857745 0 31.769809304857745 31.986950860341267 0 0 0 0 23.224156614152889 55.420858950894285 0 55.420858950894285 46.947586892346862 0 0 0 0 13.932012713547692 12.539743846569095 0 12.539743846569095 23.971054502517745 0 0 0 0 40.146556984292147 40.831609366527459 0 40.831609366527459 39.131072290610973 0 0 0 0 12.437825456941937 51.423018155114278 0 51.423018155114278 88.165343699743971 0 0 0 0 0.26449507946728801 0.26220000939112875 0 0.26220000939112875 -0.63796375847689646 0 0 0 0 -3.0946613557308353 3.8049722814820948 0 3.8049722814820948 -1.2737215855339206 0 0 0 0 33.345899233565433 46.296770826993793 0 46.296770826993793 51.449704110371954 0 0 0 0 -7.3859728295919922 -0.13900932903379726 0 -0.13900932903379726 14.234470752185075 0 0 0 0 -0.74461974674067477 -0.10090557881326845 0 -0.10090557881326845 2.0470157736310197 0 0 0 0 -5.5288401236284699 6.5699980228006325 0 6.5699980228006325 3.00287240250465 0 0 0 0 -2.0323156757492242 3.0378350372121261 0 3.0378350372121261 -3.0098219966351198 0 0 0 0 31.457438899142289 10.985746160314591 0 10.985746160314591 -2.4181687480068987 0 0 0 0 0.66679555941846047 10.577885693542527 0 10.577885693542527 -13.698650848366015 0 0 0 0 1.5662250720579323 3.4611421244252938 0 3.4611421244252938 -14.795472895875221 0 0 0 0 3.9760770698258057 11.005366590536568 0 11.005366590536568 -45.663863600668378 0 0 0 0 12.564195826351352 19.206855029196113 0 19.206855029196113 19.723140542666037 0 0 0 0 12.574175656347506 22.513698932577256 0 22.513698932577256 17.564884925733999 0 0 0 0 -1.1930729794348949 1.7121626869502364 0 1.7121626869502364 -2.5150360275613526 0 0 0 0 5.7241379237684669 -1.403025825845674 0 -1.403025825845674 -60.675734783673249 0 0 0 0 21.401268696709849 39.219703284289423 0 39.219703284289423 32.181624358578688 0 0 0 0 9.8615683851094218 24.402231160026929 0 24.402231160026929 16.845822249307531 0 0 0 0 0.0030937564933992689 21.380391998137554 0 21.380391998137554 32.057899750238221 0 0 0 0 9.8314846914508962 21.096474161449805 0 21.096474161449805 19.012997347840098 0 0 0 0 2.2422265283621527 18.371118102498997 0 18.371118102498997 26.352738078703283 0 0 0 0 0.020568677016854053 19.846007106216462 0 19.846007106216462 46.318108385628477 0 0 0 0 -3.7199202726606018 33.227939754462454 0 33.227939754462454 11.344064305740972 0 0 0 0 -0.018701624110690318 22.673684526112766 0 22.673684526112766 22.931601807588891 0 0 0 0 -3.7912290100266546 4.7009346636456257 0 4.7009346636456257 -8.0993140243263042 0 0 0 0 0.033572992593690287 20.489435507897724 0 20.489435507897724 -15.663027875543605 0 0 0 0 3.2551956774143491 38.470194227941192 0 38.470194227941192 22.290397481016271 0 0 0 0 7.5585113011020439 28.139423196386474 0 28.139423196386474 20.961448722049226 0 0 0 0 -0.4468957053256446 -0.038852324297556251 0 -0.038852324297556251 0.10165334246746749 0 0 0 0 9.8029646793893335 12.329635335332341 0 12.329635335332341 -52.999604034274853 0 0 0 0 -21.64146262930808 -38.160159225828011 0 -38.160159225828011 -70.215515916159916 0 0 0 0 1.157909846468101 47.445502097693634 0 47.445502097693634 23.401287545943433 0 0 0 0 24.5638585891611 44.194445792337433 0 44.194445792337433 -9.1102474626936782 0 0 0 0 26.781680203828728 21.242224298057522 0 21.242224298057522 -34.136416887781479 0 0 0 0 44.26180525982636 23.86649337955464 0 23.86649337955464 11.553296706794058 0 0 0 0 -1.0409850292021758 0.57292575985736249 0 0.57292575985736249 -0.59107999032454206 0 0 0 0 24.131076506120735 3.6078087310802402 0 3.6078087310802402 -12.505012096558403 0 0 0 0 7.5463541643548524 -97.515487129546727 0 -97.515487129546727 -86.75294590277133 0 0 0 0 76.61174180965827 50.920782132893692 0 50.920782132893692 -43.648022142410809 0 0 0 0 -95.138472540500516 -159.09980248439979 0 -159.09980248439979 342.06125945956501 0 0 0 0 19.985993466185391 30.214858454771957 0 30.214858454771957 19.441640367506807 0 0 0 0 -32.401758786731079 38.423294143205567 0 38.423294143205567 -18.493888751900158 0 0 0 0 20.462276211382971 2.707443136326571 0 2.707443136326571 -1.26478713335473 0 0 0 0 16.540001503264648 10.682341764006651 0 10.682341764006651 16.26207905789488 0 0 0 0 18.38911076036311 16.18354782113056 0 16.18354782113056 -7.6167003675534488 0 0 0 0 35.043935457772022 25.439798666139723 0 25.439798666139723 15.701861465000178 0 0 0 0 27.297693250664452 -3.6755843320656822 0 -3.6755843320656822 16.795692840337779 0 0 0 0 -9.0952474944206188 7.1906711624035324 0 7.1906711624035324 15.71196069844882 0 0 0 0 35.207097615908424 14.78316738183139 0 14.78316738183139 47.647077544399508 0 0 0 0 -9.5487924017998012 18.558795871598079 0 18.558795871598079 60.457729877777638 0 0 0 0 60.551641293021817 54.584406913971492 0 54.584406913971492 31.107254688040939 0 0 0 0 55.459571862109442 2.6345419858073456 0 2.6345419858073456 41.170764023937863 0 0 0 0 47.767703442888433 60.860472566642898 0 60.860472566642898 111.72637038447829 0 0 0 0 -4.5994189263947192 55.178403833946959 0 55.178403833946959 77.998193148426267 0 0 0 0 0.81721927705075359 29.991237448312859 0 29.991237448312859 39.344163163263829 0 0 0 0 -9.6614005036735762 13.745049899826881 0 13.745049899826881 48.073353831712666 0 0 0 0 -0.00846265972177207 25.471504274113499 0 25.471504274113499 31.274963825112764 0 0 0 0 -1.1470882225148671 25.707021362543628 0 25.707021362543628 32.992158589599967 0 0 0 0 12.404050700404696 31.650726361860052 0 31.650726361860052 20.88142550549901 0 0 0 0 12.546871296193785 37.29402231764584 0 37.29402231764584 21.15495448059437 0 0 0 0 31.62970518982911 9.3828101476328811 0 9.3828101476328811 -17.657039141778114 0 0 0 0 13.272675738387989 32.532162730331038 0 32.532162730331038 -36.236888140027077 0 0 0 0 -48.069096175217055 55.590920198368167 0 55.590920198368167 -60.738754050659736 0 0 0 0 -8.2651741315221443 41.076772978044573 0 41.076772978044573 24.36729490860489 0 0 0 0 1.876815490305944 61.405486071387259 0 61.405486071387259 47.380278587336306 0 0 0 0 0.040798343235424639 -0.021260173186125719 0 -0.021260173186125719 0.12130969499692767 0 0 0 0 0.068529248053057046 0.25407503110483631 0 0.25407503110483631 0.090257796342680052 0 0 0 0 -25.01222552625768 45.832961673446334 0 45.832961673446334 -56.698080631861558 0 0 0 0 -48.415549335630203 38.319893599030365 0 38.319893599030365 -36.248050134479854 0 0 0 0 -8.2000422178898589 9.8069668348493906 0 9.8069668348493906 -24.759976241433833 0 0 0 0 0.35081561780907933 0.34900094782920199 0 0.34900094782920199 0.12590549542486862 0 0 0 0 -14.217130715873736 6.9174981413705154 0 6.9174981413705154 -17.048385043863163 0 0 0 0 3.5573948561541329 4.944926970688357 0 4.944926970688357 -18.684910802289323 0 0 0 0 31.043284719031362 11.554654037863656 0 11.554654037863656 -43.777241222161138 0 0 0 0 0.24459392011830872 0.14437619644225919 0 0.14437619644225919 0.044653507468824571 0 0 0 0 14.548729781192606 -1.9753588905749098 0 -1.9753588905749098 -1.9450546404978013 0 0 0 0 -14.987750570599928 -5.9837824437263407 0 -5.9837824437263407 -12.583161391696649 0 0 0 0 16.673064174737192 8.0671504604233633 0 8.0671504604233633 -6.3486391073874984 0 0 0 0 12.938579750529243 -0.55525414772489512 0 -0.55525414772489512 4.3923186068395808 0 0 0 0 14.85184293236307 4.9172650845484895 0 4.9172650845484895 10.318373293236164 0 0 0 0 16.22671404584338 4.7920565481386035 0 4.7920565481386035 9.184933117696346 0 0 0 0 16.34422713195454 10.015081300952261 0 10.015081300952261 15.023342427350599 0 0 0 0 21.459262815144029 9.4905054064442993 0 9.4905054064442993 10.426760124378234 0 0 0 0 0.072163600500211089 -0.16160147194196961 0 -0.16160147194196961 0.65795959432989548 0 0 0 0 8.9291035894361812 5.4607640874971821 0 5.4607640874971821 -4.6715132693943815 0 0 0 0 29.188177716709106 23.824924982371499 0 23.824924982371499 17.533801678952841 0 0 0 0 7.2151486585357816 11.962695623067248 0 11.962695623067248 25.923044388182461 0 0 0 0 -32.514358644245021 18.91492491157419 0 18.91492491157419 2.725068749105958 0 0 0 0 -17.895130634117777 9.7699003611646731 0 9.7699003611646731 5.9082446460718074 0 0 0 0 9.9629948797310135 6.9707254884501708 0 6.9707254884501708 -8.4496941685547426 0 0 0 0 -2.0219788061367581 8.5834074818276349 0 8.5834074818276349 -4.6012403693821398 0 0 0 0 -2.0110563432062918 23.057476602802126 0 23.057476602802126 -17.615267789371501 0 0 0 0 -10.799450681623057 24.969532148427788 0 24.969532148427788 -12.890971212169461 0 0 0 0 -10.779983525686475 52.639479483088053 0 52.639479483088053 -41.688730400624081 0 0 0 0 -0.27457860768117826 27.116510949816984 0 27.116510949816984 -20.901282724154953 0 0 0 0 -25.747306664243297 45.527901554014534 0 45.527901554014534 -27.732323672478969 0 0 0 0 -30.577285398604545 66.892237799196664 0 66.892237799196664 -42.243442370314369 0 0 0 0 -15.249458973360902 34.974585092053474 0 34.974585092053474 -19.406045448689838 0 0 0 0 -57.182520365510754 46.824548230330947 0 46.824548230330947 -1.7774905481251153 0 0 0 0 -17.02044384256169 69.904786709132622 0 69.904786709132622 -60.93379857822697 0 0 0 0 -16.624993226524566 90.403081324066079 0 90.403081324066079 -182.17742955331141 0 0 0 0 -92.914805367176996 78.733771437691985 0 78.733771437691985 -31.460114361067099 0 0 0 0 -9.6290986744179463 64.767260612875361 0 64.767260612875361 -89.791548583086296 0 0 0 0 -5.3849345589460427 49.255184803445445 0 49.255184803445445 -39.595226055166677 0 0 0 0 -33.398382051984299 92.037659198814708 0 92.037659198814708 -22.147039129832592 0 0 0 0 -39.724769321483109 70.020715481657135 0 70.020715481657135 -35.899047315679695 0 0 0 0 -9.0424544734742085 94.018910402882739 0 94.018910402882739 -71.376623484944503 0 0 0 0 -33.027869203146111 72.907506459094293 0 72.907506459094293 -31.380300011501959 0 0 0 0 12.060131371894386 29.107696128228781 0 29.107696128228781 -16.938689515803162 0 0 0 0 1.6302640969302047 109.69870569550153 0 109.69870569550153 -13.286393626312019 0 0 0 0 164.78056070648199 109.30463115880821 0 109.30463115880821 -20.795490882988815 0 0 0 0 79.79625021564425 58.958087247086951 0 58.958087247086951 -30.668596214742308 0 0 0 0 -318.49070705023541 57.088806513991585 0 57.088806513991585 14.04491869587946 0 0 0 0 338.25303412696394 41.159554090639176 0 41.159554090639176 -43.818753186225877 0 0 0 0 -0.20504080558865967 0.90007981681175053 0 0.90007981681175053 -0.30642628387417403 0 0 0 0 85.177017553276528 -19.875195423581317 0 -19.875195423581317 -0.61282026303524617 0 0 0 0 -30.473054228048113 24.300797258699504 0 24.300797258699504 16.741901013331699 0 0 0 0 -155.1326449089147 131.98435035249531 0 131.98435035249531 -42.456080181036782 0 0 0 0 -144.74612832553919 32.010673676148372 0 32.010673676148372 -9.9911570648455381 0 0 0 0 -65.911000283338581 53.367089383210441 0 53.367089383210441 -47.151951297539199 0 0 0 0 -57.095091938438145 64.464768852965335 0 64.464768852965335 -56.608882107949285 0 0 0 0 -98.107056696568179 86.376389796863805 0 86.376389796863805 -47.835683861226244 0 0 0 0 -93.503368595407665 73.869471935133333 0 73.869471935133333 -14.971395822622071 0 0 0 0 -74.33050799769353 53.033076337819466 0 53.033076337819466 -23.043729798138884 0 0 0 0 -96.951150418648467 67.501629394785141 0 67.501629394785141 -26.414463474374315 0 0 0 0 -104.82144866247154 30.419938480321662 0 30.419938480321662 -12.815470659935272 0 0 0 0 -149.50306104984611 72.623797145232402 0 72.623797145232402 -12.82404994078388 0 0 0 0 -105.74479218120541 69.107316946485298 0 69.107316946485298 -13.699926169809373 0 0 0 0 -127.14026501299759 50.552459390987678 0 50.552459390987678 -14.868014339741421 0 0 0 0 -88.461096782699315 42.68716670669437 0 42.68716670669437 -14.861140869635761 0 0 0 0 -100.64473286600128 37.187332672253888 0 37.187332672253888 -7.3112292536243331 0 0 0 0 -94.185576569599561 57.516732497152816 0 57.516732497152816 -34.486643071483741 0 0 0 0 153.26352318443605 -11.137371839037769 0 -11.137371839037769 -4.2718560438552231 0 0 0 0 181.75005931429519 77.178666722790581 0 77.178666722790581 40.601286844628703 0 0 0 0 135.89553644743501 37.498334844262899 0 37.498334844262899 32.359504086520246 0 0 0 0 247.69403594173309 2.243578196923977 0 2.243578196923977 -10.773471656590118 0 0 0 0 -108.65271639736875 29.332995039933166 0 29.332995039933166 -8.1820052072444014 0 0 0 0 -0.75710987829645582 2.672632286379347 0 2.672632286379347 -0.24099419756356966 0 0 0 0 329.13904084365277 73.134676773366209 0 73.134676773366209 -21.506738107804267 0 0 0 0 301.59716960514379 105.66062396137022 0 105.66062396137022 32.454550830138032 0 0 0 0 -94.122705006400565 17.052884105780095 0 17.052884105780095 2.0323399994358624 0 0 0 0 -77.968915527197169 5.6684955954688121 0 5.6684955954688121 2.1033293080773134 0 0 0 0 -1.5645710732325533 0.63520492475340617 0 0.63520492475340617 0.079388360339102348 0 0 0 0 246.62043898630145 18.21608070358252 0 18.21608070358252 61.708888517154264 0 0 0 0 338.4879942224652 115.5756249704209 0 115.5756249704209 95.072503331873122 0 0 0 0 322.4097950930809 21.762689752140432 0 21.762689752140432 61.613771509702929 0 0 0 0 567.95717592362962 -3.7598911946265616 0 -3.7598911946265616 15.435542282859387 0 0 0 0 279.003915502788 110.39474725447872 0 110.39474725447872 45.402628409310068 0 0 0 0 247.13672649577529 3.2032663323661836 0 3.2032663323661836 58.117602565587731 0 0 0 0 117.83355954334547 84.815417162390077 0 84.815417162390077 49.615412576468771 0 0 0 0 213.47596730670921 70.834996056875752 0 70.834996056875752 7.2814937484145048 0 0 0 0 223.99994386630078 46.355919616596111 0 46.355919616596111 -0.76599189012631541 0 0 0 0 187.00993845187168 60.400064361559089 0 60.400064361559089 74.855417880706227 0 0 0 0 161.13111261094855 5.6371864426828324 0 5.6371864426828324 -8.7739459322974653 0 0 0 0 312.33888359555931 79.440903614802664 0 79.440903614802664 -14.918659243183356 0 0 0 0 346.31926779657624 58.597872718365124 0 58.597872718365124 -61.854323802723229 0 0 0 0 215.22900748654502 18.953714079245401 0 18.953714079245401 -51.918523719218683 0 0 0 0 261.7490321452533 51.423682194195862 0 51.423682194195862 -66.253601540614909 0 0 0 0 207.44431433930004 30.18669625536495 0 30.18669625536495 -50.566394320063409 0 0 0 0 169.17013915848929 -1.4353775120935097 0 -1.4353775120935097 -59.299469317178591 0 0 0 0 192.8385655802025 31.19780716634807 0 31.19780716634807 -62.156579025286192 0 0 0 0 270.75707311000406 23.252850702498563 0 23.252850702498563 -41.524822009894706 0 0 0 0 255.13330693946409 58.624882202640947 0 58.624882202640947 -42.262989746522294 0 0 0 0 256.67744417271388 54.074194090276251 0 54.074194090276251 -53.674050184250518 0 0 0 0 156.61315492598078 8.3422696323214041 0 8.3422696323214041 -32.360938500148222 0 0 0 0 185.8938923633068 43.686893316720671 0 43.686893316720671 -25.883060775648119 0 0 0 0 138.26014433519822 57.507694188387632 0 57.507694188387632 18.120726957786246 0 0 0 0 246.59033866199661 90.641361254269668 0 90.641361254269668 8.190835858527862 0 0 0 0 223.53440623507413 44.184023829437137 0 44.184023829437137 -37.157444552703964 0 0 0 0 315.11063652737539 55.939394591083328 0 55.939394591083328 -67.903304853905865 0 0 0 0 -56.246427799996127 5.9040490465085895 0 5.9040490465085895 -7.3255939811388089 0 0 0 0 -0.75629280679457178 4.26772537455353 0 4.26772537455353 0.022916592624355303 0 0 0 0 -10.155930437486859 9.5605003176485752 0 9.5605003176485752 -1.0808653210497141 0 0 0 0 -1.3980552909519908 0.47670029570805283 0 0.47670029570805283 2.1355563263510824 0 0 0 0 -11.666942782740989 -3.1923023124252268 0 -3.1923023124252268 5.682390493560888 0 0 0 0 -0.11995428475840253 0.090653431107897475 0 0.090653431107897475 1.6501268726910503 0 0 0 0 295.05510768686872 23.828578106551504 0 23.828578106551504 25.661412403533177 0 0 0 0 274.36124663586452 96.623423016850211 0 96.623423016850211 26.838177820647616 0 0 0 0 315.76643374678042 63.348966247915996 0 63.348966247915996 -3.7381528794503538 0 0 0 0 272.95269623477361 22.134005969073769 0 22.134005969073769 -38.370586959626962 0 0 0 0 283.16107666505195 57.997026460181587 0 57.997026460181587 -61.286708613319206 0 0 0 0 233.77698931047416 38.152528275542863 0 38.152528275542863 -0.81350011539689149 0 0 0 0 227.78184121018421 17.584869405625795 0 17.584869405625795 -73.181550711808086 0 0 0 0 244.01164187549693 48.124340020041018 0 48.124340020041018 -58.879290963428502 0 0 0 0 -78.983648003241797 25.147139176537166 0 25.147139176537166 -41.920535755763012 0 0 0 0 -60.94004671995026 41.611923343740273 0 41.611923343740273 -26.89971901033141 0 0 0 0 -77.860942563635945 18.559287923553711 0 18.559287923553711 -4.3995086389386415 0 0 0 0 -80.957491828721686 27.660052702284702 0 27.660052702284702 -12.321960182009207 0 0 0 0 -69.989900240713268 23.719362956868736 0 23.719362956868736 -3.9144482538085867 0 0 0 0 -95.013538427512685 -2.8774524382029085 0 -2.8774524382029085 9.813311911189885 0 0 0 0 -103.0718275021145 11.466978010083494 0 11.466978010083494 -0.92989244497857726 0 0 0 0 -77.996656959288885 -7.4646433624966448 0 -7.4646433624966448 -22.260635559804996 0 0 0 0 -83.96323129342386 -4.4458574703830891 0 -4.4458574703830891 13.837447917174359 0 0 0 0 -73.183498115487964 -30.797736501522195 0 -30.797736501522195 -63.633846836923112 0 0 0 0 -114.60352860774753 65.13041576441185 0 65.13041576441185 -0.030907915131137997 0 0 0 0 9.5830805451387278 65.691696763806704 0 65.691696763806704 -171.18157193323805 0 0 0 0 14.332019373584444 -32.798515537371713 0 -32.798515537371713 -206.05602840933352 0 0 0 0 -62.542727769485964 54.008792974059645 0 54.008792974059645 -121.02091294012826 0 0 0 0 -85.385981086314132 94.969423059545534 0 94.969423059545534 -31.301493028998266 0 0 0 0 -76.056940696902529 48.069219871331484 0 48.069219871331484 60.746856577990911 0 0 0 0 -1.1185927994813802 0.88097947899876772 0 0.88097947899876772 -0.94846263421321986 0 0 0 0 6.7393856309317925 6.245966471122756 0 6.245966471122756 8.9687737900640059 0 0 0 0 -46.936365030513116 37.068302013532048 0 37.068302013532048 -17.849940189466906 0 0 0 0 -34.870542897717769 11.602670905624791 0 11.602670905624791 12.723056924254706 0 0 0 0 -48.51032430135092 36.518824917310212 0 36.518824917310212 -13.743979743509044 0 0 0 0 -81.323921479764977 54.094009943295532 0 54.094009943295532 3.7189458462326002 0 0 0 0 -67.50474800981101 58.357438657938474 0 58.357438657938474 -27.192067509564367 0 0 0 0 44.130009263668398 46.055314828707196 0 46.055314828707196 19.730172274780671 0 0 0 0 30.203198468146638 45.00232279355896 0 45.00232279355896 19.652887569966879 0 0 0 0 15.623234759008483 33.565330386606547 0 33.565330386606547 41.432339885770034 0 0 0 0 -1.3900931066646081 10.04647737397363 0 10.04647737397363 9.645567964633301 0 0 0 0 33.914919664427543 42.41150740167177 0 42.41150740167177 16.241482768787932 0 0 0 0 14.730151067631596 8.8982650103571359 0 8.8982650103571359 -59.472302688839363 0 0 0 0 -2.3282361491271217 3.382388881008267 0 3.382388881008267 -1.7089461377604032 0 0 0 0 -0.93267399774140358 2.1683040673533469 0 2.1683040673533469 -57.837248749104219 0 0 0 0 21.403158583763798 23.917938443560615 0 23.917938443560615 -33.761734000485376 0 0 0 0 23.752980971363741 27.538775223762514 0 27.538775223762514 -43.263095196736685 0 0 0 0 -2.2352937931927954 -15.206931749976775 0 -15.206931749976775 -106.47786471037762 0 0 0 0 3.6867836436586003 91.885201402850726 0 91.885201402850726 -36.969727050687197 0 0 0 0 45.146812470012037 79.136908294939303 0 79.136908294939303 -7.4597166191142605 0 0 0 0 25.144898315477121 43.533325172091963 0 43.533325172091963 25.814195380882666 0 0 0 0 17.088647421483074 86.75615767543286 0 86.75615767543286 72.801986118165587 0 0 0 0 16.000284887110865 38.880603450479612 0 38.880603450479612 1.3985941103283039 0 0 0 0 22.968578830837941 30.56149528606511 0 30.56149528606511 -29.724925118682222 0 0 0 0 20.195434286202726 46.031642836005631 0 46.031642836005631 -1.7613361171443103 0 0 0 0 35.810781121681202 46.08486782588443 0 46.08486782588443 -24.616186619105065 0 0 0 0 0.52457246682524783 40.421626988184471 0 40.421626988184471 2.1455665067969676 0 0 0 0 20.428249554261129 35.100660323590091 0 35.100660323590091 -15.879401200512007 0 0 0 0 15.975427873145236 37.973828045454866 0 37.973828045454866 -15.967253549842241 0 0 0 0 10.881312744698334 45.273464862923447 0 45.273464862923447 2.6988985058533217 0 0 0 0 -18.9568634004263 9.7524549863956054 0 9.7524549863956054 -30.599555614705878 0 0 0 0 -20.74662375650496 17.105910781186573 0 17.105910781186573 -9.425819246871697 0 0 0 0 -3.5912918625524455 2.1364917788746363 0 2.1364917788746363 0.75423168758603509 0 0 0 0 -93.31643418312251 61.931729702069788 0 61.931729702069788 16.606841492508465 0 0 0 0 215.66380914920921 70.95697967779904 0 70.95697967779904 -24.46883974737284 0 0 0 0 81.369934785519945 3.4268584565779747 0 3.4268584565779747 37.255797321747423 0 0 0 0 92.066506053572084 29.358226799377007 0 29.358226799377007 2.5412395377352368 0 0 0 0 69.960771363563254 48.127591679645775 0 48.127591679645775 6.2077947403431608 0 0 0 0 58.905429526694206 76.044157527838252 0 76.044157527838252 30.081620129523799 0 0 0 0 114.95795297342556 51.351109454744801 0 51.351109454744801 21.906451565067982 0 0 0 0 108.32196942221344 49.535747028865444 0 49.535747028865444 25.129286129311822 0 0 0 0 113.42809605765024 56.521455439945839 0 56.521455439945839 24.84926292352975 0 0 0 0 50.405417098648741 42.954176372693155 0 42.954176372693155 7.1734247038184549 0 0 0 0 19.674268586419203 20.586456012275903 0 20.586456012275903 -0.78524138407192368 0 0 0 0 -3.6526297814613358 6.982371521786753 0 6.982371521786753 -0.68331022230184857 0 0 0 0 6.7795728299717055 5.4899117914528333 0 5.4899117914528333 -7.8071395563040351 0 0 0 0 18.677731179324837 14.603460970558217 0 14.603460970558217 -2.1201686877429893 0 0 0 0 30.196849230102998 91.610040547792778 0 91.610040547792778 83.765898370046671 0 0 0 0 -1.6181456909922201 17.865172852172819 0 17.865172852172819 -4.9327062832238973 0 0 0 0 -20.157517701958113 28.97909762935069 0 28.97909762935069 0.079728552016604226 0 0 0 0 14.892406240407581 14.348525373578013 0 14.348525373578013 2.0276541317289229 0 0 0 0 3.4125429524210631 40.709501645091223 0 40.709501645091223 35.652063891197486 0 0 0 0 11.08565134951079 15.40692296591978 0 15.40692296591978 -9.4498123127163147 0 0 0 0 -0.68863898392816569 2.5692665999054007 0 2.5692665999054007 2.1064536070623205 0 0 0 0 -2.0508078094062512 30.946384210707038 0 30.946384210707038 -13.752807921482599 0 0 0 0 12.087564480734386 4.8218920224924773 0 4.8218920224924773 8.9756073713870137 0 0 0 0 10.437339420564655 19.655091478446479 0 19.655091478446479 4.2346743140478793 0 0 0 0 -0.76100312973987838 9.6730780225646615 0 9.6730780225646615 -0.74653023271518038 0 0 0 0 5.0330732839514978 6.6939646327076083 0 6.6939646327076083 -0.45129905499161183 0 0 0 0 11.702625714420037 22.964179057095066 0 22.964179057095066 -9.5153043282225553 0 0 0 0 10.135949843179333 22.90390217741151 0 22.90390217741151 -9.4142920268250236 0 0 0 0 3.3600918352742157 13.064789981832202 0 13.064789981832202 -2.6572461575718478 0 0 0 0 7.6332993728665315 6.2666119348668872 0 6.2666119348668872 19.542283712544304 0 0 0 0 22.631971007944571 33.304897323599562 0 33.304897323599562 -25.843835000821855 0 0 0 0 -4.5030488194161542 5.8809703058674589 0 5.8809703058674589 -2.1002147578635508 0 0 0 0 8.8000518910105257 -3.6111850152819898 0 -3.6111850152819898 8.7891113586701977 0 0 0 0 26.41554180917683 14.80718718588605 0 14.80718718588605 -13.421172309470421 0 0 0 0 7.7639135748504158 12.120176723459673 0 12.120176723459673 3.1679146896777617 0 0 0 0 30.114887582083611 15.757193988718427 0 15.757193988718427 -1.2189373223042139 0 0 0 0 20.718040690168891 12.029227297380203 0 12.029227297380203 -20.800893633840587 0 0 0 0 13.677443159899212 -4.1461271815160217 0 -4.1461271815160217 12.214811426383676 0 0 0 0 12.997930006773458 -4.255285104687573 0 -4.255285104687573 -5.3639726199635334 0 0 0 0 2.3929155221903047 1.7771193594892378 0 1.7771193594892378 0.91815588111016666 0 0 0 0 36.535569079054767 19.332252063025408 0 19.332252063025408 -6.212366015646694 0 0 0 0 28.646770694012957 14.998747239432305 0 14.998747239432305 9.3093477720667579 0 0 0 0 22.530081813520155 13.052027584839379 0 13.052027584839379 -1.2703163356043063 0 0 0 0 5.7146056816507524 3.2072052131113917 0 3.2072052131113917 -3.5528207718644236 0 0 0 0 3.219689195504543 16.030442807307736 0 16.030442807307736 -0.05300955661914486 0 0 0 0 0.10314300014700706 1.4709878055821921 0 1.4709878055821921 0.68211456232567969 0 0 0 0 15.515951643739527 -1.8758940440761762 0 -1.8758940440761762 -18.988800398336025 0 0 0 0 25.815762849560997 26.520363884140352 0 26.520363884140352 -42.044482290091764 0 0 0 0 16.278800944930907 34.699326224322533 0 34.699326224322533 -32.136780946249928 0 0 0 0 26.382125669809284 34.442584587898182 0 34.442584587898182 -27.113577578549666 0 0 0 0 27.287568583152279 20.525094100667957 0 20.525094100667957 -21.979228005657205 0 0 0 0 22.869910608673308 26.380150963219421 0 26.380150963219421 -9.8448310416961249 0 0 0 0 -17.56064510647775 2.2511257477290201 0 2.2511257477290201 77.608195211180828 0 0 0 0 -16.061052311802996 -2.0679135014006533 0 -2.0679135014006533 46.89187431931532 0 0 0 0 -36.620573776021047 -8.6305276198272622 0 -8.6305276198272622 111.54136224055765 0 0 0 0 -9.7710577211487362 29.784733571110337 0 29.784733571110337 -37.575231922635794 0 0 0 0 -0.22195769854261016 19.626687076648523 0 19.626687076648523 -55.818961048872552 0 0 0 0 -22.261108114704257 -38.132386215856968 0 -38.132386215856968 13.83188135088858 0 0 0 0 -60.978019513398976 -61.685349127698828 0 -61.685349127698828 52.250986720588116 0 0 0 0 0.59697367476383079 -55.899532859759347 0 -55.899532859759347 -116.50779313144267 0 0 0 0 -31.065105970252262 -7.1106912499215014 0 -7.1106912499215014 43.764635658986663 0 0 0 0 -29.199421116420581 95.929887192291062 0 95.929887192291062 -213.89179876351045 0 0 0 0 28.781724866514196 117.29351096282335 0 117.29351096282335 165.01561741670366 0 0 0 0 -61.680716081831179 26.718462418194122 0 26.718462418194122 192.35122603548371 0 0 0 0 -15.40520127871423 -19.967757990054452 0 -19.967757990054452 51.789323023578618 0 0 0 0 0.49451850268738085 -0.032872693517255414 0 -0.032872693517255414 -0.19113251076130666 0 0 0 0 -91.910107294917907 -91.390475480865462 0 -91.390475480865462 13.982107630541577 0 0 0 0 -5.6257143400157474 295.66059312557377 0 295.66059312557377 72.723259548029091 0 0 0 0 31.658641990315118 -22.187637790288136 0 -22.187637790288136 -177.67891261944897 0 0 0 0 50.928808256976481 26.009301434765803 0 26.009301434765803 -57.51314310111411 0 0 0 0 27.699948049615159 37.37906159025988 0 37.37906159025988 -31.806725167767581 0 0 0 0 34.300509382963355 53.971477467217483 0 53.971477467217483 1.029960279437546 0 0 0 0 19.999741885652838 114.48876988628217 0 114.48876988628217 42.943132821716972 0 0 0 0 20.522046719172977 119.1542105339222 0 119.1542105339222 -8.0425404585027991 0 0 0 0 3.4769650892721984 11.751585582334428 0 11.751585582334428 5.2029424529555399 0 0 0 0 15.628207422871128 18.286588087478776 0 18.286588087478776 -0.52572126259747165 0 0 0 0 8.2834741836286412 10.271333388908715 0 10.271333388908715 0.50364702377100912 0 0 0 0 -0.46695607022775221 15.722664864423677 0 15.722664864423677 -0.85064104259618034 0 0 0 0 -59.017414787287635 80.281456068783882 0 80.281456068783882 110.58066931648409 0 0 0 0 -0.91619863646106126 8.0436477858139064 0 8.0436477858139064 -7.8196479493448408 0 0 0 0 5.5116614105986628 8.6232368588498503 0 8.6232368588498503 -6.2489769831354351 0 0 0 0 0.35265141358557628 -0.51377729711186149 0 -0.51377729711186149 0.76746560158984778 0 0 0 0 -42.231769276640989 41.869133265480741 0 41.869133265480741 71.201725345771592 0 0 0 0 24.487549605640197 -79.241903334166182 0 -79.241903334166182 -4.4763135408320522 0 0 0 0 38.959248433235189 31.865007570908347 0 31.865007570908347 80.571109506247922 0 0 0 0 -3.3547410481241968 10.784324124237855 0 10.784324124237855 -6.680740007544955 0 0 0 0 -4.6492977272391727 11.019300595081404 0 11.019300595081404 0.032710206283809384 0 0 0 0 -5.4349433408106407 10.83576121111258 0 10.83576121111258 -9.1718686414630568 0 0 0 0 -4.9015412237095006 16.205994199995075 0 16.205994199995075 -3.4439510441256971 0 0 0 0 -1.0909243010845842 0.0051964404742861348 0 0.0051964404742861348 5.2956960943281146 0 0 0 0 17.193392641190258 27.553865194225182 0 27.553865194225182 36.535730039224291 0 0 0 0 -32.657431074742817 -2.6634705502665383 0 -2.6634705502665383 76.071827205945738 0 0 0 0 12.762672620669036 35.855273524528457 0 35.855273524528457 57.208466882006178 0 0 0 0 0.084030838535909425 6.4808948783011147 0 6.4808948783011147 65.978851335028594 0 0 0 0 0.56711910638659901 -5.0817093551322614 0 -5.0817093551322614 32.689602628423017 0 0 0 0 -3.0319165542823612 11.113996136144124 0 11.113996136144124 2.4585375773367559 0 0 0 0 -7.2613409747227706 12.567830273406798 0 12.567830273406798 4.5231459499300399 0 0 0 0 -4.8093121592510215 10.396539524807849 0 10.396539524807849 5.9989987063136141 0 0 0 0 -9.7841268068541467 15.008009164380383 0 15.008009164380383 4.8084637218526041 0 0 0 0 -3.7929245221198471 15.626367002997085 0 15.626367002997085 1.2444050806261657 0 0 0 0 -6.3526827183450223 14.464287311348926 0 14.464287311348926 2.7312170525610782 0 0 0 0 -4.7686073629283783 13.720781470132351 0 13.720781470132351 1.5475772967747616 0 0 0 0 -4.0466078393301359 13.258497047264427 0 13.258497047264427 1.4458930088967463 0 0 0 0 1.9024052966269664 13.159829114164495 0 13.159829114164495 -0.69151396440111057 0 0 0 0 1.6869348890613765 10.461158090439994 0 10.461158090439994 -1.5842333591244824 0 0 0 0 -3.626590056895111 14.079183070891304 0 14.079183070891304 2.2087383831185434 0 0 0 0 0.57639595466753235 13.314899419662652 0 13.314899419662652 0.92130266970616503 0 0 0 0 0.88017855459656857 14.788821898118442 0 14.788821898118442 4.0739269939285805 0 0 0 0 21.719415680232032 13.693763594507004 0 13.693763594507004 -4.754130168530537 0 0 0 0 -4.6138588106458638 6.394863317388225 0 6.394863317388225 -1.7999896459710314 0 0 0 0 7.6807880837359335 15.800486483004988 0 15.800486483004988 -0.46968267114243645 0 0 0 0 5.6559725401196541 1.1554731168101089 0 1.1554731168101089 -5.8295548077139276 0 0 0 0 5.9127312077341685 6.78435519207585 0 6.78435519207585 -2.7807011484928807 0 0 0 0 0.41157092821861951 3.544274739673229 0 3.544274739673229 -5.6376138080947449 0 0 0 0 6.2789790286133211 7.7436876053857304 0 7.7436876053857304 -3.125313646444738 0 0 0 0 18.647280198622866 -3.105211961833902 0 -3.105211961833902 -2.4811325912778557 0 0 0 0 0.6189814697564664 0.73258791563727144 0 0.73258791563727144 -0.71662040432687046 0 0 0 0 26.064375463492979 47.919067202147744 0 47.919067202147744 82.979903817334844 0 0 0 0 1.765633388673173 4.6371456504572066 0 4.6371456504572066 -3.0705347211795577 0 0 0 0 1.8272523351015479 5.9784352593492258 0 5.9784352593492258 -2.7264998266668954 0 0 0 0 -0.72293665465858226 1.6061726069844156 0 1.6061726069844156 0.89540172251198413 0 0 0 0 -3.4922368042152812 6.1656184043322355 0 6.1656184043322355 4.2727591690177178 0 0 0 0 -0.88698732168404604 14.216175101331601 0 14.216175101331601 -7.406499189241913 0 0 0 0 -0.60812055131926712 7.0458368429762341 0 7.0458368429762341 -6.6179270570017685 0 0 0 0 -2.7078778699506074 12.946752902555545 0 12.946752902555545 -3.101502016566883 0 0 0 0 0.35978501386853168 10.290799365528073 0 10.290799365528073 -1.5413962035108852 0 0 0 0 -2.474064892034221 12.578711892931096 0 12.578711892931096 -0.75710191193047649 0 0 0 0 -4.9268587921587823 10.37227334516956 0 10.37227334516956 0.41762377196346279 0 0 0 0 -1.9319761643864695 11.231789836409916 0 11.231789836409916 -5.6548509581125472 0 0 0 0 -2.4474191576702786 6.6937473050560481 0 6.6937473050560481 2.8668070672690478 0 0 0 0 0.47425884323820355 8.0772652475343421 0 8.0772652475343421 -0.13302743604708667 0 0 0 0 -6.8178499664154515 2.0727321253561968 0 2.0727321253561968 8.5391466539811063 0 0 0 0 -13.559272232287185 13.229865051536308 0 13.229865051536308 1.0581044121184391 0 0 0 0 -4.3991291262973391 17.182817622650418 0 17.182817622650418 -4.9614031808197296 0 0 0 0 2.1366156888956525 2.4521093137330512 0 2.4521093137330512 3.1452923866259663 0 0 0 0 -4.8318047609045607 11.365361930409563 0 11.365361930409563 2.5623414841511476 0 0 0 0 -4.7048102376957104 9.5015633879270354 0 9.5015633879270354 5.5715049678176456 0 0 0 0 -1.186084144869735 6.4433755685883991 0 6.4433755685883991 4.1581749333750704 0 0 0 0 9.3026644881761058 8.5327529384485388 0 8.5327529384485388 4.0683113934084076 0 0 0 0 16.700508622837763 12.419306527746897 0 12.419306527746897 8.5680268148607865 0 0 0 0 5.6161089739526133 14.707375610635324 0 14.707375610635324 5.5108852372911628 0 0 0 0 16.846145784507371 -0.087819133960238105 0 -0.087819133960238105 -2.0779216346127214 0 0 0 0 0.27972356562638723 0.61358779107261618 0 0.61358779107261618 -0.49018620887034814 0 0 0 0 11.868263021951602 4.4769943077437118 0 4.4769943077437118 -1.3706280113672058 0 0 0 0 6.8819405250687851 29.225238465343864 0 29.225238465343864 12.938754050279385 0 0 0 0 10.341595201573435 14.425229128925537 0 14.425229128925537 2.5286881240728896 0 0 0 0 12.001921607986333 10.160520045590147 0 10.160520045590147 2.0952344271108814 0 0 0 0 37.86438994461605 26.157953163757384 0 26.157953163757384 -12.605927312582935 0 0 0 0 -2.9785109541719321 5.4269893788466117 0 5.4269893788466117 2.1859883791550914 0 0 0 0 29.020792069825347 23.991873927096094 0 23.991873927096094 31.558539204763292 0 0 0 0 0.38960141180328778 6.7426110781893733 0 6.7426110781893733 2.3096362552823244 0 0 0 0 15.987610905225893 14.37864833977801 0 14.37864833977801 7.6698437666291284 0 0 0 0 8.7921702427693162 7.7390276082001037 0 7.7390276082001037 4.3638028479092554 0 0 0 0 19.314464355511518 13.555905584554239 0 13.555905584554239 -1.1642475906282925 0 0 0 0 15.434665917922976 5.526021550677056 0 5.526021550677056 -2.6828779753233647 0 0 0 0 1.7489176857364959 7.6965291371853528 0 7.6965291371853528 -2.3836885419421101 0 0 0 0 19.894903604970523 8.1644073410966485 0 8.1644073410966485 -1.3739373640564736 0 0 0 0 24.472142277892999 23.94261196160187 0 23.94261196160187 15.586098484843205 0 0 0 0 23.349653712421141 8.7261667788755997 0 8.7261667788755997 -8.4111266523336337 0 0 0 0 0.67935788871465963 1.8085101747932857 0 1.8085101747932857 0.76050832191521422 0 0 0 0 18.493185878286567 5.9675244433533408 0 5.9675244433533408 14.290515753624277 0 0 0 0 -9.5830784969725755 13.779869208215814 0 13.779869208215814 6.949962174006032 0 0 0 0 3.8821099998567039 6.0514025148687871 0 6.0514025148687871 -5.6904798992434147 0 0 0 0 22.138093394991301 23.514215225567114 0 23.514215225567114 -2.711536729654199 0 0 0 0 22.779636825280249 25.640094420325113 0 25.640094420325113 -1.445558777923452 0 0 0 0 26.067685911346871 18.2964500785979 0 18.2964500785979 4.0699067577188544 0 0 0 0 21.474156389725977 22.574199107934419 0 22.574199107934419 2.3047815580557653 0 0 0 0 22.637635454953397 18.807200449726906 0 18.807200449726906 4.247994028030007 0 0 0 0 17.603105173808217 26.753394111510715 0 26.753394111510715 -1.3731853850304105 0 0 0 0 20.42722984933971 18.447083961597173 0 18.447083961597173 2.9831064889394838 0 0 0 0 16.378013477244167 22.325673843329241 0 22.325673843329241 4.2109108146702923 0 0 0 0 18.94329003808798 19.381663875774848 0 19.381663875774848 10.00138669399621 0 0 0 0 11.778602433425021 18.195301390537907 0 18.195301390537907 -0.13614380454328057 0 0 0 0 3.2251771039717445 2.2117662704986341 0 2.2117662704986341 -1.3808645842116292 0 0 0 0 30.398281926944037 26.42274799336883 0 26.42274799336883 0.32300151974050095 0 0 0 0 -19.118339962067694 25.481227308696589 0 25.481227308696589 11.089085608373352 0 0 0 0 22.664107139948101 28.056248336714361 0 28.056248336714361 -1.0495592949191632 0 0 0 0 6.1461723434870237 35.132397398864555 0 35.132397398864555 -2.6577513426782389 0 0 0 0 29.019237371438066 36.188863336105442 0 36.188863336105442 -3.3288906413399673 0 0 0 0 32.254405154115375 28.059490536602425 0 28.059490536602425 -7.3931683146529394 0 0 0 0 27.288152540058945 31.190357446032976 0 31.190357446032976 -9.3388600012999632 0 0 0 0 64.788697848555785 -8.0826321400477354 0 -8.0826321400477354 -8.9021292805348367 0 0 0 0 96.512960842979737 53.13856138321762 0 53.13856138321762 -3.8648441740328963 0 0 0 0 -5.3470285649191283 27.881094886182979 0 27.881094886182979 111.6692527486739 0 0 0 0 77.103819617877889 -28.778133596911175 0 -28.778133596911175 30.093436618762553 0 0 0 0 23.217088196401164 16.411698750667142 0 16.411698750667142 13.48940612531328 0 0 0 0 29.148120206703425 -1.2883033748432808 0 -1.2883033748432808 -17.116260814750149 0 0 0 0 -3.7083088141152984 51.920498053592155 0 51.920498053592155 10.037523599034103 0 0 0 0 -0.67830376079496091 -0.53321615600401628 0 -0.53321615600401628 -25.632564658600131 0 0 0 0 3.4187663074157997 0.90609944874023074 0 0.90609944874023074 0.21755175049518982 0 0 0 0 22.450458014669493 3.8609937424603231 0 3.8609937424603231 2.2972694473478441 0 0 0 0 -18.915607343813519 1.1984685856878059 0 1.1984685856878059 47.777214909710892 0 0 0 0 25.950868920809853 11.011257081743906 0 11.011257081743906 7.2237408273476831 0 0 0 0 -72.476549635021939 3.3673702314531511 0 3.3673702314531511 45.432180355747278 0 0 0 0 2.3474548644920503 4.6936689799167652 0 4.6936689799167652 8.9463326478298768 0 0 0 0 0.37748654577670399 9.9495681511554643 0 9.9495681511554643 5.2556157417520897 0 0 0 0 15.237979025159916 5.9938683008417684 0 5.9938683008417684 -25.144471217437058 0 0 0 0 -63.121977362547398 12.797110329514453 0 12.797110329514453 -3.4129410486857523 0 0 0 0 -2.2558049284047148 -0.046044942443977721 0 -0.046044942443977721 0.62483301229826793 0 0 0 0 1.6862880936661082 6.254082910021908 0 6.254082910021908 5.0775305612849451 0 0 0 0 -1.4812337251038872 -0.1915006870239182 0 -0.1915006870239182 0.043053836038957627 0 0 0 0 0.19388322877558384 5.5877568169562242 0 5.5877568169562242 3.3210828165475057 0 0 0 0 12.789808669213016 7.9036117339705925 0 7.9036117339705925 6.5150672241527445 0 0 0 0 5.7294831863973776 10.548642256458454 0 10.548642256458454 6.5180832148310301 0 0 0 0 14.971009602149934 10.818132820053279 0 10.818132820053279 8.7187212700810051 0 0 0 0 0.87151232227284936 16.103603647624368 0 16.103603647624368 4.1694515546832918 0 0 0 0 6.5148898438395513 9.7024234025288294 0 9.7024234025288294 5.0681087879056221 0 0 0 0 -1.2174490738542545 11.884090647073663 0 11.884090647073663 1.4027432169509666 0 0 0 0 6.2236364457785385 20.030597919902448 0 20.030597919902448 0.29924810924057965 0 0 0 0 2.0578615875690263 6.9302278453636994 0 6.9302278453636994 5.5350097419217548 0 0 0 0 -2.8120988047892297 10.154815384179074 0 10.154815384179074 11.223648320418306 0 0 0 0 -15.897927851715167 15.652386264776851 0 15.652386264776851 8.9338534127987259 0 0 0 0 -5.6965966184483126 2.8380227892346381 0 2.8380227892346381 3.2566292743563547 0 0 0 0 31.699112663142955 17.713966500472566 0 17.713966500472566 1.323275805862977 0 0 0 0 -0.53514043343147932 18.437610136199453 0 18.437610136199453 22.69071818888915 0 0 0 0 -21.462790120342731 27.506502159028969 0 27.506502159028969 -30.653420669703337 0 0 0 0 1.8683477094933632 10.37069077803246 0 10.37069077803246 6.3977108785344203 0 0 0 0 -19.770360377985696 34.063706849187156 0 34.063706849187156 -5.5610506947414251 0 0 0 0 -2.0772521197732488 20.392698974644645 0 20.392698974644645 7.3725845161079633 0 0 0 0 -73.889105885860772 -37.668831947008357 0 -37.668831947008357 58.97992500452483 0 0 0 0 40.340547460733433 31.926768595339695 0 31.926768595339695 11.703461003305165 0 0 0 0 -0.64939359764323079 0.55746616102737967 0 0.55746616102737967 -0.59296748722823978 0 0 0 0 6.2566620268225961 18.10897257927536 0 18.10897257927536 20.769737367946163 0 0 0 0 19.881188989304064 -7.3663828578237371 0 -7.3663828578237371 -42.329033349121119 0 0 0 0 2.6083286814214262 30.745760483823119 0 30.745760483823119 10.720117456614389 0 0 0 0 64.906548829605526 71.856610567280825 0 71.856610567280825 31.756294462415099 0 0 0 0 -25.415151046806386 37.004515090925224 0 37.004515090925224 3.6226204187159965 0 0 0 0 -89.048376534624367 -9.8736065135383342 0 -9.8736065135383342 13.31995070345647 0 0 0 0 0.025150864036181275 0.023867347308593523 0 0.023867347308593523 -0.22468235465152553 0 0 0 0 14.369220387203086 32.781715686115234 0 32.781715686115234 9.2877310243907232 0 0 0 0 19.361446538266136 9.289950355549081 0 9.289950355549081 -6.7953947560918095 0 0 0 0 71.666928635689146 25.014960435764579 0 25.014960435764579 -11.308404655365166 0 0 0 0 -3.2329293579150544 26.180250026268368 0 26.180250026268368 6.8120178049978222 0 0 0 0 0.99125074226273213 16.855988841279068 0 16.855988841279068 -1.7952178921977975 0 0 0 0 -6.2912189279313679 14.932357877819527 0 14.932357877819527 2.6071051927556255 0 0 0 0 3.509164216247882 32.921740998269343 0 32.921740998269343 -22.390207961633223 0 0 0 0 -10.724244479239701 25.359461011364402 0 25.359461011364402 15.339027062287641 0 0 0 0 16.928748309661387 21.794513248042676 0 21.794513248042676 -3.1012753491119298 0 0 0 0 21.107717241133287 22.353339106409294 0 22.353339106409294 -3.0872080329771592 0 0 0 0 -9.276639508208973 30.288318404569964 0 30.288318404569964 -31.97627339235305 0 0 0 0 -4.6267722742250044 -1.0282682836727872 0 -1.0282682836727872 2.5284764401940265 0 0 0 0 1.0137651560062295 19.760939329671146 0 19.760939329671146 15.92841934678745 0 0 0 0 -0.17113131068284737 0.06304535236676978 0 0.06304535236676978 0.11791413312466226 0 0 0 0 -4.3119010315494961 2.3821996323376879 0 2.3821996323376879 20.942343430656251 0 0 0 0 9.4608051055413398 10.003586420942383 0 10.003586420942383 -5.1265325917406699 0 0 0 0 2.407190300029554 6.4231753875685875 0 6.4231753875685875 -1.8363311904171695 0 0 0 0 -12.462486709363475 4.0118621900314793 0 4.0118621900314793 1.7102055757877679 0 0 0 0 4.9477760767908876 14.112080840138333 0 14.112080840138333 -5.2548109896711139 0 0 0 0 8.5071743950932159 14.1751813401047 0 14.1751813401047 -6.9481809235812761 0 0 0 0 5.5361007041751549 16.747316406854083 0 16.747316406854083 -1.643155704822675 0 0 0 0 5.3354953738973734 18.69969710322215 0 18.69969710322215 -4.5982324452379544 0 0 0 0 5.2635653551085397 10.018330564807911 0 10.018330564807911 -1.6553622644514689 0 0 0 0 2.6511096854874268 17.919891052475123 0 17.919891052475123 -0.88112232429011783 0 0 0 0 3.1947003731857255 6.8814254296827029 0 6.8814254296827029 5.1013267528680517 0 0 0 0 -1.1176496586374469 10.128596140563332 0 10.128596140563332 -1.6048684871969385 0 0 0 0 -4.4627683297693466 14.687791483107503 0 14.687791483107503 -0.50214193389092543 0 0 0 0 -0.9198768295575519 15.257480121607614 0 15.257480121607614 -0.7917475655351609 0 0 0 0 -2.6980630809107424 18.759834631244757 0 18.759834631244757 4.8535480472501149 0 0 0 0 2.1065749722317619 7.5904863273864782 0 7.5904863273864782 -1.8055500009884913 0 0 0 0 -3.0684119339724987 12.350073343537446 0 12.350073343537446 -4.0755350986564736 0 0 0 0 -2.0040664490029485 -20.837835747152667 0 -20.837835747152667 17.860247827648891 0 0 0 0 -15.544712183426782 17.082047151982351 0 17.082047151982351 3.7203580892401078 0 0 0 0 -4.5388795699241768 15.76145647036536 0 15.76145647036536 -3.9924706726651493 0 0 0 0 -20.807831471940517 18.891123076682561 0 18.891123076682561 -4.4730779254516619 0 0 0 0 -34.493239818285474 6.4053731949479698 0 6.4053731949479698 2.1998017802006871 0 0 0 0 -9.2870658254091722 2.5066273144529987 0 2.5066273144529987 2.356888184993295 0 0 0 0 0.55207593536920285 0.82451531964728719 0 0.82451531964728719 1.066066375667055 0 0 0 0 -14.388562088179242 -7.8974351969563941 0 -7.8974351969563941 -32.897900761536675 0 0 0 0 -2.0578893885995058 -10.224932055898535 0 -10.224932055898535 69.610965039842085 0 0 0 0 -0.094316716151141122 0.26761711983977499 0 0.26761711983977499 -0.55393333703066538 0 0 0 0 99.716768158654759 74.390244171266318 0 74.390244171266318 12.673366060281296 0 0 0 0 -51.167050589690007 12.664630241049053 0 12.664630241049053 3.1788772780694217 0 0 0 0 28.093800016009482 128.85716891737502 0 128.85716891737502 144.6502592851557 0 0 0 0 0.11895372171285423 -0.10246097138921506 0 -0.10246097138921506 -0.29356357150196466 0 0 0 0 -7.6301745062482951 4.0707995300138009 0 4.0707995300138009 6.6033688384572997 0 0 0 0 14.424443276244347 7.6180308980578957 0 7.6180308980578957 -9.1614758955638536 0 0 0 0 42.422536409238091 48.538985845062598 0 48.538985845062598 17.587213199574308 0 0 0 0 -0.13626072733320349 1.2277836283253194 0 1.2277836283253194 -1.2368336667631095 0 0 0 0 53.605905945190898 24.207410777997666 0 24.207410777997666 15.869817522525238 0 0 0 0 28.240405733769421 37.673314514621211 0 37.673314514621211 37.97057401902839 0 0 0 0 45.471488558810961 33.827403190348377 0 33.827403190348377 -2.1493883412649666 0 0 0 0 36.520031162843225 47.445116276735462 0 47.445116276735462 -7.1740903505587994 0 0 0 0 92.967481259216811 32.887628338398656 0 32.887628338398656 -6.6731247944208008 0 0 0 0 9.8034170600813013 13.824352072517286 0 13.824352072517286 5.7685211059333596 0 0 0 0 46.144505727093929 41.32552952610331 0 41.32552952610331 16.786083517718907 0 0 0 0 44.38974190476074 17.699143509896658 0 17.699143509896658 -14.483034108087281 0 0 0 0 35.400042625384231 25.145597000084308 0 25.145597000084308 -2.2822225241361593 0 0 0 0 40.543357825852581 18.248862987664779 0 18.248862987664779 6.8543489998612586 0 0 0 0 34.743494636641117 9.0839279127994814 0 9.0839279127994814 -7.7296823010328808 0 0 0 0 31.997332978229224 23.068903110394331 0 23.068903110394331 -4.3707294112537056 0 0 0 0 15.292528882416036 15.761165853900138 0 15.761165853900138 -4.0239858503109645 0 0 0 0 22.061997329898077 17.063810806614129 0 17.063810806614129 -3.7737230067407381 0 0 0 0 29.017056983198927 6.8178837794662286 0 6.8178837794662286 -15.36013631878302 0 0 0 0 46.653780411362277 15.544271142843172 0 15.544271142843172 -16.881601864307413 0 0 0 0 19.87046957837174 4.4603276502671179 0 4.4603276502671179 -8.6466362399141872 0 0 0 0 54.665483401164238 -4.690163154916263 0 -4.690163154916263 -8.8626724055502564 0 0 0 0 25.031564552138661 11.863340247297856 0 11.863340247297856 -11.218863866737593 0 0 0 0 37.781903782056816 17.480959358717769 0 17.480959358717769 -4.415594494990728 0 0 0 0 51.392168810571093 35.225858216819233 0 35.225858216819233 19.543629330924887 0 0 0 0 28.235542117298792 50.978678733211382 0 50.978678733211382 60.578506793855922 0 0 0 0 6.0399910246578656 19.473889173673342 0 19.473889173673342 46.508761505381699 0 0 0 0 37.120758331431716 8.2760700229810027 0 8.2760700229810027 1.4135070223383082 0 0 0 0 -32.859226446455068 -42.794041293488362 0 -42.794041293488362 -24.308834082230533 0 0 0 0 109.53663561083522 -20.079197112384463 0 -20.079197112384463 -81.710375669579662 0 0 0 0 10.973921453206458 10.013995272754983 0 10.013995272754983 -8.5146357357361921 0 0 0 0 98.654596991810763 75.75159679196463 0 75.75159679196463 26.182971341859229 0 0 0 0 24.635846346700419 21.073243451981398 0 21.073243451981398 -0.74154204698288595 0 0 0 0 37.955104885970286 12.329849883094994 0 12.329849883094994 -30.651136264286833 0 0 0 0 6.0022967921945565 43.839734592663035 0 43.839734592663035 -8.4504227586985508 0 0 0 0 0.29300293828600843 34.139681699971334 0 34.139681699971334 -24.022781958621749 0 0 0 0 -3.2730799897617544 69.086951096312987 0 69.086951096312987 -77.135967474167842 0 0 0 0 -34.376663591535362 -5.1601031481598056 0 -5.1601031481598056 -41.81372340814255 0 0 0 0 7.5689735418794726 39.532784636961082 0 39.532784636961082 5.6916774620949582 0 0 0 0 7.1028014337871355 30.911286029184794 0 30.911286029184794 15.693353405229573 0 0 0 0 -48.552651550572136 73.456676807644783 0 73.456676807644783 -13.300016477285681 0 0 0 0 -42.314825068485334 64.130888917956781 0 64.130888917956781 -15.45803759883438 0 0 0 0 7.3279833395845344 81.288565102014672 0 81.288565102014672 -17.314623527413005 0 0 0 0 -82.186592746669248 -3.4397276165164499 0 -3.4397276165164499 8.4112797584921282 0 0 0 0 -0.39921974420293793 0.40324839306225613 0 0.40324839306225613 -0.30890752799082577 0 0 0 0 -42.608260312546918 81.886017485842785 0 81.886017485842785 -16.386927447978906 0 0 0 0 28.629690926614785 72.843615492252866 0 72.843615492252866 -38.269820697841624 0 0 0 0 12.924543916663197 41.034596894900744 0 41.034596894900744 4.2307152343501002 0 0 0 0 15.924181324528035 52.450165299112996 0 52.450165299112996 -18.053511861626248 0 0 0 0 -17.685013541637318 2.548526529454648 0 2.548526529454648 8.0790860179363335 0 0 0 0 47.787453603630638 6.0495100778025517 0 6.0495100778025517 -10.868632204912274 0 0 0 0 6.9768815219113094 17.193101949391348 0 17.193101949391348 49.894287141214136 0 0 0 0 63.64550427188351 40.079966221678148 0 40.079966221678148 1.0071015988273757 0 0 0 0 0.38424401432060051 0.38390938332330915 0 0.38390938332330915 0.69872797826013056 0 0 0 0 41.550229623195719 21.763941220269317 0 21.763941220269317 -38.828787245921376 0 0 0 0 64.073127876577018 43.226093447341555 0 43.226093447341555 -41.664548140282022 0 0 0 0 24.978299782675094 37.619126065182172 0 37.619126065182172 -42.210671792385256 0 0 0 0 24.174652499743388 28.458393989295473 0 28.458393989295473 -4.0884581633577 0 0 0 0 -6.6696387742363186 14.926640004979163 0 14.926640004979163 -12.600707587260558 0 0 0 0 -9.7305658072476504 13.715904385071472 0 13.715904385071472 -6.8177555237784446 0 0 0 0 -9.5085128109673462 22.486813544309619 0 22.486813544309619 6.7019913550939236 0 0 0 0 12.206398390466347 38.727941136166464 0 38.727941136166464 5.8874734083437943 0 0 0 0 -11.251980709525014 13.779204099666913 0 13.779204099666913 -11.443140025744469 0 0 0 0 0.13634331850573389 11.476546646733116 0 11.476546646733116 -8.1157602491417222 0 0 0 0 -0.77738541250335991 7.8125748796638614 0 7.8125748796638614 -3.7017995835387714 0 0 0 0 -8.2010230791911454 13.815852591270414 0 13.815852591270414 15.45640563660254 0 0 0 0 -0.42408991899173998 11.433819897217177 0 11.433819897217177 10.705477197913751 0 0 0 0 -2.399389971397289 1.0773487615552 0 1.0773487615552 -0.33688158507763077 0 0 0 0 4.4283012697078448 16.647436203395046 0 16.647436203395046 -4.6359677272025692 0 0 0 0 -22.651462773435924 41.249334906830882 0 41.249334906830882 33.757261956567163 0 0 0 0 -1.4174772503446813 8.2820372678357774 0 8.2820372678357774 -0.59502105411751494 0 0 0 0 44.629270680787727 56.548552651861058 0 56.548552651861058 9.9836551759899521 0 0 0 0 8.2728132764709699 19.524035513013132 0 19.524035513013132 11.172841138423792 0 0 0 0 -0.96278904670361953 12.805404087726515 0 12.805404087726515 10.766850412519034 0 0 0 0 5.685777898208471 14.637123719508054 0 14.637123719508054 2.5933240965165396 0 0 0 0 -1.6280831569938528 18.697537839551671 0 18.697537839551671 14.728757355401513 0 0 0 0 1.6024500942993036 9.9668849283681116 0 9.9668849283681116 -6.3869432365042726 0 0 0 0 -5.7603113270470203 24.289309244846663 0 24.289309244846663 40.507451716529886 0 0 0 0 17.170548832934401 21.91420212475191 0 21.91420212475191 7.4432113471093544 0 0 0 0 -1.7616151488482501 17.613368168058855 0 17.613368168058855 42.565583168454395 0 0 0 0 -10.267816883781052 9.0675473708060963 0 9.0675473708060963 31.582804612477503 0 0 0 0 -5.7757304044862394 -2.3249488546457542 0 -2.3249488546457542 13.479644423605691 0 0 0 0 -1.0531114687966046 0.93087922564813397 0 0.93087922564813397 -1.3309793489787367 0 0 0 0 5.1356932464295824 15.913746502490227 0 15.913746502490227 -10.935419747184028 0 0 0 0 -12.53689574490727 18.364723067507384 0 18.364723067507384 1.8409748202061564 0 0 0 0 -4.3899360125849345 9.3056749009415043 0 9.3056749009415043 -2.2441537314523776 0 0 0 0 -6.3604993295948589 20.191161508674668 0 20.191161508674668 -13.068249224315991 0 0 0 0 0.64103938567808783 1.4057118917778497 0 1.4057118917778497 1.6944978819516272 0 0 0 0 -2.5285875586050679 12.312997093963304 0 12.312997093963304 -16.168745682452482 0 0 0 0 -1.7208247224261868 10.377164200987067 0 10.377164200987067 16.798148836612256 0 0 0 0 4.2480365554341688 -10.654905525699633 0 -10.654905525699633 -17.397214678980163 0 0 0 0 25.239870499942754 41.241493171304683 0 41.241493171304683 27.271556820816841 0 0 0 0 6.0191235981338931 9.1055993808533238 0 9.1055993808533238 1.5409993054764639 0 0 0 0 6.8039012748542405 4.3276761232663716 0 4.3276761232663716 -3.3774052540366029 0 0 0 0 7.2511665998725618 3.4339178218343704 0 3.4339178218343704 -11.842981833766316 0 0 0 0 10.212590502591866 9.4155453669968665 0 9.4155453669968665 -10.351157710893744 0 0 0 0 7.687105074404144 9.817430322115797 0 9.817430322115797 -8.7384685585011539 0 0 0 0 7.7235894759947428 10.535691138466632 0 10.535691138466632 -4.3630895175647311 0 0 0 0 2.3527570687729167 11.445145526544366 0 11.445145526544366 -13.962517743224453 0 0 0 0 8.7831726279760449 5.3030108425610916 0 5.3030108425610916 -2.5497680201950192 0 0 0 0 0.59871103284923022 0.021661135936101417 0 0.021661135936101417 -0.011164790066473529 0 0 0 0 -24.384612520563337 15.452961732325321 0 15.452961732325321 -13.172434985353902 0 0 0 0 -2.2133889046562789 1.0824183400642022 0 1.0824183400642022 0.58214693858245425 0 0 0 0 -18.300318221627094 30.478207503846534 0 30.478207503846534 -17.615571239518431 0 0 0 0 -26.023743100207867 15.860836509502406 0 15.860836509502406 -1.3436851929036493 0 0 0 0 4.1427287008255007 3.9469584051566926 0 3.9469584051566926 -5.1317390156300462 0 0 0 0 -6.7371193223971204 2.7239350638674296 0 2.7239350638674296 -24.839343545964766 0 0 0 0 -11.769107101514237 18.876244855063305 0 18.876244855063305 -21.322597750205887 0 0 0 0 -2.1429304168586896 5.6426921595380009 0 5.6426921595380009 -7.7336168550980346 0 0 0 0 -8.7519377740468371 4.8821864555122829 0 4.8821864555122829 10.061008012953153 0 0 0 0 0.87089124949894625 2.3595259122715215 0 2.3595259122715215 -3.315878307781599 0 0 0 0 -6.6227321710826743 18.937651705796739 0 18.937651705796739 -5.4354785950656606 0 0 0 0 -7.6527758558711163 12.428754141083873 0 12.428754141083873 -5.7377092756864787 0 0 0 0 -6.2627354897551868 14.570640432354026 0 14.570640432354026 -13.309181298196108 0 0 0 0 -5.6068796507993284 16.564646111870616 0 16.564646111870616 -7.7260970117717989 0 0 0 0 -2.1589092666699798 19.522321396565644 0 19.522321396565644 -19.818865208559146 0 0 0 0 -6.7378308607835606 22.748097386654763 0 22.748097386654763 -5.8764236353963497 0 0 0 0 -5.8761564839567768 13.990055178665088 0 13.990055178665088 0.63350533076641113 0 0 0 0 2.0583195743579505 7.3653716205539652 0 7.3653716205539652 0.040523819284983054 0 0 0 0 2.518014628218225 22.690746197449698 0 22.690746197449698 -10.016166339767835 0 0 0 0 -10.740842864551723 4.8128321036192574 0 4.8128321036192574 19.132015298060651 0 0 0 0 1.3134441775719097 23.850169877365261 0 23.850169877365261 -30.037000512257634 0 0 0 0 5.9690860866986508 6.2766507778251315 0 6.2766507778251315 4.7854874066887536 0 0 0 0 6.1776903303234576 11.520929758108423 0 11.520929758108423 -23.927952630675009 0 0 0 0 1.6139413278533539 7.6357258225064015 0 7.6357258225064015 -26.486747845944365 0 0 0 0 -8.3761140344377054 7.9253334008501497 0 7.9253334008501497 -18.238968407107791 0 0 0 0 1.2442620508818436 12.992411981363261 0 12.992411981363261 -11.663009629414773 0 0 0 0 16.508422093219451 14.66487598026356 0 14.66487598026356 -7.8031665889495798 0 0 0 0 7.2983831439316926 9.4589316747716978 0 9.4589316747716978 4.1181739344809136 0 0 0 0 -1.7260649180761902 -2.5534589493136082 0 -2.5534589493136082 22.383926992795068 0 0 0 0 42.092046297245361 32.917248483720755 0 32.917248483720755 -22.648420707874266 0 0 0 0 3.9015467850001846 5.4178202962068935 0 5.4178202962068935 -2.4699277739533958 0 0 0 0 -46.129590312779214 -10.867952410100315 0 -10.867952410100315 -10.494876556464988 0 0 0 0 13.18698712191396 10.895878633726833 0 10.895878633726833 -8.4440731927940327 0 0 0 0 0.16310065209041014 0.31676094886467632 0 0.31676094886467632 0.36498360048137268 0 0 0 0 77.974082737574918 53.313843151197148 0 53.313843151197148 -39.668405704840154 0 0 0 0 4.3521086256145054 6.7870243316389178 0 6.7870243316389178 -4.9973536188074377 0 0 0 0 -88.282330007900782 -3.7257402142317915 0 -3.7257402142317915 29.863950001961712 0 0 0 0 5.7509638927601827 4.2209405256711534 0 4.2209405256711534 -0.13796293798714032 0 0 0 0 -1.8599952454172746 9.0106037103250145 0 9.0106037103250145 -2.295771093820882 0 0 0 0 4.0402278485245224 4.8373241961612123 0 4.8373241961612123 0.64378630914426882 0 0 0 0 -23.000697804145148 -34.161494114172342 0 -34.161494114172342 15.567595022612295 0 0 0 0 -15.367741825747544 23.264556288334347 0 23.264556288334347 -6.707910976005401 0 0 0 0 1.1919052674984414 2.151274426007376 0 2.151274426007376 -5.6423100221209097 0 0 0 0 -7.0536508986360786 -5.163974699129767 0 -5.163974699129767 -16.329244911011983 0 0 0 0 2.6870581331397392 0.84380942235756784 0 0.84380942235756784 -0.6751614313986668 0 0 0 0 64.883847861481627 -7.8112866030805463 0 -7.8112866030805463 -2.3961390108949416 0 0 0 0 83.158149168453747 -53.955026255124871 0 -53.955026255124871 26.094370727970869 0 0 0 0 -1.9016664765403704 0.86399175280537488 0 0.86399175280537488 1.3932601439981827 0 0 0 0 -1.4633675296200008 2.0349052940464514 0 2.0349052940464514 0.81110037241029964 0 0 0 0 -10.46997895055722 13.834120340332333 0 13.834120340332333 23.490219658492379 0 0 0 0 26.16496319165185 -12.869379716036519 0 -12.869379716036519 -12.972480795095549 0 0 0 0 10.596741123943275 12.990338623597495 0 12.990338623597495 -8.8152532015334941 0 0 0 0 12.53058060443194 8.1878762370800082 0 8.1878762370800082 0.62766951387273107 0 0 0 0 13.808696304707368 10.00797035481483 0 10.00797035481483 -10.16345690726348 0 0 0 0 8.862792754446474 4.2414161639829029 0 4.2414161639829029 -2.7627621116164653 0 0 0 0 11.549408128124583 5.5685718700777329 0 5.5685718700777329 -2.4843099512473827 0 0 0 0 33.65398291576912 5.9803382932841487 0 5.9803382932841487 -2.6845575366290149 0 0 0 0 19.000284786640805 9.5893299831587342 0 9.5893299831587342 -3.5483723718934641 0 0 0 0 36.299193800451064 39.755684248046833 0 39.755684248046833 -28.115891692818479 0 0 0 0 81.92306666049717 -11.000444344689583 0 -11.000444344689583 -39.613965184416585 0 0 0 0 0.10166740803384455 0.0070996717645517293 0 0.0070996717645517293 -0.25175450077654582 0 0 0 0 49.504009247200884 25.533015331569914 0 25.533015331569914 -15.663645559134011 0 0 0 0 15.441553301998283 17.994617028518746 0 17.994617028518746 7.8148826092134414 0 0 0 0 39.815066394345195 55.112249514592918 0 55.112249514592918 -12.919823520097438 0 0 0 0 -2.303364571684142 13.279984978760467 0 13.279984978760467 69.506739349118902 0 0 0 0 24.073410447355855 13.791869839295231 0 13.791869839295231 -8.2576301853050609 0 0 0 0 10.13132206937189 7.9982417092832065 0 7.9982417092832065 -3.9129477955243601 0 0 0 0 0.89823524016233947 6.7319121642996018 0 6.7319121642996018 -2.5837516529499176 0 0 0 0 25.904534272456658 30.493034185720717 0 30.493034185720717 11.458578142865122 0 0 0 0 6.4338066897436796 4.4670828568720733 0 4.4670828568720733 -4.341128993507299 0 0 0 0 3.6972086615556918 6.1473075158659185 0 6.1473075158659185 -4.4991051919023448 0 0 0 0 3.75589789789628 3.5261526430198686 0 3.5261526430198686 -3.4563541265764841 0 0 0 0 5.6926797812022407 4.2765334655735598 0 4.2765334655735598 -2.7835678825783461 0 0 0 0 -0.072278264945154547 3.0784269424608359 0 3.0784269424608359 -1.4759937971444543 0 0 0 0 2.8545103282617674 2.2844353897802989 0 2.2844353897802989 -1.9508458685666028 0 0 0 0 -3.9733503107972865 -5.374464762258981 0 -5.374464762258981 4.0656827704862053 0 0 0 0 2.1403587628492478 1.3505223168095863 0 1.3505223168095863 -1.4556514564605618 0 0 0 0 0.73790935363511423 -0.22752221308960363 0 -0.22752221308960363 -0.19705415791076353 0 0 0 0 4.7468978420720305 5.4513706946069078 0 5.4513706946069078 -18.003615856233864 0 0 0 0 -3.2567020277774645 50.458221298157468 0 50.458221298157468 86.395393969198267 0 0 0 0 -1.4873970559965528 12.88698620450441 0 12.88698620450441 -11.467799673504032 0 0 0 0 -6.7186120429445282 9.0611292839909652 0 9.0611292839909652 -13.254828168012637 0 0 0 0 1.9933515197626548 13.612741077432815 0 13.612741077432815 -22.872980304161501 0 0 0 0 30.744791442553378 15.897036754879991 0 15.897036754879991 -9.000763192402701 0 0 0 0 -12.698543717455664 18.39830227462744 0 18.39830227462744 31.658597217959141 0 0 0 0 2.0984003071756661 7.5581242340126664 0 7.5581242340126664 -2.6690097313396564 0 0 0 0 1.2837662527164095 1.6717538901012023 0 1.6717538901012023 0.24589173627517535 0 0 0 0 11.186401122073903 20.936462725250294 0 20.936462725250294 24.459572848152732 0 0 0 0 1.7079022940038022 5.1773039877948221 0 5.1773039877948221 -1.9140471188249606 0 0 0 0 2.215353531624177 -0.35417546621633367 0 -0.35417546621633367 -3.8326333354278317 0 0 0 0 -0.26786361471931741 -0.87259857608000857 0 -0.87259857608000857 -4.8245609897808208 0 0 0 0 1.9479076161224533 1.0078475889785574 0 1.0078475889785574 -0.76017510189027959 0 0 0 0 7.2674852970660639 7.5097967174745275 0 7.5097967174745275 2.4182112999514045 0 0 0 0 31.100233567222404 16.987011087867586 0 16.987011087867586 -24.510372018515682 0 0 0 0 5.9279993673045528 2.984535345745305 0 2.984535345745305 -0.98131389138371672 0 0 0 0 2.4009283203809435 4.9985262024758041 0 4.9985262024758041 -2.1739592963605521 0 0 0 0 -8.5186716356863599 19.730553929132157 0 19.730553929132157 8.6144728270407995 0 0 0 0 4.9237106130639088 4.3630054251865626 0 4.3630054251865626 -6.4014329320242807 0 0 0 0 6.5666838914592063 5.7492733304821968 0 5.7492733304821968 -5.5815064909456851 0 0 0 0 16.703664560572918 7.729662213139818 0 7.729662213139818 -17.978428527099368 0 0 0 0 17.13225544622868 8.5297864714018701 0 8.5297864714018701 -18.877545324574385 0 0 0 0 11.865072914679331 4.5082724960211635 0 4.5082724960211635 -17.163408819155393 0 0 0 0 16.106594169260575 7.9302345049427458 0 7.9302345049427458 -16.232361977349683 0 0 0 0 16.995288279287024 11.520098207085994 0 11.520098207085994 -14.389225841018288 0 0 0 0 10.211367938517924 9.0331829638735144 0 9.0331829638735144 -15.265589488869864 0 0 0 0 9.6019456632839137 16.423021449594216 0 16.423021449594216 -17.066011706490826 0 0 0 0 23.23929319988423 11.953943922305029 0 11.953943922305029 -18.348595958174883 0 0 0 0 9.7587638983246734 14.944252722537385 0 14.944252722537385 -9.4405533397894033 0 0 0 0 10.111564654611715 5.9203204370900711 0 5.9203204370900711 -2.0389528921847209 0 0 0 0 10.426197845449678 8.5878416473369725 0 8.5878416473369725 -5.154605097295871 0 0 0 0 7.4027935279900703 8.8857550972802528 0 8.8857550972802528 -5.1560618644816714 0 0 0 0 4.0736533543942706 0.43185728981432892 0 0.43185728981432892 -0.89934472841723334 0 0 0 0 1.1904055875145332 20.685099312087004 0 20.685099312087004 -8.2101913885444446 0 0 0 0 9.2635902335186984 19.682957737526522 0 19.682957737526522 -10.274461128464736 0 0 0 0 9.4801782247104711 22.033483408728898 0 22.033483408728898 -5.9522346446974552 0 0 0 0 9.4719520956055021 8.9856461206099993 0 8.9856461206099993 -2.047175047082419 0 0 0 0 17.724215564688397 11.039035315876106 0 11.039035315876106 -2.098601284772041 0 0 0 0 34.195433397782836 11.954531288654834 0 11.954531288654834 -7.2817365162300121 0 0 0 0 3.0855207923587051 1.5807763721551118 0 1.5807763721551118 0.81381753070752438 0 0 0 0 5.776640919483043 21.122565273444707 0 21.122565273444707 0.85924388111561711 0 0 0 0 8.4850428955469397 15.925963342122486 0 15.925963342122486 -0.20135652390217729 0 0 0 0 24.684195163046752 12.878349355892169 0 12.878349355892169 12.799122827320389 0 0 0 0 9.258836577899725 9.9909665664960041 0 9.9909665664960041 2.3224654231131403 0 0 0 0 33.498225547318725 -5.5235496682971643 0 -5.5235496682971643 -5.2439375017929706 0 0 0 0 17.176095168527951 4.7658739564896457 0 4.7658739564896457 -4.3829592350353028 0 0 0 0 0.27730742809183084 -1.5914906467018799 0 -1.5914906467018799 -0.52748195335134329 0 0 0 0 9.4739853970676116 6.340249302658167 0 6.340249302658167 -3.4345319820811713 0 0 0 0 12.005876414625163 7.7381668211546639 0 7.7381668211546639 -5.4780089769312781 0 0 0 0 10.14418756167106 7.2300328640953921 0 7.2300328640953921 -2.9875250760851486 0 0 0 0 32.976561059120286 19.013574523472926 0 19.013574523472926 12.003725960697921 0 0 0 0 32.443673999145176 29.896519290280594 0 29.896519290280594 -28.756306493148259 0 0 0 0 -14.626082984083951 4.1340783858131545 0 4.1340783858131545 10.442205432828814 0 0 0 0 23.028562730773046 25.711475115047733 0 25.711475115047733 -3.040278584353473 0 0 0 0 2.8258228299168699 10.353765927671637 0 10.353765927671637 1.4693247059383352 0 0 0 0 -5.8702294994018303 8.055510829688501 0 8.055510829688501 75.267219319941432 0 0 0 0 -5.5720367397534574 9.379534021294603 0 9.379534021294603 20.423377251029876 0 0 0 0 -44.561914324902318 18.005583227984971 0 18.005583227984971 20.132210252257266 0 0 0 0 11.499457302714291 15.853849794484631 0 15.853849794484631 0.36892657885255176 0 0 0 0 2.1965517056094228 5.7378750226230615 0 5.7378750226230615 -1.4981631603465324 0 0 0 0 9.5599623564417016 8.3213724859285776 0 8.3213724859285776 -4.3126062597502823 0 0 0 0 20.711752248327684 8.7718553489256692 0 8.7718553489256692 -22.463719714162835 0 0 0 0 11.172420897818483 15.072502806017383 0 15.072502806017383 -12.346796839789818 0 0 0 0 5.8242102557933251 5.2705347418123214 0 5.2705347418123214 -8.0535594838997397 0 0 0 0 2.4039169733741801 -0.27848061116492318 0 -0.27848061116492318 -7.4605010797367868 0 0 0 0 -6.0229223940543761 -20.608040770772902 0 -20.608040770772902 -20.350843322432866 0 0 0 0 0.99239130303881007 0.48368878218371236 0 0.48368878218371236 -0.78662924444928439 0 0 0 0 -27.226501074409498 11.635512539144997 0 11.635512539144997 -7.4850292298538079 0 0 0 0 44.988867920637858 -29.204695893023313 0 -29.204695893023313 -59.112319073364233 0 0 0 0 21.540431283337966 7.8131973421482144 0 7.8131973421482144 -27.123846580958229 0 0 0 0 -23.414638944763283 23.579876562794766 0 23.579876562794766 -14.340932252459538 0 0 0 0 25.215223893903385 21.39622565600996 0 21.39622565600996 -37.125040509701648 0 0 0 0 8.908492398344606 13.844923323601506 0 13.844923323601506 -23.024628526057313 0 0 0 0 -5.2408721977462847 22.367721307610509 0 22.367721307610509 -27.299073247477281 0 0 0 0 -7.1870379689505626 36.011339787404594 0 36.011339787404594 -23.901471975777895 0 0 0 0 14.123589040064871 28.726755321132487 0 28.726755321132487 -30.340432305078593 0 0 0 0 13.656295037744258 25.760402979827859 0 25.760402979827859 -35.659156039571826 0 0 0 0 -109.97590823005521 -13.533457825934875 0 -13.533457825934875 -13.071909508324666 0 0 0 0 5.499647263695806 -7.573222825337325 0 -7.573222825337325 57.853994707194033 0 0 0 0 3.7904941541456694 9.8186808710892297 0 9.8186808710892297 4.7892311764349831 0 0 0 0 4.0064109764625755 37.300203453445192 0 37.300203453445192 -27.29473692838701 0 0 0 0 10.71476690911777 -6.8407790148999084 0 -6.8407790148999084 32.253787749405092 0 0 0 0 8.4036088513421419 -2.9293724106655645 0 -2.9293724106655645 33.13297726786368 0 0 0 0 1.1204019705717414 0.34813749424207785 0 0.34813749424207785 -1.8796349959667289 0 0 0 0 1.6809845619081898 -10.369478566352882 0 -10.369478566352882 -17.478187183569617 0 0 0 0 64.457199565964402 31.448361259638205 0 31.448361259638205 -29.981824554804291 0 0 0 0 96.157783933394967 -9.5108631464063365 0 -9.5108631464063365 -77.568467892273247 0 0 0 0 53.29649487950519 61.502394850274868 0 61.502394850274868 3.3657068119082396 0 0 0 0 28.512823888285311 10.853242732972831 0 10.853242732972831 5.3372481056949255 0 0 0 0 65.891335984026227 -0.86371534074169176 0 -0.86371534074169176 21.941615703612115 0 0 0 0 15.230117753294508 19.283230254318369 0 19.283230254318369 46.390438731019458 0 0 0 0 12.940482552005051 -2.0147447091728736 0 -2.0147447091728736 24.485049718326991 0 0 0 0 5.9717391744143242 -6.3762720817303489 0 -6.3762720817303489 33.897261326035732 0 0 0 0 10.174336518047312 0.97284538860822067 0 0.97284538860822067 29.11451404816853 0 0 0 0 6.2841735372471703 8.8413479227781409 0 8.8413479227781409 24.205662988193581 0 0 0 0 15.046792559098776 6.1209619528231087 0 6.1209619528231087 -6.6523960139365954 0 0 0 0 14.937423518917967 3.9959491881672875 0 3.9959491881672875 -4.949839954927711 0 0 0 0 10.716828322214042 3.0683561310338519 0 3.0683561310338519 4.4178970527400452 0 0 0 0 0.0097466416013087809 -0.57703510017873505 0 -0.57703510017873505 1.2885434718766788 0 0 0 0 1.0471796951883334 -12.778155145208984 0 -12.778155145208984 2.4916350137573318 0 0 0 0 27.926769248673736 13.915988928627939 0 13.915988928627939 10.278823209867369 0 0 0 0 22.253599173694511 6.7544562202724592 0 6.7544562202724592 7.5015515920758844 0 0 0 0 19.509534944114421 9.7507907189483376 0 9.7507907189483376 6.7882288690061614 0 0 0 0 17.898191868189315 7.8956974790839922 0 7.8956974790839922 9.3700804988066011 0 0 0 0 1.8366872616952996 0.3977871017763519 0 0.3977871017763519 2.6688283707744844 0 0 0 0 33.454818083579539 15.881004748160649 0 15.881004748160649 3.2916107491773801 0 0 0 0 -14.389747007655501 7.186625677703887 0 7.186625677703887 35.594182786806414 0 0 0 0 22.750138881736348 1.2601560102821168 0 1.2601560102821168 -7.061609583194695 0 0 0 0 -20.160203146599088 1.1380566003981585 0 1.1380566003981585 19.80221753801743 0 0 0 0 4.5988777088996358 10.545006366864072 0 10.545006366864072 -18.162425010190759 0 0 0 0 -41.773863317702819 -2.8594661155187566 0 -2.8594661155187566 -17.38713907899546 0 0 0 0 -5.8521769396338641 33.379682141737248 0 33.379682141737248 10.363758363730994 0 0 0 0 -85.281342903608675 -3.4089901367105249 0 -3.4089901367105249 -87.162895100707829 0 0 0 0 -25.82821137071096 37.370014192440067 0 37.370014192440067 -59.722336227789128 0 0 0 0 -11.771908690981491 5.2934883122927658 0 5.2934883122927658 -60.695356575832193 0 0 0 0 -12.20944684420283 18.651145964488478 0 18.651145964488478 -15.978063795702838 0 0 0 0 -10.329479689999062 43.48441026245473 0 43.48441026245473 -46.1935161854326 0 0 0 0 -1.1480605564520374 8.6653733433536217 0 8.6653733433536217 -7.3538160666357726 0 0 0 0 0.93886734219631762 11.578494781804693 0 11.578494781804693 -40.828156765646327 0 0 0 0 -4.6476829287107648 15.427871689143558 0 15.427871689143558 -9.7932364220341697 0 0 0 0 1.9312703414752832 14.865975586599234 0 14.865975586599234 0.0020660577920352807 0 0 0 0 3.5042068389484484 10.344779985040077 0 10.344779985040077 -8.4189693704947786 0 0 0 0 -3.3932135346749419 24.481606699808253 0 24.481606699808253 -23.119316031977178 0 0 0 0 8.214003408102144 0.72122205632877012 0 0.72122205632877012 6.3964457746678818 0 0 0 0 0.02562640115229442 5.4575765944628074 0 5.4575765944628074 15.441015094764225 0 0 0 0 7.5995103690293035 5.3090480791543087 0 5.3090480791543087 -10.222167150634959 0 0 0 0 4.8963256358038052 -2.9145930339718689 0 -2.9145930339718689 15.986609507190053 0 0 0 0 1.3012786819972462 -1.599004469177089 0 -1.599004469177089 33.65285033984037 0 0 0 0 3.7782420335361167 -6.9800117511617827 0 -6.9800117511617827 9.5644590783385866 0 0 0 0 4.0261460712572443 11.99598433344454 0 11.99598433344454 -12.540017539313794 0 0 0 0 -0.10108526671319851 2.8601466852514932 0 2.8601466852514932 25.804725128560676 0 0 0 0 -5.0953040821268587 -7.9276478615497581 0 -7.9276478615497581 51.626278078768337 0 0 0 0 0.51352443074743448 0.27053583454396346 0 0.27053583454396346 -0.084705058415346812 0 0 0 0 6.5060567268665181 -0.28009444065810385 0 -0.28009444065810385 26.273138517632333 0 0 0 0 1.7156423536251708 0.77368445755770487 0 0.77368445755770487 2.5509858150592741 0 0 0 0 0.3115624167421629 -6.4555907843650857 0 -6.4555907843650857 41.814942482381184 0 0 0 0 -1.6798913537031694 -5.2928563055334052 0 -5.2928563055334052 29.542586174837197 0 0 0 0 7.1978801265236712 -8.564327723193685 0 -8.564327723193685 29.753978830070992 0 0 0 0 30.679791078296148 32.762802267083032 0 32.762802267083032 -48.893825027595994 0 0 0 0 5.053941979877024 11.255521064545309 0 11.255521064545309 8.1828150256143459 0 0 0 0 -1.2580815540841286 15.265998914585907 0 15.265998914585907 25.333305548247154 0 0 0 0 57.702802841325138 26.556782566925108 0 26.556782566925108 -48.826178497337196 0 0 0 0 26.141737613370424 21.502860134036837 0 21.502860134036837 -39.31385144076043 0 0 0 0 -8.6833691703567411 -7.2974163831853502 0 -7.2974163831853502 59.645470675933211 0 0 0 0 9.5944057044107467 -6.8145482750214796 0 -6.8145482750214796 39.471550733513141 0 0 0 0 22.630022044867474 35.604072318260023 0 35.604072318260023 17.189380745386643 0 0 0 0 37.772721786552211 9.2943267554564954 0 9.2943267554564954 20.919800503438637 0 0 0 0 -18.344124827935957 19.499042861154521 0 19.499042861154521 80.01757967312551 0 0 0 0 -15.858113272603077 23.996363436228421 0 23.996363436228421 47.060174769277182 0 0 0 0 -31.648304023397941 12.396229871936725 0 12.396229871936725 38.631176828403113 0 0 0 0 6.761379643608052 5.4259635441676437 0 5.4259635441676437 8.4673602717657559 0 0 0 0 -6.355672501391382 21.630480923389769 0 21.630480923389769 46.755665328625582 0 0 0 0 13.211727744081145 23.835139693145607 0 23.835139693145607 -2.3572572123512145 0 0 0 0 11.491071872349718 15.221512801925284 0 15.221512801925284 10.21720385118739 0 0 0 0 3.5805473924766957 9.4003896706243424 0 9.4003896706243424 7.9175102757210425 0 0 0 0 0.32150992550151614 23.493033122351921 0 23.493033122351921 -6.8378191966239683 0 0 0 0 -1.9526290611296471 3.3570648866785247 0 3.3570648866785247 3.0228824309082372 0 0 0 0 4.0679762297386333 28.244670008900783 0 28.244670008900783 21.225821788152615 0 0 0 0 12.796920589402589 60.757382122028503 0 60.757382122028503 48.601831745753657 0 0 0 0 32.240423855093468 68.118962874556473 0 68.118962874556473 56.000658125252642 0 0 0 0 23.864701031247932 4.0143997661917865 0 4.0143997661917865 -20.145499645319433 0 0 0 0 58.580668056805735 15.106204531693265 0 15.106204531693265 -39.035481178991652 0 0 0 0 -2.1596430639683604 5.6950732457656841 0 5.6950732457656841 34.298453631027854 0 0 0 0 -33.411996059486228 16.293478377078827 0 16.293478377078827 6.6345307339048532 0 0 0 0 -8.6734224152442039 50.591378806989951 0 50.591378806989951 -7.738750482110845 0 0 0 0 8.2396684517611103 13.151691516208892 0 13.151691516208892 12.057725601035827 0 0 0 0 -13.164349865700387 14.522742030908404 0 14.522742030908404 34.833451215672426 0 0 0 0 -33.756538090088725 27.396638281289263 0 27.396638281289263 41.700245885441532 0 0 0 0 -11.663862159332893 79.641020549452691 0 79.641020549452691 -38.323046250779591 0 0 0 0 61.253091958788445 52.525123858918334 0 52.525123858918334 7.4001300318950598 0 0 0 0 33.682548782860977 33.222254789655267 0 33.222254789655267 1.7036937885604431 0 0 0 0 52.187849218255906 30.82458584636446 0 30.82458584636446 -94.960819292777984 0 0 0 0 -11.591806284377981 74.439569207662998 0 74.439569207662998 -94.636702222897839 0 0 0 0 -1.1898397106313379 0.248210790886501 0 0.248210790886501 -0.72154883716230633 0 0 0 0 -56.529194928178185 55.972531288953327 0 55.972531288953327 -23.225762957768474 0 0 0 0 -26.905004129553731 16.54246041327993 0 16.54246041327993 8.6262123406042051 0 0 0 0 -0.16392706603619445 -21.705279482590843 0 -21.705279482590843 -47.18047342355581 0 0 0 0 100.32729856081278 5.197297590886528 0 5.197297590886528 -16.019051870551131 0 0 0 0 30.55287023378196 15.243797327419303 0 15.243797327419303 -4.6801254362806688 0 0 0 0 3.0660013290635106 15.085076129644513 0 15.085076129644513 -13.992767785705965 0 0 0 0 2.5703405007525362 37.695297771173358 0 37.695297771173358 -34.476929440193672 0 0 0 0 16.270198986017022 13.879507584951167 0 13.879507584951167 -135.48220652127861 0 0 0 0 4.4283364287830409 7.3678285180933667 0 7.3678285180933667 -59.861707876640693 0 0 0 0 9.8688863127963486 51.026368942355987 0 51.026368942355987 -57.385041117186887 0 0 0 0 -4.5371506965484514 34.724211011324755 0 34.724211011324755 -43.578000170844618 0 0 0 0 -13.249675625757618 56.004725149256657 0 56.004725149256657 -22.706163318143787 0 0 0 0 7.4058611217751604 43.158237948914675 0 43.158237948914675 -28.732765920717384 0 0 0 0 18.097953676969155 44.81501989698814 0 44.81501989698814 -29.040516861671861 0 0 0 0 -2.9812411325979156 57.818379844106815 0 57.818379844106815 -22.657673881665431 0 0 0 0 -0.19357118721541156 25.391223376273182 0 25.391223376273182 16.618012737983648 0 0 0 0 34.649890222251315 44.742653656799412 0 44.742653656799412 -33.456065519746332 0 0 0 0 47.590116818744718 25.825636796585645 0 25.825636796585645 11.094491791416662 0 0 0 0 19.588611654713532 19.584678248163563 0 19.584678248163563 10.783139907147323 0 0 0 0 5.7259361662090669 46.291297692026276 0 46.291297692026276 -12.8566060656849 0 0 0 0 9.7467064874508651 25.872606505577114 0 25.872606505577114 -4.3038873928775203 0 0 0 0 6.811775249272614 26.88021115644748 0 26.88021115644748 32.166380510306013 0 0 0 0 34.204060898069201 18.471324987943262 0 18.471324987943262 0.30374686904201553 0 0 0 0 25.697948931798997 6.3246908475916097 0 6.3246908475916097 -2.2159479025418625 0 0 0 0 4.2806585840748506 3.7519116456844168 0 3.7519116456844168 -1.1737912809179645 0 0 0 0 18.755098386448026 -2.116918089053911 0 -2.116918089053911 73.718839082923921 0 0 0 0 81.082054946145945 69.752710629397043 0 69.752710629397043 66.18803469900601 0 0 0 0 29.373257628254578 0.80946843214931619 0 0.80946843214931619 4.8673078838178299 0 0 0 0 8.6478727677167626 17.585694816560672 0 17.585694816560672 40.522061073496857 0 0 0 0 27.648662739673 -0.35738471038973074 0 -0.35738471038973074 28.433319028648143 0 0 0 0 -14.550846091189669 28.710173393498884 0 28.710173393498884 21.810116453416029 0 0 0 0 29.288010504883459 11.818460368904153 0 11.818460368904153 20.453102834937262 0 0 0 0 16.161729358631419 15.625754586911658 0 15.625754586911658 3.8659986540774938 0 0 0 0 23.965636612080612 5.5553016808377196 0 5.5553016808377196 -1.8113749645979622 0 0 0 0 5.3040313829042134 1.4401518233663282 0 1.4401518233663282 38.751688066831051 0 0 0 0 27.677670980132461 0.53899924210190875 0 0.53899924210190875 33.186405172222258 0 0 0 0 39.194835407959772 -18.880825743809577 0 -18.880825743809577 42.665416351133061 0 0 0 0 110.10659986513383 -6.180343371132281 0 -6.180343371132281 -31.358892179030306 0 0 0 0 6.5152281529351734 1.8919671330509313 0 1.8919671330509313 -1.0511662064158365 0 0 0 0 5.7820213786039272 1.9216721649210893 0 1.9216721649210893 0.2822022759070606 0 0 0 0 11.042082137807029 25.459485268401977 0 25.459485268401977 -6.0334152724262822 0 0 0 0 24.023129224628519 7.7718544355159338 0 7.7718544355159338 -2.6893795798314386 0 0 0 0 52.116068367476373 -2.0631847062575162 0 -2.0631847062575162 -12.684042258585123 0 0 0 0 34.595361116116919 18.563220316292131 0 18.563220316292131 -0.50765577815946017 0 0 0 0 22.235416625602284 -3.1061394351572744 0 -3.1061394351572744 -15.936917286786866 0 0 0 0 31.996479942200494 14.140865139467223 0 14.140865139467223 -24.748513568295493 0 0 0 0 -24.704651541993485 13.316330499710549 0 13.316330499710549 24.421591317853938 0 0 0 0 21.655417614802445 29.12228592139769 0 29.12228592139769 -0.54810658051792416 0 0 0 0 5.5906007330287473 15.547552057511972 0 15.547552057511972 15.070693240157281 0 0 0 0 43.978915261162911 10.338955000101578 0 10.338955000101578 5.9651933818290672 0 0 0 0 3.9439451349906358 15.279343075163627 0 15.279343075163627 15.379601049222753 0 0 0 0 -38.227335711208752 56.326316187823295 0 56.326316187823295 27.761134961749576 0 0 0 0 47.14510999057984 26.485216196929741 0 26.485216196929741 -4.3478258512811863 0 0 0 0 -48.02728290518553 -20.066895282516725 0 -20.066895282516725 15.896860742795752 0 0 0 0 29.474751083775345 37.324845049133501 0 37.324845049133501 -15.766362047535949 0 0 0 0 -105.2087696237229 43.168844313375303 0 43.168844313375303 87.575491472330214 0 0 0 0 84.116454530907504 19.411284083883857 0 19.411284083883857 43.116204854166881 0 0 0 0 -7.4207277830134899 28.713596392384943 0 28.713596392384943 63.419529313298881 0 0 0 0 54.957304770204018 82.79484040482987 0 82.79484040482987 34.26784787878114 0 0 0 0 -0.43207802030248788 0.30544817894639031 0 0.30544817894639031 0.97713700095518163 0 0 0 0 -34.293882350850254 32.409226947951765 0 32.409226947951765 22.299266188866113 0 0 0 0 181.46974189475441 3.7054627878310384 0 3.7054627878310384 -13.50187891784276 0 0 0 0 36.531130408480294 10.938859189402137 0 10.938859189402137 -15.760533317239606 0 0 0 0 29.504894034183888 17.458799773455446 0 17.458799773455446 16.190888425725461 0 0 0 0 73.61512023782052 52.948004556902561 0 52.948004556902561 22.688765140217583 0 0 0 0 29.62684904190926 56.690159255118566 0 56.690159255118566 31.522181648054357 0 0 0 0 67.65026701332863 50.264614405659813 0 50.264614405659813 19.105748518918062 0 0 0 0 57.732770547288936 38.508910565723156 0 38.508910565723156 13.992817570859643 0 0 0 0 57.316168537238809 49.890519055845289 0 49.890519055845289 23.427585777519653 0 0 0 0 66.370760449894533 31.279086342527535 0 31.279086342527535 37.50714162608665 0 0 0 0 71.337121707546316 39.824018033064249 0 39.824018033064249 13.283660173877252 0 0 0 0 78.704709599031048 50.054723415868921 0 50.054723415868921 15.862241364281545 0 0 0 0 25.866180319409978 19.671590981168947 0 19.671590981168947 27.095827964295722 0 0 0 0 -62.59137643630811 0.12969688745010899 0 0.12969688745010899 6.4441519746142149 0 0 0 0 -15.44975062363801 6.1275448509665011 0 6.1275448509665011 4.807289084103104 0 0 0 0 -61.291143704959268 12.546217541105761 0 12.546217541105761 -11.874367077406532 0 0 0 0 -0.03977348404687131 0.01621101954467763 0 0.01621101954467763 0.36732105549838323 0 0 0 0 55.588321828404787 40.241783771922201 0 40.241783771922201 30.892126779268892 0 0 0 0 -23.045929573931971 1.3950381028075753 0 1.3950381028075753 3.5059624704590533 0 0 0 0 -27.958199441129182 10.307959780922829 0 10.307959780922829 -5.0240292106727793 0 0 0 0 -0.036758411092607135 1.3134751329381125 0 1.3134751329381125 3.3179388010503246 0 0 0 0 -3.8187535787425304 11.349864014587979 0 11.349864014587979 4.7084231059625381 0 0 0 0 -25.563571805080755 -4.2040528766729039 0 -4.2040528766729039 2.8333642498673726 0 0 0 0 -12.700643519701316 -1.2569208887366585 0 -1.2569208887366585 0.34143608578870044 0 0 0 0 -22.854494757068778 4.1688109479362083 0 4.1688109479362083 9.4270079107955098 0 0 0 0 7.4772447729942542 16.976404440359147 0 16.976404440359147 8.4062061121527734 0 0 0 0 9.5896127253572558 22.846771327875558 0 22.846771327875558 20.525752247728519 0 0 0 0 44.42233491716388 50.905085662008332 0 50.905085662008332 20.030088701660134 0 0 0 0 -104.84723492082048 40.826297485726627 0 40.826297485726627 10.652038511358342 0 0 0 0 -17.930294834020145 46.881114053119234 0 46.881114053119234 -0.46443651915251394 0 0 0 0 0.094941116093529621 0.32469662844015001 0 0.32469662844015001 -0.21812302381732351 0 0 0 0 -63.671340658282588 21.247420879234596 0 21.247420879234596 -0.73728945061975537 0 0 0 0 65.018085269010953 30.942244864538225 0 30.942244864538225 20.110637148841761 0 0 0 0 102.06416789910372 -3.1118913740193079 0 -3.1118913740193079 8.9725174604736821 0 0 0 0 42.697342959346315 28.074633719877966 0 28.074633719877966 -8.5936288220254937 0 0 0 0 32.095681575652179 6.6495737180403012 0 6.6495737180403012 10.216606608182758 0 0 0 0 -71.321335611442464 22.234443541985002 0 22.234443541985002 -0.70956142076829565 0 0 0 0 78.717474712550938 -6.4160918482266425 0 -6.4160918482266425 -39.612570099466211 0 0 0 0 0.045031305957148771 0.43821837864082891 0 0.43821837864082891 -0.34989507713341084 0 0 0 0 -30.852740742848709 28.597864087602829 0 28.597864087602829 -35.576897843017832 0 0 0 0 -51.868990809018669 51.52889037849036 0 51.52889037849036 -39.458692858848735 0 0 0 0 -123.60153236629287 -10.75369317672471 0 -10.75369317672471 2.6886002392047885 0 0 0 0 -102.96029981739866 50.429115238418035 0 50.429115238418035 -11.451422629434092 0 0 0 0 80.103199434133785 86.186349867150057 0 86.186349867150057 -10.706040848925113 0 0 0 0 -0.31471448831727944 0.32795426181338527 0 0.32795426181338527 -0.20255475787115529 0 0 0 0 -66.459385333930413 10.383687340278357 0 10.383687340278357 6.1488889128359006 0 0 0 0 -34.468921284043972 -7.8629551501112473 0 -7.8629551501112473 1.7107458842938286 0 0 0 0 27.627744998084268 47.282429105946676 0 47.282429105946676 69.722495094033548 0 0 0 0 -0.079090960137037314 0.8175637295243412 0 0.8175637295243412 -0.11794641443833243 0 0 0 0 -23.581008076754188 7.555655376238974 0 7.555655376238974 -1.6261968838118719 0 0 0 0 -0.61610223467680747 1.1869661307853834 0 1.1869661307853834 0.0091833572569388622 0 0 0 0 47.358282698435687 59.891018836650801 0 59.891018836650801 46.586954694149426 0 0 0 0 56.494204351886765 46.593895987850374 0 46.593895987850374 -14.285509058294338 0 0 0 0 58.696325710858218 28.03983532568418 0 28.03983532568418 27.816007886033276 0 0 0 0 22.930044989528596 35.663363906429822 0 35.663363906429822 -12.610030616637232 0 0 0 0 38.190413491244044 58.751253467623428 0 58.751253467623428 -35.601789332245971 0 0 0 0 -68.891739771996072 55.435450894210589 0 55.435450894210589 -9.0305377995537128 0 0 0 0 -13.606942069725847 94.897652447710243 0 94.897652447710243 -9.468097332949128 0 0 0 0 -46.019317751485687 -1.6976995229161957 0 -1.6976995229161957 2.0235480256851588 0 0 0 0 -12.447702657728769 42.98276655858308 0 42.98276655858308 -37.971914349590634 0 0 0 0 -9.4221963295267415 30.472273206226873 0 30.472273206226873 0.67992025593639482 0 0 0 0 -0.95409835351997696 1.7089042552383766 0 1.7089042552383766 0.71867399837964641 0 0 0 0 15.428825128894459 13.990581571015355 0 13.990581571015355 -3.3799995818280877 0 0 0 0 -21.803057312151395 20.709683538728768 0 20.709683538728768 1.8941678494975349 0 0 0 0 -8.6300017499174828 11.556303727948489 0 11.556303727948489 10.224721718866022 0 0 0 0 2.991976884183364 4.1241412935563924 0 4.1241412935563924 -0.051782909992271531 0 0 0 0 -4.7566738152825891 1.736114938510334 0 1.736114938510334 0.46677213017999053 0 0 0 0 -3.3148218088621206 3.9972375365367157 0 3.9972375365367157 -47.659355881013198 0 0 0 0 16.14885229151696 1.3053026383313409 0 1.3053026383313409 29.683180681821796 0 0 0 0 15.939835297593163 32.07341131523367 0 32.07341131523367 -47.587416151404341 0 0 0 0 68.581493410152689 0.61953603189203932 0 0.61953603189203932 -19.406987901007597 0 0 0 0 -0.013956896358321036 -0.36212263730038785 0 -0.36212263730038785 -0.2659046132603855 0 0 0 0 -19.465313997124071 11.035714215364806 0 11.035714215364806 20.810724379997737 0 0 0 0 31.392308978658747 4.0046494997124 0 4.0046494997124 3.7569429102259164 0 0 0 0 36.302434564942359 14.884481571064498 0 14.884481571064498 -8.4120086338971305 0 0 0 0 -6.4516668401979587 1.4225792421289043 0 1.4225792421289043 -4.2228944751395829 0 0 0 0 3.1661315140481747 8.5397894344660017 0 8.5397894344660017 -2.8265881379693383 0 0 0 0 10.328861891659265 6.0613986794518846 0 6.0613986794518846 0.17143215675581391 0 0 0 0 1.6595182896660197 1.8601678434460434 0 1.8601678434460434 -0.092018831665154011 0 0 0 0 5.7545648675129115 2.6053116383324144 0 2.6053116383324144 -1.0042279055400911 0 0 0 0 42.938507581343856 14.876694106588729 0 14.876694106588729 -8.0444005401691356 0 0 0 0 13.675438797911283 11.534116817994345 0 11.534116817994345 3.5428496334825468 0 0 0 0 9.5149408597912952 32.327861181667288 0 32.327861181667288 3.1134295195664095 0 0 0 0 4.9502418105001569 11.381913255552064 0 11.381913255552064 4.4642695428915031 0 0 0 0 48.001766439999301 -0.37536586593739685 0 -0.37536586593739685 6.576514629298714 0 0 0 0 13.503663212247261 9.928935296935947 0 9.928935296935947 -1.2728571977754655 0 0 0 0 25.894035482106766 6.0785946055075986 0 6.0785946055075986 -2.4243796862398872 0 0 0 0 3.0176006756740774 7.2100541740380075 0 7.2100541740380075 3.5238611695553788 0 0 0 0 6.800988216302386 13.153101949822599 0 13.153101949822599 0.98148397275303978 0 0 0 0 2.2691126241682014 4.5998136491588753 0 4.5998136491588753 4.3955900311948426 0 0 0 0 8.3661158989644946 10.673237592539635 0 10.673237592539635 4.9106987160910194 0 0 0 0 11.702515986294998 12.483363456008306 0 12.483363456008306 -4.8451421758290962 0 0 0 0 2.4915812936417865 8.8055444173538717 0 8.8055444173538717 -4.4769301411943161 0 0 0 0 -9.8579235594893788 13.866322394293292 0 13.866322394293292 22.574681432158286 0 0 0 0 0.033958975800731039 6.0660943673060705 0 6.0660943673060705 2.7373928134063075 0 0 0 0 -38.632001159958349 -7.1955739539814783 0 -7.1955739539814783 103.19555965279568 0 0 0 0 3.0414563356401838 9.3595183623313503 0 9.3595183623313503 4.3620691640667193 0 0 0 0 15.942426177301428 8.014570344186069 0 8.014570344186069 60.326899483205125 0 0 0 0 22.605084081365021 28.858937906046322 0 28.858937906046322 14.408201104751242 0 0 0 0 130.60125464045086 22.294596614447102 0 22.294596614447102 -115.16522560546369 0 0 0 0 97.986376599340474 50.992994768758521 0 50.992994768758521 -53.319514029643273 0 0 0 0 -21.678637006418512 28.928134409242602 0 28.928134409242602 136.6686773906622 0 0 0 0 -0.69178203963752694 -0.074271807168612369 0 -0.074271807168612369 0.047721082868816156 0 0 0 0 -0.75498753096871951 28.122879108826055 0 28.122879108826055 57.565391234973958 0 0 0 0 -8.4422807652663323 51.165536024931043 0 51.165536024931043 34.702441384753911 0 0 0 0 -2.7171462036781495 5.6833680310720585 0 5.6833680310720585 2.9030504759011144 0 0 0 0 6.0807878966011231 7.3164689538409675 0 7.3164689538409675 1.4019036767085709 0 0 0 0 18.599751899099374 48.73697402487403 0 48.73697402487403 4.972154532651075 0 0 0 0 11.182192852209482 71.461416655457583 0 71.461416655457583 -40.480802292455337 0 0 0 0 9.0424499888409855 8.635255053289427 0 8.635255053289427 3.0227373315710793 0 0 0 0 48.426717052550657 17.136226216724879 0 17.136226216724879 -12.762932629440002 0 0 0 0 0.87863336449906271 6.2702945439232174 0 6.2702945439232174 4.0444726989610666 0 0 0 0 -18.923228735303383 -14.273998998128036 0 -14.273998998128036 20.640163630766665 0 0 0 0 -20.754681804227403 4.7146937253141914 0 4.7146937253141914 -10.087717650657623 0 0 0 0 17.206341959194106 17.026704279890282 0 17.026704279890282 -124.43463940573656 0 0 0 0 -19.261830642294768 59.331355124877248 0 59.331355124877248 -53.156820637224428 0 0 0 0 -0.79900699122754304 33.263885219014583 0 33.263885219014583 -27.002143645735487 0 0 0 0 -10.518655394660527 4.489965207630803 0 4.489965207630803 -46.243381926146867 0 0 0 0 -8.6112379723681443 -14.956373849540796 0 -14.956373849540796 85.390472394764402 0 0 0 0 -1.5946332514106611 0.51843998288321913 0 0.51843998288321913 -0.064724329274643777 0 0 0 0 -27.705166439863206 43.24265504292498 0 43.24265504292498 106.35711801309628 0 0 0 0 1.3611364568907902 15.315545222588412 0 15.315545222588412 -47.094580914705148 0 0 0 0 -3.6088960068550477 10.528392959942494 0 10.528392959942494 -21.542141137947738 0 0 0 0 -3.071871332370165 12.664197936298365 0 12.664197936298365 -14.092960263601981 0 0 0 0 -4.4861116298479828 13.436710015376775 0 13.436710015376775 -13.783389862398849 0 0 0 0 17.705099960189727 26.686537250750234 0 26.686537250750234 25.103415739870343 0 0 0 0 -2.4304039525691223 9.7065220580711866 0 9.7065220580711866 -18.0681590880763 0 0 0 0 -1.8408613563018417 1.3669715568768082 0 1.3669715568768082 0.14421056670326027 0 0 0 0 8.7259628642409552 89.309198915107231 0 89.309198915107231 -41.685057451950343 0 0 0 0 28.825956234307455 38.443372800172028 0 38.443372800172028 -10.712054293387155 0 0 0 0 -3.8937245433671706 8.018138484699648 0 8.018138484699648 6.3237704837047204 0 0 0 0 1.015216249184312 2.83216988237041 0 2.83216988237041 1.7829742767939294 0 0 0 0 128.37845519206985 -36.437079547994927 0 -36.437079547994927 -26.413212979522882 0 0 0 0 -14.999313037142201 9.054315930752864 0 9.054315930752864 6.5076657285499095 0 0 0 0 -14.77458971710621 26.85410330401703 0 26.85410330401703 -26.46278123837692 0 0 0 0 0.4368919665640334 0.57436924277125456 0 0.57436924277125456 0.99987743177124244 0 0 0 0 -24.807067602947427 3.8742175694117122 0 3.8742175694117122 25.055609800619095 0 0 0 0 3.7619659166905421 -10.960998594384137 0 -10.960998594384137 5.0199496464483673 0 0 0 0 -8.3533359403136274 134.22364224563853 0 134.22364224563853 -10.863992389857913 0 0 0 0 23.990194090404657 85.496556353127744 0 85.496556353127744 -139.11181490055424 0 0 0 0 98.806733882331628 31.701783329387922 0 31.701783329387922 -96.734654448246147 0 0 0 0 -74.84737735051749 -4.2315957967437043 0 -4.2315957967437043 -0.41996135952626901 0 0 0 0 -22.345586710810494 56.784743546744266 0 56.784743546744266 -78.273790083088443 0 0 0 0 -13.299981862573077 14.266000425346647 0 14.266000425346647 -51.743192120978961 0 0 0 0 19.089656717707157 2.6613516003238828 0 2.6613516003238828 -153.79552768101212 0 0 0 0 39.013310708219251 45.07369759184985 0 45.07369759184985 -58.383172255844443 0 0 0 0 19.920344861972353 18.153676860805035 0 18.153676860805035 40.551749048609963 0 0 0 0 -1.2744811518105053 -0.99867049993736146 0 -0.99867049993736146 26.841795260385197 0 0 0 0 -65.437295020686861 12.086400246338258 0 12.086400246338258 82.594919106651105 0 0 0 0 -1.5973542674104895 0.098463844903037057 0 0.098463844903037057 -0.19154667486624888 0 0 0 0 -8.3281259483492249 12.821809938827357 0 12.821809938827357 -10.513018721875326 0 0 0 0 2.3374534937893259 12.955460772741773 0 12.955460772741773 -18.863072049186684 0 0 0 0 -5.3617169945786038 10.750165507677998 0 10.750165507677998 -2.3853285604538588 0 0 0 0 5.4927053583942325 12.076873505329672 0 12.076873505329672 -10.595369881866873 0 0 0 0 4.0403236768797797 4.9744792561861573 0 4.9744792561861573 4.6227251053687723 0 0 0 0 -4.0635822303775058 11.026299355164269 0 11.026299355164269 4.2912229786232956 0 0 0 0 -5.6308973853735438 10.137255969034619 0 10.137255969034619 -1.9475506849498865 0 0 0 0 0.99989802249297099 4.9789714738850392 0 4.9789714738850392 -21.261927471137597 0 0 0 0 0.34715720036120623 3.5975016255118195 0 3.5975016255118195 -7.0844793600573741 0 0 0 0 0.47868981042302039 3.6559490271121149 0 3.6559490271121149 -7.3362314740707006 0 0 0 0 -7.3229702989146972 8.38047323842423 0 8.38047323842423 -10.134619797405776 0 0 0 0 -2.041070057150705 5.0640763686567709 0 5.0640763686567709 -3.7353155955779584 0 0 0 0 -6.3706947696812222 12.641708901738411 0 12.641708901738411 -10.241340793806103 0 0 0 0 -5.9637033432768476 12.174532779275978 0 12.174532779275978 -10.956379329525134 0 0 0 0 0.30639021611291017 3.0150866603455793 0 3.0150866603455793 -1.7827735004830032 0 0 0 0 -1.3831074088219637 5.296337547574943 0 5.296337547574943 -2.318568423917625 0 0 0 0 -4.8331472762192789 10.830411198333422 0 10.830411198333422 -1.0998198483705437 0 0 0 0 -1.2939934115611322 6.4316947263514521 0 6.4316947263514521 -8.9670333919788732 0 0 0 0 -3.1976129828412923 6.0598670319420762 0 6.0598670319420762 -3.1126275381634514 0 0 0 0 1.9692604511184788 2.7087961714168429 0 2.7087961714168429 -1.8872485252671041 0 0 0 0 7.8792514500910329 19.857293966118959 0 19.857293966118959 4.1820237446954707 0 0 0 0 -15.302069634452266 12.964099351628647 0 12.964099351628647 8.398043627388688 0 0 0 0 -14.048867335744035 2.6917627671577975 0 2.6917627671577975 -7.7994394771521911 0 0 0 0 -11.72647708473869 24.634066344841358 0 24.634066344841358 -28.490047746948221 0 0 0 0 -15.12216459649062 -23.467647051036238 0 -23.467647051036238 -123.50123044616066 0 0 0 0 -83.590282271274191 29.242455333571343 0 29.242455333571343 -11.067106011608303 0 0 0 0 57.468705717590638 25.270979581406664 0 25.270979581406664 -34.699860975295451 0 0 0 0 -34.500337387892927 36.710213796504945 0 36.710213796504945 -19.567105186029039 0 0 0 0 -10.857261570578885 13.168423557111964 0 13.168423557111964 -59.463478048657635 0 0 0 0 -0.13310167188279209 -0.84319473983531523 0 -0.84319473983531523 0.27220695732626154 0 0 0 0 -1.4746163100475762 1.621923404379654 0 1.621923404379654 0.71846556231984948 0 0 0 0 17.873705498135678 52.082891764449414 0 52.082891764449414 -67.261007104018063 0 0 0 0 -11.406344773601631 14.29218474401614 0 14.29218474401614 2.7908223374278123 0 0 0 0 -1.6373512159441825 2.80010436618117 0 2.80010436618117 0.55661480989059342 0 0 0 0 -21.850370375572311 6.3868180145500446 0 6.3868180145500446 -2.2512566144960147 0 0 0 0 -0.44234508015051688 15.532867018409888 0 15.532867018409888 -19.952367890613459 0 0 0 0 -14.552457555800629 12.233413451122487 0 12.233413451122487 -20.164312221438195 0 0 0 0 -2.07546768252611 4.6818954505022674 0 4.6818954505022674 -0.030687490882072233 0 0 0 0 -1.9107236268873748 18.375572803495061 0 18.375572803495061 -22.375500176614423 0 0 0 0 2.1508907530760553 14.064022363111235 0 14.064022363111235 -18.616582831352389 0 0 0 0 -2.1570468859866878 18.981304572666147 0 18.981304572666147 -11.070567207707882 0 0 0 0 4.5985555198374186 11.98724193447439 0 11.98724193447439 -3.2439447632918341 0 0 0 0 7.3151978967650848 10.855829031278063 0 10.855829031278063 -18.925577986754433 0 0 0 0 -28.451660136617647 26.350819956044802 0 26.350819956044802 -1.262162127002739 0 0 0 0 -8.9108404112866992 25.258296644298298 0 25.258296644298298 20.382145891435357 0 0 0 0 10.352712359693502 10.541232116706595 0 10.541232116706595 -4.3909807663740175 0 0 0 0 8.1635909980259385 15.515733359233764 0 15.515733359233764 -15.662810467906866 0 0 0 0 51.069211968665513 30.464939376593065 0 30.464939376593065 -21.164301352918301 0 0 0 0 38.068737321746084 -24.579645049808732 0 -24.579645049808732 -40.532940214730843 0 0 0 0 7.7822729935214774 -41.315747571160784 0 -41.315747571160784 -39.79182788444723 0 0 0 0 35.580896835601379 34.856586377932217 0 34.856586377932217 -2.6333625962961378 0 0 0 0 0.78963461940828239 3.3645567650894885 0 3.3645567650894885 -3.0243424702320656 0 0 0 0 20.683636673258661 5.5488540472072145 0 5.5488540472072145 10.068949546996009 0 0 0 0 -65.803805883876407 90.63227439868939 0 90.63227439868939 -18.273414435589984 0 0 0 0 -75.803992891660528 53.712436754888131 0 53.712436754888131 33.308069750931281 0 0 0 0 -13.176951179202661 44.0558125151083 0 44.0558125151083 -12.261803922671788 0 0 0 0 -54.392931927299287 28.876684262371782 0 28.876684262371782 36.887368410230465 0 0 0 0 -164.71675689601216 12.828948666114684 0 12.828948666114684 125.8891230877698 0 0 0 0 -110.35518818466517 24.378485097822704 0 24.378485097822704 69.550834463414503 0 0 0 0 -0.88103917430961332 0.66112750494534689 0 0.66112750494534689 -0.51924406667810707 0 0 0 0 74.334573047939557 60.02917893518952 0 60.02917893518952 -23.42820853062608 0 0 0 0 17.016352149516024 69.605215194229459 0 69.605215194229459 35.216761467563629 0 0 0 0 -232.67010484838102 223.25439209794058 0 223.25439209794058 -48.035437629232547 0 0 0 0 98.366457796151735 45.72909009034538 0 45.72909009034538 -21.81088671361249 0 0 0 0 94.839964478162671 -31.6061620352814 0 -31.6061620352814 50.92966289580545 0 0 0 0 -0.047159823554794755 0.31484068196730064 0 0.31484068196730064 0.37469715490981592 0 0 0 0 -45.289723493172914 11.874051805634281 0 11.874051805634281 63.544818858084909 0 0 0 0 5.0720441085186394 68.081159790382571 0 68.081159790382571 35.043138127568 0 0 0 0 -63.046852627288899 35.668690439707916 0 35.668690439707916 -20.139144188254789 0 0 0 0 -27.652264091038887 -28.717719291013054 0 -28.717719291013054 -29.04992483116348 0 0 0 0 -82.970460195010219 61.060573376050229 0 61.060573376050229 -11.331233734961643 0 0 0 0 2.6211818407364262 56.509015313594318 0 56.509015313594318 -52.225775096088796 0 0 0 0 16.926783000958949 5.9279311204990677 0 5.9279311204990677 0.4068976540274889 0 0 0 0 -25.855362341810178 60.302023846610609 0 60.302023846610609 -12.312030307786699 0 0 0 0 -19.930514004503493 21.778360540666654 0 21.778360540666654 3.4704396106544664 0 0 0 0 49.17030660079854 14.615873641468625 0 14.615873641468625 -5.309840232322415 0 0 0 0 -3.5401924679074277 2.8979067271646102 0 2.8979067271646102 1.399150327700557 0 0 0 0 16.503329992056024 40.613508586948456 0 40.613508586948456 -6.8280987590551376 0 0 0 0 141.64780070297275 41.72164045878344 0 41.72164045878344 -13.526004413928604 0 0 0 0 -0.024772455258674775 0.0080956885684830837 0 0.0080956885684830837 0.96088922423008682 0 0 0 0 -12.705995113956305 -15.852904636508356 0 -15.852904636508356 -16.322223754814331 0 0 0 0 -16.547825528978137 46.060090286583545 0 46.060090286583545 -6.662780249656862 0 0 0 0 -52.410902030673697 29.925117808701202 0 29.925117808701202 1.4039828863787989 0 0 0 0 1.4490351248848068 11.085386308564111 0 11.085386308564111 7.3920400439024281 0 0 0 0 -22.521907805099545 19.676154349459466 0 19.676154349459466 -4.1078781535159123 0 0 0 0 -18.846561735076648 16.75473251277765 0 16.75473251277765 0.75279525097357691 0 0 0 0 -18.237643063307306 14.59496370063551 0 14.59496370063551 -5.2573173865100937 0 0 0 0 20.818471231611511 24.495208150488907 0 24.495208150488907 35.00221314495775 0 0 0 0 19.161361777133152 9.1509837235596478 0 9.1509837235596478 35.526988457468633 0 0 0 0 30.991888732159225 19.379930570114084 0 19.379930570114084 30.61389457160567 0 0 0 0 33.664816578690989 40.409443868554717 0 40.409443868554717 64.057077713748185 0 0 0 0 94.815514677642341 54.713457179620377 0 54.713457179620377 24.640892759158305 0 0 0 0 57.87925661376687 24.688535027234593 0 24.688535027234593 35.920816491742698 0 0 0 0 30.878861935927944 13.394999828475648 0 13.394999828475648 15.544393327830221 0 0 0 0 -25.518317626851967 29.867313551509142 0 29.867313551509142 11.226262981744185 0 0 0 0 9.0165622264685226 33.402754321239627 0 33.402754321239627 35.048659860389307 0 0 0 0 49.737821196476034 -63.707144400868401 0 -63.707144400868401 -128.56405391544286 0 0 0 0 0.15492343007878517 0.2201393183068685 0 0.2201393183068685 0.059788669641390513 0 0 0 0 2.2345971832432951 -15.321260703864027 0 -15.321260703864027 101.95912143223552 0 0 0 0 40.082056665515665 56.142387689847965 0 56.142387689847965 -171.75159562745739 0 0 0 0 -0.56595559538682494 1.2548485506231337 0 1.2548485506231337 0.34633292494535173 0 0 0 0 -12.719379517086054 -41.466551839082967 0 -41.466551839082967 148.77620897540419 0 0 0 0 -1.7155430692037044 11.971129875469614 0 11.971129875469614 92.903683683821782 0 0 0 0 -3.4155210464846277 31.528769296427299 0 31.528769296427299 -41.104213575426684 0 0 0 0 -13.088844918642053 -37.898595376579351 0 -37.898595376579351 31.815450233537376 0 0 0 0 -16.022300938228454 -1.0161993532412907 0 -1.0161993532412907 38.405831003988851 0 0 0 0 22.813152840134762 -14.569238213417862 0 -14.569238213417862 22.728010756537515 0 0 0 0 20.875704753461378 -15.636479215027975 0 -15.636479215027975 -22.115275652646233 0 0 0 0 -47.274395298961281 -1.5041670156048212 0 -1.5041670156048212 6.5494261523990644 0 0 0 0 0.15345397252783677 0.41384621389827458 0 0.41384621389827458 0.4726024746852957 0 0 0 0 -123.86448183839673 1.2452844853903571 0 1.2452844853903571 7.6807937857502111 0 0 0 0 13.256775966334317 -0.3565732695042243 0 -0.3565732695042243 -59.750522382869349 0 0 0 0 0.17152876805679718 0.13033034271369104 0 0.13033034271369104 0.064206228579081426 0 0 0 0 10.646198981331281 0.22172546828005579 0 0.22172546828005579 16.814754687924506 0 0 0 0 44.458006512764769 33.777680921714364 0 33.777680921714364 -29.608230014108813 0 0 0 0 61.980318838911444 25.309229262114968 0 25.309229262114968 18.554601301345429 0 0 0 0 62.862730708413437 47.083703704742675 0 47.083703704742675 16.7402766074255 0 0 0 0 44.661577140516783 37.316317974820322 0 37.316317974820322 19.089865011255824 0 0 0 0 50.017672396383205 21.434141481340703 0 21.434141481340703 -16.00191446508461 0 0 0 0 29.287789605097714 5.7715428193207572 0 5.7715428193207572 31.17199501347659 0 0 0 0 48.034665875211658 26.511082682957294 0 26.511082682957294 18.762319230511821 0 0 0 0 0.067443234621282322 1.3879823665053754 0 1.3879823665053754 -2.8424366868505508 0 0 0 0 54.621764371414429 33.376102365852148 0 33.376102365852148 22.252657779193669 0 0 0 0 54.643729806905867 33.446646832903753 0 33.446646832903753 17.070054758906053 0 0 0 0 0.11901957268724761 0.7405173269314087 0 0.7405173269314087 -2.2985459660876018 0 0 0 0 5.7693453444662737 1.4125552769937713 0 1.4125552769937713 -3.0230523414397794 0 0 0 0 25.995075072459258 1.4712523905382113 0 1.4712523905382113 -11.316969313026675 0 0 0 0 1.2276441896260621 23.692467205208231 0 23.692467205208231 -18.222270555512296 0 0 0 0 12.126168740459889 11.894370986093804 0 11.894370986093804 -14.244030315351665 0 0 0 0 44.325474510033985 37.234591552458369 0 37.234591552458369 -15.912040199835246 0 0 0 0 -8.830097727696284 -25.886765645710057 0 -25.886765645710057 -32.506083588302772 0 0 0 0 0.21040928683912696 0.24860944952619768 0 0.24860944952619768 -1.0904799782386156 0 0 0 0 28.034998042026928 -12.130230216184259 0 -12.130230216184259 -53.020034966586536 0 0 0 0 50.760884094881476 57.921090908623228 0 57.921090908623228 22.941905161747428 0 0 0 0 70.413327770825163 32.903991554868753 0 32.903991554868753 24.755871195716281 0 0 0 0 39.8354062342014 55.244493266274731 0 55.244493266274731 22.678508798529833 0 0 0 0 49.76406432729209 50.103308195901718 0 50.103308195901718 10.547978653438577 0 0 0 0 -2.175530479308236 32.518860757580114 0 32.518860757580114 21.995092391424805 0 0 0 0 -18.573071222222097 67.367589822452828 0 67.367589822452828 -35.505629225346865 0 0 0 0 -101.77536769345761 56.79319953318327 0 56.79319953318327 29.265041384510369 0 0 0 0 -49.717531460540158 33.385291066360878 0 33.385291066360878 37.82621881007708 0 0 0 0 -21.301113540156507 43.735784500418845 0 43.735784500418845 30.728426809860139 0 0 0 0 -16.085542126267342 29.727246828729221 0 29.727246828729221 38.356460563745713 0 0 0 0 -71.396494491772046 -126.68636145905839 0 -126.68636145905839 129.70343741811666 0 0 0 0 -0.084952142143802867 0.028433468898580561 0 0.028433468898580561 -0.053353272261844609 0 0 0 0 -17.16627728516778 42.11031962388779 0 42.11031962388779 35.615134028397506 0 0 0 0 -21.919800893536149 34.203415975804091 0 34.203415975804091 30.764259502226196 0 0 0 0 -26.410976046758606 37.202154397162531 0 37.202154397162531 35.803385241155411 0 0 0 0 -25.601493394717181 50.617203115079974 0 50.617203115079974 37.232978025726652 0 0 0 0 -92.620316041157821 136.67237862314005 0 136.67237862314005 -69.750148373103002 0 0 0 0 -119.3035660711048 -95.23819151970838 0 -95.23819151970838 353.19525964348213 0 0 0 0 -195.52873398578049 75.448463053064188 0 75.448463053064188 68.24675028765455 0 0 0 0 228.13932574860746 139.66440568654662 0 139.66440568654662 -188.91205940482587 0 0 0 0 -9.5609863111690174 52.410167680915492 0 52.410167680915492 173.73183782166097 0 0 0 0 4.1720512773138339 1.5904741066554724 0 1.5904741066554724 1.0869391662573253 0 0 0 0 -9.0059803288826288 31.365702400277883 0 31.365702400277883 61.169963828662731 0 0 0 0 -56.5311143472141 -9.073955866121878 0 -9.073955866121878 28.112135772527836 0 0 0 0 110.58363133613693 45.05806865708746 0 45.05806865708746 -39.894277151844108 0 0 0 0 138.01948835597977 137.01201664851487 0 137.01201664851487 129.90390618930633 0 0 0 0 268.39095498043571 -74.889208607733963 0 -74.889208607733963 36.238720063805886 0 0 0 0 -4.870552731190287 -2.1264687734056338 0 -2.1264687734056338 23.02704950838779 0 0 0 0 0.79883397378315735 2.3827940476700249 0 2.3827940476700249 3.4421396220080211 0 0 0 0 6.4996473029113986 -9.64984614074001 0 -9.64984614074001 27.968061752518224 0 0 0 0 5.2802842483761196 16.304110102472805 0 16.304110102472805 -8.8616845475444279 0 0 0 0 -16.052221902239808 4.3346187490380998 0 4.3346187490380998 18.835950608947314 0 0 0 0 -15.486055517793829 13.796109394929772 0 13.796109394929772 45.074872298386254 0 0 0 0 5.2558605638530018 8.4247986676805873 0 8.4247986676805873 10.459928650449704 0 0 0 0 -19.843198705981308 19.994513816411938 0 19.994513816411938 15.750922510095734 0 0 0 0 63.718067176565455 102.58476523574427 0 102.58476523574427 -21.897226046932744 0 0 0 0 6.8069200063082462 25.671055297402859 0 25.671055297402859 16.549109469131054 0 0 0 0 -7.6661932351808595 1.726186792085743 0 1.726186792085743 8.2914117732350725 0 0 0 0 -3.9394049440661547 6.300584212711783 0 6.300584212711783 13.811259201163466 0 0 0 0 -17.674928161914977 19.473599546747209 0 19.473599546747209 24.587991099338979 0 0 0 0 -6.7554942610104263 8.4839020523713771 0 8.4839020523713771 28.765964573122119 0 0 0 0 -18.053395805350192 19.178519478824001 0 19.178519478824001 32.721094277867451 0 0 0 0 -0.76019137325340935 3.2390651000505772 0 3.2390651000505772 1.0438837888769541 0 0 0 0 -19.865440865190067 -27.716278908546201 0 -27.716278908546201 -36.571308520387902 0 0 0 0 -28.623006534724937 -20.500228980186876 0 -20.500228980186876 35.684141460010551 0 0 0 0 -100.24632407914442 -21.821263076785272 0 -21.821263076785272 16.913787701697402 0 0 0 0 -18.37298413795213 13.411897166764518 0 13.411897166764518 27.435797276215453 0 0 0 0 -0.58152357784109476 0.48801525134928303 0 0.48801525134928303 -0.64030054042519602 0 0 0 0 -39.464097435757139 11.09351990409732 0 11.09351990409732 32.93816847355447 0 0 0 0 -26.053069068019795 33.105609089159316 0 33.105609089159316 25.178651743435694 0 0 0 0 -21.104212449614806 25.009851985608179 0 25.009851985608179 22.247748830734963 0 0 0 0 -3.2841376780152132 40.023958238462455 0 40.023958238462455 -22.376158386857242 0 0 0 0 -24.203443532034839 53.118517552948106 0 53.118517552948106 10.506746313076292 0 0 0 0 -1.6377737269162935 32.117851505829549 0 32.117851505829549 -1.7778300237071107 0 0 0 0 14.183104597723755 11.430874073143606 0 11.430874073143606 9.1298331365969005 0 0 0 0 -1.5441436820883609 23.92240164660825 0 23.92240164660825 1.0030064582688283 0 0 0 0 12.335652757534593 11.491289844284371 0 11.491289844284371 9.5598326950365902 0 0 0 0 -1.1049428246508342 19.575376143619678 0 19.575376143619678 16.879706198801614 0 0 0 0 -24.207558258033714 56.019651454668747 0 56.019651454668747 -27.65789102561439 0 0 0 0 4.2883130095433444 14.639251930469072 0 14.639251930469072 -21.522389173889451 0 0 0 0 -70.136114516461021 71.431112936029422 0 71.431112936029422 -34.877041403899057 0 0 0 0 1.4138380084229745 2.3274734119330454 0 2.3274734119330454 2.4243023252957343 0 0 0 0 -15.486633905034978 4.5261231599888561 0 4.5261231599888561 -4.3098486611361295 0 0 0 0 -86.993037501111758 43.170300965164643 0 43.170300965164643 2.3584187962601391 0 0 0 0 4.596836844138636 41.169305107998646 0 41.169305107998646 -78.299515588309077 0 0 0 0 -14.779806960753376 39.649435812483262 0 39.649435812483262 -57.498361984085932 0 0 0 0 -5.053075998751865 19.911861705916181 0 19.911861705916181 -19.121025798518531 0 0 0 0 -23.917848708721579 48.650404942925036 0 48.650404942925036 -25.357871366772088 0 0 0 0 -8.5937929985893788 53.108545841478644 0 53.108545841478644 -39.062546234529691 0 0 0 0 -18.497268112796519 40.897763346836655 0 40.897763346836655 -43.348857648951935 0 0 0 0 -11.144725190831196 29.339321701644167 0 29.339321701644167 -91.773352382793746 0 0 0 0 -13.547791474530413 33.110869700331705 0 33.110869700331705 -12.229883780926684 0 0 0 0 -18.280409279761443 62.375785082560469 0 62.375785082560469 -42.271553398458309 0 0 0 0 -0.39217229569203482 26.726273087786467 0 26.726273087786467 -14.686125417478479 0 0 0 0 14.832510766925658 11.93893870762712 0 11.93893870762712 9.8120679364196377 0 0 0 0 -7.2141274176867682 20.323018763004598 0 20.323018763004598 -30.225047861173152 0 0 0 0 -28.633471249900595 79.236194945167881 0 79.236194945167881 -42.330880401805189 0 0 0 0 -1.7057341571926372 21.008698173909579 0 21.008698173909579 22.712951978125602 0 0 0 0 3.6326889218571523 49.890359740974418 0 49.890359740974418 63.473044048376323 0 0 0 0 -37.553254032329278 33.722256775711685 0 33.722256775711685 184.12385839474518 0 0 0 0 9.4989484876805363 77.752522359723116 0 77.752522359723116 -175.55729234424143 0 0 0 0 -46.475215728555668 -15.170448660584952 0 -15.170448660584952 249.24046946319049 0 0 0 0 0.073863476862079835 0.25300494322070222 0 0.25300494322070222 0.070961398889537453 0 0 0 0 -32.022150979886419 43.373431939405691 0 43.373431939405691 155.27853552438046 0 0 0 0 8.5556070118254866 -14.966006876586107 0 -14.966006876586107 133.02436775336719 0 0 0 0 1.7128934604179449 36.988999633898402 0 36.988999633898402 91.039472936894526 0 0 0 0 0.52953913375717576 1.1066914667054135 0 1.1066914667054135 0.35596941771248325 0 0 0 0 -24.036428542007343 92.935803190658589 0 92.935803190658589 -24.311991678562663 0 0 0 0 22.684402338054028 70.786710243228001 0 70.786710243228001 -43.164942369296114 0 0 0 0 -4.1243470033755329 59.110775422218012 0 59.110775422218012 10.914288317542741 0 0 0 0 19.255309437547112 19.818543422289622 0 19.818543422289622 32.414124777698817 0 0 0 0 21.091095609516742 37.976419771650399 0 37.976419771650399 -14.576027402205909 0 0 0 0 3.6378256863299612 48.800724048237498 0 48.800724048237498 -19.12058079802182 0 0 0 0 35.401578255845379 19.136263205648447 0 19.136263205648447 -42.275032931671831 0 0 0 0 130.45443789126364 -90.531823800142547 0 -90.531823800142547 7.7363201552307146 0 0 0 0 79.996059601686284 32.612734230820934 0 32.612734230820934 -68.971006852816842 0 0 0 0 -269.79568392367401 142.65123192456076 0 142.65123192456076 -40.875790325613252 0 0 0 0 -0.22548771611680701 0.62213360990327704 0 0.62213360990327704 -2.2023948195495358 0 0 0 0 -0.15210529790527971 23.913120192679287 0 23.913120192679287 -3.9391503222914253 0 0 0 0 14.097690746938428 13.883799889075338 0 13.883799889075338 9.5430905128387806 0 0 0 0 -76.147062355107039 58.656028322475294 0 58.656028322475294 -14.244651196928316 0 0 0 0 3.3873466091798048 3.950412624767214 0 3.950412624767214 -6.4071200894550806 0 0 0 0 26.103449833442937 35.647571392284135 0 35.647571392284135 -8.1746390731153724 0 0 0 0 -9.8534716288595519 22.605383395994977 0 22.605383395994977 1.8940244550686884 0 0 0 0 -9.8522069419996114 44.963818899764192 0 44.963818899764192 0.64021297039289493 0 0 0 0 -10.501297728824284 43.745961692858145 0 43.745961692858145 22.052274019517426 0 0 0 0 -9.8444543349960441 19.97496052000588 0 19.97496052000588 27.588039148874032 0 0 0 0 -5.6550114368251343 1.5577135453299888 0 1.5577135453299888 8.8101606166255806 0 0 0 0 1.7212012243648405 9.6562449318376196 0 9.6562449318376196 5.3417130614887469 0 0 0 0 -19.216840161022446 16.505943924052644 0 16.505943924052644 21.197116827469472 0 0 0 0 9.1859435221967942 18.714280764338582 0 18.714280764338582 10.572425890377417 0 0 0 0 49.68647825335529 -2.5843846304287581 0 -2.5843846304287581 1.1053635294447304 0 0 0 0 0.9925227753807242 2.383080044155129 0 2.383080044155129 0.81651162196853733 0 0 0 0 116.31337993763691 11.605625573188718 0 11.605625573188718 -445.44112895786748 0 0 0 0 -18.849340589143139 92.921389527228257 0 92.921389527228257 -13.055676821266388 0 0 0 0 41.691724698574035 -2.2854608096740776 0 -2.2854608096740776 -23.242145102336508 0 0 0 0 43.865943307067937 -38.878513466619552 0 -38.878513466619552 -241.2530428957557 0 0 0 0 -12.854484543258195 75.127733012639965 0 75.127733012639965 36.904102419863193 0 0 0 0 -2.9805508203902846 1.5735141131369392 0 1.5735141131369392 -1.3527314058204851 0 0 0 0 51.484122889700302 53.082975204274589 0 53.082975204274589 2.3322127098090277 0 0 0 0 -10.109746248618649 72.951870883444826 0 72.951870883444826 -3.8502481584910129 0 0 0 0 -247.17413919506862 212.41523438560398 0 212.41523438560398 318.88382613730755 0 0 0 0 -4.8370124194207165 126.0427067884284 0 126.0427067884284 -254.47541194221765 0 0 0 0 24.435329070482112 -39.308193595407829 0 -39.308193595407829 63.471023646720823 0 0 0 0 15.755339427003946 29.435298715353383 0 29.435298715353383 -49.179692438650818 0 0 0 0 17.98519216646946 38.610524369441919 0 38.610524369441919 -53.669927071246093 0 0 0 0 -4.0904587349923531 45.207588967033189 0 45.207588967033189 -40.051527735753552 0 0 0 0 2.2872560612090638 25.948095607225696 0 25.948095607225696 -23.56056069661372 0 0 0 0 -9.0856933552576606 38.144005716074673 0 38.144005716074673 -25.380247712950222 0 0 0 0 -9.4744808693499465 44.449194952732 0 44.449194952732 -35.19349899333065 0 0 0 0 10.907056689364254 26.003834831123527 0 26.003834831123527 -39.578409488571197 0 0 0 0 22.652310900054545 -41.236702190832148 0 -41.236702190832148 -174.06783960089979 0 0 0 0 -5.9600695484112514 6.9778125253108847 0 6.9778125253108847 -2.5935062652212473 0 0 0 0 37.222180140558521 25.388546166238029 0 25.388546166238029 -5.8426991488113345 0 0 0 0 2.5006108957713877 27.194394735318383 0 27.194394735318383 -30.884280018721256 0 0 0 0 -3.6472427276353301 9.9938040371787338 0 9.9938040371787338 2.8211477630211448 0 0 0 0 16.258238863045335 -11.773214259983433 0 -11.773214259983433 -10.236227352575042 0 0 0 0 13.786983146584589 24.420994949203305 0 24.420994949203305 -11.245279375452355 0 0 0 0 10.515109074817733 6.449638963008919 0 6.449638963008919 1.0894379028691041 0 0 0 0 34.093421630092053 17.584910027355363 0 17.584910027355363 -4.8483747098920276 0 0 0 0 13.7384767229114 -13.706367406079607 0 -13.706367406079607 -4.85982450590393 0 0 0 0 12.210221332129095 -15.870288486073605 0 -15.870288486073605 12.05200566148369 0 0 0 0 3.7991554233149145 17.113715888903243 0 17.113715888903243 -3.0196197405327325 0 0 0 0 3.794198521324688 11.682096558006378 0 11.682096558006378 37.446174694250658 0 0 0 0 3.4332059209436689 4.0058390497736021 0 4.0058390497736021 -1.2826233176571282 0 0 0 0 1.7468987411889429 6.7291386816123122 0 6.7291386816123122 0.76849894844826849 0 0 0 0 -16.204920713867978 5.0274990330817673 0 5.0274990330817673 10.857677488273112 0 0 0 0 2.0350508902425437 4.810115783232126 0 4.810115783232126 2.9880913724028808 0 0 0 0 1.0924510712292239 5.7443681408157037 0 5.7443681408157037 4.152126252658551 0 0 0 0 -2.1757169585619067 21.771031249532371 0 21.771031249532371 16.972932006905467 0 0 0 0 12.902777307553151 -1.2373189687132253 0 -1.2373189687132253 -8.1933721410387079 0 0 0 0 1.4519234622133874 1.9918428049634311 0 1.9918428049634311 -7.7731517198671796 0 0 0 0 13.158251503517022 26.136996090037883 0 26.136996090037883 16.111171949504751 0 0 0 0 35.475929882168998 23.471673479845208 0 23.471673479845208 -12.875995853235509 0 0 0 0 3.0473789651704912 5.2435212276819279 0 5.2435212276819279 2.2076311902701722 0 0 0 0 35.510889492186834 16.808000420939607 0 16.808000420939607 2.8163507798708451 0 0 0 0 32.613276452211267 21.3419065022008 0 21.3419065022008 -0.91583037073723972 0 0 0 0 40.403732968096847 17.147526662048222 0 17.147526662048222 -0.34844949692705995 0 0 0 0 81.873310940345618 24.105640589325048 0 24.105640589325048 17.971574833018167 0 0 0 0 36.120676268199531 23.526915000520603 0 23.526915000520603 10.9152106733236 0 0 0 0 0.44850703069423403 1.5689351734163655 0 1.5689351734163655 2.1708705043120986 0 0 0 0 46.402275143806946 7.4460088614723645 0 7.4460088614723645 -2.6441142268522526 0 0 0 0 52.104132343203673 15.968188435801494 0 15.968188435801494 -1.2944123853958445 0 0 0 0 36.84210869465096 14.364611633245659 0 14.364611633245659 -1.3865452342652134 0 0 0 0 38.507874325398006 10.830057354478413 0 10.830057354478413 6.0311213919303555 0 0 0 0 25.632526790413976 4.2588345168187516 0 4.2588345168187516 3.0783753980649635 0 0 0 0 0.80756538653466858 4.8257063980137431 0 4.8257063980137431 3.4112791760188657 0 0 0 0 -0.65254295640806959 4.2503602523720474 0 4.2503602523720474 0.33653658435468969 0 0 0 0 11.441710653128212 -11.497460130620311 0 -11.497460130620311 2.7392656653173617 0 0 0 0 0.70957549271987386 4.8345259224652022 0 4.8345259224652022 2.162095521347581 0 0 0 0 30.617041434845305 -7.8888267846377857 0 -7.8888267846377857 -4.0795712416474998 0 0 0 0 46.825220981758321 7.2580165025756287 0 7.2580165025756287 -3.912737398466561 0 0 0 0 53.163527909706318 -0.12519764121134358 0 -0.12519764121134358 -1.8727175161238847 0 0 0 0 57.397113108270105 37.438464632882187 0 37.438464632882187 19.671095250425424 0 0 0 0 37.871536176478003 16.432743878853216 0 16.432743878853216 32.518051190178085 0 0 0 0 64.080148349134106 14.066313747165623 0 14.066313747165623 -1.5690560888847358 0 0 0 0 0.45760432352431923 0.9216648509683214 0 0.9216648509683214 0.15033479376323555 0 0 0 0 -57.172417790712643 28.710290812869971 0 28.710290812869971 -4.4417584849461491 0 0 0 0 -29.841037548452732 36.52095918793384 0 36.52095918793384 -18.21554511433169 0 0 0 0 22.768719217121998 6.9130021188759656 0 6.9130021188759656 5.8060221413616091 0 0 0 0 -26.353723646233448 6.3309460363034304 0 6.3309460363034304 10.667611484761437 0 0 0 0 2.5655797580561739 6.2840949231831473 0 6.2840949231831473 -33.283122764105428 0 0 0 0 -38.420846012943912 64.947382712555736 0 64.947382712555736 -49.86928059874117 0 0 0 0 -65.716769095902237 67.78798773935705 0 67.78798773935705 -43.725201973009916 0 0 0 0 -8.260498162229851 31.937685823269931 0 31.937685823269931 -79.293070689273918 0 0 0 0 52.081891033456486 46.816515121425255 0 46.816515121425255 88.532612161983707 0 0 0 0 57.225332079383406 -50.18290532048195 0 -50.18290532048195 125.64160975965251 0 0 0 0 26.114389188931455 38.30463444095767 0 38.30463444095767 36.917541160205019 0 0 0 0 -1.5129857441587529 0.73061662221972767 0 0.73061662221972767 -0.40566641461130537 0 0 0 0 51.728955253919139 12.194695252710972 0 12.194695252710972 -199.85810756540559 0 0 0 0 43.998557287870426 -12.082177061189213 0 -12.082177061189213 21.570321554149814 0 0 0 0 -5.0612369438616529 2.0090798396730776 0 2.0090798396730776 -1.1289154636721541 0 0 0 0 -2.6189935577713186 13.427721864017258 0 13.427721864017258 19.125909126464649 0 0 0 0 -5.6942058970688834 13.122171783310961 0 13.122171783310961 19.481543848351976 0 0 0 0 -5.1194618877507025 21.476930260432226 0 21.476930260432226 30.353561939120482 0 0 0 0 30.107970900483451 16.984414950816245 0 16.984414950816245 6.770919083730405 0 0 0 0 28.952107204823733 32.780326855579915 0 32.780326855579915 14.323660843613652 0 0 0 0 -3.6228475653938403 13.312936218283539 0 13.312936218283539 -7.9650293895747382 0 0 0 0 -0.39837572832038859 9.7777684813354426 0 9.7777684813354426 -46.2122463505616 0 0 0 0 -2.1842798935667815 12.923404703084543 0 12.923404703084543 -9.4462873464408403 0 0 0 0 -12.656295904944727 18.476739135307525 0 18.476739135307525 10.759057523091542 0 0 0 0 -7.8606046739484672 5.1461913172993903 0 5.1461913172993903 0.36286978715370566 0 0 0 0 4.1613735771798881 7.1794305742017919 0 7.1794305742017919 4.7147596892981447 0 0 0 0 0.13744863103238458 7.9608528918888624 0 7.9608528918888624 3.3818474966183203 0 0 0 0 -8.2901060422182127 7.6648585455664033 0 7.6648585455664033 4.2843520204323795 0 0 0 0 -3.2912722178432432 8.3642817897455188 0 8.3642817897455188 1.1781996184317904 0 0 0 0 4.6302235192246091 2.9555578886123506 0 2.9555578886123506 0.42867002040233615 0 0 0 0 -15.724674476129167 23.205191926488169 0 23.205191926488169 -2.1641657165846482 0 0 0 0 -2.137040934866036 2.7585579769347532 0 2.7585579769347532 15.535819956256091 0 0 0 0 0.88588163781923868 5.291075368246311 0 5.291075368246311 2.3226833568896836 0 0 0 0 1.0459143654370564 9.6550982930202736 0 9.6550982930202736 -8.6163543555467186 0 0 0 0 0.37603733165484954 3.7957469129038994 0 3.7957469129038994 4.061717928361924 0 0 0 0 32.209130137648572 16.777661346895911 0 16.777661346895911 -21.883477815965193 0 0 0 0 34.804647985451197 27.2168523722587 0 27.2168523722587 -21.22261625327701 0 0 0 0 9.5257739519242932 22.319426845862836 0 22.319426845862836 8.9574347375437355 0 0 0 0 7.9922556808587615 18.077957532742857 0 18.077957532742857 -1.9027407285539084 0 0 0 0 16.461773172459289 20.440335598070305 0 20.440335598070305 -1.4034336658919528 0 0 0 0 20.589618105832415 10.611007882777812 0 10.611007882777812 -17.571449049193689 0 0 0 0 -0.90990237079904546 6.7508644626573187 0 6.7508644626573187 -5.5100709771086258 0 0 0 0 -31.298329757301872 9.175318897858233 0 9.175318897858233 23.78184926794529 0 0 0 0 45.218032245576069 22.008459178054181 0 22.008459178054181 -14.709792415374068 0 0 0 0 -0.016097595618114857 0.32894528760350283 0 0.32894528760350283 -0.076128616379271818 0 0 0 0 40.155738994121748 68.037594627917088 0 68.037594627917088 -49.75009451636106 0 0 0 0 1.1768587973910449 0.8561508871855672 0 0.8561508871855672 -8.2271740130001021 0 0 0 0 17.648351296246801 19.80691350779307 0 19.80691350779307 -4.5445044674443125 0 0 0 0 37.341127851352439 80.812438336658261 0 80.812438336658261 -104.14150402395899 0 0 0 0 1.1070889430810888 2.065295060319599 0 2.065295060319599 -0.17725068494864615 0 0 0 0 -32.728128554383147 131.60422105743419 0 131.60422105743419 197.36388794583036 0 0 0 0 43.724221527460031 -47.738568947169369 0 -47.738568947169369 47.16807834190422 0 0 0 0 -20.91085207037213 -42.886316294812787 0 -42.886316294812787 -39.628964993102727 0 0 0 0 11.746123081146379 1.9810145729447868 0 1.9810145729447868 17.542029996197016 0 0 0 0 433.6205655349313 -43.134556766350215 0 -43.134556766350215 -518.05001542128593 0 0 0 0 2.6725918284742569 2.2065276270954115 0 2.2065276270954115 0.68163568387224949 0 0 0 0 8.9115081475674742 20.513195034765886 0 20.513195034765886 -18.119712377167104 0 0 0 0 -10.961858218296584 -0.13432437537812802 0 -0.13432437537812802 68.229696101754598 0 0 0 0 31.649489849369274 109.44348948176412 0 109.44348948176412 40.929624743012027 0 0 0 0 -28.433371856475787 12.604028251143973 0 12.604028251143973 -9.4279888640649006 0 0 0 0 1.1093860322398541 1.437823712430145 0 1.437823712430145 10.366280595123726 0 0 0 0 15.449521680542603 25.905525475093782 0 25.905525475093782 -16.380788805297925 0 0 0 0 2.9241941104859634 7.6074844313596461 0 7.6074844313596461 0.81770332100191112 0 0 0 0 2.764574570322111 0.8634762964870788 0 0.8634762964870788 2.6279463447751823 0 0 0 0 69.524141648554405 -1.8380490508054663 0 -1.8380490508054663 40.086409656320029 0 0 0 0 65.83297641506033 31.941358689781737 0 31.941358689781737 9.0409238245904362 0 0 0 0 0.2738721839902567 -0.05357554888979621 0 -0.05357554888979621 -0.14199656783977321 0 0 0 0 63.979137617332981 -54.855305216315628 0 -54.855305216315628 43.263961185071821 0 0 0 0 89.775823051318184 -32.366329268302707 0 -32.366329268302707 21.764457207211308 0 0 0 0 2.496480018834502 3.4145556036831848 0 3.4145556036831848 -4.3811956012735394 0 0 0 0 3.672119079865297 4.1600370254700465 0 4.1600370254700465 1.2016486506254296 0 0 0 0 1.9455646783211553 3.2106268848398321 0 3.2106268848398321 -2.345617631637225 0 0 0 0 -27.774178634186683 -133.09338827958527 0 -133.09338827958527 -131.67887702471126 0 0 0 0 72.036012812769513 -48.831514133907149 0 -48.831514133907149 28.320890780268201 0 0 0 0 2.1600710669767356 1.5591096819239834 0 1.5591096819239834 -1.4093546184073178 0 0 0 0 -6.5599027338028009 11.129767415842252 0 11.129767415842252 9.2969764664039758 0 0 0 0 0.33167232217488163 7.2715604546240229 0 7.2715604546240229 2.9994572931527728 0 0 0 0 3.6389491092895696 11.703058683175186 0 11.703058683175186 8.7332129746218925 0 0 0 0 2.7947432032647157 -11.754259153301064 0 -11.754259153301064 14.867070352785959 0 0 0 0 1.5941389634493248 0.88557541961858988 0 0.88557541961858988 6.8402126279452204 0 0 0 0 0.7772808943354903 7.0544238591724024 0 7.0544238591724024 5.9097323716587198 0 0 0 0 -9.9896708762717026 4.9600597164599094 0 4.9600597164599094 16.950500534026787 0 0 0 0 -7.9438537847645421 9.6589862552568775 0 9.6589862552568775 13.034857721286699 0 0 0 0 -0.28527394079170421 7.6982655926698165 0 7.6982655926698165 2.2478842314599836 0 0 0 0 -7.4279312719872905 10.819227171535317 0 10.819227171535317 4.5914567547915794 0 0 0 0 -7.7852756447209686 3.1855622249736371 0 3.1855622249736371 8.6518953144550323 0 0 0 0 -12.86570254456592 13.391148862521788 0 13.391148862521788 1.1201444997814178 0 0 0 0 -14.617738387857571 7.1045068897310557 0 7.1045068897310557 2.9853980300565581 0 0 0 0 -6.1752411279132957 -0.49182504456416609 0 -0.49182504456416609 2.4871573652899315 0 0 0 0 -15.319114723974508 7.9261496376875584 0 7.9261496376875584 6.8460642518610939 0 0 0 0 2.8961979644077473 3.9119665068587892 0 3.9119665068587892 2.3690641889620565 0 0 0 0 -16.600579174471932 3.5653068254647451 0 3.5653068254647451 0.91164386155196553 0 0 0 0 -0.1154515277446686 -0.22153937229407661 0 -0.22153937229407661 0.79192474903224408 0 0 0 0 46.305851868827631 22.704562608464812 0 22.704562608464812 21.520996685729187 0 0 0 0 0.29789438274914692 0.5769745588972075 0 0.5769745588972075 1.2281905057881524 0 0 0 0 65.7332320279138 26.041823133277376 0 26.041823133277376 7.5215144328799397 0 0 0 0 4.4696666558689913 6.9111457423230149 0 6.9111457423230149 0.67307482743581204 0 0 0 0 2.7832429490426875 3.53348860100823 0 3.53348860100823 6.6947341922236774 0 0 0 0 0.32796305565685469 0.47836512815216881 0 0.47836512815216881 1.8748675281390064 0 0 0 0 -7.8093423952218473 1.6920192148286333 0 1.6920192148286333 8.4318374626277546 0 0 0 0 38.386703242769045 52.469973363243525 0 52.469973363243525 57.588970966439774 0 0 0 0 138.54485816267959 62.238614481230144 0 62.238614481230144 22.167305635263801 0 0 0 0 0.066791484216651154 0.063963672030119767 0 0.063963672030119767 0.42385511744957682 0 0 0 0 57.179185372840038 66.762231437716764 0 66.762231437716764 61.627610732118228 0 0 0 0 35.839992799182255 39.177946619124214 0 39.177946619124214 44.26537090439615 0 0 0 0 14.313420083227356 47.940835883582622 0 47.940835883582622 48.96926930718746 0 0 0 0 69.638049809097652 40.048813439176683 0 40.048813439176683 30.185997489496003 0 0 0 0 37.783887497190335 55.540990653651534 0 55.540990653651534 43.75745739687045 0 0 0 0 31.98346185475657 38.827938957193737 0 38.827938957193737 52.406028420266011 0 0 0 0 27.676762794299066 24.434453134826981 0 24.434453134826981 24.431149961291339 0 0 0 0 15.334736209711537 62.13003444886499 0 62.13003444886499 53.311370710019219 0 0 0 0 37.029777038242628 61.899961775139673 0 61.899961775139673 38.03457404652454 0 0 0 0 0.26513544288218327 32.750538253694231 0 32.750538253694231 25.471540317548715 0 0 0 0 24.923754440268112 51.964117609285495 0 51.964117609285495 29.659654086001524 0 0 0 0 0.19875376857444316 0.80308753794859911 0 0.80308753794859911 2.4939760370755621 0 0 0 0 -31.936386202516132 18.399371733969019 0 18.399371733969019 -3.2288366381253581 0 0 0 0 -3.3491357456446167 18.353442908281522 0 18.353442908281522 17.960081856914258 0 0 0 0 -63.575216628955786 10.800945203679476 0 10.800945203679476 43.609348129505861 0 0 0 0 133.02032791872489 69.376432679743175 0 69.376432679743175 20.459897889217245 0 0 0 0 25.204705020037636 23.13700700180425 0 23.13700700180425 0.68775626008664403 0 0 0 0 30.12727607734314 105.22586896710391 0 105.22586896710391 86.487042469265361 0 0 0 0 4.6361573039351356 73.895405384858009 0 73.895405384858009 92.111002006190574 0 0 0 0 0.10980317729021372 0.35898490234241009 0 0.35898490234241009 0.97831738174600247 0 0 0 0 -16.909494990338885 30.625711651738584 0 30.625711651738584 109.1666603509766 0 0 0 0 60.782421284794736 17.202527145063414 0 17.202527145063414 -10.246495033637075 0 0 0 0 13.123377584778609 10.003177451136253 0 10.003177451136253 104.57453085445991 0 0 0 0 15.812255880134444 24.123093269747187 0 24.123093269747187 -24.656090717055122 0 0 0 0 -17.387840206877627 -4.2092268897959002 0 -4.2092268897959002 2.9314985897303814 0 0 0 0 -16.81215341348252 15.129386178626191 0 15.129386178626191 40.396277650925185 0 0 0 0 -1.9723617466488577 15.975096583416416 0 15.975096583416416 -48.162949215192839 0 0 0 0 0.39445983533852269 0.58555325495084887 0 0.58555325495084887 -0.45142168869184118 0 0 0 0 -5.7042587781659222 4.5302333346512569 0 4.5302333346512569 -41.683361150931887 0 0 0 0 5.3989367609783585 -3.5877808127861499 0 -3.5877808127861499 -73.868271225060198 0 0 0 0 -0.53154079208224658 0.87266335112984361 0 0.87266335112984361 -0.10466802240690321 0 0 0 0 -56.326053672121816 50.211837179092981 0 50.211837179092981 34.456450423323986 0 0 0 0 -9.9594465698428394 28.044127136814041 0 28.044127136814041 26.552899722186339 0 0 0 0 -1.8689024708464785 51.859829194009762 0 51.859829194009762 -69.144420962783784 0 0 0 0 -1.2572662831371417 38.861313583639003 0 38.861313583639003 22.651959960296153 0 0 0 0 5.8586967487740367 21.540398448680662 0 21.540398448680662 74.700200467414106 0 0 0 0 13.823220936737016 21.459121190797305 0 21.459121190797305 22.066316867599426 0 0 0 0 -15.954334246267081 40.448608990050388 0 40.448608990050388 54.734719797297657 0 0 0 0 21.179842116652651 62.121741423287858 0 62.121741423287858 52.479641640464251 0 0 0 0 -9.8018301154434084 62.427667327163363 0 62.427667327163363 66.129615701495823 0 0 0 0 -50.015602053469593 19.649466927922163 0 19.649466927922163 41.063005554147367 0 0 0 0 -31.852332986636611 17.086120002463531 0 17.086120002463531 -10.457213497649263 0 0 0 0 -36.347057429131382 25.034096713450026 0 25.034096713450026 -13.352016211117302 0 0 0 0 16.791690339239722 69.558975309264952 0 69.558975309264952 53.107669514653253 0 0 0 0 0.7589212604154767 0.49719422320193374 0 0.49719422320193374 0.49085377367028293 0 0 0 0 5.6903365665202728 103.66528251908539 0 103.66528251908539 122.70491828853937 0 0 0 0 -7.7098639889918559 26.952225768226072 0 26.952225768226072 71.944354584584062 0 0 0 0 0.15870652876608204 0.45573911937018963 0 0.45573911937018963 -0.060675986399273185 0 0 0 0 11.905668084466015 2.4881377227227404 0 2.4881377227227404 -37.912465032813543 0 0 0 0 -0.013339867793547455 4.8292778308743891 0 4.8292778308743891 -5.458211157300866 0 0 0 0 -34.183196036858135 -20.032474207690029 0 -20.032474207690029 -16.713608137289611 0 0 0 0 -5.3531440706046851 12.098714225256003 0 12.098714225256003 -8.7669170332492286 0 0 0 0 -3.1391901937824471 2.2964726142667651 0 2.2964726142667651 -0.34330046291060334 0 0 0 0 -5.250380740770197 -7.4995968035373153 0 -7.4995968035373153 -13.286276230557178 0 0 0 0 -6.5222319231615984 9.9387806796739824 0 9.9387806796739824 -5.0906084870148334 0 0 0 0 -1.2031805507085949 2.7646240117447078 0 2.7646240117447078 0.058585703040888948 0 0 0 0 -49.880525596253392 7.7952001333330827 0 7.7952001333330827 6.4800656926827287 0 0 0 0 -4.9385330368905613 1.9840758523459385 0 1.9840758523459385 1.4515814800045916 0 0 0 0 -33.179399493121309 16.614427675035586 0 16.614427675035586 7.3890396903052533 0 0 0 0 -30.898699951221715 11.600912865675355 0 11.600912865675355 -18.65992479892202 0 0 0 0 -31.302852566494039 10.315355376428784 0 10.315355376428784 -20.071753518135893 0 0 0 0 -33.148875395676441 22.054286068452257 0 22.054286068452257 -28.118178377294043 0 0 0 0 -21.248146768011793 17.632318138894107 0 17.632318138894107 -45.613236670160973 0 0 0 0 -42.999406916614134 42.524780239606685 0 42.524780239606685 -50.242562768686639 0 0 0 0 -28.889629668256021 33.346704539795383 0 33.346704539795383 -60.516944117893672 0 0 0 0 -50.373111333938141 33.734236734827846 0 33.734236734827846 -27.26649433268517 0 0 0 0 -55.642248392763577 49.750992247930299 0 49.750992247930299 -18.936027743078853 0 0 0 0 -39.984275495691691 29.708186712968654 0 29.708186712968654 -17.6637779985017 0 0 0 0 -38.677571897311282 31.759795220706565 0 31.759795220706565 -31.402318478619691 0 0 0 0 -36.565676351689035 24.833015601569741 0 24.833015601569741 -12.581449104941157 0 0 0 0 -51.103513718770046 38.992310557676547 0 38.992310557676547 6.39880978114752 0 0 0 0 -46.338268883824639 71.703334022302442 0 71.703334022302442 -13.425951385210055 0 0 0 0 -77.233340648424928 68.404986345902785 0 68.404986345902785 -28.476724556947829 0 0 0 0 -52.649469723449329 47.540994945624334 0 47.540994945624334 -39.617162458208441 0 0 0 0 -86.026766026307087 76.591857785227035 0 76.591857785227035 -41.119813110116752 0 0 0 0 -44.707791643018936 69.894753142040145 0 69.894753142040145 -58.241638001314868 0 0 0 0 -42.847027556539842 81.905907087777564 0 81.905907087777564 -2.8439762565303681 0 0 0 0 -8.3721174555066682 111.82177832252 0 111.82177832252 -50.862654682048287 0 0 0 0 -8.3304513270850293 110.34328612441493 0 110.34328612441493 -31.525051324915239 0 0 0 0 15.143791188227624 144.63867472204959 0 144.63867472204959 11.961999696607791 0 0 0 0 -47.038610479267334 87.232792075679896 0 87.232792075679896 89.313610335973408 0 0 0 0 -0.078375732742642867 112.36355211484602 0 112.36355211484602 110.74693123777274 0 0 0 0 32.143138435330911 93.315432724907623 0 93.315432724907623 8.3658417679978356 0 0 0 0 15.744855147554972 126.00113645858173 0 126.00113645858173 -97.049402932751264 0 0 0 0 0.11664718002793961 141.69920989596818 0 141.69920989596818 -33.187768193441229 0 0 0 0 5.1740667675494478 140.70293389597998 0 140.70293389597998 -43.632535107015542 0 0 0 0 4.5101160252397676 132.12562025862189 0 132.12562025862189 -77.03952319920586 0 0 0 0 24.669227256347313 101.53910084741666 0 101.53910084741666 -53.978444042581714 0 0 0 0 -0.23444473472045502 151.98287093286069 0 151.98287093286069 -104.0172227197443 0 0 0 0 28.649622148657727 107.50757655957329 0 107.50757655957329 -246.74977965942435 0 0 0 0 14.422977078635085 -3.8208679030601047 0 -3.8208679030601047 -62.168265457297366 0 0 0 0 0.024725417071071357 10.68665300309295 0 10.68665300309295 13.96662844914017 0 0 0 0 -10.286453618136875 -76.317982188880194 0 -76.317982188880194 -268.13390243312261 0 0 0 0 -0.61703316527975005 0.57312615176151027 0 0.57312615176151027 -0.86043773212375807 0 0 0 0 2.9932363818861631 45.245359196627476 0 45.245359196627476 -52.375023307761467 0 0 0 0 42.031258847046047 41.472350502552842 0 41.472350502552842 -152.37024876558149 0 0 0 0 42.786760504233825 58.848721286596799 0 58.848721286596799 -51.474685708279026 0 0 0 0 7.0824021372209245 72.916608983864876 0 72.916608983864876 -34.206675054242396 0 0 0 0 -68.804106740087263 81.795502652975699 0 81.795502652975699 -34.617280297375714 0 0 0 0 0.46939841976127639 0.47655673466324799 0 0.47655673466324799 0.03997491065462988 0 0 0 0 33.273209397689243 89.026514382056092 0 89.026514382056092 -89.459932061621885 0 0 0 0 34.928046064631417 134.88291127723596 0 134.88291127723596 -80.351564675592272 0 0 0 0 -6.876026278903737 114.01470947629571 0 114.01470947629571 -49.310212133621917 0 0 0 0 -14.998399440793037 68.569735942352509 0 68.569735942352509 -90.60102441618119 0 0 0 0 -68.830963582466211 70.673681816661428 0 70.673681816661428 -58.449106440240428 0 0 0 0 0.71132064410083018 0.90894039443540109 0 0.90894039443540109 0.4490667907697885 0 0 0 0 -38.612120553210843 50.310821103490525 0 50.310821103490525 -63.003971035017855 0 0 0 0 -42.891967946447949 28.333496913806769 0 28.333496913806769 -30.962090582016344 0 0 0 0 -64.460960896745746 50.354678433782283 0 50.354678433782283 -38.937568234988191 0 0 0 0 -49.8211566391833 52.637191813479689 0 52.637191813479689 -39.51005692342369 0 0 0 0 -41.179298041080983 38.847534286726614 0 38.847534286726614 -46.98336887616415 0 0 0 0 -50.003307181217679 37.50428293093853 0 37.50428293093853 -24.003582838902275 0 0 0 0 -41.679404655489634 44.074741215614893 0 44.074741215614893 -24.110851547717516 0 0 0 0 -24.470883049725671 38.084549983466445 0 38.084549983466445 -26.895054851956729 0 0 0 0 -14.554014991801523 21.047909958921537 0 21.047909958921537 -16.584077159764547 0 0 0 0 -37.359168085362398 25.775705798291938 0 25.775705798291938 -11.977401229679799 0 0 0 0 -6.598525925274771 16.398733613081191 0 16.398733613081191 -15.405625925380491 0 0 0 0 -25.751137621871749 24.292046209275441 0 24.292046209275441 -13.171872962915813 0 0 0 0 -2.3761220391461393 35.720190528292392 0 35.720190528292392 -25.403568300862659 0 0 0 0 9.2989423516937677 21.400562083976865 0 21.400562083976865 32.007512847671933 0 0 0 0 23.734361927035934 11.518961912313216 0 11.518961912313216 -1.8263210133141001 0 0 0 0 2.0312322541223704 2.8450824538986659 0 2.8450824538986659 -2.920326037265129 0 0 0 0 -1.1296658439841849 4.4359125504693964 0 4.4359125504693964 -8.5271268238917628 0 0 0 0 -20.675020447972202 7.7457455705839067 0 7.7457455705839067 -0.98821719924467288 0 0 0 0 -21.847018567124906 19.480728551095467 0 19.480728551095467 -9.0327578981588204 0 0 0 0 1.4836021298555622 1.6604988390522593 0 1.6604988390522593 -6.8365855594044103 0 0 0 0 32.890450776965736 -12.264713141554921 0 -12.264713141554921 32.409718299042197 0 0 0 0 -5.9522636349611275 5.2181427660302688 0 5.2181427660302688 -17.01710237256475 0 0 0 0 127.21638962976613 4.5020920634556205 0 4.5020920634556205 -189.98026365528312 0 0 0 0 -5.7960776625186554 170.03072303724321 0 170.03072303724321 75.555136569277238 0 0 0 0 -36.280984072242063 7.2505659352566454 0 7.2505659352566454 -1.5767127680258 0 0 0 0 -39.920475885925043 34.05155082412216 0 34.05155082412216 -22.533273785105763 0 0 0 0 -23.221905210508339 15.207667168146656 0 15.207667168146656 -18.371989722953913 0 0 0 0 -44.070327396379071 26.153918907767547 0 26.153918907767547 -43.442963167163043 0 0 0 0 -44.491574125670013 36.232428094068382 0 36.232428094068382 -20.517584993138712 0 0 0 0 -22.877160433617973 14.830780888645393 0 14.830780888645393 -34.790877375109403 0 0 0 0 1.0549188449879896 0.60984573806265274 0 0.60984573806265274 -7.6317557984806923 0 0 0 0 -52.835097452902801 15.369441972065005 0 15.369441972065005 -18.046021523858599 0 0 0 0 -89.222263451915069 46.217130892668379 0 46.217130892668379 -18.612942701710381 0 0 0 0 -85.705757851268572 58.562885579643648 0 58.562885579643648 -46.420285010073371 0 0 0 0 -92.450862188442898 79.643682524568447 0 79.643682524568447 -43.926821539837647 0 0 0 0 0.16386076644892356 0.13813658875865187 0 0.13813658875865187 -0.50729461239694018 0 0 0 0 -51.774174665277314 37.749019267556491 0 37.749019267556491 -49.975610874631457 0 0 0 0 -58.602951276659724 55.395477717377403 0 55.395477717377403 -62.737669273231404 0 0 0 0 -56.241071241607642 63.722448871600477 0 63.722448871600477 -59.31727826946755 0 0 0 0 -50.849753797934682 52.229874485267942 0 52.229874485267942 -57.128581783959362 0 0 0 0 -86.998494971859202 102.97416891525531 0 102.97416891525531 -76.859225363743462 0 0 0 0 -95.542037302435347 73.778989391821142 0 73.778989391821142 -43.647683395053718 0 0 0 0 -77.325242219911161 61.801573902092969 0 61.801573902092969 -60.773556761426903 0 0 0 0 0.49182643756845579 0.78383913726232635 0 0.78383913726232635 0.50030293584836727 0 0 0 0 -91.18586625802709 86.614257032532578 0 86.614257032532578 -63.684398037517894 0 0 0 0 -85.956903275082368 67.929720792280932 0 67.929720792280932 -51.827400062451716 0 0 0 0 -79.99803413753034 71.74547379216051 0 71.74547379216051 -51.258650710882193 0 0 0 0 -67.385440703403219 58.038332651763312 0 58.038332651763312 -52.130613470367052 0 0 0 0 -72.27577191335331 54.199961372653547 0 54.199961372653547 -33.465237532087485 0 0 0 0 -45.40041820834449 36.097745232118314 0 36.097745232118314 -44.372699368795111 0 0 0 0 -55.364917815006265 58.537302399515625 0 58.537302399515625 -76.63159424818241 0 0 0 0 -92.892003199664032 94.730095804380881 0 94.730095804380881 -80.516797345605482 0 0 0 0 -63.45831414796703 63.899027084154113 0 63.899027084154113 -49.611055388743864 0 0 0 0 -94.902714055508113 75.988449011421835 0 75.988449011421835 -36.670997060139143 0 0 0 0 -106.53058558212888 65.648416618322017 0 65.648416618322017 -45.78607572555029 0 0 0 0 -82.517612571584323 62.101770561938793 0 62.101770561938793 -74.167722145077278 0 0 0 0 -68.358764378797787 76.456438224122394 0 76.456438224122394 -59.647438682855409 0 0 0 0 -59.523077699297346 27.49203805892077 0 27.49203805892077 -105.42032380856244 0 0 0 0 -131.16247227251733 77.804983718912808 0 77.804983718912808 -52.929232341018633 0 0 0 0 0.096204712530308711 0.17269303803145775 0 0.17269303803145775 -0.20914198453045696 0 0 0 0 -105.2094457846506 55.74576452806059 0 55.74576452806059 -44.779942871917228 0 0 0 0 0.12895141211032524 0.10613378936735884 0 0.10613378936735884 -0.89123414192109074 0 0 0 0 -74.855795205140794 65.799472843376662 0 65.799472843376662 -68.181022377209956 0 0 0 0 -84.73435818238795 60.383244278791054 0 60.383244278791054 -36.40976092902747 0 0 0 0 -75.071382400074071 68.588852790938745 0 68.588852790938745 -42.887491468121937 0 0 0 0 0.17298843250594587 0.44178570638155534 0 0.44178570638155534 0.17832386581784476 0 0 0 0 67.245260535595662 2.4633036783088755 0 2.4633036783088755 18.572778005790042 0 0 0 0 65.539230634838532 -2.1909009604364655 0 -2.1909009604364655 50.701810083954825 0 0 0 0 87.995448384124757 -44.827221741054927 0 -44.827221741054927 47.148788943883346 0 0 0 0 37.464937011878646 -16.981744837126826 0 -16.981744837126826 30.384808655137931 0 0 0 0 82.92925428948638 -10.865201887166961 0 -10.865201887166961 -0.54752820012527081 0 0 0 0 -0.041760688897213072 0.15035231868800025 0 0.15035231868800025 -0.63828915395295027 0 0 0 0 0.21376316133585682 0.25067920836296409 0 0.25067920836296409 -1.9888987251222972 0 0 0 0 -245.61570943573315 121.19940109699485 0 121.19940109699485 -20.960163542044029 0 0 0 0 133.32160612765347 -3.4076710219790129 0 -3.4076710219790129 -61.141636956033835 0 0 0 0 215.12501913742744 -15.10447488704267 0 -15.10447488704267 -110.58664964689706 0 0 0 0 147.64867859364313 -56.64248947369515 0 -56.64248947369515 -10.764843469478365 0 0 0 0 51.157660263732396 7.3863998125627859 0 7.3863998125627859 -35.529558141342932 0 0 0 0 65.369753036276961 -17.24298821006596 0 -17.24298821006596 1.6786246450897124 0 0 0 0 61.985390833608108 1.5384843307265328 0 1.5384843307265328 -37.670896422738224 0 0 0 0 67.714241578363726 42.743161407549451 0 42.743161407549451 -93.146067247383144 0 0 0 0 24.587035710786949 2.569381298163762 0 2.569381298163762 -19.872674273298799 0 0 0 0 11.30553978264652 7.5577926990072228 0 7.5577926990072228 -19.084124707713727 0 0 0 0 21.805803185303375 -4.6920220321590023 0 -4.6920220321590023 9.1032889777616219 0 0 0 0 49.08457553700282 17.159391005937778 0 17.159391005937778 -15.91183769856093 0 0 0 0 18.609254212189626 9.3811502533915245 0 9.3811502533915245 6.4820306527135472 0 0 0 0 18.415830942509274 10.792712545848985 0 10.792712545848985 -3.744099453925628 0 0 0 0 24.248682836054286 22.304792548255136 0 22.304792548255136 7.7140632517039194 0 0 0 0 -0.55692696283222176 9.6596774002027814 0 9.6596774002027814 23.688200456175764 0 0 0 0 2.9452655695176873 22.399814940392105 0 22.399814940392105 19.869653182395268 0 0 0 0 28.419174384896905 1.1449260794261136 0 1.1449260794261136 8.5461527720426602 0 0 0 0 12.843132667493592 -1.5300162799953796 0 -1.5300162799953796 25.018693510389312 0 0 0 0 10.841689880140621 5.0658464994585302 0 5.0658464994585302 11.161303989294083 0 0 0 0 17.04984292615336 12.780943625596137 0 12.780943625596137 23.473714027999677 0 0 0 0 -10.248239191285393 6.2510762938422886 0 6.2510762938422886 18.774918465413975 0 0 0 0 9.8592677592150721 5.2167515829694366 0 5.2167515829694366 17.301383730025918 0 0 0 0 6.9644968233551481 15.306776873488161 0 15.306776873488161 -1.9515686637359977 0 0 0 0 -10.864821703216876 17.459000347345864 0 17.459000347345864 18.195125759143593 0 0 0 0 -5.7916957794259361 21.625490374216781 0 21.625490374216781 3.7194284074812458 0 0 0 0 -10.895534329207294 16.369468508852833 0 16.369468508852833 -49.491345976411139 0 0 0 0 -29.003869771851896 23.006214418130185 0 23.006214418130185 3.7415672741578803 0 0 0 0 -16.127546989428083 30.694601616377895 0 30.694601616377895 -42.23027119713106 0 0 0 0 -15.821537169395924 -2.6665082891447582 0 -2.6665082891447582 -14.02505438791195 0 0 0 0 6.0246249107949552 6.9665584850515643 0 6.9665584850515643 -59.307426038848462 0 0 0 0 -1.8681612303043948 14.728947418310327 0 14.728947418310327 -5.184848666558679 0 0 0 0 40.408034137959476 -19.551211027327781 0 -19.551211027327781 -22.9623406203782 0 0 0 0 54.007667997600947 -6.3092332148157766 0 -6.3092332148157766 -7.0858629521577541 0 0 0 0 5.8444433996188536 -0.30091841643100281 0 -0.30091841643100281 23.953726669033131 0 0 0 0 28.40341919995808 -16.090525258794628 0 -16.090525258794628 21.655144045261295 0 0 0 0 122.97216316888444 -31.296425283441522 0 -31.296425283441522 3.0518265370269546 0 0 0 0 0.70187246645135382 0.50311599709696608 0 0.50311599709696608 -5.4664681877961963 0 0 0 0 55.39780637077456 -38.636185927269217 0 -38.636185927269217 27.125794911818048 0 0 0 0 107.98909620934319 1.1536450575147228 0 1.1536450575147228 -26.048557792489191 0 0 0 0 49.626534520728455 0.47072629525018783 0 0.47072629525018783 19.66485922850984 0 0 0 0 146.46792968450791 -87.693174971643771 0 -87.693174971643771 -0.41059327691255021 0 0 0 0 42.691050476572855 -30.80657010479581 0 -30.80657010479581 -12.024967086225843 0 0 0 0 -3.2666316945505969 52.35571399039236 0 52.35571399039236 -41.332736854179302 0 0 0 0 -23.209865595657902 -11.110647439571039 0 -11.110647439571039 149.33614226736518 0 0 0 0 17.539797761870432 31.242600021170801 0 31.242600021170801 -49.209767595779795 0 0 0 0 -1.5183721339017211 10.394258551766598 0 10.394258551766598 -71.008092694177321 0 0 0 0 -0.13587924517878491 50.194761261014378 0 50.194761261014378 -109.33047689743398 0 0 0 0 22.615715810299662 66.259929081026257 0 66.259929081026257 -217.66432547924524 0 0 0 0 -14.380056941707153 -39.333233746523547 0 -39.333233746523547 83.475625218078449 0 0 0 0 0.010397338426876956 0.15591870276870878 0 0.15591870276870878 -0.038576613651997604 0 0 0 0 4.8198570535168983 45.236435006350121 0 45.236435006350121 -68.446076724420891 0 0 0 0 -13.825614147495799 92.043250972041733 0 92.043250972041733 -109.12944451357043 0 0 0 0 11.516788684517451 70.745214001590739 0 70.745214001590739 -18.823850932710229 0 0 0 0 -17.672793803218156 50.040804199503782 0 50.040804199503782 67.469687352885558 0 0 0 0 -1.5134887990717871 -0.054605227550476254 0 -0.054605227550476254 -0.10042708229292385 0 0 0 0 45.735597888364282 8.818592043308854 0 8.818592043308854 -260.48739362134211 0 0 0 0 25.101215216322089 -8.5536213785005657 0 -8.5536213785005657 -10.786815076136008 0 0 0 0 44.197114083111956 159.47738333798952 0 159.47738333798952 -117.00573631990665 0 0 0 0 -20.130591814235231 25.414293870896017 0 25.414293870896017 -63.26664426913112 0 0 0 0 13.676771867755633 16.11020274693044 0 16.11020274693044 30.59875974382021 0 0 0 0 0.66760074647390866 6.1286270689740832 0 6.1286270689740832 24.721393731992521 0 0 0 0 -2.7727875359302416 3.5923654312283393 0 3.5923654312283393 3.315303102317475 0 0 0 0 -2.0417225925737057 18.152689024074277 0 18.152689024074277 9.9611074218432805 0 0 0 0 22.158300864804914 17.421013982181194 0 17.421013982181194 -50.275705215105518 0 0 0 0 3.6944956898660166 20.484957343805718 0 20.484957343805718 -9.815495306120738 0 0 0 0 8.3418430284050835 10.551833301099352 0 10.551833301099352 10.472660657836112 0 0 0 0 -12.032115772209636 26.717534885689048 0 26.717534885689048 17.177115234902431 0 0 0 0 4.8508591945264925 3.3403735415120082 0 3.3403735415120082 -19.826987067873688 0 0 0 0 11.58268219097863 12.168867862615457 0 12.168867862615457 -6.4174595901870362 0 0 0 0 -14.945467920599185 17.142981325742767 0 17.142981325742767 27.570940138781936 0 0 0 0 5.1639949725146828 8.7293165479846753 0 8.7293165479846753 7.3456660260138245 0 0 0 0 4.8418658075761414 17.44815326774642 0 17.44815326774642 7.153934651730566 0 0 0 0 8.3602154923755734 12.466943725751548 0 12.466943725751548 -2.104439467184875 0 0 0 0 -0.68279700569837587 9.9193491681334081 0 9.9193491681334081 8.954640437148953 0 0 0 0 -0.027829273334610605 7.968594658403811 0 7.968594658403811 1.8928937190349377 0 0 0 0 3.0360841598781008 16.793243829401874 0 16.793243829401874 3.5108869782388865 0 0 0 0 -9.3601730528389453 15.012035524463045 0 15.012035524463045 11.990105164710371 0 0 0 0 5.6171757870721919 9.3363331756031016 0 9.3363331756031016 7.9789936295440897 0 0 0 0 51.516353430543859 19.656584963096634 0 19.656584963096634 -1.9454420865738484 0 0 0 0 3.0041552805405445 2.6675421204365701 0 2.6675421204365701 14.340692807868095 0 0 0 0 1.5741846560431512 2.1208360320066166 0 2.1208360320066166 -2.7925095182090329 0 0 0 0 59.016982092609396 16.447287906988038 0 16.447287906988038 -7.7358307569588476 0 0 0 0 5.8301825065682351 5.6993746258169722 0 5.6993746258169722 -6.1676572748579019 0 0 0 0 6.6428791011331398 7.8704263571844137 0 7.8704263571844137 0.4555749401400333 0 0 0 0 -3.6533217055402929 7.7996403791298121 0 7.7996403791298121 16.735860306112258 0 0 0 0 5.8229342191037148 2.8789816114528861 0 2.8789816114528861 -1.5484849145775819 0 0 0 0 -0.096160145719970558 1.2776737183735865 0 1.2776737183735865 0.38750682601306763 0 0 0 0 -4.8537060618054966 8.5666151896671181 0 8.5666151896671181 16.946026905921826 0 0 0 0 -12.024211800962803 49.569727660112221 0 49.569727660112221 -123.44379295546742 0 0 0 0 -6.0602759427501951 17.628339131299924 0 17.628339131299924 11.402298579765556 0 0 0 0 -7.6520016584327095 10.998880145627709 0 10.998880145627709 11.915542679264945 0 0 0 0 0.30091198305002109 2.8374460445462057 0 2.8374460445462057 2.188728229068559 0 0 0 0 16.842339260954759 52.075410904371893 0 52.075410904371893 -29.632116814797882 0 0 0 0 -18.294025760715158 17.94473021558224 0 17.94473021558224 -130.57930867848154 0 0 0 0 -24.130033980165535 47.109334786270551 0 47.109334786270551 -113.26143583124394 0 0 0 0 -1.6671353702477063 33.202093481774682 0 33.202093481774682 -109.95489389966428 0 0 0 0 -7.4552557510614861 46.914346880185349 0 46.914346880185349 -120.55441271897871 0 0 0 0 -22.479803596332204 38.339696298081435 0 38.339696298081435 -60.881454186691371 0 0 0 0 1.3502684977083845 -23.465367469286548 0 -23.465367469286548 -89.171984639552647 0 0 0 0 0.98415759327670571 -0.033619221281512068 0 -0.033619221281512068 -1.2390280234252522 0 0 0 0 -27.120149609443615 72.998930268534878 0 72.998930268534878 -153.88255985842534 0 0 0 0 -15.885988067173457 46.061670204080656 0 46.061670204080656 -117.74551463567423 0 0 0 0 -7.3470161248660588 15.558318568095274 0 15.558318568095274 -144.23328151418264 0 0 0 0 -13.818139376115141 4.6111912276296607 0 4.6111912276296607 -78.558285052434258 0 0 0 0 -41.284898369378425 6.8041755268136512 0 6.8041755268136512 -45.399944150663032 0 0 0 0 1.8836373386511696 28.915803537287957 0 28.915803537287957 -125.74848215798011 0 0 0 0 13.753223602161967 1.7192848696315508 0 1.7192848696315508 -72.432399887638894 0 0 0 0 9.2981901573689427 3.6095903369997187 0 3.6095903369997187 0.9920458281629525 0 0 0 0 50.800601801685843 26.655826505568712 0 26.655826505568712 -127.88482042825251 0 0 0 0 14.291612316837927 32.976246371648585 0 32.976246371648585 -57.589433177228784 0 0 0 0 -13.608181621297263 3.9099893386465965 0 3.9099893386465965 -1.3286297872263972 0 0 0 0 7.398755780495776 6.3968394511839506 0 6.3968394511839506 -7.6094521239492678 0 0 0 0 6.6466099580931299 6.7649548059496443 0 6.7649548059496443 -1.3510490697963857 0 0 0 0 7.9426869736616936 7.7024507071625976 0 7.7024507071625976 -10.555875094999919 0 0 0 0 6.1095194839581382 5.6598504096632496 0 5.6598504096632496 -6.2079471611257304 0 0 0 0 6.5523627687396484 3.80926901926345 0 3.80926901926345 0.96274003501119321 0 0 0 0 -20.150765224265342 0.916523841785434 0 0.916523841785434 12.613110864278724 0 0 0 0 18.632924335730422 30.507265956596257 0 30.507265956596257 4.342176257189891 0 0 0 0 15.23459702591208 33.165270561713101 0 33.165270561713101 6.2700613978726665 0 0 0 0 -3.9522527152585099 2.808943199582302 0 2.808943199582302 -28.752647787430647 0 0 0 0 -38.53566751868857 -5.4912413066146541 0 -5.4912413066146541 -4.8412474212782399 0 0 0 0 18.552164319024996 25.366953379573175 0 25.366953379573175 -40.982926809316382 0 0 0 0 32.523862686568464 5.3383914244215021 0 5.3383914244215021 -40.17053063523818 0 0 0 0 0.97910006805725303 0.31191262996298086 0 0.31191262996298086 -1.228400585940578 0 0 0 0 10.467105429659568 46.137636357911106 0 46.137636357911106 -20.380819285264721 0 0 0 0 4.202559113986716 10.357402026619928 0 10.357402026619928 -7.20377453682321 0 0 0 0 -25.457326587431453 -5.5005854070926716 0 -5.5005854070926716 29.178511361357891 0 0 0 0 4.2756894359586113 17.888572393370623 0 17.888572393370623 8.0360198313810542 0 0 0 0 6.018934394584285 10.208604529726387 0 10.208604529726387 -5.9532123571608864 0 0 0 0 1.6220617334963663 21.962993832140967 0 21.962993832140967 5.4737362784444485 0 0 0 0 22.511967367896432 13.805244657512048 0 13.805244657512048 -31.686612245483502 0 0 0 0 -4.1160823382888339 11.707658805154324 0 11.707658805154324 36.158759302480121 0 0 0 0 23.353287730100419 -22.88990623563484 0 -22.88990623563484 -6.4851390974597507 0 0 0 0 -2.1474521670534159 88.084971821409908 0 88.084971821409908 -24.764525259173752 0 0 0 0 -0.47188768112755497 25.164292221374353 0 25.164292221374353 39.088569500289509 0 0 0 0 0.68460539765731454 3.3966272759415403 0 3.3966272759415403 3.9114223683124307 0 0 0 0 16.366346833503485 -9.0695350001008137 0 -9.0695350001008137 16.816840722528184 0 0 0 0 9.6743722142314255 7.4100588593586076 0 7.4100588593586076 -12.544389809481434 0 0 0 0 21.080261726370736 9.5112790310646904 0 9.5112790310646904 -15.796177436039994 0 0 0 0 36.339077399499274 -5.897588213074485 0 -5.897588213074485 -25.947841963477003 0 0 0 0 21.916440277568199 14.265959066320434 0 14.265959066320434 -26.633991834237349 0 0 0 0 -0.26984264145192327 1.5769854000637693 0 1.5769854000637693 -1.9652594924287183 0 0 0 0 -20.086027107457994 30.555703793432031 0 30.555703793432031 -20.624691366461676 0 0 0 0 5.0857108562316373 5.4751891622940452 0 5.4751891622940452 -8.1258413242308603 0 0 0 0 7.6633268362365925 10.279061646578498 0 10.279061646578498 -12.055292277940225 0 0 0 0 7.0269720412334316 7.8940432822736923 0 7.8940432822736923 -2.6646092613431862 0 0 0 0 7.3890027100514999 8.1891836055447129 0 8.1891836055447129 -5.6812492262345131 0 0 0 0 10.463846479052549 7.1269317547958826 0 7.1269317547958826 -0.96063537366132046 0 0 0 0 6.9391101397195598 48.387698593597634 0 48.387698593597634 -53.031939445721264 0 0 0 0 -12.419629175045884 39.523249030346847 0 39.523249030346847 -3.4547251969697754 0 0 0 0 -21.674278727292403 22.641483877153632 0 22.641483877153632 -3.8101379633230863 0 0 0 0 -17.988646542607967 26.269037929760543 0 26.269037929760543 -0.67689052566765895 0 0 0 0 -20.286305908894064 24.175754889788777 0 24.175754889788777 78.676320323761956 0 0 0 0 0.66757147950552564 0.39535955527679434 0 0.39535955527679434 0.52606086796251361 0 0 0 0 82.902136210102981 30.127257506950201 0 30.127257506950201 -26.545703512459113 0 0 0 0 64.922440811264096 83.016686412491026 0 83.016686412491026 -4.5405552551942492 0 0 0 0 -7.2916396271002668 34.562509848771242 0 34.562509848771242 -33.05778316206306 0 0 0 0 65.132993799346877 -6.5014495919351702 0 -6.5014495919351702 -34.1531586500505 0 0 0 0 -22.215289537638455 36.39156931553498 0 36.39156931553498 -9.8048215792687188 0 0 0 0 5.0594852074809751 20.09953728315395 0 20.09953728315395 -0.10497205183128244 0 0 0 0 -4.2839236224008346 42.112710675618928 0 42.112710675618928 32.336961600329232 0 0 0 0 5.4168353948437584 35.745073502000352 0 35.745073502000352 82.214529886997298 0 0 0 0 71.751281379940338 85.831481482443451 0 85.831481482443451 25.646249031318803 0 0 0 0 54.303746134790345 43.907672821333563 0 43.907672821333563 -12.649859283270416 0 0 0 0 32.870652135476121 50.214281013449408 0 50.214281013449408 -3.3647060528223847 0 0 0 0 31.857903338719098 47.237680008578934 0 47.237680008578934 9.4683129373834163 0 0 0 0 26.954789789806455 36.9928871628058 0 36.9928871628058 -1.694283044443182 0 0 0 0 39.245278595180935 37.350382417989294 0 37.350382417989294 -5.6019756116666031 0 0 0 0 48.288978235563263 39.736396763460107 0 39.736396763460107 -5.3868959779915713 0 0 0 0 9.1431495226715924 38.643549271941538 0 38.643549271941538 1.0779089650952756 0 0 0 0 38.37880472076904 33.671169283984113 0 33.671169283984113 -14.651729792822152 0 0 0 0 -16.72488317310254 16.217114138009276 0 16.217114138009276 -11.550163256800813 0 0 0 0 -1.5605894909331255 17.718115020718187 0 17.718115020718187 -7.2402276023940431 0 0 0 0 -1.9393685651430133 -8.1459761373425863 0 -8.1459761373425863 36.773951475075592 0 0 0 0 -23.515926314013768 23.078180621063666 0 23.078180621063666 17.304739210545449 0 0 0 0 -3.5068412520347962 5.1245491118115112 0 5.1245491118115112 -1.0342477621907982 0 0 0 0 -22.184753328679335 17.272372820508821 0 17.272372820508821 8.0521789302911202 0 0 0 0 -17.747002181022253 28.172721210466761 0 28.172721210466761 -7.4142965930036553 0 0 0 0 21.423134836149984 7.6762300403747759 0 7.6762300403747759 -23.559645060563753 0 0 0 0 -0.093958985156774533 0.60275419234155869 0 0.60275419234155869 -2.5246893355943598 0 0 0 0 -254.90957729341153 114.73828285941772 0 114.73828285941772 27.783485858217318 0 0 0 0 112.6786538997394 21.916194065765922 0 21.916194065765922 -25.879078395915712 0 0 0 0 -15.46227706184186 233.62466214131814 0 233.62466214131814 -56.281078419891855 0 0 0 0 -64.434079053366077 68.156684511306594 0 68.156684511306594 -30.086778707779104 0 0 0 0 2.0225750584709203 -25.31193086254325 0 -25.31193086254325 73.855244776490508 0 0 0 0 -42.683813900890527 24.433347142341518 0 24.433347142341518 -25.003416849390192 0 0 0 0 0.96943037285922173 0.63194143565912952 0 0.63194143565912952 0.38838936421475978 0 0 0 0 46.62698891231048 43.800881263788142 0 43.800881263788142 66.663405208841141 0 0 0 0 1.3527861739828495 1.1588168307700926 0 1.1588168307700926 26.647368191877831 0 0 0 0 5.781852643507591 28.93459048636123 0 28.93459048636123 11.618914032782413 0 0 0 0 -71.914786970926798 -49.954875443771925 0 -49.954875443771925 16.700093967896009 0 0 0 0 77.679531595618755 -76.826552057877052 0 -76.826552057877052 -73.618610288707714 0 0 0 0 -16.439307650921613 14.747418917010583 0 14.747418917010583 -13.232060387346007 0 0 0 0 -40.441740389465735 118.43463447147133 0 118.43463447147133 -20.210479347967521 0 0 0 0 37.430907815540195 42.84508311557147 0 42.84508311557147 1.7019511621882657 0 0 0 0 65.661400463257451 69.82346992514158 0 69.82346992514158 39.489722655040623 0 0 0 0 38.654999943579469 34.721062387971472 0 34.721062387971472 1.4408999953411694 0 0 0 0 -15.994326021583355 13.98143296347062 0 13.98143296347062 -11.904282634435157 0 0 0 0 14.297204331225316 9.1283136643429543 0 9.1283136643429543 -6.8162074197280162 0 0 0 0 154.89034285387606 134.68746713185556 0 134.68746713185556 25.731065554418819 0 0 0 0 13.413557277846849 17.311306312028137 0 17.311306312028137 6.821267891644311 0 0 0 0 68.95691577814614 40.086960474778607 0 40.086960474778607 -8.8271396921954874 0 0 0 0 30.222602768542401 8.6138732861156768 0 8.6138732861156768 -8.5619580340371613 0 0 0 0 34.085516145667043 17.044909237518368 0 17.044909237518368 9.8073029784954997 0 0 0 0 75.047658046575634 1.9624089985627506 0 1.9624089985627506 -4.2890244895561409 0 0 0 0 -6.6098739481512894 24.389928276920728 0 24.389928276920728 -0.54034941235840961 0 0 0 0 21.866037346491794 23.716165619680396 0 23.716165619680396 -8.7975658862014825 0 0 0 0 -5.2186124702175221 13.593970921759137 0 13.593970921759137 -6.9716713428242656 0 0 0 0 0.42238634089153493 26.239151130156642 0 26.239151130156642 -9.4929201590225603 0 0 0 0 16.923419578449284 18.623407291059721 0 18.623407291059721 -14.299447857054474 0 0 0 0 44.309656100610482 6.9685817346592103 0 6.9685817346592103 -10.23312892559079 0 0 0 0 21.636173406199305 26.744357212457544 0 26.744357212457544 -1.6298025969074388 0 0 0 0 -0.10560401584232382 0.93398844531210123 0 0.93398844531210123 -7.426183554494898 0 0 0 0 66.188592547728149 20.467100173490053 0 20.467100173490053 -13.553744850973089 0 0 0 0 -45.412780070329973 34.226817207607382 0 34.226817207607382 -22.717021958438636 0 0 0 0 -128.57677698810676 38.740215191151037 0 38.740215191151037 -19.112682946351924 0 0 0 0 -71.490395694196195 53.96166803230517 0 53.96166803230517 -32.815401487272538 0 0 0 0 -45.352817069912817 21.488458170833837 0 21.488458170833837 -53.89964523997196 0 0 0 0 -17.025786349388 2.3390130298639633 0 2.3390130298639633 -14.056752466516855 0 0 0 0 -40.255611971128019 39.996882007339991 0 39.996882007339991 -29.731778874019255 0 0 0 0 0.68173685339993362 2.9722062440699961 0 2.9722062440699961 -11.832495000127388 0 0 0 0 4.3378316133466797 8.900604711093365 0 8.900604711093365 -18.681638920485966 0 0 0 0 24.783919862015779 8.2848540476432504 0 8.2848540476432504 -22.679569397190789 0 0 0 0 -17.04271037906301 14.551411402055237 0 14.551411402055237 -10.384847147776782 0 0 0 0 11.343521947241243 36.876593789605067 0 36.876593789605067 59.128047150574275 0 0 0 0 1.4947947737533518 2.156104865048114 0 2.156104865048114 -0.71454331552886075 0 0 0 0 0.87640602729607053 44.002792515785586 0 44.002792515785586 54.29510349737393 0 0 0 0 33.588678562225141 40.304933629267907 0 40.304933629267907 43.416585122133256 0 0 0 0 -0.25901018846455548 2.6519198402798523 0 2.6519198402798523 5.1358871574446141 0 0 0 0 -27.106249963256175 32.674147345093672 0 32.674147345093672 14.965163128137647 0 0 0 0 9.4349820592815377 5.6127194163909735 0 5.6127194163909735 2.7409102230958524 0 0 0 0 0.067999229578816767 13.993604722378247 0 13.993604722378247 2.1938405020592118 0 0 0 0 0.075042099729052014 -0.51640438739716643 0 -0.51640438739716643 1.8721816710319388 0 0 0 0 15.105274251781339 52.275648479312622 0 52.275648479312622 35.743960889066329 0 0 0 0 157.29826729988508 132.90029704711105 0 132.90029704711105 77.471573778610036 0 0 0 0 -47.643903333109847 -32.881504807318379 0 -32.881504807318379 90.336392357467048 0 0 0 0 17.665222184354207 5.6188064887146538 0 5.6188064887146538 2.265272921333235 0 0 0 0 17.339087241049128 5.3172971779367799 0 5.3172971779367799 2.0939134161390029 0 0 0 0 -11.64981448659637 17.574515327385598 0 17.574515327385598 72.391176721606826 0 0 0 0 0.82632569283123303 13.575397290880574 0 13.575397290880574 -24.467485723522259 0 0 0 0 2.5308516002660326 2.0157767664550192 0 2.0157767664550192 53.429044532002081 0 0 0 0 7.0520053886557434 39.175719083261356 0 39.175719083261356 9.3037151336484385 0 0 0 0 21.909436377425436 18.498371745495319 0 18.498371745495319 -6.5230893876796472 0 0 0 0 -3.6027654179677668 7.5514143019096975 0 7.5514143019096975 -7.000105559917678 0 0 0 0 15.401203325938695 19.808931223749823 0 19.808931223749823 -5.9781218653752148 0 0 0 0 9.3574557427010916 8.4371280440082064 0 8.4371280440082064 -3.1630826567536516 0 0 0 0 21.977027659227133 6.6281860157596384 0 6.6281860157596384 -10.241900631488534 0 0 0 0 16.278111817310673 0.58482390057906741 0 0.58482390057906741 -16.098222881828406 0 0 0 0 7.0491832949464879 11.833648022779016 0 11.833648022779016 -4.447338678593951 0 0 0 0 23.390839926915305 10.800383266840754 0 10.800383266840754 -4.4494814965000842 0 0 0 0 -1.4696866419244543 16.639890137081238 0 16.639890137081238 -2.7427117094739515 0 0 0 0 8.50026251747137 7.8014878693810061 0 7.8014878693810061 1.1855282674500756 0 0 0 0 7.1500842961402213 15.08750064021757 0 15.08750064021757 -19.614411371909227 0 0 0 0 7.7994801699653635 20.206143547636771 0 20.206143547636771 -8.6566070761364244 0 0 0 0 15.837518011376233 17.464105420052874 0 17.464105420052874 -22.236944289854364 0 0 0 0 16.706427003619865 20.988227051363538 0 20.988227051363538 -11.436438075250408 0 0 0 0 16.488657856909413 16.454271289139797 0 16.454271289139797 -24.138685892037302 0 0 0 0 16.340966269281125 23.77711331559567 0 23.77711331559567 -11.952576542918905 0 0 0 0 17.337136807034767 13.884137634857325 0 13.884137634857325 -3.4252179277655159 0 0 0 0 -4.8691115820784034 28.8483797081999 0 28.8483797081999 -6.0177817549865722 0 0 0 0 6.0748825246446359 22.961861092583604 0 22.961861092583604 -6.9935294000933936 0 0 0 0 6.7465126590996078 23.777389432881137 0 23.777389432881137 -9.44028454254385 0 0 0 0 21.710515550018499 25.018842288749738 0 25.018842288749738 -12.62428855273356 0 0 0 0 4.7817588746529509 29.303193042990642 0 29.303193042990642 -7.6286789849955312 0 0 0 0 0.91427785109044635 23.541021351906238 0 23.541021351906238 -12.120238552615774 0 0 0 0 -11.056730191176939 16.407761409368049 0 16.407761409368049 -1.8040185704539908 0 0 0 0 0.26916689465542731 21.54180079683556 0 21.54180079683556 -8.3103429174038865 0 0 0 0 -3.4968875924920049 6.7100827357532999 0 6.7100827357532999 -2.3309847129392018 0 0 0 0 12.64700760805863 30.673330039184748 0 30.673330039184748 -20.811389286058329 0 0 0 0 1.1293841312517543 7.3582298118517429 0 7.3582298118517429 -1.2937611496754471 0 0 0 0 -0.47382855081443154 6.5005571799216568 0 6.5005571799216568 -0.20807824204245051 0 0 0 0 -3.451231069449932 19.227633180254543 0 19.227633180254543 -3.0684379956437624 0 0 0 0 2.2395473448345609 5.969491634971078 0 5.969491634971078 1.2448803611510257 0 0 0 0 1.6553775155259025 1.6888844479965037 0 1.6888844479965037 -1.3860196711359123 0 0 0 0 6.2320071045805889 1.9174659509435514 0 1.9174659509435514 -7.6815127716472489 0 0 0 0 -6.2274764479188889 10.592644985102197 0 10.592644985102197 11.7592401523234 0 0 0 0 -5.9149380609887885 7.7095596530307375 0 7.7095596530307375 6.9217175510802917 0 0 0 0 -38.233299375489878 2.6086293981043127 0 2.6086293981043127 6.9308599641404918 0 0 0 0 -20.624900967769918 32.864534810234545 0 32.864534810234545 4.149803661111946 0 0 0 0 1.9111993321839691 -0.76411463971453486 0 -0.76411463971453486 -31.141543401690797 0 0 0 0 7.1243460396817682 12.658826281001893 0 12.658826281001893 1.8927952585327148 0 0 0 0 -142.4497665068011 230.78834406681904 0 230.78834406681904 -227.9281450501021 0 0 0 0 -452.63218500720359 32.410392581694396 0 32.410392581694396 33.422444212963569 0 0 0 0 -1.5565728496642279 1.8465047663180769 0 1.8465047663180769 -2.5390066162457323 0 0 0 0 39.851963993895879 41.711536144106958 0 41.711536144106958 -264.74711135704638 0 0 0 0 -4.8349899689474114 -3.7198002670420465 0 -3.7198002670420465 -36.609429630827435 0 0 0 0 8.7512210831368975 34.448345329186623 0 34.448345329186623 1.9878562836038327 0 0 0 0 -3.7444087547175826 5.9357049384785201 0 5.9357049384785201 -6.1785942029046339 0 0 0 0 -106.17854009623443 62.873014338585335 0 62.873014338585335 -37.708267477212758 0 0 0 0 -126.06350965564161 60.476289195381469 0 60.476289195381469 35.540832252348821 0 0 0 0 -117.1022651755784 82.109184429970355 0 82.109184429970355 11.099752187321428 0 0 0 0 -103.28364843248437 90.906534660019133 0 90.906534660019133 -22.490811747453336 0 0 0 0 -14.35927483881278 9.3936791589399036 0 9.3936791589399036 49.661444145623364 0 0 0 0 -0.22228780057810127 0.4580670114715204 0 0.4580670114715204 -1.4108814806967929 0 0 0 0 14.03298388566327 34.652659563407724 0 34.652659563407724 -42.436399265207001 0 0 0 0 -39.451750275683935 13.198160876809141 0 13.198160876809141 11.451534547845768 0 0 0 0 -20.174509409096572 14.556515138567192 0 14.556515138567192 106.23102491019119 0 0 0 0 -71.474402413243297 9.2764264055383592 0 9.2764264055383592 208.63267112800668 0 0 0 0 -20.088399525397108 56.913408476326367 0 56.913408476326367 305.19245939440589 0 0 0 0 9.7150186816379573 80.049893492424417 0 80.049893492424417 83.19241901597502 0 0 0 0 0.51945222705506922 0.15690769250344605 0 0.15690769250344605 -0.75835235378268351 0 0 0 0 28.826665931213483 20.570888491820938 0 20.570888491820938 49.81247858034294 0 0 0 0 10.375915938137041 -3.9045848097371163 0 -3.9045848097371163 -15.512793376906302 0 0 0 0 3.1505715661263345 8.518854433148352 0 8.518854433148352 -8.3830144952038701 0 0 0 0 10.487111816775723 15.857333018507688 0 15.857333018507688 -34.240554969061122 0 0 0 0 -13.924487117645185 36.903370288340739 0 36.903370288340739 -22.242382655149413 0 0 0 0 5.0114562838504231 -0.48288020327229653 0 -0.48288020327229653 -2.2973247432032267 0 0 0 0 -49.968239614396225 19.433177711064673 0 19.433177711064673 -1.1426125768286965 0 0 0 0 -31.646845358984592 19.380646298317288 0 19.380646298317288 -2.3016306871577399 0 0 0 0 -3.5314574866542898 16.728758882763486 0 16.728758882763486 -31.436044246122037 0 0 0 0 -24.250197167624719 7.7385281821188983 0 7.7385281821188983 -13.686155258152212 0 0 0 0 -164.88914610317079 262.17971512429403 0 262.17971512429403 151.68533055740136 0 0 0 0 -21.719018550549663 18.561425124945345 0 18.561425124945345 -2.2382478645868105 0 0 0 0 -13.113128998072085 12.775203183211424 0 12.775203183211424 -10.095300576075857 0 0 0 0 -8.7330637344275601 19.105262093843976 0 19.105262093843976 -5.3599410752176482 0 0 0 0 -18.496281552761502 12.835205488119755 0 12.835205488119755 0.26680218994806637 0 0 0 0 123.80904416179692 136.51687759481729 0 136.51687759481729 69.148578673961993 0 0 0 0 78.971323573683549 -86.355457571130273 0 -86.355457571130273 385.32846549634269 0 0 0 0 -1.2885290662389437 3.114557308654291 0 3.114557308654291 -1.1056894121458232 0 0 0 0 -3.792500066532412 0.50199951288325995 0 0.50199951288325995 0.047943638293812985 0 0 0 0 166.14238439987275 11.487428872058899 0 11.487428872058899 268.14216007638333 0 0 0 0 -23.464037121932051 172.64755281032103 0 172.64755281032103 -195.8455607367714 0 0 0 0 19.221100351667701 131.92367412947669 0 131.92367412947669 -239.32276573017367 0 0 0 0 -130.81981992463625 169.72391939262616 0 169.72391939262616 -69.054293299857704 0 0 0 0 15.952342663644231 -69.912570848079213 0 -69.912570848079213 72.631897843730485 0 0 0 0 34.807668402841955 19.721387379120188 0 19.721387379120188 -45.949833060852143 0 0 0 0 -164.1743379131085 64.274624083407616 0 64.274624083407616 45.233956305897664 0 0 0 0 191.11542508740604 31.536802390322919 0 31.536802390322919 -46.297629092980969 0 0 0 0 35.066855004290119 23.035457129818496 0 23.035457129818496 -5.2842326623867848 0 0 0 0 91.280195498753528 20.928940326478823 0 20.928940326478823 -37.168339826752344 0 0 0 0 25.743748403921927 13.49299844545385 0 13.49299844545385 -13.694252289191809 0 0 0 0 -9.2588554568137624 91.798981782956389 0 91.798981782956389 -104.04123041058665 0 0 0 0 -47.685299928345557 49.163463549619564 0 49.163463549619564 -30.631895878155774 0 0 0 0 4.8015268857816409 59.226990482074143 0 59.226990482074143 -88.658986131781262 0 0 0 0 29.310971309312663 17.529908104248022 0 17.529908104248022 -48.3758034411876 0 0 0 0 25.792264939729648 49.322528357508418 0 49.322528357508418 -81.472771207853839 0 0 0 0 28.945074171830129 43.861493868286288 0 43.861493868286288 -86.672517525887088 0 0 0 0 65.525055209243874 71.989130963729622 0 71.989130963729622 -160.64719975302251 0 0 0 0 53.846158543514321 70.95852636116706 0 70.95852636116706 -140.11895127874232 0 0 0 0 27.035698339052033 105.02676937648948 0 105.02676937648948 -139.43548589020884 0 0 0 0 17.721440723675187 109.74089988245305 0 109.74089988245305 -139.42293915967502 0 0 0 0 -54.81949750885542 145.8576189292171 0 145.8576189292171 -115.23397655778942 0 0 0 0 -56.980579916984425 153.25375285802056 0 153.25375285802056 -140.48266197137082 0 0 0 0 49.049061452205933 143.80886273562783 0 143.80886273562783 -177.07011627099018 0 0 0 0 -34.938691910021589 227.44501449620384 0 227.44501449620384 -250.23087556355131 0 0 0 0 -177.98164196815924 195.84289852759321 0 195.84289852759321 -114.20241341773854 0 0 0 0 170.87832317890934 85.021538815607528 0 85.021538815607528 -204.56357397349348 0 0 0 0 122.00050863881188 133.21165614312122 0 133.21165614312122 -249.88274743822362 0 0 0 0 111.83687530585303 28.580897614900096 0 28.580897614900096 -121.78763963211532 0 0 0 0 -122.41051630589573 159.20103573540882 0 159.20103573540882 -169.91779932735335 0 0 0 0 -42.451279937806248 98.745295418816568 0 98.745295418816568 -298.21320201257731 0 0 0 0 -45.630396140366429 114.21140297822967 0 114.21140297822967 -175.05857474897493 0 0 0 0 12.231976908849902 146.40417913844249 0 146.40417913844249 -238.85757645348258 0 0 0 0 46.794573490768016 66.938736181850118 0 66.938736181850118 -156.36470516023473 0 0 0 0 -27.595674474272528 33.999283448958522 0 33.999283448958522 -247.90557290340621 0 0 0 0 1.5503614220942836 38.246840861495002 0 38.246840861495002 -253.85055587287434 0 0 0 0 -147.86952619596195 12.459868286457549 0 12.459868286457549 -177.00356686030227 0 0 0 0 -46.648820955357223 -33.790721573366682 0 -33.790721573366682 16.342365124257753 0 0 0 0 -42.667226939932334 109.52798318193106 0 109.52798318193106 -99.013187045517043 0 0 0 0 -59.559058889662992 128.94148474631538 0 128.94148474631538 218.71870812927841 0 0 0 0 -10.430248415855729 1.1836028219995427 0 1.1836028219995427 0.3641427081758763 0 0 0 0 -10.034999511446586 110.6153494696664 0 110.6153494696664 -36.503885075857397 0 0 0 0 -7.7718489762246463 134.95185233753841 0 134.95185233753841 -135.99606037919784 0 0 0 0 -15.971769219795533 126.8876337338379 0 126.8876337338379 -125.33573674196577 0 0 0 0 27.345582914320403 -2.0048556826577624 0 -2.0048556826577624 -77.818658730385323 0 0 0 0 14.937275006002892 88.031709055438569 0 88.031709055438569 -169.95108839747445 0 0 0 0 -352.57063227133858 -154.66153314891994 0 -154.66153314891994 366.924984845361 0 0 0 0 -10.735336156986783 0.20139102207416038 0 0.20139102207416038 0.41994571014548654 0 0 0 0 313.71266001256663 34.52377163700362 0 34.52377163700362 -295.67999884055462 0 0 0 0 185.51516550277302 236.08325392580355 0 236.08325392580355 -81.166301408257823 0 0 0 0 19.513391915963439 58.375015874853943 0 58.375015874853943 -88.985236229066032 0 0 0 0 -5.7361433891564957 -136.65624025703801 0 -136.65624025703801 -267.79876138954961 0 0 0 0 -74.527389644521463 15.059171543492084 0 15.059171543492084 -108.58667446646291 0 0 0 0 76.61362908027877 59.669209347271931 0 59.669209347271931 -165.34438321850575 0 0 0 0 2.2546303847630043 33.583710315897406 0 33.583710315897406 -173.83911844297654 0 0 0 0 -146.21759531668704 122.75903480260189 0 122.75903480260189 -159.17380211131967 0 0 0 0 -83.726746916016054 7.4829384179708995 0 7.4829384179708995 -105.62671350657047 0 0 0 0 -286.66871151553278 -13.127996842829816 0 -13.127996842829816 -107.71546525566055 0 0 0 0 -166.81923707326132 48.425096914271762 0 48.425096914271762 -73.860937552923957 0 0 0 0 -32.616034241438683 51.896629205170257 0 51.896629205170257 -98.003861090638964 0 0 0 0 -72.332660413288068 97.844393841261308 0 97.844393841261308 -150.89783337153676 0 0 0 0 -104.95763607178378 -90.247921105226396 0 -90.247921105226396 146.20023387054425 0 0 0 0 -13.559173848510426 -2.8158532885722565 0 -2.8158532885722565 -0.65400018569033502 0 0 0 0 -38.161431170663491 28.784229151808745 0 28.784229151808745 -51.027237157922173 0 0 0 0 -30.486061072433586 29.051638354952274 0 29.051638354952274 -63.396808119783714 0 0 0 0 38.329256157983764 -58.942475653625479 0 -58.942475653625479 111.24016269003687 0 0 0 0 -4.1078962657040421 -0.73468232095281039 0 -0.73468232095281039 0.053081328668945327 0 0 0 0 -55.352755127229102 -92.7395667533292 0 -92.7395667533292 103.73462820719215 0 0 0 0 -4.4201432964007026 -1.2716176051790136 0 -1.2716176051790136 -0.38628895294703947 0 0 0 0 80.520986714736864 19.097292184851995 0 19.097292184851995 111.7349353156535 0 0 0 0 -6.0449548683843659 48.307247862834629 0 48.307247862834629 8.1925541332648208 0 0 0 0 -7.4928047863577376 58.553946998643369 0 58.553946998643369 -44.791146488382765 0 0 0 0 -60.029178766884797 135.92992824158227 0 135.92992824158227 -139.32180119504073 0 0 0 0 -34.592286251220685 90.22154138148062 0 90.22154138148062 -27.556946963198243 0 0 0 0 5.1773535659649497 66.121425120710683 0 66.121425120710683 -13.092466091391543 0 0 0 0 -76.496298858751288 62.733491796660928 0 62.733491796660928 9.1028591635758858 0 0 0 0 3.6986736853050388 77.130255173784917 0 77.130255173784917 -56.94608559691369 0 0 0 0 0.90346403819603438 99.939119581696559 0 99.939119581696559 -14.610860466928898 0 0 0 0 -14.179774288199042 142.50882536225663 0 142.50882536225663 -85.810373095519026 0 0 0 0 -120.7288548793349 113.32488405927643 0 113.32488405927643 41.086914584882095 0 0 0 0 -39.002895994892242 71.794029763455001 0 71.794029763455001 103.69153298097748 0 0 0 0 -5.2463168994818261 77.007549188877874 0 77.007549188877874 39.801611396444969 0 0 0 0 -5.0998408380437468 -13.355934240154056 0 -13.355934240154056 68.101799014865719 0 0 0 0 -109.93015835547158 23.556810295495325 0 23.556810295495325 67.554723416404556 0 0 0 0 -31.646236626356654 58.066825202843376 0 58.066825202843376 -105.77825034679881 0 0 0 0 -247.7536041873891 161.59635379965584 0 161.59635379965584 -24.327765516677118 0 0 0 0 47.957002887869749 83.454820015549103 0 83.454820015549103 -107.79476530404918 0 0 0 0 152.63983845788653 6.7816132779653913 0 6.7816132779653913 -52.081288702497659 0 0 0 0 43.843133164486062 35.713337784851774 0 35.713337784851774 26.30191269668785 0 0 0 0 -0.29311009804219657 1.5147166626364346 0 1.5147166626364346 -1.6058593875260172 0 0 0 0 -139.34101575169461 78.579556797805253 0 78.579556797805253 11.540345749410335 0 0 0 0 50.538299434488181 145.9982269885063 0 145.9982269885063 -38.64860514747761 0 0 0 0 124.83715071884581 39.414717535572436 0 39.414717535572436 -23.418614397167403 0 0 0 0 -0.22591115289825892 2.4300523523751494 0 2.4300523523751494 -4.4084415269937303 0 0 0 0 59.229010286258017 4.5552036515491636 0 4.5552036515491636 -4.4541979197174442 0 0 0 0 -49.721078034765014 42.926910766936089 0 42.926910766936089 64.813101172413553 0 0 0 0 9.431463421567674 9.7917446058019983 0 9.7917446058019983 -5.91410608969829 0 0 0 0 -51.529710092241658 45.450732036497357 0 45.450732036497357 2.5079584800546399 0 0 0 0 -56.887776389808096 69.464192976650793 0 69.464192976650793 -31.959045100007188 0 0 0 0 2.8236038867980824 23.926407575065241 0 23.926407575065241 -35.99777461037138 0 0 0 0 10.539717742487483 43.210205081190452 0 43.210205081190452 4.4853502595769896 0 0 0 0 37.183641208124754 5.2335724622876114 0 5.2335724622876114 -11.429233924187201 0 0 0 0 -28.540660906155608 38.481009132553936 0 38.481009132553936 -7.7470988174973172 0 0 0 0 -37.85686506901493 15.000133468599188 0 15.000133468599188 -65.307202945305107 0 0 0 0 -0.84087607850324275 44.305546510564 0 44.305546510564 13.631226952357792 0 0 0 0 -53.667425166577686 44.975946922631465 0 44.975946922631465 15.878696855701492 0 0 0 0 -20.032730823335442 2.4417140066489083 0 2.4417140066489083 -14.555345833074853 0 0 0 0 -0.061456778598767414 24.652779676436694 0 24.652779676436694 3.5199126715269813 0 0 0 0 -5.3017420319119992 21.544343045218739 0 21.544343045218739 4.7056012724231095 0 0 0 0 57.493718660715103 33.284049134302848 0 33.284049134302848 -36.522855384833747 0 0 0 0 -17.292686089578638 32.442475267319651 0 32.442475267319651 13.566459615080021 0 0 0 0 -28.022062968224418 56.880957166007192 0 56.880957166007192 -1.1139696275758979 0 0 0 0 -10.097120226105289 31.746928097810269 0 31.746928097810269 22.343536182710523 0 0 0 0 0.46332444989339017 0.785349797812529 0 0.785349797812529 -0.11067575510108796 0 0 0 0 -21.190100131405416 17.896021839123705 0 17.896021839123705 16.21739522955977 0 0 0 0 33.402843176627357 14.394450847226381 0 14.394450847226381 5.647441876517405 0 0 0 0 -159.44414155047252 75.047331346781164 0 75.047331346781164 27.171159064614585 0 0 0 0 9.0947091180717194 10.059804328719508 0 10.059804328719508 -3.5424026292710202 0 0 0 0 -21.700247110775308 30.688580924152348 0 30.688580924152348 -12.122641484062797 0 0 0 0 -35.096066743605661 29.618211337970479 0 29.618211337970479 -5.3113139135157326 0 0 0 0 -12.919984689176999 25.835565548190061 0 25.835565548190061 -14.384900711250793 0 0 0 0 -89.449515563845125 133.16024174287486 0 133.16024174287486 24.441413170961823 0 0 0 0 -145.10256710691147 33.983018156645358 0 33.983018156645358 -109.36367477953536 0 0 0 0 9.4022651663160843 10.230296362183285 0 10.230296362183285 -4.1833109179963515 0 0 0 0 -117.91811416027849 14.679673075866049 0 14.679673075866049 6.6578650767469298 0 0 0 0 -17.614767167575337 28.561994448800306 0 28.561994448800306 -10.402300143742195 0 0 0 0 -24.364847136184835 14.326289572966289 0 14.326289572966289 -2.0652405868047481 0 0 0 0 -34.16094346992486 27.061415580055154 0 27.061415580055154 -5.2761951205138757 0 0 0 0 -2.8450484503664484 -4.9456895159064516 0 -4.9456895159064516 25.49097879383396 0 0 0 0 -12.090879154744471 31.605889890407525 0 31.605889890407525 17.666997623996735 0 0 0 0 -16.560641958005363 20.744104236411658 0 20.744104236411658 4.654759759508579 0 0 0 0 0.02177454984121141 32.657379548591507 0 32.657379548591507 0.029765289510578441 0 0 0 0 -5.4087334907644617 25.213139939618259 0 25.213139939618259 -9.8414227319271959 0 0 0 0 -8.3869705503748264 31.183564622859876 0 31.183564622859876 -9.4289376398269269 0 0 0 0 -0.011122687417810084 27.821653575575965 0 27.821653575575965 -16.078811995167598 0 0 0 0 -7.7393709930056502 25.013326180031981 0 25.013326180031981 -15.882430457021655 0 0 0 0 -0.0035535012139007449 21.457584740239554 0 21.457584740239554 -15.628315407339869 0 0 0 0 -7.7497046696735197 19.183286206145112 0 19.183286206145112 -11.507711759044923 0 0 0 0 8.9837867679411882 9.4778168600963824 0 9.4778168600963824 -3.8257856574813456 0 0 0 0 -11.534521961642895 23.584472041073241 0 23.584472041073241 -12.500563675887634 0 0 0 0 -8.8160541268912311 22.258783348323163 0 22.258783348323163 -13.732695137703558 0 0 0 0 -86.710209144524924 61.055536702020618 0 61.055536702020618 -78.469227087336549 0 0 0 0 0.87731084157824135 1.5101906602885471 0 1.5101906602885471 0.7220571806113405 0 0 0 0 33.521948871810764 -59.53519578180294 0 -59.53519578180294 34.133194312410524 0 0 0 0 -17.622368394822843 20.8280509933129 0 20.8280509933129 13.202057297271949 0 0 0 0 -100.71899416134079 -58.002552713771706 0 -58.002552713771706 90.853794967646536 0 0 0 0 -70.723573776069315 41.389271801556788 0 41.389271801556788 20.431594897787363 0 0 0 0 -48.286464946806518 11.342061154276962 0 11.342061154276962 46.455360263313196 0 0 0 0 -220.94604432991946 72.737324093414827 0 72.737324093414827 50.025802519684248 0 0 0 0 -138.99358732000564 -138.71208468452551 0 -138.71208468452551 -160.29340842811143 0 0 0 0 -111.97576027176774 40.36041372153386 0 40.36041372153386 17.694276127359899 0 0 0 0 -54.972848348460502 51.242942088613063 0 51.242942088613063 -26.801125025702277 0 0 0 0 2.2180796778009988 2.9235357223762133 0 2.9235357223762133 2.9582315272146502 0 0 0 0 134.19159574954347 -67.735541321771052 0 -67.735541321771052 -170.0266865913718 0 0 0 0 24.569469918402319 58.586879373362081 0 58.586879373362081 44.442890248156118 0 0 0 0 20.424923404903893 49.748015052253209 0 49.748015052253209 32.743015316852734 0 0 0 0 11.684441626523039 31.253976887011959 0 31.253976887011959 44.936108736746974 0 0 0 0 -270.72869595073189 36.728701591488971 0 36.728701591488971 92.483575139228378 0 0 0 0 37.732348111841929 -49.711259946986047 0 -49.711259946986047 101.72184268436968 0 0 0 0 3.1947654731138755 100.25873643504838 0 100.25873643504838 -268.04378798125435 0 0 0 0 -21.924799374281321 -3.6151463612858121 0 -3.6151463612858121 0.75897721785099836 0 0 0 0 -32.127651746997799 13.172148360785059 0 13.172148360785059 -14.670596379628478 0 0 0 0 -73.658242753572267 51.276290152518072 0 51.276290152518072 105.2933907043207 0 0 0 0 -49.551419357740997 25.468397447130656 0 25.468397447130656 -0.73689299332818337 0 0 0 0 7.1035386998526455 9.1154149188008802 0 9.1154149188008802 -4.8728362938508063 0 0 0 0 -2.7990535218138959 5.9613427585687315 0 5.9613427585687315 7.2014499865216894 0 0 0 0 -20.280968602440851 2.7587800146361463 0 2.7587800146361463 3.755482914490579 0 0 0 0 -6.82688638726313 15.738001733426358 0 15.738001733426358 -8.9161246305475288 0 0 0 0 -0.0075285815219103824 13.848213414850306 0 13.848213414850306 -11.51445673389253 0 0 0 0 -4.3407007888163207 11.600504687495686 0 11.600504687495686 -11.223306466660233 0 0 0 0 -4.358667139946192 12.454035438230221 0 12.454035438230221 -8.9303891920183105 0 0 0 0 -2.9647878127925651 16.771745280586174 0 16.771745280586174 -10.89341984711109 0 0 0 0 -44.459305633395161 0.13154227829068077 0 0.13154227829068077 -3.7242460277848295 0 0 0 0 -6.1270374242461116 57.250588345751375 0 57.250588345751375 -49.745169741550853 0 0 0 0 23.910735729992666 9.4238450466873473 0 9.4238450466873473 -135.17911847062533 0 0 0 0 -13.26781985834532 65.387691970451669 0 65.387691970451669 -115.86599625499821 0 0 0 0 -6.8745409292514523 0.56401531219580647 0 0.56401531219580647 -20.202991100278268 0 0 0 0 25.550944489627 39.454905013267307 0 39.454905013267307 -2.6053409629989801 0 0 0 0 -2.1629920186715026 11.921878165506314 0 11.921878165506314 27.421563794820031 0 0 0 0 0.93374774204494315 12.659091422431629 0 12.659091422431629 75.130669141332874 0 0 0 0 0.28533805777442467 51.209712830574063 0 51.209712830574063 15.327239287689736 0 0 0 0 22.857675739967817 70.829237749095 0 70.829237749095 25.086741786097264 0 0 0 0 17.079334535759699 50.937662344320415 0 50.937662344320415 42.076597844873959 0 0 0 0 -5.5055318001577689 23.062167038004191 0 23.062167038004191 26.325645516324585 0 0 0 0 -24.441546051461046 34.371545269002581 0 34.371545269002581 26.469411395451971 0 0 0 0 1.7568238519970691 -2.9102705808172686 0 -2.9102705808172686 -65.039387215918396 0 0 0 0 -21.383155361778336 -76.240788422566766 0 -76.240788422566766 -194.27891190006994 0 0 0 0 -15.485165137975855 13.975894674515075 0 13.975894674515075 -74.322921320222122 0 0 0 0 -0.71674719077782356 41.146019219991103 0 41.146019219991103 -4.5128812565253611 0 0 0 0 0.98604551446260302 6.24533756152141 0 6.24533756152141 -50.894926406543163 0 0 0 0 14.949445268157433 -8.8799941022225539 0 -8.8799941022225539 -157.87991536761729 0 0 0 0 11.14363102822972 25.883494699001858 0 25.883494699001858 -70.056991784535057 0 0 0 0 -1.8229449929976909 39.779817381069734 0 39.779817381069734 -144.5075568927914 0 0 0 0 24.283934141367354 20.534139564135785 0 20.534139564135785 -164.31034064200048 0 0 0 0 7.493792520614079 29.029723456806096 0 29.029723456806096 -157.77777231324643 0 0 0 0 -121.87100135974833 88.430448243536375 0 88.430448243536375 -200.83245963908121 0 0 0 0 -59.927097292869803 -131.44154982721921 0 -131.44154982721921 -185.8912081437411 0 0 0 0 15.045777921078525 142.76057331336813 0 142.76057331336813 -246.00217036157846 0 0 0 0 -4.6212926955631701 182.61403885698383 0 182.61403885698383 -637.35804893047498 0 0 0 0 -39.40268163534347 158.91548678625622 0 158.91548678625622 -646.88096079826937 0 0 0 0 -0.21265467453798692 0.012546447744345102 0 0.012546447744345102 0.027795377604018512 0 0 0 0 -0.024248548129396141 0.027432651978394063 0 0.027432651978394063 -0.25053375526016097 0 0 0 0 17.907059202614619 19.95579829318649 0 19.95579829318649 -210.80589782343304 0 0 0 0 -64.483297262879205 56.441587316970981 0 56.441587316970981 -218.95290287744501 0 0 0 0 -0.97556019442319553 0.36451515846626137 0 0.36451515846626137 -0.39150307031917109 0 0 0 0 -21.509313880083937 68.893473027104847 0 68.893473027104847 -183.07067727283174 0 0 0 0 -78.164602098106116 31.442854667713618 0 31.442854667713618 -11.947701869098637 0 0 0 0 -0.38699740562788065 0.15315398650773204 0 0.15315398650773204 -5.0570516063344257 0 0 0 0 -6.5003970104007749 6.6298668555978111 0 6.6298668555978111 1.6331871500306079 0 0 0 0 -1.4268686020541139 2.5458517424995541 0 2.5458517424995541 -1.1613478819608085 0 0 0 0 0.021062978870759252 3.5820958197527943 0 3.5820958197527943 0.41769532391208486 0 0 0 0 -1.5932223753359693 0.86392981528318202 0 0.86392981528318202 -0.25517276738017003 0 0 0 0 1.8168912884975725 1.8111822604309964 0 1.8111822604309964 -1.546329901282661 0 0 0 0 34.135613632300647 -7.8922573507650213 0 -7.8922573507650213 -288.63971298482738 0 0 0 0 6.453012105775997 16.41145477959617 0 16.41145477959617 -137.91780974099493 0 0 0 0 -0.58261801489187803 0.071229578076426492 0 0.071229578076426492 -0.2080206300711076 0 0 0 0 -0.01312091527870507 2.278272456254399 0 2.278272456254399 -176.5213223308092 0 0 0 0 1.2751633954103454 9.8300562627882755 0 9.8300562627882755 10.76973756274856 0 0 0 0 -0.021177115298996796 0.9114582750835325 0 0.9114582750835325 -8.2766594991935563 0 0 0 0 -2.0899398799774644 56.567311491621695 0 56.567311491621695 -164.51755254844988 0 0 0 0 -0.5473278626195679 2.8582424246724258 0 2.8582424246724258 -2.3104213068336321 0 0 0 0 0.15418439537006634 1.6832909093607213 0 1.6832909093607213 -0.8286965650095226 0 0 0 0 0.53321662404778181 0.46411174816284984 0 0.46411174816284984 -1.2244835445762874 0 0 0 0 0.66436755732624064 0.65162033832332966 0 0.65162033832332966 0.55376453103083279 0 0 0 0 0.0048531032516621053 0.35004331861910032 0 0.35004331861910032 -1.4605518226029517 0 0 0 0 -0.016213597316891537 0.96067601924085011 0 0.96067601924085011 0.43078483704994142 0 0 0 0 0.29151305947016226 0.43334658885032695 0 0.43334658885032695 -0.057385158961096749 0 0 0 0 1.0928339161464464 -2.6055623166168971 0 -2.6055623166168971 3.8148821303175282 0 0 0 0 0.56162751520745147 0.50517534301245348 0 0.50517534301245348 0.11199755941478173 0 0 0 0 -12.823180474659239 10.016366166575153 0 10.016366166575153 3.3567901318965596 0 0 0 0 -0.0018866408553611358 0.56705818535916375 0 0.56705818535916375 -0.073400358320213854 0 0 0 0 0.45094282227210059 0.3031288818035307 0 0.3031288818035307 -0.21575695292344577 0 0 0 0 -14.896388597309112 17.177251869992617 0 17.177251869992617 -13.227166486628448 0 0 0 0 -10.69758344195543 13.318133870469865 0 13.318133870469865 -8.2105872561642173 0 0 0 0 -15.373574129002009 7.9226840770656963 0 7.9226840770656963 0.80849907209994853 0 0 0 0 -8.7568423114444158 8.6525258446242788 0 8.6525258446242788 -3.4790771896623482 0 0 0 0 -9.6774190797495976 6.1266760807079663 0 6.1266760807079663 -0.041104712106061925 0 0 0 0 -2.013286148870975 -0.23888265586401758 0 -0.23888265586401758 -0.22481898614182683 0 0 0 0 0.51768638171994752 1.3937653692786327 0 1.3937653692786327 0.45803669343148457 0 0 0 0 -1.2046767267729592 0.50100017920749451 0 0.50100017920749451 1.0726100548017712 0 0 0 0 -5.9249906920722424 4.8563420559926271 0 4.8563420559926271 -3.7333839446559978 0 0 0 0 -11.816709075364088 13.701935414114132 0 13.701935414114132 -6.0627325266941625 0 0 0 0 119.58272434446917 -54.779278516906743 0 -54.779278516906743 -89.93747858496863 0 0 0 0 8.8974474787157263 7.3702719875280849 0 7.3702719875280849 -10.071356130438215 0 0 0 0 -6.2712841616380501 10.88120827169746 0 10.88120827169746 -11.116692874627915 0 0 0 0 -22.279347273177336 17.582520345817102 0 17.582520345817102 -6.8091294367800401 0 0 0 0 9.0696432420115816 8.7735275575231171 0 8.7735275575231171 -8.4231443805461517 0 0 0 0 -0.61922599624676877 101.04565094806753 0 101.04565094806753 -29.419087870588555 0 0 0 0 28.5384326130511 47.893495512212894 0 47.893495512212894 -30.152227911003138 0 0 0 0 12.264599646578809 35.613763462882424 0 35.613763462882424 0.67950860954624659 0 0 0 0 12.281657885551176 36.973117711744493 0 36.973117711744493 -37.149581794277765 0 0 0 0 35.347171167482884 49.26618692134798 0 49.26618692134798 -12.102733495074062 0 0 0 0 298.09823547193901 24.297660274143254 0 24.297660274143254 -186.94909196009849 0 0 0 0 42.514119316066171 49.181152332318106 0 49.181152332318106 -11.83124722587263 0 0 0 0 -0.032551772170374527 2.0110452671211512 0 2.0110452671211512 -4.8605647800489002 0 0 0 0 -0.085410639513546993 0.92016801191048359 0 0.92016801191048359 -2.0916012334104863 0 0 0 0 -77.580844648940001 53.675455695401979 0 53.675455695401979 -0.72676314672531817 0 0 0 0 14.02264129107698 -119.85307282190752 0 -119.85307282190752 -12.769583038432756 0 0 0 0 -4.6074716686143802 55.819891409284537 0 55.819891409284537 -145.88897299662813 0 0 0 0 122.77908225213378 -71.98620091210978 0 -71.98620091210978 -101.83268799452526 0 0 0 0 68.329219863981052 -114.69200831849139 0 -114.69200831849139 -159.65018001559383 0 0 0 0 -91.328355001706768 7.8234548702125721 0 7.8234548702125721 25.869987898746331 0 0 0 0 31.238456305491127 38.178852238432682 0 38.178852238432682 33.358365650332416 0 0 0 0 35.468403099228453 -11.293109836075018 0 -11.293109836075018 77.137696604169832 0 0 0 0 51.135727779997978 -51.802817582407442 0 -51.802817582407442 229.75976827045088 0 0 0 0 17.857880951911284 25.468976516751354 0 25.468976516751354 93.932298584579257 0 0 0 0 1.7006250449850739 3.1896047590676595 0 3.1896047590676595 -2.2377621707316244 0 0 0 0 -31.628262950571298 36.526378243070212 0 36.526378243070212 60.623210072523761 0 0 0 0 24.176082066034269 -17.680121692958664 0 -17.680121692958664 21.257902574556283 0 0 0 0 24.018629603053341 -6.367784289890551 0 -6.367784289890551 -21.109641667258984 0 0 0 0 10.571519787220353 3.1293293107082221 0 3.1293293107082221 -5.2611384028347103 0 0 0 0 29.992782878979597 -8.9176027685434747 0 -8.9176027685434747 -40.858304589353793 0 0 0 0 50.377857167000911 -14.287536002395427 0 -14.287536002395427 -40.067780973862682 0 0 0 0 27.068152328663928 -32.426816247601892 0 -32.426816247601892 -32.738534273335972 0 0 0 0 4.4959585587157562 12.605154985795707 0 12.605154985795707 -60.333579669286337 0 0 0 0 -7.1673181919377384 -13.403266822339901 0 -13.403266822339901 -22.373348041852296 0 0 0 0 0.065398338590352267 -3.2943936891571184 0 -3.2943936891571184 -6.9342834301764071 0 0 0 0 -19.011796856077126 24.932623882439657 0 24.932623882439657 -43.60617814190482 0 0 0 0 75.191918132437422 -1.1749190541449934 0 -1.1749190541449934 -7.1695708997176553 0 0 0 0 47.465680629655253 -42.218177658525747 0 -42.218177658525747 127.3615516837308 0 0 0 0 3.642958966258643 7.3993890219810226 0 7.3993890219810226 -7.0192279950096861 0 0 0 0 0.8967364073948545 1.859618565921739 0 1.859618565921739 -3.2957989324843684 0 0 0 0 -4.7411173799753286 5.1363026255536619 0 5.1363026255536619 -2.3363491739925211 0 0 0 0 2.2481845688198518 5.2179247631065664 0 5.2179247631065664 -9.1786626649723075 0 0 0 0 -17.416914996887499 23.840402855086722 0 23.840402855086722 -29.926261350872664 0 0 0 0 -0.29953864374601835 5.1430592112606064 0 5.1430592112606064 -6.324809998872297 0 0 0 0 -5.0177485976128082 1.0863209966955765 0 1.0863209966955765 0.91685234916621994 0 0 0 0 -0.36959537126566744 1.6699545322418308 0 1.6699545322418308 -0.99681033821492271 0 0 0 0 38.615660918992944 -18.377361438469961 0 -18.377361438469961 -158.0287437465613 0 0 0 0 -2.4630291182229058 1.2540856679350156 0 1.2540856679350156 -156.75480667411466 0 0 0 0 -2.3229372948778888 -20.593592440665255 0 -20.593592440665255 -71.322476888839446 0 0 0 0 -14.864054752757511 60.912395395074782 0 60.912395395074782 -124.73655210560082 0 0 0 0 -9.3554677218717188 46.49818579481439 0 46.49818579481439 -92.278350940927339 0 0 0 0 -43.285334388235242 32.684790006228127 0 32.684790006228127 -33.152326789320796 0 0 0 0 -33.90153782732159 63.867332632533362 0 63.867332632533362 -76.838637230300264 0 0 0 0 -7.9061100311409973 39.640921345730021 0 39.640921345730021 -54.803910497565084 0 0 0 0 220.89325559179451 0.18627742301760009 0 0.18627742301760009 -150.44201901412816 0 0 0 0 0.048583893701944714 0.13717762328568028 0 0.13717762328568028 0.038599722975959594 0 0 0 0 -69.151031036186396 57.229030977676302 0 57.229030977676302 -56.021344089339436 0 0 0 0 -110.91511608234032 122.55844844791773 0 122.55844844791773 -136.59926780606156 0 0 0 0 -19.379638009671908 10.607308799669227 0 10.607308799669227 -28.950669402372341 0 0 0 0 0.74867452763851094 0.96386339912347907 0 0.96386339912347907 0.81755588139854041 0 0 0 0 -36.485082059760316 10.786655603800682 0 10.786655603800682 -19.130865736007763 0 0 0 0 78.960354416263726 43.969984289847162 0 43.969984289847162 26.902947186908932 0 0 0 0 -35.455476020033529 15.185402698243024 0 15.185402698243024 -2.282512340847461 0 0 0 0 2.5610521833814346 37.946906641380906 0 37.946906641380906 -65.182798332982202 0 0 0 0 5.8184837287881237 4.1981424141140451 0 4.1981424141140451 -33.11832863419113 0 0 0 0 -28.576659785572701 32.684255522030071 0 32.684255522030071 -55.577587973715708 0 0 0 0 -22.589533719056817 -3.8438934399337086 0 -3.8438934399337086 -4.9178661877522245 0 0 0 0 -9.6491238150811114 12.03001974966719 0 12.03001974966719 -25.418973330950394 0 0 0 0 -23.336041905931779 -1.7898491281803217 0 -1.7898491281803217 -1.4019480143542751 0 0 0 0 8.8776193909943686 -5.0267021913714416 0 -5.0267021913714416 -13.829590800876758 0 0 0 0 23.25773129677691 6.4125594624510995 0 6.4125594624510995 -20.748486266587861 0 0 0 0 14.330838491516261 -18.044510131887819 0 -18.044510131887819 13.558783022213902 0 0 0 0 12.056301004115085 23.487980472018535 0 23.487980472018535 -45.838845583661623 0 0 0 0 1.0779611509415048 -0.32185925710635832 0 -0.32185925710635832 -0.84238729877628415 0 0 0 0 39.602857636778936 62.64670841516363 0 62.64670841516363 -64.659047060285957 0 0 0 0 32.056626769532159 53.91961513676506 0 53.91961513676506 -70.453890772856539 0 0 0 0 52.290678060860955 2.0919992860217462 0 2.0919992860217462 -42.808616092355805 0 0 0 0 41.265486693142066 43.271350930785047 0 43.271350930785047 -69.307087943918305 0 0 0 0 37.428954164155584 11.528344318983727 0 11.528344318983727 -34.246661826944546 0 0 0 0 7.1588593360465893 35.112130497071121 0 35.112130497071121 -71.847081845809953 0 0 0 0 30.25122010891937 41.935038441367396 0 41.935038441367396 -76.331667060658219 0 0 0 0 -8.575368595233158 53.544662083897492 0 53.544662083897492 -75.990076724563949 0 0 0 0 10.002584176483651 56.277829566057335 0 56.277829566057335 -77.97852773496561 0 0 0 0 -2.6887257831785973 94.90806397979577 0 94.90806397979577 -115.79771293207887 0 0 0 0 2.3336884893396928 73.605121864016837 0 73.605121864016837 -109.25492327356551 0 0 0 0 9.5006011334007781 57.454395563199796 0 57.454395563199796 -67.340667881668196 0 0 0 0 1.3398199505581943 77.14832246588162 0 77.14832246588162 68.785049601272476 0 0 0 0 -6.6048869216747015 10.373599584076903 0 10.373599584076903 -13.391966429470841 0 0 0 0 -103.40117192301841 194.25446835820912 0 194.25446835820912 -103.28419399994527 0 0 0 0 -356.0088271030545 303.56085625630658 0 303.56085625630658 -127.5487073723416 0 0 0 0 25.400458348762186 113.18404276017827 0 113.18404276017827 -228.54130692114268 0 0 0 0 38.176409171246632 -19.285293720900881 0 -19.285293720900881 -37.800781749171165 0 0 0 0 -1.4180774398000047 -1.5165842263749028 0 -1.5165842263749028 -1.5738042858406658 0 0 0 0 -61.408521302626468 167.60962410960565 0 167.60962410960565 -102.02135587975499 0 0 0 0 -155.06157486318079 11.519491389971336 0 11.519491389971336 94.604727245772665 0 0 0 0 171.69060142346098 -73.767852668618616 0 -73.767852668618616 -18.656535913229163 0 0 0 0 -43.561529670321761 -206.30432300248503 0 -206.30432300248503 267.85121077857275 0 0 0 0 62.907072824702482 -54.333206867239824 0 -54.333206867239824 -17.633620920096291 0 0 0 0 -88.771955546147808 133.11808727816725 0 133.11808727816725 -87.081683710079233 0 0 0 0 -87.560850578227019 93.270266670724936 0 93.270266670724936 -69.82083004656306 0 0 0 0 -57.112178487572237 53.145079723791241 0 53.145079723791241 -62.572692688948337 0 0 0 0 -11.333923337748274 61.774413755246428 0 61.774413755246428 -89.381577784875844 0 0 0 0 99.153474805901169 102.92049698647588 0 102.92049698647588 83.050065903582436 0 0 0 0 115.75559414890995 93.428497353550483 0 93.428497353550483 65.946833887661342 0 0 0 0 94.805355895794492 89.984767146343984 0 89.984767146343984 79.481591070310969 0 0 0 0 79.52408396546889 96.196430635456636 0 96.196430635456636 72.512434575011866 0 0 0 0 102.84026519388863 32.422217516559613 0 32.422217516559613 -13.715824301048997 0 0 0 0 -7.6752976922016387 34.185054240253521 0 34.185054240253521 0.4198707360365006 0 0 0 0 -2.5368231136674986 7.0375152143615463 0 7.0375152143615463 -11.632105420701428 0 0 0 0 -1.0598073293833803 1.2644575906750779 0 1.2644575906750779 1.9637394994456088 0 0 0 0 79.601601300062612 6.5727641254270566 0 6.5727641254270566 -27.442877438861615 0 0 0 0 156.4424029460497 -15.391587390671702 0 -15.391587390671702 -31.092309748499247 0 0 0 0 -114.21877877865882 15.474310303781749 0 15.474310303781749 84.445680487198842 0 0 0 0 226.31487418208235 181.36731684660208 0 181.36731684660208 82.082220015607163 0 0 0 0 0.077690552444053651 0.085787388066806969 0 0.085787388066806969 0.26242992648471386 0 0 0 0 46.126854524829469 -8.7508337771919287 0 -8.7508337771919287 6.9353329638761352 0 0 0 0 96.278517934912088 97.712012770103684 0 97.712012770103684 105.03263283005617 0 0 0 0 191.32246355220695 112.35753761601381 0 112.35753761601381 77.311083349548426 0 0 0 0 83.258304769258757 102.81553319779778 0 102.81553319779778 93.057455760452285 0 0 0 0 34.708496429268052 78.151163383932726 0 78.151163383932726 88.431678456690861 0 0 0 0 -0.77500093312352636 1.7702900314688836 0 1.7702900314688836 1.5636838837657336 0 0 0 0 129.90265829998498 90.57398067905342 0 90.57398067905342 52.542098635156435 0 0 0 0 77.64190014017413 95.238063226334816 0 95.238063226334816 84.672136097497059 0 0 0 0 96.837298488358101 90.468446924383898 0 90.468446924383898 85.468192630629346 0 0 0 0 89.363699323908804 104.88724511807959 0 104.88724511807959 67.539500307766502 0 0 0 0 67.06605491796654 94.528231643029358 0 94.528231643029358 80.867025125189684 0 0 0 0 48.099531656098407 105.18008104303772 0 105.18008104303772 77.440926848457821 0 0 0 0 28.209490847368215 57.438300960418019 0 57.438300960418019 45.527612841932751 0 0 0 0 194.13104083080179 93.019748739768602 0 93.019748739768602 37.895368164694446 0 0 0 0 51.737827062979704 159.12124057109668 0 159.12124057109668 76.485760056541039 0 0 0 0 21.366781426197349 104.08759914697794 0 104.08759914697794 -42.436423139984981 0 0 0 0 58.684014765269239 59.007302303050892 0 59.007302303050892 9.6285858938617821 0 0 0 0 72.311497230330588 102.61025970170067 0 102.61025970170067 35.579886150357197 0 0 0 0 39.553900310784229 63.096658706846938 0 63.096658706846938 8.7450364263968368 0 0 0 0 -120.96506772959037 54.629069087472089 0 54.629069087472089 20.125178895641511 0 0 0 0 -106.28578737784392 -99.039183752640383 0 -99.039183752640383 -84.053399276948767 0 0 0 0 0.16884383499301769 0.30796326902785154 0 0.30796326902785154 -2.8803105156311233 0 0 0 0 21.134923134747623 -17.369757563227267 0 -17.369757563227267 -48.968733538578817 0 0 0 0 19.700411261193949 11.577037452698278 0 11.577037452698278 -6.1936875466635684 0 0 0 0 4.7860376833177725 38.545347931534707 0 38.545347931534707 29.330763206893607 0 0 0 0 -0.59857414177509582 3.0197050730122319 0 3.0197050730122319 -6.6422134742343246 0 0 0 0 -35.054902672716707 -28.786357823149956 0 -28.786357823149956 -28.268144347166526 0 0 0 0 51.819107649960642 51.777091191503132 0 51.777091191503132 37.338577453992912 0 0 0 0 103.57693866540103 66.517017827702148 0 66.517017827702148 41.318402544980927 0 0 0 0 1.8426477648567072 -0.0031124168536962316 0 -0.0031124168536962316 -1.9941299681978251 0 0 0 0 69.164806474382203 72.737056922356714 0 72.737056922356714 18.632421229214742 0 0 0 0 54.725904294779411 68.032295694838012 0 68.032295694838012 45.1795238233899 0 0 0 0 69.902978542042547 -4.934195437019298 0 -4.934195437019298 -39.034421117690727 0 0 0 0 34.547379159230331 32.458712034016571 0 32.458712034016571 -2.990544227313876 0 0 0 0 37.464753330719759 -5.7460086698047235 0 -5.7460086698047235 -41.814116193603695 0 0 0 0 -13.808337712624052 11.239996141444408 0 11.239996141444408 -12.236181254167604 0 0 0 0 37.463157184571173 -4.61751736549013 0 -4.61751736549013 -36.044019089524227 0 0 0 0 30.491632910279804 -7.8514417284968658 0 -7.8514417284968658 -38.605356178130933 0 0 0 0 12.774426653009868 -0.4974750528435834 0 -0.4974750528435834 -39.025531292958476 0 0 0 0 1.2985899609929206 6.6787779201851336 0 6.6787779201851336 -5.13461935863271 0 0 0 0 33.011626125948169 86.385576106323242 0 86.385576106323242 15.70461596234054 0 0 0 0 -29.857079116949535 46.073440914117782 0 46.073440914117782 61.81341461359716 0 0 0 0 191.36686076191836 5.0495470192136054 0 5.0495470192136054 -291.18790071851618 0 0 0 0 1.8546729467407204 1.1090330062938847 0 1.1090330062938847 16.665196446230766 0 0 0 0 35.072890308257229 45.487812407024194 0 45.487812407024194 -43.551543620371376 0 0 0 0 -52.699236433580154 55.27340477927919 0 55.27340477927919 -25.603009634906812 0 0 0 0 41.28892720963313 17.75715031575578 0 17.75715031575578 -12.786040011500518 0 0 0 0 -46.71603165351371 -32.03953068453211 0 -32.03953068453211 -34.2745521935949 0 0 0 0 -36.782120056383519 -25.445505463542077 0 -25.445505463542077 -43.34584128761162 0 0 0 0 -93.365836637234679 -56.578126200807674 0 -56.578126200807674 -38.314408167349029 0 0 0 0 -173.58398880912682 128.02861968654088 0 128.02861968654088 -92.414822414889386 0 0 0 0 6.5496124857872928 47.895953536701199 0 47.895953536701199 -56.958003570704022 0 0 0 0 -12.111306120807967 74.675121325252803 0 74.675121325252803 -75.756701827171128 0 0 0 0 -32.593114188793379 116.94234248270101 0 116.94234248270101 -134.09452473844976 0 0 0 0 -262.40096355369133 263.17242989684655 0 263.17242989684655 -216.63489626860678 0 0 0 0 -53.76178737054579 -114.64056748447729 0 -114.64056748447729 -253.16212350261412 0 0 0 0 -369.14773871909529 -23.433268207691981 0 -23.433268207691981 -41.046499972610036 0 0 0 0 18.287684194967369 -2.2299912173220946 0 -2.2299912173220946 -25.200149977627007 0 0 0 0 -52.456626490653434 22.758464234499115 0 22.758464234499115 -13.231271760459094 0 0 0 0 -124.13711755865779 76.367712761781291 0 76.367712761781291 11.404906468196714 0 0 0 0 -20.769695699942531 76.247905560062463 0 76.247905560062463 -171.27407622744795 0 0 0 0 -29.294087549507935 158.23557886469058 0 158.23557886469058 -113.34713716351871 0 0 0 0 -110.70958152979256 222.79434681686234 0 222.79434681686234 -164.1783348824647 0 0 0 0 158.56210652232039 173.20041943767319 0 173.20041943767319 -169.25830028094913 0 0 0 0 -125.72575352510103 435.77170517261402 0 435.77170517261402 -279.79509376241549 0 0 0 0 -364.63251048681286 161.80560219122731 0 161.80560219122731 -13.153740077073962 0 0 0 0 -1.1695486417770304 2.1099602711577976 0 2.1099602711577976 -3.3872753759432399 0 0 0 0 153.80646565634561 225.00138572929518 0 225.00138572929518 -514.91750212833472 0 0 0 0 -741.8485195580397 -144.30722483074351 0 -144.30722483074351 -321.46642365428852 0 0 0 0 490.81215744111068 103.92604298811602 0 103.92604298811602 -512.4496568605482 0 0 0 0 -0.59412828217565306 1.5671394122028417 0 1.5671394122028417 1.0101938366738601 0 0 0 0 50.003992772177298 -2.4715620692950324 0 -2.4715620692950324 2.9480078586784657 0 0 0 0 50.053689923580237 -3.488411646682323 0 -3.488411646682323 20.291318786126794 0 0 0 0 0.89436387504308357 1.6397838424340527 0 1.6397838424340527 -2.3411785934745026 0 0 0 0 17.994625390416331 16.194296755171308 0 16.194296755171308 6.0656000286344351 0 0 0 0 -4.2690102921782156 8.8618661222826649 0 8.8618661222826649 -4.4411431157646444 0 0 0 0 16.675555605455884 40.473140073625473 0 40.473140073625473 3.2175136253117671 0 0 0 0 30.430592010110558 19.060057599137508 0 19.060057599137508 -61.753816176820692 0 0 0 0 -95.015714860885055 37.750218467932427 0 37.750218467932427 140.22341004126793 0 0 0 0 -330.24227520353452 -159.95768304321609 0 -159.95768304321609 86.221681689720754 0 0 0 0 22.993888085956996 102.52798902637301 0 102.52798902637301 -133.70673417896978 0 0 0 0 30.391439230153082 8.9701620228418051 0 8.9701620228418051 -173.81986517396581 0 0 0 0 50.998131133221705 23.417916298567661 0 23.417916298567661 27.120098556464654 0 0 0 0 50.913598947543505 25.592628116744891 0 25.592628116744891 -13.684019878768595 0 0 0 0 28.823569548974774 5.4951380677559882 0 5.4951380677559882 -31.538679106317431 0 0 0 0 34.52066268474664 49.511668254303004 0 49.511668254303004 -5.6067409764691547 0 0 0 0 34.584675238296768 53.416736772072909 0 53.416736772072909 85.247052116923442 0 0 0 0 -6.4431791852912284 19.360862234566412 0 19.360862234566412 56.980171943916503 0 0 0 0 -6.4003014985908067 14.656613330723303 0 14.656613330723303 154.72812892626098 0 0 0 0 -38.724067331713741 53.639061247402424 0 53.639061247402424 127.23967621308748 0 0 0 0 1.1023293484489933 5.7886529843177748 0 5.7886529843177748 2.592271248654761 0 0 0 0 59.085196591689055 188.88075559524168 0 188.88075559524168 -559.22132094713288 0 0 0 0 21.251295975660469 75.838424339086487 0 75.838424339086487 -381.38694220034722 0 0 0 0 -204.95544951661213 235.31018636548106 0 235.31018636548106 -246.25886844536763 0 0 0 0 27.948495754799296 0.57913004001420632 0 0.57913004001420632 66.872643431366669 0 0 0 0 -0.41350610711610614 7.6277568796073929 0 7.6277568796073929 1.2104987397156375 0 0 0 0 2.2267698198543258 195.72662268677311 0 195.72662268677311 -487.98583523761772 0 0 0 0 52.761400192804103 -53.800218425006278 0 -53.800218425006278 -121.77996829146105 0 0 0 0 78.498592267422282 28.788390727489968 0 28.788390727489968 -433.4046702060723 0 0 0 0 36.496751094031424 94.034547775328974 0 94.034547775328974 -374.42493433123946 0 0 0 0 2.606790003263086 15.57855339809521 0 15.57855339809521 -110.25670989880746 0 0 0 0 -16.315535971198187 126.06235112893773 0 126.06235112893773 -114.69005038100295 0 0 0 0 -15.891240624332795 19.661785801716405 0 19.661785801716405 -44.265702266886365 0 0 0 0 3.2304195632368646 83.540378368023084 0 83.540378368023084 -88.681682204149183 0 0 0 0 59.020104461351366 176.65965084411619 0 176.65965084411619 146.00526211906345 0 0 0 0 -44.593936810593732 17.292006724545445 0 17.292006724545445 191.16627790776874 0 0 0 0 49.600473057612817 133.19838055303785 0 133.19838055303785 132.10009195946077 0 0 0 0 -3.5812291985034328 4.9967164250453164 0 4.9967164250453164 -7.0384227881219346 0 0 0 0 48.12961008612001 35.330531051125035 0 35.330531051125035 -18.225222502558154 0 0 0 0 -63.815978613434709 59.250943119211115 0 59.250943119211115 163.50425624524905 0 0 0 0 -16.77880403480367 42.802080058933825 0 42.802080058933825 -2.0202876807543362 0 0 0 0 -48.586451985629083 80.982724131197756 0 80.982724131197756 192.79271092049567 0 0 0 0 113.271320894768 -65.927340107333293 0 -65.927340107333293 25.415444261851007 0 0 0 0 -25.923913886957962 60.41788032135446 0 60.41788032135446 -47.56322148140498 0 0 0 0 98.388493708300302 21.303031904715681 0 21.303031904715681 -251.96966141264693 0 0 0 0 -69.227144484064411 23.149515267642528 0 23.149515267642528 -6.7627888201368478 0 0 0 0 8.3310879527352881 61.986942579889728 0 61.986942579889728 -237.95017010364427 0 0 0 0 -3.2654960804848088 -3.8161960937804906 0 -3.8161960937804906 -293.93808938776056 0 0 0 0 -100.62726003863372 132.08242367180537 0 132.08242367180537 -300.67896349509601 0 0 0 0 -14.650864449860819 -7.8877799273304845 0 -7.8877799273304845 282.54151522193752 0 0 0 0 -62.813691761708469 186.53131257785844 0 186.53131257785844 -471.67863118746027 0 0 0 0 1.3166873111413615 3.8581447615803839 0 3.8581447615803839 1.5474802905586706 0 0 0 0 10.879799669854037 38.671556299903386 0 38.671556299903386 176.64716869358199 0 0 0 0 44.445585035162367 47.049742050647183 0 47.049742050647183 22.35818667215608 0 0 0 0 -30.417913373509919 1.8576526670183284 0 1.8576526670183284 159.84975544647205 0 0 0 0 -18.786616691818153 31.991841051884876 0 31.991841051884876 189.76129727909029 0 0 0 0 -0.31586135541695626 0.56441409603662152 0 0.56441409603662152 0.45197136882338995 0 0 0 0 1.2264170171520163 9.8140483008128285 0 9.8140483008128285 159.73963847442428 0 0 0 0 -68.931850104379919 56.934399151323305 0 56.934399151323305 178.74939556402296 0 0 0 0 -3.5550297721383686 70.939107617067748 0 70.939107617067748 135.08573683228678 0 0 0 0 -93.714683865062398 132.19312347257437 0 132.19312347257437 102.18001852378529 0 0 0 0 -7.7411801156431466 88.797150860589682 0 88.797150860589682 67.414070912182979 0 0 0 0 26.455369425507342 120.34412590473858 0 120.34412590473858 72.653240603794984 0 0 0 0 -0.2504690148129054 0.71904217102203738 0 0.71904217102203738 0.49770787552888862 0 0 0 0 287.48642951708189 263.48469873197337 0 263.48469873197337 86.91754147206359 0 0 0 0 -318.8501969983663 72.477598099272655 0 72.477598099272655 103.44325537998793 0 0 0 0 -129.22945047235146 55.944547869030316 0 55.944547869030316 -7.616173323838666 0 0 0 0 -77.274589796379132 53.620807747600793 0 53.620807747600793 10.251827402349591 0 0 0 0 -106.73934603090811 88.359799585179644 0 88.359799585179644 11.739053555316787 0 0 0 0 -69.153939351340341 55.576204795320336 0 55.576204795320336 -10.673511536403566 0 0 0 0 -113.32251586732991 78.937445987866795 0 78.937445987866795 1.1463036767017911 0 0 0 0 -72.776710084394836 57.153504674085525 0 57.153504674085525 4.3197843806010496 0 0 0 0 -27.056682175405513 30.680190663277244 0 30.680190663277244 5.5082822929334725 0 0 0 0 -76.080631317165626 52.680927157391579 0 52.680927157391579 19.464319015436558 0 0 0 0 -55.108124043843787 33.309120229837589 0 33.309120229837589 10.554459219183627 0 0 0 0 -0.57487641532654266 0.77500678730002548 0 0.77500678730002548 0.65070061135448753 0 0 0 0 -53.460614410397284 53.340192754985765 0 53.340192754985765 -15.258733188691622 0 0 0 0 -107.11093483832519 116.99478726573489 0 116.99478726573489 -83.373590013999092 0 0 0 0 -152.40300558939816 37.49752781438383 0 37.49752781438383 -8.1262653183994189 0 0 0 0 -91.143050785210107 82.602380922674456 0 82.602380922674456 -15.577367125945784 0 0 0 0 -81.236727949985379 60.751608899719486 0 60.751608899719486 21.149429220127786 0 0 0 0 -128.47037940539849 52.841808762821529 0 52.841808762821529 12.648436771683919 0 0 0 0 -140.3064078227178 98.034822374605938 0 98.034822374605938 8.9518682072393858 0 0 0 0 124.37138950468852 90.745918082348908 0 90.745918082348908 12.542038591416713 0 0 0 0 199.67056201619107 62.691140362352598 0 62.691140362352598 -21.590565016662367 0 0 0 0 122.29006234101598 20.834665628791299 0 20.834665628791299 8.9632410635585984 0 0 0 0 -281.75425711168555 73.863036258783723 0 73.863036258783723 29.94576185693677 0 0 0 0 -0.10829917823410451 0.59820865632447351 0 0.59820865632447351 0.18583687545250172 0 0 0 0 -137.09504745518456 46.168350869862138 0 46.168350869862138 4.8452440187393222 0 0 0 0 -0.1649139025835904 1.5303415850728257 0 1.5303415850728257 0.37988153610346131 0 0 0 0 86.717591310877481 37.040181897588184 0 37.040181897588184 13.813899850121743 0 0 0 0 96.218696617251226 35.127124145858033 0 35.127124145858033 8.6717273239664792 0 0 0 0 66.062948834319286 6.910150185243765 0 6.910150185243765 -14.558188421759041 0 0 0 0 -26.168319617861926 38.362516387342112 0 38.362516387342112 -3.390806686095857 0 0 0 0 -103.64790641986383 82.074443999148116 0 82.074443999148116 8.4300572351930896 0 0 0 0 -53.553817453187548 106.80930963236005 0 106.80930963236005 18.884029023317453 0 0 0 0 -84.890563832515909 73.201462919098049 0 73.201462919098049 -4.3772766874517401 0 0 0 0 -77.67447593153247 74.719543837171841 0 74.719543837171841 4.8615793880280762 0 0 0 0 -91.727793401828421 98.057117619704513 0 98.057117619704513 22.691216746326972 0 0 0 0 -105.90800391189532 116.15980497622877 0 116.15980497622877 38.46951985412943 0 0 0 0 -68.527723977167625 87.919029032443177 0 87.919029032443177 15.43355923972922 0 0 0 0 10.416810738395725 94.716883455376774 0 94.716883455376774 13.948221769989686 0 0 0 0 24.807598457518907 105.80144393541559 0 105.80144393541559 23.223713460754652 0 0 0 0 -30.472867210024646 95.41598578776015 0 95.41598578776015 37.238165162474615 0 0 0 0 -30.129185668198755 141.59716006597492 0 141.59716006597492 26.890770767937283 0 0 0 0 -42.914467036451242 64.303730750011709 0 64.303730750011709 69.223296377660517 0 0 0 0 -100.16224728745692 137.61540566980693 0 137.61540566980693 1.5331804274173919 0 0 0 0 33.407335649355446 111.83991747729624 0 111.83991747729624 -3.8162343618241721 0 0 0 0 16.834579245801251 126.71160671320058 0 126.71160671320058 99.999045690370622 0 0 0 0 29.038846588748129 83.326162955760992 0 83.326162955760992 0.037593701814330416 0 0 0 0 -47.249574947779365 81.812130997106578 0 81.812130997106578 55.271577851302027 0 0 0 0 -46.110832032112768 46.428888302970705 0 46.428888302970705 8.9861229230300523 0 0 0 0 1.0626272210166334 0.16542332887694045 0 0.16542332887694045 -0.37148424018110759 0 0 0 0 80.020268521644084 52.277612618465355 0 52.277612618465355 0.091723804684079369 0 0 0 0 91.244853546042577 118.06145811466922 0 118.06145811466922 67.624922069560057 0 0 0 0 71.692001840893681 38.684736787142356 0 38.684736787142356 45.444053111425092 0 0 0 0 55.669285491392657 42.539311943550274 0 42.539311943550274 32.745444693176978 0 0 0 0 0.72859429097607986 0.034313967400519729 0 0.034313967400519729 -0.085711809889843948 0 0 0 0 47.741547242918386 208.84220360809923 0 208.84220360809923 295.10336738190199 0 0 0 0 50.524641142519613 36.984099627152318 0 36.984099627152318 79.461554341170995 0 0 0 0 -21.969781924046401 -0.7869155663811398 0 -0.7869155663811398 59.656976692662283 0 0 0 0 265.09726571391184 162.05494318911769 0 162.05494318911769 72.62617891971604 0 0 0 0 -4.1516870811465196 65.441007627856379 0 65.441007627856379 160.70077135407882 0 0 0 0 24.086305837739928 53.881396593425961 0 53.881396593425961 17.698297897870361 0 0 0 0 243.76916772085769 89.658496778937433 0 89.658496778937433 -5.3685506169713335 0 0 0 0 11.145305786048993 -17.993499273278758 0 -17.993499273278758 9.2605223447244498 0 0 0 0 52.580427852757566 2.895865090753432 0 2.895865090753432 -8.7697124643354982 0 0 0 0 -0.63243635429329359 2.0079901602084771 0 2.0079901602084771 -1.595417403491151 0 0 0 0 -0.37212883320630752 0.2105027277462117 0 0.2105027277462117 1.6666241065067666 0 0 0 0 0.70705698100800163 0.41240262195650956 0 0.41240262195650956 -0.1498235028394852 0 0 0 0 39.801445515628075 35.123722979402373 0 35.123722979402373 -0.88311295816674829 0 0 0 0 52.993505081016337 53.230239671171148 0 53.230239671171148 54.797643386875279 0 0 0 0 174.84426322502259 21.298769420907774 0 21.298769420907774 30.672422573406948 0 0 0 0 117.15303513106846 106.22485384632637 0 106.22485384632637 66.438340282991703 0 0 0 0 179.41305016354454 56.631151512387078 0 56.631151512387078 26.086725118373579 0 0 0 0 108.47342927006139 63.227249771402057 0 63.227249771402057 14.818677767896588 0 0 0 0 104.71655091788489 20.224362007083982 0 20.224362007083982 60.073185173117963 0 0 0 0 111.46891136731574 72.019870059291861 0 72.019870059291861 33.785190855302062 0 0 0 0 8.9101882693180414 55.289782351713029 0 55.289782351713029 -3.8812110635662975 0 0 0 0 -3.1921541840656573 57.779656823156984 0 57.779656823156984 14.903409378575361 0 0 0 0 -2.2130092901352327 2.722819119764381 0 2.722819119764381 0.60480437509249896 0 0 0 0 -0.28871541667691059 2.0172668010262349 0 2.0172668010262349 0.11577300456671225 0 0 0 0 11.100060163170838 21.046559902918716 0 21.046559902918716 35.276742898822704 0 0 0 0 39.895877556630694 29.878676959721815 0 29.878676959721815 35.854070602352294 0 0 0 0 107.54900424611242 22.669795491318837 0 22.669795491318837 6.9952826926200942 0 0 0 0 158.74218132421902 71.933052443051565 0 71.933052443051565 3.6373075621149837 0 0 0 0 -0.54819750692911295 1.2684370805128058 0 1.2684370805128058 1.2086868373270008 0 0 0 0 -102.25790625135687 10.182354048272828 0 10.182354048272828 39.989018864745049 0 0 0 0 51.048432027411764 0.84400654514138296 0 0.84400654514138296 6.8404661213144209 0 0 0 0 56.158445925429078 47.117208782126909 0 47.117208782126909 48.011851668118652 0 0 0 0 27.05139238042284 -1.1087495177471283 0 -1.1087495177471283 16.409300633840758 0 0 0 0 0.23172148117389568 0.79579958239857973 0 0.79579958239857973 -1.1286541857881751 0 0 0 0 -12.93548389782336 51.183264575759495 0 51.183264575759495 69.332285283089732 0 0 0 0 215.62840992781639 75.228062614065493 0 75.228062614065493 22.331549230848395 0 0 0 0 232.07185853159081 101.08151915479903 0 101.08151915479903 24.825940059708955 0 0 0 0 226.43841392068498 81.307626599402283 0 81.307626599402283 17.785976787305117 0 0 0 0 -0.089964375243116734 0.30517119455808839 0 0.30517119455808839 0.38187708887537042 0 0 0 0 159.94655693505047 127.75015181974959 0 127.75015181974959 75.968206904319231 0 0 0 0 38.800912047920065 37.420043714128042 0 37.420043714128042 16.371273149579793 0 0 0 0 1.7586823551287001 4.6946143839097587 0 4.6946143839097587 -0.080793970882950816 0 0 0 0 1.6973149059500834 23.960659367807654 0 23.960659367807654 19.381216852656507 0 0 0 0 48.101818784705756 16.465881726882799 0 16.465881726882799 0.33382043596066069 0 0 0 0 80.954607635543653 23.161931176366124 0 23.161931176366124 -4.8336659628002963 0 0 0 0 121.95546570708757 91.958332659479311 0 91.958332659479311 29.705613640875526 0 0 0 0 -44.216990397175778 61.694318166819812 0 61.694318166819812 16.85558703944298 0 0 0 0 0.42807123597577501 0.36957070760603372 0 0.36957070760603372 -0.55682054690236171 0 0 0 0 -148.58185503398272 57.722117258534126 0 57.722117258534126 171.25612426235239 0 0 0 0 -32.803084755641976 82.125330238960487 0 82.125330238960487 50.071472550103863 0 0 0 0 -188.46915156165733 -14.121110213280872 0 -14.121110213280872 35.10129158838572 0 0 0 0 -93.270107006312173 56.144407237477026 0 56.144407237477026 39.906902341268506 0 0 0 0 -36.32304753716744 33.901011692355496 0 33.901011692355496 12.71578725360996 0 0 0 0 -38.795051162345771 84.731648852967737 0 84.731648852967737 43.75742952170458 0 0 0 0 -11.255521360579223 17.118596337900271 0 17.118596337900271 -28.798408025344543 0 0 0 0 147.32650009030294 53.246894628488917 0 53.246894628488917 -14.829522293717673 0 0 0 0 -0.046094720990634386 0.21718165687998159 0 0.21718165687998159 0.10107428983681643 0 0 0 0 -0.15270377960382575 0.6999324483350744 0 0.6999324483350744 0.37426919046865947 0 0 0 0 25.574345681824525 72.238288881180551 0 72.238288881180551 40.324648510151746 0 0 0 0 41.892136211387879 47.565208025476522 0 47.565208025476522 1.5250601652933256 0 0 0 0 4.0295135860915252 33.965142255762657 0 33.965142255762657 4.9210737460361997 0 0 0 0 -14.490950426371455 42.33104205626023 0 42.33104205626023 33.204582753273826 0 0 0 0 -5.7104334473451672 18.583635686641628 0 18.583635686641628 -6.7034941201218317 0 0 0 0 82.499493763129067 40.36987247009165 0 40.36987247009165 29.921562710106627 0 0 0 0 112.3018896851745 48.376024309997774 0 48.376024309997774 3.8648186371028714 0 0 0 0 -0.81256397561723404 1.8145653596521765 0 1.8145653596521765 1.7674480319808623 0 0 0 0 5.4695245923303446 24.736272093986372 0 24.736272093986372 4.944095421826205 0 0 0 0 -24.872249127855866 26.839662441744622 0 26.839662441744622 14.760396093716736 0 0 0 0 40.643669926780603 28.888382371083026 0 28.888382371083026 3.1441432969422749 0 0 0 0 -0.90603955735177522 1.9533305350840102 0 1.9533305350840102 2.0314674781260607 0 0 0 0 34.386996426497717 41.076902429075744 0 41.076902429075744 37.112133764843747 0 0 0 0 29.043378790028783 25.896707989985316 0 25.896707989985316 28.322819646642529 0 0 0 0 90.366319509928871 55.221716828477838 0 55.221716828477838 20.979111718077547 0 0 0 0 89.300905718172544 109.92728905607055 0 109.92728905607055 83.651143594941459 0 0 0 0 -11.873457212583162 72.469068570082527 0 72.469068570082527 78.002555656679533 0 0 0 0 152.90785368552588 172.94790605950175 0 172.94790605950175 121.41002296064835 0 0 0 0 176.96236740765471 164.92318965004461 0 164.92318965004461 119.37778388373044 0 0 0 0 0.0088084258111393865 0.34376119468148758 0 0.34376119468148758 0.21800404121405847 0 0 0 0 137.30878725290677 97.22224792215502 0 97.22224792215502 54.334788791569736 0 0 0 0 -67.048527629218825 19.508616083667448 0 19.508616083667448 38.585239976955563 0 0 0 0 71.712534276321094 105.45261127012009 0 105.45261127012009 68.178073113984283 0 0 0 0 71.342700588156731 106.48686301779844 0 106.48686301779844 67.122584567676313 0 0 0 0 66.440097065395094 96.504262150017894 0 96.504262150017894 81.291651656814793 0 0 0 0 64.572948023258505 101.351087925108 0 101.351087925108 70.950719200664025 0 0 0 0 68.629762556820424 111.76529251647025 0 111.76529251647025 60.102101302476513 0 0 0 0 56.442116241822077 107.51402001380302 0 107.51402001380302 75.793254363742562 0 0 0 0 88.666982993267084 76.030383419579266 0 76.030383419579266 49.474948609351486 0 0 0 0 49.71744905920059 65.289169038699583 0 65.289169038699583 69.233818447737576 0 0 0 0 60.06813650913864 91.891149631717781 0 91.891149631717781 78.07775400756509 0 0 0 0 68.659750219099806 125.74327819022074 0 125.74327819022074 105.42037149194948 0 0 0 0 -5.3354144074219221 94.231296761370686 0 94.231296761370686 127.26230083206246 0 0 0 0 68.845017429135623 90.929808954126202 0 90.929808954126202 74.080910760186271 0 0 0 0 300.46045660967502 -178.11492382152392 0 -178.11492382152392 157.5540681712373 0 0 0 0 -47.762151459422967 144.24858894964473 0 144.24858894964473 30.294164187342631 0 0 0 0 78.343599512058972 95.14220588101125 0 95.14220588101125 73.744688225080608 0 0 0 0 66.201933981566981 17.015948897140333 0 17.015948897140333 -43.738372068455647 0 0 0 0 77.828259236972372 -11.394903081692974 0 -11.394903081692974 -27.646178066957873 0 0 0 0 64.351927224974133 -37.633941011558818 0 -37.633941011558818 15.996706822945271 0 0 0 0 -6.9167177878258279 11.197635087409237 0 11.197635087409237 -15.299293883675528 0 0 0 0 7.0139165235013934 -19.809445742997923 0 -19.809445742997923 74.084616719545011 0 0 0 0 -2.3994689277678845 11.624680537464883 0 11.624680537464883 20.839021171595959 0 0 0 0 -17.898979774021427 4.968543465147377 0 4.968543465147377 14.837273970311799 0 0 0 0 -25.354765841741028 0.58188635634542152 0 0.58188635634542152 13.789629984363273 0 0 0 0 -14.746139792136091 1.6696680693639792 0 1.6696680693639792 -4.8886312289705529 0 0 0 0 -15.171892458962247 15.140440857637259 0 15.140440857637259 3.4443464726937236 0 0 0 0 -19.661680872843135 14.681766296293063 0 14.681766296293063 34.124205594102023 0 0 0 0 -2.0664589293701283 3.3139604666013724 0 3.3139604666013724 12.58849243097211 0 0 0 0 7.3875687983600073 30.663909036473342 0 30.663909036473342 17.999240521548927 0 0 0 0 -14.900823646898061 12.346078316526473 0 12.346078316526473 16.995063864855183 0 0 0 0 -6.6769937104763812 33.484619508451942 0 33.484619508451942 68.522149979568894 0 0 0 0 0.4509831588370159 2.6987357390447819 0 2.6987357390447819 4.167514716861902 0 0 0 0 10.734357781710059 4.1409980872749657 0 4.1409980872749657 -8.9693815276332316 0 0 0 0 -40.05916316980074 -1.1959059912633165 0 -1.1959059912633165 13.970712510941667 0 0 0 0 7.8551035501841397 8.5979805237761866 0 8.5979805237761866 -7.0157402739678218 0 0 0 0 -40.446693856822094 -6.3924034102947189 0 -6.3924034102947189 -3.3728662662360875 0 0 0 0 0.49141881411443933 1.2703449484598472 0 1.2703449484598472 0.35784835014213634 0 0 0 0 -52.096721751608129 -20.896497350291611 0 -20.896497350291611 -16.209237104692875 0 0 0 0 -60.134416009368579 -3.6162363496296166 0 -3.6162363496296166 6.3943978700408479 0 0 0 0 -32.212946253668633 13.324939516794984 0 13.324939516794984 -9.2619276599389195 0 0 0 0 -39.796346743882168 12.005137241878401 0 12.005137241878401 11.791633635968537 0 0 0 0 -34.639291508290626 -6.7837584168710237 0 -6.7837584168710237 9.887482655722124 0 0 0 0 -34.280490775090584 5.521309838113666 0 5.521309838113666 19.15074487468155 0 0 0 0 -16.767004884815833 14.110900977113488 0 14.110900977113488 16.558077836587017 0 0 0 0 6.6735189904229628 -0.3957584128659164 0 -0.3957584128659164 -4.2185541452854523 0 0 0 0 5.6791340918498463 8.3097441120321491 0 8.3097441120321491 -12.350136448840203 0 0 0 0 1.6233457838970935 6.8054173814161913 0 6.8054173814161913 -7.0449312221340392 0 0 0 0 -16.232432335578778 23.160856334837263 0 23.160856334837263 17.001046678788953 0 0 0 0 -1.5435962101451741 4.4939180903232767 0 4.4939180903232767 6.1543482816971746 0 0 0 0 2.8116155823827285 10.015442353367689 0 10.015442353367689 9.4901367190977908 0 0 0 0 9.0314203704256215 20.033261852859141 0 20.033261852859141 15.323747160124185 0 0 0 0 13.861837144555466 14.796213335067478 0 14.796213335067478 11.753741526568774 0 0 0 0 -5.6903544676524689 14.090127963180976 0 14.090127963180976 -6.72769649206748 0 0 0 0 -7.7075315271986256 1.1298739849826234 0 1.1298739849826234 13.635851748338609 0 0 0 0 11.573146924725734 0.93758593200982432 0 0.93758593200982432 12.846822697144489 0 0 0 0 2.2547713069216115 2.3990859543864644 0 2.3990859543864644 -8.809985704769133 0 0 0 0 -11.975643164323628 16.022256151172769 0 16.022256151172769 25.836250098746859 0 0 0 0 -0.40909746164673777 4.7929232587398349 0 4.7929232587398349 -6.0367256503821949 0 0 0 0 4.383073843891907 11.444601396959115 0 11.444601396959115 4.273733035857731 0 0 0 0 2.3735754868393997 9.9336728824164311 0 9.9336728824164311 9.6979032799135894 0 0 0 0 0.01999260081720422 17.367447082182025 0 17.367447082182025 14.851175785712257 0 0 0 0 72.215449622861343 106.57876971673977 0 106.57876971673977 67.053012102643152 0 0 0 0 25.165300276421476 55.487637082507717 0 55.487637082507717 31.621983210883627 0 0 0 0 -0.6586349823655766 0.55226227150397555 0 0.55226227150397555 2.3550133140729201 0 0 0 0 37.829925939007808 13.452524766682473 0 13.452524766682473 1.0020070894897799 0 0 0 0 3.3385201248092926 28.124575511521471 0 28.124575511521471 11.221331773244856 0 0 0 0 98.140290328906303 107.12462037320029 0 107.12462037320029 59.291006306946656 0 0 0 0 93.001347596255982 95.910672511006396 0 95.910672511006396 40.390178612142336 0 0 0 0 174.71025327251118 108.65329895756804 0 108.65329895756804 42.188184147111315 0 0 0 0 64.159533828897111 114.15855263766753 0 114.15855263766753 65.297446402963033 0 0 0 0 -4.8536230152494682 33.295426612216033 0 33.295426612216033 -10.713813190079236 0 0 0 0 -21.193242329671193 6.413997116527753 0 6.413997116527753 0.63137049530996592 0 0 0 0 -0.6521417823714728 6.967607922731986 0 6.967607922731986 0.57489955014898442 0 0 0 0 13.955717334582005 17.209881390474038 0 17.209881390474038 10.198932230749051 0 0 0 0 -5.011264067756084 8.2338216418343038 0 8.2338216418343038 -6.1870170222508065 0 0 0 0 -13.339965019390535 19.044910938194846 0 19.044910938194846 -3.4283132946672765 0 0 0 0 -3.2900067579146057 2.935288103437486 0 2.935288103437486 0.28306771243475737 0 0 0 0 253.67835077523705 135.90758445906795 0 135.90758445906795 16.550950358086993 0 0 0 0 20.715675271119153 7.0954188825046458 0 7.0954188825046458 12.804435953115899 0 0 0 0 3.0540013105951047 1.331962871054011 0 1.331962871054011 -0.6962772353503297 0 0 0 0 0.53874245608756155 53.987323414055993 0 53.987323414055993 82.041025632319361 0 0 0 0 111.69273745575902 101.13146457983385 0 101.13146457983385 38.880757550319686 0 0 0 0 158.54604117827694 54.991357131202676 0 54.991357131202676 19.00935263007068 0 0 0 0 -7.4590958700162631 9.240175590213223 0 9.240175590213223 -9.4625050676149911 0 0 0 0 60.371745895252047 97.634468088762446 0 97.634468088762446 47.372767858130828 0 0 0 0 149.18368712044139 168.4240415833965 0 168.4240415833965 59.549571080529859 0 0 0 0 61.685427931763115 126.50975029122492 0 126.50975029122492 79.865341502576484 0 0 0 0 60.146988533941112 88.338272775861697 0 88.338272775861697 25.636785152062657 0 0 0 0 60.773055580817527 97.105877810539823 0 97.105877810539823 47.923974619330693 0 0 0 0 52.304225550024057 107.05175479343143 0 107.05175479343143 48.942656849802006 0 0 0 0 58.848329687304158 98.25721427006556 0 98.25721427006556 60.47036265992574 0 0 0 0 44.575540106168773 63.7351873550042 0 63.7351873550042 34.377578637275292 0 0 0 0 29.118893540296995 65.10366218483523 0 65.10366218483523 49.913164897950992 0 0 0 0 -5.1179117500214488 32.89543087380116 0 32.89543087380116 -0.92013359285283514 0 0 0 0 36.521661056833182 75.164166491555989 0 75.164166491555989 21.107004682735351 0 0 0 0 30.224382520621475 69.606791081768279 0 69.606791081768279 0.0031978172778508451 0 0 0 0 -140.59003314887786 30.176609686668826 0 30.176609686668826 41.904396205076409 0 0 0 0 46.95983876569062 91.857908130227543 0 91.857908130227543 52.325946399338136 0 0 0 0 14.618950359585597 101.18024479964606 0 101.18024479964606 33.307827319003991 0 0 0 0 41.357410609298313 62.510760721203951 0 62.510760721203951 -0.91498909612437274 0 0 0 0 -33.575454281030034 94.369391984121194 0 94.369391984121194 15.457596874830415 0 0 0 0 23.932802108465694 61.958419089119161 0 61.958419089119161 4.6419746121582648 0 0 0 0 -5.4584154229278283 66.039869289554645 0 66.039869289554645 17.293511786421732 0 0 0 0 30.61488679383865 73.336887118633513 0 73.336887118633513 19.952985730968066 0 0 0 0 89.984384891209629 54.752093242477713 0 54.752093242477713 0.62867282894421805 0 0 0 0 79.298121319895017 58.874545043865965 0 58.874545043865965 30.347026296021795 0 0 0 0 86.162446261120749 63.034881279734691 0 63.034881279734691 71.05572369580841 0 0 0 0 120.11564788430223 80.307535151833235 0 80.307535151833235 25.24802794158677 0 0 0 0 86.573338472491741 74.992575201211366 0 74.992575201211366 8.8812902710351409 0 0 0 0 103.60163104653202 129.75873953034713 0 129.75873953034713 62.477794599155459 0 0 0 0 103.70842004620863 91.999015336835328 0 91.999015336835328 11.890685923870478 0 0 0 0 0.43125486228749565 0.29403023188778388 0 0.29403023188778388 -0.63398759345921718 0 0 0 0 100.09709986326925 57.966550744507913 0 57.966550744507913 26.444732979987748 0 0 0 0 104.15636878428927 77.855509274824158 0 77.855509274824158 58.523005344926787 0 0 0 0 71.445464424919919 99.607930725736878 0 99.607930725736878 44.344476981143089 0 0 0 0 -18.61777678917133 151.78821088372206 0 151.78821088372206 0.046434981748916471 0 0 0 0 -6.1673802475898398 6.6601005022423454 0 6.6601005022423454 -6.8449863283253478 0 0 0 0 76.75371425303274 71.827741310069541 0 71.827741310069541 58.551766807177046 0 0 0 0 12.045531079652051 26.273601312092893 0 26.273601312092893 2.9591059456924995 0 0 0 0 11.103639191645925 11.272744480164874 0 11.272744480164874 6.5147915101470062 0 0 0 0 82.4549746179473 77.186775020792538 0 77.186775020792538 72.047697953279567 0 0 0 0 93.421247397269326 98.575366861758994 0 98.575366861758994 66.612603088198057 0 0 0 0 0.46059920501313556 0.52376083989155653 0 0.52376083989155653 -1.0504071327553319 0 0 0 0 97.38152398515922 82.780725535008969 0 82.780725535008969 50.13666924387644 0 0 0 0 61.91315468375069 92.885801277345308 0 92.885801277345308 71.86354487940298 0 0 0 0 0.43449870386494283 0.2448127410096026 0 0.2448127410096026 -0.68257353910259866 0 0 0 0 94.277794579482816 56.221603943992704 0 56.221603943992704 -49.423990947208949 0 0 0 0 -320.83456949328684 415.42353606178585 0 415.42353606178585 -98.665534075763389 0 0 0 0 -154.13650642399352 26.677034514526895 0 26.677034514526895 26.032954642717414 0 0 0 0 0.17362609928750317 337.90936011197527 0 337.90936011197527 -381.29743250567117 0 0 0 0 113.82187974674343 97.351090459976149 0 97.351090459976149 -130.17796962137902 0 0 0 0 -1.4785857220311698 1.6220260767616459 0 1.6220260767616459 -1.6166336682917404 0 0 0 0 -4.5519207334036764 31.782183105920922 0 31.782183105920922 -9.9037247769201713 0 0 0 0 -3.9696949754429269 4.411814070547579 0 4.411814070547579 -4.4257812923899209 0 0 0 0 -5.3824869262207358 27.928680326152062 0 27.928680326152062 3.316082336987165 0 0 0 0 -1.4111474549190461 21.594441632185408 0 21.594441632185408 -1.1711822485503944 0 0 0 0 -2.5197664746665396 19.487486314351372 0 19.487486314351372 -3.4755139007565958 0 0 0 0 -0.14455252909647243 19.953378426860354 0 19.953378426860354 -9.6473356163769495 0 0 0 0 0.85486592401412054 17.161920851229297 0 17.161920851229297 -25.530254975379648 0 0 0 0 2.299859585978993 -0.94183726035589643 0 -0.94183726035589643 -44.356976616387328 0 0 0 0 2.940460777736007 9.0179689823526132 0 9.0179689823526132 -16.151289972880477 0 0 0 0 3.2532746811248217 19.259379455934322 0 19.259379455934322 -13.996879882939538 0 0 0 0 0.061922854467411526 14.113619754111824 0 14.113619754111824 -0.099072168954080553 0 0 0 0 -0.89328630964882905 16.247932668898102 0 16.247932668898102 -2.8738421157395351 0 0 0 0 8.5247393555655435 12.702252336384845 0 12.702252336384845 -6.1287099654055055 0 0 0 0 7.5620248789455218 14.837260292143583 0 14.837260292143583 6.820771235788925 0 0 0 0 9.5383985616444988 17.34262451765062 0 17.34262451765062 -3.178252385732776 0 0 0 0 12.664943943811522 9.8181173782049882 0 9.8181173782049882 -1.4493140231916186 0 0 0 0 17.965070704307436 15.333108621160136 0 15.333108621160136 -18.249327265242755 0 0 0 0 2.5572403174810461 27.921810448497126 0 27.921810448497126 -19.936171393559562 0 0 0 0 13.158915534440894 18.118629429679459 0 18.118629429679459 -11.671140891336108 0 0 0 0 1.4274251257884316 22.282590695651379 0 22.282590695651379 -6.5738556043852441 0 0 0 0 -17.271486279649253 27.649222445223131 0 27.649222445223131 -6.1270050123530382 0 0 0 0 1.7554956406893325 18.289855283257566 0 18.289855283257566 -1.583627143785634 0 0 0 0 7.3015308211506635 9.2926604055865027 0 9.2926604055865027 -18.504434467660758 0 0 0 0 14.004906931237201 13.63174582098145 0 13.63174582098145 -13.584200119454181 0 0 0 0 10.706424584484921 14.435035747868369 0 14.435035747868369 -13.503434460604694 0 0 0 0 8.7239707052394806 14.143927970266304 0 14.143927970266304 -11.250651196005492 0 0 0 0 7.4490620732030948 7.3256585400140466 0 7.3256585400140466 -19.533115782487585 0 0 0 0 -0.11556912593638913 -0.30928486033131186 0 -0.30928486033131186 0.0794682481975304 0 0 0 0 5.1296499217678502 5.7254132829675655 0 5.7254132829675655 -13.148651459696794 0 0 0 0 -0.10573309168698586 -0.3265592551688794 0 -0.3265592551688794 0.10559150668389528 0 0 0 0 10.007824261374481 -0.7001195754710352 0 -0.7001195754710352 -29.170882071051892 0 0 0 0 -2.2674215800216189 20.116040268130746 0 20.116040268130746 21.965593899214582 0 0 0 0 -5.0390321165141359 16.110973080438271 0 16.110973080438271 21.466612786663973 0 0 0 0 0.37760494901158381 15.501591803495103 0 15.501591803495103 8.4926599980317405 0 0 0 0 -6.0015904281644907 18.99571199473894 0 18.99571199473894 7.2104710279345454 0 0 0 0 4.9203850184467228 7.3286551745973156 0 7.3286551745973156 6.7018334545791731 0 0 0 0 4.4141845703961735 12.353000596431229 0 12.353000596431229 -21.048967258095217 0 0 0 0 16.688117811070697 47.603263768255601 0 47.603263768255601 52.235942545930811 0 0 0 0 2.2851936634634171 0.55698379656056041 0 0.55698379656056041 0.22487400976860705 0 0 0 0 -0.73785805359511869 6.8227480071645914 0 6.8227480071645914 1.2800637097989238 0 0 0 0 3.9852735117601696 3.8157316883080057 0 3.8157316883080057 -18.560687410397804 0 0 0 0 2.9195628463530738 -8.087373056281649 0 -8.087373056281649 -15.714789751073113 0 0 0 0 0.24438111063318502 -1.5972554197696809 0 -1.5972554197696809 -2.2694250367312634 0 0 0 0 0.75547315914940327 0.12171926840663971 0 0.12171926840663971 0.00026317606218384526 0 0 0 0 0.43692788992984788 2.8046359209533875 0 2.8046359209533875 -13.556443771632985 0 0 0 0 -13.435174441152412 54.425060152891092 0 54.425060152891092 133.56262992854681 0 0 0 0 6.199172898962388 6.5857400108636739 0 6.5857400108636739 89.850528478509659 0 0 0 0 23.392213068886122 50.065842474702549 0 50.065842474702549 57.25797861981755 0 0 0 0 -22.25102468505429 40.959125562674217 0 40.959125562674217 164.88772647994301 0 0 0 0 0.032029694861279268 -0.13721118847227842 0 -0.13721118847227842 0.21732161957342377 0 0 0 0 0.0017399606294929981 52.331559056676269 0 52.331559056676269 82.395655811351389 0 0 0 0 -0.14125159376725094 -0.37681169494415556 0 -0.37681169494415556 0.088451550404522017 0 0 0 0 -0.052981445897052629 21.745904043592937 0 21.745904043592937 -2.1379388338100398 0 0 0 0 4.2648778305701853 -8.2305930807760888 0 -8.2305930807760888 -24.496407578768412 0 0 0 0 2.4186015945997497 6.0450118579610717 0 6.0450118579610717 -11.04955776044153 0 0 0 0 -0.012385039924268426 0.066269641618938557 0 0.066269641618938557 -0.092137493499301115 0 0 0 0 -48.01727483484683 9.3830140562822635 0 9.3830140562822635 -14.092278597279801 0 0 0 0 -9.4921042207912905 2.0243066773817873 0 2.0243066773817873 -0.042141274941167151 0 0 0 0 103.0090865706652 58.101130880999335 0 58.101130880999335 -47.064639797510608 0 0 0 0 -5.3800891854589281 63.61494723211581 0 63.61494723211581 9.7974282256855076 0 0 0 0 -83.636094406130724 44.089567213051851 0 44.089567213051851 -8.8088555674912641 0 0 0 0 -1.6361808594654401 0.53195940612281767 0 0.53195940612281767 0.52672704468670162 0 0 0 0 0.36920697275400016 16.707955555260924 0 16.707955555260924 -34.623365669052873 0 0 0 0 18.12642625548142 15.725811065237394 0 15.725811065237394 6.9592503128405951 0 0 0 0 -33.320199879117354 46.93957510752989 0 46.93957510752989 -31.091182009187833 0 0 0 0 -0.33763247141041575 13.707672152081841 0 13.707672152081841 7.8937810366842314 0 0 0 0 -3.3473979850812157 17.090290089722657 0 17.090290089722657 -30.878601625967349 0 0 0 0 4.0266664310797982 9.4389936340061258 0 9.4389936340061258 -3.8556565576673165 0 0 0 0 -22.128931146917239 25.934730309083534 0 25.934730309083534 33.33089356525943 0 0 0 0 -16.255315210529261 44.695091226120894 0 44.695091226120894 -20.42342046263002 0 0 0 0 -4.1528343016289 26.056951245622258 0 26.056951245622258 11.572547731149825 0 0 0 0 -42.358671760452125 30.000181522686034 0 30.000181522686034 13.505517102531485 0 0 0 0 -81.781262873591913 14.749480469408809 0 14.749480469408809 28.257133318142223 0 0 0 0 -37.746480564122976 19.126757720408932 0 19.126757720408932 15.602842643787881 0 0 0 0 -79.285787654410342 46.545607401899588 0 46.545607401899588 160.93773818399131 0 0 0 0 -173.78768897763257 -89.810572955893804 0 -89.810572955893804 100.82742450305796 0 0 0 0 -20.483948360773866 -12.65700175374559 0 -12.65700175374559 40.506415846350137 0 0 0 0 185.14096677154339 -4.2564586257531118 0 -4.2564586257531118 -20.523277756390598 0 0 0 0 204.98993001036706 17.093102412527514 0 17.093102412527514 -5.4421837730005791 0 0 0 0 55.438224749768779 137.70916379635855 0 137.70916379635855 57.919994315019721 0 0 0 0 21.618749775807373 73.728281240857541 0 73.728281240857541 17.644783577427006 0 0 0 0 328.78965960165988 253.0774961545394 0 253.0774961545394 106.03669943468049 0 0 0 0 -287.88834310237144 174.58183435153478 0 174.58183435153478 529.03340129240678 0 0 0 0 371.65706872758869 26.133671263685301 0 26.133671263685301 -34.766776562086307 0 0 0 0 482.960827856582 222.5958811265773 0 222.5958811265773 73.283649609038548 0 0 0 0 0.11372965069665142 0.43180580960649806 0 0.43180580960649806 -0.10062366857392524 0 0 0 0 25.294722321035806 -13.310656132990516 0 -13.310656132990516 -151.08368059327404 0 0 0 0 -24.319215577966133 -7.5550217969175719 0 -7.5550217969175719 -126.78597088412971 0 0 0 0 60.688140866908725 9.5618006530112325 0 9.5618006530112325 -98.218870142696233 0 0 0 0 -62.011535205097061 -65.78810667117159 0 -65.78810667117159 -11.888520011569199 0 0 0 0 -1.7101494451062536 35.45914002608697 0 35.45914002608697 -46.821494159474241 0 0 0 0 -3.1382028475792794 0.21520613129161248 0 0.21520613129161248 -0.11917326717936927 0 0 0 0 57.967186422924897 6.1439043433438201 0 6.1439043433438201 33.306998572585144 0 0 0 0 42.259324851491328 45.305508089917566 0 45.305508089917566 -47.763802098897713 0 0 0 0 27.235918281284285 36.321447113271461 0 36.321447113271461 30.217707384501409 0 0 0 0 23.291303160272946 -23.240197854764119 0 -23.240197854764119 -131.29328935274361 0 0 0 0 0.16425816279296512 0.38926827085751725 0 0.38926827085751725 -0.34828452042817304 0 0 0 0 20.173731965902789 41.099540450302811 0 41.099540450302811 59.453076775556838 0 0 0 0 28.363591150655338 33.010869672859371 0 33.010869672859371 22.394682134328832 0 0 0 0 28.968867105591016 23.333187420894319 0 23.333187420894319 16.780627634716438 0 0 0 0 34.642137939918939 33.524988895582283 0 33.524988895582283 30.61720133963081 0 0 0 0 40.026413801408125 47.007407791439618 0 47.007407791439618 29.485266220695621 0 0 0 0 -0.25216045143201349 0.3044556615695857 0 0.3044556615695857 0.27629629344413331 0 0 0 0 -27.835667259065303 5.5607453849083868 0 5.5607453849083868 -2.6383064298024692 0 0 0 0 -30.952893473275253 3.2636909915886463 0 3.2636909915886463 2.6067137488935259 0 0 0 0 -64.20298490146979 -0.40289937053057656 0 -0.40289937053057656 -2.4519793831241259 0 0 0 0 -118.48599515755677 1.8709702683345313 0 1.8709702683345313 11.074510881895549 0 0 0 0 -66.411597710640308 29.879530872841315 0 29.879530872841315 5.7862280877852754 0 0 0 0 0.053899942360374098 -0.079629582143834199 0 -0.079629582143834199 0.17659025667656891 0 0 0 0 -41.523013526544673 4.8467865004085979 0 4.8467865004085979 -3.7289302240715188 0 0 0 0 -52.8432297929985 22.156189802821245 0 22.156189802821245 3.129270095116226 0 0 0 0 -40.891069660214271 11.555849975163255 0 11.555849975163255 6.7743961106934876 0 0 0 0 -29.493645438920112 39.806013895605247 0 39.806013895605247 -0.16204235685654567 0 0 0 0 14.05161643430074 26.695111143057147 0 26.695111143057147 -1.3423149395803193 0 0 0 0 -53.592849291345374 22.381978236953728 0 22.381978236953728 5.0558098826222704 0 0 0 0 40.985401147170705 18.671477851243253 0 18.671477851243253 8.7185471604461782 0 0 0 0 87.095802923791325 31.250689969686618 0 31.250689969686618 -27.294523717842821 0 0 0 0 -0.10215513522039732 -0.23588935655979348 0 -0.23588935655979348 -0.10770492718529567 0 0 0 0 -18.657980984118694 29.937942818820375 0 29.937942818820375 -10.130160839702512 0 0 0 0 1.7949008351424709 9.7765327623210396 0 9.7765327623210396 -15.373415870850295 0 0 0 0 -7.5109821775115009 8.6871382806148176 0 8.6871382806148176 -7.6184852359489668 0 0 0 0 3.668813630850309 16.954526608385095 0 16.954526608385095 -2.9681953588546151 0 0 0 0 22.556308881269558 45.391522990444173 0 45.391522990444173 -22.589851868669939 0 0 0 0 -3.2553280309375623 11.009992206362767 0 11.009992206362767 0.62280042364727706 0 0 0 0 -3.1462069069657446 12.199501811726805 0 12.199501811726805 -2.8718962620550883 0 0 0 0 -3.7352044116505567 15.646682390657588 0 15.646682390657588 4.0906612589587894 0 0 0 0 13.548613475913953 12.098840595544971 0 12.098840595544971 0.60910364135997952 0 0 0 0 13.17727224637747 11.89174930862464 0 11.89174930862464 8.0636192530455446 0 0 0 0 21.89959099281441 3.0553246603285515 0 3.0553246603285515 3.5924123742042866 0 0 0 0 16.223275351521806 15.582090690708355 0 15.582090690708355 -4.8215415720451347 0 0 0 0 -0.98828838512099537 15.521724818378971 0 15.521724818378971 3.6728377724939492 0 0 0 0 5.3344505103280531 23.491306995359992 0 23.491306995359992 -5.3361111371450534 0 0 0 0 17.368141998769396 39.374488694322281 0 39.374488694322281 8.777696304334313 0 0 0 0 2.4886196308209492 38.340274721818787 0 38.340274721818787 -9.9004024906389532 0 0 0 0 11.298898973886367 22.41935252224539 0 22.41935252224539 11.759788888064577 0 0 0 0 -7.0903385579317337 10.394374719354381 0 10.394374719354381 -6.704001479481235 0 0 0 0 5.0797087158798604 15.963158752979325 0 15.963158752979325 -5.9340388376949704 0 0 0 0 -2.532923451371289 23.761210471129743 0 23.761210471129743 12.133768211200959 0 0 0 0 -2.884863660130577 21.683424015665878 0 21.683424015665878 -9.8825945780281472 0 0 0 0 0.41724046043742646 30.219093711999449 0 30.219093711999449 22.462433222510299 0 0 0 0 -122.50513427786424 -283.77676143573149 0 -283.77676143573149 -71.286198837588017 0 0 0 0 0.16152656792736364 4.3659895718440218 0 4.3659895718440218 -3.6968754967538935 0 0 0 0 74.627453298257095 438.96865585275009 0 438.96865585275009 -146.61813614529092 0 0 0 0 22.904541166360598 19.742865605063344 0 19.742865605063344 18.710531409917166 0 0 0 0 -5.9174745993069351 12.821480150546739 0 12.821480150546739 -16.549399025141931 0 0 0 0 -82.405683600478255 123.99987139945051 0 123.99987139945051 -3.7937735777522903 0 0 0 0 -74.463643902112608 109.81185359244864 0 109.81185359244864 4.1678591391719237 0 0 0 0 22.493573940348938 75.688650695829892 0 75.688650695829892 8.3458763284961606 0 0 0 0 5.2671242909699458 31.735847891019148 0 31.735847891019148 38.778162432354293 0 0 0 0 -115.35774119423132 78.746562582437036 0 78.746562582437036 20.921847360663378 0 0 0 0 3.3580396507068144 28.516579029707373 0 28.516579029707373 -17.341379227542348 0 0 0 0 -0.53620561377670128 29.810811916831881 0 29.810811916831881 -5.6974368665223665 0 0 0 0 -0.47958219974680105 22.439331414338994 0 22.439331414338994 1.17915029791493 0 0 0 0 -0.58822513255654485 25.487805513021158 0 25.487805513021158 -7.5890901737166132 0 0 0 0 16.329700794274686 21.564818880993698 0 21.564818880993698 18.402146109636988 0 0 0 0 0.36844280598359447 1.5476214526848793 0 1.5476214526848793 -0.31105594474574216 0 0 0 0 24.950342752095821 25.194765158499649 0 25.194765158499649 -0.20277267184428638 0 0 0 0 28.211648762098775 12.974932496335896 0 12.974932496335896 -11.000464382093924 0 0 0 0 2.5216966029702235 -12.50264054363106 0 -12.50264054363106 -21.94658603768039 0 0 0 0 19.714420836686259 15.551650053186677 0 15.551650053186677 3.2361307760547788 0 0 0 0 13.948551404617319 13.310314807638861 0 13.310314807638861 5.1277640574044199 0 0 0 0 1.8940691792577127 13.142309701994236 0 13.142309701994236 3.7328286474403285 0 0 0 0 14.486427439878753 13.439403487981508 0 13.439403487981508 -1.529942960900371 0 0 0 0 -1.6268655756903172 7.5631542388218804 0 7.5631542388218804 -0.41371691882886807 0 0 0 0 0.83704044494606933 10.845023568687793 0 10.845023568687793 0.20545768462034175 0 0 0 0 3.2775842841118106 11.250442099874512 0 11.250442099874512 4.9438897013414369 0 0 0 0 -6.8732558569345201 27.428607257172189 0 27.428607257172189 -9.6349838878684295 0 0 0 0 -2.6604482254924733 16.248552330727307 0 16.248552330727307 0.26469168625771999 0 0 0 0 -0.90137571659397508 16.017848568271802 0 16.017848568271802 -2.682049088718486 0 0 0 0 -22.530505459559208 8.4590676967181935 0 8.4590676967181935 5.5708392333217489 0 0 0 0 -16.364760609475525 25.614749698250307 0 25.614749698250307 -1.1274002044128792 0 0 0 0 -8.2793711379272281 16.10053340752529 0 16.10053340752529 -5.9132170054654125 0 0 0 0 -0.80751794237221475 18.418454814855068 0 18.418454814855068 -16.309607804301095 0 0 0 0 -7.0553082832616383 22.264078637059811 0 22.264078637059811 3.6767291951600782 0 0 0 0 -8.204561927380837 21.878809361182448 0 21.878809361182448 1.3952714463157463 0 0 0 0 -6.3360521159538621 20.368334862721895 0 20.368334862721895 -4.2569197024640744 0 0 0 0 -2.2370757673324988 16.196399623926482 0 16.196399623926482 -4.7512272646893052 0 0 0 0 3.2499802648958198 9.064658902511912 0 9.064658902511912 7.7778817565047333 0 0 0 0 -4.8026735915445897 20.245954503452595 0 20.245954503452595 -4.1593429360364098 0 0 0 0 22.946429312407417 26.438864927182294 0 26.438864927182294 -30.271772846397653 0 0 0 0 -8.5988027527774307 18.623698329798231 0 18.623698329798231 -1.1333129091544833 0 0 0 0 -6.7351808923258432 10.76071869284533 0 10.76071869284533 11.264595238084439 0 0 0 0 -12.208772267356267 19.541529710015539 0 19.541529710015539 18.533170991035149 0 0 0 0 -7.5791072990259636 18.187030903784034 0 18.187030903784034 4.3746711737057922 0 0 0 0 -12.14503738448002 19.861117722544805 0 19.861117722544805 12.800796798942883 0 0 0 0 -7.5401955329634802 18.115722978805934 0 18.115722978805934 3.1854795761519199 0 0 0 0 -9.6832159882496853 22.182728784368919 0 22.182728784368919 11.41139080920766 0 0 0 0 -7.9250782667077146 21.65294275982933 0 21.65294275982933 3.799626781283223 0 0 0 0 -16.162364682926636 30.885431763995257 0 30.885431763995257 16.658052340298241 0 0 0 0 -11.922443783602716 22.762751473313756 0 22.762751473313756 17.629804484213309 0 0 0 0 21.815438197238564 40.227697455331338 0 40.227697455331338 14.989470490467284 0 0 0 0 20.96803745055206 34.229855927093467 0 34.229855927093467 7.6791687882468977 0 0 0 0 4.6515099209141226 22.005495741150753 0 22.005495741150753 0.91004312702534662 0 0 0 0 -2.8969151507881179 27.885453037803927 0 27.885453037803927 11.402013687883027 0 0 0 0 -3.365147378380243 29.693367673915873 0 29.693367673915873 9.1506553021381478 0 0 0 0 -12.412976406209168 24.587161383973807 0 24.587161383973807 14.030390672491194 0 0 0 0 -4.5127813800527292 25.36374788631656 0 25.36374788631656 11.298039978536508 0 0 0 0 12.843487493601629 30.891880881460111 0 30.891880881460111 23.241353326538956 0 0 0 0 11.033522270786307 22.663552831865672 0 22.663552831865672 8.2051369234404774 0 0 0 0 10.193860926004618 22.639394500431081 0 22.639394500431081 -1.9767949977040189 0 0 0 0 11.592280734877193 33.226961306199655 0 33.226961306199655 -4.37764166400666 0 0 0 0 -4.0007930984662607 20.263061232882279 0 20.263061232882279 -14.271022393320891 0 0 0 0 -3.4120575116654095 28.537126476750615 0 28.537126476750615 -3.7493416831366631 0 0 0 0 6.1580424305261658 21.182887573942935 0 21.182887573942935 -17.72161452200362 0 0 0 0 1.2246038527175642 30.372037792858009 0 30.372037792858009 1.5921080583812 0 0 0 0 -10.681991382913338 28.00056087461644 0 28.00056087461644 4.1563037570867891 0 0 0 0 -10.322817487426619 34.636795472373706 0 34.636795472373706 -2.2851335008081151 0 0 0 0 -12.663892972613212 26.940531905856915 0 26.940531905856915 -19.403892912644551 0 0 0 0 -14.012163408680863 41.27273484419311 0 41.27273484419311 0.3163942410646996 0 0 0 0 -15.283802292623079 7.4430144229762618 0 7.4430144229762618 -60.555089057279474 0 0 0 0 124.2738884718292 183.12012274168228 0 183.12012274168228 -49.977783889233251 0 0 0 0 -94.776859492876156 101.0967861419058 0 101.0967861419058 -43.990024040336721 0 0 0 0 0.17756553291906085 0.37587726360110274 0 0.37587726360110274 0.50737033385161823 0 0 0 0 179.90069193704312 -55.453017541853114 0 -55.453017541853114 -362.23764294423017 0 0 0 0 -20.142701170164571 96.995682170563214 0 96.995682170563214 -93.558480547137151 0 0 0 0 26.620756130804693 35.628632865598775 0 35.628632865598775 -36.554250891123047 0 0 0 0 11.161911506515025 20.970255958736743 0 20.970255958736743 -0.94286365696530083 0 0 0 0 2.0338118583076721 48.568280351953035 0 48.568280351953035 -41.779798466484863 0 0 0 0 -27.924879074657838 53.140380613535854 0 53.140380613535854 -14.669139017398265 0 0 0 0 -49.762015377271723 34.30604311232446 0 34.30604311232446 -39.844568153694127 0 0 0 0 -25.620255330349096 43.562040379201903 0 43.562040379201903 -33.003723803649336 0 0 0 0 -44.283900165746672 72.58537085197986 0 72.58537085197986 -60.518231038175145 0 0 0 0 -1.6374542662551903 30.072562457427011 0 30.072562457427011 10.199316012322925 0 0 0 0 1.7759147026902156 18.771739324532518 0 18.771739324532518 -2.3631104168980528 0 0 0 0 22.961654654848644 33.574039361533323 0 33.574039361533323 4.7531122528639571 0 0 0 0 -10.542572966295438 51.970453297063841 0 51.970453297063841 -2.0223768438208936 0 0 0 0 -14.627912390367783 13.451465056716188 0 13.451465056716188 37.153949058209449 0 0 0 0 -2.1554223716711931 45.302414131219848 0 45.302414131219848 37.288654988758935 0 0 0 0 3.5306648156729352 7.5705322220974267 0 7.5705322220974267 51.054228583097938 0 0 0 0 -6.3165301168792212 18.126417477047653 0 18.126417477047653 59.872381504644181 0 0 0 0 -4.5890879853304796 11.623254943287748 0 11.623254943287748 54.255942486708591 0 0 0 0 12.054226341304382 8.5147072759375249 0 8.5147072759375249 3.5530397433281919 0 0 0 0 39.99466141892276 23.76588411458124 0 23.76588411458124 -0.63176428104998195 0 0 0 0 1.8514559285222001 1.6952328558138401 0 1.6952328558138401 0.066631388625161492 0 0 0 0 -6.2444399367263941 8.5479455763058922 0 8.5479455763058922 16.223170526758622 0 0 0 0 -4.0408099809792475 11.657317770765076 0 11.657317770765076 -0.13737254591433157 0 0 0 0 44.033675764098007 -24.38075962239509 0 -24.38075962239509 -89.513186523037803 0 0 0 0 162.74570184386857 76.775088440307172 0 76.775088440307172 -18.060948622005526 0 0 0 0 -16.065891263982849 103.91085642895177 0 103.91085642895177 -98.039715821859318 0 0 0 0 -45.469267607720212 95.8630014952887 0 95.8630014952887 34.032701640300729 0 0 0 0 8.8796624012076073 4.6829976877553641 0 4.6829976877553641 2.4771993823136391 0 0 0 0 4.5593134132163868 18.887289542795315 0 18.887289542795315 49.879497258607444 0 0 0 0 -43.963797184087525 5.0948260409613795 0 5.0948260409613795 371.89735059865416 0 0 0 0 147.18134452092636 18.557662871324283 0 18.557662871324283 -153.47991794532209 0 0 0 0 3.4420932363833447 1.4953115001884498 0 1.4953115001884498 0.73834340923749409 0 0 0 0 28.714800369330533 -10.018910344436335 0 -10.018910344436335 84.010484397223991 0 0 0 0 70.461694145492402 2.7470504380976308 0 2.7470504380976308 -78.846335722315416 0 0 0 0 41.640503697762142 8.1852097796518137 0 8.1852097796518137 -3.7513224852391431 0 0 0 0 90.638615570039974 55.905308891716231 0 55.905308891716231 4.7178485953008931 0 0 0 0 31.246818549487216 12.441893853800138 0 12.441893853800138 -3.7895734717817504 0 0 0 0 -9.3914848728463767 26.318745153054806 0 26.318745153054806 52.96218147467664 0 0 0 0 5.1614865164892763 15.979949325208509 0 15.979949325208509 25.122855727402566 0 0 0 0 15.677009343598911 46.449109889023021 0 46.449109889023021 94.178842558271299 0 0 0 0 35.229482997801824 35.62596451446916 0 35.62596451446916 -5.4531614175994036 0 0 0 0 2.6424454067737315 19.772874282237353 0 19.772874282237353 -41.569863635242655 0 0 0 0 10.06668680337134 39.923297952098437 0 39.923297952098437 -4.1640606511700753 0 0 0 0 12.403057608731615 39.381359475845784 0 39.381359475845784 -34.233150685423425 0 0 0 0 0.039247248103499111 0.036998898101197497 0 0.036998898101197497 0.4756981784030998 0 0 0 0 15.983342655901538 11.050763113611538 0 11.050763113611538 -1.4556581643882964 0 0 0 0 -5.4745058505109228 0.49028895254150484 0 0.49028895254150484 20.479776688109268 0 0 0 0 14.460137769090579 2.2693769900470215 0 2.2693769900470215 18.661147479525425 0 0 0 0 24.379989754607323 -11.366440947092087 0 -11.366440947092087 -17.763210435425208 0 0 0 0 0.0068859363451405642 -0.19408066697414394 0 -0.19408066697414394 1.5413534049126483 0 0 0 0 18.717512429555427 8.7754533943034403 0 8.7754533943034403 8.9361619020537546 0 0 0 0 15.932541431300251 4.5321427258863878 0 4.5321427258863878 2.4919711128550261 0 0 0 0 9.7981010141290881 12.119068854905208 0 12.119068854905208 4.6504913158551062 0 0 0 0 7.0896520524015614 9.2932235847997617 0 9.2932235847997617 10.803009322144135 0 0 0 0 15.893474449457244 6.7195372076528201 0 6.7195372076528201 8.1258620933876955 0 0 0 0 13.86550872351836 5.3936941582633153 0 5.3936941582633153 12.182735727279578 0 0 0 0 18.598520938854108 19.186550371010071 0 19.186550371010071 6.3414281057976041 0 0 0 0 -8.1919647124132098 9.7925684564961557 0 9.7925684564961557 2.0994134723250681 0 0 0 0 -1.8496540226490339 0.52401157707144108 0 0.52401157707144108 0.66684369944633914 0 0 0 0 -5.9325234956568238 -6.4741257229561597 0 -6.4741257229561597 4.5488888466206845 0 0 0 0 -18.603935563438426 1.8846871159630609 0 1.8846871159630609 18.128802698329309 0 0 0 0 -0.24122610940303146 8.7624285954937058 0 8.7624285954937058 7.1424600786868524 0 0 0 0 -0.43223563880246729 13.722102689494477 0 13.722102689494477 10.571122979071333 0 0 0 0 0.48279914557297454 5.4933947598047457 0 5.4933947598047457 1.6776645393726142 0 0 0 0 3.3235474143170176 5.9278280013533049 0 5.9278280013533049 4.7099967101404197 0 0 0 0 -2.5208044229403868 8.0787500632026479 0 8.0787500632026479 1.4648769873074343 0 0 0 0 16.277728643103387 6.9202665915916839 0 6.9202665915916839 -17.117640556667538 0 0 0 0 -25.029210322919425 23.033581198699721 0 23.033581198699721 17.622873909402188 0 0 0 0 -6.0457542713684234 25.618682263159371 0 25.618682263159371 -4.1985050948223943 0 0 0 0 5.3267155213670776 12.632745122437882 0 12.632745122437882 10.428365017198303 0 0 0 0 -0.89351077298136561 4.851009208476416 0 4.851009208476416 3.7467319086706325 0 0 0 0 2.404592687231343 6.4515039092975712 0 6.4515039092975712 2.05885160293019 0 0 0 0 1.600412455730293 6.3625704405167198 0 6.3625704405167198 2.1583740458618195 0 0 0 0 1.5100220446638559 6.1507312407411519 0 6.1507312407411519 1.8113057439586555 0 0 0 0 4.8332075453803736 4.3903904011374166 0 4.3903904011374166 2.9999221610717015 0 0 0 0 1.4596234449873009 6.744882469818549 0 6.744882469818549 1.6017074261735615 0 0 0 0 117.10988557589008 3.6450634857656041 0 3.6450634857656041 -100.71502339514245 0 0 0 0 0.70674047613533375 0.26154855593902937 0 0.26154855593902937 -0.78535574419667498 0 0 0 0 189.73320438647022 -51.368821002850837 0 -51.368821002850837 -82.718941557959624 0 0 0 0 100.72738142536036 80.089355771377086 0 80.089355771377086 -39.313915117567376 0 0 0 0 0.74639021129815042 1.5030509352585373 0 1.5030509352585373 -0.11602690878267907 0 0 0 0 111.91907777408414 -56.968125991257693 0 -56.968125991257693 596.1353029908496 0 0 0 0 7.2066437158068766 7.2247113336657094 0 7.2247113336657094 -1.1309469283769431 0 0 0 0 82.07295931972476 746.21663786844147 0 746.21663786844147 11.572417490640873 0 0 0 0 7.2451361668754544 4.6845970920167019 0 4.6845970920167019 2.7708077920124197 0 0 0 0 9.4757535990593169 4.6188098119009737 0 4.6188098119009737 -2.9614387567853555 0 0 0 0 8.6215918449215678 8.3957645349396444 0 8.3957645349396444 -4.5629861790021096 0 0 0 0 0.70036342044841149 13.183627875572711 0 13.183627875572711 4.6211237830929122 0 0 0 0 -68.194044554417815 42.661631614797443 0 42.661631614797443 90.79059666812185 0 0 0 0 -10.785508156070591 22.464654489710483 0 22.464654489710483 -18.801046374619546 0 0 0 0 -42.079755605047012 -3.2130044247955993 0 -3.2130044247955993 36.897426413408539 0 0 0 0 -37.018451374073265 13.11148783546605 0 13.11148783546605 -87.474124518625104 0 0 0 0 -72.242589336583478 30.617710100706972 0 30.617710100706972 -19.487688640530678 0 0 0 0 -53.883311119852806 17.268493803321689 0 17.268493803321689 -0.17726910484907421 0 0 0 0 -21.556259777655214 10.535312521545166 0 10.535312521545166 -4.9368570364408697 0 0 0 0 -5.5637491158176999 -1.480346734720456 0 -1.480346734720456 48.320797031939946 0 0 0 0 -28.536342780702398 -9.1832229461815587 0 -9.1832229461815587 7.6116457676957907 0 0 0 0 0.60822631193321897 -0.42739570415201555 0 -0.42739570415201555 -0.75281720735903335 0 0 0 0 -13.725380853382376 20.349127256104111 0 20.349127256104111 -6.2661446397494274 0 0 0 0 -20.184332528348023 5.6831363913011046 0 5.6831363913011046 -38.282659338970916 0 0 0 0 -32.711424936220283 -18.561866542024291 0 -18.561866542024291 30.977531812584857 0 0 0 0 -189.28327658175476 91.719426487443343 0 91.719426487443343 -11.985785344345004 0 0 0 0 -97.918086297502668 178.56919278050827 0 178.56919278050827 -25.585829321575147 0 0 0 0 -51.142363690431011 44.401518758577367 0 44.401518758577367 2.3347300349478246 0 0 0 0 -77.811735443652196 117.17952303852917 0 117.17952303852917 -145.5572960517311 0 0 0 0 -16.086082450927279 183.96390454900029 0 183.96390454900029 -89.722496894692085 0 0 0 0 0.56412527047903183 1.2919611419985095 0 1.2919611419985095 0.49331799170044555 0 0 0 0 -5.5682286075880256 207.44881048577099 0 207.44881048577099 -509.02433019209093 0 0 0 0 -37.887059976030741 39.327301447974151 0 39.327301447974151 -222.01832890576406 0 0 0 0 -32.933249758022498 37.625170170875776 0 37.625170170875776 -222.50011717495545 0 0 0 0 6.9182722069226656 -28.805803383525927 0 -28.805803383525927 33.359846995006592 0 0 0 0 -30.34034158779923 -22.663628400634479 0 -22.663628400634479 461.6444600124164 0 0 0 0 16.675710582422653 137.45305017607279 0 137.45305017607279 133.68626332074382 0 0 0 0 -26.983829866755286 6.0023983088631212 0 6.0023983088631212 -82.142437880542275 0 0 0 0 -197.08818736959358 145.67151932136446 0 145.67151932136446 -61.742980540217104 0 0 0 0 -198.16462998639508 44.982665306069975 0 44.982665306069975 30.763025329666561 0 0 0 0 -61.958707402342043 126.8583643441998 0 126.8583643441998 -256.70346063724537 0 0 0 0 -1.7496397396399388 -0.16593721274550077 0 -0.16593721274550077 -0.22999861651691145 0 0 0 0 -34.214719680579037 55.107142184686381 0 55.107142184686381 -80.092014022226067 0 0 0 0 -121.33306466434806 62.297091824779272 0 62.297091824779272 7.0797383828212332 0 0 0 0 -118.63296527280636 59.205152936624472 0 59.205152936624472 -0.23352797192001162 0 0 0 0 -92.517756577739419 63.483839243635884 0 63.483839243635884 -0.065371900083846413 0 0 0 0 -83.638688613395971 66.017425025552257 0 66.017425025552257 -0.22484112737402029 0 0 0 0 -126.37337753847078 79.578009725757511 0 79.578009725757511 25.272300811750029 0 0 0 0 -64.810264627354627 56.193845834763124 0 56.193845834763124 -2.6682956743698014 0 0 0 0 -46.729761839202183 -27.075887654459621 0 -27.075887654459621 139.81612825080356 0 0 0 0 -117.97285010567043 96.731201882027563 0 96.731201882027563 -37.784713473021839 0 0 0 0 -0.56052359769686788 0.19655372609416943 0 0.19655372609416943 0.25498128715652868 0 0 0 0 -105.52701661529954 63.951373978578886 0 63.951373978578886 -13.817226970113552 0 0 0 0 -33.258860375650329 -7.5935985229925791 0 -7.5935985229925791 -9.8833574463305922 0 0 0 0 -0.8853531996755386 0.47803801769588006 0 0.47803801769588006 0.53813011695731561 0 0 0 0 -26.574248863112871 5.8592551993331199 0 5.8592551993331199 -2.4740663328211667 0 0 0 0 10.395908433792556 -2.4971251696019863 0 -2.4971251696019863 46.652788973549832 0 0 0 0 -36.263096442664391 32.703987421223246 0 32.703987421223246 41.779329324698665 0 0 0 0 -14.514821625994955 -11.731732715692488 0 -11.731732715692488 66.736197431307119 0 0 0 0 2.1004578388483424 50.124849658674975 0 50.124849658674975 30.68070902425643 0 0 0 0 3.8992698420964871 29.119333121858176 0 29.119333121858176 -38.503934831154766 0 0 0 0 15.558229296648278 61.454823224723441 0 61.454823224723441 37.311416914324582 0 0 0 0 42.775323278065116 77.579302973450467 0 77.579302973450467 -8.2687864950912626 0 0 0 0 4.2574621369276429 68.44697785014796 0 68.44697785014796 278.23184639093961 0 0 0 0 55.652968461882665 107.83294586687498 0 107.83294586687498 43.82176627584704 0 0 0 0 140.50291244628897 61.044444006463891 0 61.044444006463891 -103.10415943428688 0 0 0 0 13.157936064159003 88.224032719841489 0 88.224032719841489 129.31054289753956 0 0 0 0 2.1910752102703555 59.011080578922702 0 59.011080578922702 53.978142692611073 0 0 0 0 3.3534658734438061 0.84445359303029122 0 0.84445359303029122 -0.71261953482505724 0 0 0 0 -10.396803223893812 -41.058404350432738 0 -41.058404350432738 43.119844372075022 0 0 0 0 2.4698029099463383 6.3098199053806638 0 6.3098199053806638 0.48294889978205902 0 0 0 0 187.37360628756505 -58.076414851831942 0 -58.076414851831942 -1.1252711253118832 0 0 0 0 0.41549625200673113 4.0813976529709786 0 4.0813976529709786 -0.39052776207466877 0 0 0 0 0.35314691271823229 1.2548024160960587 0 1.2548024160960587 0.49043246946892793 0 0 0 0 2.3168402749188317 5.7432468143624646 0 5.7432468143624646 -0.84899484566994943 0 0 0 0 0.33384472917919084 8.196928887416334 0 8.196928887416334 -7.2527344080463081 0 0 0 0 1.1142412590241584 3.5270295776841358 0 3.5270295776841358 0.6360546962357656 0 0 0 0 1.2634757841269675 5.4017187142353578 0 5.4017187142353578 0.76781199034121528 0 0 0 0 1.3091848379908129 5.9492790938150506 0 5.9492790938150506 3.8753841081343126 0 0 0 0 -24.130034242282818 35.023409033976691 0 35.023409033976691 -88.662678614622564 0 0 0 0 -0.44328020154495573 1.4511719737657547 0 1.4511719737657547 0.067192703302183077 0 0 0 0 1.8121921667778587 4.069428916913715 0 4.069428916913715 0.88557341877992979 0 0 0 0 2.2262058689630067 36.973910388504009 0 36.973910388504009 -53.396074161891192 0 0 0 0 -1.0786037528087036 0.62500908007496037 0 0.62500908007496037 -46.457246206144191 0 0 0 0 -23.045200892385765 51.740363360622723 0 51.740363360622723 -105.95863938470484 0 0 0 0 -5.3164095769683151 0.57338753616108562 0 0.57338753616108562 1.1702725193550663 0 0 0 0 -12.062089568651572 10.372831421960655 0 10.372831421960655 28.716695068682384 0 0 0 0 -15.478759096944486 30.757601877970956 0 30.757601877970956 -90.788180770512554 0 0 0 0 -38.802478913770756 49.473055005782953 0 49.473055005782953 -72.64596354321111 0 0 0 0 -37.660533293848857 50.214792975206365 0 50.214792975206365 -82.165340119320717 0 0 0 0 -27.594350637940806 29.325313790444852 0 29.325313790444852 -47.771573947669822 0 0 0 0 -40.024125076602104 60.901285473978533 0 60.901285473978533 -52.376522266284155 0 0 0 0 -74.878435220889514 82.708272829342604 0 82.708272829342604 -61.207473263049906 0 0 0 0 -55.114011340402612 48.024800119482279 0 48.024800119482279 -4.1847308541764505 0 0 0 0 -15.006600188567973 28.664790156646632 0 28.664790156646632 -84.350250044866698 0 0 0 0 -17.958408452244839 29.409357657876171 0 29.409357657876171 -39.258164208287781 0 0 0 0 -5.80046315850268 52.598353370740369 0 52.598353370740369 -43.623017674428866 0 0 0 0 -24.507700274267336 33.108889259172429 0 33.108889259172429 -5.070945430197753 0 0 0 0 -12.182481661329803 46.432087625129498 0 46.432087625129498 1.7631862804573757 0 0 0 0 42.520050083056958 51.220394417378884 0 51.220394417378884 -2.6647856998333737 0 0 0 0 -11.431387969434127 22.645652836649333 0 22.645652836649333 63.216460459398149 0 0 0 0 -38.046418174493738 64.502491894516425 0 64.502491894516425 -2.5860094021260238 0 0 0 0 -41.661852039969745 50.878118607381111 0 50.878118607381111 -9.054269688270324 0 0 0 0 -92.188005652840729 58.463461376913983 0 58.463461376913983 47.340308479864689 0 0 0 0 -53.626659681567617 97.837086920049842 0 97.837086920049842 19.073981735488815 0 0 0 0 -61.568703887558968 94.201358984685385 0 94.201358984685385 122.50212002999979 0 0 0 0 -0.097237095293749576 0.49233639632990034 0 0.49233639632990034 -0.25710426653726515 0 0 0 0 0.55863430341196363 48.513678642813829 0 48.513678642813829 -82.435450492785094 0 0 0 0 3.4931182852378697 22.69938820770949 0 22.69938820770949 25.892834168194895 0 0 0 0 12.227624853700036 20.309199604533205 0 20.309199604533205 -15.121689971458181 0 0 0 0 36.233334534478672 74.965842165938739 0 74.965842165938739 -9.2931938746228298 0 0 0 0 -0.005473548340095391 0.80334580264842614 0 0.80334580264842614 -0.52542298153958811 0 0 0 0 57.024294759172335 56.601947949856367 0 56.601947949856367 5.397539953542946 0 0 0 0 -14.489075013136244 -19.04702905517297 0 -19.04702905517297 -74.392386461503975 0 0 0 0 14.141927839077653 20.9048699205714 0 20.9048699205714 37.729000332203213 0 0 0 0 14.456508130495422 25.687116082648572 0 25.687116082648572 26.614706037736141 0 0 0 0 22.653607967635253 27.657744706879839 0 27.657744706879839 8.2232677586507634 0 0 0 0 14.275523309060191 40.025863730696074 0 40.025863730696074 -12.181814706924342 0 0 0 0 -5.6284515934339652 44.81164541709677 0 44.81164541709677 24.071463890012183 0 0 0 0 -2.1982332044708528 48.343723625040184 0 48.343723625040184 11.190005116017346 0 0 0 0 -20.255375575894504 65.205063407371199 0 65.205063407371199 -0.93073573399192355 0 0 0 0 -26.173412159962027 54.797652911989644 0 54.797652911989644 10.570825278033226 0 0 0 0 -82.635254092761443 46.778832732870796 0 46.778832732870796 28.956830414648721 0 0 0 0 -63.156094105006559 48.321783384764785 0 48.321783384764785 25.400139161842162 0 0 0 0 -61.861519187426893 94.020663746854552 0 94.020663746854552 -26.474473711436985 0 0 0 0 -2.1471796002624615 40.269697190933584 0 40.269697190933584 42.086279045109222 0 0 0 0 -42.731406674846653 27.356365117671089 0 27.356365117671089 40.297310339199612 0 0 0 0 -37.756642558040028 63.246363786833626 0 63.246363786833626 26.326977305734545 0 0 0 0 -24.44718869316057 34.749927114788534 0 34.749927114788534 23.887592259843586 0 0 0 0 -28.809235204193101 36.910758555129178 0 36.910758555129178 42.328845414876923 0 0 0 0 -37.337844357042741 38.412894956383752 0 38.412894956383752 74.688086906986427 0 0 0 0 -17.094670103594581 -19.616645951125065 0 -19.616645951125065 9.3895889735795208 0 0 0 0 -21.587685315773797 -5.9915089439241456 0 -5.9915089439241456 61.091313643930334 0 0 0 0 -19.829249590490235 3.7440480990508149 0 3.7440480990508149 10.287637123465174 0 0 0 0 -15.897194908938218 11.412614296701577 0 11.412614296701577 -3.1683465650839935 0 0 0 0 -16.138006087561735 11.741884025258514 0 11.741884025258514 25.233206588762812 0 0 0 0 -16.982322940349604 10.387491816917191 0 10.387491816917191 1.2256361868894601 0 0 0 0 -18.84086246067568 6.0304132089729592 0 6.0304132089729592 5.521141340082977 0 0 0 0 -14.237473693672655 37.764105454705714 0 37.764105454705714 -8.0810197117043572 0 0 0 0 -6.2616501449942916 27.438649733462171 0 27.438649733462171 11.569108098909055 0 0 0 0 -9.6247532721133666 15.622622801369516 0 15.622622801369516 -28.635578069670373 0 0 0 0 -18.287784193960761 36.961757652804408 0 36.961757652804408 4.2955909798538414 0 0 0 0 -44.522699056926285 48.054731142420678 0 48.054731142420678 24.489599179085417 0 0 0 0 -84.013776446861812 70.609378824958185 0 70.609378824958185 26.841353085046762 0 0 0 0 -72.906567559947234 66.526562026710508 0 66.526562026710508 17.450703311435063 0 0 0 0 -30.409486646507503 28.576188247633581 0 28.576188247633581 19.873557317334416 0 0 0 0 -43.166093038619692 25.238651440107787 0 25.238651440107787 42.65088229583489 0 0 0 0 -46.287431726450791 26.465416137328532 0 26.465416137328532 46.089275598718814 0 0 0 0 -68.765442356228959 43.355923716398138 0 43.355923716398138 40.247331227438281 0 0 0 0 -37.470445441035736 8.4452102935356379 0 8.4452102935356379 41.382660660778129 0 0 0 0 -24.388082214041333 6.6350295627694322 0 6.6350295627694322 41.578115047268511 0 0 0 0 -47.765616155393218 2.7823996689876367 0 2.7823996689876367 54.701718120262683 0 0 0 0 -95.81013445870758 41.397365404307493 0 41.397365404307493 53.979056761218089 0 0 0 0 -19.082332926658637 -7.288178726701517 0 -7.288178726701517 53.478596438455497 0 0 0 0 -50.903655973985224 -2.061191696023343 0 -2.061191696023343 75.619501120365385 0 0 0 0 -37.868247153332049 51.425573351701132 0 51.425573351701132 65.770365932617324 0 0 0 0 0.0061298669755727175 -0.19268237098047614 0 -0.19268237098047614 0.69549230011872964 0 0 0 0 -93.012066855171724 4.7987074416876681 0 4.7987074416876681 27.193451274182735 0 0 0 0 -68.322353954505161 11.026952056661685 0 11.026952056661685 66.702327583694569 0 0 0 0 -65.074858338026388 48.24702888333286 0 48.24702888333286 46.456827385169163 0 0 0 0 -114.87723941119839 69.097800884916978 0 69.097800884916978 50.079854501433147 0 0 0 0 -96.347637367637617 65.067782054206873 0 65.067782054206873 44.293614472422632 0 0 0 0 -88.178756989003887 88.821009725597833 0 88.821009725597833 42.530142229373951 0 0 0 0 -208.13193777877041 131.62761673904697 0 131.62761673904697 48.84165454304366 0 0 0 0 -138.53776036243744 99.222767584643407 0 99.222767584643407 41.550750332461348 0 0 0 0 -106.15416176096284 112.77605058649348 0 112.77605058649348 40.187041886190855 0 0 0 0 -132.33535579060197 54.978829580174988 0 54.978829580174988 48.586099057771207 0 0 0 0 -190.92631710813112 55.584842339653733 0 55.584842339653733 56.791192289254468 0 0 0 0 -211.53790402346658 47.768650592314771 0 47.768650592314771 60.82369194293824 0 0 0 0 -156.08349200679322 -33.348934984164543 0 -33.348934984164543 10.098082942922701 0 0 0 0 -91.284381889462566 8.1827302766032517 0 8.1827302766032517 25.335111626078742 0 0 0 0 -21.270234654179831 -0.63209724683815693 0 -0.63209724683815693 4.5672426412857021 0 0 0 0 0.18853901295488562 -0.61636326130777874 0 -0.61636326130777874 1.8799528136400241 0 0 0 0 -0.96054268304552437 -0.91333206754921115 0 -0.91333206754921115 3.0691066004511569 0 0 0 0 -12.560092192008597 1.0458385246813577 0 1.0458385246813577 7.203829699788912 0 0 0 0 -4.8677664542447019 2.5902483448282965 0 2.5902483448282965 -0.0020067643290531123 0 0 0 0 -6.792899455613469 2.21635359554422 0 2.21635359554422 0.23529704311562294 0 0 0 0 -6.7489602187233686 2.1030123889395327 0 2.1030123889395327 0.22604958574447664 0 0 0 0 -135.70130767603041 129.57942468893975 0 129.57942468893975 -125.82469237796431 0 0 0 0 -2.0470508346506904 0.18016832808217131 0 0.18016832808217131 0.53014190387964055 0 0 0 0 -1.4416250183373691 -0.25953977706385523 0 -0.25953977706385523 0.053410228182144692 0 0 0 0 -111.41611018187359 -17.644705680542756 0 -17.644705680542756 4.1380468264642332 0 0 0 0 -282.34286006542879 -149.43602372121131 0 -149.43602372121131 -38.694929952169332 0 0 0 0 -360.12584608913403 91.577514573875305 0 91.577514573875305 63.72598159356312 0 0 0 0 -243.69869641065725 30.821040517787878 0 30.821040517787878 -215.28096596095202 0 0 0 0 -435.71370836992901 41.937863925479178 0 41.937863925479178 0.24480047247197945 0 0 0 0 -247.9494094435297 44.768639891964426 0 44.768639891964426 28.685777303693612 0 0 0 0 -146.59519432869638 118.58371969434575 0 118.58371969434575 -0.16253234668693531 0 0 0 0 -122.55187068586019 92.960145443528745 0 92.960145443528745 -30.441755464789821 0 0 0 0 -11.865235611373009 5.2072658645915908 0 5.2072658645915908 4.6354373296471749 0 0 0 0 -12.154291710847247 5.1453966090739414 0 5.1453966090739414 4.8273036552196515 0 0 0 0 -13.883320034070493 6.8775339496478409 0 6.8775339496478409 4.130629501389194 0 0 0 0 -14.608824134112183 4.732002064970402 0 4.732002064970402 5.1474760118035192 0 0 0 0 -16.383546922289497 8.3119599449585166 0 8.3119599449585166 5.8335996458263253 0 0 0 0 -12.797288648247559 5.4359703692616677 0 5.4359703692616677 4.8297269908278366 0 0 0 0 -10.621308412296457 -0.041952422925533028 0 -0.041952422925533028 9.015830001453196 0 0 0 0 -12.510179064101862 3.6520984608979461 0 3.6520984608979461 4.5515643864164304 0 0 0 0 -9.652785609098828 3.9870418308473745 0 3.9870418308473745 4.471392514392619 0 0 0 0 -7.8713042057297571 1.4137872441388026 0 1.4137872441388026 3.1523549361502319 0 0 0 0 -9.390557196285954 3.3716140639971854 0 3.3716140639971854 4.5176618353776803 0 0 0 0 -8.887829596685151 4.0998261546665162 0 4.0998261546665162 5.5688659916886536 0 0 0 0 -10.505995059768793 3.5997840526970322 0 3.5997840526970322 7.5359007103506883 0 0 0 0 -7.3387352501786154 2.8190881969985639 0 2.8190881969985639 0.003858715124806622 0 0 0 0 -7.1832828246556346 4.3654647971998202 0 4.3654647971998202 2.502103329052261 0 0 0 0 -8.6409448049541453 2.2498408286868994 0 2.2498408286868994 -0.078421797669719906 0 0 0 0 -7.0547839636794833 5.0511766256577175 0 5.0511766256577175 -0.0018172527197748423 0 0 0 0 -9.0468561627994859 3.1173107815257026 0 3.1173107815257026 4.8649491621472407 0 0 0 0 -10.382778199813316 2.8172734167245324 0 2.8172734167245324 -0.33821152352123263 0 0 0 0 -12.070457251816151 7.4595892105980965 0 7.4595892105980965 3.8300749550235196 0 0 0 0 -11.175840470513776 5.9456139836170223 0 5.9456139836170223 1.1780759131415834 0 0 0 0 -21.212609758686995 0.86846108422923862 0 0.86846108422923862 7.0041603992067394 0 0 0 0 -0.91417053066813558 -0.37294252635600422 0 -0.37294252635600422 -0.088727188882344876 0 0 0 0 20.551710905995606 14.723173746475368 0 14.723173746475368 0.0089793911793094594 0 0 0 0 2.1051763024561296 9.591998983587473 0 9.591998983587473 7.4000897634468856 0 0 0 0 17.394664017319428 24.402925914510888 0 24.402925914510888 21.546928321215091 0 0 0 0 13.41595742709876 18.609507570488859 0 18.609507570488859 0.01208590237183671 0 0 0 0 16.438246178623103 14.62679072037281 0 14.62679072037281 5.1190153593161085 0 0 0 0 39.66110589291111 13.310945965775318 0 13.310945965775318 4.7519165474377587 0 0 0 0 46.402825688980101 13.879006009704426 0 13.879006009704426 -12.897482380001748 0 0 0 0 10.688760763598111 14.004872965519098 0 14.004872965519098 14.615561088585309 0 0 0 0 10.60195770334758 15.345460526400132 0 15.345460526400132 10.800516160816187 0 0 0 0 43.264935019254608 21.101651342468358 0 21.101651342468358 -1.7903732062994493 0 0 0 0 -7.9777691328796809 5.9135529670477904 0 5.9135529670477904 -3.4457093553150813 0 0 0 0 -12.016701120296432 8.088314156976935 0 8.088314156976935 4.0076833018229081 0 0 0 0 0.16250961950085063 2.2053680784687515 0 2.2053680784687515 -0.80152990508027178 0 0 0 0 2.8615482876619467 35.689162805211481 0 35.689162805211481 1.9853943461512245 0 0 0 0 19.42837121787079 29.900777288209611 0 29.900777288209611 0.0082884947223647032 0 0 0 0 3.7503761856739857 32.407003378732497 0 32.407003378732497 11.1130484285477 0 0 0 0 -7.8820515374695788 21.638768384987998 0 21.638768384987998 9.8805201815866894 0 0 0 0 -37.718787761249132 -1.2066670847516434 0 -1.2066670847516434 13.092296994129356 0 0 0 0 -41.119683798071037 43.918793309787361 0 43.918793309787361 10.656599442844708 0 0 0 0 26.316045927233517 39.977540504130957 0 39.977540504130957 -0.53271975751340506 0 0 0 0 11.505741106960556 33.238832977873926 0 33.238832977873926 14.146119939632626 0 0 0 0 8.8878169943689045 28.631550051382874 0 28.631550051382874 10.85009981730218 0 0 0 0 0.096096718657000757 0.21467922060883993 0 0.21467922060883993 -0.89575587809434865 0 0 0 0 26.603964742866083 32.547106909928516 0 32.547106909928516 2.5627479394806869 0 0 0 0 6.2201376288422239 50.708687176693502 0 50.708687176693502 -7.2720474082088913 0 0 0 0 -40.428191084177371 -56.595974405928175 0 -56.595974405928175 4.0678514789142355 0 0 0 0 17.703864015744102 18.225134058145159 0 18.225134058145159 22.638253342225653 0 0 0 0 3.0172124540097229 9.8388189639645134 0 9.8388189639645134 18.095608782759882 0 0 0 0 -12.552496616183817 8.1986935359600466 0 8.1986935359600466 5.4133093504096905 0 0 0 0 -12.504603056229826 8.3993266273191693 0 8.3993266273191693 3.9021764206072476 0 0 0 0 -37.730920118412797 78.134744606380437 0 78.134744606380437 5.227032140666779 0 0 0 0 18.477003287226125 -13.377255214704746 0 -13.377255214704746 -12.973209042413146 0 0 0 0 -4.0059850066381841 20.868463564032936 0 20.868463564032936 7.1927623297342507 0 0 0 0 -2.303788582787206 12.705783817776478 0 12.705783817776478 2.69859743690904 0 0 0 0 -7.6076342263079528 6.6149019910626183 0 6.6149019910626183 -4.2232307052908453 0 0 0 0 2.7963394672569848 8.4249972547349898 0 8.4249972547349898 6.9288473429788837 0 0 0 0 -18.279535680483605 15.744911285413764 0 15.744911285413764 5.5404665822479728 0 0 0 0 -14.972882651099098 7.0485924581616928 0 7.0485924581616928 3.405500392369504 0 0 0 0 -29.672800345788346 3.2232271586417482 0 3.2232271586417482 -2.7971765034990312 0 0 0 0 -25.380941105789475 24.725493085376115 0 24.725493085376115 -8.1779612920145155 0 0 0 0 1.546229548307565 -1.1176576986381406 0 -1.1176576986381406 -25.677429672357448 0 0 0 0 0.24228084502483149 0.29294844074481219 0 0.29294844074481219 -0.24330290784846653 0 0 0 0 -1.0666682497003421 -1.2207544969896844 0 -1.2207544969896844 -6.2773040002866765 0 0 0 0 -0.52631227341043996 18.630015538945372 0 18.630015538945372 -31.132872338154812 0 0 0 0 2.8580760756376549 8.7895251693362297 0 8.7895251693362297 -17.803015317120298 0 0 0 0 -0.31282946596130046 12.639168738382665 0 12.639168738382665 -11.467180316096346 0 0 0 0 5.4180124156064267 12.401960936171236 0 12.401960936171236 -12.484673658098473 0 0 0 0 -7.6953253703441078 12.299478494215691 0 12.299478494215691 0.17690306120948662 0 0 0 0 -8.1055924854541104 18.216400315682563 0 18.216400315682563 -1.85127948349691 0 0 0 0 -33.65558762051478 29.556168815830461 0 29.556168815830461 13.460080525283388 0 0 0 0 5.485945018066559 24.323732704604481 0 24.323732704604481 1.0395887347476673 0 0 0 0 -8.5824214926386695 6.3490078948151529 0 6.3490078948151529 -3.6896027923110495 0 0 0 0 13.553178283343186 18.808698868390366 0 18.808698868390366 -8.5463156595687906 0 0 0 0 -0.92788924512024096 12.954265147283877 0 12.954265147283877 -1.0152255498906015 0 0 0 0 -1.2746634343366168 15.116920931204731 0 15.116920931204731 -9.1468644319975283 0 0 0 0 3.8861269450317195 18.431309640367544 0 18.431309640367544 -7.0355507346630475 0 0 0 0 5.4367134025565065 13.570774643170807 0 13.570774643170807 9.471039052332344 0 0 0 0 -1.6352694018236962 1.2991458992234559 0 1.2991458992234559 -1.7082766805693694 0 0 0 0 -18.067568964348538 -8.5784426712475579 0 -8.5784426712475579 0.075554419250693172 0 0 0 0 2.5476418999692569 1.1707737439448689 0 1.1707737439448689 -1.865892766837888 0 0 0 0 5.2825256913172325 14.298638760200447 0 14.298638760200447 6.0881006438139593 0 0 0 0 -3.2247462565651404 3.1547976719380131 0 3.1547976719380131 -25.205515205056145 0 0 0 0 -4.2220161874774931 2.5182809853322397 0 2.5182809853322397 -2.9982731680938741 0 0 0 0 -14.938638877243648 7.2635035490020528 0 7.2635035490020528 -1.0071699117042954 0 0 0 0 -3.4884317010669985 4.8758149808113025 0 4.8758149808113025 -3.7037494895411314 0 0 0 0 -1.5945190179663769 5.38940306092627 0 5.38940306092627 -0.072496418169976096 0 0 0 0 -10.061339989097778 8.2301358517309886 0 8.2301358517309886 -5.5271094964938463 0 0 0 0 3.0361858145479346 3.9053026941401185 0 3.9053026941401185 -5.8024387544064666 0 0 0 0 -9.7411552353262501 6.1668086281249526 0 6.1668086281249526 -1.4204409717186444 0 0 0 0 0.10795537289523693 2.5410681072889503 0 2.5410681072889503 0.50864079178072075 0 0 0 0 1.0432901970125386 9.2907033452065662 0 9.2907033452065662 -6.1932003057722795 0 0 0 0 2.2840729883391759 9.8131503870572487 0 9.8131503870572487 -7.2283505947602862 0 0 0 0 -3.4367659868048577 12.116472088443516 0 12.116472088443516 -7.9041329864012368 0 0 0 0 -3.0032882730984056 10.427964126211918 0 10.427964126211918 -4.2068293854863441 0 0 0 0 -5.9364714999082935 25.445822558367581 0 25.445822558367581 -29.476202877151081 0 0 0 0 -4.8974866583430412 18.338631713154882 0 18.338631713154882 -18.474276711225684 0 0 0 0 -4.1498007057307404 14.542995458325095 0 14.542995458325095 -3.4399498525199306 0 0 0 0 -11.395699827913631 18.429345145603293 0 18.429345145603293 -4.4310493332727674 0 0 0 0 -16.749112807379788 29.378245567626436 0 29.378245567626436 -0.92888618600591144 0 0 0 0 -13.062316253025074 18.713801851186872 0 18.713801851186872 6.9457304398347333 0 0 0 0 -0.83665453934372636 17.515684467778556 0 17.515684467778556 3.6835052349870239 0 0 0 0 -15.783679380525427 17.477487916847167 0 17.477487916847167 7.7599695051794697 0 0 0 0 -16.558308122998142 19.73922535208203 0 19.73922535208203 5.495427285815822 0 0 0 0 -21.149214206832767 12.905230485507673 0 12.905230485507673 5.0284643006780243 0 0 0 0 -12.479046305082647 1.0645506553737505 0 1.0645506553737505 2.8044133328767202 0 0 0 0 -8.5084558296557589 13.523982360943592 0 13.523982360943592 3.8477173540377407 0 0 0 0 7.3710964153297027 11.219509638545787 0 11.219509638545787 20.400680117839329 0 0 0 0 -0.18365604240242472 0.3735991880766738 0 0.3735991880766738 0.87505608450810968 0 0 0 0 -4.611185380189454 4.6762048043542563 0 4.6762048043542563 -0.39113115075633687 0 0 0 0 21.990725736176046 28.784879603252648 0 28.784879603252648 19.809339329411159 0 0 0 0 15.010470908368916 24.65501951942133 0 24.65501951942133 36.49688721190978 0 0 0 0 -0.12831225599003204 0.27955432232549526 0 0.27955432232549526 0.36008209232200983 0 0 0 0 3.4325243171342663 7.7418071681231595 0 7.7418071681231595 -4.6526278315504896 0 0 0 0 -40.430371414495767 11.381943251271878 0 11.381943251271878 -0.15403868173598312 0 0 0 0 0.92429267940575244 1.3384627412754497 0 1.3384627412754497 1.3064235837075451 0 0 0 0 -3.3028560110916345 2.3914215113286303 0 2.3914215113286303 1.2795113345855498 0 0 0 0 23.405550933998121 52.813060405026135 0 52.813060405026135 33.129361438332126 0 0 0 0 35.119942158311915 29.003900020425135 0 29.003900020425135 11.578344701056267 0 0 0 0 -10.762558626716505 43.793720118153942 0 43.793720118153942 13.691212418260875 0 0 0 0 22.926081096273531 48.257160677528873 0 48.257160677528873 -7.4308609616819012 0 0 0 0 6.220016083852574 32.02296496744475 0 32.02296496744475 -19.460407659450539 0 0 0 0 13.722728418563861 -4.9565714176997062 0 -4.9565714176997062 -77.000730450785341 0 0 0 0 0.1456297867612506 0.20850723128700821 0 0.20850723128700821 -0.39454268516794855 0 0 0 0 21.278502966613814 17.967289888656524 0 17.967289888656524 -20.251736474667268 0 0 0 0 -6.2369803533785575 8.2824847593227133 0 8.2824847593227133 -7.0378388114250043 0 0 0 0 1.6750717928154017 5.8645558940597766 0 5.8645558940597766 7.5255876251794689 0 0 0 0 -30.448348659514522 1.7183151886583801 0 1.7183151886583801 1.0416623152232205 0 0 0 0 -15.080145505203291 15.956469620985445 0 15.956469620985445 -3.3345846080883348 0 0 0 0 18.21491847705056 -6.9435345280389811 0 -6.9435345280389811 6.0896079163394461 0 0 0 0 -3.1455214405087721 1.0673767854628391 0 1.0673767854628391 -0.85471549988746176 0 0 0 0 15.713546765529941 3.603594241596511 0 3.603594241596511 4.1226720041158842 0 0 0 0 -5.3494078443309263 10.296774866248597 0 10.296774866248597 3.8223917614853917 0 0 0 0 -31.244014813941249 49.378862966805173 0 49.378862966805173 -58.753724901456735 0 0 0 0 -4.3409979872830284 4.7777089021953358 0 4.7777089021953358 -4.4028455585474902 0 0 0 0 -0.36373050605686785 5.4184255899267555 0 5.4184255899267555 -2.2663446226033557 0 0 0 0 -52.580549073907605 5.8139466551619989 0 5.8139466551619989 38.781574666802044 0 0 0 0 -18.200553595355814 35.60996134314064 0 35.60996134314064 -17.817829384592187 0 0 0 0 -7.0220669363647961 6.282752055299726 0 6.282752055299726 -2.9064270390272071 0 0 0 0 0.89030619257707055 1.0715626773306326 0 1.0715626773306326 -0.98148296401983259 0 0 0 0 35.315594178854099 18.789704018039629 0 18.789704018039629 5.7609533982285939 0 0 0 0 5.2919847337450818 -2.1234030355990399 0 -2.1234030355990399 -13.208783722055159 0 0 0 0 32.609046729622719 21.970105765981316 0 21.970105765981316 6.6727235759062751 0 0 0 0 37.98443063449929 22.428988022065369 0 22.428988022065369 5.5953532948406064 0 0 0 0 54.555741641610894 23.38302327416659 0 23.38302327416659 1.5959255439665867 0 0 0 0 36.997535336958549 16.841748230410303 0 16.841748230410303 6.5633628405030322 0 0 0 0 39.853825809700538 17.779719606769504 0 17.779719606769504 5.5864960957187577 0 0 0 0 -1.683624675613828 -10.589853919787856 0 -10.589853919787856 11.669287590790191 0 0 0 0 -1.4351462688142025 0.43757969106715322 0 0.43757969106715322 0.68852145983692026 0 0 0 0 -23.665997837873647 18.8728622489798 0 18.8728622489798 0.45726819225092186 0 0 0 0 -0.79399828081785562 0.79842745854676167 0 0.79842745854676167 1.4945997667456439 0 0 0 0 -1.9898241349110348 4.8838281844286584 0 4.8838281844286584 -4.9471467060282635 0 0 0 0 -14.533036763953532 8.2355817053175997 0 8.2355817053175997 -4.0853343733469956 0 0 0 0 -5.34537175150313 4.1289191385423001 0 4.1289191385423001 -3.7226105697782828 0 0 0 0 -0.21704679888534884 8.8003490887949738 0 8.8003490887949738 -8.1211471439819434 0 0 0 0 1.3045820997504052 12.731110134125629 0 12.731110134125629 -9.4587626286738669 0 0 0 0 5.6576154925196533 11.722759390042484 0 11.722759390042484 -9.4250039688231482 0 0 0 0 -46.705759341845805 2.5291854875467834 0 2.5291854875467834 25.725951740572782 0 0 0 0 4.2556684338228479 12.614939409824729 0 12.614939409824729 3.8670068424544297 0 0 0 0 -1.6318495070063497 1.711418707584599 0 1.711418707584599 -0.71629541581366141 0 0 0 0 4.4949855722570646 8.1373503447139228 0 8.1373503447139228 -8.091240945215759 0 0 0 0 -6.884813776321721 24.684872855717003 0 24.684872855717003 -5.5594482610467821 0 0 0 0 -1.2057656464939726 5.265605844931315 0 5.265605844931315 -9.1712234072256251 0 0 0 0 0.0048994160065376491 12.171546820298317 0 12.171546820298317 8.3370146055749501 0 0 0 0 1.527990242728265 13.81723896940639 0 13.81723896940639 10.070894310305448 0 0 0 0 136.51503106977077 18.763008498473937 0 18.763008498473937 -2.6245575838389641 0 0 0 0 45.122516529481913 13.076819436952064 0 13.076819436952064 -2.9738160520464589 0 0 0 0 27.031026945385577 41.008847126073761 0 41.008847126073761 34.036917508303304 0 0 0 0 48.476807054449523 34.986027421608014 0 34.986027421608014 14.212119639671982 0 0 0 0 45.404806960638638 39.935553407465932 0 39.935553407465932 12.529664585181308 0 0 0 0 29.268256391217449 31.573550713615077 0 31.573550713615077 10.681795445779244 0 0 0 0 28.190978562270956 44.502700397029855 0 44.502700397029855 6.5922464802970353 0 0 0 0 20.838771223461137 21.009540345127562 0 21.009540345127562 -1.6908389736272511 0 0 0 0 36.050046762537818 36.660996402280034 0 36.660996402280034 13.591282003948436 0 0 0 0 35.131960890224605 46.161129567032276 0 46.161129567032276 58.239992508812065 0 0 0 0 26.324742223718545 14.106008704718988 0 14.106008704718988 4.0566439652775443 0 0 0 0 -1.0485157332191193 24.840704577445649 0 24.840704577445649 14.595520487595422 0 0 0 0 -17.015993931608762 26.981736805290893 0 26.981736805290893 45.660588526581705 0 0 0 0 3.7379571490414492 9.5798501408880838 0 9.5798501408880838 9.2186639231135814 0 0 0 0 0.054556730117141239 -0.17713417129539355 0 -0.17713417129539355 0.71463914971469222 0 0 0 0 88.586889763319448 63.395603678304269 0 63.395603678304269 20.654788647823807 0 0 0 0 49.455805165807533 7.215229325931432 0 7.215229325931432 14.565696739616214 0 0 0 0 59.124303112738744 46.629113414244785 0 46.629113414244785 4.9591637656394596 0 0 0 0 16.799736439158323 49.703835297186743 0 49.703835297186743 42.291716960927488 0 0 0 0 27.651699703631962 31.267653745395933 0 31.267653745395933 -2.3051426387792162 0 0 0 0 30.4362869784824 27.809404584820186 0 27.809404584820186 -0.017222243748619803 0 0 0 0 24.800423677119625 34.117681994222949 0 34.117681994222949 -3.9662470459697943 0 0 0 0 9.1867226939666704 0.78346085263478926 0 0.78346085263478926 -7.202445707980587 0 0 0 0 -49.996147485898831 2.6417519394562987 0 2.6417519394562987 6.8334668579991558 0 0 0 0 23.989468577804644 27.624348900067162 0 27.624348900067162 -1.2225748672244663 0 0 0 0 11.254070226995282 10.416754959944228 0 10.416754959944228 -6.8855510229341235 0 0 0 0 -2.5936432825820077 24.013026067075771 0 24.013026067075771 -0.017162165044283029 0 0 0 0 -0.0036035411569332459 -0.34371905797103852 0 -0.34371905797103852 -0.089621574755192057 0 0 0 0 17.820057264938942 3.9910790759466863 0 3.9910790759466863 -7.6688041959496331 0 0 0 0 -18.399873811709313 -5.795412699827466 0 -5.795412699827466 10.454910274042049 0 0 0 0 -41.666391248619448 19.308727729577186 0 19.308727729577186 3.8999555159250576 0 0 0 0 -29.742116041847794 6.9574194797514792 0 6.9574194797514792 6.437395594371992 0 0 0 0 -12.29315240074618 14.465786505084907 0 14.465786505084907 0.013817012963045272 0 0 0 0 -38.516837233582919 18.614966498049398 0 18.614966498049398 0.0094022287753397459 0 0 0 0 -36.5780702581132 19.026630416082298 0 19.026630416082298 -0.60948095391722745 0 0 0 0 -49.803882475062665 29.068846938900606 0 29.068846938900606 -5.2116723321796599 0 0 0 0 -33.880082801782464 29.447469953310247 0 29.447469953310247 -24.595335709065694 0 0 0 0 -41.336411322239144 16.729071480292987 0 16.729071480292987 -3.6647689058827382 0 0 0 0 -71.992930585059298 34.721215018957992 0 34.721215018957992 -6.3416886925333529 0 0 0 0 -41.193643612184587 46.696162787927278 0 46.696162787927278 -60.726542523003445 0 0 0 0 -25.535819944157311 34.696048684390007 0 34.696048684390007 -40.065128498972626 0 0 0 0 -34.914224371623504 31.683802491594179 0 31.683802491594179 -24.837494009413945 0 0 0 0 -23.278629276800416 26.483243044473056 0 26.483243044473056 -57.153055802180461 0 0 0 0 -6.945400919339022 1.3220224701517509 0 1.3220224701517509 -19.968322636103039 0 0 0 0 -46.583236703511147 72.175681515445831 0 72.175681515445831 -96.986011317459997 0 0 0 0 -0.9384434090584306 0.46799585155776668 0 0.46799585155776668 0.059359884740816327 0 0 0 0 -116.47297244033689 45.343446215084441 0 45.343446215084441 -18.691071890834792 0 0 0 0 -43.232164376436913 -11.094768043849399 0 -11.094768043849399 -13.944311996449102 0 0 0 0 -28.30313464621733 4.15481486488261 0 4.15481486488261 19.391448533564471 0 0 0 0 9.1639514019515431 6.8533605835710318 0 6.8533605835710318 -27.559614237878122 0 0 0 0 -0.012170734827000186 -0.10913113257048068 0 -0.10913113257048068 -0.16347746921710637 0 0 0 0 -41.184168309186362 18.073281184308144 0 18.073281184308144 5.1493067598462403 0 0 0 0 -42.146286470809287 12.169859129913675 0 12.169859129913675 -12.459959190884547 0 0 0 0 1.8150861579169941 2.9761468974456875 0 2.9761468974456875 -1.3410561975415476 0 0 0 0 -4.9556900115048848 7.8924177858334588 0 7.8924177858334588 -12.426630622531775 0 0 0 0 -6.6881719391772094 9.5211053732709843 0 9.5211053732709843 0.80161357051656523 0 0 0 0 -6.9675025170561184 9.0003228589384889 0 9.0003228589384889 -0.0034453048174327705 0 0 0 0 -0.5081247075267612 0.43983835684347383 0 0.43983835684347383 0.39471239027137273 0 0 0 0 -6.9450807345847352 6.8991056595496048 0 6.8991056595496048 -2.8998498647197266 0 0 0 0 -12.769097248076775 12.777307659495932 0 12.777307659495932 -14.016009104188925 0 0 0 0 -4.4672159666620246 7.8130785431640106 0 7.8130785431640106 -11.050288587348859 0 0 0 0 -16.960983611234269 17.007889652521499 0 17.007889652521499 -6.2071287782582658 0 0 0 0 -33.965775060002215 24.648778094898489 0 24.648778094898489 -8.4573618465001346 0 0 0 0 -22.434515209854453 14.064932569005578 0 14.064932569005578 -0.010847160471778873 0 0 0 0 -30.829632098774937 22.329779413892993 0 22.329779413892993 -8.7481942235226597 0 0 0 0 -0.4100738757266944 0.38273704442093504 0 0.38273704442093504 0.29864337772172078 0 0 0 0 -10.52902800485117 19.165155158622838 0 19.165155158622838 -29.523453268286175 0 0 0 0 -1.0051182224956392 4.2468292219846262 0 4.2468292219846262 -19.684296090750649 0 0 0 0 -13.227222233992961 -3.6671480591521686 0 -3.6671480591521686 51.621600774234139 0 0 0 0 -2.3784040433204368 0.69222351166947149 0 0.69222351166947149 0.18408437341750616 0 0 0 0 -4.2193614192779023 4.2979654988812399 0 4.2979654988812399 -11.409017426889477 0 0 0 0 -0.530420982082763 0.44018008294601785 0 0.44018008294601785 0.37959400922323283 0 0 0 0 -3.4074404422126463 5.215077299796576 0 5.215077299796576 -10.893120877532056 0 0 0 0 -3.1970103931275844 5.1866197125377766 0 5.1866197125377766 -11.306930732935143 0 0 0 0 -3.3601778691582211 0.67660598648479109 0 0.67660598648479109 0.17210359902078221 0 0 0 0 -9.6050713866527531 7.4196012572347172 0 7.4196012572347172 29.861244658753776 0 0 0 0 -4.258771331400161 1.0492037500506406 0 1.0492037500506406 0.38929949057613733 0 0 0 0 -7.4304844659004061 4.934628270041344 0 4.934628270041344 16.490469782767832 0 0 0 0 -6.8233350873658765 2.7179369886684981 0 2.7179369886684981 -1.6127557291511039 0 0 0 0 -7.1051823518598667 4.0722542958692429 0 4.0722542958692429 -8.0812715653082705 0 0 0 0 3.1978580892880473 3.320409786019809 0 3.320409786019809 -18.339876905156416 0 0 0 0 1.547610919776556 3.2059538407598716 0 3.2059538407598716 1.5845493127397106 0 0 0 0 6.9549974726038499 -4.5008694047423887 0 -4.5008694047423887 -0.1736855128146999 0 0 0 0 3.2775852889224097 9.08722207462597 0 9.08722207462597 3.1950290775675967 0 0 0 0 3.207015432589742 12.885608443315505 0 12.885608443315505 -16.887645029100213 0 0 0 0 -0.17506906994467464 0.21507894653344195 0 0.21507894653344195 0.43906355877677328 0 0 0 0 -9.1713982444310602 -4.8511516179073624 0 -4.8511516179073624 5.3943603317329689 0 0 0 0 -8.1111227767930814 23.065736102138544 0 23.065736102138544 -4.3426771174399619 0 0 0 0 -0.069824680012342988 0.39122797526902175 0 0.39122797526902175 0.60448441104162498 0 0 0 0 -10.526774245660818 3.3157945283128356 0 3.3157945283128356 0.99732203817620757 0 0 0 0 -6.3593542569478814 17.27174684041529 0 17.27174684041529 -12.693894943166015 0 0 0 0 -15.115430831776479 6.2016682489122559 0 6.2016682489122559 7.0273081870109309 0 0 0 0 -0.11742745749279493 7.4149851518304786 0 7.4149851518304786 6.8135085296817124 0 0 0 0 3.4776018703769296 -7.7421774073372944 0 -7.7421774073372944 20.261563558462512 0 0 0 0 0.55077236429292498 4.2673114101398824 0 4.2673114101398824 10.181014204994426 0 0 0 0 -9.0208873770402533 12.982650444195315 0 12.982650444195315 37.646262345539071 0 0 0 0 -4.7490857469002776 -0.8030649593574708 0 -0.8030649593574708 28.845101139642793 0 0 0 0 0.41070071878777981 3.3494056340441603 0 3.3494056340441603 -11.541838681712761 0 0 0 0 -1.7693029052018119 7.9500294231520456 0 7.9500294231520456 9.1189461011854291 0 0 0 0 2.5561818130200891 18.172562061074132 0 18.172562061074132 -18.625759878612826 0 0 0 0 -10.861467755237982 11.935742205251699 0 11.935742205251699 17.087545287507965 0 0 0 0 -0.16124215256003271 0.2279765319877427 0 0.2279765319877427 0.43326075249814266 0 0 0 0 2.0845038616157581 24.640751304961668 0 24.640751304961668 13.084471167589982 0 0 0 0 10.37440599152967 21.789689080718745 0 21.789689080718745 -8.4058264536142815 0 0 0 0 -2.5129782784551935 16.705645873593312 0 16.705645873593312 -0.43959975313555333 0 0 0 0 -1.6541766397131141 13.400233210642909 0 13.400233210642909 9.3899538195091736 0 0 0 0 -7.7137786232642611 9.9681932617859275 0 9.9681932617859275 11.984386490444194 0 0 0 0 -12.555948545448643 4.7882780885729517 0 4.7882780885729517 6.6967497255791386 0 0 0 0 -4.1374846067189992 1.5670815248531653 0 1.5670815248531653 -5.0328184421086917 0 0 0 0 0.77824610002312511 3.34816209294695 0 3.34816209294695 6.7979411892156349 0 0 0 0 1.9960701919872008 8.2812595893628895 0 8.2812595893628895 1.2308103742670937 0 0 0 0 -7.4058948734933665 7.4533360802322477 0 7.4533360802322477 10.371586317396577 0 0 0 0 -2.2674020108411241 9.2707481095731055 0 9.2707481095731055 -0.59764837340480881 0 0 0 0 -2.001226464260526 5.6360839688077249 0 5.6360839688077249 8.0576597061372013 0 0 0 0 0.22730481903954569 11.083682621181651 0 11.083682621181651 3.7208509094189139 0 0 0 0 4.3687529629290962 4.3552225186437798 0 4.3552225186437798 3.5172912006997592 0 0 0 0 4.7373099720384744 11.990515125853108 0 11.990515125853108 -5.9770087183642318 0 0 0 0 -0.82748870936883634 2.3661261245166401 0 2.3661261245166401 1.3252506548203549 0 0 0 0 6.0860898065307083 13.469563531247729 0 13.469563531247729 14.220760838688875 0 0 0 0 2.871154399558236 5.2120235199195122 0 5.2120235199195122 -0.16490057434566552 0 0 0 0 0.15975210828219133 4.3672358499625261 0 4.3672358499625261 2.187732349801081 0 0 0 0 1.2867034073743522 3.7134003741546451 0 3.7134003741546451 1.6196148392900334 0 0 0 0 2.1081838037627776 3.8590339074233482 0 3.8590339074233482 2.0512599426479667 0 0 0 0 2.9279882676701163 5.2964963919494039 0 5.2964963919494039 -0.88686025184870232 0 0 0 0 -0.53662314863868232 6.182483490638333 0 6.182483490638333 1.70432376601957 0 0 0 0 1.7117266201182701 4.0091283940332687 0 4.0091283940332687 -0.61493779708325746 0 0 0 0 3.6633149852896869 2.9147053955931401 0 2.9147053955931401 1.2237023585746485 0 0 0 0 4.6117620317401133 -1.6342411078212535 0 -1.6342411078212535 1.9029031866884907 0 0 0 0 1.4119175323035051 8.9737802074196225 0 8.9737802074196225 0.84851023232477019 0 0 0 0 -33.541659893245196 45.855990338170159 0 45.855990338170159 8.2615758744032064 0 0 0 0 -0.013451461051625119 -0.10644977289072122 0 -0.10644977289072122 -0.10045682859351501 0 0 0 0 -69.864800898137474 40.331270615669382 0 40.331270615669382 9.3754226353466947 0 0 0 0 -60.780728737508241 44.646909031461291 0 44.646909031461291 -15.160569766026242 0 0 0 0 -37.304480425376255 -3.211714742777076 0 -3.211714742777076 31.812861329290172 0 0 0 0 -68.723814179631034 28.604834962820632 0 28.604834962820632 15.285119927559208 0 0 0 0 -3.128375735051236 15.026524469345532 0 15.026524469345532 24.460017856596096 0 0 0 0 -7.0066240634655514 -17.674972439772318 0 -17.674972439772318 38.687016890401537 0 0 0 0 -0.91790211340145333 10.723729412701687 0 10.723729412701687 -2.5747448027632345 0 0 0 0 -32.146469118366895 9.9212354663131919 0 9.9212354663131919 21.529185157930442 0 0 0 0 -16.151067917071373 22.8359886033968 0 22.8359886033968 12.761994313792457 0 0 0 0 2.3494046572208944 16.225677737080844 0 16.225677737080844 -3.0376452843192965 0 0 0 0 -1.4178420897123942 11.590299469076854 0 11.590299469076854 0.6776589720739139 0 0 0 0 -22.486770682606114 20.082941706593829 0 20.082941706593829 3.0511060394856031 0 0 0 0 -22.688058477950335 18.381762572642401 0 18.381762572642401 14.599455473705348 0 0 0 0 -24.626679989065451 24.703501138535103 0 24.703501138535103 15.36040662443429 0 0 0 0 -47.317080349494745 27.978292790241085 0 27.978292790241085 14.937239067137853 0 0 0 0 -14.153332043990668 34.253742843242435 0 34.253742843242435 6.8470166926199454 0 0 0 0 -24.425257913483364 31.288203868080018 0 31.288203868080018 6.3408307580830297 0 0 0 0 4.0832883035383105 20.194512686393978 0 20.194512686393978 -6.2731064842591877 0 0 0 0 -14.198404303913406 21.644398460080993 0 21.644398460080993 -2.9221371787180033 0 0 0 0 17.954513856247114 4.9177752733037607 0 4.9177752733037607 0.15424052730304538 0 0 0 0 -16.578747806547312 14.014304122607427 0 14.014304122607427 -26.197930669626658 0 0 0 0 -31.557626530350092 29.057031556034417 0 29.057031556034417 -9.2006297044281382 0 0 0 0 -31.564122017083605 19.161777464158149 0 19.161777464158149 2.9577716765584228 0 0 0 0 -25.757075077144464 20.049025141310267 0 20.049025141310267 -26.87927443042463 0 0 0 0 -52.113506046631585 33.842727983392706 0 33.842727983392706 -30.929630713118968 0 0 0 0 -45.237614605741186 11.189411009613195 0 11.189411009613195 -25.773907392795081 0 0 0 0 63.291799324112219 147.82627530356331 0 147.82627530356331 -148.51855821336812 0 0 0 0 -1.2815867956673088 26.880461545673825 0 26.880461545673825 -97.125773469375417 0 0 0 0 1.6148128152662622 19.305712518173095 0 19.305712518173095 161.9265003816181 0 0 0 0 10.850853721127578 69.909955768103828 0 69.909955768103828 9.5669256027968004 0 0 0 0 -1.7031135564222275 367.51235352226649 0 367.51235352226649 180.89254133420673 0 0 0 0 121.14117730181599 233.42085606585169 0 233.42085606585169 -49.989727985463105 0 0 0 0 0.62536800934913217 0.79606099554260012 0 0.79606099554260012 0.18494804299912637 0 0 0 0 1.1797655587797635 18.666546463864506 0 18.666546463864506 34.938600959285395 0 0 0 0 180.2584784140075 303.56611589465683 0 303.56611589465683 -438.62590803930652 0 0 0 0 401.46171123120723 110.17724731199633 0 110.17724731199633 -387.29488802377091 0 0 0 0 -123.36991161523395 -52.519188472509995 0 -52.519188472509995 15.036714305570058 0 0 0 0 -41.546921770764584 18.234408432648706 0 18.234408432648706 47.581768104671937 0 0 0 0 -2.7388422387793305 2.1095631973667324 0 2.1095631973667324 0.9318350745986983 0 0 0 0 -29.5830384197086 8.5486326266145625 0 8.5486326266145625 40.838302183583437 0 0 0 0 -12.055270164755257 30.387246439599039 0 30.387246439599039 74.46288302315952 0 0 0 0 -15.892316891777227 -1.1748193236562656 0 -1.1748193236562656 46.619096173013531 0 0 0 0 12.462941435637731 15.180146450271423 0 15.180146450271423 34.158383152276656 0 0 0 0 -1.0952196566771635 1.4152005043230282 0 1.4152005043230282 0.95069289206721663 0 0 0 0 -6.8867818659196018 25.137259376181873 0 25.137259376181873 22.394632230609204 0 0 0 0 36.974137173832105 20.963857534467024 0 20.963857534467024 10.27260968072369 0 0 0 0 -15.128750414050973 5.0140851893901939 0 5.0140851893901939 4.4056153889155674 0 0 0 0 16.068505588897096 28.24859661874325 0 28.24859661874325 -1.9464575705478637 0 0 0 0 5.6426293458113168 6.613026847027264 0 6.613026847027264 3.1493699614598967 0 0 0 0 -4.8186642789514735 11.871260640764376 0 11.871260640764376 12.250512026017532 0 0 0 0 -2.8280465386387732 29.20636980944073 0 29.20636980944073 21.637364276135713 0 0 0 0 -7.918647741994846 34.145036041336425 0 34.145036041336425 22.074183705566611 0 0 0 0 -36.097585694157715 -5.4721063045708433 0 -5.4721063045708433 10.98352722921345 0 0 0 0 -23.789546574911583 16.2306588818401 0 16.2306588818401 17.946064193445636 0 0 0 0 -24.031181381743863 4.7826587320923863 0 4.7826587320923863 41.18711415236794 0 0 0 0 -28.912061931574499 24.249971347544488 0 24.249971347544488 32.186124457056394 0 0 0 0 6.8596316135426605 17.193663596434817 0 17.193663596434817 31.231089720054115 0 0 0 0 15.591321383204104 21.800904399329738 0 21.800904399329738 -16.633976566114143 0 0 0 0 53.923526669701687 39.050905271362353 0 39.050905271362353 39.426372126074966 0 0 0 0 -0.0028210512402839782 0.58273979560665978 0 0.58273979560665978 -1.1916917628149797 0 0 0 0 6.8154200998480974 8.194052796624117 0 8.194052796624117 -6.0680905817923012 0 0 0 0 23.9821110161447 13.786348538193124 0 13.786348538193124 -11.104341638774713 0 0 0 0 -43.365285481273531 35.552488385550532 0 35.552488385550532 106.92654580137969 0 0 0 0 177.12364418732341 180.63140605187164 0 180.63140605187164 159.42724584789539 0 0 0 0 0.034178296576741429 2.0347834751559812 0 2.0347834751559812 -0.54433910670762486 0 0 0 0 -25.415012671189288 -45.165862271782316 0 -45.165862271782316 -61.981007875247087 0 0 0 0 -10.668611286122541 23.821126811946669 0 23.821126811946669 -14.642908319608978 0 0 0 0 5.2331298581502779 16.761685743449561 0 16.761685743449561 -19.373269415107643 0 0 0 0 4.6632272470269527 26.117826594949292 0 26.117826594949292 -17.491603608242258 0 0 0 0 15.593945116233044 18.765811768156709 0 18.765811768156709 -23.785281101045257 0 0 0 0 19.965028911592526 23.756021016284649 0 23.756021016284649 -18.672356339129692 0 0 0 0 20.519025479714401 16.911130660895651 0 16.911130660895651 -23.135428076512653 0 0 0 0 3.3538475881525338 2.6791980253652916 0 2.6791980253652916 2.1032189459578525 0 0 0 0 6.6560929380623319 4.9643566057994306 0 4.9643566057994306 2.2796878097698787 0 0 0 0 17.200561837185887 6.8172604552764824 0 6.8172604552764824 8.4736384562511375 0 0 0 0 17.795078525598001 18.135157480244743 0 18.135157480244743 -20.206517542893835 0 0 0 0 2.12696215834535 16.300101223066122 0 16.300101223066122 -21.026270841986843 0 0 0 0 -4.3372809804642429 12.20645012390014 0 12.20645012390014 -20.967456465597934 0 0 0 0 2.1712677640480749 1.4144096973886526 0 1.4144096973886526 0.30891098272501694 0 0 0 0 -26.231515319022947 -10.510632699093549 0 -10.510632699093549 14.648319973081016 0 0 0 0 -18.14625604128446 38.533093281865149 0 38.533093281865149 -61.59198018936695 0 0 0 0 -5.8229286766354562 18.500798175406089 0 18.500798175406089 -46.913307733944748 0 0 0 0 -29.258110654237868 28.455079489889158 0 28.455079489889158 -17.385895899391471 0 0 0 0 -17.333350213115807 21.562415092581887 0 21.562415092581887 -4.8885578267909295 0 0 0 0 -17.674036667753967 23.601820774708358 0 23.601820774708358 -16.149476797709212 0 0 0 0 0.52436860423563303 18.284775154209001 0 18.284775154209001 -8.0892588876668015 0 0 0 0 1.0450273611779721 17.779633807516802 0 17.779633807516802 -23.491578870233752 0 0 0 0 6.8071235899681142 12.126395791847244 0 12.126395791847244 -18.299326187443512 0 0 0 0 7.2896573650878054 14.782371434741435 0 14.782371434741435 -6.6714469494563673 0 0 0 0 1.8599993792709029 12.477460108026207 0 12.477460108026207 -3.3416299922837425 0 0 0 0 2.8188986790542003 10.125267559110398 0 10.125267559110398 -0.68360022827619105 0 0 0 0 8.8002167629947188 0.82819570205084503 0 0.82819570205084503 -6.6095389658732628 0 0 0 0 6.2081841459858751 3.8372092690216917 0 3.8372092690216917 1.2030806254073028 0 0 0 0 2.325547801092398 6.4528995870932704 0 6.4528995870932704 -9.2140075733259437 0 0 0 0 21.738917774050606 3.8496812371495253 0 3.8496812371495253 -17.340541050507454 0 0 0 0 9.433914368848491 8.8027776597846241 0 8.8027776597846241 -30.497204978106311 0 0 0 0 4.6260844981478915 4.9171400402902776 0 4.9171400402902776 3.0368239139566171 0 0 0 0 9.5036868949491691 8.347043500853033 0 8.347043500853033 -41.701662472711178 0 0 0 0 0.82521576991140577 0.068842542828022601 0 0.068842542828022601 -1.0344271753561287 0 0 0 0 -2.4884580002662915 8.3785121307937516 0 8.3785121307937516 -4.081058085766017 0 0 0 0 3.0388559923658249 -0.34746837644343032 0 -0.34746837644343032 8.5099713134550257 0 0 0 0 18.086303692609363 20.59693514020546 0 20.59693514020546 -1.9847058449358883 0 0 0 0 5.0575702377963587 4.7085804557294573 0 4.7085804557294573 1.4015770818083713 0 0 0 0 13.223043206233342 1.0639239161282603 0 1.0639239161282603 -3.5140531833894784 0 0 0 0 15.404915705449866 6.8784077586751664 0 6.8784077586751664 -6.5966143870828091 0 0 0 0 4.9853907110238822 4.2371687935538773 0 4.2371687935538773 3.1320515789812688 0 0 0 0 -6.9129578879310429 11.514647233738287 0 11.514647233738287 15.983706869459638 0 0 0 0 5.2059086753265547 7.6751417823725205 0 7.6751417823725205 -10.316264611843508 0 0 0 0 4.6098960871718866 3.8937895049250528 0 3.8937895049250528 0.94638771647573172 0 0 0 0 -0.7710008809892468 1.189463017596978 0 1.189463017596978 0.99051645595293536 0 0 0 0 -0.68035072265774943 -4.1782045596955868 0 -4.1782045596955868 -9.0171270634741632 0 0 0 0 4.1565872742830834 -4.0181702301251789 0 -4.0181702301251789 -2.6044636767132943 0 0 0 0 7.6059338001314245 -4.7225952564908766 0 -4.7225952564908766 -48.207624595215748 0 0 0 0 -65.524488246320971 57.543146127374257 0 57.543146127374257 -30.467971965928882 0 0 0 0 1.1255462890890158 -3.1297484027281826 0 -3.1297484027281826 -8.4145340712755115 0 0 0 0 0.3696019959694139 -0.087446987814047361 0 -0.087446987814047361 -1.4488252175896292 0 0 0 0 20.313737279228008 17.218665852327831 0 17.218665852327831 -84.587994932218862 0 0 0 0 -29.711222534131593 78.572701757617324 0 78.572701757617324 -46.65450714527833 0 0 0 0 19.608316175498885 16.288317657063544 0 16.288317657063544 -37.883670962830365 0 0 0 0 0.51911735609098741 25.655161240299776 0 25.655161240299776 12.376211707512994 0 0 0 0 -8.8174860269155033 56.187555862055888 0 56.187555862055888 41.655873390193847 0 0 0 0 15.102759238196882 -26.998216429502691 0 -26.998216429502691 36.101417435213079 0 0 0 0 -91.375788171964814 -9.0144175930786332 0 -9.0144175930786332 40.045022702193819 0 0 0 0 -4.8548379314543126 51.947880672249084 0 51.947880672249084 -59.392459887782024 0 0 0 0 47.703452361533891 -7.5950189836403297 0 -7.5950189836403297 -14.638068905128421 0 0 0 0 7.0842734572624977 11.099017008535156 0 11.099017008535156 -13.163974456525466 0 0 0 0 25.003221541032872 20.659560001224236 0 20.659560001224236 -30.272269346623943 0 0 0 0 19.049884388216924 13.719573038208182 0 13.719573038208182 -30.060643899036222 0 0 0 0 -0.66009854788877398 -0.27110579639809629 0 -0.27110579639809629 0.52032727230417208 0 0 0 0 7.6750893932075996 14.6052185731387 0 14.6052185731387 -34.690668180672219 0 0 0 0 -7.6804495132018928 24.853205037449698 0 24.853205037449698 -28.250135798884003 0 0 0 0 8.9904309637386177 22.263140225806637 0 22.263140225806637 -34.509020455680002 0 0 0 0 15.744194148755923 32.723096549105321 0 32.723096549105321 -25.625121338029203 0 0 0 0 1.3561444871738786 17.318702604930877 0 17.318702604930877 5.1005537635865039 0 0 0 0 13.594664038299015 23.024652200230776 0 23.024652200230776 -34.762485461039887 0 0 0 0 3.4760299921458682 42.111866492510444 0 42.111866492510444 3.9795398541791656 0 0 0 0 0.82614324756286805 17.037852628542169 0 17.037852628542169 35.615592871723493 0 0 0 0 4.624728679639702 33.269608200438597 0 33.269608200438597 23.710808962277952 0 0 0 0 7.7585221532244759 29.581800789452245 0 29.581800789452245 10.983767284840724 0 0 0 0 1.5442963207879075 29.1355371445934 0 29.1355371445934 26.935495180892758 0 0 0 0 3.3795479567343136 26.303860880922002 0 26.303860880922002 30.020270220491511 0 0 0 0 10.503054775723285 31.511667330876662 0 31.511667330876662 26.765126961210171 0 0 0 0 3.1251046118395607 36.640607513407303 0 36.640607513407303 37.546987942343549 0 0 0 0 -0.32270817155222176 26.93340154552061 0 26.93340154552061 28.715285169637355 0 0 0 0 -1.755274284087136 30.430014112846948 0 30.430014112846948 32.143491512644687 0 0 0 0 5.7850203590987803 32.364551488404686 0 32.364551488404686 19.716203379182843 0 0 0 0 0.68358818436900037 27.023563353822169 0 27.023563353822169 17.889282544187154 0 0 0 0 6.43332344854025 25.705384375125504 0 25.705384375125504 -0.36942024741438217 0 0 0 0 12.586798361980982 26.331761340512458 0 26.331761340512458 -11.442337207066885 0 0 0 0 25.715773416375441 1.936833296516852 0 1.936833296516852 12.829881392288371 0 0 0 0 6.3868901614150673 20.100944782279839 0 20.100944782279839 16.310047910425055 0 0 0 0 4.5173971073163557 16.105744590888207 0 16.105744590888207 33.863734583319456 0 0 0 0 26.292032902128994 11.115999863475736 0 11.115999863475736 -7.1314967501875799 0 0 0 0 12.061015215511361 2.101481935926131 0 2.101481935926131 41.051208139528171 0 0 0 0 -2.8865586826323124 19.194252043380402 0 19.194252043380402 54.391970691405731 0 0 0 0 -3.8500725583171516 36.745540039840307 0 36.745540039840307 35.502579739089924 0 0 0 0 2.5150896737563695 8.1039336799985584 0 8.1039336799985584 -8.4051138522264388 0 0 0 0 -1.0551311054038557 2.5961412406202484 0 2.5961412406202484 1.9219317166472543 0 0 0 0 1.6803086565105332 36.883059398001933 0 36.883059398001933 45.037269473185006 0 0 0 0 12.614570305147936 37.152366854374122 0 37.152366854374122 30.213939092165674 0 0 0 0 -2.0584818403585814 41.878867140905186 0 41.878867140905186 105.79292230790816 0 0 0 0 3.3436073359371221 23.683771417927346 0 23.683771417927346 27.342022976776434 0 0 0 0 -4.9282075805967906 20.89362950908253 0 20.89362950908253 27.503508562365141 0 0 0 0 5.8880887400482607 32.974098959337425 0 32.974098959337425 23.133971610412118 0 0 0 0 -3.9210164197345048 5.4257725149544989 0 5.4257725149544989 0.45745035608696583 0 0 0 0 11.93216739460695 37.22613811514384 0 37.22613811514384 35.430642226583586 0 0 0 0 23.818658933916595 30.244175133448152 0 30.244175133448152 30.441509576749013 0 0 0 0 19.143115818447768 12.306163675008065 0 12.306163675008065 31.814974136706951 0 0 0 0 19.484081964159486 30.87718721876081 0 30.87718721876081 24.874964446722515 0 0 0 0 14.245668115432636 47.692318161258299 0 47.692318161258299 87.630313670920941 0 0 0 0 0.0989331955945012 0.92968402704900299 0 0.92968402704900299 -5.1765907512129532 0 0 0 0 27.975763558639301 32.548827989730853 0 32.548827989730853 22.721372435436933 0 0 0 0 14.161516918337838 9.9433948831920134 0 9.9433948831920134 -19.747086583696728 0 0 0 0 12.672750791643921 45.106345471023815 0 45.106345471023815 9.2852686674323195 0 0 0 0 7.4662037758471342 16.755647426527048 0 16.755647426527048 11.802825891885732 0 0 0 0 8.6473448639480921 34.418450886233586 0 34.418450886233586 -43.08563217756182 0 0 0 0 3.0799166653901011 45.360436956439116 0 45.360436956439116 34.330223477074469 0 0 0 0 8.0432263684515419 4.6203407415532638 0 4.6203407415532638 -45.98410331732066 0 0 0 0 -1.8346462949375564 29.376719849940855 0 29.376719849940855 -8.1905165524658514 0 0 0 0 -2.0666446266050116 6.9190239860099609 0 6.9190239860099609 -22.144208781515772 0 0 0 0 -4.8867102799989652 14.708959901224262 0 14.708959901224262 -14.776250243390677 0 0 0 0 -6.4903148314060672 30.80961782916529 0 30.80961782916529 -27.302131995909804 0 0 0 0 -2.7890536121654605 15.91887469724756 0 15.91887469724756 2.8128452967939666 0 0 0 0 1.2351850543527689 25.953555768122897 0 25.953555768122897 -8.8896161877455597 0 0 0 0 1.7067445854954713 15.004855275226873 0 15.004855275226873 -8.609682647860609 0 0 0 0 -6.4285009156519664 31.066558613067173 0 31.066558613067173 17.840611425624957 0 0 0 0 -2.5076998188321795 30.5959132854872 0 30.5959132854872 9.360237638829858 0 0 0 0 -0.59955673421791289 17.529097811868269 0 17.529097811868269 14.061848835916862 0 0 0 0 8.7454920981981559 25.276600763872921 0 25.276600763872921 -6.7420415762026096 0 0 0 0 -13.231231153305998 -6.73311096696807 0 -6.73311096696807 -16.190211708983043 0 0 0 0 -15.983291306823048 17.022311850014376 0 17.022311850014376 88.694244354088369 0 0 0 0 2.7608882738110871 2.6356778061799915 0 2.6356778061799915 -2.593241793596146 0 0 0 0 10.876891382460599 18.25265316585137 0 18.25265316585137 -27.686135648715663 0 0 0 0 -1.1091634254733869 6.5231243756618156 0 6.5231243756618156 -5.3167826183677214 0 0 0 0 8.9184882838962949 45.117628412306658 0 45.117628412306658 51.08064443225885 0 0 0 0 10.889622279393734 13.31833271188043 0 13.31833271188043 39.124027950352684 0 0 0 0 10.883025629995444 8.4608539589815486 0 8.4608539589815486 0.090511702400708494 0 0 0 0 10.715418248440983 34.20536052130501 0 34.20536052130501 -4.4334375372063732 0 0 0 0 -3.5622208806344133 8.6027608147487626 0 8.6027608147487626 28.95444532816623 0 0 0 0 -0.66536978245048317 6.9536775390609407 0 6.9536775390609407 -1.2125413407906969 0 0 0 0 0.40071631176761002 25.411591364108972 0 25.411591364108972 0.45136029842615244 0 0 0 0 -3.5965855770559187 7.3171860054155964 0 7.3171860054155964 -1.6487266732028978 0 0 0 0 6.0335039326546394 22.316115532477852 0 22.316115532477852 27.32202138032153 0 0 0 0 5.1669954014861048 9.8873803820514752 0 9.8873803820514752 -7.2849902260690964 0 0 0 0 10.251607882303233 14.952229725177517 0 14.952229725177517 10.267728989922034 0 0 0 0 8.3506912178404491 11.689171725596793 0 11.689171725596793 8.2951354060123776 0 0 0 0 7.641081581538856 7.5200778277576319 0 7.5200778277576319 4.2209082632389254 0 0 0 0 11.028541092045998 14.293176956214211 0 14.293176956214211 10.386254353561526 0 0 0 0 1.1098453580852947 13.326718722433725 0 13.326718722433725 20.717690994241821 0 0 0 0 0.29527638470058193 -0.40061114792619801 0 -0.40061114792619801 -1.5413960127226174 0 0 0 0 30.922130521321378 28.713323930252955 0 28.713323930252955 -4.2502662016977411 0 0 0 0 4.4704656865978905 7.2698359358801099 0 7.2698359358801099 8.213875596363323 0 0 0 0 0.66576065870281198 1.1145582208386884 0 1.1145582208386884 0.84861672655026155 0 0 0 0 4.6721101903622184 6.5916788198270524 0 6.5916788198270524 9.9492057698626013 0 0 0 0 4.7772508550209096 7.8466675554896055 0 7.8466675554896055 1.7554572337761745 0 0 0 0 4.5963818651707697 7.9356092550542598 0 7.9356092550542598 8.0423677526712254 0 0 0 0 19.445930932439296 26.417528812997489 0 26.417528812997489 -5.0310675302096115 0 0 0 0 12.467646238624184 -1.5149118214694681 0 -1.5149118214694681 -9.35841949438759 0 0 0 0 2.9429756880599598 29.009604897240933 0 29.009604897240933 -73.672943131038664 0 0 0 0 7.135983369436417 8.5427701851617712 0 8.5427701851617712 7.7622988909442938 0 0 0 0 10.382275998237674 23.476148146011838 0 23.476148146011838 -72.194101227409192 0 0 0 0 1.6304430200307252 3.8924957207477746 0 3.8924957207477746 11.105326113995034 0 0 0 0 3.7919757428814691 5.9599312022833235 0 5.9599312022833235 2.7935074829032089 0 0 0 0 2.9617928145889891 6.5788329940387484 0 6.5788329940387484 10.99128570879634 0 0 0 0 -7.6394195151001441 -16.12826417146789 0 -16.12826417146789 6.9251719842022794 0 0 0 0 7.5335272319150537 6.775878935437631 0 6.775878935437631 2.3193883723444566 0 0 0 0 3.9495902936687344 8.0317888174222389 0 8.0317888174222389 9.4455394947844979 0 0 0 0 5.8644525858180714 6.5231366915090803 0 6.5231366915090803 5.3629890502834314 0 0 0 0 4.4046047940343698 8.5463592240318889 0 8.5463592240318889 5.7995304847567191 0 0 0 0 -1.1021650185321059 2.0743597008250916 0 2.0743597008250916 8.2445010295087933 0 0 0 0 30.74039139802062 8.4282438523669043 0 8.4282438523669043 7.4992529255750924 0 0 0 0 -1.4433364948699818 3.6580780505764778 0 3.6580780505764778 17.9691095426424 0 0 0 0 -0.024131542937173123 0.87160398329033484 0 0.87160398329033484 3.7988306204113478 0 0 0 0 -0.73232868158629572 52.004903247496259 0 52.004903247496259 -109.08762672166358 0 0 0 0 11.030441784650066 20.565117487396037 0 20.565117487396037 40.883770751921475 0 0 0 0 -9.140499429706324 36.537149711034544 0 36.537149711034544 -117.11688425695684 0 0 0 0 -0.60473643663903331 -0.056157998341420878 0 -0.056157998341420878 1.8659904633165123 0 0 0 0 -0.40986487199516741 0.73082437118280197 0 0.73082437118280197 0.76730652149325707 0 0 0 0 -7.2432002517762157 4.9750439280833234 0 4.9750439280833234 -72.36409391480629 0 0 0 0 -6.4739898402876861 24.341237289523633 0 24.341237289523633 -53.486401948449384 0 0 0 0 -38.085011131486681 22.802501244423183 0 22.802501244423183 -52.340058037268136 0 0 0 0 5.4690407536618295 16.568963781803177 0 16.568963781803177 -129.07868831789528 0 0 0 0 -43.409478863268305 52.29266952396938 0 52.29266952396938 -34.480341245415048 0 0 0 0 10.920535970333731 109.54571866116839 0 109.54571866116839 5.4792960377519648 0 0 0 0 2.7508656318086651 -21.886422502234382 0 -21.886422502234382 21.565642528177705 0 0 0 0 85.22541679153619 62.881668378069662 0 62.881668378069662 33.919961101648369 0 0 0 0 74.457335175769913 51.910457504401165 0 51.910457504401165 -25.884909426695231 0 0 0 0 -31.015712579017418 18.352021909936866 0 18.352021909936866 26.796503279691478 0 0 0 0 -16.291437307720116 45.735395823159706 0 45.735395823159706 17.877941607903267 0 0 0 0 43.38076783901306 43.60710909622594 0 43.60710909622594 12.91975946976936 0 0 0 0 0.52589533532357624 6.9557041155851387 0 6.9557041155851387 2.721934614321146 0 0 0 0 2.9654780189379721 6.8814512217008819 0 6.8814512217008819 0.56775916652943437 0 0 0 0 -151.49727992806856 101.36595856553868 0 101.36595856553868 88.765996714645553 0 0 0 0 0.89045055896961944 5.4174341378334834 0 5.4174341378334834 5.8752780640706916 0 0 0 0 -2.2164018775235945 46.959258343396868 0 46.959258343396868 13.93830927615636 0 0 0 0 -7.2908652890937447 -0.40897840643356176 0 -0.40897840643356176 64.249228918312838 0 0 0 0 9.6123117593706411 6.8296335053237271 0 6.8296335053237271 -5.7628570168562874 0 0 0 0 -11.472680235595817 5.5189726499702374 0 5.5189726499702374 3.421491703382344 0 0 0 0 1.5250611876711822 6.6074739542543828 0 6.6074739542543828 4.5813902920306262 0 0 0 0 -14.753834693815994 5.5115512625663232 0 5.5115512625663232 5.0027773162147398 0 0 0 0 24.355224329789962 35.806242392200147 0 35.806242392200147 -6.0384933199547959 0 0 0 0 52.223386442100946 48.814555816875327 0 48.814555816875327 -17.18426530247325 0 0 0 0 4.3719800720886042 68.485555486282465 0 68.485555486282465 -25.092071240895166 0 0 0 0 4.9253859963556117 2.6902307315669893 0 2.6902307315669893 1.5147337804193768 0 0 0 0 -108.78648788371811 161.9487983470417 0 161.9487983470417 98.898172980655545 0 0 0 0 -1.9539609143973511 2.5611689268085129 0 2.5611689268085129 -3.0509564424701168 0 0 0 0 406.59917825912817 -243.99480090215775 0 -243.99480090215775 -519.49309581141279 0 0 0 0 -6.6699473652397057 1.1321159251540021 0 1.1321159251540021 2.4410172036534235 0 0 0 0 -40.980540856673542 -1.732126092807448 0 -1.732126092807448 44.349006132146314 0 0 0 0 9.9595370905067142 12.289880230012237 0 12.289880230012237 3.6061175025141168 0 0 0 0 -61.59268772598557 21.513574277734733 0 21.513574277734733 -5.7625474673115491 0 0 0 0 -163.7315034265132 -67.061592880128842 0 -67.061592880128842 -0.75762273615691811 0 0 0 0 55.402236503892027 17.328174884449481 0 17.328174884449481 18.892805314804718 0 0 0 0 3.1901348809060481 16.19583224525098 0 16.19583224525098 8.2567880974258472 0 0 0 0 34.136067083386024 17.374240016250042 0 17.374240016250042 6.3205371560898129 0 0 0 0 -73.289021736665518 1.5766345989322872 0 1.5766345989322872 15.347497673312319 0 0 0 0 -5.0009332920813776 6.9731318479660969 0 6.9731318479660969 -10.318710736053607 0 0 0 0 -54.62729543726914 37.650957494141494 0 37.650957494141494 29.503951803540986 0 0 0 0 -0.65854356979680739 1.3302598057512629 0 1.3302598057512629 0.48341658599616011 0 0 0 0 -72.711989149178862 19.073931747592724 0 19.073931747592724 13.985636723547941 0 0 0 0 89.502094442678299 6.8716655452324176 0 6.8716655452324176 -34.730662782621948 0 0 0 0 14.659012048958175 47.592752221609771 0 47.592752221609771 40.89055485235076 0 0 0 0 3.0053219152416482 17.751436645526091 0 17.751436645526091 13.806382285974351 0 0 0 0 23.025014253360041 5.9983685664518589 0 5.9983685664518589 19.89286641554645 0 0 0 0 -13.60671519441712 23.059284947650667 0 23.059284947650667 19.734177895894391 0 0 0 0 15.120643850555098 16.403169846445508 0 16.403169846445508 21.253428718084251 0 0 0 0 2.069135941521381 21.880270356688015 0 21.880270356688015 -0.5030466583884845 0 0 0 0 -14.826548261080461 23.385038662127045 0 23.385038662127045 0.55365379702925566 0 0 0 0 -3.5196721662487107 20.924490303221319 0 20.924490303221319 -26.976594203290006 0 0 0 0 -17.183078131612092 24.539813858124035 0 24.539813858124035 -27.747618225128463 0 0 0 0 -13.336290972378265 29.006195420153745 0 29.006195420153745 -11.609843772719614 0 0 0 0 -5.6743606706058927 31.492947031951189 0 31.492947031951189 -55.226362171553774 0 0 0 0 -20.699105078359025 23.86665803955384 0 23.86665803955384 -12.902707824974641 0 0 0 0 -11.920214319364902 11.507566828698202 0 11.507566828698202 -7.3540573565187515 0 0 0 0 40.006484270995315 9.8488914943827695 0 9.8488914943827695 -23.124248237379106 0 0 0 0 29.621078658888109 25.509861199934676 0 25.509861199934676 -11.990180818696899 0 0 0 0 -4.1151611451550707 0.36244006459219236 0 0.36244006459219236 -28.165106269858825 0 0 0 0 -0.35706160410336452 6.8705955840241586 0 6.8705955840241586 23.169218485928468 0 0 0 0 -16.272088843101301 -4.8139445282081397 0 -4.8139445282081397 9.6499822348268935 0 0 0 0 26.687462956713716 7.9960688581886643 0 7.9960688581886643 -1.740878548263936 0 0 0 0 3.1988281708373787 5.6830007949384189 0 5.6830007949384189 5.4990595649516365 0 0 0 0 0.5871871329327405 6.4954341177062815 0 6.4954341177062815 4.9987177374932799 0 0 0 0 2.2255643732928121 5.4335903189576493 0 5.4335903189576493 6.2184978779915188 0 0 0 0 2.1089185582305872 4.2749320029847979 0 4.2749320029847979 5.011138934061961 0 0 0 0 -9.8504473823813896 -6.4557816767746772 0 -6.4557816767746772 -3.5348876043390192 0 0 0 0 4.5162710773997858 5.4990514277018967 0 5.4990514277018967 5.1108852069852233 0 0 0 0 10.412676343183193 13.547620120169995 0 13.547620120169995 4.9086597427030938 0 0 0 0 3.5667076521472296 1.1497483284798653 0 1.1497483284798653 -3.9581684781328192 0 0 0 0 -0.013112820244714385 7.7230291151190613 0 7.7230291151190613 7.8989149679582624 0 0 0 0 1.4896468673468917 5.3025539329973981 0 5.3025539329973981 11.40187648563915 0 0 0 0 -0.3291042167174183 4.7861888977840241 0 4.7861888977840241 7.8275221623164377 0 0 0 0 3.4106597814567543 7.4189939873652566 0 7.4189939873652566 9.0238368218731324 0 0 0 0 -1.093880462782181 8.2813848808291368 0 8.2813848808291368 2.8047275558383262 0 0 0 0 1.0639743833980901 12.56570704824162 0 12.56570704824162 15.785610454691778 0 0 0 0 1.2346629138123717 12.539813701071125 0 12.539813701071125 12.358499114026927 0 0 0 0 -3.8273645949830097 7.2948944614499851 0 7.2948944614499851 10.756243071889912 0 0 0 0 9.030400833282215 -6.5225303956201515 0 -6.5225303956201515 19.850678318913197 0 0 0 0 -2.3952243929869326 7.600541677037441 0 7.600541677037441 6.9172722376642923 0 0 0 0 4.6679914954802895 7.152342297291046 0 7.152342297291046 5.0353657032077805 0 0 0 0 -0.052989090476330603 6.6172791338503885 0 6.6172791338503885 5.7979389464999258 0 0 0 0 0.42979570962307179 6.1438278939099771 0 6.1438278939099771 9.1392512215058908 0 0 0 0 -2.5242659849627671 4.0164907861762913 0 4.0164907861762913 23.260680152206078 0 0 0 0 2.0004406196165272 5.3292229916546781 0 5.3292229916546781 9.6103481995074311 0 0 0 0 -0.69279308916213012 0.73630620642843247 0 0.73630620642843247 2.2295058662299132 0 0 0 0 -3.6813553572428646 6.6457955854457396 0 6.6457955854457396 19.560731415078408 0 0 0 0 -8.5067805248509103 5.4546770757715421 0 5.4546770757715421 29.593450323904108 0 0 0 0 0.38594910441119623 0.42446900302766855 0 0.42446900302766855 0.68670160220788823 0 0 0 0 -33.725518726409064 1.0891467209257826 0 1.0891467209257826 49.605791340964061 0 0 0 0 -10.86576143743514 9.4769274551990748 0 9.4769274551990748 27.344183557774159 0 0 0 0 -30.408647571592155 21.348579505440284 0 21.348579505440284 34.37850499578326 0 0 0 0 21.316690743202344 81.758283887726066 0 81.758283887726066 54.124086798172357 0 0 0 0 15.691641415764934 24.57414658702919 0 24.57414658702919 7.0593547165444761 0 0 0 0 26.957811304046118 3.8423060593452192 0 3.8423060593452192 32.794189172793267 0 0 0 0 77.734314514989819 28.370607692915655 0 28.370607692915655 12.21295078685398 0 0 0 0 30.118243732351402 -8.3562302129139425 0 -8.3562302129139425 45.080501696769716 0 0 0 0 16.382642652220966 27.988179439219493 0 27.988179439219493 23.882819889568054 0 0 0 0 12.820471270686539 20.763176356946133 0 20.763176356946133 63.539000240599307 0 0 0 0 8.7882040694639727 20.281382579242745 0 20.281382579242745 26.56651980503193 0 0 0 0 19.430470254432294 17.99362864388786 0 17.99362864388786 24.693778342389123 0 0 0 0 15.103687494371115 24.936545076037419 0 24.936545076037419 29.384948846458428 0 0 0 0 14.447979009644769 23.230245439412101 0 23.230245439412101 25.648685544541877 0 0 0 0 8.7366788458712108 20.720003169685697 0 20.720003169685697 14.470226146130699 0 0 0 0 15.092385361579545 25.193200950724076 0 25.193200950724076 17.611826260734233 0 0 0 0 14.277626286577288 17.184702345597543 0 17.184702345597543 10.840861480264721 0 0 0 0 22.482890579616651 21.440869803706846 0 21.440869803706846 6.9137616339503438 0 0 0 0 8.4738098676498339 14.305782392708352 0 14.305782392708352 10.811719619561245 0 0 0 0 13.541452054265392 16.34738292774091 0 16.34738292774091 9.8895697180469142 0 0 0 0 -0.49133217876078561 21.562671995218807 0 21.562671995218807 14.201144120218487 0 0 0 0 11.077943280003637 21.894357396257192 0 21.894357396257192 12.707857608173072 0 0 0 0 10.8885659132211 15.691564772874699 0 15.691564772874699 -6.8254968432156602 0 0 0 0 9.7831420592792711 10.623032621428138 0 10.623032621428138 -0.14490647876664298 0 0 0 0 2.0604143557429779 1.5160763270068855 0 1.5160763270068855 -10.283717484078807 0 0 0 0 10.484298955048871 9.7071637002190982 0 9.7071637002190982 0.16223997477209195 0 0 0 0 15.688049504015908 15.355769306298043 0 15.355769306298043 5.4437128566150932 0 0 0 0 5.2474084045861673 6.3683981007570765 0 6.3683981007570765 9.389033964805094 0 0 0 0 4.8110619399631105 4.5781191084997772 0 4.5781191084997772 4.8721519572991383 0 0 0 0 -1.1601723989515449 1.0333483558497392 0 1.0333483558497392 2.7701244133677392 0 0 0 0 -1.3825536707081483 3.8260225147660094 0 3.8260225147660094 8.949379141053214 0 0 0 0 -11.206386980089519 1.3443315006397825 0 1.3443315006397825 16.779997484956766 0 0 0 0 -2.5568090085405402 4.6345862659199497 0 4.6345862659199497 17.852384654855086 0 0 0 0 -1.3233842025197191 -0.05006644321076692 0 -0.05006644321076692 19.016850549121955 0 0 0 0 -5.259319964407041 15.510403778199816 0 15.510403778199816 43.812002246261727 0 0 0 0 -0.25836751928508761 -0.11479215383673669 0 -0.11479215383673669 -0.10904052108211693 0 0 0 0 -4.3974942258064402 28.393608272543133 0 28.393608272543133 21.94786372511544 0 0 0 0 7.420013323189778 15.633029912775783 0 15.633029912775783 18.103227207811869 0 0 0 0 8.6586460737416928 12.709935815971221 0 12.709935815971221 17.41919853271429 0 0 0 0 13.628384941976037 17.319301363318118 0 17.319301363318118 -93.658858345033877 0 0 0 0 -9.3421296849130044 29.563732703440436 0 29.563732703440436 -22.720228652222431 0 0 0 0 -10.403601828569663 -8.9927380497870217 0 -8.9927380497870217 -3.6083498384132326 0 0 0 0 22.235225451933729 -10.087278280836017 0 -10.087278280836017 14.027781950193457 0 0 0 0 -1.5716134581540544 3.7067728542717191 0 3.7067728542717191 -3.3787425893160501 0 0 0 0 -15.849271014667465 39.998602493959879 0 39.998602493959879 48.369017738243201 0 0 0 0 26.478270042925942 17.730019719791926 0 17.730019719791926 -30.967160099563898 0 0 0 0 -27.33628340424184 18.934350516101404 0 18.934350516101404 -18.338130915994043 0 0 0 0 2.6224722964889224 34.764690023082949 0 34.764690023082949 22.396872734472709 0 0 0 0 -0.95459536201904882 0.85421187385187558 0 0.85421187385187558 0.74929507590938382 0 0 0 0 0.8732839624855353 0.79081287550239665 0 0.79081287550239665 0.23543499686127234 0 0 0 0 2.1265543139387026 4.3078546652011696 0 4.3078546652011696 4.5508410276365012 0 0 0 0 23.371615694502907 18.256490400950952 0 18.256490400950952 -54.925823844647311 0 0 0 0 27.163852261350257 5.7913238226683461 0 5.7913238226683461 17.407980907002639 0 0 0 0 0.42228567956939644 1.2751225682980198 0 1.2751225682980198 -0.03321434902948539 0 0 0 0 -15.822355216732831 -3.7908637354812527 0 -3.7908637354812527 11.551594856525981 0 0 0 0 4.1660452446958516 3.2960545506957715 0 3.2960545506957715 5.6548387324819487 0 0 0 0 5.0736549276611527 3.861466691521354 0 3.861466691521354 0.35986284132919621 0 0 0 0 21.43831794642756 -2.020826712690905 0 -2.020826712690905 -27.931421444216653 0 0 0 0 5.2964097632753777 5.881220201629624 0 5.881220201629624 2.1578890645741922 0 0 0 0 -13.659242780392617 -5.4785068071058802 0 -5.4785068071058802 -21.361218855581683 0 0 0 0 29.276671732342948 -4.5486423571528576 0 -4.5486423571528576 -28.248567339674082 0 0 0 0 22.072646763532248 -7.2260167875665502 0 -7.2260167875665502 -22.097923819307425 0 0 0 0 0.59109601383712373 5.0283051251560185 0 5.0283051251560185 -0.59153330394876757 0 0 0 0 3.9087123588687973 20.80018737546925 0 20.80018737546925 28.217780814893558 0 0 0 0 17.331460078827149 10.409258393552136 0 10.409258393552136 5.5903373416153954 0 0 0 0 -0.75496746050438901 3.3810276255226359 0 3.3810276255226359 0.5251056644521821 0 0 0 0 10.615757609937191 2.332538228054716 0 2.332538228054716 -1.1376114566205615 0 0 0 0 5.6574860717701085 18.166256283256871 0 18.166256283256871 16.715564009779655 0 0 0 0 7.1002768569524903 9.1954445181044662 0 9.1954445181044662 1.9784763096290305 0 0 0 0 6.1182772433339778 14.773821222810511 0 14.773821222810511 15.784225666882776 0 0 0 0 11.479089095773311 9.180652780209698 0 9.180652780209698 0.45246714277320521 0 0 0 0 27.048360137941927 1.7725037058262387 0 1.7725037058262387 2.9784074130948284 0 0 0 0 0.26645111522843123 2.9178081360956512 0 2.9178081360956512 2.6433967095149069 0 0 0 0 22.616036925244771 34.906777732899627 0 34.906777732899627 15.009484986738244 0 0 0 0 10.250081062291883 9.1251057545630374 0 9.1251057545630374 23.290112395574397 0 0 0 0 18.956241344247246 15.528052281762939 0 15.528052281762939 -0.0047939883515937254 0 0 0 0 19.626015124227706 13.518117480081855 0 13.518117480081855 1.3799668136489345 0 0 0 0 9.1742900226981874 9.9386112766442238 0 9.9386112766442238 3.4897583417441638 0 0 0 0 7.0367974950131611 3.3060185117428773 0 3.3060185117428773 0.98385756891548226 0 0 0 0 4.1190469807542627 6.9596831614668595 0 6.9596831614668595 1.3856238805601606 0 0 0 0 10.470714824276001 6.7847346884127546 0 6.7847346884127546 2.1487875732746033 0 0 0 0 5.832233728437302 4.9399928738459415 0 4.9399928738459415 2.2445259050990494 0 0 0 0 5.6382211020964093 4.4287223686688169 0 4.4287223686688169 2.0767413791348552 0 0 0 0 17.663150871532707 32.522190748707146 0 32.522190748707146 2.7890163224774369 0 0 0 0 12.488451904080648 13.688154615427266 0 13.688154615427266 3.3755428034774013 0 0 0 0 4.7012571467501907 6.9583111944003733 0 6.9583111944003733 -4.8757300253682754 0 0 0 0 6.9742599774763221 11.942364398058089 0 11.942364398058089 9.1927718404776897 0 0 0 0 6.5785659072844282 12.964544904411923 0 12.964544904411923 8.0683221838316967 0 0 0 0 5.0394153803554218 14.958960246149672 0 14.958960246149672 3.8264599367571464 0 0 0 0 5.8491305432404737 7.946210558118727 0 7.946210558118727 0.77371358483618646 0 0 0 0 7.1079681295377668 13.143151121368192 0 13.143151121368192 15.515448327198101 0 0 0 0 2.1254586535834328 5.0805698698107182 0 5.0805698698107182 -2.1154008559969597 0 0 0 0 4.5944285201918689 5.2838344372363508 0 5.2838344372363508 -0.91682075263437568 0 0 0 0 7.9185401537797588 13.263233413360012 0 13.263233413360012 12.814997579001556 0 0 0 0 2.0264455857481813 5.8164730912903657 0 5.8164730912903657 -1.066317759181489 0 0 0 0 8.021483983791768 16.537117686173133 0 16.537117686173133 17.978898321357519 0 0 0 0 2.4701907589022518 5.2172804562880817 0 5.2172804562880817 -1.4618879115856949 0 0 0 0 7.3425094480480766 16.639797696798269 0 16.639797696798269 18.74281649122895 0 0 0 0 6.7850521790751372 15.001672833010161 0 15.001672833010161 3.6660052686365816 0 0 0 0 -0.16210143698299362 1.7543908825246035 0 1.7543908825246035 0.54295957479371282 0 0 0 0 5.4456163247567986 8.9080293569138167 0 8.9080293569138167 0.49341660173047686 0 0 0 0 1.4900968163219659 6.5450256362628352 0 6.5450256362628352 11.089148724029656 0 0 0 0 15.308629045743828 4.437773389805443 0 4.437773389805443 -50.604144923549029 0 0 0 0 16.844463817074029 15.609012111788616 0 15.609012111788616 -47.443265133039858 0 0 0 0 -9.5869637084088026 21.591060852254486 0 21.591060852254486 -15.363763641821606 0 0 0 0 1.3651066319378451 0.99300293874798484 0 0.99300293874798484 0.72182360754935893 0 0 0 0 5.403315508592641 2.961155863096792 0 2.961155863096792 0.43146059725927444 0 0 0 0 7.2053404592737245 8.9218073844398127 0 8.9218073844398127 4.2215402882618704 0 0 0 0 11.494486349994077 13.334415781113421 0 13.334415781113421 -0.68149481217551511 0 0 0 0 5.1848922841240892 3.6111217030479565 0 3.6111217030479565 1.3023937039542943 0 0 0 0 3.1821698838521115 4.1473669290498947 0 4.1473669290498947 1.2359718331554177 0 0 0 0 12.626074184584468 8.8760458535862199 0 8.8760458535862199 -8.4539887434348202 0 0 0 0 6.4221542341607432 8.7106272563088396 0 8.7106272563088396 3.1465526914840707 0 0 0 0 8.0524494627934473 12.145404316837812 0 12.145404316837812 1.2704395645887416 0 0 0 0 14.237015533078193 15.586677960031921 0 15.586677960031921 -14.723302287436127 0 0 0 0 4.6224805230508537 26.314109811896742 0 26.314109811896742 18.281162892488283 0 0 0 0 5.6851912701222318 21.356669630260512 0 21.356669630260512 1.763895402160415 0 0 0 0 26.945591704084109 -1.3888687881008082 0 -1.3888687881008082 8.1539362242365314 0 0 0 0 -3.5182004367470654 14.730047262924927 0 14.730047262924927 30.633602369272921 0 0 0 0 38.52440504414426 27.970190091699806 0 27.970190091699806 28.805790033953599 0 0 0 0 13.93130958650454 1.1188427154411329 0 1.1188427154411329 21.245178885135374 0 0 0 0 25.810215764437089 -1.9824961628792153 0 -1.9824961628792153 -10.918351490880013 0 0 0 0 6.3137482784859458 0.73876474479129683 0 0.73876474479129683 10.718328588627628 0 0 0 0 -45.652277998400677 -19.137661017297432 0 -19.137661017297432 126.22714301006636 0 0 0 0 42.121905172776223 -4.5067275425171829 0 -4.5067275425171829 19.846052070732185 0 0 0 0 -4.9938327763693451 -5.8684557494307228 0 -5.8684557494307228 117.9240440920039 0 0 0 0 0.36314043713116817 0.38598319018251104 0 0.38598319018251104 0.093264641072267729 0 0 0 0 33.825022474617526 -1.5069137002910793 0 -1.5069137002910793 -20.422291834454882 0 0 0 0 13.00275372077067 15.996783645129199 0 15.996783645129199 -82.637257447249794 0 0 0 0 -20.029131069524738 15.202174736780762 0 15.202174736780762 30.117618880658029 0 0 0 0 -41.20265818182861 18.496593449177453 0 18.496593449177453 -16.877811419044519 0 0 0 0 -2.8757256499593495 28.144843403390041 0 28.144843403390041 -22.107534632384613 0 0 0 0 5.506783368530705 25.97239594653729 0 25.97239594653729 -46.532241087579678 0 0 0 0 -0.7717708550125586 0.55340347223491904 0 0.55340347223491904 0.14579850260919791 0 0 0 0 -23.515480966876567 9.7940471970978251 0 9.7940471970978251 13.480813802369994 0 0 0 0 4.0448279593988445 10.826524745560164 0 10.826524745560164 11.483277724206346 0 0 0 0 -16.347269966483509 49.72974780513232 0 49.72974780513232 -61.201495199519741 0 0 0 0 39.493063428750247 -1.3688886098243529 0 -1.3688886098243529 -10.932646161192679 0 0 0 0 18.436190075027298 10.758689637776115 0 10.758689637776115 -9.8264147657082503 0 0 0 0 17.663526660116077 -10.645075481670574 0 -10.645075481670574 -6.4802860684940242 0 0 0 0 2.2400786072048504 23.12866853939704 0 23.12866853939704 -21.279122278370778 0 0 0 0 25.514410495538868 -8.1347775006047414 0 -8.1347775006047414 15.890332187869717 0 0 0 0 66.698609920465969 24.053601589915615 0 24.053601589915615 -14.199459716528509 0 0 0 0 16.162065369058837 44.791066574380238 0 44.791066574380238 17.156780186573087 0 0 0 0 -7.2925475987449317 31.805781174604817 0 31.805781174604817 25.229434082830721 0 0 0 0 -18.535573696354732 12.151097502700395 0 12.151097502700395 7.4360878301431512 0 0 0 0 -2.1653727779412293 28.345756226255617 0 28.345756226255617 16.225083682347758 0 0 0 0 0.48796969018803793 31.307402291571634 0 31.307402291571634 12.624642052069248 0 0 0 0 -12.284925149961964 18.107606875772035 0 18.107606875772035 11.751409740769304 0 0 0 0 0.50569702314169263 24.198842512974807 0 24.198842512974807 11.986337375463336 0 0 0 0 5.2891698166877177 21.963050430778821 0 21.963050430778821 9.4665037702470727 0 0 0 0 6.7968855043636722 26.266772298713477 0 26.266772298713477 12.657873175323402 0 0 0 0 0.98717146458386651 31.344239194701458 0 31.344239194701458 12.288813307102828 0 0 0 0 0.83721596888608474 31.316882787574286 0 31.316882787574286 12.408450783455919 0 0 0 0 -0.88861057055692072 32.900203690498529 0 32.900203690498529 15.307937147466873 0 0 0 0 10.068414050227148 32.476513235556922 0 32.476513235556922 11.652504636444064 0 0 0 0 7.5195684618452105 24.390768153716635 0 24.390768153716635 15.153799745545257 0 0 0 0 14.33504108174202 29.443194782679711 0 29.443194782679711 16.102120299354738 0 0 0 0 0.075161080760608456 32.117217111110676 0 32.117217111110676 12.37222287028635 0 0 0 0 1.0682790171003944 31.911967939151054 0 31.911967939151054 12.22413939379112 0 0 0 0 0.68920839166094083 32.757614416739671 0 32.757614416739671 11.553470418950383 0 0 0 0 1.7309089511545608 29.841348428060883 0 29.841348428060883 6.8443443177675363 0 0 0 0 15.6436564832984 14.655492367832267 0 14.655492367832267 0.073456236041238299 0 0 0 0 -0.81365233224914846 12.856566634076444 0 12.856566634076444 -16.13379435722527 0 0 0 0 -2.0117966120087658 14.161200454560458 0 14.161200454560458 0.079203619622376209 0 0 0 0 4.2899584695176145 18.642610081930911 0 18.642610081930911 -10.165337990543776 0 0 0 0 -19.501702762092464 11.935817107241746 0 11.935817107241746 -6.4983264559141389 0 0 0 0 1.0599879891487944 17.418363395827328 0 17.418363395827328 -5.3974164088358521 0 0 0 0 -16.110349580150796 31.013658952797414 0 31.013658952797414 6.8876013225323049 0 0 0 0 20.781815376771192 18.45274505132511 0 18.45274505132511 10.710654215868999 0 0 0 0 7.1716768321727073 7.9999187576678814 0 7.9999187576678814 8.1199377423979726 0 0 0 0 -30.344371544318165 20.558950594975613 0 20.558950594975613 4.5210313523421064 0 0 0 0 -3.4052907168443198 32.260531786210777 0 32.260531786210777 15.147254924601384 0 0 0 0 1.9529375222268812 1.6533471544202563 0 1.6533471544202563 0.17063507845184489 0 0 0 0 0.83419030409787598 0.75891068879584722 0 0.75891068879584722 0.01231578946280365 0 0 0 0 32.257460721051757 24.340837575125988 0 24.340837575125988 8.917544816427835 0 0 0 0 17.6040828942796 4.4300016212582705 0 4.4300016212582705 -2.9448311539672432 0 0 0 0 4.0976698752052556 4.7317336760044277 0 4.7317336760044277 5.5674214024099662 0 0 0 0 1.9887099072648045 5.1031273895763878 0 5.1031273895763878 9.2539190271580622 0 0 0 0 2.4180283823388891 6.2420247767140609 0 6.2420247767140609 4.9476762406561647 0 0 0 0 0.52014299715764878 7.5686661255755041 0 7.5686661255755041 10.917085449000297 0 0 0 0 5.8644925453215446 7.4240620933381276 0 7.4240620933381276 5.2468600223145216 0 0 0 0 2.4489707502600595 10.240291159323021 0 10.240291159323021 4.6068550582003809 0 0 0 0 -2.8296891482439932 2.2150668183565703 0 2.2150668183565703 10.199596221938229 0 0 0 0 -3.4538587015831581 13.555383043266374 0 13.555383043266374 16.112784140545955 0 0 0 0 -3.1283346947839163 6.8999948858017888 0 6.8999948858017888 25.215674020515507 0 0 0 0 -0.38258326681352628 9.8086424355533381 0 9.8086424355533381 12.213042144640326 0 0 0 0 -0.80492076964679882 6.9089055234511676 0 6.9089055234511676 20.790958654833958 0 0 0 0 -0.4641681446383501 0.44724229237138857 0 0.44724229237138857 1.1032697658965844 0 0 0 0 -1.4655472930835458 9.9233776725459393 0 9.9233776725459393 22.741025020946836 0 0 0 0 21.598951510817642 21.069800396855953 0 21.069800396855953 9.8526321465860747 0 0 0 0 16.133382788426388 8.1068857552113514 0 8.1068857552113514 15.644684053515448 0 0 0 0 12.789309458403295 16.704032920930331 0 16.704032920930331 21.216061608980453 0 0 0 0 19.328659506303666 19.230300081984751 0 19.230300081984751 14.543847056665072 0 0 0 0 2.3392417282630049 18.299079499840445 0 18.299079499840445 13.155391825366678 0 0 0 0 6.9626780393571828 8.8160787625396466 0 8.8160787625396466 9.1975487905969509 0 0 0 0 17.651485587193747 34.369900231058637 0 34.369900231058637 29.739231941389562 0 0 0 0 4.3674910813333554 21.991327618409741 0 21.991327618409741 14.717051208556541 0 0 0 0 12.767645795613817 15.041448964441656 0 15.041448964441656 13.214940044639661 0 0 0 0 13.038459449006041 18.280038555277315 0 18.280038555277315 0.052656882825431239 0 0 0 0 13.350958682180135 13.829556149180689 0 13.829556149180689 3.7887138515980041 0 0 0 0 7.5861974932791512 7.7836843184488673 0 7.7836843184488673 5.9952650703989985 0 0 0 0 2.8447655764657611 9.4632533976109698 0 9.4632533976109698 4.1542927068712743 0 0 0 0 8.4504231216033823 8.0459934388876739 0 8.0459934388876739 6.358150400216978 0 0 0 0 6.5763049193365077 7.4262039675713822 0 7.4262039675713822 11.651539091608356 0 0 0 0 2.8092403726959674 19.551499966060874 0 19.551499966060874 15.761834766579341 0 0 0 0 8.2799623252203673 23.043873027569589 0 23.043873027569589 9.7647985184048594 0 0 0 0 -12.796468214168272 11.423676470325518 0 11.423676470325518 11.18874176463919 0 0 0 0 -1.7294540078200953 18.495681001483717 0 18.495681001483717 -5.7358342515126424 0 0 0 0 10.196607297929859 0.88127992444151459 0 0.88127992444151459 -2.0058940841900039 0 0 0 0 -19.330211710291906 9.1249170213679918 0 9.1249170213679918 1.1650689120433526 0 0 0 0 -10.199680023664314 58.571653558235084 0 58.571653558235084 -56.920049848613417 0 0 0 0 1.4691011187900962 1.1446482477830529 0 1.1446482477830529 0.54411572670388253 0 0 0 0 12.448146362421539 39.263675048502591 0 39.263675048502591 -92.392881838368339 0 0 0 0 1.6364600543427521 1.0865807062689754 0 1.0865807062689754 0.46575612911588848 0 0 0 0 -6.2263453536770612 32.869350060801708 0 32.869350060801708 -38.06755878556578 0 0 0 0 -6.1159418412025843 3.5435855545511004 0 3.5435855545511004 -14.315412767963608 0 0 0 0 0.74419525404478293 0.45631524232625509 0 0.45631524232625509 0.19155543031368438 0 0 0 0 34.30951441268553 -11.183087345027161 0 -11.183087345027161 -81.665267130296343 0 0 0 0 31.320873529336495 -11.89663364633634 0 -11.89663364633634 -80.552792010283156 0 0 0 0 33.117540381828348 -10.398522130881247 0 -10.398522130881247 -79.916090037131653 0 0 0 0 0.48171740346639069 0.20172261720656337 0 0.20172261720656337 0.011970265344471542 0 0 0 0 -6.0175865746857653 40.510773620566397 0 40.510773620566397 4.5890789109726029 0 0 0 0 47.281622354623011 9.1036283922259429 0 9.1036283922259429 -38.936251164306668 0 0 0 0 46.715877937464427 18.176325818047104 0 18.176325818047104 0.44978919599816436 0 0 0 0 7.0081096123440147 17.757481803194423 0 17.757481803194423 28.811436170702109 0 0 0 0 9.3432636422794531 4.2256959053147511 0 4.2256959053147511 -2.8424515026354129 0 0 0 0 33.806146531210288 -11.279814376859576 0 -11.279814376859576 -3.960229148837243 0 0 0 0 46.335415462475794 -7.4083191149929917 0 -7.4083191149929917 -20.05783537505431 0 0 0 0 22.385814624826708 34.654105254602655 0 34.654105254602655 -3.9319436705973203 0 0 0 0 -13.676260857952457 48.952276821345549 0 48.952276821345549 -4.1808039802999701 0 0 0 0 -26.838523711222479 39.613726226151812 0 39.613726226151812 5.764507441654132 0 0 0 0 -32.319503168529536 35.826236924071054 0 35.826236924071054 -15.663281799195829 0 0 0 0 11.496244645688421 21.780399623964968 0 21.780399623964968 -18.961675454755095 0 0 0 0 0.79422447162382248 0.9065674009618494 0 0.9065674009618494 1.3119982818382567 0 0 0 0 2.6138613206477017 2.9299753700741595 0 2.9299753700741595 0.30612647810070825 0 0 0 0 1.785248750986284 5.0191900478803291 0 5.0191900478803291 -1.9391023587268137 0 0 0 0 -2.4583762365710413 7.4469090286112305 0 7.4469090286112305 -0.44148152609704994 0 0 0 0 -2.1371150631839555 2.8221812665833568 0 2.8221812665833568 0.26843893576005939 0 0 0 0 2.1160463592004035 3.5258281668334561 0 3.5258281668334561 1.5431020921676328 0 0 0 0 6.7796345297340963 -2.7805054206248201 0 -2.7805054206248201 -3.9722423422208522 0 0 0 0 0.64375327780402003 0.2642855094391976 0 0.2642855094391976 -0.31245380469713524 0 0 0 0 -1.4367545730565325 -2.1326568168069571 0 -2.1326568168069571 1.2606227962205594 0 0 0 0 -8.897754143194561 12.286936523543773 0 12.286936523543773 -7.7684281684851157 0 0 0 0 -20.122697053064257 26.189360096928795 0 26.189360096928795 -21.023836417089115 0 0 0 0 -4.5395451150379813 39.352983367643901 0 39.352983367643901 -14.311060377534886 0 0 0 0 -38.425435170877336 49.511390117444535 0 49.511390117444535 -17.340085214424107 0 0 0 0 -44.348485525214528 24.906414432871316 0 24.906414432871316 5.1059692123017157 0 0 0 0 1.2257881203977377 0.13233435528763948 0 0.13233435528763948 -0.075332286657157965 0 0 0 0 1.2539837371280491 0.8139736419310637 0 0.8139736419310637 0.44101763361732793 0 0 0 0 1.1011578856613866 0.53692884105727146 0 0.53692884105727146 0.052405088954508017 0 0 0 0 4.9107880960164039 3.9576801008115581 0 3.9576801008115581 1.7709636632657748 0 0 0 0 11.722593045508575 30.022876205548528 0 30.022876205548528 -77.677663156669951 0 0 0 0 35.574395485319656 -10.121312837655751 0 -10.121312837655751 -81.544907893547133 0 0 0 0 25.552535448811796 57.435326896836159 0 57.435326896836159 -28.77913801938621 0 0 0 0 3.96119385201564 3.1384119773998691 0 3.1384119773998691 3.8185651318053715 0 0 0 0 11.766627031206099 10.015672565896239 0 10.015672565896239 3.0118546592748316 0 0 0 0 9.935585780146539 11.181855813477341 0 11.181855813477341 4.6951551398451556 0 0 0 0 17.451439286391178 14.203917471224486 0 14.203917471224486 3.3591807254051673 0 0 0 0 18.783860468754938 0.19655627185056801 0 0.19655627185056801 1.9116882773560064 0 0 0 0 3.5840913202737283 0.97270759344246471 0 0.97270759344246471 3.7514106317848928 0 0 0 0 8.0228180988160602 7.8994979798026179 0 7.8994979798026179 7.3497424741781288 0 0 0 0 6.357298000362789 0.87614184681115148 0 0.87614184681115148 2.4238298199925339 0 0 0 0 4.4084625181685624 2.1415948453413876 0 2.1415948453413876 1.9849888396856841 0 0 0 0 0.91705723911309178 -0.43050093939518774 0 -0.43050093939518774 1.7764308586611151 0 0 0 0 2.746064190805555 2.4737135058039712 0 2.4737135058039712 3.1855738976537396 0 0 0 0 0.11642879453724575 0.39452083357954049 0 0.39452083357954049 1.0206145338190993 0 0 0 0 -8.7070388483504075 4.4086978603734224 0 4.4086978603734224 1.7560938547758269 0 0 0 0 8.488878112724251 9.6575634734326741 0 9.6575634734326741 -13.80693086840256 0 0 0 0 1.5880008066609896 2.7429587720453368 0 2.7429587720453368 1.2964249705482729 0 0 0 0 2.7920228293041953 2.8759059028837179 0 2.8759059028837179 0.53338197040869773 0 0 0 0 -3.2829518853886839 4.7480470243535819 0 4.7480470243535819 -14.855293928203537 0 0 0 0 -0.69172375343259773 4.1765803615880941 0 4.1765803615880941 0.28638577179276581 0 0 0 0 -8.6688977089393688 3.9571006497546364 0 3.9571006497546364 1.3736214301243308 0 0 0 0 0.30136265173769061 7.8415460675205395 0 7.8415460675205395 -1.7531570796709275 0 0 0 0 -0.55626347874704463 -0.073746741835332141 0 -0.073746741835332141 0.059775746427732201 0 0 0 0 -6.3585594462792869 7.1258857594511937 0 7.1258857594511937 -9.528339018486804 0 0 0 0 -7.4795837799547371 7.5657265610134345 0 7.5657265610134345 -6.7524121440192175 0 0 0 0 -20.182500381487898 21.960426933731469 0 21.960426933731469 44.287042717398435 0 0 0 0 1.8297478256608883 2.2779964581841341 0 2.2779964581841341 -0.12226375955401636 0 0 0 0 8.2896715529777794 21.082450762814915 0 21.082450762814915 8.147748750791834 0 0 0 0 0.74422878240021983 2.9744025147550803 0 2.9744025147550803 0.76433752779716713 0 0 0 0 -16.798027530763648 16.414259583650164 0 16.414259583650164 -3.0844093659534337 0 0 0 0 0.67252822559294145 3.7742204195228624 0 3.7742204195228624 0.25199762497504707 0 0 0 0 3.3699569743756914 2.1508548890698949 0 2.1508548890698949 0.51970286008437938 0 0 0 0 0.96151823931571556 2.23445711444446 0 2.23445711444446 0.43598702956002633 0 0 0 0 3.5904362708688495 3.0355897753088357 0 3.0355897753088357 -1.5137237700892001 0 0 0 0 1.5619640375371091 2.076487476215334 0 2.076487476215334 -1.2244821498877627 0 0 0 0 0.030744613779347674 5.9597756923892575 0 5.9597756923892575 -1.5643640850612428 0 0 0 0 0.78922649014415036 0.54901606117639457 0 0.54901606117639457 0.95229131476543216 0 0 0 0 4.0731366441562038 1.3372640735003181 0 1.3372640735003181 0.30181690684096729 0 0 0 0 4.7157325256584954 -2.1533581602579943 0 -2.1533581602579943 -1.3596862509293715 0 0 0 0 84.830306038427807 17.665172650704335 0 17.665172650704335 -10.955050231575115 0 0 0 0 45.16203948160728 0.3871943489257319 0 0.3871943489257319 -6.1409626642671356 0 0 0 0 0.043240879685484401 0.10680713064687453 0 0.10680713064687453 0.34803814358505036 0 0 0 0 -23.516871459031563 -19.877170316096681 0 -19.877170316096681 -4.3531872197490884 0 0 0 0 38.598135348449887 24.508822158589282 0 24.508822158589282 -6.7826950857706834 0 0 0 0 4.1885608197299007 16.024044489598964 0 16.024044489598964 4.0178744368186017 0 0 0 0 0.97735714484224445 34.242821460211417 0 34.242821460211417 0.39666622125150752 0 0 0 0 -22.635109188913702 -2.265007343430625 0 -2.265007343430625 3.2958622083547198 0 0 0 0 11.746513494003011 -5.1999071628206366 0 -5.1999071628206366 -24.845926265616072 0 0 0 0 6.9938603227203657 6.7897273198791481 0 6.7897273198791481 0.84485873795347288 0 0 0 0 2.5909023347685434 3.0171722361374123 0 3.0171722361374123 6.8305598857205041 0 0 0 0 19.823764853384091 12.144524871492649 0 12.144524871492649 0.58912370392681623 0 0 0 0 2.9917361375841196 0.63484678221159996 0 0.63484678221159996 0.085697653222072567 0 0 0 0 20.858524509879317 -0.35267612696225115 0 -0.35267612696225115 1.2507940754021547 0 0 0 0 114.54327412846305 16.035848016091222 0 16.035848016091222 3.3954086622287605 0 0 0 0 -0.1338335692072441 0.14222269567149404 0 0.14222269567149404 0.70093397027322624 0 0 0 0 -5.3088493465062356 6.3442704069802858 0 6.3442704069802858 -0.0071891143634275068 0 0 0 0 4.3622019496510802 6.0034654219471122 0 6.0034654219471122 0.0079530032071488677 0 0 0 0 -3.2218495544475445 0.984834290159597 0 0.984834290159597 0.7128099311976257 0 0 0 0 4.2064010458007033 3.4140598206777213 0 3.4140598206777213 -4.4345883079513442 0 0 0 0 2.5216396930088649 0.92346015884277222 0 0.92346015884277222 1.7219721730398305 0 0 0 0 14.322844152180096 0.32564689330138208 0 0.32564689330138208 -3.6268925088979813 0 0 0 0 -0.14136058292868903 -0.43063420813721676 0 -0.43063420813721676 0.15036712635480853 0 0 0 0 -24.23655790223529 12.365602424111785 0 12.365602424111785 -0.74754210891842376 0 0 0 0 -24.999765123528505 13.136363399761649 0 13.136363399761649 10.311503890032327 0 0 0 0 -6.3725062653220448 9.6760358333922341 0 9.6760358333922341 -0.00021552111161216481 0 0 0 0 -0.37932159631993123 0.36848634473489028 0 0.36848634473489028 0.32978163212371214 0 0 0 0 -9.1148189354389615 0.5441076267434255 0 0.5441076267434255 15.270264775237592 0 0 0 0 -5.6396907726566496 5.3914031025406075 0 5.3914031025406075 -13.112341868356452 0 0 0 0 -24.245740136443601 21.950236988883262 0 21.950236988883262 -15.352418520850051 0 0 0 0 17.169449862808051 7.4780797634498413 0 7.4780797634498413 90.362713881035233 0 0 0 0 97.062418218476523 -8.0802776139516936 0 -8.0802776139516936 38.572538073862233 0 0 0 0 1.3712420313013354 10.793001078537145 0 10.793001078537145 7.5563873605187837 0 0 0 0 9.914573300156917 27.072830925409107 0 27.072830925409107 37.873838581421296 0 0 0 0 21.294354703959357 54.287171516782053 0 54.287171516782053 9.5146224122345302 0 0 0 0 103.65098507240145 79.901914666283119 0 79.901914666283119 51.272198443379239 0 0 0 0 16.698180002077777 19.58951395732322 0 19.58951395732322 11.431981337691468 0 0 0 0 69.281902199973047 -29.077677905985183 0 -29.077677905985183 -4.482061705479282 0 0 0 0 7.415924777181317 -1.8829880763405527 0 -1.8829880763405527 -5.1071169232247939 0 0 0 0 38.744761986443336 7.6643039739483356 0 7.6643039739483356 -4.9818938691241783 0 0 0 0 1.0854526231487114 0.43115234072703501 0 0.43115234072703501 0.12362247243858526 0 0 0 0 62.251597770537046 98.04572837804335 0 98.04572837804335 105.2439646933849 0 0 0 0 140.23218693138278 60.279948235118354 0 60.279948235118354 18.283930380126549 0 0 0 0 51.143956237769999 52.118225359447024 0 52.118225359447024 18.236505131506419 0 0 0 0 69.087256452335168 80.816002830151774 0 80.816002830151774 19.499675662290429 0 0 0 0 76.030343595445629 59.66249016117581 0 59.66249016117581 3.6740824430744397 0 0 0 0 30.133894176035028 55.192480277364666 0 55.192480277364666 48.480165900244174 0 0 0 0 63.680369627490109 76.598005904649654 0 76.598005904649654 -0.016978876943539944 0 0 0 0 85.252992819087467 70.643239051244564 0 70.643239051244564 -2.8068828717732686 0 0 0 0 39.218692341467545 65.754432788892927 0 65.754432788892927 6.926272346983751 0 0 0 0 34.826055352959884 47.730755097611109 0 47.730755097611109 -5.5220066046040301 0 0 0 0 6.3345932630745665 73.916676501737129 0 73.916676501737129 -0.25292772244210937 0 0 0 0 -46.762421153138348 22.963436152675058 0 22.963436152675058 10.781486379681155 0 0 0 0 -0.3590233267497851 0.3502043982487848 0 0.3502043982487848 -0.087043653451601699 0 0 0 0 -8.5449272046844271 -17.840687875479489 0 -17.840687875479489 -31.813260882179748 0 0 0 0 -19.802410788390262 -19.684648724118233 0 -19.684648724118233 -23.854270381219976 0 0 0 0 -6.1255049811807112 0.62682304383088194 0 0.62682304383088194 -3.9501180617553473 0 0 0 0 25.25459526731629 1.5261388479657398 0 1.5261388479657398 -6.1312749653916399 0 0 0 0 30.8210403168016 25.228904726042856 0 25.228904726042856 0.18753373558502062 0 0 0 0 6.159008864835414 22.235571402092319 0 22.235571402092319 10.796751722766203 0 0 0 0 76.903948368099009 22.135726294874985 0 22.135726294874985 9.286377499941409 0 0 0 0 16.114698069973656 9.571067191999191 0 9.571067191999191 35.337625654588919 0 0 0 0 -3.5660109945911245 -9.8329179878855939 0 -9.8329179878855939 29.469605961101479 0 0 0 0 21.5922902874795 2.5805085530491851 0 2.5805085530491851 14.087595387922192 0 0 0 0 2.3208146601627959 -7.0010262033247272 0 -7.0010262033247272 -3.6458984516975761 0 0 0 0 -8.2005742562505475 -9.3746702267198998 0 -9.3746702267198998 12.726643057827459 0 0 0 0 -4.2806912341106909 -4.4736554995706683 0 -4.4736554995706683 6.832039779794286 0 0 0 0 -11.05121186382712 -15.926890877771257 0 -15.926890877771257 3.4085443451476749 0 0 0 0 2.0204003035109963 5.0661969306411265 0 5.0661969306411265 -2.3268454306216881 0 0 0 0 -7.9220194385252398 -8.478041051335822 0 -8.478041051335822 -5.6329177091374731 0 0 0 0 -0.74437155195300875 0.42984292418259429 0 0.42984292418259429 0.00031205202685669065 0 0 0 0 -3.4694578343405738 -18.262471053873014 0 -18.262471053873014 -15.827586884428456 0 0 0 0 -0.74429171669908101 0.42979968978761462 0 0.42979968978761462 0.00033477629767730832 0 0 0 0 -20.915230113529105 -12.696850479900604 0 -12.696850479900604 -3.988848181357298 0 0 0 0 1.3169914661129951 -6.6288407930605899 0 -6.6288407930605899 -35.475092031359964 0 0 0 0 -21.907400878666522 -23.716331355110015 0 -23.716331355110015 -34.276524950270868 0 0 0 0 -0.29760653928774872 0.38051377730978686 0 0.38051377730978686 0.082608929856533564 0 0 0 0 -1.4477075845134095 0.5629135878480156 0 0.5629135878480156 0.031976783048776269 0 0 0 0 -3.2033667640807835 -11.108931839604338 0 -11.108931839604338 -20.711554504077867 0 0 0 0 -1.334273227097583 0.24833695653069299 0 0.24833695653069299 -0.71948744068140513 0 0 0 0 -1.1541416723373246 0.45933290566186713 0 0.45933290566186713 -0.0047378394823929249 0 0 0 0 -2.1806366510563029 -0.21841450867606227 0 -0.21841450867606227 0.067160108746328717 0 0 0 0 -2.9619151791708576 -0.021423953368881143 0 -0.021423953368881143 0.37150384388581159 0 0 0 0 -7.8990316416802671 -6.6140327074972447 0 -6.6140327074972447 -15.844563381464468 0 0 0 0 -1.6008984594664071 0.78140264142530214 0 0.78140264142530214 0.00010269020822306629 0 0 0 0 -0.41849326826577027 0.57271357749567997 0 0.57271357749567997 0.028364095500683195 0 0 0 0 -0.38047988600237659 0.50871269279195985 0 0.50871269279195985 0.76799414792913012 0 0 0 0 -1.3135034291085503 0.69515188650848359 0 0.69515188650848359 0.019091237358225044 0 0 0 0 -0.87321314593536314 0.58872963875542439 0 0.58872963875542439 0.072714766119891916 0 0 0 0 -0.89538504392317364 0.66801730056811337 0 0.66801730056811337 0.29095594483394382 0 0 0 0 -53.822528960999989 -6.5925977282458916 0 -6.5925977282458916 135.78126816881831 0 0 0 0 -2.1108774377526061 50.823675080808243 0 50.823675080808243 -12.558265761665098 0 0 0 0 -105.24574053213485 -9.1230773045149363 0 -9.1230773045149363 18.997633917038911 0 0 0 0 -18.525941297084728 -75.838581732508601 0 -75.838581732508601 -199.12407746768076 0 0 0 0 -87.279320638273248 102.32390628138774 0 102.32390628138774 -22.724295492309466 0 0 0 0 -110.20130415885069 40.581823864882608 0 40.581823864882608 55.901107024590601 0 0 0 0 27.611660539826971 -1.0820254666505207 0 -1.0820254666505207 -82.057474784414808 0 0 0 0 -16.472925019826107 -4.6975969242976134 0 -4.6975969242976134 0.67986095651212963 0 0 0 0 -0.27587662865808094 -0.072573072940297578 0 -0.072573072940297578 0.031307889400430611 0 0 0 0 -14.577154051611615 -10.246141824814003 0 -10.246141824814003 14.657449018570333 0 0 0 0 -0.019837534384320676 -0.0010159673446850093 0 -0.0010159673446850093 -0.16641143949033221 0 0 0 0 -78.989441149226423 55.720078070221462 0 55.720078070221462 34.752255030101878 0 0 0 0 11.430909635751959 37.925994463136703 0 37.925994463136703 36.297664200438703 0 0 0 0 -90.513263804457893 53.41237306084804 0 53.41237306084804 48.499850911977774 0 0 0 0 -61.76701566782458 9.6811599606601249 0 9.6811599606601249 19.176579799197498 0 0 0 0 -56.378717195774925 53.31013636312548 0 53.31013636312548 14.617427381306697 0 0 0 0 -50.284410290328196 19.470672688408172 0 19.470672688408172 20.42857218521749 0 0 0 0 105.03162141761823 84.328802056854329 0 84.328802056854329 -15.991141164779037 0 0 0 0 -21.863472955083125 53.730355782476181 0 53.730355782476181 61.3853641787573 0 0 0 0 -27.530225560063627 34.925300724815315 0 34.925300724815315 22.390345616109698 0 0 0 0 -23.102466571261175 30.75215930694867 0 30.75215930694867 16.511072898865791 0 0 0 0 -25.446997977465799 25.893338672125537 0 25.893338672125537 16.891146956639204 0 0 0 0 -23.97795501334258 33.549437489966294 0 33.549437489966294 17.782532290291783 0 0 0 0 -11.963743708427501 21.940760865545599 0 21.940760865545599 16.985573975235638 0 0 0 0 0.91472830271231942 37.239089311837233 0 37.239089311837233 11.848418066579143 0 0 0 0 24.003985548546552 14.969553433329111 0 14.969553433329111 -57.595934478553318 0 0 0 0 -16.480638463006471 36.974767965373758 0 36.974767965373758 26.040077936744183 0 0 0 0 -3.5590267768618773 1.9904899076608586 0 1.9904899076608586 -1.4114751956859699 0 0 0 0 -3.4590550380344212 3.611239314366685 0 3.611239314366685 11.141354569340365 0 0 0 0 -26.452253354078948 42.185547599378651 0 42.185547599378651 -35.435900137865247 0 0 0 0 -13.692986047950399 31.585935052231434 0 31.585935052231434 -37.313005507265643 0 0 0 0 17.586433707456308 52.484660407875708 0 52.484660407875708 -126.55801793860155 0 0 0 0 -1.0146479307900016 0.96638881531798049 0 0.96638881531798049 -0.75135357676374426 0 0 0 0 10.288362650107047 40.974250958148787 0 40.974250958148787 -60.843986269217567 0 0 0 0 0.74496154215376009 56.505731951845519 0 56.505731951845519 -67.821990584210653 0 0 0 0 -0.99511180466912919 0.8117510290723402 0 0.8117510290723402 0.10103999626856819 0 0 0 0 -0.97490841792750871 0.81084936424304033 0 0.81084936424304033 -0.023576951181894401 0 0 0 0 -4.4935343363104039 3.3733917857462075 0 3.3733917857462075 -2.7906275775221729 0 0 0 0 11.514917676651748 44.497731687057239 0 44.497731687057239 -79.581230861680524 0 0 0 0 -24.365725887986628 43.857742385180245 0 43.857742385180245 41.606330051123223 0 0 0 0 -3.2293502305992661 65.318891769880793 0 65.318891769880793 -82.972291991114616 0 0 0 0 11.986662303217599 57.275366592723003 0 57.275366592723003 -109.40692545360071 0 0 0 0 10.783790161887737 47.764898150031513 0 47.764898150031513 -93.494009118435315 0 0 0 0 0.29399126716816681 -17.647459979220002 0 -17.647459979220002 -26.837340401270922 0 0 0 0 -0.10895241886477791 0.66303916847765976 0 0.66303916847765976 -0.14607092400883293 0 0 0 0 -0.41612398120743777 0.65394110840824737 0 0.65394110840824737 0.02859425927052861 0 0 0 0 -0.63592777782650955 0.70814860008613323 0 0.70814860008613323 -0.00029867206285416614 0 0 0 0 -38.220625021409433 74.468664648789854 0 74.468664648789854 -104.33483000433625 0 0 0 0 -36.037966204664372 28.16227133600114 0 28.16227133600114 -57.16905078398122 0 0 0 0 -61.225499609085091 67.57476077314459 0 67.57476077314459 -63.220757360159041 0 0 0 0 -53.881561375206729 77.091735896830869 0 77.091735896830869 -96.959504400065271 0 0 0 0 -37.166531532349836 11.957691249651361 0 11.957691249651361 -1.1606049547081057 0 0 0 0 -68.333413942031257 45.385351808538871 0 45.385351808538871 -31.487252800092392 0 0 0 0 -24.469987492522705 -0.14146615093159198 0 -0.14146615093159198 -16.563940172712137 0 0 0 0 -18.800127528393205 6.8021370626192947 0 6.8021370626192947 -0.22951693035429344 0 0 0 0 3.2840801835300226 7.5736541342976125 0 7.5736541342976125 -8.0832407449397579 0 0 0 0 6.008173126321708 4.5645548767406581 0 4.5645548767406581 -7.4340683997361339 0 0 0 0 -1.9307835321378661 0.46300624063587748 0 0.46300624063587748 -5.9341159710056672 0 0 0 0 -8.3248797434662265 10.382199539975772 0 10.382199539975772 -18.3575598489806 0 0 0 0 -1.1383252766208898 1.6978990629322652 0 1.6978990629322652 -4.5624346331424022 0 0 0 0 -6.8189358503695985 -5.2225206683360739 0 -5.2225206683360739 -12.135139707869712 0 0 0 0 3.3262217626661368 -4.9580034974487717 0 -4.9580034974487717 -4.2099235163659614 0 0 0 0 -6.0969039643732685 -8.1683078589012439 0 -8.1683078589012439 4.4701434988519395 0 0 0 0 -22.695176632891162 6.5467623628837828 0 6.5467623628837828 10.710102746728808 0 0 0 0 -4.213099767364838 -2.8623118582436291 0 -2.8623118582436291 -5.3070550010675106 0 0 0 0 -12.681019949968231 0.08250552317031179 0 0.08250552317031179 -10.768133107176254 0 0 0 0 -51.456205712845986 30.857259934074136 0 30.857259934074136 -27.277563963729335 0 0 0 0 -20.64809234778113 5.9425713819891826 0 5.9425713819891826 -7.0506021971486916 0 0 0 0 1.0669617988896789 4.4732301032363466 0 4.4732301032363466 0.46112050760848433 0 0 0 0 0.45933571486963132 0.80244582204115922 0 0.80244582204115922 1.3362294771424104 0 0 0 0 123.66036442270524 2.3461862206113437 0 2.3461862206113437 -20.578424280221952 0 0 0 0 10.928412701989146 4.8541430136901909 0 4.8541430136901909 0.069253143992682453 0 0 0 0 0.73243491432841168 0.18042102178385022 0 0.18042102178385022 0.12056435415523481 0 0 0 0 1.496070916968165 6.5372557247064833 0 6.5372557247064833 4.5067895073116233 0 0 0 0 11.205434771021828 -2.3800454437441658 0 -2.3800454437441658 -3.8038300499993056 0 0 0 0 6.5612849709759757 0.95480451702860591 0 0.95480451702860591 5.6134766329491868 0 0 0 0 17.021894409852393 3.7025689353304188 0 3.7025689353304188 -4.6225766583338554 0 0 0 0 -14.561567124881549 14.540504474154659 0 14.540504474154659 16.135255221151965 0 0 0 0 54.089458422591633 -0.14399472385048284 0 -0.14399472385048284 -6.1591963288938132 0 0 0 0 1.1889187180422596 18.199593716690288 0 18.199593716690288 12.587519895507285 0 0 0 0 0.10393259918374298 1.0708540134165929 0 1.0708540134165929 -0.61683168570788638 0 0 0 0 1.2876988490500558 2.3138940635115119 0 2.3138940635115119 4.2928186675049744 0 0 0 0 6.357460462545987 7.4200617577661205 0 7.4200617577661205 -0.31534142586315284 0 0 0 0 6.4548775806288177 -5.5109974578372203 0 -5.5109974578372203 3.8326305327459522 0 0 0 0 6.5188183601601395 8.6718150854279656 0 8.6718150854279656 0.65251608299513464 0 0 0 0 2.2516885426921363 4.8574801111317356 0 4.8574801111317356 0.95418673714993929 0 0 0 0 -5.2267194670350818 11.050226107219942 0 11.050226107219942 4.8937794601843052 0 0 0 0 3.9818440028102486 7.4868351947243355 0 7.4868351947243355 2.9679982449351883 0 0 0 0 0.96877641130413394 12.465017260727109 0 12.465017260727109 -0.64899198304738093 0 0 0 0 13.238151650497457 3.3784078872849932 0 3.3784078872849932 2.2153125600834755 0 0 0 0 7.4019482954108753 11.088555320140586 0 11.088555320140586 3.3466090399779205 0 0 0 0 3.0016092613145702 7.5512174166760815 0 7.5512174166760815 5.3795508808689192 0 0 0 0 -17.890148647116803 63.581270712017613 0 63.581270712017613 -32.230611609749758 0 0 0 0 -31.044024269827787 -48.469017283774519 0 -48.469017283774519 30.625287246053631 0 0 0 0 5.808549601008508 0.52300792788628314 0 0.52300792788628314 11.775833868652626 0 0 0 0 0.75877258158652694 -0.76183735423319376 0 -0.76183735423319376 11.923509783366171 0 0 0 0 -0.46400003497183206 0.87066967618739 0 0.87066967618739 11.129258718417987 0 0 0 0 -5.1254327488343279 11.996036048778251 0 11.996036048778251 4.5419111538139987 0 0 0 0 0.8107288078667878 4.4492349554829733 0 4.4492349554829733 6.3398580020748128 0 0 0 0 -12.901190204473096 11.288211824779864 0 11.288211824779864 4.4850121426588885 0 0 0 0 1.9423429781131674 1.9655752808153046 0 1.9655752808153046 0.34661199346051674 0 0 0 0 -33.843100652944486 -33.712285728616735 0 -33.712285728616735 161.42441509621494 0 0 0 0 -5.2973811510145055 4.4614701407994986 0 4.4614701407994986 -0.23379642963078595 0 0 0 0 -20.578241286399134 -40.429061555269072 0 -40.429061555269072 -24.695088015934743 0 0 0 0 -7.0618940184467647 7.097300023934622 0 7.097300023934622 26.712601758545134 0 0 0 0 -52.632104852901648 57.805841382533799 0 57.805841382533799 39.589255157957268 0 0 0 0 -8.5354183673621264 -14.487144033063032 0 -14.487144033063032 -4.7630169910553377 0 0 0 0 1.1746113631370463 11.104412172143611 0 11.104412172143611 4.3152534761211427 0 0 0 0 6.9965075974265467 7.8284078181672836 0 7.8284078181672836 3.7624832910462231 0 0 0 0 0.4495011745057127 13.888194487474721 0 13.888194487474721 -1.0230578802184027 0 0 0 0 -1.283257360567859 8.6619620216083604 0 8.6619620216083604 5.126902183641505 0 0 0 0 1.0680984928239923 9.7354891528530061 0 9.7354891528530061 6.1128262592910687 0 0 0 0 1.0813406985653273 9.4901217247233944 0 9.4901217247233944 3.066240229089999 0 0 0 0 7.7807114355423685 7.2687409911360517 0 7.2687409911360517 3.2207941913845488 0 0 0 0 3.6607181715817205 7.6650050004050172 0 7.6650050004050172 3.5280571297125789 0 0 0 0 -0.46311802609421626 0.81280379588323726 0 0.81280379588323726 -0.89679964873569418 0 0 0 0 21.47997573248449 12.091276362347799 0 12.091276362347799 0.72462819408792711 0 0 0 0 10.349357779005004 12.057604849124345 0 12.057604849124345 6.8931566938317701 0 0 0 0 4.2172445434262045 10.392798842259253 0 10.392798842259253 4.1572436806727637 0 0 0 0 5.4466100188219571 6.6322608125410625 0 6.6322608125410625 5.3474793862797014 0 0 0 0 7.391288317397084 10.009268378917568 0 10.009268378917568 2.1585030902806466 0 0 0 0 8.4832698498612444 7.2632928542743684 0 7.2632928542743684 5.8437533015094232 0 0 0 0 10.429353012524189 22.972541519993001 0 22.972541519993001 -10.929588574370428 0 0 0 0 26.862805389917412 15.090562962101558 0 15.090562962101558 -9.56472125221444 0 0 0 0 -1.2988913507251709 13.115821489948758 0 13.115821489948758 1.0501976226805709 0 0 0 0 6.7601204776019586 25.963483138280026 0 25.963483138280026 -4.0122108724590362 0 0 0 0 -2.2766610961307379 11.730156745757085 0 11.730156745757085 -0.33949610288618715 0 0 0 0 -22.18959354618346 16.533412925486118 0 16.533412925486118 6.5979658197957178 0 0 0 0 0.33211492002737941 8.2442129319924788 0 8.2442129319924788 4.0577436297371605 0 0 0 0 1.8032198853875343 8.4307762328567151 0 8.4307762328567151 -0.45246101464908861 0 0 0 0 -6.1435384202031855 10.041633612536316 0 10.041633612536316 -0.39699172252517201 0 0 0 0 -4.0300237678620761 15.065135567701873 0 15.065135567701873 -4.9409101885357813 0 0 0 0 6.3744988877770083 9.340600845103836 0 9.340600845103836 -1.3125631593557046 0 0 0 0 0.33243333888049165 7.6525822929761489 0 7.6525822929761489 -7.0180581697532034 0 0 0 0 0.015871180708927568 7.8524505478781066 0 7.8524505478781066 -1.2062989004771225 0 0 0 0 4.4690403270615207 7.7616220730069472 0 7.7616220730069472 -0.44176315797858479 0 0 0 0 0.92349183982332761 19.942786504690957 0 19.942786504690957 -6.7866790467578539 0 0 0 0 7.4358910514716499 6.63305117790489 0 6.63305117790489 2.1201969807017349 0 0 0 0 7.4936679099682806 4.8186177114862403 0 4.8186177114862403 -1.7449828097269346 0 0 0 0 28.884294808944105 9.681036429172309 0 9.681036429172309 -18.091816956770344 0 0 0 0 18.691990601817452 -5.8610838325039367 0 -5.8610838325039367 -10.280644451076114 0 0 0 0 20.026201388684967 3.7890799482802322 0 3.7890799482802322 0.27997656399747939 0 0 0 0 15.838663624005221 -5.9512197487679259 0 -5.9512197487679259 10.735503631971369 0 0 0 0 38.846409503476025 -19.683047062098922 0 -19.683047062098922 5.1314273691814378 0 0 0 0 14.280206254971745 0.55111690521835044 0 0.55111690521835044 -1.2788156440674356 0 0 0 0 19.092664278325174 3.8784611382197909 0 3.8784611382197909 -3.4842242784161499 0 0 0 0 20.971584728260495 0.27037113420283276 0 0.27037113420283276 0.019496886773595179 0 0 0 0 4.1742015522322475 4.0574154557666438 0 4.0574154557666438 3.5692339041108312 0 0 0 0 18.507593412134156 3.8154529545290643 0 3.8154529545290643 1.6570095758397656 0 0 0 0 -0.92456531830066524 36.415476826042323 0 36.415476826042323 -46.969004531800238 0 0 0 0 -11.707300064035735 -10.864478128209157 0 -10.864478128209157 -8.6479545064648846 0 0 0 0 -27.544027228224877 24.874654126008863 0 24.874654126008863 21.052777911372687 0 0 0 0 -24.176666732784724 30.550946730048963 0 30.550946730048963 28.843547150325321 0 0 0 0 0.56824583804202788 0.53174109233415479 0 0.53174109233415479 0.23508362887088552 0 0 0 0 -3.5003183580192854 57.386353969434822 0 57.386353969434822 -98.289431757939383 0 0 0 0 -16.818037994653423 25.897915673409443 0 25.897915673409443 -33.90293206055776 0 0 0 0 -24.639778997225676 25.641990826934943 0 25.641990826934943 -1.5883061603235546 0 0 0 0 -25.792440259255955 43.855670851685318 0 43.855670851685318 11.693164532836818 0 0 0 0 -30.333590939002534 44.674478892515253 0 44.674478892515253 14.662386776808553 0 0 0 0 -20.451978279013929 35.866106726127327 0 35.866106726127327 15.805434666617657 0 0 0 0 -43.561385234694171 33.067172225712966 0 33.067172225712966 17.877818820968969 0 0 0 0 -25.94905097071387 20.589906418053943 0 20.589906418053943 15.922460784202485 0 0 0 0 -29.443499089808029 22.890375331393443 0 22.890375331393443 14.702215669938596 0 0 0 0 -25.601308367866295 14.010464215454704 0 14.010464215454704 4.3911132394277956 0 0 0 0 22.219611206161062 32.446879644590808 0 32.446879644590808 8.2840427142564295 0 0 0 0 -55.787408385967865 -4.9981255219081504 0 -4.9981255219081504 22.519126089850033 0 0 0 0 3.06014908425459 -79.335437319940866 0 -79.335437319940866 -74.13871360279154 0 0 0 0 -28.382401874423522 15.11035404354152 0 15.11035404354152 24.683657041707193 0 0 0 0 -29.134844839334619 26.997982457955572 0 26.997982457955572 33.939511188415054 0 0 0 0 111.76130750301309 69.335263507949094 0 69.335263507949094 17.900380886198036 0 0 0 0 1.1114284910045775 0.96315811843664445 0 0.96315811843664445 0.79879799694752052 0 0 0 0 -41.044940010599021 25.876370253765344 0 25.876370253765344 37.925788430162356 0 0 0 0 116.08165832682124 -55.59363121039803 0 -55.59363121039803 2.1209830379011692 0 0 0 0 16.549908286739083 -14.687251451941393 0 -14.687251451941393 35.35211410940974 0 0 0 0 -23.143791259771206 46.388886963555706 0 46.388886963555706 -6.6207277904759394 0 0 0 0 63.604783266660888 21.129528196612227 0 21.129528196612227 -38.906244755909029 0 0 0 0 21.806990095139554 1.8795337889168877 0 1.8795337889168877 3.025869303230138 0 0 0 0 2.8098673183781813 2.6250531322576389 0 2.6250531322576389 2.0738383707944266 0 0 0 0 46.371214407059597 -20.817319809213586 0 -20.817319809213586 0.94396281124500092 0 0 0 0 -6.6306430952536175 70.867443015362369 0 70.867443015362369 -50.731648290762678 0 0 0 0 49.978912653697989 3.0530640767865407 0 3.0530640767865407 0.24004794050506462 0 0 0 0 33.872259229134215 115.51740005049123 0 115.51740005049123 386.88940033480776 0 0 0 0 -5.1416878679447109 4.4778273574975174 0 4.4778273574975174 0.91157029050191341 0 0 0 0 0.45763859124883766 0.44868993131037094 0 0.44868993131037094 0.67948576711471986 0 0 0 0 -0.95163734798548205 0.70694006924319552 0 0.70694006924319552 0.78163371560808059 0 0 0 0 4.3734312893193419 5.4631867167709061 0 5.4631867167709061 2.7738976617183653 0 0 0 0 139.53214783243493 243.76179328854323 0 243.76179328854323 301.34158164152268 0 0 0 0 0.1806285823845874 366.5571464050696 0 366.5571464050696 196.59789976165484 0 0 0 0 317.8642221680775 380.37154014095086 0 380.37154014095086 0.09728418341728684 0 0 0 0 355.44943267628696 155.86327172307119 0 155.86327172307119 40.383386468452045 0 0 0 0 666.98884864121101 152.15530388670686 0 152.15530388670686 -27.22539656061781 0 0 0 0 -5.6410740550945775 9.3109446431162723 0 9.3109446431162723 0.0026567985078145284 0 0 0 0 0.64738532710720698 0.50187718543114812 0 0.50187718543114812 1.1727224884091214 0 0 0 0 -8.9687293771887653 8.2955065376834227 0 8.2955065376834227 0.45726554796056007 0 0 0 0 -1.1765503363494645 5.2078247012759675 0 5.2078247012759675 1.5463052359227731 0 0 0 0 -4.3661246487909011 10.403022486585996 0 10.403022486585996 -1.0087161777773872 0 0 0 0 -5.3717657308043272 -0.90395914129294397 0 -0.90395914129294397 9.6418863447997865 0 0 0 0 0.80025828219345385 0.90273264987389723 0 0.90273264987389723 0.51387351796775249 0 0 0 0 1.2012216062739753 7.0572667833757805 0 7.0572667833757805 -0.0091999359610781539 0 0 0 0 0.49328679550876231 1.4811896568249523 0 1.4811896568249523 3.2672151426999392 0 0 0 0 4.7583616719311976 3.6705831509498239 0 3.6705831509498239 0.046724721403734293 0 0 0 0 -3.6052413833931496 11.736496815266946 0 11.736496815266946 18.511276445809926 0 0 0 0 4.8773456387825718 6.3875352521476998 0 6.3875352521476998 6.3657561494801485 0 0 0 0 -0.57124102095166718 3.02252443146714 0 3.02252443146714 6.0020967085118571 0 0 0 0 9.3160723984110518 9.5354298552229011 0 9.5354298552229011 5.2292466433173104 0 0 0 0 140.42418378146829 248.23716556813525 0 248.23716556813525 113.04763007073234 0 0 0 0 0.079110898960927045 1.3540856973460009 0 1.3540856973460009 0.53931637954721268 0 0 0 0 3.3569063383620232 7.8508055181519012 0 7.8508055181519012 6.742960185634729 0 0 0 0 1.1464155590329099 1.1512523879020691 0 1.1512523879020691 0.55443561105885308 0 0 0 0 3.56453012215934 4.3267863565042717 0 4.3267863565042717 1.6913184599980013 0 0 0 0 1.3303014968296338 3.4782165227952646 0 3.4782165227952646 1.7117734709255501 0 0 0 0 2.5375385317602195 4.4491659826744581 0 4.4491659826744581 6.8679757105672365 0 0 0 0 3.3174233182635362 4.3244836482163009 0 4.3244836482163009 2.1396921864370597 0 0 0 0 0.57060763285139959 3.0012434341009744 0 3.0012434341009744 1.270716242131968 0 0 0 0 0.71703293589700934 4.7904658476902569 0 4.7904658476902569 1.0932928901584091 0 0 0 0 1.8848775087353715 4.0171583787996497 0 4.0171583787996497 1.5761089611251009 0 0 0 0 2.0886193589030881 4.4358845853685125 0 4.4358845853685125 -0.0042701958764155279 0 0 0 0 -0.0069071088419150328 4.8146379686750151 0 4.8146379686750151 0.96384732799651829 0 0 0 0 2.1327529848002769 4.0842569942510067 0 4.0842569942510067 1.2012184359227831 0 0 0 0 0.0012323905500295496 3.0074905627634223 0 3.0074905627634223 -2.0197204589481643 0 0 0 0 1.9404926626521046 5.028530931496789 0 5.028530931496789 1.1097330311708902 0 0 0 0 13.879698841576101 14.884532859423416 0 14.884532859423416 -9.8604911977090524 0 0 0 0 -13.583516860358941 2.7921733581533772 0 2.7921733581533772 21.010190314273586 0 0 0 0 -7.1537040591483674 10.041289187714938 0 10.041289187714938 -0.30115391773870215 0 0 0 0 -2.5214568531318946 3.2520685870217676 0 3.2520685870217676 -2.5193090825559921 0 0 0 0 9.9467289103140502 6.8526648996885342 0 6.8526648996885342 5.2358893773089221 0 0 0 0 10.779233595985716 8.3907975703732518 0 8.3907975703732518 -0.0014154864165902836 0 0 0 0 5.0531790437817108 10.508908353851439 0 10.508908353851439 2.5572910661139758 0 0 0 0 2.9286111040964897 5.0122464272053548 0 5.0122464272053548 1.8691019411726302 0 0 0 0 1.624161434349837 1.7168133191356993 0 1.7168133191356993 -2.3406584860418 0 0 0 0 8.8435174790820383 17.083994104426893 0 17.083994104426893 5.3154980077324581 0 0 0 0 -0.2214563813532793 2.9402579949191257 0 2.9402579949191257 1.7891223729352035 0 0 0 0 -38.749890049491114 9.4343242293889489 0 9.4343242293889489 17.258618699670478 0 0 0 0 0.11278453669105082 3.2127406425811218 0 3.2127406425811218 0.0081453752973175142 0 0 0 0 16.293864254403161 5.3229156809011329 0 5.3229156809011329 1.7037972656380589 0 0 0 0 0.16695120498525967 0.2120505332243745 0 0.2120505332243745 0.0086937688008603686 0 0 0 0 -130.16151667893064 -42.410919276982895 0 -42.410919276982895 -2.7606517364547472 0 0 0 0 -78.15797751845821 269.92941354652885 0 269.92941354652885 0.18284440029980187 0 0 0 0 -0.79801979373710452 1.1105487329305959 0 1.1105487329305959 -0.1489959612487155 0 0 0 0 -33.027594976399996 11.232166864652754 0 11.232166864652754 13.039130535537879 0 0 0 0 -16.691510339809611 5.3426054169140116 0 5.3426054169140116 11.715164555283991 0 0 0 0 -35.313809759614742 11.128050411031836 0 11.128050411031836 20.603631441445941 0 0 0 0 -17.154944353357678 -1.3952458068742999 0 -1.3952458068742999 23.886331522247929 0 0 0 0 -73.004649954717024 24.801530909468056 0 24.801530909468056 16.71026021157877 0 0 0 0 -33.843782378706692 14.117888732247593 0 14.117888732247593 0.58706502038694452 0 0 0 0 0.060983559434772128 3.2009671765254595 0 3.2009671765254595 0.83739362575106924 0 0 0 0 -4.5061298091404751 12.100999326040437 0 12.100999326040437 -7.8349302408505537 0 0 0 0 -19.292389203995299 30.498497514534847 0 30.498497514534847 -30.488306972622013 0 0 0 0 -0.35387154919412467 1.1275341955452731 0 1.1275341955452731 0.60625237501432316 0 0 0 0 -23.85514554422025 -8.3133453063719571 0 -8.3133453063719571 -3.7963078420198144 0 0 0 0 -24.253839480751594 4.6825849192664464 0 4.6825849192664464 14.17805936181594 0 0 0 0 -35.417156792462265 -4.086533003359591 0 -4.086533003359591 7.3405950312080677 0 0 0 0 -0.34318036882327435 4.3955812844275997 0 4.3955812844275997 3.2484076640913884 0 0 0 0 -8.8637618661168744 -0.31795629125190317 0 -0.31795629125190317 -0.036524972431379865 0 0 0 0 4.4245169216169096 5.9821395114073734 0 5.9821395114073734 1.5577906939579407 0 0 0 0 -0.30753993785313405 0.52509888216496847 0 0.52509888216496847 -0.19934668369906916 0 0 0 0 -63.34132532313015 6.6108790519692775 0 6.6108790519692775 17.875749454117795 0 0 0 0 -1.4887681236833785 3.6731179864180152 0 3.6731179864180152 2.697486934684882 0 0 0 0 -26.713966600573258 -8.8082801552045566 0 -8.8082801552045566 11.955453591049263 0 0 0 0 -26.742999627243989 10.460464751620748 0 10.460464751620748 -3.8837069364381023 0 0 0 0 0.73575872434039036 8.7577281307113175 0 8.7577281307113175 -3.5184863309414283 0 0 0 0 -10.548492894105816 8.9599557801871335 0 8.9599557801871335 -2.8822805260024325 0 0 0 0 12.23739148853474 17.772029259364899 0 17.772029259364899 -21.129528256385129 0 0 0 0 0.58670041768835879 4.8043899091408093 0 4.8043899091408093 0.4069150608415697 0 0 0 0 35.38248950032721 36.914043578854034 0 36.914043578854034 -5.9628579952059226 0 0 0 0 3.9086304997732881 4.9264111639748727 0 4.9264111639748727 2.2697917397838552 0 0 0 0 -0.15642834700713659 8.3824762769864609 0 8.3824762769864609 -2.0613455048933247 0 0 0 0 56.116744896678938 -0.13454606033701566 0 -0.13454606033701566 -6.3709511411507265 0 0 0 0 -23.358579672392807 13.633947503769377 0 13.633947503769377 -15.149142211500475 0 0 0 0 0.0051181228410897006 0.23244837718066691 0 0.23244837718066691 0.03488014915733828 0 0 0 0 38.523447889774616 33.477596031021903 0 33.477596031021903 5.9641859828898305 0 0 0 0 32.166574303297239 20.188391182664418 0 20.188391182664418 -5.0232055488122569 0 0 0 0 21.530607197419158 -0.27631499518975033 0 -0.27631499518975033 -1.5284122168850445 0 0 0 0 -4.8898190436611912 12.596561196397033 0 12.596561196397033 0.095383825948374579 0 0 0 0 3.466374134131911 24.15489592830636 0 24.15489592830636 6.2588250444878213 0 0 0 0 0.6380340052091924 9.5017264802199861 0 9.5017264802199861 -20.864512512227975 0 0 0 0 -4.6634941411812179 5.1370137958774649 0 5.1370137958774649 -4.5677173117383063 0 0 0 0 -3.5067049291319563 -0.33682127433121423 0 -0.33682127433121423 -19.360230268192026 0 0 0 0 -31.515050892096042 16.916878549605826 0 16.916878549605826 20.543717303209633 0 0 0 0 5.1056214880110957 3.3003592870293037 0 3.3003592870293037 1.8525149473095368 0 0 0 0 0.7136577937835682 6.9029744500112429 0 6.9029744500112429 0.82546078238192422 0 0 0 0 2.2316318763723757 7.7363172031832619 0 7.7363172031832619 -2.0383078752965957 0 0 0 0 3.1706760655524704 5.2864109064730656 0 5.2864109064730656 0.56240811131033297 0 0 0 0 2.5084795175353065 4.6867048540225369 0 4.6867048540225369 1.1398832735085307 0 0 0 0 2.5002614581626403 5.7383237235853812 0 5.7383237235853812 5.8632947367586894 0 0 0 0 1.3346650786185705 3.0217444373846369 0 3.0217444373846369 -1.0678381153293159 0 0 0 0 1.5384741557478847 2.4374798323219622 0 2.4374798323219622 -1.3538422518716704 0 0 0 0 1.6501500226013377 6.3643521822286857 0 6.3643521822286857 1.7001840485736466 0 0 0 0 0.3113849623738365 3.2605816332325048 0 3.2605816332325048 1.7660326251493359 0 0 0 0 0.51798482197818885 4.3827562672793192 0 4.3827562672793192 0.81502054888551356 0 0 0 0 3.0301907631419454 4.905852386065817 0 4.905852386065817 2.139963652311053 0 0 0 0 2.4446301460411632 4.5690284109732602 0 4.5690284109732602 -0.8550819907359255 0 0 0 0 2.3801618235097521 4.7680981108561582 0 4.7680981108561582 -0.68724547230522148 0 0 0 0 4.5255117980632349 4.0936470377309888 0 4.0936470377309888 -0.56499364888077253 0 0 0 0 4.2866300673497761 3.1191995147999494 0 3.1191995147999494 1.1813362690738245 0 0 0 0 -1.0626447663657927 12.385375754011307 0 12.385375754011307 -31.71868371245364 0 0 0 0 -0.70202962248367839 9.5323019970555833 0 9.5323019970555833 -9.5025412430968572 0 0 0 0 -2.5498879072762435 1.6674288227763157 0 1.6674288227763157 0.49111061710635795 0 0 0 0 0.70753564798846469 3.8194629096783395 0 3.8194629096783395 1.4778178074378943 0 0 0 0 1.1855012491687376 4.0377464927169058 0 4.0377464927169058 0.57567552211457951 0 0 0 0 0.94817052713828076 3.3749875607819479 0 3.3749875607819479 1.9077302504809062 0 0 0 0 2.1715577511689048 2.5933263280905088 0 2.5933263280905088 -0.30650346234168779 0 0 0 0 2.0178059457939526 3.9214739701837971 0 3.9214739701837971 -0.43759712870814838 0 0 0 0 0.010029286997450981 10.335751781816725 0 10.335751781816725 -15.798744326039014 0 0 0 0 -0.53081706611510526 12.903268114783941 0 12.903268114783941 -15.540779321025184 0 0 0 0 -2.8813477940616394 12.703302278169758 0 12.703302278169758 -15.551975506357849 0 0 0 0 -3.8317719385049713 9.6986201832696679 0 9.6986201832696679 -15.889494574957098 0 0 0 0 -7.1789241516380571 13.087559112601411 0 13.087559112601411 -7.7097195700116572 0 0 0 0 -6.7028295528780291 14.711568687263025 0 14.711568687263025 -2.1703682425900297 0 0 0 0 -9.6488319936979678 14.477597368915667 0 14.477597368915667 -8.4827476327391196 0 0 0 0 -10.976924806747547 20.109866949394018 0 20.109866949394018 -11.467588865987636 0 0 0 0 -1.2516209981204156 26.007824349137081 0 26.007824349137081 -15.879409944063354 0 0 0 0 -20.663175445182787 20.5166721860287 0 20.5166721860287 -6.1785565210448112 0 0 0 0 0.74597747797314184 0.73431665323534201 0 0.73431665323534201 0.60177403092786719 0 0 0 0 -0.021290478345690644 10.669453470188728 0 10.669453470188728 -13.63610129767585 0 0 0 0 -19.754077262489432 -1.8777245045158963 0 -1.8777245045158963 12.434598021258353 0 0 0 0 -1.2763163636409445 229.77501856439449 0 229.77501856439449 112.83647735334489 0 0 0 0 7.0362210610710463 20.400220246950994 0 20.400220246950994 -147.50196195988065 0 0 0 0 -1.0739107467781395 0.20011079578853597 0 0.20011079578853597 -0.2082934398762788 0 0 0 0 -7.2167241477527568 12.80520754042027 0 12.80520754042027 30.363682159491873 0 0 0 0 0.0099632848214241676 16.921020050544939 0 16.921020050544939 8.1004342963824456 0 0 0 0 -0.8124444154673256 13.845151019791047 0 13.845151019791047 7.1620679007419312 0 0 0 0 6.7710445057400648 3.4894144314966979 0 3.4894144314966979 -0.79687427030330582 0 0 0 0 2.7127658910867467 8.8355964490274346 0 8.8355964490274346 -11.452833893659772 0 0 0 0 3.4537277947260066 2.2199075869967277 0 2.2199075869967277 1.358983621607134 0 0 0 0 2.0436691528921074 4.2634840401424299 0 4.2634840401424299 2.9684454649604959 0 0 0 0 4.634734586776176 14.059884003519983 0 14.059884003519983 -11.148221925579492 0 0 0 0 -0.0088476346500101499 8.8714187426930948 0 8.8714187426930948 -19.794384101915057 0 0 0 0 2.5898318133731664 1.9218694101527944 0 1.9218694101527944 -27.242440281763265 0 0 0 0 0.2057339360516508 0.47988615320925732 0 0.47988615320925732 0.74307566630438515 0 0 0 0 -9.7057936354722187 16.140990004819287 0 16.140990004819287 -8.9005060689341917 0 0 0 0 -0.2108231594611425 3.2006552448510774 0 3.2006552448510774 -0.1953662562318641 0 0 0 0 -14.37569319530121 -5.4573051200468399 0 -5.4573051200468399 58.728847633664827 0 0 0 0 -0.0034076560780334614 6.0218464473335231 0 6.0218464473335231 -12.06515035421944 0 0 0 0 0.35513827251111252 -0.30729993698404279 0 -0.30729993698404279 -0.15095368514155538 0 0 0 0 2.5999567930048215 5.1105789419043504 0 5.1105789419043504 -19.241557642386397 0 0 0 0 -6.902528745701602 7.445939793293519 0 7.445939793293519 28.281505912951616 0 0 0 0 -13.28407917081131 -3.8157989204014484 0 -3.8157989204014484 16.112273048047427 0 0 0 0 0.020482085597905098 18.154933528350739 0 18.154933528350739 19.226157280595544 0 0 0 0 -2.2701636484762275 2.2134103383850743 0 2.2134103383850743 0.72465962371188652 0 0 0 0 -11.660945401334175 10.98570889315306 0 10.98570889315306 -13.60270875879894 0 0 0 0 0.0011398437554876995 17.02074849928945 0 17.02074849928945 -13.221113525176406 0 0 0 0 1.7091760357334138 2.0700599442717449 0 2.0700599442717449 2.2675428569656546 0 0 0 0 -14.202763330358607 29.7240968592954 0 29.7240968592954 -17.649661155868671 0 0 0 0 -17.305840782464657 20.476805050449002 0 20.476805050449002 -6.2959299878791626 0 0 0 0 0.75695535415957238 14.77722237282444 0 14.77722237282444 -25.414281978099098 0 0 0 0 -16.292410324575258 16.150157584412341 0 16.150157584412341 -4.1754721784418507 0 0 0 0 -5.4946098438085755 15.569129258014527 0 15.569129258014527 -9.2302424510644414 0 0 0 0 -12.183880830913949 20.34111451170611 0 20.34111451170611 -8.6297863884556136 0 0 0 0 2.506514664166513 3.0955264924697152 0 3.0955264924697152 3.8914882952362895 0 0 0 0 -10.302030748200195 51.858232859892723 0 51.858232859892723 -8.789672320614045 0 0 0 0 -23.551493921193469 -26.23574930322502 0 -26.23574930322502 24.625882080948031 0 0 0 0 0.34806357266624843 0.14658849316643963 0 0.14658849316643963 -0.32307586168559688 0 0 0 0 5.4401926066893793 12.503077169407788 0 12.503077169407788 17.451749745119741 0 0 0 0 12.818893373310857 -24.779205358909167 0 -24.779205358909167 19.429652130738759 0 0 0 0 0.12762066265369754 0.63913594566476384 0 0.63913594566476384 -0.42754406862609784 0 0 0 0 -21.002996472907398 3.6516609515806522 0 3.6516609515806522 23.218242708524485 0 0 0 0 -34.045509130799473 19.382725142649178 0 19.382725142649178 -0.085338320501250564 0 0 0 0 2.6169831804620074 4.2879438918729189 0 4.2879438918729189 4.3129589675162983 0 0 0 0 -40.809824493335327 12.980708070258515 0 12.980708070258515 35.115600101233213 0 0 0 0 9.9592774197662948 39.812363477387407 0 39.812363477387407 11.344822262297384 0 0 0 0 -4.2192364586699114 14.385518819744448 0 14.385518819744448 -8.053102011517467 0 0 0 0 -2.9914091379505408 11.457427198203732 0 11.457427198203732 -9.2978914412815357 0 0 0 0 -4.649084136413876 9.8107229406132319 0 9.8107229406132319 -7.600283383491842 0 0 0 0 -2.9212297730437058 11.994160504950287 0 11.994160504950287 -7.2966470981064049 0 0 0 0 -1.2581316074920323 12.083308136330743 0 12.083308136330743 -9.0846787705149836 0 0 0 0 -4.0128733117962838 13.709030649410124 0 13.709030649410124 -7.8722103798006628 0 0 0 0 7.3905086153881712 13.101462335091128 0 13.101462335091128 -9.0148447848587239 0 0 0 0 -1.627738213601333 14.97350255933361 0 14.97350255933361 -9.1954779583484196 0 0 0 0 -5.1428361957950983 16.758288315757227 0 16.758288315757227 -5.2142822441273893 0 0 0 0 7.1991359606399783 19.088128761826738 0 19.088128761826738 -5.4113660776938559 0 0 0 0 2.7558774295093826 9.7751470297548622 0 9.7751470297548622 -7.2163370453181415 0 0 0 0 12.886262210959103 7.3107328093028627 0 7.3107328093028627 -7.0257926261310786 0 0 0 0 5.4593102655999246 7.32558168398009 0 7.32558168398009 -4.5546335534672835 0 0 0 0 4.5445773411702248 14.618633358850275 0 14.618633358850275 -4.989053137407609 0 0 0 0 2.5470735831013371 10.132376655282769 0 10.132376655282769 -8.0891698480645573 0 0 0 0 -2.415166985855393 2.3129915335880105 0 2.3129915335880105 -0.16482515523090768 0 0 0 0 -13.096807476344111 12.458218695289361 0 12.458218695289361 -3.444981357573397 0 0 0 0 -21.919591296086587 15.352188845956125 0 15.352188845956125 -4.658348314334944 0 0 0 0 0.35945607420603082 7.8335715206119083 0 7.8335715206119083 -6.3793982650407131 0 0 0 0 3.3027292756069073 10.148320158762544 0 10.148320158762544 -8.3392446666093747 0 0 0 0 -4.0810041049694341 2.27102903381145 0 2.27102903381145 -0.38725277446341977 0 0 0 0 -7.048419635522805 10.822036341161038 0 10.822036341161038 -5.4186065229778251 0 0 0 0 -2.8993519580371867 6.6081930656446275 0 6.6081930656446275 -5.0625346192591678 0 0 0 0 -11.0759071221255 7.9782155801940462 0 7.9782155801940462 -3.1366977059328747 0 0 0 0 -2.8667861791818723 7.9750767308405557 0 7.9750767308405557 -6.9970778040660662 0 0 0 0 -2.6504666132659622 11.122655045238389 0 11.122655045238389 -5.1709191240938708 0 0 0 0 -22.511445486303273 19.62358694146269 0 19.62358694146269 -10.993369788860946 0 0 0 0 1.0284678830581733 0.70394018755688936 0 0.70394018755688936 -0.02528320908292514 0 0 0 0 -22.473660770961942 14.869852003611868 0 14.869852003611868 -18.641586434288911 0 0 0 0 -11.396551473921136 0.15253818356995907 0 0.15253818356995907 -1.2768466818552042 0 0 0 0 -1.0432475376233479 8.054513926600734 0 8.054513926600734 -8.1927166602420201 0 0 0 0 6.849070640077116 19.062336905998563 0 19.062336905998563 -27.026115050499357 0 0 0 0 -23.02729763291336 20.727465212207335 0 20.727465212207335 -2.4521907000271312 0 0 0 0 3.7737271972526774 -1.109748976598766 0 -1.109748976598766 -1.4719888299179864 0 0 0 0 -12.516167598376342 6.4963444222894395 0 6.4963444222894395 2.4264687684335513 0 0 0 0 -1.316595678406328 6.190210419694619 0 6.190210419694619 -6.1359799925272256 0 0 0 0 9.8987446214177908 6.5319356770228296 0 6.5319356770228296 -19.902131255050335 0 0 0 0 -1.5514221925654941 4.2476057668157274 0 4.2476057668157274 -3.1917039465842407 0 0 0 0 -21.838983469653613 19.287451838852576 0 19.287451838852576 -8.2879852480673435 0 0 0 0 -34.090784608813919 22.419411738713961 0 22.419411738713961 -20.005504535554792 0 0 0 0 -33.248528059642922 25.540239833630949 0 25.540239833630949 -15.433853756521785 0 0 0 0 -24.172949111043636 14.731776795975748 0 14.731776795975748 -10.510836632800419 0 0 0 0 -15.135774780399515 19.33422588798112 0 19.33422588798112 -24.904067827142171 0 0 0 0 3.0642670839151833 10.106194008083548 0 10.106194008083548 14.666549340714482 0 0 0 0 0.65586886983629711 0.74355440419992824 0 0.74355440419992824 -0.72212426730370805 0 0 0 0 25.072300107385672 2.9301337144797799 0 2.9301337144797799 12.371262194610608 0 0 0 0 15.119254440265649 9.8509926563074259 0 9.8509926563074259 13.323627547454635 0 0 0 0 -35.714568287385191 17.429090711382742 0 17.429090711382742 -17.102386513963665 0 0 0 0 1.9295149108274927 15.516261645971099 0 15.516261645971099 -25.356966769782957 0 0 0 0 2.2178355381128703 5.1239840836274402 0 5.1239840836274402 -2.3356282987042505 0 0 0 0 -0.73276119301350917 6.1234278181725852 0 6.1234278181725852 -5.4426025393366801 0 0 0 0 -2.8125968435670075 5.8230398073292235 0 5.8230398073292235 -0.96189122397481697 0 0 0 0 -0.34007679955217407 3.4681647857389315 0 3.4681647857389315 -2.8013752431490602 0 0 0 0 -3.2233136315044248 6.6716011312892078 0 6.6716011312892078 -2.5271733014124038 0 0 0 0 -4.3733330623872462 5.4183226584991644 0 5.4183226584991644 11.944156833355009 0 0 0 0 6.2638190581601521 18.76191596609533 0 18.76191596609533 8.0615470761063079 0 0 0 0 -4.924939021739192 1.4029068381605612 0 1.4029068381605612 2.0230577049260319 0 0 0 0 -0.11960682670101619 0.65363250829831721 0 0.65363250829831721 -0.58252055107228928 0 0 0 0 3.5676173383671994 10.164544096704958 0 10.164544096704958 -16.494302864404744 0 0 0 0 10.821700385135046 18.089982192146635 0 18.089982192146635 18.311310627197827 0 0 0 0 -3.8433679055706307 5.5585758802108103 0 5.5585758802108103 0.49078035190359515 0 0 0 0 -5.4140088354915932 2.8365547143768328 0 2.8365547143768328 0.2359076470127115 0 0 0 0 -9.6862048239617398 4.4730266633005034 0 4.4730266633005034 -0.86542396611002914 0 0 0 0 -0.79836142182573233 0.93393566991992572 0 0.93393566991992572 0.03141193839189782 0 0 0 0 5.138279565467883 13.063788556501322 0 13.063788556501322 -1.9736325295743882 0 0 0 0 5.8588719224535453 25.095460092235953 0 25.095460092235953 10.179971273884803 0 0 0 0 5.2641812667316117 9.6226024953257365 0 9.6226024953257365 -0.085760324878719985 0 0 0 0 5.2383361105489712 16.101356942138693 0 16.101356942138693 6.4906147840520134 0 0 0 0 2.4111827517990605 27.671239788342064 0 27.671239788342064 -11.988670141872717 0 0 0 0 -0.36091554650106872 12.47115433019454 0 12.47115433019454 19.147299249285425 0 0 0 0 -0.33629951937109581 19.590416772349272 0 19.590416772349272 13.532029530282671 0 0 0 0 8.2279589542522444 2.2650913227948877 0 2.2650913227948877 18.353952650093561 0 0 0 0 3.9777793870853202 13.615326962568361 0 13.615326962568361 16.099478316131353 0 0 0 0 -8.2343261472487939 25.723983578302978 0 25.723983578302978 9.4922583378365744 0 0 0 0 -3.5920849473086491 7.1030147675340913 0 7.1030147675340913 25.272721727813405 0 0 0 0 -4.7037367154839558 -0.69867800019414972 0 -0.69867800019414972 -13.972780966421851 0 0 0 0 6.8126069648460543 6.7264345541289003 0 6.7264345541289003 -24.530348239758496 0 0 0 0 -12.726326790384064 19.804314144737191 0 19.804314144737191 -16.27003042272554 0 0 0 0 1.2165923223228674 0.87386651269002869 0 0.87386651269002869 8.5678742424752272 0 0 0 0 8.7089441255066049 7.2821891447351845 0 7.2821891447351845 -12.67457939069493 0 0 0 0 5.1318907237046005 1.206162425283992 0 1.206162425283992 -9.3719596841528983 0 0 0 0 -6.5735884485693532 0.8662619268261551 0 0.8662619268261551 -0.63376419068481482 0 0 0 0 3.7636518933759362 -0.97379901295244053 0 -0.97379901295244053 -3.9236981407393614 0 0 0 0 5.3890986926526239 6.344970623304107 0 6.344970623304107 2.8723734437053281 0 0 0 0 2.211967239731166 0.18756948552709218 0 0.18756948552709218 -1.3928602764713105 0 0 0 0 1.9983452030510307 0.93670287707436728 0 0.93670287707436728 -4.0122095295118925 0 0 0 0 4.9347957628815493 7.0351881423775922 0 7.0351881423775922 -5.0309930320472631 0 0 0 0 -1.4614284105155093 3.9957987669486101 0 3.9957987669486101 -6.4750005811365554 0 0 0 0 4.2212321352162689 4.639091413384449 0 4.639091413384449 -11.541761634363866 0 0 0 0 1.6546219490737712 5.3028491654868048 0 5.3028491654868048 -9.0860458222296643 0 0 0 0 8.1076117813213386 13.624948733595488 0 13.624948733595488 -6.9701977286804322 0 0 0 0 -1.0730793285547406 8.7053936840566166 0 8.7053936840566166 -3.5853789170232631 0 0 0 0 -6.110214153486595 7.4009845731325186 0 7.4009845731325186 1.6135209465955995 0 0 0 0 -1.482827868078175 6.9816306062261457 0 6.9816306062261457 -2.412624646043696 0 0 0 0 -1.1544519221389464 7.595833450346106 0 7.595833450346106 -2.7982962755831977 0 0 0 0 0.332646573505059 3.1042313411493083 0 3.1042313411493083 0.032395754116215869 0 0 0 0 -8.0033006270414262 6.5625371506907868 0 6.5625371506907868 -1.1415960578360682 0 0 0 0 -15.612919344981492 9.7987058159960725 0 9.7987058159960725 -4.4614993601062451 0 0 0 0 -3.2472900020681728 1.2913502730835145 0 1.2913502730835145 2.7562910186237009 0 0 0 0 -5.505045084422818 3.5257434110530994 0 3.5257434110530994 0.66039827626264014 0 0 0 0 -2.9384320029839728 5.0806259518476509 0 5.0806259518476509 -2.9658287516751614 0 0 0 0 -5.2033971163309616 11.887283962367519 0 11.887283962367519 -7.6244750018950072 0 0 0 0 -2.680575849508088 6.6156116260713524 0 6.6156116260713524 -5.0823870850469746 0 0 0 0 -0.95656323157141898 2.674640478305621 0 2.674640478305621 0.59265803304510456 0 0 0 0 -6.9512724311016427 8.2073563182798352 0 8.2073563182798352 -2.7594244331758091 0 0 0 0 -1.0786069280441666 2.1372506911778206 0 2.1372506911778206 0.28626870452159636 0 0 0 0 -22.480429691020618 14.196901345886999 0 14.196901345886999 -6.5008728396296647 0 0 0 0 -22.662260576093104 14.247451040344458 0 14.247451040344458 -6.1057398463963182 0 0 0 0 1.9406916012854154 6.9758578188842968 0 6.9758578188842968 -1.1792883376606049 0 0 0 0 -5.9123505633197055 5.0703187512540353 0 5.0703187512540353 0.43497915678199206 0 0 0 0 -0.45744300780132363 2.1809386006737288 0 2.1809386006737288 0.12848062358752088 0 0 0 0 -13.12341875839229 10.98092513189431 0 10.98092513189431 -5.2555125345297711 0 0 0 0 -4.7392408537107258 11.599064807685409 0 11.599064807685409 7.2890168368212471 0 0 0 0 -3.3973575120498936 5.6144575216339945 0 5.6144575216339945 -1.3519692817390023 0 0 0 0 -3.2059357082393909 4.6288726839007168 0 4.6288726839007168 -0.724639261015259 0 0 0 0 -6.154590850987006 6.0541536819098383 0 6.0541536819098383 2.1368619814111298 0 0 0 0 -5.3401418728390126 7.7962541642809811 0 7.7962541642809811 1.5512925695006743 0 0 0 0 -4.3666265069268775 10.848731650948139 0 10.848731650948139 -5.0293666338311596 0 0 0 0 -4.0181373566086691 5.9665067455486476 0 5.9665067455486476 0.62472763025160027 0 0 0 0 -4.067381113582087 6.1959288278176246 0 6.1959288278176246 -0.27408852657026728 0 0 0 0 -4.5666826706192829 3.9744893234691929 0 3.9744893234691929 0.5744918350106083 0 0 0 0 -5.8949907727037498 5.6985138031013776 0 5.6985138031013776 1.6479258118997677 0 0 0 0 -52.429478864389239 -12.913442025259428 0 -12.913442025259428 -4.5049349430628354 0 0 0 0 -5.3814454173771082 2.5741489684824046 0 2.5741489684824046 3.9261220915195736 0 0 0 0 -4.1442995240600169 3.8181529348919998 0 3.8181529348919998 0.50413299052621863 0 0 0 0 -5.1132099743759127 0.38461497601619232 0 0.38461497601619232 1.6348796452703738 0 0 0 0 4.2885787202606771 2.654458669570074 0 2.654458669570074 -3.0955318410229324 0 0 0 0 3.7715190922863258 3.1105614805237565 0 3.1105614805237565 -0.3795127219054848 0 0 0 0 -0.39946281510944459 1.5336825204138229 0 1.5336825204138229 0.85523492850923155 0 0 0 0 -2.5298754124141851 4.745199011312252 0 4.745199011312252 -3.3342421626730356 0 0 0 0 0.036955541777796697 0.20255647820538414 0 0.20255647820538414 0.26959261818432623 0 0 0 0 -5.8294413632393116 1.0312602744961623 0 1.0312602744961623 6.0841820822679438 0 0 0 0 -3.2545265213777554 7.8695568109907299 0 7.8695568109907299 -4.4090367421743508 0 0 0 0 -4.4811107829555112 5.2438281033173553 0 5.2438281033173553 -1.4880581954103036 0 0 0 0 -4.9789080724112864 6.3437256738808401 0 6.3437256738808401 -0.41086199824712821 0 0 0 0 -2.4664996676985567 2.4564492335508987 0 2.4564492335508987 0.05220588111459179 0 0 0 0 -5.0332471610948559 3.1074615114369202 0 3.1074615114369202 1.3581003228159414 0 0 0 0 136.60307714810187 55.114363766522729 0 55.114363766522729 -6.1830094351445268 0 0 0 0 -0.31927933776237083 0.48459174204204203 0 0.48459174204204203 -0.42525830287578259 0 0 0 0 -4.1530565000102797 1.4603757296381445 0 1.4603757296381445 22.833649861851882 0 0 0 0 -2.8165387335050127 1.9156772511042437 0 1.9156772511042437 0.53744016123736671 0 0 0 0 0.73935414985022518 2.1144147726592841 0 2.1144147726592841 -2.3808672045638311 0 0 0 0 -3.7564077560246005 4.0557400669727031 0 4.0557400669727031 -3.1383887131378287 0 0 0 0 -4.1191264369881537 2.8496816909641893 0 2.8496816909641893 0.55424566521469387 0 0 0 0 4.0258131566479278 7.3860572395033159 0 7.3860572395033159 -11.705643096476251 0 0 0 0 -0.0043428736267685508 0.31215684630704033 0 0.31215684630704033 -0.90529081944951573 0 0 0 0 -3.0588387961580494 3.7321330293615205 0 3.7321330293615205 -3.4392522427480046 0 0 0 0 3.3322825264749554 4.3669564684300894 0 4.3669564684300894 -9.1556727899005637 0 0 0 0 -5.1495925595972949 9.4848395118538065 0 9.4848395118538065 -1.7719765203328279 0 0 0 0 -3.1972606440394884 8.6381678329598799 0 8.6381678329598799 -1.9121568482532894 0 0 0 0 0.56807171301465331 2.237481767372131 0 2.237481767372131 0.27716978736350839 0 0 0 0 -13.434379144051491 10.408698440032822 0 10.408698440032822 -4.9876369199300825 0 0 0 0 -2.6437286561995279 2.9554532951879082 0 2.9554532951879082 -2.6138821477420606 0 0 0 0 -2.6518285262354766 6.0844477993905457 0 6.0844477993905457 -4.2241078166180159 0 0 0 0 -2.7508674135406181 4.7791961937059568 0 4.7791961937059568 0.9693741815985959 0 0 0 0 1.6252655596326804 2.6266825685252115 0 2.6266825685252115 -1.4025937688813315 0 0 0 0 -2.1299059079439004 2.2356611636824724 0 2.2356611636824724 -2.1483582170187567 0 0 0 0 1.9764738333315108 6.6462187405704753 0 6.6462187405704753 -1.8356180537275577 0 0 0 0 3.2593597242339456 7.5307610500885858 0 7.5307610500885858 -0.25678413335663208 0 0 0 0 0.59399132087310136 4.889116493057827 0 4.889116493057827 2.5642189279753893 0 0 0 0 0.71824658224613813 5.009043114920587 0 5.009043114920587 2.5521520674039948 0 0 0 0 -1.3081695898135557 1.0333761960592689 0 1.0333761960592689 -0.25685217989159526 0 0 0 0 2.293954848303656 3.0959739214572437 0 3.0959739214572437 -1.6647557452515684 0 0 0 0 0.00045633579611603636 5.7733350587659515 0 5.7733350587659515 3.2304338197745892 0 0 0 0 0.30648363965337921 3.7522036037122461 0 3.7522036037122461 7.5818457974892226 0 0 0 0 1.2256473475372331 4.5357340254745395 0 4.5357340254745395 -0.064639285344128439 0 0 0 0 -0.00027948858405579813 6.5996357688218268 0 6.5996357688218268 -1.5892934094495104 0 0 0 0 0.97707656195962045 4.9973023626761233 0 4.9973023626761233 -5.2349135281410781 0 0 0 0 -0.17439087634375028 8.430973363450903 0 8.430973363450903 -5.1343693027720292 0 0 0 0 0.2885900504206802 4.6109231236464439 0 4.6109231236464439 -0.54786640373549744 0 0 0 0 0.80671081462401162 -0.26798291674211328 0 -0.26798291674211328 -12.107194060634356 0 0 0 0 0.45537145500202314 11.204752303727219 0 11.204752303727219 -6.5144165065480593 0 0 0 0 -2.3099614790990017 3.7938604160435716 0 3.7938604160435716 -4.9020208601348259 0 0 0 0 9.6766672149951773 14.964160501147489 0 14.964160501147489 4.3183208819891661 0 0 0 0 10.10621482782517 14.604605241967874 0 14.604605241967874 3.9267606166331461 0 0 0 0 11.61332542227683 18.452812240466528 0 18.452812240466528 9.7183929318380251 0 0 0 0 12.008552558953852 17.938026115492903 0 17.938026115492903 9.476891529682689 0 0 0 0 2.6449410769891983 16.866125167140126 0 16.866125167140126 -0.86542588041197632 0 0 0 0 6.8166973453980972 10.567695667649787 0 10.567695667649787 -2.9233941916008916 0 0 0 0 0.2652586827539416 4.9546991195799421 0 4.9546991195799421 -8.3731755389395026 0 0 0 0 23.116552735824371 31.208596986973134 0 31.208596986973134 12.411887516418574 0 0 0 0 12.587815011116618 13.526287833527022 0 13.526287833527022 16.045982843887032 0 0 0 0 8.9439681298754294 16.577617455498512 0 16.577617455498512 14.321690128197588 0 0 0 0 14.388923384874943 17.535559184148042 0 17.535559184148042 9.60352120499374 0 0 0 0 19.074090310172323 14.915878259484089 0 14.915878259484089 10.878039457269551 0 0 0 0 8.2981775274868141 13.17929386480921 0 13.17929386480921 9.0055145759670268 0 0 0 0 7.232898381564155 12.823570251890487 0 12.823570251890487 7.7154866255568777 0 0 0 0 7.1193994858767837 14.385399257233075 0 14.385399257233075 7.8175197111959278 0 0 0 0 8.0989589613018325 14.237432650782466 0 14.237432650782466 8.5548742715109256 0 0 0 0 6.8468924473381776 13.041437806987233 0 13.041437806987233 8.6318344863684615 0 0 0 0 6.5842388208548073 13.208672514909267 0 13.208672514909267 9.1585202375060817 0 0 0 0 6.0011214678811484 12.715495539980793 0 12.715495539980793 8.8971845255164226 0 0 0 0 6.0313572272189049 12.712555670273105 0 12.712555670273105 12.276198292537629 0 0 0 0 5.8284690841578595 13.172070588649149 0 13.172070588649149 11.66109070881248 0 0 0 0 6.1293744316899392 10.315228818117248 0 10.315228818117248 9.3450267229609381 0 0 0 0 6.9847082969536132 12.071902754596522 0 12.071902754596522 9.0136142610617753 0 0 0 0 6.8318257345890743 14.864850732489685 0 14.864850732489685 15.999720735632764 0 0 0 0 7.4842480324186909 11.976062684057979 0 11.976062684057979 5.8214453347572999 0 0 0 0 8.3069998525170377 8.3483432559751236 0 8.3483432559751236 12.715662325581434 0 0 0 0 12.32531364280112 13.866382500675172 0 13.866382500675172 7.124991544365912 0 0 0 0 3.4522810887392552 12.200768441783111 0 12.200768441783111 7.2333858300362976 0 0 0 0 5.6211431664360134 6.243037312722663 0 6.243037312722663 3.3696219726066374 0 0 0 0 9.4987139902095805 8.4698546414879274 0 8.4698546414879274 -5.212711048006895 0 0 0 0 7.6435845844207506 12.990734452662764 0 12.990734452662764 5.1467373457817303 0 0 0 0 8.1457660436717561 11.706608166636215 0 11.706608166636215 4.2337529385358721 0 0 0 0 7.0104218291453435 10.923108594993209 0 10.923108594993209 4.9323485782333591 0 0 0 0 8.0293525867455173 11.995850560817416 0 11.995850560817416 4.5686855599878982 0 0 0 0 10.125905813758436 14.533950575162635 0 14.533950575162635 0.56418314595794072 0 0 0 0 11.993102813974474 7.8580946299771313 0 7.8580946299771313 4.6404459228169799 0 0 0 0 10.401978126427739 7.9993800531160284 0 7.9993800531160284 2.9723083943961353 0 0 0 0 10.752471580227393 15.220579600323617 0 15.220579600323617 -8.9065320527761287 0 0 0 0 7.7012780387904058 18.330004830933831 0 18.330004830933831 -1.5312972268256999 0 0 0 0 11.658831906275736 14.273060579797402 0 14.273060579797402 -9.2185368633508915 0 0 0 0 10.684778600325444 15.332335817207877 0 15.332335817207877 1.3425349457829725 0 0 0 0 5.1796647656070469 2.7235709488806705 0 2.7235709488806705 -5.3426894670081744 0 0 0 0 10.539621791998798 14.823582832788816 0 14.823582832788816 11.361317880946444 0 0 0 0 9.6181158548779422 5.5064279550570063 0 5.5064279550570063 4.0138551472973631 0 0 0 0 4.9801673459382805 5.6104989072605056 0 5.6104989072605056 6.2689276436472312 0 0 0 0 5.4848485660468214 10.28367070132299 0 10.28367070132299 5.3305164588800835 0 0 0 0 6.6658886004827309 5.766962671237934 0 5.766962671237934 8.1564539229621005 0 0 0 0 23.348546078759682 6.7192936542287498 0 6.7192936542287498 3.9486402627635471 0 0 0 0 2.2275777888681461 1.6501206062886062 0 1.6501206062886062 1.1750991690591803 0 0 0 0 6.9729334144158202 13.612965507869376 0 13.612965507869376 -1.4644243123038905 0 0 0 0 6.8766869228978109 6.3556340720742854 0 6.3556340720742854 0.33203727679041606 0 0 0 0 9.7891622039369395 6.0253164373543768 0 6.0253164373543768 0.91195674210484867 0 0 0 0 11.441328155884548 17.260236745184557 0 17.260236745184557 2.0684391859886091 0 0 0 0 11.487373113983267 10.98937424842552 0 10.98937424842552 -6.2473458278363978 0 0 0 0 -5.1741997926565091 4.5253182744872902 0 4.5253182744872902 -3.2650666617992101 0 0 0 0 7.4166942088862662 7.0422865086503563 0 7.0422865086503563 -1.7984101931453154 0 0 0 0 3.6162618403468514 4.3943637453339761 0 4.3943637453339761 -5.6673384327077656 0 0 0 0 4.8020643770730658 7.98573176311438 0 7.98573176311438 -3.1232344442076378 0 0 0 0 4.2327347164309401 9.7784678706653025 0 9.7784678706653025 1.0818006205385089 0 0 0 0 -0.72537715065825381 1.4703965382719399 0 1.4703965382719399 -1.5337748443567101 0 0 0 0 1.0363424473574447 5.9594244669966834 0 5.9594244669966834 -8.0019070295952055 0 0 0 0 10.639394708174223 13.441982657772314 0 13.441982657772314 -2.1611271932115415 0 0 0 0 10.362211941949681 13.304909305305046 0 13.304909305305046 -5.4613898402203631 0 0 0 0 1.8679522248203284 13.154601560570882 0 13.154601560570882 -3.8851956536627767 0 0 0 0 7.0564929812098853 12.977063804833961 0 12.977063804833961 -2.9980432922166074 0 0 0 0 6.1176390040445767 10.662788744609315 0 10.662788744609315 -6.2202926199424837 0 0 0 0 5.709934718250679 9.3706543891127012 0 9.3706543891127012 -6.8977425004122779 0 0 0 0 6.5661495928912927 9.3061887499564477 0 9.3061887499564477 -4.3190337495361746 0 0 0 0 5.7061041460183333 9.4900202657972841 0 9.4900202657972841 -3.3783473319110726 0 0 0 0 1.7160230990957643 9.4280883208466548 0 9.4280883208466548 -4.8567909814610175 0 0 0 0 4.8933720759932839 7.5686778492754456 0 7.5686778492754456 -6.0526033700989501 0 0 0 0 1.6365341271703073 8.6062097017711494 0 8.6062097017711494 -8.3757638335612512 0 0 0 0 -1.3979602188010176 12.815100854691991 0 12.815100854691991 -8.2911719576558767 0 0 0 0 -3.1948688281345312 12.338088940973648 0 12.338088940973648 -7.9623785170188057 0 0 0 0 -5.7244553038945014 12.884443664296668 0 12.884443664296668 -14.669169138433062 0 0 0 0 -8.058784499072317 17.151557014989066 0 17.151557014989066 -18.757270150828845 0 0 0 0 -7.4053048502064485 10.707571792103408 0 10.707571792103408 -8.0225965451427328 0 0 0 0 -5.8587062498227169 15.579993300720162 0 15.579993300720162 -12.369379240741182 0 0 0 0 -10.696237492460568 12.613651386419406 0 12.613651386419406 -11.677845475565846 0 0 0 0 -13.383590899098181 21.26673568729484 0 21.26673568729484 -15.399244804189948 0 0 0 0 -15.063757180050743 17.494557666133915 0 17.494557666133915 -10.64538799224556 0 0 0 0 -10.137036524392897 21.572405630893627 0 21.572405630893627 -18.290875157006667 0 0 0 0 -6.6720689515641425 15.93689709260434 0 15.93689709260434 -7.2903331397919828 0 0 0 0 -11.634954230983567 16.693796232164459 0 16.693796232164459 -2.9105346693613683 0 0 0 0 -7.2579831941584416 15.554595778367002 0 15.554595778367002 -7.1983128268038854 0 0 0 0 -0.92792743912099951 0.33489802549573078 0 0.33489802549573078 1.5569254159754777 0 0 0 0 -6.1748220543231582 16.398423926617397 0 16.398423926617397 -7.0973753541020415 0 0 0 0 -3.078979505240568 12.214314416254638 0 12.214314416254638 -4.2927352357255586 0 0 0 0 -6.877310475359991 16.038843932692544 0 16.038843932692544 -6.9526210509939119 0 0 0 0 1.8530492447534925 13.387777433426891 0 13.387777433426891 -7.5035343152831047 0 0 0 0 2.2786609270769986 10.975940988359071 0 10.975940988359071 -5.0655871756498527 0 0 0 0 2.2635271554245264 10.607415126765773 0 10.607415126765773 -7.9662975471037498 0 0 0 0 -2.0797114800261625 12.877487082156222 0 12.877487082156222 -5.8205129280613619 0 0 0 0 -3.5660250165437901 11.46799391706827 0 11.46799391706827 -8.0863766353468236 0 0 0 0 -2.193693168082973 14.139196582627847 0 14.139196582627847 -10.247029476699026 0 0 0 0 22.01609473622193 30.866792080923005 0 30.866792080923005 -5.5306818567291884 0 0 0 0 1.2702432315137315 2.7785824446090954 0 2.7785824446090954 2.9152455506410178 0 0 0 0 -3.4435755103168049 5.9733057805267435 0 5.9733057805267435 0.23723068826438976 0 0 0 0 -10.197106672994778 -17.696440481918216 0 -17.696440481918216 1.9215022184616828 0 0 0 0 0.26357521344023027 0.11972429469917145 0 0.11972429469917145 -0.059957158567002011 0 0 0 0 -16.194107943420022 24.719213226449028 0 24.719213226449028 -4.0475476287159609 0 0 0 0 -14.746874530837886 7.4701676028107613 0 7.4701676028107613 -10.304386957424867 0 0 0 0 10.811187606657768 12.560741647315808 0 12.560741647315808 -17.524980350444821 0 0 0 0 -2.5705498563274887 6.0517575910998858 0 6.0517575910998858 6.4256868585862321 0 0 0 0 -0.30582276520908636 7.9910683282364516 0 7.9910683282364516 0.77495763891420211 0 0 0 0 1.6530194492404178 3.3775099525999144 0 3.3775099525999144 4.1264275657843221 0 0 0 0 1.1480583950906365 0.69788055128738957 0 0.69788055128738957 -1.0274647284345235 0 0 0 0 -1.41705495059432 10.30266091798967 0 10.30266091798967 -3.4199655684483332 0 0 0 0 -3.2510488839561731 8.6634926981728313 0 8.6634926981728313 -3.5576832895349071 0 0 0 0 0.19409938304124807 15.548133262808733 0 15.548133262808733 -3.2905156553024426 0 0 0 0 -0.25400145839557808 11.220256881797468 0 11.220256881797468 -3.7122927321270254 0 0 0 0 -2.9025778434802305 11.967051034617953 0 11.967051034617953 -2.5106672709607665 0 0 0 0 -5.3843831358353782 14.151837647682441 0 14.151837647682441 -1.2547803860768454 0 0 0 0 -4.509716110976342 7.9871009461531344 0 7.9871009461531344 2.8853221216577367 0 0 0 0 -8.0238729022694315 13.611401929659223 0 13.611401929659223 -1.2676916198442996 0 0 0 0 -9.5604988038157899 10.943036448776866 0 10.943036448776866 -5.0164680987963948 0 0 0 0 -15.390060409737089 22.531880638459597 0 22.531880638459597 -6.3249283042878233 0 0 0 0 0.48092853030622607 0.42591576778377949 0 0.42591576778377949 -0.25652788517161795 0 0 0 0 28.32646457312876 -2.792199754468129 0 -2.792199754468129 -13.357954499505013 0 0 0 0 19.145707748950372 17.28919862974999 0 17.28919862974999 -36.205511962785749 0 0 0 0 2.3230419433148199 13.957063282643503 0 13.957063282643503 -4.6120270703422648 0 0 0 0 4.5493646419945435 3.0748044104718701 0 3.0748044104718701 3.1972151758345717 0 0 0 0 2.7387505192409876 5.707296714570389 0 5.707296714570389 4.8068097004036758 0 0 0 0 -7.5879527511206106 14.342125777591718 0 14.342125777591718 -3.1670207270253741 0 0 0 0 1.6191213994970894 2.4377280811440869 0 2.4377280811440869 5.5721232997984771 0 0 0 0 -0.12336763974053611 9.4939630349826984 0 9.4939630349826984 2.1628675199572172 0 0 0 0 -8.9211709565352066 17.729391417002262 0 17.729391417002262 -5.2735972788868821 0 0 0 0 2.7098657397222752 4.4200581140369177 0 4.4200581140369177 5.2475191323376009 0 0 0 0 1.3194918867520755 8.3547711030942082 0 8.3547711030942082 2.1471229927437889 0 0 0 0 -5.9385063441040984 4.0723869860321429 0 4.0723869860321429 1.1065958704057266 0 0 0 0 3.3630949045473244 10.575954582782288 0 10.575954582782288 -8.2382599070015203 0 0 0 0 16.449033102307794 24.940696373725842 0 24.940696373725842 11.862262148374612 0 0 0 0 -2.0058951157207758 2.6354270691983963 0 2.6354270691983963 -0.63648764234835298 0 0 0 0 3.1849889860932308 11.314530260328866 0 11.314530260328866 2.1712298505505032 0 0 0 0 16.216801606966328 22.966415982343278 0 22.966415982343278 32.014217326172002 0 0 0 0 0.81148258678123852 0.49871157953706824 0 0.49871157953706824 -1.5497567981574356 0 0 0 0 10.031284075681469 25.173489243105905 0 25.173489243105905 12.953495340744666 0 0 0 0 2.9725921096978709 10.264842766614947 0 10.264842766614947 8.2950847613110454 0 0 0 0 -1.1063109642040807 0.63375220384077124 0 0.63375220384077124 -0.4449821663725011 0 0 0 0 -42.737189270457748 -9.3505814875015858 0 -9.3505814875015858 15.92046497262254 0 0 0 0 -18.984850153832667 4.591610538243458 0 4.591610538243458 5.3376024538601996 0 0 0 0 20.956597796669939 6.4744088702332192 0 6.4744088702332192 -31.354540600985274 0 0 0 0 18.936388442191628 17.151436373272645 0 17.151436373272645 -36.084869650771907 0 0 0 0 12.146028658680734 21.468030954558344 0 21.468030954558344 -37.30005963487838 0 0 0 0 6.1298477164727956 10.962349728002664 0 10.962349728002664 -30.883920615966588 0 0 0 0 24.487737337004546 19.775155327247148 0 19.775155327247148 -77.154695011158765 0 0 0 0 -42.385435952768603 37.532803710113512 0 37.532803710113512 97.273590553412305 0 0 0 0 42.776886693967754 0.68224646731096072 0 0.68224646731096072 -89.254948601719661 0 0 0 0 15.797628490519855 1.0706056027393061 0 1.0706056027393061 41.562020921324802 0 0 0 0 0.35110564137421818 -0.33700133739062821 0 -0.33700133739062821 0.053859237635145885 0 0 0 0 24.970601090048149 -2.9912644660271326 0 -2.9912644660271326 16.967531781625439 0 0 0 0 -39.397800650092904 10.252023818048656 0 10.252023818048656 -30.919419266163459 0 0 0 0 -1.9102452254428499 46.063753026185168 0 46.063753026185168 -60.704488065839541 0 0 0 0 -37.233859923917407 32.888874906550882 0 32.888874906550882 -10.973861730591125 0 0 0 0 -77.296791272474366 44.144826606307106 0 44.144826606307106 11.942612569418998 0 0 0 0 -75.847569850446689 102.93896674928055 0 102.93896674928055 26.677388717935173 0 0 0 0 51.377920196780906 -24.200908877041002 0 -24.200908877041002 -80.208457910428081 0 0 0 0 9.5251281498494791 65.91903782791087 0 65.91903782791087 -82.832034122516973 0 0 0 0 10.132542593186372 -11.087955568114921 0 -11.087955568114921 41.672544164844112 0 0 0 0 30.777937775339524 12.321527614532897 0 12.321527614532897 -3.7288765186149249 0 0 0 0 22.265413504377648 25.35455913365422 0 25.35455913365422 16.092028729381127 0 0 0 0 29.677057252069062 -34.014371241702975 0 -34.014371241702975 5.7273048002753058 0 0 0 0 22.369140603990672 4.3380980101737805 0 4.3380980101737805 21.313366538370246 0 0 0 0 19.534368534135865 0.8236024938250921 0 0.8236024938250921 16.976145216065561 0 0 0 0 9.1350844259877704 11.545197434697002 0 11.545197434697002 -53.552042352153876 0 0 0 0 -0.30163006973982931 -0.21242479274792991 0 -0.21242479274792991 -0.024818085928083988 0 0 0 0 -5.2291692504077218 -2.7888584577049187 0 -2.7888584577049187 -19.389902756311926 0 0 0 0 -7.5444931049821662 13.7370200256251 0 13.7370200256251 -3.8141711625976313 0 0 0 0 6.645006832508443 21.245350711289575 0 21.245350711289575 7.9342781618088338 0 0 0 0 6.6588125184114233 27.404612494553817 0 27.404612494553817 -1.2151392056766781 0 0 0 0 -2.3347468909905729 16.222511242229984 0 16.222511242229984 5.8640225493563776 0 0 0 0 9.4103319293317327 10.701523227484358 0 10.701523227484358 -17.95700887732778 0 0 0 0 3.9352750142588775 28.111093354760669 0 28.111093354760669 41.299328542338117 0 0 0 0 -0.12268107770083958 -0.025513256398783213 0 -0.025513256398783213 -0.028755758315458069 0 0 0 0 -0.44739901555605144 0.041631416961440237 0 0.041631416961440237 -0.006001420330620455 0 0 0 0 6.3421536459354684 18.241814723305652 0 18.241814723305652 -10.975034084420543 0 0 0 0 3.2813844627489743 14.777267682928141 0 14.777267682928141 -2.7215801279771767 0 0 0 0 8.353778621813035 32.108457078498759 0 32.108457078498759 21.287398235665023 0 0 0 0 0.13874261677665345 31.119749089069956 0 31.119749089069956 26.983571133376643 0 0 0 0 2.263929060264104 21.518697585891772 0 21.518697585891772 25.481779495471528 0 0 0 0 9.1511678864935675 26.361579321497175 0 26.361579321497175 23.751053612826809 0 0 0 0 12.096287522943385 24.86877446349763 0 24.86877446349763 24.296812572375529 0 0 0 0 11.850126607681887 29.15364317015792 0 29.15364317015792 27.269340609925621 0 0 0 0 28.757803528793374 14.439399150525333 0 14.439399150525333 19.284316336116717 0 0 0 0 12.929160651742677 20.829543403000571 0 20.829543403000571 -2.9228402001326685 0 0 0 0 17.448249608894912 31.57035094496473 0 31.57035094496473 0.70618637546886021 0 0 0 0 5.1074412696179934 37.052486277476419 0 37.052486277476419 -31.865604042243831 0 0 0 0 12.954436023021117 11.150788316827857 0 11.150788316827857 -24.743874338031674 0 0 0 0 11.372433451957477 14.499469478352694 0 14.499469478352694 -10.651074512491959 0 0 0 0 4.4166070155039847 26.500844305352047 0 26.500844305352047 -6.0073360410115129 0 0 0 0 21.644580820810006 26.945573433638401 0 26.945573433638401 -2.6201546158441715 0 0 0 0 10.783587288519811 19.920505958772992 0 19.920505958772992 -3.5985155008238507 0 0 0 0 11.596701445640065 17.858238073308712 0 17.858238073308712 1.112145039052848 0 0 0 0 7.3156378853805109 15.190017441835607 0 15.190017441835607 6.1438398496193258 0 0 0 0 8.0858075130345242 12.948263202245471 0 12.948263202245471 1.7160396374674747 0 0 0 0 10.246942313608088 13.277725241416192 0 13.277725241416192 0.21784843859495595 0 0 0 0 6.9186798316222848 12.854265981070057 0 12.854265981070057 7.2820540280886235 0 0 0 0 6.2983028273301898 12.356718682676728 0 12.356718682676728 8.0288057957304773 0 0 0 0 4.9554803976570838 13.974493179278397 0 13.974493179278397 0.38389431572977628 0 0 0 0 5.4188120710014118 20.155326801536603 0 20.155326801536603 14.088945215124113 0 0 0 0 8.8307382902712561 22.047616554204069 0 22.047616554204069 18.63436584619194 0 0 0 0 4.7713118609990488 20.91465345431061 0 20.91465345431061 25.456548767204367 0 0 0 0 9.8630878740623302 11.312019087408316 0 11.312019087408316 20.135034374890893 0 0 0 0 6.1967346245073713 18.708164035940172 0 18.708164035940172 16.340675622837807 0 0 0 0 7.3362763071199879 15.452529040904665 0 15.452529040904665 9.4489043808040378 0 0 0 0 6.3734816168362158 17.556726808281837 0 17.556726808281837 6.249616776935909 0 0 0 0 10.924832190536108 23.325289072541636 0 23.325289072541636 8.4461889742842686 0 0 0 0 6.7572506436827098 27.511633493357749 0 27.511633493357749 5.8723529632588907 0 0 0 0 -0.1109010755772033 40.596996522885547 0 40.596996522885547 3.7104943534213817 0 0 0 0 9.4002365579526668 33.163187180427485 0 33.163187180427485 6.288928728121391 0 0 0 0 -7.2190344477930921 29.305916069276464 0 29.305916069276464 13.746924456870602 0 0 0 0 3.4846854147363047 25.767273015233513 0 25.767273015233513 16.446755775698875 0 0 0 0 5.8512869009173301 25.731585839360378 0 25.731585839360378 12.787794139256221 0 0 0 0 4.3233471572457347 25.505991284363517 0 25.505991284363517 19.423423299952901 0 0 0 0 1.4230874813365517 24.28809977999731 0 24.28809977999731 10.186137814953327 0 0 0 0 -7.1456265112974506 38.980058098026348 0 38.980058098026348 3.4301700640698982 0 0 0 0 18.99554621221796 36.61094291736481 0 36.61094291736481 -2.0886019741683413 0 0 0 0 12.105835304368156 39.844116502137695 0 39.844116502137695 -1.4137943237637955 0 0 0 0 -0.29852534103073225 0.13084709643074532 0 0.13084709643074532 0.19511974224671036 0 0 0 0 26.037273347461451 36.741169259760227 0 36.741169259760227 -0.75837692076379426 0 0 0 0 -8.4569559633619065 9.8673451973052124 0 9.8673451973052124 13.560028786736439 0 0 0 0 -22.184223918390671 30.584028278470441 0 30.584028278470441 2.8634275408930989 0 0 0 0 -7.5519482855897877 19.744540495760248 0 19.744540495760248 -32.264798395532125 0 0 0 0 -7.2661629988492678 18.075008497000908 0 18.075008497000908 50.671036088217079 0 0 0 0 -1.2190562653941015 6.6800542071350719 0 6.6800542071350719 25.330102162085041 0 0 0 0 10.156248277031409 11.556240504983634 0 11.556240504983634 12.225210992995926 0 0 0 0 4.0684646253403116 13.215815565087951 0 13.215815565087951 32.801613048673062 0 0 0 0 -2.9803454332117667 4.0121798603173424 0 4.0121798603173424 -2.8830155687223904 0 0 0 0 2.5677712905007866 4.85661200287268 0 4.85661200287268 4.0915891593244851 0 0 0 0 -0.79735351027647994 16.047699740926078 0 16.047699740926078 28.640007676912319 0 0 0 0 2.9344377871639153 2.023398900007578 0 2.023398900007578 31.938297670525003 0 0 0 0 6.0980888778794906 7.9399387263629251 0 7.9399387263629251 27.408113472631385 0 0 0 0 -2.5790306688104465 13.429444380649784 0 13.429444380649784 24.806639010522304 0 0 0 0 -4.4735802327440979 5.9218420597204613 0 5.9218420597204613 30.150374635940352 0 0 0 0 -5.3676619831971948 6.6797077710282338 0 6.6797077710282338 30.921310918851304 0 0 0 0 -3.480589669372435 4.0081825238862177 0 4.0081825238862177 -2.8833202021604478 0 0 0 0 -0.34466929748531783 -0.049848460683935336 0 -0.049848460683935336 -0.16272541058928258 0 0 0 0 0.10212474142868189 0.048848680756413465 0 0.048848680756413465 0.032041205011174689 0 0 0 0 -16.540451317516272 27.441990199901284 0 27.441990199901284 -94.304781758822173 0 0 0 0 0.13632248264548252 49.184695276824641 0 49.184695276824641 -60.362335632483564 0 0 0 0 -7.246727127207123 31.948988090367493 0 31.948988090367493 -114.07338940209888 0 0 0 0 -5.9970825034306472 3.2965666493098524 0 3.2965666493098524 40.511741152341983 0 0 0 0 -3.8124094648519531 16.632061966676247 0 16.632061966676247 -109.37135640820134 0 0 0 0 0.76343727136190864 2.2401207634653133 0 2.2401207634653133 -88.892028524448506 0 0 0 0 1.554453532993989 1.0965666365560043 0 1.0965666365560043 -1.3595305546819305 0 0 0 0 -64.849044820366544 -18.483274416408676 0 -18.483274416408676 -160.92800470423745 0 0 0 0 4.3278006386644847 14.204753865494695 0 14.204753865494695 -5.3901029847984319 0 0 0 0 0.52655540690466296 79.291235276029056 0 79.291235276029056 -157.34932033579332 0 0 0 0 3.0877137054358172 37.019623359545676 0 37.019623359545676 -83.47029634903447 0 0 0 0 -23.155247447924921 48.375575905995902 0 48.375575905995902 -96.880064006676321 0 0 0 0 4.7589100929326378 4.1761947829991186 0 4.1761947829991186 -18.015526639625023 0 0 0 0 4.0560324360940285 -2.4455304066909775 0 -2.4455304066909775 -41.493981262057787 0 0 0 0 5.404358354073338 28.77104118020452 0 28.77104118020452 -34.405665679607296 0 0 0 0 -15.277093631550088 12.933905084470098 0 12.933905084470098 33.137426198530648 0 0 0 0 5.202643251614063 27.911913227682817 0 27.911913227682817 -15.808925070758278 0 0 0 0 -3.38895332971871 4.690182005313364 0 4.690182005313364 -2.6601414711180542 0 0 0 0 0.45869006833163439 13.895738442055972 0 13.895738442055972 31.553540776128784 0 0 0 0 5.6238008228156104 23.295484770409075 0 23.295484770409075 -7.1539091114382245 0 0 0 0 18.343163973847368 35.664962800365402 0 35.664962800365402 36.526859271850299 0 0 0 0 -17.194818508212848 7.5458515478853769 0 7.5458515478853769 25.33592774042836 0 0 0 0 -0.30878108743705468 0.11738504978117703 0 0.11738504978117703 0.25284684848950079 0 0 0 0 5.6790465901713105 13.295684266373655 0 13.295684266373655 26.561239059399668 0 0 0 0 10.539674601058778 16.851871157820554 0 16.851871157820554 26.725022303177866 0 0 0 0 -0.44557356493265132 0.21513495584629183 0 0.21513495584629183 0.25822360540744071 0 0 0 0 6.1872598852760348 22.608161189886232 0 22.608161189886232 27.63044040414934 0 0 0 0 1.728408651335485 28.620649112448518 0 28.620649112448518 31.804959135327181 0 0 0 0 0.16644863558667566 33.039552061857421 0 33.039552061857421 34.244556655176893 0 0 0 0 9.5393144105419196 7.5674051984224207 0 7.5674051984224207 54.443955219909185 0 0 0 0 3.249808144144481 37.675041959302689 0 37.675041959302689 66.052060642554352 0 0 0 0 -10.096059859764864 25.987618993238357 0 25.987618993238357 49.795288942519164 0 0 0 0 21.238999269520718 19.803887935155672 0 19.803887935155672 26.259209210047629 0 0 0 0 20.479420614307628 6.8356028091453709 0 6.8356028091453709 9.7230747992589386 0 0 0 0 9.5180379483681463 34.529302735501915 0 34.529302735501915 29.957437318095799 0 0 0 0 19.304361155727747 26.98807796414394 0 26.98807796414394 33.384664087577676 0 0 0 0 6.567125210276572 6.4694381460030854 0 6.4694381460030854 101.22611756958599 0 0 0 0 36.354227517160325 54.776331180901252 0 54.776331180901252 69.437930474480709 0 0 0 0 75.440797881885373 62.184139633925952 0 62.184139633925952 70.410396197701175 0 0 0 0 38.743501907239533 15.932284127560493 0 15.932284127560493 26.223540353681528 0 0 0 0 1.6135732445648898 0.0007025401016411692 0 0.0007025401016411692 0.25151948743499819 0 0 0 0 3.990528385405014 38.536193760550987 0 38.536193760550987 165.22364698711544 0 0 0 0 7.6270003844510939 21.439099723784238 0 21.439099723784238 -41.777085767375866 0 0 0 0 -41.269234859290009 32.710691474595478 0 32.710691474595478 19.924333685785768 0 0 0 0 -9.7401757034640468 -6.5102435787198374 0 -6.5102435787198374 -12.814677109571221 0 0 0 0 48.511357660506349 44.999241015667764 0 44.999241015667764 -40.953380355178524 0 0 0 0 -36.188703776841066 81.153924063116847 0 81.153924063116847 -53.91336737527763 0 0 0 0 3.3680156308109872 14.489564329048335 0 14.489564329048335 34.742374608795217 0 0 0 0 0.14217349583668693 4.0055080067795643 0 4.0055080067795643 41.034697094800777 0 0 0 0 3.9638323259440469 1.8161088166948796 0 1.8161088166948796 -0.96702045132772518 0 0 0 0 -1.9734021196563845 8.184098159750647 0 8.184098159750647 50.614995074057788 0 0 0 0 2.2174478355682368 16.222767832947284 0 16.222767832947284 45.7307894887972 0 0 0 0 12.801149188653199 20.827077301057898 0 20.827077301057898 -14.607226662411904 0 0 0 0 40.050681323780736 -18.877827668020473 0 -18.877827668020473 -140.00544387732043 0 0 0 0 -4.0296376386721846 3.2485776424827257 0 3.2485776424827257 -1.4229080834538355 0 0 0 0 33.817628846240041 2.1813618472901908 0 2.1813618472901908 -170.82613014067329 0 0 0 0 16.160637812325149 -10.158905841688352 0 -10.158905841688352 -21.918302149621013 0 0 0 0 -7.8522058976122935 14.194216291201201 0 14.194216291201201 -41.943400570079575 0 0 0 0 15.396700316008719 -0.63121255804526299 0 -0.63121255804526299 -104.07268084538691 0 0 0 0 -38.671685501936395 -61.443080017238771 0 -61.443080017238771 -149.98991199777174 0 0 0 0 -43.510092625772813 -2.55145555919853 0 -2.55145555919853 -102.34346745402672 0 0 0 0 -1.2974537943700852 17.123050257444447 0 17.123050257444447 -118.40549114975511 0 0 0 0 32.638349718675272 -2.5487970274542704 0 -2.5487970274542704 -188.27533584293269 0 0 0 0 -4.4596184809815895 38.543139613793755 0 38.543139613793755 -54.380219406113611 0 0 0 0 2.3497462633240502 13.527207188868488 0 13.527207188868488 -111.56497628641478 0 0 0 0 -24.064731316117104 27.73278984693934 0 27.73278984693934 -10.365932074263583 0 0 0 0 -18.263861493885997 25.953709631298807 0 25.953709631298807 -11.449551743880875 0 0 0 0 -11.540387391083641 33.078655881133727 0 33.078655881133727 -52.470741552604522 0 0 0 0 -26.831702539988328 51.234031096843864 0 51.234031096843864 -14.190611219279162 0 0 0 0 -27.354301066720382 49.618948298995008 0 49.618948298995008 74.59347477760457 0 0 0 0 -15.368604796774889 -6.6223250495177126 0 -6.6223250495177126 36.888704530108953 0 0 0 0 -17.910327832567418 3.9330258376558049 0 3.9330258376558049 5.0138128967173543 0 0 0 0 -21.250185620214324 13.071344893583046 0 13.071344893583046 28.179700834751202 0 0 0 0 -13.323177906710043 5.9644204860333048 0 5.9644204860333048 4.2985057580983721 0 0 0 0 -11.487696200128994 14.62569617763711 0 14.62569617763711 1.4374765256920909 0 0 0 0 -15.678107106203242 15.543685659462426 0 15.543685659462426 2.2559895759814026 0 0 0 0 -13.10036388723347 26.205137746242031 0 26.205137746242031 -8.1950645180968422 0 0 0 0 -1.9612798620546528 18.126729894517666 0 18.126729894517666 -2.5589730091751335 0 0 0 0 1.824762535939044 25.805836117592207 0 25.805836117592207 -7.2572166278750956 0 0 0 0 18.085463134826568 6.0187141395749677 0 6.0187141395749677 -41.420988286502507 0 0 0 0 -2.6550737199777359 19.498716053246198 0 19.498716053246198 -6.0190187058524316 0 0 0 0 -6.1537321520154364 29.262341109783847 0 29.262341109783847 -40.050600196192136 0 0 0 0 -3.2755759655592556 15.75291085016579 0 15.75291085016579 -18.746988051643257 0 0 0 0 7.9776266418198247 -60.527541337229536 0 -60.527541337229536 -116.63618124516324 0 0 0 0 34.176677931454833 69.240566609409143 0 69.240566609409143 -133.68110237030805 0 0 0 0 62.098181836172444 -53.959145153425652 0 -53.959145153425652 -341.94988587942134 0 0 0 0 -92.534769540516209 94.460354126209495 0 94.460354126209495 -69.737027369895713 0 0 0 0 -1.6550577274364784 0.59334903511206605 0 0.59334903511206605 -0.52302547201996585 0 0 0 0 -64.32785391467587 7.9445812548812 0 7.9445812548812 62.346605167296275 0 0 0 0 4.0560006033296361 0.83706966113199677 0 0.83706966113199677 0.20741303000909506 0 0 0 0 5.2616306809613889 1.8406582253519446 0 1.8406582253519446 0.51020882156421976 0 0 0 0 6.8732542016176694 14.198812704782554 0 14.198812704782554 55.281430930189799 0 0 0 0 60.793679355385393 93.348281026344921 0 93.348281026344921 -108.07208412866657 0 0 0 0 0.58918130201008267 0.51010825275130145 0 0.51010825275130145 0.33384948948306103 0 0 0 0 -1.9134686730212707 3.2054465519568112 0 3.2054465519568112 1.0264627982141974 0 0 0 0 -0.12275781164164101 0.626358487171367 0 0.626358487171367 0.39220383277412085 0 0 0 0 5.3346673126234236 2.2042925809264489 0 2.2042925809264489 1.1346648436219766 0 0 0 0 5.4990451690430291 0.61248357022738276 0 0.61248357022738276 -0.25633612979845566 0 0 0 0 4.7263337640342797 2.1079712912937794 0 2.1079712912937794 2.1068999820049612 0 0 0 0 -4.719212131733002 0.55372074772731139 0 0.55372074772731139 2.227785566581133 0 0 0 0 4.4637790871111065 1.5118363937908725 0 1.5118363937908725 1.303121146927424 0 0 0 0 0.27048568237430892 1.6236453413332406 0 1.6236453413332406 2.0344284803841735 0 0 0 0 4.2150299595070919 1.932123495531215 0 1.932123495531215 2.1797629140733079 0 0 0 0 6.1080167721847829 5.4703026415991189 0 5.4703026415991189 1.4405595107016325 0 0 0 0 5.5153977154101952 2.9207938047805611 0 2.9207938047805611 1.1440724103775253 0 0 0 0 1.7466085162145166 2.304760698465234 0 2.304760698465234 2.4968403679325935 0 0 0 0 5.6958948372091527 7.367023289248948 0 7.367023289248948 1.6573546430208808 0 0 0 0 4.9501064164833224 2.1012635681290703 0 2.1012635681290703 3.0982160860623935 0 0 0 0 4.56894546796957 3.8500282709022997 0 3.8500282709022997 1.4344342216272707 0 0 0 0 1.7916612315530074 15.670556030117041 0 15.670556030117041 1.2721603034819964 0 0 0 0 -3.3799774487051764 16.835035139474712 0 16.835035139474712 1.0380266750826195 0 0 0 0 0.7102363369874638 19.639132658933022 0 19.639132658933022 -1.6617308227851026 0 0 0 0 -6.8212172040366568 19.967224991523835 0 19.967224991523835 0.14877804953903251 0 0 0 0 0.99956368352013669 17.636795557006337 0 17.636795557006337 0.53518544585494965 0 0 0 0 -5.0123893265117658 13.668651670851432 0 13.668651670851432 2.5762369973376735 0 0 0 0 -8.5220533932165381 12.869031327077607 0 12.869031327077607 2.4761664687084703 0 0 0 0 -8.4013588848920335 7.6350477981075073 0 7.6350477981075073 3.468350354713948 0 0 0 0 1.0821658526729152 6.2435563543849639 0 6.2435563543849639 3.8889104598653859 0 0 0 0 -7.6785599895338237 7.0966264968519681 0 7.0966264968519681 3.8682302812085254 0 0 0 0 -3.4455596993704489 12.905912543944964 0 12.905912543944964 2.8701474233257613 0 0 0 0 -1.2223221833119169 12.605125120967386 0 12.605125120967386 2.663283938090899 0 0 0 0 -4.260463913611602 10.168359779489037 0 10.168359779489037 3.4372587019843195 0 0 0 0 0.1097697394034185 8.9986180004161724 0 8.9986180004161724 3.7161821084275743 0 0 0 0 2.0364270906738966 8.731043484080601 0 8.731043484080601 2.4456274750600642 0 0 0 0 3.8164055704801285 10.604650740069701 0 10.604650740069701 1.2173316243070076 0 0 0 0 1.8438977867917856 12.214614715418065 0 12.214614715418065 0.8921380925480662 0 0 0 0 0.6697051551509503 12.406843140133049 0 12.406843140133049 1.5519359806457942 0 0 0 0 -1.6214312219963176 13.158859672769722 0 13.158859672769722 1.9182728448586204 0 0 0 0 4.3727142661045946 14.475560440793743 0 14.475560440793743 -1.0235642970774279 0 0 0 0 2.1043229957185758 15.948677967352751 0 15.948677967352751 -1.3398245996904734 0 0 0 0 4.6383907117524359 12.366963192849653 0 12.366963192849653 -1.1439290043781511 0 0 0 0 2.3171026037898628 13.840333118941771 0 13.840333118941771 -0.68063506889666314 0 0 0 0 3.0861220770357249 12.638537429258122 0 12.638537429258122 -0.70453087175883411 0 0 0 0 6.667140883859247 13.688548253466251 0 13.688548253466251 -2.9440135072552494 0 0 0 0 4.4558695052619441 11.693309987485918 0 11.693309987485918 -3.6164356187391604 0 0 0 0 2.1721501188039838 10.748632633135003 0 10.748632633135003 -3.4302112894347374 0 0 0 0 9.8083715821012447 13.261086396934388 0 13.261086396934388 -4.3881784235913983 0 0 0 0 5.448044141419814 11.704115327517229 0 11.704115327517229 -4.8786148372701064 0 0 0 0 8.5013695247107535 18.099674821710778 0 18.099674821710778 -1.8765770640566188 0 0 0 0 9.4442549500017776 13.594745016120669 0 13.594745016120669 -4.6012817381515561 0 0 0 0 20.727618052774915 16.455680435386853 0 16.455680435386853 -5.7677561428663466 0 0 0 0 13.005884935884751 18.277755668088048 0 18.277755668088048 -5.2035642639530124 0 0 0 0 12.530341255524036 15.835811025378007 0 15.835811025378007 -1.259487118092693 0 0 0 0 18.325083672496021 0.015111470653351944 0 0.015111470653351944 -0.708098611045898 0 0 0 0 6.5548294008603989 5.4092455813761262 0 5.4092455813761262 -3.1518189835569501 0 0 0 0 6.0474013748626021 0.71171216706238738 0 0.71171216706238738 -10.762149942820542 0 0 0 0 7.1835853050370133 3.707016318112494 0 3.707016318112494 -7.5687768600901109 0 0 0 0 9.4562482019350682 4.4608198734908768 0 4.4608198734908768 -5.9936747867104714 0 0 0 0 0.09639183757462888 2.9715890480210874 0 2.9715890480210874 -5.2186811215847229 0 0 0 0 0.60534747378169129 0.36756598624649506 0 0.36756598624649506 -2.79698528830572 0 0 0 0 -0.69844273982016603 10.993970937586255 0 10.993970937586255 1.8355850941125027 0 0 0 0 2.2192448702842853 2.9789567193668258 0 2.9789567193668258 -5.5022165676059496 0 0 0 0 2.0282127676764503 -2.9563834607970421 0 -2.9563834607970421 -6.1240915738856074 0 0 0 0 2.1972090505422273 0.36889357103813936 0 0.36889357103813936 -1.1309220796776915 0 0 0 0 32.4882957581558 30.651401297319808 0 30.651401297319808 23.880959895531646 0 0 0 0 5.8725022270364207 1.2729384519521432 0 1.2729384519521432 -4.9234724974639903 0 0 0 0 -30.721684378680948 14.668634228813289 0 14.668634228813289 0.83569392083518323 0 0 0 0 2.0478271063275315 -3.9330713625479348 0 -3.9330713625479348 -12.009487977461163 0 0 0 0 4.8121473928440537 12.821503510051116 0 12.821503510051116 1.5870395861334146 0 0 0 0 9.6770904648610667 9.9983672285777629 0 9.9983672285777629 -2.2013048126718786 0 0 0 0 0.37410601936533006 1.3838277723371419 0 1.3838277723371419 -4.0097774009494529 0 0 0 0 -11.007849931185774 -12.366879369772505 0 -12.366879369772505 14.001228837029657 0 0 0 0 -1.6585787153453566 3.9197836850726162 0 3.9197836850726162 -47.450860984671635 0 0 0 0 -58.013960876969577 43.443168381626037 0 43.443168381626037 -20.482362848923913 0 0 0 0 -0.19945098873270872 0.34620864093626125 0 0.34620864093626125 -1.5553190782800694 0 0 0 0 3.3531892153205263 -15.533766165838529 0 -15.533766165838529 -81.126115875760661 0 0 0 0 -61.341614903811205 52.293935621193441 0 52.293935621193441 -39.563575914740795 0 0 0 0 -36.025601439132515 65.747567882643125 0 65.747567882643125 -100.02207784574421 0 0 0 0 27.696643577198302 109.92052673594173 0 109.92052673594173 -149.82240723080758 0 0 0 0 -50.588282890220853 -80.471810565142619 0 -80.471810565142619 -160.27748107866319 0 0 0 0 9.9026732821985206 76.463067558667717 0 76.463067558667717 -73.519566043777559 0 0 0 0 4.8448249375433079 19.530737024101654 0 19.530737024101654 -45.786513562406981 0 0 0 0 29.615038325307978 16.485250824312061 0 16.485250824312061 -99.805195186859237 0 0 0 0 29.312642123928526 7.5623259832700569 0 7.5623259832700569 -166.13701654736815 0 0 0 0 16.028523469631182 46.31261184106188 0 46.31261184106188 -113.87253996698519 0 0 0 0 16.201134365345752 44.111596766003629 0 44.111596766003629 -86.951434554644038 0 0 0 0 -6.6726151095390378 41.497221474035996 0 41.497221474035996 -85.703809586824491 0 0 0 0 -29.181627516617482 32.750928260083583 0 32.750928260083583 -14.534153369775595 0 0 0 0 0.041297346607528596 -0.095434850376026503 0 -0.095434850376026503 -0.83108084133857929 0 0 0 0 56.301983943660161 -36.195408604527529 0 -36.195408604527529 -123.91245158982611 0 0 0 0 62.81568564250756 -61.178894985138186 0 -61.178894985138186 -33.947950389928337 0 0 0 0 -80.121626669018951 98.531083661400316 0 98.531083661400316 -90.84983812592327 0 0 0 0 38.516361202014195 19.091132996362944 0 19.091132996362944 -9.9512335145218458 0 0 0 0 18.024358718706935 5.1428847409138143 0 5.1428847409138143 19.121605321975949 0 0 0 0 0.085970666991016742 -0.36996161196756816 0 -0.36996161196756816 -1.6765374477439572 0 0 0 0 48.707330797718896 -3.7667393346216613 0 -3.7667393346216613 -8.4308350109349703 0 0 0 0 -0.087235237030654389 -4.5578327746027298 0 -4.5578327746027298 -34.184566491603618 0 0 0 0 0.030384527597561828 46.201779346399462 0 46.201779346399462 7.431522312924244 0 0 0 0 34.046866539067196 41.161968229935383 0 41.161968229935383 -24.297033908868798 0 0 0 0 -216.5441843017361 14.045999272568224 0 14.045999272568224 -10.336175881289819 0 0 0 0 -0.80995055203223387 1.1843165484278977 0 1.1843165484278977 -0.61709095954914517 0 0 0 0 78.858076578420878 68.160292833692893 0 68.160292833692893 -19.266670926532242 0 0 0 0 -85.638629811066494 89.967275215837162 0 89.967275215837162 -74.51845483467514 0 0 0 0 -0.71074947264075661 -0.40352224477159027 0 -0.40352224477159027 0.42645214914605134 0 0 0 0 -253.59380682534083 63.251672794439401 0 63.251672794439401 129.63260321626058 0 0 0 0 3.5153805989357352 87.984410689436118 0 87.984410689436118 -17.81483935090364 0 0 0 0 -76.410729176389395 86.522298743834881 0 86.522298743834881 -13.389072580488573 0 0 0 0 -6.9337344664490956 61.020297704062614 0 61.020297704062614 -22.36737685084222 0 0 0 0 -98.296699173210982 -5.401906102416433 0 -5.401906102416433 -3.5949634991520725 0 0 0 0 -12.898129860062909 47.521923046590928 0 47.521923046590928 -26.240769423575557 0 0 0 0 -0.0042713480925158365 57.134602077684576 0 57.134602077684576 -37.719029901092654 0 0 0 0 -9.9545854091165893 54.837070141210233 0 54.837070141210233 -25.826975494818726 0 0 0 0 -1.7569150206036284 45.528791990675927 0 45.528791990675927 -58.630529029573154 0 0 0 0 1.6625872946096933 -0.53709453989040412 0 -0.53709453989040412 -62.269238789051087 0 0 0 0 -0.35095884577999925 0.40007214960357729 0 0.40007214960357729 0.22861881400824657 0 0 0 0 0.0025975415228458587 1.6043198569545893 0 1.6043198569545893 -0.011329819823913567 0 0 0 0 0.100366229467447 -0.24338178178776015 0 -0.24338178178776015 -0.13498007698632186 0 0 0 0 2.2695443667373851 0.50091210094415128 0 0.50091210094415128 0.20589052732275448 0 0 0 0 -5.8270799257898034 -5.1687340918151676 0 -5.1687340918151676 -10.831119276437676 0 0 0 0 -2.8815574547243159 -5.1738349920969995 0 -5.1738349920969995 -13.073130377137204 0 0 0 0 -5.2174463821575046 4.6913313750183079 0 4.6913313750183079 -26.285707574748812 0 0 0 0 -34.955300454843382 27.004941966359638 0 27.004941966359638 -11.644293344927064 0 0 0 0 5.0796492278896039 1.3238001987683674 0 1.3238001987683674 -7.7570938767544249 0 0 0 0 24.907846646998223 22.674401267185658 0 22.674401267185658 2.2117187727126293 0 0 0 0 -7.0207879272547871 4.3867537365915723 0 4.3867537365915723 -0.9736661568585987 0 0 0 0 -3.6607332208513981 -7.0947576540338559 0 -7.0947576540338559 -9.1540272938782437 0 0 0 0 -5.8420605354390318 6.0641338285242341 0 6.0641338285242341 6.9745730698887201 0 0 0 0 4.3287933740189857 2.7343489397409595 0 2.7343489397409595 -0.80376570539570036 0 0 0 0 -1.3009301164520366 6.2864158249587945 0 6.2864158249587945 -4.6659058651193845 0 0 0 0 38.304730247898988 13.928734136372441 0 13.928734136372441 -19.264822245909272 0 0 0 0 -12.866364233697823 4.1766583478411121 0 4.1766583478411121 -3.4605976445200213 0 0 0 0 60.713549410162159 -1.4480370404198766 0 -1.4480370404198766 -10.472115104700606 0 0 0 0 -2.5107939113801798 1.0367152169419747 0 1.0367152169419747 -0.053816977176044389 0 0 0 0 -0.5447623490185336 4.012733325777937 0 4.012733325777937 -0.90521106297428489 0 0 0 0 0.68988714744318713 6.9637448409498575 0 6.9637448409498575 -0.2013419659133433 0 0 0 0 32.542652968177208 16.566261642234622 0 16.566261642234622 -2.7407164601534078 0 0 0 0 28.137129628430557 7.5992524439097906 0 7.5992524439097906 -18.603067902338807 0 0 0 0 -4.9618119388105697 4.365208348989654 0 4.365208348989654 -8.0559818704614372 0 0 0 0 5.6736141505025444 20.949404675960977 0 20.949404675960977 -2.7798501890823673 0 0 0 0 40.76042537014564 52.345848326007541 0 52.345848326007541 28.381486238213256 0 0 0 0 -9.2968737021965353 8.3285360043307719 0 8.3285360043307719 -6.1164562133806157 0 0 0 0 0.12311663272113549 0.30734181288426043 0 0.30734181288426043 -0.58682009995682094 0 0 0 0 32.728554516776057 -13.956860204310487 0 -13.956860204310487 -57.055702307606225 0 0 0 0 17.088538301566587 11.210678323998764 0 11.210678323998764 -7.2990823031818763 0 0 0 0 5.5193734554972238 4.9819725952632705 0 4.9819725952632705 -1.9016038193176357 0 0 0 0 13.289611410080397 11.594015940362624 0 11.594015940362624 -5.2787063584910356 0 0 0 0 10.262831744959136 10.72474428357371 0 10.72474428357371 2.6806002923344501 0 0 0 0 0.42346769310279342 22.93137434104483 0 22.93137434104483 9.5547147508182206 0 0 0 0 10.537155652055844 17.30779636993816 0 17.30779636993816 -6.7329952458749176 0 0 0 0 3.4990061759144737 15.822130005058625 0 15.822130005058625 2.4355953330255034 0 0 0 0 13.121930037075799 21.121096022518486 0 21.121096022518486 5.0458047097749841 0 0 0 0 13.153998513683291 18.325546617333771 0 18.325546617333771 -7.0469563087572169 0 0 0 0 8.4580911439011288 14.37665761979963 0 14.37665761979963 21.133060356795795 0 0 0 0 6.120926911659808 26.644488363418304 0 26.644488363418304 11.579985614893303 0 0 0 0 -3.2701146043784348 4.2872357432112338 0 4.2872357432112338 0.14108330751879183 0 0 0 0 -1.8914659629299422 21.221053165813828 0 21.221053165813828 -19.232972532603526 0 0 0 0 3.6464920808311945 10.580638308937978 0 10.580638308937978 0.050264715931007231 0 0 0 0 1.0945650323100686 7.005878589978666 0 7.005878589978666 1.2443314711311864 0 0 0 0 -4.1581278604379879 8.3550757056878524 0 8.3550757056878524 -1.7496319292208966 0 0 0 0 -1.7732157353875664 16.678323792147694 0 16.678323792147694 -3.1555510596874683 0 0 0 0 -10.113131270158192 12.935472471370758 0 12.935472471370758 16.346154738313089 0 0 0 0 -1.0592776080662674 3.3447723857707197 0 3.3447723857707197 -0.54794152651454198 0 0 0 0 -23.342145066908415 12.127739336469631 0 12.127739336469631 13.300213500766858 0 0 0 0 -10.044784314168282 12.523665095240176 0 12.523665095240176 -6.6885336778914279 0 0 0 0 -12.665727395610702 17.698834734653246 0 17.698834734653246 -14.014521135623909 0 0 0 0 -23.835003213302116 8.0421801399370452 0 8.0421801399370452 -0.43139459019812421 0 0 0 0 0.036954403528454804 2.0923601899559454 0 2.0923601899559454 2.3090129151722039 0 0 0 0 -19.903241130820334 10.992345164337621 0 10.992345164337621 10.855311870876903 0 0 0 0 -14.229934772716661 19.696031943934031 0 19.696031943934031 5.291993295573775 0 0 0 0 -25.616030590195805 23.885077387196361 0 23.885077387196361 4.6745473796217993 0 0 0 0 -26.33407893754412 14.244104278383617 0 14.244104278383617 10.373960671457098 0 0 0 0 125.03122779800469 58.222667260318303 0 58.222667260318303 -196.17141025681303 0 0 0 0 -189.70678293327001 31.598540756140665 0 31.598540756140665 141.8575672228917 0 0 0 0 21.132163731100718 65.405891092861452 0 65.405891092861452 66.112289723039794 0 0 0 0 0.23534431632706543 0.79027221086848343 0 0.79027221086848343 1.1132477564853538 0 0 0 0 32.93848059688753 24.61173920777992 0 24.61173920777992 11.409118398056307 0 0 0 0 20.51991186671512 28.965798391182943 0 28.965798391182943 21.820250087469503 0 0 0 0 -17.211205728412097 29.462963299128205 0 29.462963299128205 32.580381947015667 0 0 0 0 1.4161623909531045 8.8022743503427137 0 8.8022743503427137 1.3803970983462932 0 0 0 0 -9.5051772297774733 -4.7609140032091091 0 -4.7609140032091091 -2.3372668561733008 0 0 0 0 12.610198473426863 3.08328587017877 0 3.08328587017877 -7.0622924832232457 0 0 0 0 11.377293209004165 -5.7671389758284022 0 -5.7671389758284022 27.509602558420738 0 0 0 0 2.5928288347495254 6.4102294930435164 0 6.4102294930435164 11.253203294174 0 0 0 0 0.26138928565569586 9.8854745229042464 0 9.8854745229042464 30.3093730558885 0 0 0 0 -26.809755779668194 11.673761198991087 0 11.673761198991087 32.231045343933147 0 0 0 0 -10.698536444739148 -3.5174260258991126 0 -3.5174260258991126 43.895370355792693 0 0 0 0 64.154220534265278 -17.706994262851083 0 -17.706994262851083 5.3961805908784299 0 0 0 0 5.6138872176161385 1.1588571006659549 0 1.1588571006659549 42.591713467645377 0 0 0 0 -56.626726823607896 -70.027236806573455 0 -70.027236806573455 -30.219567515650851 0 0 0 0 -4.71949747423605 22.327013106112645 0 22.327013106112645 88.810202796536032 0 0 0 0 0.92253252247064665 106.9779239607833 0 106.9779239607833 57.464579126591161 0 0 0 0 -15.023049592857205 69.18159617625588 0 69.18159617625588 18.192858322781831 0 0 0 0 -10.924583437572437 61.196579048045351 0 61.196579048045351 -62.814986625938218 0 0 0 0 -1.9477749822734864 0.19055180932275917 0 0.19055180932275917 -0.087092166441373742 0 0 0 0 -36.584449640124149 28.6396058664468 0 28.6396058664468 47.061012934990231 0 0 0 0 -59.629883302945018 70.43177512773218 0 70.43177512773218 29.470699182774297 0 0 0 0 4.9977004768729785 46.621226655927444 0 46.621226655927444 -5.0417776743597642 0 0 0 0 -3.2960268650149374 31.659867010621383 0 31.659867010621383 1.7069019372324874 0 0 0 0 15.655927822888771 23.343684201177894 0 23.343684201177894 -9.5409746930422443 0 0 0 0 34.876376914176944 49.756981932313465 0 49.756981932313465 -64.114445473073829 0 0 0 0 51.568772177004007 105.52533093741339 0 105.52533093741339 -19.030669523655888 0 0 0 0 31.964076392954667 50.564129214673812 0 50.564129214673812 -30.532732512635903 0 0 0 0 27.611231377519289 23.868628656804049 0 23.868628656804049 -59.217704116079858 0 0 0 0 16.496150163231505 -11.39538336721489 0 -11.39538336721489 -40.696444171011535 0 0 0 0 25.893114348702511 24.609251775415942 0 24.609251775415942 -25.228166405198863 0 0 0 0 22.459234677835411 23.709114369421059 0 23.709114369421059 -10.773704943223493 0 0 0 0 24.172108287734773 9.7623877643202377 0 9.7623877643202377 -8.7999867600665311 0 0 0 0 19.054821779591293 17.713329575854459 0 17.713329575854459 -18.320452612734698 0 0 0 0 24.242068807187025 6.714520435922168 0 6.714520435922168 -34.830910271396533 0 0 0 0 5.7401381497363673 2.630214606698658 0 2.630214606698658 -3.6814898058146355 0 0 0 0 7.4907535396967404 2.1533719303855294 0 2.1533719303855294 0.18937797008221624 0 0 0 0 11.593221411520062 1.6328105950392455 0 1.6328105950392455 7.3620086198789068 0 0 0 0 15.44427141441156 -6.4329177865918155 0 -6.4329177865918155 -6.5951789763557827 0 0 0 0 5.2610554549410793 1.3253605341414199 0 1.3253605341414199 -0.11226412454920887 0 0 0 0 6.4774663663738465 1.4426673604571079 0 1.4426673604571079 -1.0911819236716838 0 0 0 0 18.872411238455243 8.0053577922822114 0 8.0053577922822114 -9.3739156082601767 0 0 0 0 5.8433898595430946 1.5426494122516488 0 1.5426494122516488 -1.0834693879052679 0 0 0 0 5.6797866868324718 0.24472936053807182 0 0.24472936053807182 0.024886162486372765 0 0 0 0 10.060198067190868 -16.072001623644383 0 -16.072001623644383 15.958809069793915 0 0 0 0 3.8644544251983461 6.2887467079158341 0 6.2887467079158341 -1.2659599393596181 0 0 0 0 5.5115082379548994 2.0669046030353746 0 2.0669046030353746 0.47168034311303852 0 0 0 0 2.9953433486441554 -0.24747889999704853 0 -0.24747889999704853 3.1998248207355573 0 0 0 0 8.4246366426123132 3.5384488209458596 0 3.5384488209458596 -1.0184834508883966 0 0 0 0 4.2522250384432283 3.2190758714317589 0 3.2190758714317589 0.57420504585229892 0 0 0 0 9.4322557024242997 -1.7361950054489057 0 -1.7361950054489057 0.72704362490003405 0 0 0 0 -1.874458842430613 9.0395603320519058 0 9.0395603320519058 5.1076317379583998 0 0 0 0 -0.43745910472798499 0.40083412312447386 0 0.40083412312447386 0.23140338551195327 0 0 0 0 -1.0713268487616006 8.0603380513925345 0 8.0603380513925345 -5.8832800084865085 0 0 0 0 9.2877632681120303 4.1889222246845748 0 4.1889222246845748 -4.8457265133574765 0 0 0 0 4.0405576416554965 3.0049463815696456 0 3.0049463815696456 0.090596231027427976 0 0 0 0 3.761445929249021 4.8854312919131644 0 4.8854312919131644 -4.0820020272180955 0 0 0 0 11.867883412662195 3.1424689706977915 0 3.1424689706977915 -6.9314797585702763 0 0 0 0 5.56513480754802 7.9223531224943144 0 7.9223531224943144 -10.492181856835032 0 0 0 0 3.2016599615744781 4.832804545070303 0 4.832804545070303 -4.0393030084010206 0 0 0 0 2.6319328488007159 9.2540286598650709 0 9.2540286598650709 -7.3676160599325158 0 0 0 0 -4.1158357386811986 19.52296176937034 0 19.52296176937034 -10.185799095432685 0 0 0 0 1.5927737205347512 10.452309905499078 0 10.452309905499078 -8.6857831952964943 0 0 0 0 -3.7718256848020246 24.774617638247037 0 24.774617638247037 -18.665347559725546 0 0 0 0 7.2332591516615139 18.920169294803202 0 18.920169294803202 -20.790878704062379 0 0 0 0 13.546968718057542 13.575173789613928 0 13.575173789613928 -16.276873994490415 0 0 0 0 12.296738702518326 11.766553781373254 0 11.766553781373254 -17.890658324301512 0 0 0 0 0.33621480644806923 1.0021600470897876 0 1.0021600470897876 0.080776394193170953 0 0 0 0 34.405159554862621 -0.41942705134920288 0 -0.41942705134920288 -12.424606581830631 0 0 0 0 -3.5772083526535425 24.536091135775678 0 24.536091135775678 33.351540496731616 0 0 0 0 10.921291636232127 -2.248994759064999 0 -2.248994759064999 3.2144425546966886 0 0 0 0 3.9180801645416068 4.2226063580023947 0 4.2226063580023947 -2.6700089902365107 0 0 0 0 -5.1729153348278487 2.0390284841359971 0 2.0390284841359971 35.005054180011484 0 0 0 0 18.53926646632317 4.9889820316539044 0 4.9889820316539044 8.4299770052775784 0 0 0 0 -2.2727667273720726 10.05058663267846 0 10.05058663267846 -8.0710716433759444 0 0 0 0 8.0365711932975259 6.8207595389056372 0 6.8207595389056372 0.35851345788845013 0 0 0 0 -0.31830526601141429 8.752373094565618 0 8.752373094565618 2.4950092056309874 0 0 0 0 9.7901998636623588 2.3580639050874979 0 2.3580639050874979 -1.8862369210191652 0 0 0 0 -2.8328905022767401 1.8180520762207735 0 1.8180520762207735 1.4754735049807328 0 0 0 0 11.937070563349181 9.1056966726598212 0 9.1056966726598212 2.0837037312502407 0 0 0 0 16.406942516616823 14.601772139468125 0 14.601772139468125 -7.6718051719126379 0 0 0 0 -8.6055673244336504 26.71695193651567 0 26.71695193651567 7.6004477632236558 0 0 0 0 16.192607852595529 12.767100620442022 0 12.767100620442022 -8.777629692629489 0 0 0 0 19.086355509456553 14.174367141007224 0 14.174367141007224 -8.3411684475549919 0 0 0 0 17.391160062132258 14.987052031096709 0 14.987052031096709 -7.6891912514593059 0 0 0 0 39.798746846766335 9.9031662967811371 0 9.9031662967811371 -6.3985156986582297 0 0 0 0 -9.6328621945810937 17.093725846604059 0 17.093725846604059 4.3998351750133224 0 0 0 0 15.767743080947184 11.89844235356918 0 11.89844235356918 -3.8222412009627078 0 0 0 0 20.176045011725364 15.533400091206204 0 15.533400091206204 -10.372395611956108 0 0 0 0 28.381653760163317 34.70414236004126 0 34.70414236004126 10.427788206508467 0 0 0 0 10.654474265506906 5.7519792144788653 0 5.7519792144788653 5.9487564781948095 0 0 0 0 9.6681825731702702 9.7092026715945394 0 9.7092026715945394 2.2121373128238702 0 0 0 0 -1.059614399391009 2.7160605127882818 0 2.7160605127882818 -3.2268819380599183 0 0 0 0 -105.59749827485575 18.813481608510301 0 18.813481608510301 0.21980685400239963 0 0 0 0 -7.8739509324877872 9.0630918184689335 0 9.0630918184689335 -30.789839155992013 0 0 0 0 -175.93131746488416 13.232095950557664 0 13.232095950557664 32.962981234506515 0 0 0 0 13.85884124664608 6.0750403326087508 0 6.0750403326087508 -12.199465711735229 0 0 0 0 -0.80276617758675428 1.0049783278856985 0 1.0049783278856985 -1.0240833348652405 0 0 0 0 17.017734245027896 -6.9373252464004054 0 -6.9373252464004054 29.651478472752387 0 0 0 0 31.515544588132798 29.51363010860824 0 29.51363010860824 -1.5503639565931735 0 0 0 0 15.502179072407671 12.929606548037555 0 12.929606548037555 -17.711070118029511 0 0 0 0 12.006048864608033 34.863336307348632 0 34.863336307348632 -37.009074861221052 0 0 0 0 -6.0932157813331287 34.505616284076496 0 34.505616284076496 -19.762698622912467 0 0 0 0 -6.5009041163139045 33.562962285821186 0 33.562962285821186 -19.233479303047716 0 0 0 0 -94.575386509210148 31.102095726805601 0 31.102095726805601 3.8211691560163672 0 0 0 0 -30.465628670953265 69.078738225515281 0 69.078738225515281 -43.699577773969395 0 0 0 0 -33.338556076019813 31.265040946921545 0 31.265040946921545 -0.19647944386940708 0 0 0 0 13.338974632704776 38.168506714140406 0 38.168506714140406 -53.053172283877302 0 0 0 0 16.508613501775471 -41.105326974762647 0 -41.105326974762647 -25.550858572348261 0 0 0 0 -94.364720840501832 93.404869380271975 0 93.404869380271975 -44.81155510884264 0 0 0 0 -5.5772250437330513 6.8838879187205748 0 6.8838879187205748 -100.22626459938579 0 0 0 0 -74.939271716316398 -35.743516171715157 0 -35.743516171715157 -14.832770453598187 0 0 0 0 7.6301516460189305 -17.592592817083414 0 -17.592592817083414 -20.634365350771759 0 0 0 0 -1.4311297946169361 -24.920766576038091 0 -24.920766576038091 17.15759806354265 0 0 0 0 15.81577425111773 -26.117697943273324 0 -26.117697943273324 12.046868326364818 0 0 0 0 -48.641985719950753 3.0502899039558997 0 3.0502899039558997 1.0490455852941523 0 0 0 0 67.712638705059362 11.036458029654568 0 11.036458029654568 -30.319150928148019 0 0 0 0 -0.4323170904589233 2.0512981901922842 0 2.0512981901922842 -3.3173000216876947 0 0 0 0 18.564371196975117 14.223385023040009 0 14.223385023040009 2.712030145041922 0 0 0 0 21.490416098926744 29.009728517048472 0 29.009728517048472 18.194098227598261 0 0 0 0 -0.013605210653622635 21.127609125065192 0 21.127609125065192 25.574356901476676 0 0 0 0 -1.3562262483759575 2.2735645336804318 0 2.2735645336804318 -2.1758110335261911 0 0 0 0 7.4866297628814209 57.859954011019909 0 57.859954011019909 -14.681952999506393 0 0 0 0 -69.425625650928851 44.504797245095688 0 44.504797245095688 28.624940415714946 0 0 0 0 -90.079884214692356 -18.567037274329095 0 -18.567037274329095 40.860658436791709 0 0 0 0 -224.17551117943549 12.611156706553629 0 12.611156706553629 33.814103694063306 0 0 0 0 8.7014613314277085 28.888049100264652 0 28.888049100264652 30.616080332663842 0 0 0 0 31.881385685841451 18.622594412714307 0 18.622594412714307 28.806498016876503 0 0 0 0 0.04059195549962169 57.971764538459638 0 57.971764538459638 -140.55142477649252 0 0 0 0 -18.486692512175978 51.150501402033683 0 51.150501402033683 -130.01977987323767 0 0 0 0 -0.073818958828269388 58.003111999566158 0 58.003111999566158 -140.54901324086001 0 0 0 0 -3.9751149051398897 47.506576227177788 0 47.506576227177788 -163.63052822486566 0 0 0 0 0.36890283389507772 -0.13941716057638764 0 -0.13941716057638764 -0.64041962625039517 0 0 0 0 -16.539733052120937 73.732362744709917 0 73.732362744709917 -151.67728019230162 0 0 0 0 -13.769590712014178 59.651704614430287 0 59.651704614430287 -135.51892472223381 0 0 0 0 -0.12171097096763384 60.420827489487685 0 60.420827489487685 -144.60253579213713 0 0 0 0 2.0008823913978731 -0.54749699073155345 0 -0.54749699073155345 -2.6734267240005485 0 0 0 0 -27.620959178375415 47.249490380602424 0 47.249490380602424 -132.97130927430226 0 0 0 0 -36.913211866047277 65.354895726923587 0 65.354895726923587 -136.47706657802701 0 0 0 0 -33.969008315448264 79.087491806454551 0 79.087491806454551 -167.69086081734918 0 0 0 0 -20.621386742641334 15.887547092243835 0 15.887547092243835 11.936824196750081 0 0 0 0 2.0478306555533479 -0.66304434218774944 0 -0.66304434218774944 -1.6390418482765403 0 0 0 0 -17.314104130929991 28.602177182734295 0 28.602177182734295 -21.100731762828673 0 0 0 0 -6.5781607609133061 27.194376429227191 0 27.194376429227191 -28.734762759137084 0 0 0 0 1.6531447289625802 -0.16413754084963728 0 -0.16413754084963728 -1.1873034769875042 0 0 0 0 -21.226456859340487 110.75084449425506 0 110.75084449425506 -205.50142562295309 0 0 0 0 -45.070644715457092 70.827699811428033 0 70.827699811428033 -154.46233406961858 0 0 0 0 0.3198543717368878 -0.10706533616431191 0 -0.10706533616431191 -0.54245668693805582 0 0 0 0 -18.029798216478753 60.923983922644133 0 60.923983922644133 -124.45683519385125 0 0 0 0 -9.8514942541878554 83.274892523963103 0 83.274892523963103 -164.47556806334796 0 0 0 0 -23.081169486698855 99.884304941978485 0 99.884304941978485 -141.03890044167395 0 0 0 0 -51.243245809451764 78.871958499484208 0 78.871958499484208 -155.93806730198833 0 0 0 0 -42.097865052675843 140.37450467512031 0 140.37450467512031 -175.84951403289904 0 0 0 0 -16.833187977781108 109.05323996241981 0 109.05323996241981 -145.43162281432183 0 0 0 0 0.79385641110762606 -0.027943417288540218 0 -0.027943417288540218 -0.61753799073969784 0 0 0 0 23.253277070753029 8.2279793478221563 0 8.2279793478221563 -70.963162375851482 0 0 0 0 11.15769140638622 1.7571953824024149 0 1.7571953824024149 -28.446586301190223 0 0 0 0 -4.8594918300104837 20.32789471701177 0 20.32789471701177 -44.998975560402414 0 0 0 0 -4.6820547556981182 24.872769425181332 0 24.872769425181332 -28.17773008143331 0 0 0 0 -5.7674142706182465 29.326515316356108 0 29.326515316356108 -25.002175398832151 0 0 0 0 -2.1516587156756941 24.842796406687398 0 24.842796406687398 -22.086253347289585 0 0 0 0 -4.5537333530637625 24.83529485654131 0 24.83529485654131 -21.620086263984831 0 0 0 0 -1.6215862458884658 20.452689829581004 0 20.452689829581004 -16.995504080593037 0 0 0 0 -5.0391760514003181 28.806106331156172 0 28.806106331156172 -17.747409540435001 0 0 0 0 -1.0725463500675687 25.704567488689463 0 25.704567488689463 -22.102403032103666 0 0 0 0 -0.76881747384322807 18.731372400380224 0 18.731372400380224 -14.324938087955616 0 0 0 0 -3.5352851713923883 32.512182028538177 0 32.512182028538177 -32.000586145855095 0 0 0 0 -18.647014778271114 47.56390069432257 0 47.56390069432257 -43.268770543996084 0 0 0 0 -19.266332688155671 25.244891586813377 0 25.244891586813377 13.294841682341939 0 0 0 0 -4.7839977296480356 21.022159211448979 0 21.022159211448979 -12.754335374973834 0 0 0 0 -4.5722098079895659 12.389483000554492 0 12.389483000554492 -14.598866336912351 0 0 0 0 -5.0441742515249643 13.17506665143128 0 13.17506665143128 -13.746968816934626 0 0 0 0 -8.3717897267415537 13.126317257997471 0 13.126317257997471 -13.747555326826841 0 0 0 0 12.303202495324513 2.1908085153536376 0 2.1908085153536376 -13.404383774232883 0 0 0 0 6.1367336247896418 2.6648352284347592 0 2.6648352284347592 0.60481557632304028 0 0 0 0 -10.328947624517241 17.18725998632965 0 17.18725998632965 -12.620186143477895 0 0 0 0 1.4677450451773772 0.14295234975975646 0 0.14295234975975646 -0.77052310778029565 0 0 0 0 -5.8080323590402259 17.970157803285019 0 17.970157803285019 -12.560364624669546 0 0 0 0 1.2196552292443812 -9.719915521296798 0 -9.719915521296798 13.312487518518537 0 0 0 0 -0.6395426500394592 -0.17678212830467466 0 -0.17678212830467466 0.035432203617640212 0 0 0 0 -24.185130189547635 15.75370213313397 0 15.75370213313397 41.556633582131553 0 0 0 0 17.653327838048426 18.003443740475859 0 18.003443740475859 -5.0253614983889747 0 0 0 0 1.6731343898154591 15.202542462733504 0 15.202542462733504 -48.643947617107642 0 0 0 0 -16.514101893277257 43.905022886075358 0 43.905022886075358 -93.475794848684473 0 0 0 0 -22.946749476690457 48.488961530161987 0 48.488961530161987 -55.409754337772711 0 0 0 0 -11.008685264319865 69.841616874841861 0 69.841616874841861 -60.029345224070767 0 0 0 0 -63.293962069987174 88.295286976974978 0 88.295286976974978 -65.762712232034346 0 0 0 0 -18.293295551291521 92.924317257800396 0 92.924317257800396 -79.996991355476098 0 0 0 0 -45.885475490705176 48.654762201862752 0 48.654762201862752 -36.858986825823649 0 0 0 0 -30.395551862320644 49.359685765594918 0 49.359685765594918 -43.434405007056625 0 0 0 0 -149.84799402891167 92.403029341961172 0 92.403029341961172 -8.6488783685197177 0 0 0 0 -54.747646722904392 146.24564754414936 0 146.24564754414936 -148.22321102247736 0 0 0 0 -23.598205724865693 107.07111852721513 0 107.07111852721513 -172.22887372587024 0 0 0 0 -110.29818565604 111.49650127286307 0 111.49650127286307 -138.76566425198794 0 0 0 0 -174.89549999312521 280.69286392180089 0 280.69286392180089 -298.95780226323853 0 0 0 0 -88.438944156549496 143.68692231779298 0 143.68692231779298 -140.97737218451957 0 0 0 0 -48.676844928686478 69.184626270722191 0 69.184626270722191 -31.00299335034795 0 0 0 0 -35.896662977032975 46.051894578631419 0 46.051894578631419 -75.097276709539216 0 0 0 0 -41.935606079414811 30.009881337171947 0 30.009881337171947 -15.747778953549357 0 0 0 0 -13.637576344724948 56.027450145860833 0 56.027450145860833 -16.79441561461536 0 0 0 0 -20.073620449547889 86.444602445040601 0 86.444602445040601 -73.462314972172436 0 0 0 0 -25.135134647266568 71.970264030239377 0 71.970264030239377 -9.7894976597196433 0 0 0 0 -72.171633062268029 64.450709533865904 0 64.450709533865904 -79.550002678379769 0 0 0 0 -12.56237695294476 94.2594860858662 0 94.2594860858662 -161.59288267584148 0 0 0 0 -13.900928640415714 84.705625632603329 0 84.705625632603329 -84.903063070405324 0 0 0 0 10.311508152968599 80.984604802214562 0 80.984604802214562 -77.432188819792174 0 0 0 0 24.945778640052595 77.884580006749715 0 77.884580006749715 -90.308208048199475 0 0 0 0 22.711427556834678 80.250311763703507 0 80.250311763703507 -25.289637436161456 0 0 0 0 46.875828845468277 71.060140177715809 0 71.060140177715809 -22.49960817335878 0 0 0 0 62.181181419993663 66.86516467652217 0 66.86516467652217 -84.961067299577905 0 0 0 0 46.919939191941694 18.424009827851187 0 18.424009827851187 -21.428895614598673 0 0 0 0 -16.367882133045896 98.285899590329421 0 98.285899590329421 -115.34771255790417 0 0 0 0 35.814537673464656 71.560161667695155 0 71.560161667695155 -114.10571178684859 0 0 0 0 18.508476567032631 92.231489059872018 0 92.231489059872018 -145.08500883042143 0 0 0 0 -21.117749137370993 119.85606854862814 0 119.85606854862814 -127.08375179711106 0 0 0 0 -0.9696919908747077 115.65501688843014 0 115.65501688843014 -142.75192679824227 0 0 0 0 7.1428985280981578 75.290211562648324 0 75.290211562648324 -129.18125880708962 0 0 0 0 12.154394927340945 63.209349292811396 0 63.209349292811396 -125.20585658115715 0 0 0 0 -8.8176811001249007 56.172826706401793 0 56.172826706401793 -67.74048033482984 0 0 0 0 -4.6697813741047867 75.521995250658335 0 75.521995250658335 -90.845263281292546 0 0 0 0 13.804523096188859 67.61089916193545 0 67.61089916193545 -62.009896564539133 0 0 0 0 27.641308059986841 52.2298917683963 0 52.2298917683963 -84.604800003484343 0 0 0 0 16.975753645507211 49.010946976750034 0 49.010946976750034 23.288685439775236 0 0 0 0 27.939397735084412 19.742146435086472 0 19.742146435086472 4.0965217156622202 0 0 0 0 3.810660007527531 45.077380625427132 0 45.077380625427132 -6.6431480105683818 0 0 0 0 21.135121084069397 51.53431255108066 0 51.53431255108066 -67.57753087424328 0 0 0 0 -0.00071757684236217756 54.487317221842659 0 54.487317221842659 14.724547709256257 0 0 0 0 9.5996146843572205 25.355151035188612 0 25.355151035188612 -22.695078777621461 0 0 0 0 -0.00664208931812027 60.4754740264666 0 60.4754740264666 -64.809797710364251 0 0 0 0 -15.726966825905038 60.181855033755937 0 60.181855033755937 -113.04716302348322 0 0 0 0 10.708687340753386 39.173252569866634 0 39.173252569866634 -100.51145297258131 0 0 0 0 -0.33394000134467205 2.2141880000440324 0 2.2141880000440324 7.7577783133069147 0 0 0 0 47.291667562396469 29.697145174073967 0 29.697145174073967 11.938130774907222 0 0 0 0 14.15270209348455 4.3553759999451813 0 4.3553759999451813 -20.256245230454169 0 0 0 0 -1.1633524340479724 0.71596092204509709 0 0.71596092204509709 0.89614205804050817 0 0 0 0 5.3332665233992884 13.358868119157478 0 13.358868119157478 -4.0268417746302703 0 0 0 0 13.148069699256666 0.62159624935873126 0 0.62159624935873126 -6.969706497672405 0 0 0 0 7.9875632474331724 4.7069940509156254 0 4.7069940509156254 -2.0281556745898683 0 0 0 0 -1.1407722451538369 3.3482082792724874 0 3.3482082792724874 0.77399477918770732 0 0 0 0 31.270857898732174 12.2347794469039 0 12.2347794469039 0.5237017138945248 0 0 0 0 87.670235498475449 40.450660094662169 0 40.450660094662169 -15.286581203845543 0 0 0 0 71.281442135930774 11.063701309290195 0 11.063701309290195 -23.746679856632284 0 0 0 0 74.015892979540695 54.576171543629982 0 54.576171543629982 -3.5678681975854261 0 0 0 0 57.621312389368541 44.81840211406535 0 44.81840211406535 -6.4453228050543885 0 0 0 0 67.103893046901703 44.39788425806239 0 44.39788425806239 -7.130898526535475 0 0 0 0 59.316764983537723 46.9318985872045 0 46.9318985872045 -2.5451462292372753 0 0 0 0 47.946858370482005 30.46664505378476 0 30.46664505378476 0.4073125418269683 0 0 0 0 67.5538776466542 42.61233708697128 0 42.61233708697128 -6.5176496058684279 0 0 0 0 57.368783481011633 32.234847973166097 0 32.234847973166097 -16.552627948405387 0 0 0 0 48.130192398453801 40.088518968577318 0 40.088518968577318 0.71485098197888419 0 0 0 0 67.009311409157817 50.337347392935499 0 50.337347392935499 5.8192312552150725 0 0 0 0 31.584651812205266 43.073683370828348 0 43.073683370828348 -1.7585307817803368 0 0 0 0 43.648264306651981 34.122807367421672 0 34.122807367421672 4.3601619136161389 0 0 0 0 93.328899414433181 44.995548292993135 0 44.995548292993135 -1.0365527639146421 0 0 0 0 -0.00013271257982250262 0.11143310688022368 0 0.11143310688022368 0.035649281356689322 0 0 0 0 -28.977427297851591 19.19746586029251 0 19.19746586029251 -5.3326899437829525 0 0 0 0 -8.8970638885111839 7.7586746056344964 0 7.7586746056344964 -5.504081815921495 0 0 0 0 50.111640712399094 44.802382900083785 0 44.802382900083785 11.189918333986043 0 0 0 0 63.138719046950428 39.901899395706437 0 39.901899395706437 7.7588570863865698 0 0 0 0 71.985427491945302 30.114951192245258 0 30.114951192245258 8.988762691744796 0 0 0 0 52.118439692715583 48.694501197654745 0 48.694501197654745 17.675704831073972 0 0 0 0 38.274681684653842 46.665674564573123 0 46.665674564573123 17.387759485731294 0 0 0 0 48.405717101928531 36.228014375154203 0 36.228014375154203 17.469027367238596 0 0 0 0 37.147508208565341 24.162141345858913 0 24.162141345858913 7.9862646271747053 0 0 0 0 29.682405501072935 28.2861499767439 0 28.2861499767439 22.041953668177484 0 0 0 0 0.49185629946100562 1.308362814006518 0 1.308362814006518 0.38211662404306246 0 0 0 0 24.637986945530429 21.887742077719281 0 21.887742077719281 20.446110507172307 0 0 0 0 1.6179500385260326 2.1488103779784069 0 2.1488103779784069 14.266081653666333 0 0 0 0 -1.1968003866932122 4.8171576613722209 0 4.8171576613722209 -4.3844506611992529 0 0 0 0 0.27493013993125714 14.431632902551357 0 14.431632902551357 6.2375516796691954 0 0 0 0 1.7304214109203251 2.1799484085685155 0 2.1799484085685155 -2.3883006435008713 0 0 0 0 4.3634491675438767 1.1991578164072507 0 1.1991578164072507 -10.280183639084157 0 0 0 0 5.2200134357099159 1.9308407915696648 0 1.9308407915696648 14.94666396463208 0 0 0 0 -4.9754835765616008 7.8982743082808042 0 7.8982743082808042 9.0727534475572611 0 0 0 0 -3.8736660818867676 9.8092140401449228 0 9.8092140401449228 10.188639867442134 0 0 0 0 0.81620376213621881 4.5536631109465624 0 4.5536631109465624 -2.3474226481807632 0 0 0 0 -0.85053302011237975 16.078910944005258 0 16.078910944005258 -14.704701492256163 0 0 0 0 2.3542680910177296 6.9065423985774714 0 6.9065423985774714 -8.7804837451698745 0 0 0 0 0.26791695775591506 15.229832341454141 0 15.229832341454141 -14.883299052057509 0 0 0 0 5.637286311270941 2.5095667382516158 0 2.5095667382516158 0.41686783892274581 0 0 0 0 8.8685511822386616 6.2298912254453853 0 6.2298912254453853 -9.5898488753994684 0 0 0 0 1.5800664744929236 13.410242612017896 0 13.410242612017896 -8.0522882280074555 0 0 0 0 5.8510943125264845 2.7058848233337383 0 2.7058848233337383 -0.5177012795540703 0 0 0 0 4.5136740810230549 10.79342312153949 0 10.79342312153949 -3.6340770343820168 0 0 0 0 2.1944662805180997 7.0784851744137995 0 7.0784851744137995 -2.2529905031806265 0 0 0 0 -1.3870382392233296 11.99495780789448 0 11.99495780789448 -0.33048199505469711 0 0 0 0 4.1180887055706989 11.643920965697816 0 11.643920965697816 -3.3264107386730757 0 0 0 0 -0.022119889945130922 5.4796678127642453 0 5.4796678127642453 -2.0471641051406078 0 0 0 0 0.15464276369038998 13.95098072208566 0 13.95098072208566 -4.0172937774768798 0 0 0 0 4.8097415208249004 10.546565275424655 0 10.546565275424655 -1.7892218046977177 0 0 0 0 5.2823595964437118 10.2273569610511 0 10.2273569610511 0.019161457304107898 0 0 0 0 3.8587077135307482 10.086032107295978 0 10.086032107295978 -1.1864345897447492 0 0 0 0 1.1284673942645895 -0.016399071281284705 0 -0.016399071281284705 -8.1119406577672635 0 0 0 0 -0.21221466918229659 1.8664653966428268 0 1.8664653966428268 0.69297371501871652 0 0 0 0 5.6343794916398053 6.2625723543843854 0 6.2625723543843854 -2.9714218852960919 0 0 0 0 8.179191595492739 4.2579787379653453 0 4.2579787379653453 -0.30742728212908332 0 0 0 0 5.0272883613518786 4.7742978064897184 0 4.7742978064897184 -3.4331475984294837 0 0 0 0 2.3256987480490352 3.1289683865688858 0 3.1289683865688858 -2.8098579628949665 0 0 0 0 10.069016120793094 11.746307917228023 0 11.746307917228023 -0.31897178410872584 0 0 0 0 4.1024547315746531 11.21380413578072 0 11.21380413578072 2.7196643460192718 0 0 0 0 3.545926485009737 4.5885356013610892 0 4.5885356013610892 -2.1849505209660216 0 0 0 0 5.0879534533487458 11.250790164347563 0 11.250790164347563 -0.24695780242655019 0 0 0 0 4.9414448564122111 4.5737024520365672 0 4.5737024520365672 2.0335712596904418 0 0 0 0 5.1350653274330398 5.3765440296954239 0 5.3765440296954239 -1.053673335887197 0 0 0 0 3.9976605678298966 3.8821308514138657 0 3.8821308514138657 -0.60664906415837194 0 0 0 0 3.3274312314933923 7.943365902126061 0 7.943365902126061 2.5768355796741389 0 0 0 0 5.2431791357994371 6.1315013959824682 0 6.1315013959824682 -1.4519035531379814 0 0 0 0 6.8575913554866403 3.9073511523637805 0 3.9073511523637805 -0.094028352798853465 0 0 0 0 5.9878155906590109 6.3487929328650807 0 6.3487929328650807 -2.7015659062764712 0 0 0 0 2.7248869284926265 2.2650995646716865 0 2.2650995646716865 -2.5510073054342657 0 0 0 0 5.7416505651399348 6.5411388391340779 0 6.5411388391340779 -1.8151297589930664 0 0 0 0 4.6263808701805829 3.6062145781319828 0 3.6062145781319828 -3.4703908026267527 0 0 0 0 7.5239700569582055 4.2399221007792676 0 4.2399221007792676 1.046043943277823 0 0 0 0 7.022201223848711 2.3330764545174878 0 2.3330764545174878 0.29319980986014604 0 0 0 0 4.1262325720163062 14.038376451794647 0 14.038376451794647 9.1272616656128776 0 0 0 0 3.6532211408411968 3.2708383581330054 0 3.2708383581330054 -12.914620177682991 0 0 0 0 8.9554563261954172 4.8526047825957903 0 4.8526047825957903 0.087953087951063935 0 0 0 0 3.2211465525846794 3.227644350456309 0 3.227644350456309 0.051897407779945226 0 0 0 0 7.1039262253179913 3.3668789602170364 0 3.3668789602170364 -0.601077237566642 0 0 0 0 1.4207291982602328 3.2214210356942203 0 3.2214210356942203 -2.3014792157255215 0 0 0 0 4.6119802256158593 3.9616683269156869 0 3.9616683269156869 -0.00052358138345964811 0 0 0 0 2.7457290932802607 3.1566621657717349 0 3.1566621657717349 -2.1418312054393027 0 0 0 0 3.0858031505378349 2.5234565597260978 0 2.5234565597260978 -1.0709939180573609 0 0 0 0 9.2876729634490385 3.5363212820945122 0 3.5363212820945122 -2.2238650085855998 0 0 0 0 5.5772280613746261 -2.265337697205041 0 -2.265337697205041 4.8395920172408751 0 0 0 0 -0.68611935186110173 0.95611358446803507 0 0.95611358446803507 0.26954847879542987 0 0 0 0 3.5012481231533457 19.65228628772411 0 19.65228628772411 10.486066193730721 0 0 0 0 -4.0137887739292637 6.198288442949206 0 6.198288442949206 2.7302131836408989 0 0 0 0 -8.6466454684050404 -1.420235240955094 0 -1.420235240955094 -3.524419296649512 0 0 0 0 -14.36908246549865 23.817539658107421 0 23.817539658107421 -27.483575340869834 0 0 0 0 -9.2746835048801586 25.256088339001963 0 25.256088339001963 -31.085440599440062 0 0 0 0 10.103851631951329 3.8697925728455402 0 3.8697925728455402 -10.91079815347166 0 0 0 0 -7.4151904362206551 2.2213896046392847 0 2.2213896046392847 2.5023898491340333 0 0 0 0 1.2885106306468783 0.70088414188023052 0 0.70088414188023052 -0.78346555389800532 0 0 0 0 -32.119082348903248 29.528716406210208 0 29.528716406210208 -16.943777624683548 0 0 0 0 -0.14982332674085796 0.28415468598180382 0 0.28415468598180382 -0.30175017710921237 0 0 0 0 -34.949997807485488 48.877432599975975 0 48.877432599975975 -30.065552479067694 0 0 0 0 -27.024301664928316 33.598691810867024 0 33.598691810867024 -14.610439531596398 0 0 0 0 -0.93702473597838321 1.1325891598832971 0 1.1325891598832971 -0.22315633215405528 0 0 0 0 8.7393490278391255 -1.9946532390961806 0 -1.9946532390961806 0.23441320571760116 0 0 0 0 -1.1178144353443127 6.7323646002320068 0 6.7323646002320068 -1.2023224422030099 0 0 0 0 -5.4423457901175425 6.1101816979196997 0 6.1101816979196997 6.2955003055698739 0 0 0 0 11.942084559988075 4.7090648267588264 0 4.7090648267588264 -1.3906643024276946 0 0 0 0 17.784345809181104 3.8620899541561471 0 3.8620899541561471 -1.5806696465744494 0 0 0 0 16.62519950413116 1.8360498227422681 0 1.8360498227422681 -3.4963170642208752 0 0 0 0 4.3548444954049046 10.466922944942667 0 10.466922944942667 -1.1301524318560041 0 0 0 0 -1.461302561838238 8.4069054365819511 0 8.4069054365819511 0.1105481982405081 0 0 0 0 -0.020158390643700841 7.7856549581994159 0 7.7856549581994159 0.37834490077528926 0 0 0 0 26.873845562532551 18.053373840544623 0 18.053373840544623 -20.343687291164088 0 0 0 0 -2.4228922942659707 6.4717783319239963 0 6.4717783319239963 -0.56050104201786111 0 0 0 0 -9.5925286313995457 12.362169646938881 0 12.362169646938881 23.572754576200552 0 0 0 0 1.3956364501427743 8.571195057999148 0 8.571195057999148 0.63844522788912172 0 0 0 0 -2.5866331731883179 7.0059726790874493 0 7.0059726790874493 0.45262309284764912 0 0 0 0 -42.593074546748539 -13.795295570781093 0 -13.795295570781093 95.354792276877959 0 0 0 0 -2.2094246935921547 11.093741646825464 0 11.093741646825464 -16.848466140762486 0 0 0 0 -19.994589185464065 29.691896291065575 0 29.691896291065575 11.5026913650035 0 0 0 0 -5.0296247841232855 0.71442698319571107 0 0.71442698319571107 0.24882819389803279 0 0 0 0 -1.2724622984677723 -0.098466084173576718 0 -0.098466084173576718 -0.023999266657677931 0 0 0 0 -56.163149589621753 129.43356910524454 0 129.43356910524454 -220.11600629676431 0 0 0 0 -138.92885857598731 190.7718549815209 0 190.7718549815209 -206.53642616454039 0 0 0 0 -149.00391154326826 173.07622950035164 0 173.07622950035164 -146.36900618827551 0 0 0 0 10.09252562929737 193.39729999343422 0 193.39729999343422 -452.5490235180576 0 0 0 0 -18.569739790371386 41.897520625467592 0 41.897520625467592 -76.215066041544119 0 0 0 0 3.9978457985289424 93.562137684841645 0 93.562137684841645 -208.80139048627905 0 0 0 0 -57.770818526762014 94.348955876460735 0 94.348955876460735 -67.605965780029607 0 0 0 0 -2.2971407213621546 8.6726993081131383 0 8.6726993081131383 2.3720203365745647 0 0 0 0 -2.098972980747476 5.1943675388737365 0 5.1943675388737365 0.31485719166499848 0 0 0 0 -64.153798673622077 -5.3781755968694824 0 -5.3781755968694824 90.595689964511735 0 0 0 0 -0.80909067309672622 6.2991838093486869 0 6.2991838093486869 3.2143961499108391 0 0 0 0 33.182637824528683 12.661016034197445 0 12.661016034197445 -211.87512725693136 0 0 0 0 12.063435701387789 289.21757027939225 0 289.21757027939225 -429.92562550342689 0 0 0 0 -0.67803967937881104 1.5641419293879473 0 1.5641419293879473 -3.748370385856151 0 0 0 0 -400.10465897198264 291.48822683367172 0 291.48822683367172 -193.21656608168024 0 0 0 0 -160.98343168632891 176.80476290372826 0 176.80476290372826 -64.369138313626763 0 0 0 0 75.41884225188187 -5.3899621798079806 0 -5.3899621798079806 -103.94782749877891 0 0 0 0 -3.9682812235472227 2.5547837038589325 0 2.5547837038589325 3.5324660980584177 0 0 0 0 -53.161795749112571 -84.211045343510534 0 -84.211045343510534 60.312099725372263 0 0 0 0 -39.147051701631426 201.90787940516589 0 201.90787940516589 -379.88552629906286 0 0 0 0 -105.96743171477101 219.06253471137057 0 219.06253471137057 274.82931851546527 0 0 0 0 39.083616556559718 222.20439105447463 0 222.20439105447463 329.78609387969993 0 0 0 0 21.802411049073271 103.16712221931425 0 103.16712221931425 391.4947447204629 0 0 0 0 124.5416721515976 -4.7323242615689765 0 -4.7323242615689765 -45.33633993546735 0 0 0 0 224.29846565139633 78.5108402136986 0 78.5108402136986 -85.64496666971354 0 0 0 0 -0.2494262882485998 1.6832047661894727 0 1.6832047661894727 0.26847528855107794 0 0 0 0 127.64065050097634 -15.38333156187241 0 -15.38333156187241 19.617474424919465 0 0 0 0 -1.2050707767292348 0.87403617833500036 0 0.87403617833500036 1.2035600864154299 0 0 0 0 134.93259797782957 -97.705577477570273 0 -97.705577477570273 -48.78357863842362 0 0 0 0 37.309633783428581 97.797627739828499 0 97.797627739828499 217.22814971278882 0 0 0 0 83.191283214251598 92.86857954648363 0 92.86857954648363 48.15928939899095 0 0 0 0 190.88986729177896 200.21592332606807 0 200.21592332606807 102.81373611695358 0 0 0 0 18.819834895825807 55.348175442767946 0 55.348175442767946 119.88025163593741 0 0 0 0 118.66540127350891 107.00400018953817 0 107.00400018953817 54.23129381333942 0 0 0 0 92.30651924896938 105.12650592749574 0 105.12650592749574 58.56271357499466 0 0 0 0 19.089890143361117 4.9103288468160144 0 4.9103288468160144 62.004097036159976 0 0 0 0 -3.4995772565061998 6.3139421057326501 0 6.3139421057326501 -0.57039490734342735 0 0 0 0 -1.7524463044506753 4.1251676378102253 0 4.1251676378102253 -1.0986866466999037 0 0 0 0 1.1539151745300842 6.2242401244555623 0 6.2242401244555623 0.271998199195707 0 0 0 0 59.171170200354936 65.693375114745123 0 65.693375114745123 -36.517603080512686 0 0 0 0 54.340170781980305 24.828659050051627 0 24.828659050051627 138.73948873959529 0 0 0 0 -1.7364641937589749 3.4356531215437833 0 3.4356531215437833 0.20831475835221092 0 0 0 0 12.150417891638426 -25.39477775251288 0 -25.39477775251288 52.368774471322126 0 0 0 0 72.946321493414871 27.019546648205477 0 27.019546648205477 -12.468763398918782 0 0 0 0 1.2344954924974445 5.5447903344117151 0 5.5447903344117151 -1.6359085740506885 0 0 0 0 54.835366132108902 52.532342119586446 0 52.532342119586446 0.60405138592480512 0 0 0 0 137.2091632123811 -12.517042672112211 0 -12.517042672112211 -1.4556829767112163 0 0 0 0 -4.2564914235881588 51.601935215253633 0 51.601935215253633 93.713748968500312 0 0 0 0 143.86417931641296 99.200893529578352 0 99.200893529578352 23.632666812484104 0 0 0 0 1.5935124517447719 0.57357929266502161 0 0.57357929266502161 0.17182289513761306 0 0 0 0 118.52435782889006 -65.942846655508504 0 -65.942846655508504 42.994380941106527 0 0 0 0 187.43376129936405 40.610590682163767 0 40.610590682163767 22.765068710739598 0 0 0 0 44.583508812263972 -2.13574429610712 0 -2.13574429610712 11.314127974802034 0 0 0 0 69.775153310925816 6.2082649373582512 0 6.2082649373582512 -40.463150095371923 0 0 0 0 76.677922294178643 -38.072755575108687 0 -38.072755575108687 -25.738763996156422 0 0 0 0 26.051918785444286 -21.385781952687637 0 -21.385781952687637 27.054286039676811 0 0 0 0 25.893270004758506 -19.296791587653097 0 -19.296791587653097 2.048402642405847 0 0 0 0 27.879773718109391 -12.915948016340323 0 -12.915948016340323 -1.5415472559355692 0 0 0 0 4.0828034630507091 1.6519140359352065 0 1.6519140359352065 0.91366157270733939 0 0 0 0 2.1270577833497555 14.348509343953985 0 14.348509343953985 -21.988253620464377 0 0 0 0 4.2225878908325285 4.9541973261399175 0 4.9541973261399175 -1.4533337879058581 0 0 0 0 4.4372070448080194 9.0076671427248698 0 9.0076671427248698 -19.49993296256946 0 0 0 0 -3.6472054420373752 9.9209334938006748 0 9.9209334938006748 -5.7713984585736853 0 0 0 0 8.2594311523891975 8.5357065199519013 0 8.5357065199519013 -3.1223287059557379 0 0 0 0 3.1382442043086485 25.673753311382086 0 25.673753311382086 -17.520724459056169 0 0 0 0 -181.363292764991 -39.410016581810851 0 -39.410016581810851 19.794500220735245 0 0 0 0 63.653745878338668 -118.93070723628966 0 -118.93070723628966 -191.73812244129249 0 0 0 0 139.44381173661714 27.927168244111954 0 27.927168244111954 -67.852455740785672 0 0 0 0 -2.4679335718607032 7.0639547663667983 0 7.0639547663667983 -12.352453022585969 0 0 0 0 -0.30876879708193883 10.815364602015933 0 10.815364602015933 -14.874796267631382 0 0 0 0 6.0796438316992862 11.055643211699419 0 11.055643211699419 -8.083469095205345 0 0 0 0 1.3424988925917205 5.9130908734020835 0 5.9130908734020835 -10.19803801452764 0 0 0 0 -27.213668003673774 73.06504307479679 0 73.06504307479679 59.372652866634326 0 0 0 0 -228.6920608255441 135.14894102769995 0 135.14894102769995 48.119442908334008 0 0 0 0 -3.1874474741927177 5.5587485710212956 0 5.5587485710212956 -9.1787504026731241 0 0 0 0 7.0377694690305361 9.9965620979904202 0 9.9965620979904202 -2.95391468969882 0 0 0 0 1.2429044815826273 7.8375178837288502 0 7.8375178837288502 -0.40091264671116278 0 0 0 0 6.2490046661042697 17.534276292392736 0 17.534276292392736 9.9567560729198021 0 0 0 0 7.8437831631799781 14.732982091948031 0 14.732982091948031 1.4397882161899815 0 0 0 0 14.923599633393678 13.666030868664848 0 13.666030868664848 -4.7472757471734894 0 0 0 0 -2.3028321579221593 3.5762282077150545 0 3.5762282077150545 -5.0160724670231671 0 0 0 0 9.4536077859202123 16.838608707379848 0 16.838608707379848 -0.57710040846507127 0 0 0 0 -1.0542442484438652 15.863773952731975 0 15.863773952731975 27.153483551377349 0 0 0 0 3.9054659100293065 7.5391585047833303 0 7.5391585047833303 2.7363059148226512 0 0 0 0 9.9739235736833507 16.898513854264309 0 16.898513854264309 -3.2076408699322485 0 0 0 0 15.348577813027077 21.978403679190819 0 21.978403679190819 2.2088231754112826 0 0 0 0 17.553394977925564 23.748122135680205 0 23.748122135680205 3.3584464925797306 0 0 0 0 27.218208378131749 46.646543071117662 0 46.646543071117662 27.655590665702633 0 0 0 0 52.260182174499278 44.513037477064067 0 44.513037477064067 -1.6207994628101687 0 0 0 0 54.838825054932386 48.121513483577246 0 48.121513483577246 -0.73210420564058154 0 0 0 0 42.765288499085727 38.041750144507603 0 38.041750144507603 -5.981853476345691 0 0 0 0 57.045546920584457 48.198183425598728 0 48.198183425598728 -8.2265643517466742 0 0 0 0 57.787767020755382 45.485219388469943 0 45.485219388469943 0.24231321114552884 0 0 0 0 52.639107625707766 50.501706948975311 0 50.501706948975311 -0.76254850392251683 0 0 0 0 33.745455203632446 30.799218692217607 0 30.799218692217607 -12.344237960879468 0 0 0 0 51.95072901858839 40.405510357473759 0 40.405510357473759 -25.448084280682338 0 0 0 0 44.02079774171375 34.203464523098788 0 34.203464523098788 -12.782505874106278 0 0 0 0 5.9854124703124398 6.1788167610845903 0 6.1788167610845903 -10.425614307657384 0 0 0 0 2.6972218461496595 14.820052486478261 0 14.820052486478261 0.47074855057223886 0 0 0 0 28.473716190006598 15.245291951417698 0 15.245291951417698 -40.935086417057278 0 0 0 0 7.7999721837813922 57.833701222481267 0 57.833701222481267 -125.93616829685948 0 0 0 0 35.49959680379834 22.507574094636539 0 22.507574094636539 -33.550148239544114 0 0 0 0 38.710175547744257 42.948147454881337 0 42.948147454881337 -8.4824824088927926 0 0 0 0 25.388182348764531 70.379940796217852 0 70.379940796217852 -63.264597395234659 0 0 0 0 -31.3657225178913 50.21801721844713 0 50.21801721844713 3.5388793924298625 0 0 0 0 -11.105398003215669 75.475110454328728 0 75.475110454328728 3.3274881795737254 0 0 0 0 -4.0899605541453639 56.854762450933265 0 56.854762450933265 48.434796595014177 0 0 0 0 61.883707847824553 66.163494174502603 0 66.163494174502603 -12.674816247960734 0 0 0 0 52.062679409500561 81.025583118922782 0 81.025583118922782 39.102053557028512 0 0 0 0 25.216398503660457 39.136940379882958 0 39.136940379882958 34.369663970991866 0 0 0 0 42.739027462215745 56.347477742055389 0 56.347477742055389 36.955577203642207 0 0 0 0 53.51064586569737 63.114534316841969 0 63.114534316841969 13.386201349343764 0 0 0 0 54.992700546084961 52.77636945219308 0 52.77636945219308 5.7412122075263596 0 0 0 0 54.563947325249046 50.97957910604643 0 50.97957910604643 -1.5926754485506081 0 0 0 0 51.508267048575362 54.241264487815329 0 54.241264487815329 4.5130524911992325 0 0 0 0 52.583139493104682 62.124021270305178 0 62.124021270305178 -9.2197272777139005 0 0 0 0 68.555822365877248 -12.729187810600592 0 -12.729187810600592 -64.116993693137488 0 0 0 0 -29.139203622544301 -8.0458760490644181 0 -8.0458760490644181 28.443508985100834 0 0 0 0 -0.5757324369806156 17.114050958413941 0 17.114050958413941 -12.518438825271687 0 0 0 0 68.98280132629219 -49.007785005328344 0 -49.007785005328344 -4.0723665467650108 0 0 0 0 1.8520490058767791 4.3225173816433369 0 4.3225173816433369 2.0974739692982194 0 0 0 0 3.4597007094047911 12.628602696490912 0 12.628602696490912 -8.981412433627785 0 0 0 0 -9.5265915523323201 9.9314608411657446 0 9.9314608411657446 -4.5428847125451739 0 0 0 0 2.6165714414483965 2.0861145166693014 0 2.0861145166693014 1.8996170060106552 0 0 0 0 13.961503187856579 -66.143943467169834 0 -66.143943467169834 28.657804828758373 0 0 0 0 -12.836607044166158 23.369167670174534 0 23.369167670174534 -13.795002428081716 0 0 0 0 -45.320569942461589 11.046691859489442 0 11.046691859489442 38.04608512093796 0 0 0 0 -43.701829447616547 9.3120112059793314 0 9.3120112059793314 28.14183772711408 0 0 0 0 -61.945842236755198 20.429722621733276 0 20.429722621733276 41.007780843520777 0 0 0 0 -190.85504129746005 14.742297720175372 0 14.742297720175372 28.068998665454522 0 0 0 0 -95.076010191856767 123.21218295414354 0 123.21218295414354 -69.248861082346366 0 0 0 0 -68.517916781064741 -70.631963516133936 0 -70.631963516133936 -71.019035038362404 0 0 0 0 -66.675764509662258 77.743459677845749 0 77.743459677845749 -165.33595315490902 0 0 0 0 -1.1193818086948237 1.3359785996663618 0 1.3359785996663618 -1.44424641932667 0 0 0 0 -296.69300639285575 1.3132535142821418 0 1.3132535142821418 -11.302091127749918 0 0 0 0 12.121390422631521 -15.946700099495558 0 -15.946700099495558 -60.019062657619259 0 0 0 0 -49.399085505523544 -4.8934078799008489 0 -4.8934078799008489 -39.314578786973982 0 0 0 0 45.737336392934594 41.950584763250376 0 41.950584763250376 -46.493464197587514 0 0 0 0 31.247166730838217 16.743634050928108 0 16.743634050928108 -76.345403330062055 0 0 0 0 -22.936432641080501 -4.3088579156875113 0 -4.3088579156875113 -41.491117653001993 0 0 0 0 44.083140670771172 6.4402969857521271 0 6.4402969857521271 -46.322229003715563 0 0 0 0 5.2292214756689646 29.217068846593861 0 29.217068846593861 -36.605381879252263 0 0 0 0 47.689683086211517 33.4212415210839 0 33.4212415210839 -28.920095525465399 0 0 0 0 4.4146623233901785 0.8742095253648543 0 0.8742095253648543 -0.16033943607056134 0 0 0 0 41.952404240499163 18.230789090313635 0 18.230789090313635 4.3135711622133712 0 0 0 0 49.00482001252567 34.295031464234469 0 34.295031464234469 -28.566878198128677 0 0 0 0 26.099812548032787 25.011252470142153 0 25.011252470142153 -16.876173129002268 0 0 0 0 -0.4838445008645067 82.757754032691366 0 82.757754032691366 78.191617656437188 0 0 0 0 46.185858628821734 34.434354998207937 0 34.434354998207937 -14.938023245440746 0 0 0 0 31.423177758402744 16.853401300504174 0 16.853401300504174 23.477744640954484 0 0 0 0 -4.4478241026845353 6.3839738930491876 0 6.3839738930491876 -3.2866900545718636 0 0 0 0 -6.4187104711345455 7.5070595475947357 0 7.5070595475947357 -2.7391882129692249 0 0 0 0 -9.343518721757988 5.2929959833178266 0 5.2929959833178266 -3.2863406106160524 0 0 0 0 -147.87531578638209 -26.729748646301772 0 -26.729748646301772 42.325593524965825 0 0 0 0 -97.809781985456539 68.48076410352337 0 68.48076410352337 5.5999218598240645 0 0 0 0 -27.46843403085586 95.794480735394245 0 95.794480735394245 97.496003059938744 0 0 0 0 -6.3204647229779027 3.6994662433741499 0 3.6994662433741499 -1.9660510636495259 0 0 0 0 -33.007548925359515 -34.896407475249589 0 -34.896407475249589 63.62078234945966 0 0 0 0 -86.541720398156031 16.541844382790487 0 16.541844382790487 18.172101971030429 0 0 0 0 -2.7365473992583418 1.0733097542890198 0 1.0733097542890198 -0.40328258594071009 0 0 0 0 -120.69891888573602 -3.2705785152134013 0 -3.2705785152134013 75.701372927371267 0 0 0 0 -6.3337686014638166 18.234306600027139 0 18.234306600027139 -173.82447820341895 0 0 0 0 -8.3677992106131569 9.9162937554465316 0 9.9162937554465316 -21.381220025265975 0 0 0 0 -3.5505133180226949 -3.9036211555833233 0 -3.9036211555833233 -29.996610069521466 0 0 0 0 -3.2488821489077964 25.828776955917647 0 25.828776955917647 -64.68423380044942 0 0 0 0 -121.0487967081317 126.2585437945815 0 126.2585437945815 -102.3314395533871 0 0 0 0 -2.3378225467404263 17.68018075416785 0 17.68018075416785 -14.349504264604036 0 0 0 0 -5.3968810616815972 3.4899473001241859 0 3.4899473001241859 -16.84021003136013 0 0 0 0 -4.3398636570454983 17.074036139568648 0 17.074036139568648 -11.710174786702282 0 0 0 0 -1.0032650513512635 1.5388347868884011 0 1.5388347868884011 16.211405215723516 0 0 0 0 -8.1396991085425725 14.335523701394777 0 14.335523701394777 -6.5229691270910735 0 0 0 0 -3.0074290714801464 5.3895081177224711 0 5.3895081177224711 -4.0871799995334186 0 0 0 0 5.8085202402708092 10.445494719297358 0 10.445494719297358 -12.96404689807482 0 0 0 0 12.588111881303121 4.5402354823070254 0 4.5402354823070254 -12.795214239634497 0 0 0 0 22.086657778678273 -15.359679372786218 0 -15.359679372786218 28.836027249158178 0 0 0 0 55.502855215351701 4.4109862173008878 0 4.4109862173008878 -28.74847415585964 0 0 0 0 6.6193337685681399 100.4146513056458 0 100.4146513056458 -8.3620732289750777 0 0 0 0 13.268698646996054 12.543830073161187 0 12.543830073161187 10.380735814636669 0 0 0 0 0.71429726033056795 41.261439731491009 0 41.261439731491009 -33.833547054911691 0 0 0 0 13.041070619465227 11.438503486356053 0 11.438503486356053 9.3397183247140685 0 0 0 0 -22.269058309213506 6.4860199709202249 0 6.4860199709202249 3.1989979607248529 0 0 0 0 -53.51259899470756 43.146032420541218 0 43.146032420541218 6.5579221269878474 0 0 0 0 -49.442138279443498 43.36104359176818 0 43.36104359176818 6.9211867672466596 0 0 0 0 -61.22754270829455 26.327456087416181 0 26.327456087416181 -15.17647181913685 0 0 0 0 2.1191995285835219 32.927371903575221 0 32.927371903575221 -17.591400667017353 0 0 0 0 9.6246316597883155 12.467178878000357 0 12.467178878000357 7.0693405351413867 0 0 0 0 0.70333742011825962 17.588642318245093 0 17.588642318245093 -9.1397916332109617 0 0 0 0 3.8531801512081074 -10.440306073936625 0 -10.440306073936625 14.595205193010656 0 0 0 0 23.160535167417038 58.987804755015787 0 58.987804755015787 21.076667672566714 0 0 0 0 1.1635934164023638 15.541643839222388 0 15.541643839222388 -0.69586536493739004 0 0 0 0 -9.1115156529900858 9.1703160471791492 0 9.1703160471791492 -3.0476700722367349 0 0 0 0 42.103994941964629 55.206730197596109 0 55.206730197596109 -6.7527030123321765 0 0 0 0 6.2317218581310954 8.6646249438886116 0 8.6646249438886116 -5.4712725678646166 0 0 0 0 -4.1670784413875026 10.206082995123815 0 10.206082995123815 -4.4809395178785962 0 0 0 0 11.531197974716179 15.77688306887319 0 15.77688306887319 -8.9425210505887662 0 0 0 0 -66.56044988529402 30.410223566285254 0 30.410223566285254 30.699031549379583 0 0 0 0 0.54788839738773376 3.8781545009914105 0 3.8781545009914105 3.1560906390426369 0 0 0 0 -48.330044413131873 -3.9971544129415122 0 -3.9971544129415122 12.283171742993723 0 0 0 0 1.0057274404753116 51.597562290663731 0 51.597562290663731 -51.697078550666419 0 0 0 0 -40.505174526198289 55.03458095906943 0 55.03458095906943 -11.886190390968778 0 0 0 0 -23.612281499981577 3.1358721108635148 0 3.1358721108635148 -8.6704810252258397 0 0 0 0 35.800131220277763 -28.153401577389545 0 -28.153401577389545 5.042396350249966 0 0 0 0 12.696683509218929 90.808546279039106 0 90.808546279039106 28.771111779716563 0 0 0 0 0.51781120841476724 0.75935765687481016 0 0.75935765687481016 1.0289876294712132 0 0 0 0 -85.575775736871947 36.875607668848289 0 36.875607668848289 34.653516812252093 0 0 0 0 100.79428790905695 24.422530612807343 0 24.422530612807343 -42.358853500344452 0 0 0 0 67.86952362006059 96.332590277994996 0 96.332590277994996 -43.620987766412043 0 0 0 0 -73.220233088241912 68.036823271339074 0 68.036823271339074 53.357682678859376 0 0 0 0 -69.442167133073781 53.701679635767199 0 53.701679635767199 7.9967331299056639 0 0 0 0 -64.934753053343229 24.111067853319582 0 24.111067853319582 -24.724754036848537 0 0 0 0 20.141357878599592 8.7692636970692774 0 8.7692636970692774 -8.2929821659707272 0 0 0 0 31.538771372930569 15.665133443216433 0 15.665133443216433 -5.0258777934351428 0 0 0 0 -85.981760144648433 61.211098339150141 0 61.211098339150141 -7.0031112894754699 0 0 0 0 1.3660968032646865 2.1629038143064907 0 2.1629038143064907 2.8071200943377246 0 0 0 0 33.434323625980824 13.911555235224967 0 13.911555235224967 -12.931865473886205 0 0 0 0 27.244965398374916 20.520658133754182 0 20.520658133754182 -2.9706750431930971 0 0 0 0 54.267627813910622 28.355424779159193 0 28.355424779159193 -5.8890144775888302 0 0 0 0 143.14578007929595 -12.305412847786798 0 -12.305412847786798 -6.837788788198452 0 0 0 0 20.913965565544459 37.365687564520954 0 37.365687564520954 2.9416292935225101 0 0 0 0 108.73417277186559 76.332718097418649 0 76.332718097418649 -4.7020547087727778 0 0 0 0 39.434448404914292 40.827601102702602 0 40.827601102702602 -3.1564581255294115 0 0 0 0 28.090650868201919 21.266063882273983 0 21.266063882273983 -15.512955081650375 0 0 0 0 50.720222829440786 41.850213296913857 0 41.850213296913857 -5.5402836410881946 0 0 0 0 -53.361671329861338 1.3223994702288167 0 1.3223994702288167 19.066794109338957 0 0 0 0 1.8372037172366618 31.036311149673622 0 31.036311149673622 12.361989359345131 0 0 0 0 16.079375476128803 53.754986632358325 0 53.754986632358325 30.548941738593783 0 0 0 0 -21.147579053866139 17.878092908262346 0 17.878092908262346 7.5503409010225013 0 0 0 0 4.0609831213346075 15.07478435346488 0 15.07478435346488 13.975488280716526 0 0 0 0 -8.8266399879189521 82.903511997632222 0 82.903511997632222 89.764762529091968 0 0 0 0 114.49254581335413 -2.8532676603038567 0 -2.8532676603038567 -26.602688303370314 0 0 0 0 50.355493456734621 -19.47711199478249 0 -19.47711199478249 -18.008220384355923 0 0 0 0 79.977965188626513 47.774481118463768 0 47.774481118463768 -3.2423818311888226 0 0 0 0 24.513006784645313 51.651919403566808 0 51.651919403566808 50.252388215523297 0 0 0 0 4.1844230562273879 18.656754311814865 0 18.656754311814865 8.1754296337956021 0 0 0 0 37.037526863814946 34.712179547677465 0 34.712179547677465 14.660475144690736 0 0 0 0 0.46036595377724776 0.84744543188598875 0 0.84744543188598875 0.75349427305518146 0 0 0 0 -67.164018308028062 27.40853023403514 0 27.40853023403514 44.170431071862936 0 0 0 0 37.617603687996052 -6.1032096334990911 0 -6.1032096334990911 10.338950913897541 0 0 0 0 35.929560299874538 21.846880273501029 0 21.846880273501029 15.734166077025179 0 0 0 0 21.188756338890926 5.0799073975077818 0 5.0799073975077818 10.337677128281729 0 0 0 0 30.838087164041099 13.922913772565011 0 13.922913772565011 -3.8469165555368363 0 0 0 0 14.018280720842085 15.413017717794901 0 15.413017717794901 -0.46126242963549657 0 0 0 0 29.203303263380349 18.638198848075319 0 18.638198848075319 -6.508278769720846 0 0 0 0 5.5090803011303251 5.6562435136762019 0 5.6562435136762019 -2.021829784505826 0 0 0 0 -26.664301361736761 22.540679104063315 0 22.540679104063315 2.7053587907468 0 0 0 0 -8.2867954858202211 24.782689451355793 0 24.782689451355793 -8.533953576985823 0 0 0 0 1.9310676356488807 2.9737131361786817 0 2.9737131361786817 3.7877431484236346 0 0 0 0 6.5739947333725013 14.952892955274052 0 14.952892955274052 -4.2780299480900794 0 0 0 0 2.2663361903942132 8.7363781201008806 0 8.7363781201008806 10.973217551230391 0 0 0 0 4.6993697264008176 -10.921705297647176 0 -10.921705297647176 44.956998016157968 0 0 0 0 5.7063517170971068 -0.1225326669937985 0 -0.1225326669937985 3.6069634597770346 0 0 0 0 0.53886552108064656 0.24131843551171883 0 0.24131843551171883 0.062991950781188244 0 0 0 0 2.0191176534885926 9.4403233067965289 0 9.4403233067965289 -9.2984422682559398 0 0 0 0 12.372020983670154 -0.45231971972418705 0 -0.45231971972418705 -5.758615561911256 0 0 0 0 -10.046726632767331 5.4774043608196052 0 5.4774043608196052 -7.5548929935532669 0 0 0 0 33.684256937667669 -12.297704328314012 0 -12.297704328314012 -2.1133637073237708 0 0 0 0 10.191276836784937 36.62660442021371 0 36.62660442021371 -16.300435653367686 0 0 0 0 -22.569340517449746 -23.682246049193282 0 -23.682246049193282 36.669937566055637 0 0 0 0 25.430783819653698 24.837073156145607 0 24.837073156145607 10.944345141712802 0 0 0 0 -45.133923945422339 37.067490261758508 0 37.067490261758508 1.0979398282216835 0 0 0 0 0.82083973031965751 1.7902806119053691 0 1.7902806119053691 2.2321750517150116 0 0 0 0 3.9822823541592944 14.321119039493531 0 14.321119039493531 10.655686207319281 0 0 0 0 50.401708494454851 14.043142443212957 0 14.043142443212957 -4.0169766618455469 0 0 0 0 -68.507077078761995 86.460132435239785 0 86.460132435239785 -36.92030902675242 0 0 0 0 8.2835477866110523 27.054893863625722 0 27.054893863625722 -52.060196081700042 0 0 0 0 -0.48780929281201679 38.803468538778191 0 38.803468538778191 -29.198891377563427 0 0 0 0 -8.8882749859844807 20.095411120706345 0 20.095411120706345 12.727637989975165 0 0 0 0 30.976766258851626 3.0456505319110092 0 3.0456505319110092 -11.960430606445129 0 0 0 0 6.5296995158096252 13.882239927034789 0 13.882239927034789 27.322997847722277 0 0 0 0 16.499236739044399 12.696835558630644 0 12.696835558630644 -3.6195821407541273 0 0 0 0 52.862220108041583 -25.223428821531229 0 -25.223428821531229 17.049111505434453 0 0 0 0 36.0833643010792 24.280414344384326 0 24.280414344384326 -5.6251927705905018 0 0 0 0 21.081882077689102 12.024094888485308 0 12.024094888485308 -2.1877330247954285 0 0 0 0 24.927043465209863 20.71743853152617 0 20.71743853152617 -30.458755641358891 0 0 0 0 31.875358252559181 50.571942585961075 0 50.571942585961075 -0.65498747455580997 0 0 0 0 21.009100272460273 30.259554614419834 0 30.259554614419834 15.603384285729476 0 0 0 0 66.406920274085905 2.2450563207592467 0 2.2450563207592467 -9.8543078507373139 0 0 0 0 -1.5032582168696536 34.097942578507002 0 34.097942578507002 10.044742426175844 0 0 0 0 2.7220192144441171 35.249862318801647 0 35.249862318801647 -15.725412131620487 0 0 0 0 20.216492673069297 -16.861279021785435 0 -16.861279021785435 28.331483566093425 0 0 0 0 57.119986071433232 -31.630548039561631 0 -31.630548039561631 -0.2560875079127527 0 0 0 0 -53.354691121085125 44.568700363919959 0 44.568700363919959 0.18637503369359365 0 0 0 0 -54.274933575444265 56.94577968785984 0 56.94577968785984 -19.753332050529366 0 0 0 0 -43.788196079359295 7.4145375939867222 0 7.4145375939867222 -5.8952466054923889 0 0 0 0 -79.966147235309109 62.572505314267801 0 62.572505314267801 -24.815988621625763 0 0 0 0 -48.774759947916209 46.757091836379487 0 46.757091836379487 -29.155456645450158 0 0 0 0 -58.728808460427899 54.517356609382546 0 54.517356609382546 -24.005537053347496 0 0 0 0 2.2084359568014458 3.3688754280263549 0 3.3688754280263549 4.3307079716407504 0 0 0 0 -20.511440188031884 1.1198995450571374 0 1.1198995450571374 20.401449921118115 0 0 0 0 -27.75247735428502 22.77709032319018 0 22.77709032319018 1.1859585031136248 0 0 0 0 -21.791911489812264 32.876128385765298 0 32.876128385765298 -21.962196138827267 0 0 0 0 2.2002021728545174 3.5803370667683785 0 3.5803370667683785 5.1010737156927686 0 0 0 0 -146.31056019478729 64.965046325507728 0 64.965046325507728 9.149868919278731 0 0 0 0 50.925101495402259 -4.6597645144499893 0 -4.6597645144499893 -23.387868729347588 0 0 0 0 -23.955129805590332 58.568435868506924 0 58.568435868506924 -30.770479547745708 0 0 0 0 -0.088761578774805727 0.038994065635256092 0 0.038994065635256092 -0.4927760725354815 0 0 0 0 19.902230205178967 24.502454914895566 0 24.502454914895566 -7.2841305361802995 0 0 0 0 -41.909244646072693 20.063101456181812 0 20.063101456181812 7.9134547721703257 0 0 0 0 2.8892991717589904 3.9903716045195026 0 3.9903716045195026 5.0474521250193334 0 0 0 0 -28.791880260379912 11.240681445408882 0 11.240681445408882 9.0283034321176956 0 0 0 0 -5.6718822928633017 5.43923732589883 0 5.43923732589883 2.7268717149246413 0 0 0 0 -9.1972587667087282 1.4925965932492318 0 1.4925965932492318 17.109928429864112 0 0 0 0 -0.47148377665325825 -9.9221503249270881 0 -9.9221503249270881 16.552479028206122 0 0 0 0 1.2829306341399871 0.80359974951141755 0 0.80359974951141755 0.61504679337602619 0 0 0 0 2.9437224663270172 1.6902133222120881 0 1.6902133222120881 4.6965515953411341 0 0 0 0 -10.488602867608279 0.65792508416052442 0 0.65792508416052442 10.567057397297958 0 0 0 0 -13.171009496584929 9.8795508933610705 0 9.8795508933610705 7.3333226642389491 0 0 0 0 -13.821510497338295 26.945202782054906 0 26.945202782054906 -42.160373382678699 0 0 0 0 0.96991259075854686 0.98271366624809708 0 0.98271366624809708 -1.5051617830941428 0 0 0 0 2.0966006033496098 4.1539202345913973 0 4.1539202345913973 5.4432522096233917 0 0 0 0 -5.3005755631538705 4.9924506742961512 0 4.9924506742961512 6.491326431469588 0 0 0 0 -3.7960937366242433 5.4637432942699888 0 5.4637432942699888 3.5057356193030955 0 0 0 0 -0.50771601276525224 2.3303750795059326 0 2.3303750795059326 1.3783864083520403 0 0 0 0 1.0013539697538363 -4.2338231232969861 0 -4.2338231232969861 12.745779613626922 0 0 0 0 -64.711620569616116 -16.187214667365048 0 -16.187214667365048 3.9753105548119265 0 0 0 0 -0.5918629734640195 1.0774820950297608 0 1.0774820950297608 0.13217899305227382 0 0 0 0 -6.0769981236981039 22.959252535024554 0 22.959252535024554 -54.319961134146766 0 0 0 0 -30.083847664909626 31.89969333410636 0 31.89969333410636 -12.83816403648791 0 0 0 0 -31.773893459661849 51.363605115997302 0 51.363605115997302 -25.382053835678448 0 0 0 0 -33.276688929343436 64.164912895911726 0 64.164912895911726 -46.025451723619852 0 0 0 0 -24.242227062420625 57.161037041896861 0 57.161037041896861 -21.216812258308664 0 0 0 0 -50.96978145430694 65.415149990052839 0 65.415149990052839 -10.469182990941562 0 0 0 0 -72.253894875327205 30.553533931829975 0 30.553533931829975 -12.774920748052637 0 0 0 0 96.893053871329357 12.438976231542132 0 12.438976231542132 -57.884375482651535 0 0 0 0 15.240201260158756 35.89693242488093 0 35.89693242488093 -18.208246234040928 0 0 0 0 -29.892259469115515 30.677648782004731 0 30.677648782004731 1.4759950393886356 0 0 0 0 -59.006547952863912 54.575616427973813 0 54.575616427973813 -13.40193659392375 0 0 0 0 9.9690357020945157 -65.79896036709539 0 -65.79896036709539 -82.257516826734843 0 0 0 0 -82.754537871899629 20.954519235229498 0 20.954519235229498 21.94865589769006 0 0 0 0 -43.193622500754827 92.369277785380788 0 92.369277785380788 30.145611608513363 0 0 0 0 10.641465645925109 18.891641372075071 0 18.891641372075071 5.7295389891128252 0 0 0 0 -1.5968526285743199 12.684528495605974 0 12.684528495605974 -7.5842232896110815 0 0 0 0 48.756336766521599 53.59957462137902 0 53.59957462137902 -14.32631500606044 0 0 0 0 -13.389601019573092 42.081476965045312 0 42.081476965045312 23.101024329107076 0 0 0 0 -9.2685273727443018 17.814590095986432 0 17.814590095986432 -3.8512292774917114 0 0 0 0 -11.603599229237261 12.879143934535819 0 12.879143934535819 6.4539351478931621 0 0 0 0 -6.5810744138489099 14.862904225287139 0 14.862904225287139 5.8694727950984316 0 0 0 0 0.98591888329162591 13.366357860410121 0 13.366357860410121 -5.0262048580178238 0 0 0 0 1.071636526675092 1.8369746080415528 0 1.8369746080415528 -0.42583684825522639 0 0 0 0 15.499182008974458 17.774146969539743 0 17.774146969539743 -7.3833803488519152 0 0 0 0 4.2637627546204637 5.9240432185828951 0 5.9240432185828951 6.7453538129084443 0 0 0 0 -8.0256673743415377 21.041135940309033 0 21.041135940309033 2.4901110887005871 0 0 0 0 -0.2176467082608724 13.270409568477362 0 13.270409568477362 -0.041946976913862954 0 0 0 0 -12.059454648800966 9.9844833402077029 0 9.9844833402077029 19.087892417296644 0 0 0 0 -1.03504818493046 0.26920711329222868 0 0.26920711329222868 0.11055645941627312 0 0 0 0 -31.316627178104682 12.481855795970887 0 12.481855795970887 18.458271737973369 0 0 0 0 -10.153960766454475 12.876073549381488 0 12.876073549381488 18.465389809854855 0 0 0 0 -2.8485097907705494 6.010928890213421 0 6.010928890213421 -5.6998374280069584 0 0 0 0 -3.9945709310668462 -1.8973356776071455 0 -1.8973356776071455 2.9352294994032491 0 0 0 0 0.50081110826310749 4.4448641985535406 0 4.4448641985535406 3.6033789905153153 0 0 0 0 -1.7588157307482106 4.4241855195271 0 4.4241855195271 1.8398090122102531 0 0 0 0 -0.65488481122338271 2.3982949673331859 0 2.3982949673331859 0.60017610980730751 0 0 0 0 0.95966854542340418 3.5444781078771861 0 3.5444781078771861 2.0409171019023984 0 0 0 0 -4.2845206101048916 5.1152489722220196 0 5.1152489722220196 4.4588458167791032 0 0 0 0 -3.0193143575443173 2.6356244587309448 0 2.6356244587309448 5.4466552911421218 0 0 0 0 1.052961553434276 2.3326309675777237 0 2.3326309675777237 0.4916716365271081 0 0 0 0 3.0854161262532216 5.9826623745661891 0 5.9826623745661891 -1.8261537357175257 0 0 0 0 -0.58943859927921949 4.6194828715251219 0 4.6194828715251219 0.72079371200379683 0 0 0 0 0.83490821152332773 5.567632244227239 0 5.567632244227239 3.9434356458176518 0 0 0 0 -0.67611869244370126 4.8760850417055366 0 4.8760850417055366 3.0275277831725456 0 0 0 0 0.16809460458975423 5.3645008539909789 0 5.3645008539909789 2.3458258378470571 0 0 0 0 2.9537937313602072 4.8095051150455035 0 4.8095051150455035 -4.7908888644808485 0 0 0 0 4.0408842396440097 7.3069546352346659 0 7.3069546352346659 -4.9396922607343186 0 0 0 0 -15.161279175138134 14.054662586216409 0 14.054662586216409 6.9966105424809939 0 0 0 0 0.38838818902058847 6.6773224980679515 0 6.6773224980679515 -0.922413804536518 0 0 0 0 -0.21747040861191635 14.547936847232904 0 14.547936847232904 3.4174971786596871 0 0 0 0 -2.4032330647576892 4.6277117655732516 0 4.6277117655732516 -3.5849181750170569 0 0 0 0 4.0376458523533074 8.3809074255400446 0 8.3809074255400446 -2.0606467206499985 0 0 0 0 1.0216635086171664 9.2496708610765381 0 9.2496708610765381 4.0576656689972879 0 0 0 0 -3.0115083871110073 18.4176526314792 0 18.4176526314792 2.3184455239588715 0 0 0 0 1.6476725911288668 12.282425498996645 0 12.282425498996645 10.711286906480836 0 0 0 0 3.5767797302601139 12.42280002423422 0 12.42280002423422 4.1421546928058888 0 0 0 0 7.6024481415479386 11.923755345738982 0 11.923755345738982 3.3222875201795432 0 0 0 0 7.5849384725630671 11.903466685214028 0 11.903466685214028 4.9510801643191371 0 0 0 0 -2.1283831605780055 2.9057006340973661 0 2.9057006340973661 -3.9907258550034062 0 0 0 0 11.03817632112623 14.641810450164257 0 14.641810450164257 6.5651037627053483 0 0 0 0 3.693002865049607 12.77678745586951 0 12.77678745586951 18.033608843122238 0 0 0 0 3.5141615255629404 11.590555184889354 0 11.590555184889354 10.521054439050317 0 0 0 0 2.5944102036919503 9.5491956102637232 0 9.5491956102637232 7.5201889594056865 0 0 0 0 -0.19339953853402214 5.5691841684558492 0 5.5691841684558492 -1.7825898286710551 0 0 0 0 -1.3190696165929694 14.155114216113816 0 14.155114216113816 8.3125388289040529 0 0 0 0 -6.8431501270472523 5.2223142942666883 0 5.2223142942666883 9.6353929696230409 0 0 0 0 2.9461911537426069 8.5429577869004234 0 8.5429577869004234 -0.20598135727410494 0 0 0 0 -1.1281711840269963 11.920780905835699 0 11.920780905835699 5.1036657709946667 0 0 0 0 -6.0894005213522178 18.372424682664587 0 18.372424682664587 2.8700144285089664 0 0 0 0 -0.29781705939907255 6.5897480913450748 0 6.5897480913450748 5.7321372343967614 0 0 0 0 -5.2414223784335263 9.3146952162924208 0 9.3146952162924208 5.0707390978764124 0 0 0 0 3.0432770524630541 13.084173540890333 0 13.084173540890333 5.2997073114347586 0 0 0 0 3.9526776049006767 13.412126046076759 0 13.412126046076759 6.8929044665025216 0 0 0 0 58.00375519082661 -2.9444405135826059 0 -2.9444405135826059 -11.43261439373282 0 0 0 0 -35.12410247025673 9.6529932711791844 0 9.6529932711791844 5.5784140345606374 0 0 0 0 -11.441252425911671 20.895064475161007 0 20.895064475161007 10.409012660338249 0 0 0 0 -13.672843490498963 13.471400134590567 0 13.471400134590567 -4.9833564335880283 0 0 0 0 0.97155731029515957 2.0599205464870245 0 2.0599205464870245 3.1789975932841248 0 0 0 0 1.3540478950262695 7.6576513893476204 0 7.6576513893476204 -10.456373385575148 0 0 0 0 0.38048701765819715 6.3635715255823015 0 6.3635715255823015 -5.6527407415766611 0 0 0 0 -1.107739727884109 4.6656370097169031 0 4.6656370097169031 -0.71572235269013618 0 0 0 0 -1.8988494391242057 8.9942369614211657 0 8.9942369614211657 0.16738338814343479 0 0 0 0 0.37037846325665669 5.9967357699401873 0 5.9967357699401873 -1.2372361041948352 0 0 0 0 4.8293441972218716 10.566125149063282 0 10.566125149063282 -0.082190667361913938 0 0 0 0 8.5532490501941538 8.0491908566764323 0 8.0491908566764323 11.556942415666981 0 0 0 0 -1.1007032139090231 2.4867661838257717 0 2.4867661838257717 -2.496322208333666 0 0 0 0 58.313955477340642 -8.7550713889381768 0 -8.7550713889381768 -38.797049745061486 0 0 0 0 -45.415754086034212 56.17611108143501 0 56.17611108143501 40.317518739672096 0 0 0 0 -3.9054043747460128 8.9062275559501813 0 8.9062275559501813 2.6515464875592443 0 0 0 0 0.49786927898658284 2.3743437952168538 0 2.3743437952168538 3.2162859798486068 0 0 0 0 44.270944733475972 -5.1254786012266322 0 -5.1254786012266322 -5.3217896850464967 0 0 0 0 -5.2225320754512268 -27.117633888383807 0 -27.117633888383807 11.679349569289116 0 0 0 0 32.751415604129761 -16.512724562690892 0 -16.512724562690892 -16.237942793355614 0 0 0 0 10.069042372990225 -7.4215088166231453 0 -7.4215088166231453 35.346104708167331 0 0 0 0 -0.51151725371008894 3.3444867183588003 0 3.3444867183588003 1.1982623288062326 0 0 0 0 -1.8877913416586125 24.071948676087459 0 24.071948676087459 28.116677840510874 0 0 0 0 -1.2692091708677253 15.199276294702486 0 15.199276294702486 9.4007562563410829 0 0 0 0 0.73029140403715598 5.1902697389970491 0 5.1902697389970491 6.5311266087508315 0 0 0 0 -10.468092071511393 11.783039588481643 0 11.783039588481643 8.8764596225385048 0 0 0 0 -10.626971216556884 5.4743115073358588 0 5.4743115073358588 5.2958825486589074 0 0 0 0 0.64040707608253822 7.5676489786216825 0 7.5676489786216825 6.1672887876786096 0 0 0 0 -14.961883949531511 18.321954257854941 0 18.321954257854941 5.7662136742644634 0 0 0 0 2.9194523143260165 12.895891108502365 0 12.895891108502365 3.4329596844007213 0 0 0 0 -30.363359853337442 12.837173888376697 0 12.837173888376697 11.396949120373392 0 0 0 0 -2.1940747977985211 12.325414859401917 0 12.325414859401917 2.2240923027002282 0 0 0 0 -0.69517517845880406 3.7937264932591148 0 3.7937264932591148 4.6980050503050794 0 0 0 0 0.023745464271996752 11.695530379747652 0 11.695530379747652 2.220744577352729 0 0 0 0 -10.567364382489217 15.0595328934387 0 15.0595328934387 5.8039018266990752 0 0 0 0 2.1925310287648281 4.0051764385893849 0 4.0051764385893849 4.2656525399185021 0 0 0 0 -8.4899435500251457 6.8704571223042876 0 6.8704571223042876 5.8083299999670999 0 0 0 0 -2.2009175480259273 4.6097533584697885 0 4.6097533584697885 -0.11529382875050942 0 0 0 0 -39.975106627944115 5.3839920623045145 0 5.3839920623045145 55.83572113048649 0 0 0 0 22.557527445783307 3.2720904544389668 0 3.2720904544389668 -99.397167708571033 0 0 0 0 38.857109602439778 83.646501466907694 0 83.646501466907694 -49.592219240407758 0 0 0 0 -9.013236249172536 9.4164313173826031 0 9.4164313173826031 1.644423026489676 0 0 0 0 2.5195095593210852 7.1905187156951529 0 7.1905187156951529 4.6139100585874147 0 0 0 0 -34.012477129710987 57.83694389223956 0 57.83694389223956 67.613183817707977 0 0 0 0 42.387226221597302 1.8148979228099051 0 1.8148979228099051 105.87858282178786 0 0 0 0 -7.5958840731379924 5.5979945839781609 0 5.5979945839781609 8.1337988549817339 0 0 0 0 -3.9924764369582704 8.9535852722292475 0 8.9535852722292475 -0.9236285024380777 0 0 0 0 -7.2480385097298949 11.006836477065008 0 11.006836477065008 2.37700237001809 0 0 0 0 -1.0105378066309281 6.1963629178964528 0 6.1963629178964528 3.8932129655070362 0 0 0 0 -2.9299376471013208 1.7059089101460829 0 1.7059089101460829 2.9195413150775282 0 0 0 0 0.49088718233855455 12.674673902196147 0 12.674673902196147 5.8014557190057996 0 0 0 0 -5.0334271259744128 36.2785347178542 0 36.2785347178542 49.855363984755968 0 0 0 0 14.225338169174393 18.83796916551546 0 18.83796916551546 61.664575144551236 0 0 0 0 6.3842460098272191 6.3158607885014915 0 6.3158607885014915 -1.5682685895842408 0 0 0 0 -23.280851847298436 67.720203936471989 0 67.720203936471989 40.0007356349779 0 0 0 0 -38.424926079912325 8.4960420239810617 0 8.4960420239810617 42.474622668935808 0 0 0 0 -13.603393221309489 -1.8245893113798957 0 -1.8245893113798957 -22.689492337291085 0 0 0 0 -3.3654667611444467 5.2020821630044782 0 5.2020821630044782 -1.9246350777988068 0 0 0 0 91.8395700020601 27.075994850425559 0 27.075994850425559 7.9260618911987422 0 0 0 0 -0.26849717011011931 2.5622300895352401 0 2.5622300895352401 0.77104152912392898 0 0 0 0 -22.396700133497689 -49.960233413334208 0 -49.960233413334208 -17.4083998519543 0 0 0 0 -18.709553342118852 12.156223441282805 0 12.156223441282805 42.376980416099286 0 0 0 0 10.28037736909755 -13.795343188313382 0 -13.795343188313382 30.578340494661461 0 0 0 0 -0.51520267360059258 1.0267508159522585 0 1.0267508159522585 -0.29424808289371285 0 0 0 0 92.776092685561707 35.221842306702001 0 35.221842306702001 -20.328807307727402 0 0 0 0 41.37100987352278 12.593872173483533 0 12.593872173483533 11.761971526368143 0 0 0 0 -24.167435065951622 33.869343689465495 0 33.869343689465495 25.978435843273473 0 0 0 0 -0.24732406311020849 0.6433573689589771 0 0.6433573689589771 0.61380070025077416 0 0 0 0 42.790327270728994 147.26974195354796 0 147.26974195354796 -10.099116777084419 0 0 0 0 -16.726097949259277 37.339072767070526 0 37.339072767070526 29.183408890963619 0 0 0 0 97.641704586785636 -19.875535679122549 0 -19.875535679122549 42.224832960193453 0 0 0 0 -17.244243289019714 -7.6085356916945237 0 -7.6085356916945237 1.2267243343776499 0 0 0 0 18.816676373296787 39.531243530501342 0 39.531243530501342 53.495417449717934 0 0 0 0 33.464246357903448 30.156687884159965 0 30.156687884159965 7.7198253401902548 0 0 0 0 5.5787199243864052 26.869884511576856 0 26.869884511576856 74.70574644035878 0 0 0 0 8.1771142845072973 -15.238926626062948 0 -15.238926626062948 -12.258732309978768 0 0 0 0 -20.050325816091572 42.524000951449125 0 42.524000951449125 76.974923281701194 0 0 0 0 -1.6291723135015757 7.6510322703565468 0 7.6510322703565468 1.6848202138328539 0 0 0 0 -30.099847053621033 -6.2671782160291514 0 -6.2671782160291514 18.117677655653097 0 0 0 0 10.595844005931212 7.398669521096167 0 7.398669521096167 3.8669117978879513 0 0 0 0 6.8081554476357269 10.172847264033408 0 10.172847264033408 3.088797875052478 0 0 0 0 -0.86043498881970226 6.725815213673136 0 6.725815213673136 4.3818952634505273 0 0 0 0 2.5985700525046695 8.0253541594711351 0 8.0253541594711351 6.2210590985341696 0 0 0 0 1.8245145552026365 4.9989051442944241 0 4.9989051442944241 -0.38131288339364744 0 0 0 0 -3.9773912934622331 6.1118060015878655 0 6.1118060015878655 0.18751897187394206 0 0 0 0 2.7558221077875258 12.485404386639152 0 12.485404386639152 8.1595285291362813 0 0 0 0 -8.0631274748993746 11.759131050692304 0 11.759131050692304 6.7961182163453486 0 0 0 0 -2.0330157405836613 0.49872263419168705 0 0.49872263419168705 0.29137221868975516 0 0 0 0 9.6494089104462546 9.6567659381562407 0 9.6567659381562407 22.827164657603134 0 0 0 0 24.987104511443249 0.87952219248472829 0 0.87952219248472829 -20.165838653414539 0 0 0 0 -13.95752853015864 15.206377656569884 0 15.206377656569884 0.20610589144598634 0 0 0 0 -33.758848534142999 -16.9986410623751 0 -16.9986410623751 6.6556059280992486 0 0 0 0 2.822712404611484 6.6158265359752999 0 6.6158265359752999 3.3847954803795481 0 0 0 0 -1.2489149550773107 9.1392835507381278 0 9.1392835507381278 -2.7760079366853461 0 0 0 0 -5.3677188507608662 14.662805210543411 0 14.662805210543411 1.4241003094016378 0 0 0 0 -14.953502923433007 22.201201851432415 0 22.201201851432415 -1.2920058110967148 0 0 0 0 -2.3702510378027455 13.895226294913755 0 13.895226294913755 3.2775869036831864 0 0 0 0 -7.4916309666112255 16.473361143818636 0 16.473361143818636 5.309942734278593 0 0 0 0 -2.5751800340151476 10.076500339744371 0 10.076500339744371 7.9088586358420798 0 0 0 0 -2.210661700732663 7.3182827875685863 0 7.3182827875685863 2.2576957320400286 0 0 0 0 2.5566978365399335 6.4900792950314781 0 6.4900792950314781 5.5237196923755576 0 0 0 0 -0.1360586151949974 8.1799151588193126 0 8.1799151588193126 8.4976844129287201 0 0 0 0 -14.17364687595682 -1.431331940873747 0 -1.431331940873747 4.4187665582212503 0 0 0 0 0.0044641017120738979 14.071353341634904 0 14.071353341634904 13.638468792415551 0 0 0 0 -6.4543239603635811 12.969613416676907 0 12.969613416676907 17.448175555068701 0 0 0 0 -5.675744193196806 13.230356090718487 0 13.230356090718487 15.154316679058866 0 0 0 0 -14.584504043411869 0.23275079559394385 0 0.23275079559394385 5.3083371634184005 0 0 0 0 5.6036461618613771 12.28057872300694 0 12.28057872300694 6.682127579052576 0 0 0 0 7.9246482111375371 41.357022760390464 0 41.357022760390464 12.08971568135803 0 0 0 0 -2.999813496771043 -0.35915726782490154 0 -0.35915726782490154 0.0074565750649888685 0 0 0 0 -13.271639972248028 1.7460373731205312 0 1.7460373731205312 3.480837937539432 0 0 0 0 -12.019454712706571 1.2997897601051918 0 1.2997897601051918 3.270331049085744 0 0 0 0 -10.390123380617297 7.2490262480187084 0 7.2490262480187084 77.144695811548672 0 0 0 0 -59.567051559229185 20.921786637268269 0 20.921786637268269 75.202041084806297 0 0 0 0 67.771466737609444 -27.938655055320851 0 -27.938655055320851 -20.917970688363312 0 0 0 0 1.3511008719440269 11.482042823051756 0 11.482042823051756 16.267737911975473 0 0 0 0 -0.54112257206852021 3.4333355281191977 0 3.4333355281191977 -2.6036976342456004 0 0 0 0 110.48079698311813 55.445728599286667 0 55.445728599286667 -7.312526724876534 0 0 0 0 -1.3910923179204255 -0.51869064058633185 0 -0.51869064058633185 -0.06772445388377335 0 0 0 0 -6.4676936601053967 9.5802542271953826 0 9.5802542271953826 17.898850705678569 0 0 0 0 -1.2619530598584703 3.4513760159457991 0 3.4513760159457991 -2.478513495721244 0 0 0 0 67.982419752140231 -64.146936724114312 0 -64.146936724114312 -43.395785274913578 0 0 0 0 5.4721626941955037 48.565720199650968 0 48.565720199650968 20.105171053419781 0 0 0 0 36.673404864483018 3.8679095474967653 0 3.8679095474967653 5.2332500407715088 0 0 0 0 -6.9133843948581175 3.40975936799809 0 3.40975936799809 8.273428283805579 0 0 0 0 -55.932982338738157 125.0487045845282 0 125.0487045845282 101.73009317862579 0 0 0 0 1.6568095868443091 1.092636038321924 0 1.092636038321924 0.7630421940866885 0 0 0 0 -16.742442629998095 1.8806249825438499 0 1.8806249825438499 17.844156506850595 0 0 0 0 52.851741121621671 37.352607951513164 0 37.352607951513164 5.9159083796121195 0 0 0 0 21.244042987468447 38.808248722311532 0 38.808248722311532 11.605485322914319 0 0 0 0 17.699648914872341 26.000501052782056 0 26.000501052782056 10.865277919157961 0 0 0 0 -4.4641864531610507 2.2889259711003493 0 2.2889259711003493 14.605256600301455 0 0 0 0 10.486314365845828 20.96283584622779 0 20.96283584622779 40.61929478611728 0 0 0 0 -4.6431155437994676 15.300122364064123 0 15.300122364064123 24.26054604377714 0 0 0 0 -4.9506570579178515 13.761659222594517 0 13.761659222594517 18.7888712696124 0 0 0 0 -4.8963576895107508 14.693091019938549 0 14.693091019938549 34.082330011434806 0 0 0 0 0.79608173012820771 1.9316219029069543 0 1.9316219029069543 29.311661600257139 0 0 0 0 0.65312073810218862 5.3093700098493173 0 5.3093700098493173 13.884508391871123 0 0 0 0 20.817332931555939 19.020317512727388 0 19.020317512727388 17.536278967897481 0 0 0 0 7.0364452905541839 34.514073122592549 0 34.514073122592549 26.940097305228846 0 0 0 0 -0.041095295683174271 0.85933184044848065 0 0.85933184044848065 -0.87011372888105187 0 0 0 0 -2.494044466190644 14.008067782366197 0 14.008067782366197 14.828286889272022 0 0 0 0 -0.72774006221879972 20.234318519266708 0 20.234318519266708 35.913601010258844 0 0 0 0 -1.3978734272497917 3.2103139722218383 0 3.2103139722218383 -1.1697248955562038 0 0 0 0 8.2476069746253415 9.573849804434758 0 9.573849804434758 -36.826199996998639 0 0 0 0 15.619648480233082 40.646209580330833 0 40.646209580330833 6.4158868503423037 0 0 0 0 -8.2204452012938418 45.050224285633249 0 45.050224285633249 31.832591256079922 0 0 0 0 -3.3699821312011409 35.282243144863287 0 35.282243144863287 24.728091639048216 0 0 0 0 0.066630270312089124 38.138272848532324 0 38.138272848532324 16.7408532104144 0 0 0 0 2.1996791538322213 32.488725206268555 0 32.488725206268555 29.942677009412819 0 0 0 0 1.0769755660821829 22.698292092214615 0 22.698292092214615 25.19961787662578 0 0 0 0 -8.1858461542087753 21.237211032593677 0 21.237211032593677 28.401380458541553 0 0 0 0 -3.0693694963010785 20.092034779782352 0 20.092034779782352 23.672427167228761 0 0 0 0 -5.0046880005538696 23.271010771570218 0 23.271010771570218 29.510325834361424 0 0 0 0 -8.5448184804463381 21.244511566931578 0 21.244511566931578 63.475935546926394 0 0 0 0 -3.0096027904528455 -1.2105782890967021 0 -1.2105782890967021 24.737663300298664 0 0 0 0 3.6041074874487649 4.3389455389515952 0 4.3389455389515952 3.3362184756346061 0 0 0 0 -26.51906848433282 53.269731991183107 0 53.269731991183107 -12.244040425829553 0 0 0 0 0.65434851570353203 8.2761899249812814 0 8.2761899249812814 21.721917172792359 0 0 0 0 -2.4704688087353084 5.8440641520196799 0 5.8440641520196799 0.070960001177503784 0 0 0 0 0.87352500725137361 6.0471939321246282 0 6.0471939321246282 10.087879552448612 0 0 0 0 -0.32211495524825295 10.458851463998144 0 10.458851463998144 25.677476888826959 0 0 0 0 6.3508488318693708 4.9014271277919761 0 4.9014271277919761 4.6744396223380136 0 0 0 0 5.0027096356762968 17.051994948954786 0 17.051994948954786 8.0168996468464684 0 0 0 0 117.13048756986427 15.291008408800053 0 15.291008408800053 -118.04525141092108 0 0 0 0 -11.491193867836046 0.025510181558956901 0 0.025510181558956901 -32.948600929229542 0 0 0 0 0.71153840894738352 0.048398241054964153 0 0.048398241054964153 -0.097291028236209831 0 0 0 0 80.578442588905091 19.718842422589432 0 19.718842422589432 -54.909345247724559 0 0 0 0 -28.085101638745982 58.151234082147539 0 58.151234082147539 33.588064537840637 0 0 0 0 147.54718777012386 -0.13696474488278909 0 -0.13696474488278909 -54.569212895053887 0 0 0 0 6.1598695454590597 -32.175165496628438 0 -32.175165496628438 129.07194816379661 0 0 0 0 1.3628522159473526 1.3450019226968415 0 1.3450019226968415 1.5976775279575532 0 0 0 0 -18.981367811924429 53.768660977954823 0 53.768660977954823 143.76784236422259 0 0 0 0 111.68386200239775 121.00409946193781 0 121.00409946193781 85.611764909270278 0 0 0 0 -28.5925378542197 -44.875843424880713 0 -44.875843424880713 241.27707203449609 0 0 0 0 71.482545715787637 -163.53409028308056 0 -163.53409028308056 -118.73604128319221 0 0 0 0 0.040731226023517308 0.28524575633892013 0 0.28524575633892013 -0.44801131980246467 0 0 0 0 46.354041698874425 -168.35049836975554 0 -168.35049836975554 -16.541220101341423 0 0 0 0 86.586159986019993 114.72252758635682 0 114.72252758635682 -4.7206362154693124 0 0 0 0 5.1916713986065588 32.374813659881056 0 32.374813659881056 15.629381384123917 0 0 0 0 20.116898300288426 -17.576177045309379 0 -17.576177045309379 -103.05861759145 0 0 0 0 -0.58071459190392716 1.1852306285798644 0 1.1852306285798644 -1.309005238470589 0 0 0 0 -1.4333285076722717 1.425599489045176 0 1.425599489045176 -1.578923887810145 0 0 0 0 8.3540709979608323 -15.106908218683067 0 -15.106908218683067 -0.049477317943910748 0 0 0 0 -2.5079147710712277 29.845883877201004 0 29.845883877201004 29.741993979916515 0 0 0 0 17.464504641952317 2.0332374394486123 0 2.0332374394486123 -0.111620560333904 0 0 0 0 -0.062889625760362833 31.855221777422457 0 31.855221777422457 32.416422222670235 0 0 0 0 -1.2821997920883987 1.2916091987830889 0 1.2916091987830889 -1.0031371630312851 0 0 0 0 -11.155834205432257 -27.468121744293967 0 -27.468121744293967 -1.1510756270499769 0 0 0 0 22.729133835280663 48.281196771880786 0 48.281196771880786 12.174565790875135 0 0 0 0 -26.785608230197795 5.2881661868487981 0 5.2881661868487981 -41.251392836860759 0 0 0 0 8.1814186938954663 40.906588403270689 0 40.906588403270689 7.2921475684956931 0 0 0 0 2.4100489481461409 -0.39676086330518956 0 -0.39676086330518956 18.886522276544383 0 0 0 0 -2.3733675984480982 4.0386872704535239 0 4.0386872704535239 -2.9454530430259034 0 0 0 0 -15.428309149003326 36.822684501543336 0 36.822684501543336 74.458197519363239 0 0 0 0 7.6540052695012264 -2.1750820112195584 0 -2.1750820112195584 2.7456645723864312 0 0 0 0 -0.18357786308479263 25.228546741024957 0 25.228546741024957 30.019301672338543 0 0 0 0 -3.1155496750270686 2.364230332070747 0 2.364230332070747 25.812707801949728 0 0 0 0 -0.79275936210764542 0.61580316486636022 0 0.61580316486636022 -0.43445212993159465 0 0 0 0 -0.27488481799809961 0.024903614511686101 0 0.024903614511686101 -1.8993081604146482 0 0 0 0 -1.1552372275474383 1.022917310760036 0 1.022917310760036 -0.75691251531287751 0 0 0 0 -7.6913051921455917 1.1440664593183101 0 1.1440664593183101 -0.48567003610332904 0 0 0 0 -4.6989339442079654 4.4645487175182552 0 4.4645487175182552 -6.026920408229671 0 0 0 0 0.30616889308849693 -0.052188066092811791 0 -0.052188066092811791 -0.074611485380075449 0 0 0 0 -21.035350060330529 -13.437868076658106 0 -13.437868076658106 -60.998263825691652 0 0 0 0 -8.2299123881748528 20.520702367506601 0 20.520702367506601 -65.780039284360782 0 0 0 0 6.1289904772420414 29.060194493399194 0 29.060194493399194 -98.375805707193081 0 0 0 0 -0.044168904090838623 0.84459786855200036 0 0.84459786855200036 -1.629575939255119 0 0 0 0 -0.27401595555828351 -0.1362168069440659 0 -0.1362168069440659 -0.25623208070593817 0 0 0 0 -3.3694648142190999 41.385489838221929 0 41.385489838221929 -80.212384497239555 0 0 0 0 -58.393052603756587 -6.4666535013822113 0 -6.4666535013822113 43.51149140199459 0 0 0 0 -32.258074955925622 -12.038200954360718 0 -12.038200954360718 -2.0721759425499044 0 0 0 0 -9.2224517823069618 3.5834495594203872 0 3.5834495594203872 1.6156508119743194 0 0 0 0 -5.0288597657072387 6.7711163312856115 0 6.7711163312856115 0.99985604035123288 0 0 0 0 -17.296075973778898 28.795897226780994 0 28.795897226780994 -38.390224539734845 0 0 0 0 -27.88816823790512 49.928897460077451 0 49.928897460077451 26.148824319517928 0 0 0 0 1.0475579121968792 0.16977443255917102 0 0.16977443255917102 -0.096448615817690486 0 0 0 0 33.330946163070621 -17.747210669188576 0 -17.747210669188576 -15.11049735628194 0 0 0 0 27.721165619517706 15.98814071246079 0 15.98814071246079 -75.333665347993758 0 0 0 0 0.4188673609360194 -6.1147229486450669 0 -6.1147229486450669 -39.821981439150932 0 0 0 0 -5.711141624055017 28.038959911147003 0 28.038959911147003 -21.800687792636609 0 0 0 0 7.5764048927163401 26.100354191841042 0 26.100354191841042 -26.634750728508152 0 0 0 0 -10.044854901963845 46.475606113437152 0 46.475606113437152 -5.6946060254745134 0 0 0 0 8.0717553136843492 52.972098730985152 0 52.972098730985152 69.454766016923713 0 0 0 0 71.545818933502233 105.98746273424467 0 105.98746273424467 8.4132848405570257 0 0 0 0 -35.192621411575601 -3.7739667651833315 0 -3.7739667651833315 -49.560243392090342 0 0 0 0 -0.22207035587862833 -0.13591618951180795 0 -0.13591618951180795 -0.20976426328652131 0 0 0 0 -5.2077980430294701 22.047949497727359 0 22.047949497727359 -82.533276666150414 0 0 0 0 4.8428127907500311 -1.6092180830087273 0 -1.6092180830087273 -75.945277051080666 0 0 0 0 -4.4460678839332104 26.4339306823681 0 26.4339306823681 -57.494551443332512 0 0 0 0 -6.0154290588036474 22.977607390041044 0 22.977607390041044 -51.780797511139099 0 0 0 0 -9.834346932493645 46.513269534541223 0 46.513269534541223 -45.710000458678223 0 0 0 0 -13.380734558133554 39.704425404442418 0 39.704425404442418 -34.957246849550529 0 0 0 0 -13.396082787361593 35.046949260904739 0 35.046949260904739 -47.663282822355541 0 0 0 0 -15.555665993977527 37.004048604844002 0 37.004048604844002 -60.529229121295884 0 0 0 0 -15.561096347903003 43.577211773625777 0 43.577211773625777 -56.514726880520357 0 0 0 0 -9.0110404017104884 20.599335789265069 0 20.599335789265069 -23.266815158399368 0 0 0 0 -19.28062424123209 39.114775677423324 0 39.114775677423324 -42.406007966306333 0 0 0 0 -4.654754597129795 25.088524616363884 0 25.088524616363884 -58.168500226876063 0 0 0 0 29.260325301722332 30.649857629613052 0 30.649857629613052 -148.46915142006856 0 0 0 0 44.048678797395041 57.270706130307303 0 57.270706130307303 57.326937317666307 0 0 0 0 1.150901065739248 0.35133509952968467 0 0.35133509952968467 -0.098379216951292481 0 0 0 0 -9.2941101304804761 18.8039147770819 0 18.8039147770819 -25.581633286985607 0 0 0 0 35.391458357148167 69.962176074083118 0 69.962176074083118 88.804972818765009 0 0 0 0 42.661306181340478 103.16774019612217 0 103.16774019612217 19.690528146450561 0 0 0 0 50.273701993222858 91.743819490823853 0 91.743819490823853 -60.864269266170368 0 0 0 0 24.72750745101348 115.05426207855817 0 115.05426207855817 202.68322263341338 0 0 0 0 0.30065412675646286 0.095740753800678036 0 0.095740753800678036 0.022265767580154083 0 0 0 0 65.21350352560512 89.299484201897144 0 89.299484201897144 30.430451996779311 0 0 0 0 22.419998080049481 76.947612548568713 0 76.947612548568713 37.873077452598068 0 0 0 0 -31.909563150542454 23.642580702104055 0 23.642580702104055 40.592122688460108 0 0 0 0 93.945894063201649 49.962810932797623 0 49.962810932797623 -5.4812474116679368 0 0 0 0 19.439822195496845 24.211154758836393 0 24.211154758836393 -8.155075562435286 0 0 0 0 -4.9556586508024338 15.035653233033145 0 15.035653233033145 -15.850589608281325 0 0 0 0 -30.025698371124804 1.6223548515568567 0 1.6223548515568567 41.432476060843328 0 0 0 0 -21.847599268838167 25.110429304017089 0 25.110429304017089 -11.913003419863799 0 0 0 0 1.5315383860383065 1.5344046767974913 0 1.5344046767974913 1.3249214856050511 0 0 0 0 -12.776581205642287 10.602432453565825 0 10.602432453565825 -10.810879437530957 0 0 0 0 -5.3584016935615182 16.224090062130642 0 16.224090062130642 -6.9441633834080676 0 0 0 0 8.0669639759315714 14.641387971879496 0 14.641387971879496 -12.646491225157661 0 0 0 0 -5.1046555192770029 13.833389064654284 0 13.833389064654284 -2.2083606183846314 0 0 0 0 11.408925469590031 16.072737968408035 0 16.072737968408035 -6.3704726673959158 0 0 0 0 0.15128564607221051 9.388241322430531 0 9.388241322430531 -3.5299348036818401 0 0 0 0 -4.6937430109601337 14.86088676327131 0 14.86088676327131 -0.33077100504306145 0 0 0 0 -9.2738258909485012 9.2045425704939134 0 9.2045425704939134 -5.9569683688239934 0 0 0 0 -13.912461809515662 11.759937816152615 0 11.759937816152615 -0.10373409939256817 0 0 0 0 -14.390376711480712 8.9342971248972844 0 8.9342971248972844 0.4321663279078507 0 0 0 0 -14.455553252802929 14.891692274817615 0 14.891692274817615 7.7964183308949941 0 0 0 0 -12.830158665623458 12.075910046948934 0 12.075910046948934 5.1020568077938151 0 0 0 0 -11.482982426055969 22.119014746787343 0 22.119014746787343 -0.2399714306561691 0 0 0 0 -0.87176071899557428 21.142073086780329 0 21.142073086780329 -0.2324672391250715 0 0 0 0 -8.7835660584569268 11.641102478721223 0 11.641102478721223 -0.88826000942384553 0 0 0 0 6.1015794231805991 8.0808907752387569 0 8.0808907752387569 2.2792453118974949 0 0 0 0 -2.9151940595947963 15.869008461698741 0 15.869008461698741 -5.6412736788361144 0 0 0 0 -12.610606235048181 13.336653218426363 0 13.336653218426363 7.2273823515197364 0 0 0 0 -9.1978587338380748 9.7037745538418676 0 9.7037745538418676 0.4053194508269371 0 0 0 0 5.3264149356198232 13.493781491232625 0 13.493781491232625 -8.4264602941984776 0 0 0 0 -2.4924731845188717 6.2870316799964314 0 6.2870316799964314 7.5086779806333652 0 0 0 0 2.4946887077698285 3.5414687698849736 0 3.5414687698849736 0.15721494026202265 0 0 0 0 1.6875379291268473 20.91673184428555 0 20.91673184428555 6.9107150724103121 0 0 0 0 -27.354861032797999 -2.2451583317094901 0 -2.2451583317094901 -5.3017816902010964 0 0 0 0 -44.979229454205779 27.66930866812254 0 27.66930866812254 2.6153846240499661 0 0 0 0 -71.16158079030356 19.622609490634204 0 19.622609490634204 -22.057006590663605 0 0 0 0 1.7030183690203557 35.919431286201359 0 35.919431286201359 -36.593082442974264 0 0 0 0 1.3842320224543343 1.9607351110101128 0 1.9607351110101128 0.173047283416631 0 0 0 0 -9.8095965436623374 31.06813369335805 0 31.06813369335805 -31.722719972576215 0 0 0 0 67.496483139341763 66.914235192256797 0 66.914235192256797 31.463668058889652 0 0 0 0 32.920093980968886 -0.65810789883562393 0 -0.65810789883562393 -5.542354491486094 0 0 0 0 -0.040360581704590004 5.9391032699618336 0 5.9391032699618336 25.285396590300479 0 0 0 0 51.426194939805782 93.180206151733927 0 93.180206151733927 19.389979723633587 0 0 0 0 49.665396717067779 88.11515224436971 0 88.11515224436971 9.9494199872592048 0 0 0 0 0.75560607245829203 0.64449354973817918 0 0.64449354973817918 0.38802146358690148 0 0 0 0 -4.9961580318722554 65.084828417625658 0 65.084828417625658 70.969409063628518 0 0 0 0 -4.0209101349882985 9.7794955759982258 0 9.7794955759982258 -9.726230010765903 0 0 0 0 -15.275373356447062 16.590136327799115 0 16.590136327799115 8.1933495542048149 0 0 0 0 -8.8561835722975957 0.17416271410888839 0 0.17416271410888839 14.281836943092458 0 0 0 0 
</DataArray>
<DataArray type="Float64" Name="cross_section_updated" format="ascii">
1 1 1 1 1 1 1 1 1 1 1 1 1 0.010028592119584524 1 1 1 1 1 1 1 0.010028759805453962 1 1 0.0094685206576217602 1 1 1 1 1 1 1 1 1 1 1 1 1 1 1 1 0.0097734661660230059 1 1 1 1 1 1 1 1 1 1 1 1 1 1 1 1 1 1 1 1 1 1 1 1 1 1 1 1 1 1 1 1 1 1 1 1 1 1 1 1 1 1 1 1 1 1 1 1 1 1 1 1 1 1 1 1 1 0.0094321520561953549 1 1 1 1 1 1 1 1 0.0099963051563322896 1 1 1 1 1 0.0096559556367752652 1 1 1 1 1 0.0093017934195432951 1 1 1 1 1 1 1 1 0.0084817605782305291 1 0.010420989259708541 1 1 1 1 1 1 1 0.0097373956507369949 1 0.010000601502136023 1 0.0096702245318657735 1 1 1 1 1 1 1 1 1 0.0099166991808711143 1 0.010784259184252496 0.0086066676752665199 1 1 1 0.0093494527791044123 1 1 1 0.0093448387361709014 1 0.0093128695675984818 1 1 1 1 0.010435327351630049 1 0.0099804148251971068 1 1 1 1 1 0.0087561647883463174 1 1 1 1 1 1 1 1 1 1 1 1 1 1 1 0.0094491145017848149 1 1 1 1 1 1 0.0096950544915987563 1 1 1 1 1 1 1 1 1 1 1 1 0.009859052647474692 0.0099033272223816825 1 1 1 0.0093973446406078846 1 1 0.010015821078351691 1 1 1 0.011424188667890011 1 1 1 1 1 1 1 0.010856146702641834 1 1 1 1 1 1 1 1 1 1 1 1 1 1 1 0.010281608218554453 1 0.0097061314526334687 1 1 0.0097157166974887986 1 1 1 0.0097373772571413067 1 1 1 1 1 1 1 1 1 1 1 0.0099482960728989184 1 1 1 1 1 1 0.0098905043253581394 1 1 1 1 0.0099675399927247037 1 1 1 1 0.0098982292442365335 1 0.0089026789588002551 1 0.0086658158941895561 1 1 1 1 0.0099858738694641493 0.008608325889440294 1 1 1 1 0.010505581860590923 1 1 1 0.010658665421572202 1 1 1 1 0.010073162443252256 1 0.010121957714346978 1 1 1 1 1 1 1 1 1 0.0098699867948623468 1 1 1 0.010015092640353006 1 1 1 1 1 1 1 1 1 1 1 1 1 1 1 1 1 1 1 1 1 1 1 1 1 1 1 1 1 1 1 0.0099357476085276016 1 1 1 1 1 1 1 1 1 1 1 1 1 1 1 1 0.010291369885016995 1 1 1 1 1 1 1 1 1 1 1 1 0.0093268667574805224 1 1 1 0.0097919490734598991 1 1 0.012021169532550516 1 1 1 1 1 1 1 0.010132390100918962 1 1 1 1 1 1 1 1 0.010366739668672395 1 0.010014365884232632 1 1 1 0.010547893922023033 1 1 1 1 1 1 1 1 0.011241031772078625 1 0.010709352925288095 1 1 1 0.010202620460058327 1 0.01060888123868069 1 1 0.010586915123451324 1 1 1 0.010038619622666781 1 1 1 0.010067585662028599 1 1 0.0098361320954912547 1 1 1 1 1 1 1 1 1 0.010048562954359699 1 1 1 1 1 0.010174034964433587 1 0.010027773959972232 1 1 1 0.0099597185952912427 1 1 1 1 1 1 1 1 0.010426372132027708 1 1 0.010263439072011061 1 0.0092453240467939169 1 1 1 1 1 0.0092355109408545806 1 1 1 1 1 1 1 1 1 1 1 1 1 1 0.0094919420141847087 1 1 1 0.009831285980284217 1 1 1 1 0.009996585778977966 1 1 1 1 0.0097863142734273267 1 1 1 1 1 1 1 1 1 1 1 1 1 1 1 1 1 1 1 1 1 1 1 1 1 1 1 1 1 1 1 1 1 0.0096508429279611573 1 1 1 1 1 1 1 1 1 0.0097473961857982069 1 1 1 1 1 1 1 1 1 1 1 0.011897862946676947 1 1 1 1 0.010010951251008869 1 1 1 1 1 1 0.010052502536638152 1 1 0.0089524837077496582 1 1 1 1 1 1 1 1 1 1 1 1 1 1 1 1 1 1 1 1 1 1 1 1 1 1 1 1 1 1 1 1 1 1 1 1 1 1 1 1 1 1 1 1 1 1 1 1 1 1 1 0.009969071186248013 1 1 1 1 1 1 0.0099492335443112419 1 1 1 1 1 1 1 1 1 1 1 1 1 1 1 1 1 1 1 1 0.0099801623580632291 1 1 1 1 1 1 1 1 1 1 1 1 1 1 1 1 1 1 1 1 1 1 1 1 1 1 1 1 1 1 1 1 1 1 1 1 1 1 1 1 1 1 1 1 1 1 1 1 1 1 1 1 1 1 1 1 1 1 1 1 1 1 1 1 1 1 1 1 1 1 1 1 1 1 1 1 1 1 1 1 1 1 1 1 1 1 1 1 1 1 1 1 1 1 1 1 1 1 0.01002409288810392 1 1 1 1 1 1 1 1 1 1 1 0.0088155726943631059 1 1 1 1 1 1 1 0.010052879703035245 1 1 0.0087093600087908649 1 1 1 1 1 1 1 1 1 1 1 1 1 1 1 1 1 1 1 1 1 1 1 0.010120465365063842 1 1 1 1 1 1 1 1 1 1 1 1 1 1 1 1 1 1 1 1 1 1 1 1 1 1 1 1 0.010038119401616238 1 1 0.0096055862358334441 1 1 1 1 1 1 1 1 1 1 1 1 0.0086555390461072208 1 1 1 1 1 0.0086381506530669033 1 1 0.011615174217411636 1 1 1 1 1 1 1 1 1 1 1 1 1 0.010389799106048772 0.011079983367177819 1 1 1 1 1 1 1 1 1 1 1 1 1 1 0.0085919724726995668 1 1 1 1 0.010730107247260536 1 0.0087961535996590352 1 1 1 0.0099675210412850015 1 1 1 1 1 1 1 1 1 1 1 1 1 1 1 0.010454748473310573 1 1 1 1 1 1 1 1 1 1 1 1 1 1 1 1 1 1 1 1 1 1 1 1 1 1 1 1 1 1 1 1 1 0.011363293361102327 1 0.0089781255815221134 1 1 1 0.0099992480734254346 1 1 1 0.009640417809264272 1 1 1 1 1 1 1 1 1 1 1 1 1 1 1 1 1 1 1 1 1 1 1 1 1 1 0.010488275704882545 1 1 1 0.0098434242654701874 1 1 1 1 0.0084944267982791765 1 1 1 1 0.0096015585304480792 1 1 1 1 1 1 0.0097581342649778902 1 1 1 0.010195604977687683 1 1 1 1 1 1 1 1 1 1 1 1 1 1 1 1 1 1 1 1 1 1 1 0.010574452210063786 1 1 1 1 0.01020816034183313 1 1 1 1 1 1 1 1 1 0.0099690571990175888 1 0.0099081340289324214 1 1 1 1 1 1 1 1 0.0099390163504802578 1 1 1 1 1 1 1 1 1 1 1 0.010038137042164056 1 1 1 1 1 1 1 1 1 1 1 1 1 1 1 0.010062380441321853 1 1 1 1 1 0.010030327609990694 1 1 1 1 1 1 1 0.01000598085456721 1 1 1 1 1 1 1 1 1 1 1 1 1 1 0.0097612783009569694 1 1 1 1 1 1 1 1 0.011140035224704661 1 1 0.0094697183380095251 1 1 1 1 1 1 1 0.010871317710144905 1 1 1 1 1 1 1 1 1 1 1 1 1 1 1 0.0097549765765204428 1 0.0092638176655285981 1 1 1 1 1 1 1 1 1 1 1 1 1 1 1 1 1 1 1 1 1 1 1 1 0.010080982224908643 1 1 1 0.0088333347232899401 1 1 1 1 1 0.0085283370282033307 1 1 0.009916421798353359 1 1 1 0.0097281134208052414 1 1 1 1 1 1 0.0095056944416436716 1 1 1 1 1 1 1 1 1 0.0088111928706184062 0.0099845336265364671 1 1 1 0.013026275623366283 0.010067430865404372 1 1 0.011405136824674363 1 1 0.0099978705605805202 1 1 1 1 1 1 0.010378482264258304 1 1 0.012245945024568335 0.010630329132166227 1 1 0.01241717405010195 1 1 1 0.010117275982857794 1 1 1 1 1 1 1 1 1 1 1 1 1 1 1 1 1 1 1 1 1 1 1 1 0.010068672142222413 1 1 1 1 0.010123325744460222 1 1 1 1 1 0.010141064819729163 1 1 1 1 1 1 1 0.008433288922693731 1 1 1 1 1 0.010027025578301884 1 1 1 1 1 1 1 1 0.010367767442776923 1 1 1 1 1 1 0.010608088243233765 1 0.0085726981565281968 1 1 1 0.0089170938073014488 1 1 0.010027835887902469 1 1 1 0.0096124929202191199 1 1 1 1 1 1 1 1 1 1 1 1 1 1 1 0.0099319680883045002 1 1 1 1 0.010072392677506748 1 1 1 1 1 0.010003547224090758 1 1 1 1 0.0099866525196231314 1 1 1 1 1 1 1 1 1 0.0099743409408359837 0.0099574462363683572 1 1 1 1 1 1 1 1 1 0.0099175795071712487 1 1 1 1 1 1 1 1 0.0098922726232628273 1 1 1 1 1 1 1 1 1 0.009920267072554877 1 1 1 1 1 1 0.0099874840857119371 1 1 1 1 1 1 1 1 1 0.009881606339443098 1 1 1 1 1 0.0096629228946198686 1 0.009994120799970644 1 1 1 1 1 1 1 1 1 1 1 1 1 1 1 1 1 1 1 1 1 1 1 1 1 1 1 1 1 1 1 0.010085062238930751 1 1 1 1 1 1 1 1 1 1 1 1 1 1 1 1 1 1 1 1 1 1 1 1 1 1 1 1 1 1 1 1 1 1 1 0.0095778114436683524 1 1 1 1 0.0098559757203920025 1 1 1 1 1 1 1 1 1 1 1 1 1 1 0.0099549458978122271 1 1 1 1 1 1 1 1 1 1 1 1 1 1 1 0.0097457638161193103 1 1 0.0097257074735123024 1 1 1 0.0093824791213935402 1 1 1 1 1 1 1 1 1 1 1 0.0094475431967886506 1 1 1 1 1 1 1 1 1 1 1 1 1 1 0.010182614692759304 1 1 1 1 1 1 1 1 1 0.010005013680982614 1 1 1 1 1 1 0.0098980976727174146 1 1 0.0097136318610852763 1 1 1 1 1 1 1 1 1 0.0099586646715915123 1 0.010763970136953299 0.010002888366497823 1 1 1 1 1 1 1 0.010569570412006844 0.009906052844975987 1 1 1 1 1 1 1 1 1 1 1 1 1 1 0.010032876810189016 1 1 0.0099337732420211079 1 1 1 1 1 1 1 1 1 1 1 1 1 1 1 1 1 1 1 0.010000186605478672 0.0099744745743632016 1 1 1 1 1 1 1 1 1 1 1 1 1 1 1 1 1 1 1 1 1 1 1 1 1 1 1 1 1 1 1 1 0.0091194774221162803 1 0.0098179448695355758 1 1 1 1 1 1 1 1 1 1 1 1 1 1 1 1 0.0089597346599774655 1 1 1 1 1 1 1 0.01029287106250522 1 1 1 1 1 1 1 1 1 1 1 1 0.0099913743133378252 1 1 1 1 1 1 1 1 1 1 1 1 1 1 1 1 1 1 1 1 1 1 1 1 1 1 1 0.0093431643975872454 1 1 1 1 1 1 1 1 1 1 0.0082083003922801701 1 1 1 1 1 0.0095190431010709776 1 1 1 1 1 0.0097496245249306824 1 1 1 1 1 1 1 0.0093082842043691501 1 1 1 1 1 1 1 1 1 1 1 1 1 1 1 1 1 1 0.0098547146601871017 1 1 1 1 1 1 0.0078251212739989355 0.0096845061587179336 1 1 1 1 1 0.007648767065138614 0.01003682994205651 1 1 1 1 1 1 1 1 1 1 1 1 1 0.0085241347509902848 1 1 1 1 1 1 1 1 1 1 1 1 1 1 1 1 1 1 1 1 1 1 1 1 1 1 1 0.0099071822483154295 1 1 0.0099343355948437531 1 1 0.0080530000729218502 1 1 1 0.0093757736792115867 1 1 1 1 1 1 1 1 0.0099355203339196955 0.010006956940350972 1 1 1 1 1 1 1 1 1 0.0099176879866772726 1 0.010663232613422896 1 1 1 1 1 1 0.011030917482292809 1 0.0099689764061303004 1 1 1 1 1 1 1 1 1 0.011378490916274501 1 1 1 1 1 1 1 0.008890777889736615 1 1 1 0.011502424216322769 1 0.010463264338219215 0.008966516774081619 1 1 0.010265327963417852 1 1 0.0089379969616298002 1 0.010004422510922909 1 0.0099726212578650705 1 1 1 0.010568841382038514 1 1 1 1 1 1 1 1 1 1 0.0082466180744045527 1 0.0095409588549419146 1 0.010565306684242229 1 0.0099822186208601976 1 1 0.010155334428088685 1 1 0.0078707092790931479 0.0099876197504163919 1 1 1 1 1 0.0091092181981189731 1 1 1 1 1 0.010197712254390673 1 1 1 1 1 1 1 0.0095002134877612884 1 1 1 1 1 1 1 1 1 1 1 1 1 1 1 1 1 1 1 1 0.0070949838659336521 1 1 1 1 0.0076791004443932291 1 1 1 1 1 0.0093667880294346778 1 1 1 1 0.0098032119923604309 1 1 0.0068756821405697895 1 1 1 1 1 1 1 1 1 1 0.0099044956741183333 1 1 1 1 1 1 1 1 1 0.0096583765450012002 1 1 1 1 1 1 1 1 1 1 1 1 1 1 1 1 1 1 1 1 1 1 1 0.010038087730366593 1 1 1 1 1 1 1 1 1 0.010123372489198739 0.0097520935784613672 1 1 1 1 1 1 1 0.0088930757228809273 1 1 1 1 0.0095587419400209647 1 0.0091984078808011807 1 1 1 0.0096922567798262034 1 1 1 1 1 1 1 1 1 1 1 1 1 1 1 1 1 0.0088142300915468007 1 1 0.0087227298834005214 0.0098103876334047421 0.0086540475524740194 1 0.0087818666852368353 1 0.010144488576576426 1 1 1 1 1 0.0099964075535854003 0.0085679832097128976 1 0.0099586750203649391 1 1 0.0085446994241068375 1 0.0097074224950146407 1 1 0.0070910980006563349 0.010042586526927308 1 1 1 1 1 1 1 1 1 1 1 1 1 1 1 1 1 1 0.010047092507282739 1 1 1 1 1 1 1 1 1 1 1 1 1 1 1 1 1 1 1 1 1 1 1 1 1 1 1 1 1 1 1 1 1 1 1 1 1 1 1 1 1 1 1 1 1 1 1 1 1 1 0.010067907349736787 1 1 1 1 1 1 1 1 1 1 1 1 1 1 1 1 1 1 1 1 1 0.010083503925651972 1 1 1 1 1 0.010122808323065892 1 1 1 1 1 1 1 1 1 1 1 1 1 1 1 1 1 1 1 1 1 1 1 1 1 1 1 1 1 1 1 1 1 1 1 1 1 1 1 1 1 0.01005891943984206 1 1 1 1 1 1 1 1 1 1 1 1 1 1 1 1 1 1 1 1 1 1 1 1 1 1 0.010107288868246019 1 1 1 1 1 1 1 1 1 1 1 0.01015804477376789 1 1 1 1 1 1 1 1 1 1 1 1 0.010152831627330871 1 0.010331418695862137 1 1 1 1 1 1 1 1 1 1 1 1 1 1 1 1 1 1 1 1 1 1 0.010483579748944054 1 1 1 1 0.010692581841513029 0.010011369659944772 1 1 1 1 1 1 1 1 1 1 1 1 1 1 1 1 0.01011500740420865 0.00965876861009312 1 1 0.0099986341008487436 0.0097309564600345996 1 0.010036700006572507 1 1 1 0.010000512378530814 0.0091658642290659044 1 1 1 0.010020307964168966 1 1 1 1 1 1 1 0.010062694203299773 1 1 1 1 1 1 1 0.0091299051052601797 1 0.0097147192178812149 1 0.0099160163523126267 1 1 1 1 1 1 1 1 1 1 1 0.009952210975558257 1 1 1 1 1 1 1 1 1 1 1 1 1 1 1 1 1 1 1 1 1 1 1 0.010107057283375818 1 1 1 1 0.0099421344056472936 0.0099199065517454228 1 1 1 1 1 1 1 1 1 0.010229819850358641 1 0.010190266037763185 1 1 1 1 1 1 1 1 1 1 1 1 1 1 1 1 0.010019615042428138 1 1 1 1 1 1 1 1 0.0099879575074377728 1 1 1 1 0.010067528952973005 1 1 1 1 1 1 0.0099272619632040579 1 1 1 1 0.010211512289943235 1 1 1 1 0.010070484068751018 1 1 1 1 1 1 1 1 1 1 1 1 1 1 1 1 1 1 1 1 1 1 1 1 1 1 1 1 1 0.0098547989528617336 1 1 1 1 1 1 1 1 1 1 1 1 1 1 1 1 1 1 1 1 1 1 1 1 1 1 1 1 1 1 1 1 1 1 1 1 1 1 1 1 1 0.0096354246338422739 1 1 1 1 1 1 1 1 1 1 1 1 1 1 1 1 1 1 1 0.010019459285757088 0.0095195956035263856 1 1 1 1 1 0.0094613873134316625 1 0.010030358828305273 1 1 1 1 1 1 1 1 1 1 1 1 1 1 1 1 1 0.010071086222518982 1 1 1 1 1 1 1 1 0.0096201945044959818 1 1 0.010041458651629712 1 1 1 1 1 1 1 1 1 0.0099365139911697722 1 1 1 1 1 0.0098072793601253691 1 1 1 0.01018339185529411 1 1 1 0.010065336983150062 1 1 0.01000027812038832 1 0.010412164350248068 1 1 1 1 1 1 1 1 1 1 1 1 1 1 1 1 1 1 1 1 1 0.010161146493702367 1 1 1 1 1 0.01041111178741121 1 0.009978339242418293 1 1 1 1 1 1 1 1 0.010112907173296187 0.0099382223774523906 1 0.0099353934336337338 1 1 0.010025549799553465 0.0099995934343516703 1 1 0.010116873276644983 1 1 1 1 1 1 1 1 1 1 1 1 1 1 1 1 1 1 1 1 1 1 1 1 1 1 1 1 1 1 1 1 1 1 1 1 1 1 1 1 1 1 1 1 1 1 1 1 1 1 1 1 1 1 1 1 1 1 1 1 1 1 1 1 1 1 1 1 1 1 1 1 1 1 1 1 1 1 1 1 1 1 1 1 1 1 1 1 1 1 0.010146788721602828 1 1 0.0098844207744949054 1 1 1 1 1 1 1 1 1 1 1 1 1 1 1 1 1 1 1 1 1 1 1 1 1 1 1 1 1 1 1 0.0098750293070431518 1 1 1 1 1 0.0098836611292060401 1 1 1 1 1 1 1 1 1 1 1 1 1 1 1 1 1 1 1 0.010019099091515686 1 1 1 1 1 1 1 1 1 1 1 1 1 1 1 1 1 1 1 1 1 1 1 1 1 1 0.0099209306151030463 1 1 1 1 1 1 1 1 0.010044447757789048 1 1 1 1 1 1 1 1 1 1 1 1 1 1 1 0.0097627108628585129 1 1 1 1 1 1 0.010000015865544975 1 1 1 0.0098251998102764724 1 1 1 1 1 0.010011284038370899 0.0099346450933938193 1 1 1 1 1 1 1 1 1 1 1 1 1 1 1 1 0.0099156164843497742 1 1 0.0098848071802473958 1 1 1 1 1 0.010122460321746227 1 1 1 1 1 1 1 1 1 1 0.010367954731875987 1 1 1 1 1 1 0.010426357504785372 1 0.010033711701958426 1 1 1 1 0.010617801267712248 1 1 1 1 1 1 1 1 1 1 1 1 1 1 1 1 1 1 1 1 1 1 1 1 1 1 1 1 1 1 0.010128935687437916 1 1 1 1 1 1 1 1 1 1 1 1 1 1 0.010401582713424387 1 1 0.009988270802122454 1 1 1 1 1 1 1 1 1 1 1 1 1 1 1 1 1 1 1 0.010473156307194595 1 1 0.010118286050979072 1 1 0.0093085497381513119 1 1 1 0.0091396024905027531 1 1 1 0.010674373665675571 1 1 1 1 0.0099965326135020866 1 1 1 1 0.0099723305456216656 1 0.010180498496799204 1 1 1 1 1 0.01051620530321579 0.01000070969005013 1 1 1 0.010011041508669872 1 1 1 0.010001253410859674 1 0.0089253810928210039 1 0.010286136463974398 1 1 0.010193859202685868 1 1 1 1 1 1 0.0097677632320935931 1 0.010186905747800186 1 1 0.0093413360983919998 1 1 1 1 1 1 1 1 1 1 1 1 1 1 1 1 1 0.010180940142561991 1 0.0099993479768649036 1 0.0092437318929559868 1 0.010295358591549793 1 1 1 0.0097432850533847627 1 1 1 1 1 1 1 0.010201668828606091 1 1 1 1 1 1 1 1 1 0.010105581974727445 1 1 1 1 1 1 1 1 1 1 1 1 1 0.0074035601781757727 1 0.0080411028991887144 1 1 1 1 1 1 1 1 1 1 0.01006792442849274 1 1 1 1 1 1 0.0084719913735655881 1 1 1 0.008807017075857803 1 0.0097283838622802699 1 0.008282134611297438 1 1 1 1 1 1 1 1 1 1 1 1 1 1 0.0087304878559606187 1 1 1 1 1 1 1 1 0.010064152574140018 1 1 1 1 1 0.010320896756029568 1 1 1 1 1 1 1 1 1 1 1 0.010874485805667416 1 1 1 1 1 1 1 1 1 1 1 1 1 1 1 1 1 1 1 1 1 1 1 1 1 1 1 0.011845256771318251 1 1 1 1 1 1 0.0095433903428069553 1 1 1 1 1 1 1 0.0093164849453216732 1 1 1 1 1 1 1 1 1 1 1 1 1 1 1 1 1 1 1 1 1 1 1 1 0.0083317765985429452 1 1 1 1 1 1 1 1 1 1 1 1 1 1 1 1 1 1 1 1 1 1 1 1 1 1 1 1 1 0.0073983068481010376 1 1 1 1 1 0.0085158732057313488 0.0090853191937362958 1 1 1 1 1 1 1 1 1 1 1 1 1 1 1 1 1 1 1 1 1 1 1 1 1 1 1 0.0098985585702395899 1 1 1 1 0.010431446665246183 1 1 0.0096973833378810621 1 1 0.0094880722884029978 1 0.010714164001986987 1 1 1 1 1 1 1 1 1 1 1 1 1 1 1 1 1 1 1 1 1 1 1 1 1 1 1 1 1 1 1 1 1 1 1 1 1 1 1 0.010141198826956297 1 1 1 1 1 1 1 1 1 1 1 1 1 1 1 1 1 1 1 1 1 0.0097552319009339677 1 1 1 1 1 1 1 1 1 1 1 1 1 1 1 1 1 1 1 1 0.0099502529045615625 1 1 1 0.0099502504798871499 1 1 1 1 1 1 0.010167393015568574 1 1 1 1 0.010504440833994599 1 1 1 1 1 0.010599511239728727 1 0.010027340692631288 1 1 1 0.0092752894103309072 1 1 1 1 1 1 1 1 1 1 0.01053978200104424 1 1 1 0.0094647631155843643 1 1 0.010600504708566334 1 0.0099686485809514294 1 0.010041855782204331 1 1 1 1 1 0.0096920352137311681 1 1 1 0.0091560850340301099 1 1 0.010004275108084486 1 1 1 0.010811761722909322 1 1 1 1 1 0.01124252258050394 1 1 1 1 1 1 1 1 1 1 1 1 1 1 1 1 1 1 1 1 1 1 1 1 1 1 1 1 1 1 1 1 1 1 1 0.0094923546505880207 1 1 1 1 1 1 1 1 1 0.0097813375679530867 1 1 1 1 1 1 1 1 1 1 1 1 1 1 1 1 1 1 1 1 1 1 1 1 1 1 1 0.010478080698473648 1 1 1 1 1 1 1 1 1 1 1 1 1 1 1 1 1 1 0.010231904321714891 1 1 1 1 1 1 1 1 1 1 0.010779459309843184 1 1 1 0.010623335016031979 1 1 1 1 0.0099181055728328367 1 1 1 1 1 0.0098567127343366298 1 1 1 1 1 1 1 1 1 1 1 0.0099385497505960294 1 1 1 1 1 0.010387786787729499 1 1 1 1 1 1 1 1 1 1 1 1 1 1 0.010554883820348613 1 1 1 1 1 1 1 1 1 1 1 1 0.0099286477135040602 1 1 0.0099662758085853204 1 1 1 1 1 0.010729776488736728 1 1 1 0.010484176950871529 1 1 1 1 1 1 1 1 1 1 1 1 1 1 1 1 1 1 1 1 1 1 1 1 0.0097088927704803568 0.010624030683793794 0.010711815405326622 1 1 0.0096134119978892579 1 0.0096910743900351006 0.0096481767798017211 1 1 0.0099826392722218733 1 1 1 1 1 1 0.0098046637550221888 1 1 1 1 1 0.010640832568802336 1 1 0.010698655437733871 1 1 0.010550761742938109 0.0099934734964435609 1 1 1 1 1 1 1 1 1 1 1 1 1 1 0.010019478644927958 1 1 1 1 1 1 1 1 0.010059788371254151 1 1 1 0.0099331604610785971 1 1 1 1 1 1 0.010095673985306555 1 1 1 1 1 1 1 1 1 1 1 1 0.010055364258980362 1 1 1 1 1 1 1 1 1 1 1 1 1 1 1 1 1 1 1 1 1 1 1 1 1 1 1 1 1 1 1 1 0.0099940479693051212 1 1 1 1 0.009859864450074151 0.0097110170826349325 1 1 1 1 0.009792018457583495 1 1 1 1 1 1 1 1 1 1 1 1 1 1 1 0.010286873567529754 1 1 1 1 1 1 1 1 1 1 1 1 1 1 1 1 1 1 1 1 1 1 0.0097821783165638835 1 1 1 0.0096119584409080621 1 1 1 1 1 1 1 1 1 0.010121969034547103 1 0.010973084308574486 1 1 1 1 1 0.011266531927975776 1 1 1 1 0.010111502320876445 1 1 1 1 1 1 1 1 1 0.0099201824997913468 1 1 1 1 0.010734096829287207 1 1 1 1 1 1 1 0.0097165052372444154 0.010072362325371604 1 1 0.010044701164327961 1 1 1 1 1 1 1 1 1 1 1 1 1 1 1 1 1 1 1 1 1 1 1 1 1 1 1 0.010006316107885618 1 1 1 1 1 1 1 1 1 1 1 1 1 1 1 1 1 1 1 1 1 1 1 1 1 1 1 1 1 1 1 1 1 1 1 1 1 1 1 1 0.010068935056546777 1 1 1 1 1 1 1 1 1 0.00998730543365022 1 1 1 0.010200035185703173 1 1 0.010237980708298684 1 0.010064257727675096 1 0.012418213814718956 1 1 1 1 1 1 1 0.01007113250680648 1 1 1 1 1 1 1 1 1 1 1 1 1 1 1 1 1 1 0.010020970347962196 1 1 1 1 1 1 1 1 1 1 1 1 1 1 1 1 1 1 1 1 1 1 1 1 1 0.010024394620211307 1 1 1 1 1 1 1 1 1 1 1 1 0.010206099860168079 1 1 1 1 1 1 1 0.010009740380134731 1 1 1 0.010246469674238042 1 1 1 0.010025413378526599 0.0099998356987681877 1 1 1 1 1 1 1 1 1 0.011290670549589505 1 1 1 1 1 1 1 1 1 1 1 0.011227117489482104 0.0099446345285764057 1 0.010250377332735552 0.010261857946322176 0.010126483959564862 1 0.012110676808711484 1 1 1 1 1 1 1 1 1 1 1 1 1 1 0.0099344788101767226 1 1 1 1 1 1 1 1 1 1 1 1 1 1 1 1 1 1 1 1 1 1 0.012659043976569485 1 1 1 1 1 1 1 1 1 1 1 1 1 0.008703440586910343 1 0.0082703267041340928 1 1 1 1 1 1 1 1 1 1 1 1 1 1 1 1 1 1 1 1 1 1 1 0.0081281723585360233 1 1 1 1 1 1 1 1 1 1 1 1 1 1 1 1 1 1 1 1 1 1 1 1 1 1 1 1 0.0097410191154287413 1 1 1 1 1 1 1 1 1 1 1 1 1 1 1 1 0.0092388921584568 1 1 1 1 1 1 1 1 1 1 1 1 1 1 1 1 1 1 1 1 1 1 1 1 1 1 0.010200494647917516 1 1 1 1 1 1 1 1 0.010552655580202134 1 1 0.010837994266768763 1 1 0.01006572327403606 1 1 1 1 1 1 1 1 1 0.010033204733779359 1 1 1 1 1 1 1 1 1 1 0.010074649862161555 1 1 1 1 0.010294577147560961 0.0098828480951508764 1 1 1 1 1 1 1 0.0094948443067049276 1 0.008896860115222973 1 1 1 1 1 0.0094503035322364114 0.0098884622345121465 1 0.010468821188967562 1 1 1 0.00924436230757553 1 1 0.0088915576614888928 0.0096363846648635232 1 0.0092049575133271236 1 1 1 1 1 0.010927086250919635 1 1 0.010563220571084435 1 1 0.0099107278478582327 0.0093070429120598441 1 1 1 1 0.0083053683925379748 1 0.0099980650114653586 1 1 1 1 1 1 1 0.011633406332346694 0.010000972463058904 1 1 1 1 1 1 1 1 0.0099303508010367744 0.010905188074468154 1 0.010064308976107871 0.010511201047157605 0.009681440782053902 1 0.010429870415224154 1 1 1 1 1 1 1 1 1 1 1 1 1 1 0.0099801352949792903 1 1 0.0099976165151516808 1 1 1 1 1 1 1 1 1 1 1 1 1 1 1 1 1 1 1 1 1 1 1 1 1 1 1 1 1 1 1 1 1 1 1 1 1 1 1 1 1 1 1 1 1 1 1 1 1 1 1 1 1 1 1 1 1 1 1 1 0.010398188888274075 0.010873120208118973 1 1 1 1 1 1 1 1 1 1 1 1 1 1 1 1 1 1 1 1 1 1 1 1 1 1 1 1 1 1 1 1 1 1 1 1 1 1 1 1 1 1 1 1 1 1 1 1 1 1 1 1 1 1 1 1 1 1 1 1 1 1 1 1 0.0098721616976558228 1 1 1 1 1 1 1 1 1 0.010054388320932483 1 1 1 0.0096403185032285805 0.0097834565574691865 1 1 1 1 1 1 1 1 1 0.010150197194335693 1 0.0096380500440671809 1 1 0.010881350741183177 0.01000107456383512 1 1 1 1 1 0.010140935925039798 0.010180200797430004 1 1 1 1 0.0096860420866548697 1 1 1 0.0096808287921591775 1 0.011199547835030375 1 1 1 1 0.011507164814771759 1 1 1 1 0.010074829683378084 1 1 0.010032627246580932 1 1 1 1 1 1 0.010122303459838852 1 1 1 1 1 1 1 1 1 0.010039915366251415 1 1 1 1 0.010098409805775907 1 1 1 1 1 1 1 1 1 1 1 1 1 1 1 1 1 1 1 1 1 1 1 1 1 1 1 1 1 1 1 1 1 1 1 1 1 0.010003072286585171 1 1 1 1 0.0091280865208991264 1 1 0.012813639077685566 1 0.010024979757428207 1 1 0.0094183377191142358 1 1 1 0.0087212198484466139 1 1 1 0.010688810952296724 1 1 1 1 1 1 1 1 1 1 1 0.010304779450056199 1 1 1 1 1 1 1 1 1 0.010877736420508908 1 1 1 1 1 0.010429922870705807 1 1 1 1 1 0.010145663778921383 1 1 1 1 1 0.011375523991782162 1 1 0.010001468675865696 0.0089597290643064695 1 0.0098462775537700095 1 0.010915084029683941 1 0.010377306340634282 1 1 1 1 1 1 1 1 1 1 1 0.0096168087390504121 1 1 1 1 1 1 1 1 0.010028597541240362 1 1 1 1 1 1 1 0.010019585081829676 0.0096091490331444047 1 1 0.010098240405796459 1 0.0094402110689910702 1 1 1 1 1 1 0.0096347816276317333 1 1 1 1 1 1 1 1 1 1 1 1 1 0.0099699125139611662 1 1 1 1 1 1 0.0098587283501599295 1 1 1 1 1 1 1 1 1 1 1 1 1 1 1 1 1 1 1 1 1 1 1 1 1 1 1 1 1 0.010012036657078239 0.010023607532454203 1 1 1 0.010055046714515214 1 1 1 0.010031439182061012 1 1 1 1 1 1 1 1 0.010065696847605169 1 1 1 1 1 1 1 1 1 1 1 1 1 1 1 1 1 1 1 1 1 1 1 1 1 1 1 1 1 1 0.0099412396562144276 1 1 1 1 1 1 1 1 1 1 1 1 1 1 1 1 1 1 1 1 1 1 0.0098903262650413999 1 1 1 1 0.010029595115656311 1 1 1 1 1 1 1 1 1 1 1 1 1 1 1 1 1 1 1 1 1 1 1 1 1 1 1 1 0.0098657590546960307 1 0.010207390618595137 1 0.010153136902991404 1 1 1 1 1 1 1 1 1 1 1 1 1 1 1 1 1 1 1 1 1 1 1 1 0.0098166284674754065 1 1 1 1 1 1 1 1 1 1 1 1 0.0094917890893474813 1 1 1 1 1 1 1 1 1 1 1 1 1 1 1 1 1 0.0067713895324504284 0.010094168270251795 1 1 1 1 1 1 1 1 1 1 1 0.0094122818551069659 0.0099274797073349227 1 1 0.0096718927536704278 1 1 1 0.0094280529825668466 0.0099963458096174514 1 1 1 0.010286828558965691 0.010017656448301304 1 1 0.0098558221743364656 1 1 0.009353855590923485 1 1 0.010786440483876759 1 1 1 1 0.010001125497509901 1 1 1 0.010070011013214758 1 0.0099928668190540568 1 1 1 1 1 1 1 1 1 1 1 1 1 1 1 1 1 1 1 0.010016116955615386 1 1 1 1 1 1 1 1 1 1 1 1 1 0.0091106691606008469 1 0.010108675420877167 1 1 1 1 1 0.0084979538975456636 1 0.010231441977848994 1 1 1 1 1 1 1 1 1 1 1 1 1 1 1 1 1 1 1 0.0093430306136096878 1 0.010186263871605275 1 0.0092789997863048802 1 1 0.010091094170884314 1 0.010390830073413734 1 0.009957327937796967 1 1 0.008936738841711209 1 1 1 1 1 0.010164675076401241 1 1 1 1 0.010509014212775681 1 1 0.010277358003353601 1 1 0.011101162132354778 1 0.010000826723870053 0.0097262951201398714 1 0.0094766272264562371 1 1 0.0099214340631942517 1 0.0098144089373389601 1 1 1 0.010627041968250796 0.0098333597180357592 1 1 0.010810984551552624 0.0099585225408798696 1 1 0.0096350510267499499 1 1 1 1 1 1 1 1 1 1 0.0097757569585347325 1 1 1 1 1 1 1 1 1 1 1 1 1 1 1 0.009997891156883109 1 1 1 1 1 0.01068106858659712 1 1 0.010050324128015983 0.01087720984140875 0.010000277421754534 0.010040020695862004 1 0.011335779114386111 1 1 0.011162700440239346 1 1 0.010974737997265695 1 1 0.0099959063626128015 1 1 1 0.010802215145010246 1 1 1 1 0.0099072498814797814 1 1 1 1 1 1 0.0099785317188072573 1 1 1 1 1 1 1 1 1 1 1 1 1 0.010000008133764464 1 1 0.0099214860249249425 1 1 1 1 1 1 1 0.010974732403892367 1 1 1 1 0.0099429627366238102 1 1 1 1 1 1 1 0.010163210484532673 1 1 0.0099327677426000755 1 1 1 0.0099832893086996832 1 1 1 0.0098101333962406136 1 1 1 1 1 1 1 1 1 1 1 1 1 1 1 1 1 1 1 1 1 1 1 1 1 1 1 1 1 1 1 1 1 1 1 1 1 1 1 1 0.009924274460039793 1 1 1 1 1 1 1 1 0.010069445503442883 1 1 1 1 1 0.0082567015818414708 1 1 1 0.009269549469809759 0.0096925902906229155 1 1 0.010004177541745601 1 1 0.010006415366794979 1 1 1 1 1 0.0095063730130173062 1 1 1 1 1 0.0097876902819404952 1 1 0.0090400089961993751 1 0.010003926250989229 1 1 1 1 0.011315691261170945 1 1 1 1 1 1 0.010961997299760412 0.0099996189092952242 1 0.00999014927485096 1 1 1 1 1 1 1 0.01019220395744206 1 0.0085300132965683024 1 1 1 1 1 0.010688434022382395 1 1 1 0.011015665810754348 1 1 1 1 1 0.011341385506320138 1 1 0.0098995519839612488 1 0.0094644906835450928 0.010054751226253631 1 1 1 1 0.010625454341804695 0.010745329115516665 1 1 1 1 0.0099373325999832819 1 1 0.0099871574762061596 0.010026582682805516 1 1 1 0.01164722837991365 1 0.009606584060890563 1 1 1 1 1 0.0099748895087676051 1 1 1 1 1 1 0.0095002633837186958 1 0.010368322875963917 1 0.009547895474544224 0.010690143574129453 0.0098389615779420816 1 1 0.010221604773343232 0.010078993611027365 1 1 1 1 1 1 1 1 0.010021517823918821 1 0.009904625587350939 0.01000874867178822 1 0.010189603488846313 0.010343071268508324 1 0.010659809156856936 0.0099157113403400138 1 0.009487831011540734 1 1 1 1 1 1 1 1 1 1 0.01116463629341017 1 1 0.0099997939539061987 1 1 1 1 0.01076054703929059 1 0.010000746008187752 1 1 1 0.010974810753921229 1 0.0096656871204851003 0.010001125660370556 0.01104251209988657 1 1 1 1 1 1 0.010451217505848331 1 1 1 1 0.01000047569928857 1 1 1 0.0093495544116317716 1 1 0.0099096570686771791 1 1 1 1 1 1 1 1 1 1 1 1 0.010540511924937714 1 1 1 0.010075847270061257 1 1 1 1 1 1 1 1 1 1 1 1 1 1 0.01014768168902669 1 1 1 1 1 0.010213468528113417 1 1 1 1 1 1 1 1 1 1 1 1 1 1 1 1 1 1 1 1 1 1 1 1 1 1 1 0.010055378886925724 1 0.01018479774045262 1 1 1 1 0.011499671382430337 1 1 1 1 1 1 1 1 1 1 1 1 1 0.012374716629148522 1 1 0.0096402444188734698 1 1 1 1 1 1 1 1 0.011989249464198468 1 1 1 1 1 1 1 0.0098703232103995921 1 1 1 1 1 1 1 1 1 1 1 1 1 1 1 1 1 1 1 1 1 1 1 0.012253269165628399 0.010003549877970714 1 1 1 1 1 1 1 1 0.012114420825042028 1 1 1 1 0.010163115191556221 0.010264019602907074 1 1 1 1 1 1 1 1 0.011938822667818424 1 0.011957683719977904 1 1 1 1 1 1 1 1 0.010096906154526663 1 1 1 1 1 1 1 1 1 1 1 1 1 1 1 1 0.010027150380784467 1 1 1 0.010364558008092297 1 1 1 1 1 1 1 1 1 0.0099868596896863348 1 1 1 1 1 1 1 0.0099766700496077675 1 1 1 1 1 0.0099462237448831297 1 1 1 0.010013980047759028 1 0.0098729615785434054 1 1 1 1 1 1 1 1 1 1 0.010001129188141776 1 1 1 0.010142436448610338 0.0094796418936988168 1 1 1 1 0.0099714546434349627 1 1 1 1 1 0.010783876367040051 0.01004041192552288 0.0099142788022151783 1 1 1 0.010508496081730542 1 1 0.012280312735931101 0.010532958837865189 1 1 1 1 1 1 0.010421999556605917 1 0.010487119453179195 1 1 1 1 1 0.0099327540348927018 1 1 0.010054837211134222 1 1 1 1 1 0.010102740896945066 1 1 1 1 1 1 1 0.0098324771061729464 1 1 1 1 1 1 1 0.0097930012861622076 1 1 1 0.010413220508346321 1 1 1 0.010135783693342951 1 1 1 1 1 1 1 1 1 1 1 1 1 0.0098413632367165514 1 1 0.0092733902454979356 1 1 1 0.0092580409249933895 1 0.009321425290948834 1 1 1 1 1 0.010156361689569529 0.0097659169521057271 1 1 1 0.010169500661660358 1 1 1 1 1 1 1 1 1 0.010020431752963549 0.0099044772103571259 1 1 0.010077642651581051 1 1 1 0.0099331091747244561 1 1 1 0.010589783004188344 1 1 1 0.01046818803556927 1 1 1 1 1 0.0095998102098375799 1 1 1 1 1 1 1 0.009861541887974461 1 1 1 1 1 0.010045428594334053 1 1 1 1 1 1 1 1 1 1 0.010270864098066953 1 1 0.010083650723738102 1 1 1 0.011513824477911778 1 1 0.0072614331533436844 1 1 1 1 1 1 1 1 1 1 0.010021692053709431 1 1 0.0099818912909097248 1 1 1 1 1 1 1 1 0.010070746866031309 1 1 0.010025318271697259 1 1 1 1 1 1 1 1 0.0096762663047070176 1 1 0.0097752441607298762 1 1 1 1 1 1 0.0099074629908269193 1 1 1 1 1 1 1 1 1 1 1 1 0.0099910967619427637 1 1 1 1 1 1 1 1 1 0.010478887009522852 1 1 1 1 1 1 0.010424208232069933 1 1 1 1 0.011596763603568018 1 1 1 0.0097492280465473324 1 1 1 1 0.0096815400529051323 1 1 1 1 0.0098909366809680557 1 1 1 1 1 1 0.012335106382431259 1 0.012250707541239948 1 1 1 1 0.0099544976990619035 1 1 1 1 1 1 1 1 1 1 1 1 0.012451465281052794 1 1 1 1 1 1 1 0.01001075748435161 1 1 1 0.010067628123194779 1 1 1 1 1 1 1 1 1 1 0.0097755882314838494 1 0.012588910711580215 1 0.0093324459900983349 1 1 1 1 1 1 0.010465073667700124 1 1 1 0.010326752715154807 1 1 1 1 1 0.0096091847366451318 1 1 1 1 1 1 1 1 1 1 1 1 1 0.0088556582075258582 1 1 1 1 1 0.0113760237383768 1 1 1 1 1 0.009792098901151295 1 1 0.010497587823011849 0.010674457594722941 1 1 0.0092499152019954803 1 1 0.010733082336898198 1 1 1 1 1 0.010275314089407638 1 1 1 1 1 0.010532836026408161 1 1 0.0097975320494856355 1 1 1 1 1 1 0.0099470931544841483 1 1 1 1 1 1 1 1 1 1 1 0.0098147946667289793 1 1 0.0094108759232487699 1 1 1 1 1 1 1 1 1 0.0089800039502345198 0.011135162737423761 1 1 1 0.010469119397010822 1 1 1 1 0.010459590737395934 1 1 1 1 1 1 1 1 1 0.0099883436832563614 1 0.0092995667186211144 1 1 0.0099572359772351123 1 1 1 1 1 0.010408553336299524 1 1 1 1 1 1 0.010516352204032468 1 1 1 0.010024813032494879 1 1 0.0094268661707123547 1 0.00972739370392341 1 1 0.010254636552190359 1 1 1 1 1 1 1 1 0.010208877302682034 1 1 1 1 1 1 1 1 0.010078576507362817 1 0.010115329595090131 1 1 1 0.01011753078205537 1 1 1 0.010041457837363736 1 1 1 1 1 1 1 1 1 1 1 0.010268812810620507 1 1 1 1 1 1 1 0.010106908809254984 1 1 1 1 1 1 1 0.0099835600170939849 1 1 0.0098784774803421169 1 1 1 1 1 1 1 1 1 1 1 1 1 0.010083225723672372 1 1 0.010030668382976088 1 1 1 1 0.010089052702139598 1 1 0.0099999571482638251 1 0.010198950835402764 1 1 1 1 1 1 1 1 1 1 1 1 1 1 1 1 1 1 1 1 1 1 1 1 1 1 1 1 1 1 1 1 1 1 1 0.0098675887611338262 1 1 1 1 1 0.010071068705357738 1 1 1 1 1 0.010147422258127103 1 1 1 1 1 1 1 1 1 1 1 1 1 1 1 0.0098871059641642191 1 1 1 0.0094586424674183728 1 1 1 1 1 1 1 1 1 1 0.0093282307731035775 1 1 1 1 0.009984650536190999 1 1 1 1 1 1 1 0.010127728304993368 1 1 1 1 1 1 1 1 1 1 1 1 1 1 1 0.010010224156379609 1 0.0099548670938603839 1 1 1 0.01006159890860361 1 1 1 1 1 0.0099702165576693869 0.0098291730949492621 1 1 1 1 1 1 1 1 1 1 1 1 1 1 1 1 1 1 1 1 1 1 1 1 1 1 1 1 1 1 1 1 1 1 1 1 1 0.0095218242568007837 1 1 1 1 1 1 1 1 1 1 1 1 0.010005470644840312 1 1 1 1 0.0098649918664802869 1 1 1 1 1 1 0.0095706029525919958 1 1 1 0.012000504242688496 1 1 1 1 0.011450162713659111 1 1 1 0.0095518546065016616 1 1 0.011620802210392711 1 1 0.010026398600186032 1 1 0.010518077813324669 1 0.010447891017297463 0.010028607676818801 1 1 1 1 0.0099807201914559086 1 1 1 1 1 1 1 0.0099685563360192887 1 1 1 1 1 1 1 0.011016879317393565 1 1 1 1 0.010536814024616828 1 1 0.010753983917148897 1 1 1 1 1 1 1 0.0099562060823195023 1 0.0097118435460418658 1 1 0.0098968595239933843 1 1 1 1 1 1 0.0098903401393742076 1 1 1 1 1 0.0099324829438440301 1 0.0097318333773147251 1 0.010553220967736275 1 0.011229044782211249 1 1 1 1 1 0.010099737986599813 1 1 1 1 1 1 1 1 1 1 1 1 1 1 1 1 1 0.0069465200016050055 1 1 1 0.010269827143378634 1 1 1 0.0097463348123204736 1 1 1 1 1 1 0.010135123286144727 1 1 1 1 1 0.007041169158821324 1 1 1 1 0.0071953241679515653 1 1 1 1 1 1 1 1 1 1 1 1 1 1 0.0092555644833128559 1 1 1 1 1 1 1 0.008810857141616911 1 1 1 1 0.010177233532251338 1 1 0.01050816046565739 1 1 0.010194276303014829 0.010188245976120655 1 1 1 1 1 1 1 1 1 1 0.0087084645262658598 1 0.011042621926387041 1 1 1 1 1 0.010950752559833707 1 1 1 1 1 1 1 1 1 1 1 1 1 1 1 0.0091715791823871254 1 1 0.010039384948977371 1 0.010523098759109027 0.010007053918628005 1 1 1 1 1 1 1 1 1 0.0096127549801681752 1 1 1 0.0089365673037480574 1 1 1 1 1 0.0099833467009887572 1 1 1 1 1 1 0.0099862465609192961 1 1 0.0098510372068598504 1 1 0.0099820715718308781 1 1 1 1 1 1 0.0075590720043044119 1 1 1 1 0.010089043578377626 0.0096188712692199113 1 1 1 1 1 1 1 1 1 1 1 1 1 1 1 1 1 1 1 1 1 1 1 1 1 1 1 1 1 1 1 1 1 1 1 1 1 1 1 1 0.0089526171690932094 1 1 1 1 1 1 0.0089261085609490688 1 1 1 1 1 1 1 1 1 1 1 1 1 1 0.0085854072294158819 1 1 1 0.0095923626610757706 1 0.0095234187444199654 1 1 1 1 1 1 1 1 1 1 1 1 1 1 1 1 1 1 1 1 0.0098119619130010056 1 1 1 0.0095169867312746639 1 1 0.010366105102747887 1 1 1 1 1 1 1 1 1 1 1 1 1 1 1 1 0.01004452336505918 1 1 1 0.010579986170165609 1 1 1 1 1 0.010543346972677335 1 1 1 1 1 1 1 1 1 1 1 1 1 1 0.010511896945117363 1 1 1 0.010168621462289539 1 1 1 1 1 1 1 1 1 0.010470969887162514 1 1 1 1 1 1 1 0.0077596967167699185 1 1 1 0.010367556432169559 0.010983439274177739 0.0081943774151732873 1 1 1 1 1 1 1 1 1 1 1 1 1 1 1 1 1 1 1 1 1 1 1 1 1 1 1 1 1 1 1 1 1 0.0099809575129802784 0.0099833182831485061 1 1 0.0099775818232683729 1 1 1 1 0.009743730345952141 1 0.0098088642926747547 1 1 1 0.009940540575965124 1 1 1 1 1 1 1 0.01011567747656095 1 1 1 1 0.010067525778213788 1 1 0.010022668563785558 1 1 1 1 1 1 0.010170126493148187 1 1 1 1 0.0098309643401324372 1 1 0.010074855646743455 1 1 1 1 1 1 1 0.0094802777331888799 0.0097752529149152233 1 1 1 1 1 1 1 1 1 1 0.010004723433225473 1 1 1 0.010647165608377768 1 1 1 1 1 0.0091768652924212046 1 1 1 0.010006869165550204 0.0099123994042852829 0.0093068134998905809 1 1 1 1 0.0098437663992075319 1 1 1 1 1 1 1 1 1 0.010005396045079069 1 1 1 0.010092505091446952 1 1 1 1 1 1 1 1 1 1 1 1 1 0.010024908365043448 1 1 1 1 1 1 1 1 1 1 1 1 1 0.0079715518093600862 1 1 1 1 0.0097343869283953686 1 1 1 1 1 1 1 1 1 1 1 1 1 1 1 0.0085993217431951947 0.010049018573488111 1 1 1 1 0.010016596074071928 1 1 1 1 1 0.010067082850511461 1 1 1 1 1 1 1 1 1 1 1 1 1 1 1 0.0097411291762425269 1 1 1 0.0092118006842836619 1 1 1 0.009997504832232983 1 1 1 1 1 1 1 1 1 0.0096029043035450283 1 1 1 1 1 1 1 1 1 1 1 1 1 1 1 1 1 1 1 1 1 1 1 1 1 1 0.0095345962783855605 1 1 1 0.009856556091507521 1 1 0.010147858533275897 1 0.0089803090566185038 1 1 1 1 1 1 1 1 1 1 1 1 1 1 0.010393714887959232 1 1 1 1 0.010330166088833366 1 1 1 1 1 1 1 1 1 1 1 0.0089415495376351222 1 1 1 1 1 1 1 1 1 1 1 1 1 0.010316049687130811 1 1 1 1 0.010015439645663999 1 1 1 1 1 1 0.010014523106079183 1 1 1 1 1 1 1 1 1 1 1 0.010009232916091345 1 1 1 1 1 1 1 1 1 1 1 0.010013229251829629 1 0.01002433117967646 1 1 1 1 1 1 1 1 1 1 1 1 1 1 1 1 1 1 1 1 1 1 0.010042041890584099 1 1 1 1 0.010042036589697351 1 1 1 1 1 1 1 1 1 0.0097127551532264003 0.010164398204297286 0.010001998364458446 1 1 1 1 1 1 1 1 1 1 1 0.0099936365347847011 1 1 1 1 0.010056484849231877 1 1 1 1 0.0099006859014225037 1 1 1 1 0.010022449750794707 1 1 1 1 1 1 1 1 0.0099737612406512639 1 1 1 1 1 1 1 1 0.010001876244842492 0.010010726212762387 1 1 1 1 1 1 1 0.01008430392804912 1 1 1 0.010102828574044225 1 1 1 1 1 1 1 0.010008849967919897 1 1 1 1 1 1 1 1 1 1 1 1 1 1 1 1 1 1 1 1 0.0077801984506063468 1 1 1 1 1 1 1 1 1 1 1 0.010445745637797113 1 1 1 1 0.009994560406808144 1 1 1 1 1 1 1 1 1 1 1 0.01066324308862036 1 1 1 1 1 1 1 1 0.0092055577744153995 1 1 1 1 1 0.010059586061477808 1 1 1 1 1 1 1 1 1 1 0.0086207577421426249 0.0098668895129550467 0.010059989313352334 1 1 0.0099893913672995053 1 1 1 0.008227878503444655 1 1 1 1 1 1 1 1 1 1 1 1 1 1 1 1 1 1 1 1 1 1 1 1 1 1 1 0.0099521851978381891 1 1 1 1 0.0086892785985566278 1 1 1 1 1 0.0099065377423517564 1 1 0.0099543525445135676 1 1 1 1 1 0.0096847343181677755 1 0.0091428882837663872 1 1 1 1 1 1 1 1 1 1 1 1 1 1 1 1 1 1 1 1 1 1 1 1 1 0.0099987768099388669 1 0.010000351558762749 1 1 1 1 1 1 1 1 0.010195114009013474 1 1 1 1 0.010066803797421045 1 1 1 1 1 0.010009907049884286 1 0.0099984442285752043 1 1 1 0.0099873520033879164 1 0.0090294969527022293 1 1 1 0.010062868057930538 1 1 1 1 1 0.0098770866512037439 1 1 1 1 1 1 1 1 1 1 1 1 1 1 1 1 1 0.010005986096879579 1 1 1 1 1 0.0096846792671024407 1 1 1 1 0.0099835645765765455 1 1 1 1 1 0.010000030932251679 1 1 1 1 1 0.010015343928906413 1 1 1 1 1 1 1 1 0.0099822893935791433 1 1 0.0084974786513562859 1 1 1 1 1 1 1 1 1 1 1 1 1 1 0.0084309468454456266 1 1 1 1 1 0.01028594695189693 1 1 0.0075044791021845886 1 1 1 1 1 1 1 1 1 1 0.010017571005616115 1 1 1 1 1 1 1 1 1 0.01124565375892719 1 1 1 1 1 1 1 1 1 1 1 0.01112566182764726 1 1 1 1 1 1 1 1 1 1 1 1 1 1 1 1 1 1 1 1 1 1 1 1 1 1 1 1 1 1 1 1 1 1 0.010065074616048659 1 1 1 1 1 1 1 1 1 1 1 1 1 1 1 1 1 1 0.011712855818663544 1 0.010054487566085532 1 1 1 1 1 1 0.011133923635221163 1 1 1 0.01041009647018914 1 1 1 1 1 1 1 1 1 1 1 1 0.010045009464682907 1 1 1 1 0.010156161651192609 1 1 1 1 1 1 1 1 0.0099470082291017066 1 1 0.010651025936504147 1 0.010128566498944802 0.010934887797305861 1 1 1 1 1 0.010339603746748142 1 1 1 0.010835542138757658 1 1 0.010046188973360203 1 1 0.009939835501102022 1 1 1 1 1 1 1 1 1 1 1 1 1 1 1 1 0.0099759168430377156 1 1 1 1 1 1 1 1 0.010117269473714049 1 1 1 1 1 1 1 1 1 1 0.0098233849411861439 1 1 1 1 1 1 1 1 1 0.0099672010310820729 1 1 0.0099609943015094154 1 1 1 1 1 1 1 1 1 1 1 1 1 0.010350637669260603 1 1 1 0.0098245017990759992 0.010005945397486643 1 1 0.010206292473465753 1 1 1 0.0099963393053927128 0.010289972563577235 1 1 1 0.0094961122640700672 1 1 1 1 1 1 1 1 1 1 1 1 1 1 1 1 1 1 1 1 0.0099550688473851665 1 1 1 1 0.0099386334239617118 1 1 1 1 1 1 1 1 1 1 1 1 1 1 1 1 1 1 1 1 1 1 1 1 1 1 1 1 1 1 1 1 1 1 1 1 1 1 1 1 1 1 1 1 0.010074544856073637 1 1 1 1 1 1 1 1 1 1 1 1 1 1 1 0.010206814238495451 0.010326380059530082 1 1 0.0093127423055323205 1 1 0.0097947160291968725 0.01000894009244456 1 1 1 1 1 1 1 1 1 1 1 1 1 1 1 1 1 1 1 1 1 1 1 0.0091278663790422924 1 1 0.0089516322440506158 1 1 1 0.0099951243129666086 1 1 1 1 1 1 1 1 1 1 0.0088997351841808934 1 0.010008049714951365 1 1 1 1 1 1 1 1 1 0.0099159776611990064 1 1 1 1 1 1 1 1 1 1 1 0.0087985673356339895 1 1 1 1 1 1 0.0099622458241244768 1 1 1 1 1 1 1 1 1 0.0088186368734433015 1 1 1 1 1 0.0097197790651532244 1 0.0099983681690031662 1 1 1 1 0.0091850587498112889 1 0.0098001800056726016 1 0.0087210031012564405 0.010236138841723891 1 1 1 1 1 1 1 1 1 1 1 1 1 1 1 1 1 0.010048219800321416 1 1 1 0.010022456626126221 1 1 0.010215166536593403 1 1 1 1 1 1 1 0.0099770437915128775 1 0.0086068872022887523 1 1 1 1 0.009940899652041554 1 1 1 0.0091524295909344473 1 1 1 0.0098853898739161249 0.009926163817825167 1 1 1 1 1 1 1 1 0.0099559850924602605 1 0.010167909255859239 0.0092433416489062295 1 0.0092353344571029332 1 1 1 1 1 0.010003838932113759 1 1 1 1 1 1 1 1 1 1 1 1 1 1 1 1 1 1 1 0.010064777129132403 1 1 1 1 1 1 1 1 1 1 1 1 0.0099937266911100647 1 1 1 1 1 1 1 1 1 1 1 1 1 1 1 1 1 0.0099165062553021807 1 1 1 1 0.0099845247801662127 1 1 1 1 1 1 0.0099911966404307474 1 1 1 1 1 1 1 0.0099945196580225552 1 1 1 0.0097785637398264576 1 0.0099890862420360278 1 1 0.009681051166852717 1 0.0095997561775214221 1 1 1 1 0.010459414331517987 1 1 1 0.01002838098817015 1 1 0.01005861803228611 1 1 1 1 1 1 1 1 1 1 1 1 0.01003023704411596 1 1 1 1 1 1 1 1 1 1 1 1 1 0.010790602928580601 1 0.010002219812147951 1 1 1 0.010253322602096096 0.010352534505113517 1 1 1 0.010478351439605297 1 1 1 0.00999079621323418 1 1 1 1 1 1 1 1 1 1 1 1 1 1 1 1 1 1 1 1 1 1 1 1 1 1 1 1 1 1 1 1 0.010091370287183075 1 1 1 1 1 0.0096300980166214821 1 1 1 1 0.010002382911118907 1 1 0.0084357157401008624 1 0.010952768497301625 1 1 1 1 1 1 1 1 1 1 0.0099172277711086221 0.0098646509594566157 1 1 1 0.010006004988812099 1 1 1 1 1 1 1 0.010433310568741258 0.010929327448130726 1 1 1 1 0.010264232545424582 1 1 1 1 1 1 1 1 1 1 1 1 0.009930289337578951 0.010806568897686502 1 1 1 0.010645028625232611 1 0.0099649764654945582 1 1 1 0.010672288539375028 1 1 0.010774316058215903 1 1 0.01059625876994036 0.010017422682853492 1 1 1 1 1 0.0098586557157868127 1 1 1 1 1 1 1 1 1 1 1 1 0.0099871678529831146 1 1 1 1 1 1 1 1 1 1 1 1 1 1 1 1 1 1 1 1 1 1 1 1 1 1 1 0.0094733972592791656 0.0097441782383722413 1 1 1 1 1 1 0.0092453712152159619 1 1 1 1 1 0.010003945250224173 1 1 1 1 1 1 1 1 1 1 1 1 1 1 1 1 1 1 1 1 0.010345983646616657 1 0.0093377077280678619 1 1 0.011357488092536384 1 1 0.0094101083688241157 1 0.0090475642384621607 1 0.010831811342698278 1 1 1 1 1 0.010001023779604483 1 1 0.0099766819884984093 1 0.010819983937847118 1 1 1 1 1 1 1 0.010591109378216265 1 1 0.010980506218636056 1 1 0.010839200126676159 0.010487546147475713 1 1 0.010058643535553616 1 1 1 0.0099458387652873598 0.0099976598204962984 1 1 1 1 1 1 1 1 1 1 1 1 0.010116924923692478 0.010262128687131621 1 0.010930534369405292 1 1 1 1 0.010643730391122451 0.010341877877808967 1 1 1 0.010096609527561706 1 0.0095022293603386696 1 0.010036993478128576 1 0.010098735837916444 1 1 1 0.011285831501431148 1 1 0.008499764357055864 1 0.010017767589946148 1 1 1 0.011873642534898948 1 1 1 1 1 1 1 1 1 1 1 1 1 1 1 1 1 0.010542578929051822 1 0.010756547849405069 0.010464321660047904 1 0.010917445731967181 1 0.010002938272846439 1 1 0.010167510565850975 0.011409007855694006 1 1 1 1 1 1 0.010494325614702904 1 0.010294307011807523 1 0.01091444917436046 0.0099671826749907193 1 1 0.010080068146904797 1 1 1 1 1 1 1 1 1 1 1 1 1 1 1 1 1 1 1 1 1 1 1 1 1 1 1 1 1 1 1 1 1 1 1 0.0099750628354208747 1 1 1 1 1 1 1 0.0095390684420805592 1 1 1 1 0.0098982583581996852 0.010016949137492634 0.010449527214049691 1 1 0.0099950385916273959 1 1 0.010477149768901559 1 1 1 1 1 0.0096677923755820495 1 1 0.0096605769465955126 1 1 0.01135656605309255 1 0.011665405015755314 1 0.010004682756446909 1 1 1 1 1 1 1 1 0.010544925802933768 0.010851511162473369 1 1 0.0096598587240038867 1 1 1 0.011129558392875081 1 0.0096541297077417394 0.0099784218354641817 1 0.0097217788883131179 1 0.0096846782546311221 1 1 1 0.010849616194161277 1 1 1 1 0.010161385868027492 1 0.011032731413848694 1 1 1 1 0.010945799524789118 1 1 1 1 1 1 1 1 1 1 1 1 1 0.010045948528073298 1 1 1 1 1 1 0.009947541364557444 1 1 1 1 1 1 1 1 1 1 1 1 1 1 1 1 1 1 1 1 1 1 1 1 1 1 1 1 1 1 1 1 1 1 1 1 0.011169917262597636 1 1 0.010003357618990124 0.010000257804074531 1 1 0.010685225942234988 0.010918790946544864 1 1 0.010461810717110546 1 0.010738114956255668 1 1 1 1 0.0099916745731395782 1 1 1 1 1 1 0.011690980501804371 1 1 1 1 1 0.01117792006724859 1 0.011497297826813328 1 1 1 1 1 1 1 1 0.010217463575448744 1 0.010225567663581089 1 1 0.010099370705135011 1 1 1 0.010053550054120697 1 1 1 1 1 1 1 1 1 1 1 1 0.010193516324262656 0.010151092616210314 1 1 1 0.010327421500267227 1 0.010009258481944687 1 1 1 1 1 1 1 0.010150191945664343 0.010125007026544577 1 1 1 1 1 1 1 1 1 1 1 1 1 1 1 0.010115484150076567 1 1 0.010397900753509898 0.010171570242735788 1 1 1 1 0.010000836047642299 1 1 1 1 1 0.010189808994739027 1 1 0.010349627074459172 0.010140243825921042 1 1 1 0.010141548341116162 0.010430220201255702 1 1 1 0.010037226957136739 1 1 1 1 1 1 1 1 1 0.010308924572540781 1 1 0.010055699566283162 1 1 1 1 1 1 0.009997508496126576 1 1 1 0.0099966300564172765 1 1 1 1 1 1 1 1 1 1 1 1 1 0.010116186546210524 1 1 1 1 1 1 1 1 1 1 1 1 0.0099576366471328687 1 1 1 1 1 1 1 1 1 1 1 1 1 1 1 1 1 1 1 1 1 1 0.0099779214769678271 1 1 1 0.0098783921770434387 0.010000011908649268 0.010033301831801088 1 1 0.0099498794846547677 1 1 0.0099044468957449738 0.009924433394158565 1 1 1 1 1 1 1 1 0.010001353918264394 1 0.0099834886369208568 1 1 1 1 1 1 1 1 1 1 1 1 1 1 1 1 0.0095267426628482116 1 1 1 1 0.0098248291260104419 1 1 0.009917143794734809 1 1 1 1 1 1 1 1 0.0099792206098816318 0.0099713946547594877 1 1 1 1 1 1 1 1 1 1 1 1 1 1 1 1 1 1 1 1 1 1 1 0.010181159962315731 1 1 0.010007229934556112 1 1 1 1 1 1 1 0.0098836805642444521 0.010553191060036972 1 1 1 1 1 1 1 1 1 1 1 1 1 1 1 1 0.01087912810427877 1 0.0099985696390110131 1 0.0092125923161074565 1 1 1 1 1 0.01116570548908094 1 1 1 1 0.011098116709443957 1 0.0098678373580303042 1 1 1 1 1 1 1 1 1 1 1 1 1 1 1 1 1 1 1 1 1 0.010952086986306502 1 1 1 1 1 1 1 1 1 0.010774178958892306 1 1 1 1 1 0.010091266617002666 1 1 1 1 1 1 1 1 1 1 1 1 1 1 1 1 0.010185376645414555 1 1 1 1 1 1 0.010490485280736699 1 1 1 1 1 0.010090607239223625 0.0099027483814254184 1 1 1 1 1 1 1 0.010125645440372007 1 1 1 1 0.009981157156261548 1 0.01035049031107386 1 1 1 0.010648008858974807 1 1 0.0098938532364854972 1 0.0099997538869736786 1 1 1 1 0.010179025300501 1 1 1 1 1 0.0096880367850844806 1 1 1 1 1 1 1 1 1 0.0099134156820334315 1 0.010178965105165208 1 1 1 0.010000873189940418 1 1 0.0098401206946458902 1 1 1 1 1 1 0.010083796919319852 1 1 0.0099081434330160183 1 1 1 0.010324919801526253 1 1 0.0099491525813264446 1 0.010278902554766507 1 1 0.0096483088451930696 1 1 0.010040777895137402 1 0.010778909991750657 1 1 1 0.010022243348194428 1 1 1 1 1 1 1 1 1 0.010715333367930031 1 1 1 1 1 0.0099360742884297935 0.0099857877645703596 1 0.010232511346136335 1 1 1 1 1 0.010621425080261919 1 1 0.0096765087538539709 0.0098564909730049707 1 0.010414398620093593 0.010016618179270702 1 1 1 1 1 1 1 1 1 1 1 0.010137105276498613 1 1 1 1 0.009889022212364134 1 1 1 1 1 0.010485510803755637 1 1 1 1 0.0099945545256823372 1 1 1 1 0.010014208935827084 1 1 1 1 1 1 1 0.010406638122778077 1 1 1 1 1 1 0.010637065236079574 1 1 0.010037300271745039 1 1 0.010032903112739399 1 1 0.010783238397666796 1 1 1 1 1 1 1 1 1 1 1 1 1 1 1 1 1 0.010126091303627693 1 1 0.0093622010363044392 1 0.010067803688242774 1 1 1 1 1 1 0.010080055673436623 1 1 0.0091808731699373064 1 1 0.0099946526617256531 1 0.0090338295139308633 1 0.0096809059839030476 1 1 1 1 1 1 0.010076355056493232 1 1 1 1 1 0.010019477295593991 1 0.0097199248395925617 1 1 1 1 0.010002673143884299 1 1 1 0.009532708345144747 1 0.010003157986493748 1 1 1 1 1 1 1 1 1 1 1 1 1 1 1 1 1 1 1 1 1 1 1 1 1 1 1 1 1 1 1 0.010265150853761264 1 1 0.010211999172447967 1 1 1 0.0090795773138043958 0.010258215284574428 1 0.01017502621169958 1 1 0.0094550029030851801 1 0.010179657199685955 1 1 1 0.0095855644475018181 1 1 1 0.0096942281842857109 1 0.0097250688706033549 1 1 1 0.00968123169912527 0.0095667307163295832 0.010222910387335568 1 0.0099847787554997389 1 0.0099996927333918639 1 0.0098568522257273423 1 1 0.010152977676635267 0.0095781417812848945 1 0.009999636249784595 1 0.00985283150004705 0.010004646715275473 1 1 1 0.010005613183945987 0.0093144686790565985 1 1 1 0.010242365418572784 1 1 1 1 1 0.009573316401649214 1 1 1 1 0.0098398790087216373 1 1 1 1 1 1 1 1 1 1 1 1 1 1 1 1 1 0.0090918425319093145 1 1 1 1 1 1 1 1 1 1 1 1 1 1 1 1 1 1 1 1 1 1 1 1 1 1 1 1 1 0.011422217156464567 1 1 1 1 0.01000001792268118 1 1 0.011122788705273657 1 1 1 0.010004248597971652 1 0.010782414982418385 1 1 1 1 0.010704558482699401 1 0.01085728446816954 0.0092853361261742012 0.010002385516365071 0.0090481613960813109 1 1 1 1 1 1 1 1 1 1 1 1 1 1 1 1 1 1 1 1 1 1 1 1 0.010000052737399347 1 1 1 1 1 1 1 1 1 1 0.010411666317597542 1 1 0.010020518906009135 1 1 1 1 1 0.010523429122619372 0.010064878469933588 1 1 1 1 1 1 1 1 1 1 0.010026566021070648 1 1 1 1 0.010955370691283042 1 1 1 1 0.010850140977476466 1 1 1 1 0.0096055437928707875 1 1 0.010001207636503395 1 1 0.0098596330755320732 1 1 1 1 1 1 1 1 1 1 0.010029664423650731 1 1 1 1 1 1 1 1 1 1 1 1 1 1 1 0.0099681385754100439 1 1 1 1 1 1 1 0.0099875381603762615 0.0099556767357863035 1 1 1 1 1 1 1 1 1 1 1 1 1 1 1 1 1 1 1 1 1 1 1 1 1 1 1 1 1 1 1 1 1 1 1 1 1 1 1 1 1 1 1 0.0099844754156380982 1 1 1 1 1 1 1 1 0.0094067526217994687 1 1 1 1 1 1 1 0.0093652011318921882 0.0099646228941195954 0.010011906482692951 1 1 1 1 1 1 0.01018758591252439 1 1 1 1 1 1 1 1 1 1 0.0093260647723668183 1 1 1 1 0.0099885529493403437 1 1 0.0099730283649784417 1 1 1 1 1 1 1 1 1 1 1 1 1 1 0.010155405552995447 1 1 1 1 1 1 1 1 0.010449153633496158 1 1 1 1 0.0093993564179162079 1 1 1 1 1 1 1 1 1 1 1 1 1 1 1 1 1 1 1 1 1 1 1 1 1 1 1 1 1 1 1 1 0.0098091166765847081 1 0.010417054161536914 1 1 1 0.010028309197442837 1 0.0099987802126009148 1 1 1 1 1 0.010186631133488569 1 1 0.010692593143967317 0.010226266248955651 1 1 1 1 1 1 1 1 1 1 1 1 1 1 1 1 1 1 1 1 1 1 1 1 1 1 1 1 1 1 1 1 1 1 1 1 1 1 1 1 1 1 1 0.0098097957102218046 1 0.010034489149250078 1 0.010182327228098774 1 1 1 1 1 1 0.0095665985646875337 1 1 1 0.0098370152595710185 1 1 1 1 1 1 1 1 1 1 1 1 1 0.0099252634194336373 1 1 1 1 1 0.0098356471635423805 1 1 1 1 1 0.0098603871764892988 1 1 0.0099672976535002886 1 1 1 1 1 1 1 1 1 1 0.0099648698441837154 1 0.010001326472265832 0.010237713846783125 1 1 1 1 1 1 1 1 1 0.010508861701512297 1 1 1 1 0.010023393329372812 0.0096453539493880826 1 1 1 1 1 1 1 0.0099848483590371621 1 1 0.010152889490970145 1 0.011379699323110098 1 1 1 1 1 1 1 0.0094401674889869041 1 1 0.010724739396672327 0.0092344288412751843 1 1 0.010006115574496488 1 1 1 1 0.010354023807431088 1 1 1 1 1 1 1 0.010157400873104539 1 1 1 1 1 1 1 1 1 1 1 1 1 1 1 1 1 1 0.0098141642202015916 1 1 1 1 1 1 1 1 1 1 1 1 1 1 1 1 0.010780443914376006 1 1 0.010497930952866013 1 1 1 0.010568011416827786 1 1 0.010598036238508938 1 1 0.010425669749380695 1 1 0.010003789217295504 1 1 0.010365555738374103 1 1 1 1 1 1 1 1 1 1 1 0.010050520670419075 1 1 1 1 1 1 1 0.01120185208284304 0.010119451339501279 0.010302683400257421 0.0099956625284217566 0.011236445844119369 1 1 1 1 1 1 1 1 1 1 1 1 0.0095232927095272642 1 1 1 1 0.0098331290752509647 1 1 1 1 1 1 1 1 1 1 1 1 1 1 1 1 0.012917107635534138 1 1 0.0095704835286299032 1 1 1 0.0096465952968262589 1 1 1 1 1 1 1 1 1 1 0.010009604194819041 1 1 1 0.010031397563584867 1 1 1 1 0.0100514870056584 1 1 0.010077562558865365 1 1 0.010009572701629978 1 1 1 1 1 1 0.010040476216624473 1 1 1 1 1 1 1 1 1 1 1 1 1 1 1 1 1 1 1 0.010713358223135915 1 0.0099904811140133533 1 1 0.0099484649036327977 1 1 1 1 1 1 1 1 1 1 1 1 1 1 1 1 1 1 1 1 1 1 1 1 1 1 1 1 1 1 1 1 1 1 1 1 1 1 1 1 1 1 1 1 1 1 1 1 1 1 1 1 1 1 0.010003384483820744 1 1 1 0.0099119211654797347 1 1 1 1 1 1 1 1 1 1 1 1 1 1 1 0.0099999651480974141 1 1 1 1 1 1 1 1 1 1 0.0099972934276763379 1 1 1 1 0.010002826847072552 1 1 1 1 0.0098467640291786517 1 1 1 0.010645096296411121 1 1 0.010652719118283735 1 1 1 1 0.0097258275936314524 1 1 1 1 1 0.010000176699172615 0.0095087599556117983 1 0.010697530298903893 1 1 1 0.010102731902416114 1 0.010822089379443352 1 0.010188140027164467 1 1 0.01085706444180199 1 0.009681723969304749 1 1 1 0.010748610655981018 1 1 1 0.0099734690640935104 1 1 0.010245751242958578 1 0.010426426571685493 0.0097449055885756881 1 0.0098917624740416307 1 1 1 1 1 1 1 0.0099151175286729936 1 0.0099670000138452688 1 1 0.010015114740837728 1 0.0096413299292447616 1 1 1 1 1 1 1 1 0.0097084270761252766 1 1 0.0097869751564673979 1 1 1 0.0096535628051557659 0.0098887797117456523 1 1 1 1 1 1 1 1 1 1 0.010490166143269308 1 1 0.0095796768070394653 1 1 1 0.0099464600537500815 1 1 1 1 1 1 1 0.010117051586848599 1 0.010067492336991857 1 1 1 1 1 1 1 1 1 0.0096991254415421113 1 1 1 0.0098541070608228025 1 1 1 1 1 1 1 0.010170455065940351 1 1 1 1 1 1 1 1 0.010466802736582776 1 0.010707592720989374 1 1 1 1 1 1 1 0.0084046153344084062 1 1 1 1 1 0.0087699340816868969 1 1 1 1 1 0.0092791568834187359 1 1 1 1 1 1 1 1 1 1 1 1 1 1 1 1 1 1 1 1 1 1 1 1 1 1 1 1 1 1 1 1 1 1 1 1 1 1 1 0.010624152588452286 0.0090095245803921455 1 0.010423774575446517 1 1 1 1 1 1 1 1 1 0.0097625786671502214 1 1 1 1 1 1 1 1 1 0.0099780900585137704 1 1 1 1 1 1 1 1 0.0087588341713478058 1 1 1 0.0091564364827491918 1 1 0.0096908904272574939 1 1 1 1 1 1 1 1 1 1 1 1 1 1 1 1 1 0.012386390617816774 1 0.012206703055332644 1 1 1 1 1 0.012034260751698026 1 1 1 1 0.0084499854876595847 1 1 1 1 1 0.0099252908222530779 1 1 1 1 1 1 0.010154028706169211 1 1 1 1 1 1 1 1 1 0.01042666182767301 1 1 1 1 1 1 1 1 1 1 1 1 1 0.01181461100602017 1 1 1 1 1 1 1 0.010119651821128145 1 1 1 1 1 1 1 1 1 1 0.010586218564329328 1 1 1 1 0.010056671423375341 1 1 1 1 1 1 1 1 0.01031024300188803 0.011467715473877352 1 1 1 1 1 1 1 0.011698831522364502 1 1 0.011903508411238542 1 1 1 1 1 1 1 1 1 1 1 1 1 1 0.01066764858767482 1 1 1 0.010736333829565235 1 1 1 0.0099522176419510749 1 1 0.010797823775117376 1 1 1 1 0.010178416495988579 1 1 1 1 0.0098762353455585598 0.010821240248450364 1 1 0.01029097453198057 1 1 0.009871082524129441 1 1 1 1 1 1 1 1 1 1 1 1 1 1 1 0.0091479305983535979 1 1 1 1 1 0.0093986573845706144 0.010002984248132969 1 0.011125832783574346 1 1 1 0.010007083958618596 1 1 1 1 0.0097684812705428788 1 1 0.010286383981690175 1 1 0.010312163588763636 1 1 0.010521607384854871 0.010582122877804851 0.0095949381154781885 1 1 1 1 1 0.0092355608183202504 1 1 1 1 1 1 1 0.0093994299531341818 1 1 1 1 0.0096064861483114525 1 0.010922353081848336 0.0099162088328445877 1 1 0.010893954614073973 1 1 0.011073067669021367 1 1 1 1 0.010413195155823309 1 1 1 1 1 1 1 0.0095684751612596843 1 1 1 0.010430027060009808 1 1 1 1 0.010053398503498944 1 1 0.0109393431642868 1 0.0091388170685912738 0.010824908517145944 1 0.010717303547490845 1 1 0.01039422647916235 1 1 0.01068496666926072 1 1 1 1 1 1 0.010666021805587025 1 1 0.010119290296318324 1 1 0.010762601332680423 0.010001273833861696 0.010937346872621757 1 1 0.010143126868284112 1 1 1 0.0093476933635803228 1 0.010019627962079317 1 1 1 0.009857482921982734 1 1 1 0.010089719597855658 1 1 1 1 1 1 1 1 1 0.0099965977395725727 1 1 1 0.010844620543546145 1 0.010112046793069278 1 0.0095401805010199101 1 0.010029049064554612 1 1 1 1 0.010529706550484725 1 1 1 1 1 1 0.0093628901979429194 0.011067107520927884 1 1 1 1 1 1 1 1 0.010003003110512332 0.008778806945299554 0.0089148111389881907 1 1 1 1 0.0097027207610202518 1 0.010008915394558303 1 0.0096392457390893742 1 1 1 0.010276865147618755 1 0.010079151563115982 1 1 1 1 0.010924789095244841 1 1 1 1 1 1 1 1 0.010048725985014502 1 1 0.0095943499154682397 1 1 1 1 1 1 1 1 1 1 1 1 0.010779790473361655 1 1 0.0093885063212038426 1 1 1 1 1 1 0.010071186963155728 1 1 1 1 0.010280449278324905 1 1 1 1 0.0099686233986095198 1 1 1 1 0.0098248943448718123 0.0097273926933966175 1 1 1 1 0.009765444417137106 1 1 1 1 1 0.0094545402500766998 1 1 1 1 0.0098759394888161527 1 0.0098049162565642008 1 1 0.010028914763339522 1 1 1 1 0.0099695553728809914 1 1 1 1 1 1 1 0.01010712400170225 1 1 1 1 1 1 1 1 1 0.0099722773889459083 1 1 1 1 1 1 1 1 1 1 1 1 1 1 0.010090959424615851 1 1 1 1 1 0.010023860677118933 1 1 1 1 1 1 1 1 0.010291487061660722 1 1 1 1 1 1 1 1 1 1 1 1 1 1 1 0.011243132586688095 1 1 1 1 1 0.0099962212101043033 1 1 1 1 1 0.0099884216126554203 1 1 1 1 1 1 0.01011695043490453 1 1 1 1 
</DataArray>
</CellData>
</Piece>
</UnstructuredGrid>
</VTKFile>
