<?xml version="1.0"?>
<VTKFile type="UnstructuredGrid" version="0.1" byte_order="LittleEndian">
<UnstructuredGrid>
<Piece NumberOfPoints="31898" NumberOfCells="11152">
<Points>
<DataArray type="Float64" NumberOfComponents="3" format="ascii">
-0.5 -0.5 0 -0.47620991077874902 -0.44978878706170539 0 -0.49999999999999473 -0.42132396840504388 0 -0.5 -0.5 0 -0.47160970827802529 -0.4793630013852106 0 -0.47620991077874902 -0.44978878706170539 0 -0.5 -0.5 0 -0.47160970827802529 -0.4793630013852106 0 -0.44860394795025399 -0.5 0 -0.47160970827802529 -0.4793630013852106 0 -0.44860394795025399 -0.5 0 -0.4490820238307246 -0.45820516232899983 0 -0.44860394795025399 -0.5 0 -0.4490820238307246 -0.45820516232899983 0 -0.42881687682924802 -0.47781464288736519 0 -0.4490820238307246 -0.45820516232899983 0 -0.45555437223955858 -0.42914059360647611 0 -0.4490820238307246 -0.45820516232899983 0 -0.45555437223955858 -0.42914059360647611 0 -0.43867285131603428 -0.4271457417558665 0 -0.4490820238307246 -0.45820516232899983 0 -0.43867285131603428 -0.4271457417558665 0 -0.4263356171060747 -0.44269880333887462 0 -0.47160970827802529 -0.4793630013852106 0 -0.4490820238307246 -0.45820516232899983 0 -0.47620991077874902 -0.44978878706170539 0 -0.4490820238307246 -0.45820516232899983 0 -0.47620991077874902 -0.44978878706170539 0 -0.45555437223955858 -0.42914059360647611 0 -0.47620991077874902 -0.44978878706170539 0 -0.48101336032419229 -0.41069999664450008 0 -0.45555437223955858 -0.42914059360647611 0 -0.47620991077874902 -0.44978878706170539 0 -0.49999999999999473 -0.42132396840504388 0 -0.48101336032419229 -0.41069999664450008 0 -0.49999999999999473 -0.42132396840504388 0 -0.48101336032419229 -0.41069999664450008 0 -0.5 -0.393886241813306 0 -0.49999999999999473 -0.42132396840504388 0 -0.48101336032419229 -0.41069999664450008 0 -0.5 -0.393886241813306 0 -0.47854472220918332 -0.38978458738689759 0 -0.48422759779560409 -0.37130120630367158 0 -0.5 -0.393886241813306 0 -0.5 -0.36644851522156802 0 -0.48422759779560409 -0.37130120630367158 0 -0.48101336032419229 -0.41069999664450008 0 -0.5 -0.393886241813306 0 -0.47854472220918332 -0.38978458738689759 0 -0.48101336032419229 -0.41069999664450008 0 -0.47854472220918332 -0.38978458738689759 0 -0.46202672064839212 -0.40007602488395211 0 -0.48101336032419229 -0.41069999664450008 0 -0.46202672064839212 -0.40007602488395211 0 -0.47854472220918332 -0.38978458738689759 0 -0.46725442735267431 -0.37660061361585562 0 -0.46202672064839212 -0.40007602488395211 0 -0.47854472220918332 -0.38978458738689759 0 -0.46725442735267431 -0.37660061361585562 0 -0.48422759779560409 -0.37130120630367158 0 -0.46725442735267431 -0.37660061361585562 0 -0.46202672064839212 -0.40007602488395211 0 -0.46725442735267431 -0.37660061361585562 0 -0.45645674801697989 -0.38644133236760531 0 -0.46202672064839212 -0.40007602488395211 0 -0.46725442735267431 -0.37660061361585562 0 -0.45645674801697989 -0.38644133236760531 0 -0.4540003998136638 -0.37455519391687309 0 -0.45645674801697989 -0.38644133236760531 0 -0.46202672064839212 -0.40007602488395211 0 -0.44257020456291563 -0.38918913383950271 0 -0.46202672064839212 -0.40007602488395211 0 -0.44257020456291563 -0.38918913383950271 0 -0.44727608925983742 -0.41095911152778891 0 -0.46202672064839212 -0.40007602488395211 0 -0.44257020456291563 -0.38918913383950271 0 -0.44257020456291563 -0.38918913383950271 0 -0.44727608925983742 -0.41095911152778891 0 -0.43479358559901082 -0.4041454901736512 0 -0.44257020456291563 -0.38918913383950271 0 -0.4540003998136638 -0.37455519391687309 0 -0.44172858264042247 -0.37082207246888088 0 -0.45645674801697989 -0.38644133236760531 0 -0.44257020456291563 -0.38918913383950271 0 -0.4540003998136638 -0.37455519391687309 0 -0.46202672064839212 -0.40007602488395211 0 -0.45555437223955858 -0.42914059360647611 0 -0.44727608925983742 -0.41095911152778891 0 -0.46202672064839212 -0.40007602488395211 0 -0.45555437223955858 -0.42914059360647611 0 -0.48101336032419229 -0.41069999664450008 0 -0.46202672064839212 -0.40007602488395211 0 -0.45555437223955858 -0.42914059360647611 0 -0.44727608925983742 -0.41095911152778891 0 -0.43867285131603428 -0.4271457417558665 0 -0.43676601469929588 -0.41441201227470881 0 -0.44727608925983742 -0.41095911152778891 0 -0.43676601469929588 -0.41441201227470881 0 -0.43479358559901082 -0.4041454901736512 0 -0.45555437223955858 -0.42914059360647611 0 -0.44727608925983742 -0.41095911152778891 0 -0.43867285131603428 -0.4271457417558665 0 -0.43867285131603428 -0.4271457417558665 0 -0.42681803064840879 -0.42717069814352421 0 -0.4263356171060747 -0.44269880333887462 0 -0.42681803064840879 -0.42717069814352421 0 -0.41531815884496182 -0.42985383783075998 0 -0.4263356171060747 -0.44269880333887462 0 -0.42681803064840879 -0.42717069814352421 0 -0.42624289495594048 -0.42089725947505818 0 -0.42083332353326591 -0.42146747131641099 0 -0.42681803064840879 -0.42717069814352421 0 -0.43096994786351572 -0.41951492446283251 0 -0.42624289495594048 -0.42089725947505818 0 -0.43867285131603428 -0.4271457417558665 0 -0.42681803064840879 -0.42717069814352421 0 -0.43096994786351572 -0.41951492446283251 0 -0.43867285131603428 -0.4271457417558665 0 -0.43676601469929588 -0.41441201227470881 0 -0.43096994786351572 -0.41951492446283251 0 -0.43676601469929588 -0.41441201227470881 0 -0.43096994786351572 -0.41951492446283251 0 -0.42907264086257813 -0.41311715872526122 0 -0.43676601469929588 -0.41441201227470881 0 -0.42907264086257813 -0.41311715872526122 0 -0.43479358559901082 -0.4041454901736512 0 -0.42907264086257813 -0.41311715872526122 0 -0.43479358559901082 -0.4041454901736512 0 -0.42460885511582858 -0.40417321677700252 0 -0.42907264086257813 -0.41311715872526122 0 -0.41997834854398469 -0.41180534796019508 0 -0.42907264086257813 -0.41311715872526122 0 -0.42635027777857132 -0.41543594397746519 0 -0.41997834854398469 -0.41180534796019508 0 -0.42907264086257813 -0.41311715872526122 0 -0.41997834854398469 -0.41180534796019508 0 -0.42460885511582858 -0.40417321677700252 0 -0.42635027777857132 -0.41543594397746519 0 -0.41997834854398469 -0.41180534796019508 0 -0.42635027777857132 -0.41543594397746519 0 -0.42083332353326591 -0.42146747131641099 0 -0.41997834854398469 -0.41180534796019508 0 -0.43096994786351572 -0.41951492446283251 0 -0.42624289495594048 -0.42089725947505818 0 -0.42635027777857132 -0.41543594397746519 0 -0.43096994786351572 -0.41951492446283251 0 -0.42907264086257813 -0.41311715872526122 0 -0.42635027777857132 -0.41543594397746519 0 -0.42624289495594048 -0.42089725947505818 0 -0.42635027777857132 -0.41543594397746519 0 -0.42083332353326591 -0.42146747131641099 0 -0.42083332353326591 -0.42146747131641099 0 -0.41997834854398469 -0.41180534796019508 0 -0.40992282953163789 -0.42011435591993562 0 -0.41997834854398469 -0.41180534796019508 0 -0.39756877647335259 -0.40857286797681719 0 -0.41997834854398469 -0.41180534796019508 0 -0.40992282953163789 -0.42011435591993562 0 -0.39756877647335259 -0.40857286797681719 0 -0.40992282953163789 -0.42011435591993562 0 -0.41531815884496182 -0.42985383783075998 0 -0.39591554026262499 -0.42887225451549271 0 -0.41531815884496182 -0.42985383783075998 0 -0.39591554026262499 -0.42887225451549271 0 -0.41160927495564159 -0.44339431233754628 0 -0.42083332353326591 -0.42146747131641099 0 -0.40992282953163789 -0.42011435591993562 0 -0.41531815884496182 -0.42985383783075998 0 -0.42681803064840879 -0.42717069814352421 0 -0.42083332353326591 -0.42146747131641099 0 -0.41531815884496182 -0.42985383783075998 0 -0.44257020456291563 -0.38918913383950271 0 -0.42311368847744002 -0.37830224279505142 0 -0.42594061475171041 -0.39368797999533162 0 -0.44257020456291563 -0.38918913383950271 0 -0.42311368847744002 -0.37830224279505142 0 -0.44172858264042247 -0.37082207246888088 0 -0.44257020456291563 -0.38918913383950271 0 -0.42311368847744002 -0.37830224279505142 0 -0.42311368847744002 -0.37830224279505142 0 -0.42594061475171041 -0.39368797999533162 0 -0.416587075656149 -0.38785930376960043 0 -0.44257020456291563 -0.38918913383950271 0 -0.42594061475171041 -0.39368797999533162 0 -0.43479358559901082 -0.4041454901736512 0 -0.42594061475171041 -0.39368797999533162 0 -0.43479358559901082 -0.4041454901736512 0 -0.42460885511582858 -0.40417321677700252 0 -0.41997834854398469 -0.41180534796019508 0 -0.41325908582185972 -0.39811010703057192 0 -0.39770572831670092 -0.39911486077581648 0 -0.41997834854398469 -0.41180534796019508 0 -0.39770572831670092 -0.39911486077581648 0 -0.42594061475171041 -0.39368797999533162 0 -0.42460885511582858 -0.40417321677700252 0 -0.41325908582185972 -0.39811010703057192 0 -0.41997834854398469 -0.41180534796019508 0 -0.42460885511582858 -0.40417321677700252 0 -0.41325908582185972 -0.39811010703057192 0 -0.42594061475171041 -0.39368797999533162 0 -0.41325908582185972 -0.39811010703057192 0 -0.416587075656149 -0.38785930376960043 0 -0.41325908582185972 -0.39811010703057192 0 -0.416587075656149 -0.38785930376960043 0 -0.40403491357358612 -0.38133688525744702 0 -0.42311368847744002 -0.37830224279505142 0 -0.40403491357358612 -0.38133688525744702 0 -0.40365717239196519 -0.36741535175059892 0 -0.42311368847744002 -0.37830224279505142 0 -0.416587075656149 -0.38785930376960043 0 -0.40403491357358612 -0.38133688525744702 0 -0.40403491357358612 -0.38133688525744702 0 -0.39190790742475001 -0.38540387676521748 0 -0.39770572831670092 -0.39911486077581648 0 -0.40403491357358612 -0.38133688525744702 0 -0.39190790742475001 -0.38540387676521748 0 -0.3904578797192948 -0.37473938743617019 0 -0.41325908582185972 -0.39811010703057192 0 -0.40403491357358612 -0.38133688525744702 0 -0.39770572831670092 -0.39911486077581648 0 -0.39770572831670092 -0.39911486077581648 0 -0.37543310808941849 -0.38642437359143528 0 -0.39770572831670092 -0.39911486077581648 0 -0.37515920440272033 -0.40534038799344108 0 -0.37543310808941849 -0.38642437359143528 0 -0.39770572831670092 -0.39911486077581648 0 -0.37515920440272033 -0.40534038799344108 0 -0.39756877647335259 -0.40857286797681719 0 -0.37515920440272033 -0.40534038799344108 0 -0.37543310808941849 -0.38642437359143528 0 -0.37543310808941849 -0.38642437359143528 0 -0.3904578797192948 -0.37473938743617019 0 -0.37568304780698558 -0.36916333065311507 0 -0.39190790742475001 -0.38540387676521748 0 -0.37543310808941849 -0.38642437359143528 0 -0.3904578797192948 -0.37473938743617019 0 -0.37543310808941849 -0.38642437359143528 0 -0.37568304780698558 -0.36916333065311507 0 -0.39190790742475001 -0.38540387676521748 0 -0.39770572831670092 -0.39911486077581648 0 -0.37543310808941849 -0.38642437359143528 0 -0.41997834854398469 -0.41180534796019508 0 -0.39770572831670092 -0.39911486077581648 0 -0.39756877647335259 -0.40857286797681719 0 -0.40992282953163789 -0.42011435591993562 0 -0.39591554026262499 -0.42887225451549271 0 -0.39756877647335259 -0.40857286797681719 0 -0.37515920440272033 -0.40534038799344108 0 -0.39591554026262499 -0.42887225451549271 0 -0.39756877647335259 -0.40857286797681719 0 -0.37515920440272033 -0.40534038799344108 0 -0.39756877647335259 -0.40857286797681719 0 -0.37515920440272033 -0.40534038799344108 0 -0.39591554026262499 -0.42887225451549271 0 -0.37472313619600889 -0.43545561783144832 0 -0.39591554026262499 -0.42887225451549271 0 -0.39301703415267508 -0.44654444244683272 0 -0.37472313619600889 -0.43545561783144832 0 -0.39301703415267508 -0.44654444244683272 0 -0.37428706798929601 -0.46557084766945539 0 -0.37472313619600889 -0.43545561783144832 0 -0.39591554026262499 -0.42887225451549271 0 -0.39301703415267508 -0.44654444244683272 0 -0.41160927495564159 -0.44339431233754628 0 -0.39301703415267508 -0.44654444244683272 0 -0.40396056051613372 -0.45751466911048011 0 -0.41160927495564159 -0.44339431233754628 0 -0.40396056051613372 -0.45751466911048011 0 -0.39245383412573559 -0.47875733455523922 0 -0.41207507163844148 -0.46917161410542801 0 -0.40396056051613372 -0.45751466911048011 0 -0.38912381425271458 -0.46154275838996711 0 -0.39245383412573559 -0.47875733455523922 0 -0.40396056051613372 -0.45751466911048011 0 -0.39245383412573559 -0.47875733455523922 0 -0.40396056051613372 -0.45751466911048011 0 -0.40649676728151513 -0.45682610390212369 0 -0.40396056051613372 -0.45751466911048011 0 -0.38912381425271458 -0.46154275838996711 0 -0.39301703415267508 -0.44654444244683272 0 -0.40396056051613372 -0.45751466911048011 0 -0.38912381425271458 -0.46154275838996711 0 -0.39301703415267508 -0.44654444244683272 0 -0.38912381425271458 -0.46154275838996711 0 -0.37428706798929601 -0.46557084766945539 0 -0.38912381425271458 -0.46154275838996711 0 -0.37428706798929601 -0.46557084766945539 0 -0.38912381425271458 -0.46154275838996711 0 -0.38378714202547332 -0.47159002408209011 0 -0.37428706798929601 -0.46557084766945539 0 -0.38378714202547332 -0.47159002408209011 0 -0.39245383412573559 -0.47875733455523922 0 -0.37411677223754131 -0.47733161267270968 0 -0.39245383412573559 -0.47875733455523922 0 -0.37240076261097882 -0.48974555046165519 0 -0.37411677223754131 -0.47733161267270968 0 -0.38378714202547332 -0.47159002408209011 0 -0.37411677223754131 -0.47733161267270968 0 -0.37428706798929601 -0.46557084766945539 0 -0.38912381425271458 -0.46154275838996711 0 -0.38378714202547332 -0.47159002408209011 0 -0.39245383412573559 -0.47875733455523922 0 -0.38094710773533791 -0.49999999999999839 0 -0.39245383412573559 -0.47875733455523922 0 -0.38094710773533791 -0.49999999999999839 0 -0.39245383412573559 -0.47875733455523922 0 -0.37240076261097882 -0.48974555046165519 0 -0.38094710773533791 -0.49999999999999839 0 -0.39245383412573559 -0.47875733455523922 0 -0.40997732063196057 -0.5 0 -0.39245383412573559 -0.47875733455523922 0 -0.41207507163844148 -0.46917161410542801 0 -0.40997732063196057 -0.5 0 -0.41207507163844148 -0.46917161410542801 0 -0.40997732063196057 -0.5 0 -0.42881687682924802 -0.47781464288736519 0 -0.44860394795025399 -0.5 0 -0.40997732063196057 -0.5 0 -0.42881687682924802 -0.47781464288736519 0 -0.41207507163844148 -0.46917161410542801 0 -0.42881687682924802 -0.47781464288736519 0 -0.42627766738448791 -0.46032764904509182 0 -0.4490820238307246 -0.45820516232899983 0 -0.42881687682924802 -0.47781464288736519 0 -0.42627766738448791 -0.46032764904509182 0 -0.4490820238307246 -0.45820516232899983 0 -0.42627766738448791 -0.46032764904509182 0 -0.4263356171060747 -0.44269880333887462 0 -0.42627766738448791 -0.46032764904509182 0 -0.4263356171060747 -0.44269880333887462 0 -0.41655419253802572 -0.45404861160063659 0 -0.4263356171060747 -0.44269880333887462 0 -0.41160927495564159 -0.44339431233754628 0 -0.41655419253802572 -0.45404861160063659 0 -0.41531815884496182 -0.42985383783075998 0 -0.4263356171060747 -0.44269880333887462 0 -0.41160927495564159 -0.44339431233754628 0 -0.40396056051613372 -0.45751466911048011 0 -0.41160927495564159 -0.44339431233754628 0 -0.40649676728151513 -0.45682610390212369 0 -0.41160927495564159 -0.44339431233754628 0 -0.40649676728151513 -0.45682610390212369 0 -0.41655419253802572 -0.45404861160063659 0 -0.40396056051613372 -0.45751466911048011 0 -0.41160927495564159 -0.44339431233754628 0 -0.41207507163844148 -0.46917161410542801 0 -0.40649676728151513 -0.45682610390212369 0 -0.41655419253802572 -0.45404861160063659 0 -0.40396056051613372 -0.45751466911048011 0 -0.41207507163844148 -0.46917161410542801 0 -0.40649676728151513 -0.45682610390212369 0 -0.41207507163844148 -0.46917161410542801 0 -0.42627766738448791 -0.46032764904509182 0 -0.41655419253802572 -0.45404861160063659 0 -0.45662330498375908 -0.25656877445722759 0 -0.43445882011373449 -0.25478651907497341 0 -0.45662330498375908 -0.25656877445722759 0 -0.43445882011373449 -0.25478651907497341 0 -0.45034617445999431 -0.24335722649563979 0 -0.44999384684511368 -0.2755750489792308 0 -0.45662330498375908 -0.25656877445722759 0 -0.43445882011373449 -0.25478651907497341 0 -0.44999384684511368 -0.2755750489792308 0 -0.43077531442077321 -0.27459050524281542 0 -0.43445882011373449 -0.25478651907497341 0 -0.44999384684511368 -0.2755750489792308 0 -0.441361257405879 -0.29303276451920029 0 -0.43077531442077321 -0.27459050524281542 0 -0.44999384684511368 -0.2755750489792308 0 -0.4670541169931961 -0.26846056693166809 0 -0.46910519348062618 -0.28320526693770848 0 -0.44999384684511368 -0.2755750489792308 0 -0.4670541169931961 -0.26846056693166809 0 -0.45662330498375908 -0.25656877445722759 0 -0.45662330498375908 -0.25656877445722759 0 -0.47878778985378329 -0.25835102983948688 0 -0.4670541169931961 -0.26846056693166809 0 -0.45662330498375908 -0.25656877445722759 0 -0.47878778985378329 -0.25835102983948688 0 -0.45662330498375908 -0.25656877445722759 0 -0.47878778985378329 -0.25835102983948688 0 -0.47142395938804471 -0.23802335247430181 0 -0.47878778985378329 -0.25835102983948688 0 -0.5 -0.25669760885461612 0 -0.48361763707807442 -0.27426406281091331 0 -0.47878778985378329 -0.25835102983948688 0 -0.5 -0.25669760885461612 0 -0.4875835208682564 -0.24248539692068891 0 -0.5 -0.25669760885461612 0 -0.48361763707807442 -0.27426406281091331 0 -0.5 -0.28413533544635422 0 -0.4670541169931961 -0.26846056693166809 0 -0.47878778985378329 -0.25835102983948688 0 -0.48361763707807442 -0.27426406281091331 0 -0.4670541169931961 -0.26846056693166809 0 -0.48361763707807442 -0.27426406281091331 0 -0.46910519348062618 -0.28320526693770848 0 -0.46910519348062618 -0.28320526693770848 0 -0.48580896399913942 -0.29193665231809679 0 -0.47164434439118558 -0.29859902487093259 0 -0.48361763707807442 -0.27426406281091331 0 -0.46910519348062618 -0.28320526693770848 0 -0.48580896399913942 -0.29193665231809679 0 -0.5 -0.28413533544635422 0 -0.48580896399913942 -0.29193665231809679 0 -0.5 -0.3115730620380921 0 -0.48361763707807442 -0.27426406281091331 0 -0.5 -0.28413533544635422 0 -0.48580896399913942 -0.29193665231809679 0 -0.48580896399913942 -0.29193665231809679 0 -0.5 -0.3115730620380921 0 -0.48293754746551898 -0.30617437981156609 0 -0.48293754746551898 -0.30617437981156609 0 -0.47164434439118558 -0.29859902487093259 0 -0.47203566342767839 -0.31514771464943409 0 -0.48580896399913942 -0.29193665231809679 0 -0.48293754746551898 -0.30617437981156609 0 -0.47164434439118558 -0.29859902487093259 0 -0.47164434439118558 -0.29859902487093259 0 -0.46096111539772322 -0.3069557537098867 0 -0.47203566342767839 -0.31514771464943409 0 -0.46096111539772322 -0.3069557537098867 0 -0.44739706002137658 -0.30395698434733032 0 -0.45229582611609759 -0.31444164243390338 0 -0.46096111539772322 -0.3069557537098867 0 -0.45682111422556548 -0.29317658806621089 0 -0.44739706002137658 -0.30395698434733032 0 -0.47164434439118558 -0.29859902487093259 0 -0.46096111539772322 -0.3069557537098867 0 -0.45682111422556548 -0.29317658806621089 0 -0.44999384684511368 -0.2755750489792308 0 -0.46910519348062618 -0.28320526693770848 0 -0.45682111422556548 -0.29317658806621089 0 -0.46910519348062618 -0.28320526693770848 0 -0.47164434439118558 -0.29859902487093259 0 -0.45682111422556548 -0.29317658806621089 0 -0.44999384684511368 -0.2755750489792308 0 -0.45682111422556548 -0.29317658806621089 0 -0.441361257405879 -0.29303276451920029 0 -0.45682111422556548 -0.29317658806621089 0 -0.441361257405879 -0.29303276451920029 0 -0.44739706002137658 -0.30395698434733032 0 -0.441361257405879 -0.29303276451920029 0 -0.44739706002137658 -0.30395698434733032 0 -0.43527018611072049 -0.30465000121327751 0 -0.44739706002137658 -0.30395698434733032 0 -0.44024276041750632 -0.31887045497680111 0 -0.43527018611072049 -0.30465000121327751 0 -0.44739706002137658 -0.30395698434733032 0 -0.45229582611609759 -0.31444164243390338 0 -0.44024276041750632 -0.31887045497680111 0 -0.44024276041750632 -0.31887045497680111 0 -0.45653421084860168 -0.32646185290925811 0 -0.44024276041750632 -0.31887045497680111 0 -0.43930980958642257 -0.33554338078202212 0 -0.45653421084860168 -0.32646185290925811 0 -0.45229582611609759 -0.31444164243390338 0 -0.44024276041750632 -0.31887045497680111 0 -0.45653421084860168 -0.32646185290925811 0 -0.43930980958642257 -0.33554338078202212 0 -0.44966367396753332 -0.33841986907325933 0 -0.46855294336124231 -0.32873531729210143 0 -0.43930980958642257 -0.33554338078202212 0 -0.4507851133594416 -0.34910720111649318 0 -0.43930980958642257 -0.33554338078202212 0 -0.44966367396753332 -0.33841986907325933 0 -0.4507851133594416 -0.34910720111649318 0 -0.44966367396753332 -0.33841986907325933 0 -0.46855294336124231 -0.32873531729210143 0 -0.46386644800117471 -0.33586508895417932 0 -0.43930980958642257 -0.33554338078202212 0 -0.46855294336124231 -0.32873531729210143 0 -0.43930980958642257 -0.33554338078202212 0 -0.46855294336124231 -0.32873531729210143 0 -0.45653421084860168 -0.32646185290925811 0 -0.44966367396753332 -0.33841986907325933 0 -0.4586808436472537 -0.3401528003513713 0 -0.45711636988675219 -0.34547487934353349 0 -0.44966367396753332 -0.33841986907325933 0 -0.4586808436472537 -0.3401528003513713 0 -0.46386644800117471 -0.33586508895417932 0 -0.4586808436472537 -0.3401528003513713 0 -0.46472493826860672 -0.34236766697450172 0 -0.45711636988675219 -0.34547487934353349 0 -0.4586808436472537 -0.3401528003513713 0 -0.46472493826860672 -0.34236766697450172 0 -0.46386644800117471 -0.33586508895417932 0 -0.46855294336124231 -0.32873531729210143 0 -0.46207595183026873 -0.31834845619891672 0 -0.47203566342767839 -0.31514771464943409 0 -0.46855294336124231 -0.32873531729210143 0 -0.45653421084860168 -0.32646185290925811 0 -0.46207595183026873 -0.31834845619891672 0 -0.46096111539772322 -0.3069557537098867 0 -0.45229582611609759 -0.31444164243390338 0 -0.46207595183026873 -0.31834845619891672 0 -0.45229582611609759 -0.31444164243390338 0 -0.45653421084860168 -0.32646185290925811 0 -0.46207595183026873 -0.31834845619891672 0 -0.46096111539772322 -0.3069557537098867 0 -0.46207595183026873 -0.31834845619891672 0 -0.47203566342767839 -0.31514771464943409 0 -0.48293754746551898 -0.30617437981156609 0 -0.47203566342767839 -0.31514771464943409 0 -0.47770984076123751 -0.32964979107966252 0 -0.48293754746551898 -0.30617437981156609 0 -0.47770984076123751 -0.32964979107966252 0 -0.48293754746551898 -0.30617437981156609 0 -0.48763303240419292 -0.31981883507337211 0 -0.47770984076123751 -0.32964979107966252 0 -0.46855294336124231 -0.32873531729210143 0 -0.47203566342767839 -0.31514771464943409 0 -0.47770984076123751 -0.32964979107966252 0 -0.5 -0.3115730620380921 0 -0.5 -0.33901078862982997 0 -0.49048543526404831 -0.32960291085151988 0 -0.5 -0.3115730620380921 0 -0.48763303240419292 -0.31981883507337211 0 -0.49048543526404831 -0.32960291085151988 0 -0.5 -0.3115730620380921 0 -0.48293754746551898 -0.30617437981156609 0 -0.48763303240419292 -0.31981883507337211 0 -0.48763303240419292 -0.31981883507337211 0 -0.49048543526404831 -0.32960291085151988 0 -0.47770984076123751 -0.32964979107966252 0 -0.49048543526404831 -0.32960291085151988 0 -0.47770984076123751 -0.32964979107966252 0 -0.48708430315481122 -0.3479620774366432 0 -0.5 -0.33901078862982997 0 -0.49048543526404831 -0.32960291085151988 0 -0.48708430315481122 -0.3479620774366432 0 -0.47770984076123751 -0.32964979107966252 0 -0.47248213405695583 -0.35312520234775913 0 -0.47770984076123751 -0.32964979107966252 0 -0.47248213405695583 -0.35312520234775913 0 -0.48708430315481122 -0.3479620774366432 0 -0.46472493826860672 -0.34236766697450172 0 -0.47770984076123751 -0.32964979107966252 0 -0.47248213405695583 -0.35312520234775913 0 -0.46855294336124231 -0.32873531729210143 0 -0.46386644800117471 -0.33586508895417932 0 -0.47770984076123751 -0.32964979107966252 0 -0.46472493826860672 -0.34236766697450172 0 -0.46386644800117471 -0.33586508895417932 0 -0.47770984076123751 -0.32964979107966252 0 -0.47248213405695583 -0.35312520234775913 0 -0.48708430315481122 -0.3479620774366432 0 -0.48422759779560409 -0.37130120630367158 0 -0.5 -0.33901078862982997 0 -0.48708430315481122 -0.3479620774366432 0 -0.5 -0.36644851522156802 0 -0.48708430315481122 -0.3479620774366432 0 -0.5 -0.36644851522156802 0 -0.48422759779560409 -0.37130120630367158 0 -0.46725442735267431 -0.37660061361585562 0 -0.47248213405695583 -0.35312520234775913 0 -0.48422759779560409 -0.37130120630367158 0 -0.46725442735267431 -0.37660061361585562 0 -0.47248213405695583 -0.35312520234775913 0 -0.46725442735267431 -0.37660061361585562 0 -0.4540003998136638 -0.37455519391687309 0 -0.46226041713245919 -0.36267102145096558 0 -0.46725442735267431 -0.37660061361585562 0 -0.47248213405695583 -0.35312520234775913 0 -0.46226041713245919 -0.36267102145096558 0 -0.4540003998136638 -0.37455519391687309 0 -0.46226041713245919 -0.36267102145096558 0 -0.45167034254705118 -0.36337553476545958 0 -0.47248213405695583 -0.35312520234775913 0 -0.46226041713245919 -0.36267102145096558 0 -0.46130034509645268 -0.35111989715704561 0 -0.46472493826860672 -0.34236766697450172 0 -0.47248213405695583 -0.35312520234775913 0 -0.46130034509645268 -0.35111989715704561 0 -0.46472493826860672 -0.34236766697450172 0 -0.46130034509645268 -0.35111989715704561 0 -0.45711636988675219 -0.34547487934353349 0 -0.46130034509645268 -0.35111989715704561 0 -0.45711636988675219 -0.34547487934353349 0 -0.4507851133594416 -0.34910720111649318 0 -0.46226041713245919 -0.36267102145096558 0 -0.4507851133594416 -0.34910720111649318 0 -0.45167034254705118 -0.36337553476545958 0 -0.46226041713245919 -0.36267102145096558 0 -0.46130034509645268 -0.35111989715704561 0 -0.4507851133594416 -0.34910720111649318 0 -0.46226041713245919 -0.36267102145096558 0 -0.4507851133594416 -0.34910720111649318 0 -0.4507851133594416 -0.34910720111649318 0 -0.44504098357239391 -0.35771747353496869 0 -0.45167034254705118 -0.36337553476545958 0 -0.44966367396753332 -0.33841986907325933 0 -0.45711636988675219 -0.34547487934353349 0 -0.4507851133594416 -0.34910720111649318 0 -0.4507851133594416 -0.34910720111649318 0 -0.44408457896710762 -0.34741130507322732 0 -0.44504098357239391 -0.35771747353496869 0 -0.43930980958642257 -0.33554338078202212 0 -0.4507851133594416 -0.34910720111649318 0 -0.44408457896710762 -0.34741130507322732 0 -0.44408457896710762 -0.34741130507322732 0 -0.43834809566141358 -0.35386966642967582 0 -0.4310745521241639 -0.35060051531725012 0 -0.44408457896710762 -0.34741130507322732 0 -0.43834809566141358 -0.35386966642967582 0 -0.44504098357239391 -0.35771747353496869 0 -0.43834809566141358 -0.35386966642967582 0 -0.44504098357239391 -0.35771747353496869 0 -0.43256408976529492 -0.36260533289695268 0 -0.44504098357239391 -0.35771747353496869 0 -0.44172858264042247 -0.37082207246888088 0 -0.43256408976529492 -0.36260533289695268 0 -0.4540003998136638 -0.37455519391687309 0 -0.44172858264042247 -0.37082207246888088 0 -0.45167034254705118 -0.36337553476545958 0 -0.44504098357239391 -0.35771747353496869 0 -0.44172858264042247 -0.37082207246888088 0 -0.45167034254705118 -0.36337553476545958 0 -0.42311368847744002 -0.37830224279505142 0 -0.44172858264042247 -0.37082207246888088 0 -0.43256408976529492 -0.36260533289695268 0 -0.42311368847744002 -0.37830224279505142 0 -0.43256408976529492 -0.36260533289695268 0 -0.41867380740831611 -0.36398836527224071 0 -0.43256408976529492 -0.36260533289695268 0 -0.42210656065146929 -0.35476551363046099 0 -0.41867380740831611 -0.36398836527224071 0 -0.44408457896710762 -0.34741130507322732 0 -0.4310745521241639 -0.35060051531725012 0 -0.42443636388738298 -0.3390060521705498 0 -0.43834809566141358 -0.35386966642967582 0 -0.43256408976529492 -0.36260533289695268 0 -0.4310745521241639 -0.35060051531725012 0 -0.4310745521241639 -0.35060051531725012 0 -0.42266042161335821 -0.34652378860874011 0 -0.42210656065146929 -0.35476551363046099 0 -0.4310745521241639 -0.35060051531725012 0 -0.42266042161335821 -0.34652378860874011 0 -0.42443636388738298 -0.3390060521705498 0 -0.43256408976529492 -0.36260533289695268 0 -0.4310745521241639 -0.35060051531725012 0 -0.42210656065146929 -0.35476551363046099 0 -0.42210656065146929 -0.35476551363046099 0 -0.41243440171204931 -0.35621682403100541 0 -0.41867380740831611 -0.36398836527224071 0 -0.41243440171204931 -0.35621682403100541 0 -0.40365717239196519 -0.36741535175059892 0 -0.40302160193259851 -0.3439916005776541 0 -0.42210656065146929 -0.35476551363046099 0 -0.41714587076776338 -0.34786779488983011 0 -0.41243440171204931 -0.35621682403100541 0 -0.42266042161335821 -0.34652378860874011 0 -0.42210656065146929 -0.35476551363046099 0 -0.41714587076776338 -0.34786779488983011 0 -0.42266042161335821 -0.34652378860874011 0 -0.41714587076776338 -0.34786779488983011 0 -0.41853876063601031 -0.34037906703560689 0 -0.41714587076776338 -0.34786779488983011 0 -0.41853876063601031 -0.34037906703560689 0 -0.41714587076776338 -0.34786779488983011 0 -0.41243440171204931 -0.35621682403100541 0 -0.40302160193259851 -0.3439916005776541 0 -0.41714587076776338 -0.34786779488983011 0 -0.40302160193259851 -0.3439916005776541 0 -0.41853876063601031 -0.34037906703560689 0 -0.42311368847744002 -0.37830224279505142 0 -0.41867380740831611 -0.36398836527224071 0 -0.40365717239196519 -0.36741535175059892 0 -0.42311368847744002 -0.37830224279505142 0 -0.40365717239196519 -0.36741535175059892 0 -0.41243440171204931 -0.35621682403100541 0 -0.41867380740831611 -0.36398836527224071 0 -0.40365717239196519 -0.36741535175059892 0 -0.40403491357358612 -0.38133688525744702 0 -0.40365717239196519 -0.36741535175059892 0 -0.40403491357358612 -0.38133688525744702 0 -0.40365717239196519 -0.36741535175059892 0 -0.3904578797192948 -0.37473938743617019 0 -0.40365717239196519 -0.36741535175059892 0 -0.38979507995825918 -0.35965881973269581 0 -0.40365717239196519 -0.36741535175059892 0 -0.3904578797192948 -0.37473938743617019 0 -0.38979507995825918 -0.35965881973269581 0 -0.3904578797192948 -0.37473938743617019 0 -0.38979507995825918 -0.35965881973269581 0 -0.37568304780698558 -0.36916333065311507 0 -0.37568304780698558 -0.36916333065311507 0 -0.37593298752455201 -0.35190228771479481 0 -0.38979507995825918 -0.35965881973269581 0 -0.37568304780698558 -0.36916333065311507 0 -0.37593298752455201 -0.35190228771479481 0 -0.38979507995825918 -0.35965881973269581 0 -0.37595629511297179 -0.35029264644438168 0 -0.40302160193259851 -0.3439916005776541 0 -0.37595629511297179 -0.35029264644438168 0 -0.40302160193259851 -0.3439916005776541 0 -0.38842354837557669 -0.33756560667471242 0 -0.37595629511297179 -0.35029264644438168 0 -0.40302160193259851 -0.3439916005776541 0 -0.37595629511297179 -0.35029264644438168 0 -0.37607676276689278 -0.3419730509543204 0 -0.37390838074359528 -0.35076941925389299 0 -0.37595629511297179 -0.35029264644438168 0 -0.37607676276689278 -0.3419730509543204 0 -0.37595629511297179 -0.35029264644438168 0 -0.37593298752455201 -0.35190228771479481 0 -0.37390838074359528 -0.35076941925389299 0 -0.37595629511297179 -0.35029264644438168 0 -0.37593298752455201 -0.35190228771479481 0 -0.38979507995825918 -0.35965881973269581 0 -0.37595629511297179 -0.35029264644438168 0 -0.37593298752455201 -0.35190228771479481 0 -0.38979507995825918 -0.35965881973269581 0 -0.37593298752455201 -0.35190228771479481 0 -0.40365717239196519 -0.36741535175059892 0 -0.40302160193259851 -0.3439916005776541 0 -0.40365717239196519 -0.36741535175059892 0 -0.38979507995825918 -0.35965881973269581 0 -0.40302160193259851 -0.3439916005776541 0 -0.40302160193259851 -0.3439916005776541 0 -0.40263324863316441 -0.32967896077653092 0 -0.40263324863316441 -0.32967896077653092 0 -0.38842354837557669 -0.33756560667471242 0 -0.38442983343225828 -0.32189177462067481 0 -0.40302160193259851 -0.3439916005776541 0 -0.40263324863316441 -0.32967896077653092 0 -0.38842354837557669 -0.33756560667471242 0 -0.37607676276689278 -0.3419730509543204 0 -0.37641717267996733 -0.3184640617331177 0 -0.38842354837557669 -0.33756560667471242 0 -0.37607676276689278 -0.3419730509543204 0 -0.38442983343225828 -0.32189177462067481 0 -0.37607676276689278 -0.3419730509543204 0 -0.38442983343225828 -0.32189177462067481 0 -0.37595629511297179 -0.35029264644438168 0 -0.38842354837557669 -0.33756560667471242 0 -0.37607676276689278 -0.3419730509543204 0 -0.37607676276689278 -0.3419730509543204 0 -0.37641717267996733 -0.3184640617331177 0 -0.38442983343225828 -0.32189177462067481 0 -0.37641717267996733 -0.3184640617331177 0 -0.38442983343225828 -0.32189177462067481 0 -0.3841914044669909 -0.30132118344037401 0 -0.37641717267996733 -0.3184640617331177 0 -0.38442983343225828 -0.32189177462067481 0 -0.40263324863316441 -0.32967896077653092 0 -0.38442983343225828 -0.32189177462067481 0 -0.40185461233875269 -0.30098256284660307 0 -0.40263324863316441 -0.32967896077653092 0 -0.38442983343225828 -0.32189177462067481 0 -0.40263324863316441 -0.32967896077653092 0 -0.40185461233875269 -0.30098256284660307 0 -0.40263324863316441 -0.32967896077653092 0 -0.41242695344044827 -0.31820451366256841 0 -0.40185461233875269 -0.30098256284660307 0 -0.41242695344044827 -0.31820451366256841 0 -0.41920998916455232 -0.33677027649670849 0 -0.42301959421646518 -0.31628833020920039 0 -0.41920998916455232 -0.33677027649670849 0 -0.42301959421646518 -0.31628833020920039 0 -0.41242695344044827 -0.31820451366256841 0 -0.42301959421646518 -0.31628833020920039 0 -0.41541732284930832 -0.30730243798379953 0 -0.40302160193259851 -0.3439916005776541 0 -0.41920998916455232 -0.33677027649670849 0 -0.41853876063601031 -0.34037906703560689 0 -0.40302160193259851 -0.3439916005776541 0 -0.40263324863316441 -0.32967896077653092 0 -0.41920998916455232 -0.33677027649670849 0 -0.40263324863316441 -0.32967896077653092 0 -0.41920998916455232 -0.33677027649670849 0 -0.40263324863316441 -0.32967896077653092 0 -0.41242695344044827 -0.31820451366256841 0 -0.41920998916455232 -0.33677027649670849 0 -0.40302160193259851 -0.3439916005776541 0 -0.41853876063601031 -0.34037906703560689 0 -0.41853876063601031 -0.34037906703560689 0 -0.42443636388738298 -0.3390060521705498 0 -0.41920998916455232 -0.33677027649670849 0 -0.42443636388738298 -0.3390060521705498 0 -0.41920998916455232 -0.33677027649670849 0 -0.41853876063601031 -0.34037906703560689 0 -0.42443636388738298 -0.3390060521705498 0 -0.41920998916455232 -0.33677027649670849 0 -0.41853876063601031 -0.34037906703560689 0 -0.43930980958642257 -0.33554338078202212 0 -0.44408457896710762 -0.34741130507322732 0 -0.42443636388738298 -0.3390060521705498 0 -0.43930980958642257 -0.33554338078202212 0 -0.42443636388738298 -0.3390060521705498 0 -0.42301959421646518 -0.31628833020920039 0 -0.41920998916455232 -0.33677027649670849 0 -0.42443636388738298 -0.3390060521705498 0 -0.42301959421646518 -0.31628833020920039 0 -0.44408457896710762 -0.34741130507322732 0 -0.42443636388738298 -0.3390060521705498 0 -0.42266042161335821 -0.34652378860874011 0 -0.41853876063601031 -0.34037906703560689 0 -0.42443636388738298 -0.3390060521705498 0 -0.43930980958642257 -0.33554338078202212 0 -0.42443636388738298 -0.3390060521705498 0 -0.43930980958642257 -0.33554338078202212 0 -0.42301959421646518 -0.31628833020920039 0 -0.44024276041750632 -0.31887045497680111 0 -0.42395130998641067 -0.31127905704434472 0 -0.44024276041750632 -0.31887045497680111 0 -0.43930980958642257 -0.33554338078202212 0 -0.42301959421646518 -0.31628833020920039 0 -0.44024276041750632 -0.31887045497680111 0 -0.42301959421646518 -0.31628833020920039 0 -0.42395130998641067 -0.31127905704434472 0 -0.42301959421646518 -0.31628833020920039 0 -0.42395130998641067 -0.31127905704434472 0 -0.42395130998641067 -0.31127905704434472 0 -0.42709180872781188 -0.29439449141065738 0 -0.44024276041750632 -0.31887045497680111 0 -0.42395130998641067 -0.31127905704434472 0 -0.43527018611072049 -0.30465000121327751 0 -0.42395130998641067 -0.31127905704434472 0 -0.42709180872781188 -0.29439449141065738 0 -0.41541732284930832 -0.30730243798379953 0 -0.42395130998641067 -0.31127905704434472 0 -0.43527018611072049 -0.30465000121327751 0 -0.42709180872781188 -0.29439449141065738 0 -0.441361257405879 -0.29303276451920029 0 -0.43527018611072049 -0.30465000121327751 0 -0.42709180872781188 -0.29439449141065738 0 -0.42709180872781188 -0.29439449141065738 0 -0.43077531442077321 -0.27459050524281542 0 -0.42709180872781188 -0.29439449141065738 0 -0.41684225135067149 -0.28376244362903152 0 -0.43077531442077321 -0.27459050524281542 0 -0.441361257405879 -0.29303276451920029 0 -0.42709180872781188 -0.29439449141065738 0 -0.441361257405879 -0.29303276451920029 0 -0.42709180872781188 -0.29439449141065738 0 -0.43077531442077321 -0.27459050524281542 0 -0.42709180872781188 -0.29439449141065738 0 -0.41684225135067149 -0.28376244362903152 0 -0.40618483967714292 -0.29638963380315841 0 -0.42709180872781188 -0.29439449141065738 0 -0.40618483967714292 -0.29638963380315841 0 -0.41684225135067149 -0.28376244362903152 0 -0.40690107601488551 -0.28490397733270861 0 -0.40618483967714292 -0.29638963380315841 0 -0.41541732284930832 -0.30730243798379953 0 -0.40185461233875269 -0.30098256284660307 0 -0.40618483967714292 -0.29638963380315841 0 -0.42709180872781188 -0.29439449141065738 0 -0.41541732284930832 -0.30730243798379953 0 -0.40618483967714292 -0.29638963380315841 0 -0.41541732284930832 -0.30730243798379953 0 -0.40618483967714292 -0.29638963380315841 0 -0.41242695344044827 -0.31820451366256841 0 -0.41541732284930832 -0.30730243798379953 0 -0.40185461233875269 -0.30098256284660307 0 -0.41541732284930832 -0.30730243798379953 0 -0.40185461233875269 -0.30098256284660307 0 -0.42301959421646518 -0.31628833020920039 0 -0.41541732284930832 -0.30730243798379953 0 -0.42395130998641067 -0.31127905704434472 0 -0.41541732284930832 -0.30730243798379953 0 -0.42301959421646518 -0.31628833020920039 0 -0.42395130998641067 -0.31127905704434472 0 -0.41541732284930832 -0.30730243798379953 0 -0.38442983343225828 -0.32189177462067481 0 -0.40185461233875269 -0.30098256284660307 0 -0.39448508010510541 -0.297525044214214 0 -0.40185461233875269 -0.30098256284660307 0 -0.40174149504185092 -0.29681366012781812 0 -0.40618483967714292 -0.29638963380315841 0 -0.40185461233875269 -0.30098256284660307 0 -0.40174149504185092 -0.29681366012781812 0 -0.40185461233875269 -0.30098256284660307 0 -0.39448508010510541 -0.297525044214214 0 -0.40174149504185092 -0.29681366012781812 0 -0.40185461233875269 -0.30098256284660307 0 -0.39448508010510541 -0.297525044214214 0 -0.39448508010510541 -0.297525044214214 0 -0.40174149504185092 -0.29681366012781812 0 -0.37641717267996733 -0.3184640617331177 0 -0.37669606201677502 -0.29920373422444158 0 -0.38442983343225828 -0.32189177462067481 0 -0.39448508010510541 -0.297525044214214 0 -0.38442983343225828 -0.32189177462067481 0 -0.39448508010510541 -0.297525044214214 0 -0.3841914044669909 -0.30132118344037401 0 -0.37641717267996733 -0.3184640617331177 0 -0.3841914044669909 -0.30132118344037401 0 -0.37669606201677502 -0.29920373422444158 0 -0.39448508010510541 -0.297525044214214 0 -0.3841914044669909 -0.30132118344037401 0 -0.37928718982873688 -0.29895646409505849 0 -0.39448508010510541 -0.297525044214214 0 -0.37928718982873688 -0.29895646409505849 0 -0.3841914044669909 -0.30132118344037401 0 -0.37928718982873688 -0.29895646409505849 0 -0.3841914044669909 -0.30132118344037401 0 -0.37928718982873688 -0.29895646409505849 0 -0.37669606201677502 -0.29920373422444158 0 -0.37928718982873688 -0.29895646409505849 0 -0.37669606201677502 -0.29920373422444158 0 -0.37671758341694961 -0.29771744858697219 0 -0.37928718982873688 -0.29895646409505849 0 -0.37671758341694961 -0.29771744858697219 0 -0.37928718982873688 -0.29895646409505849 0 -0.37669606201677502 -0.29920373422444158 0 -0.37669606201677502 -0.29920373422444158 0 -0.37671758341694961 -0.29771744858697219 0 -0.37671758341694961 -0.29771744858697219 0 -0.38607699004493318 -0.28757386461908069 0 -0.38483052758877101 -0.28123782127595193 0 -0.37671758341694961 -0.29771744858697219 0 -0.3770412393053626 -0.27536550612006683 0 -0.37671758341694961 -0.29771744858697219 0 -0.38483052758877101 -0.28123782127595193 0 -0.3770412393053626 -0.27536550612006683 0 -0.37928718982873688 -0.29895646409505849 0 -0.37671758341694961 -0.29771744858697219 0 -0.38467000758835601 -0.29297497791584359 0 -0.37671758341694961 -0.29771744858697219 0 -0.38467000758835601 -0.29297497791584359 0 -0.38607699004493318 -0.28757386461908069 0 -0.39448508010510541 -0.297525044214214 0 -0.37928718982873688 -0.29895646409505849 0 -0.38467000758835601 -0.29297497791584359 0 -0.39448508010510541 -0.297525044214214 0 -0.38467000758835601 -0.29297497791584359 0 -0.39448508010510541 -0.297525044214214 0 -0.38467000758835601 -0.29297497791584359 0 -0.39217701296355612 -0.28987936211692023 0 -0.38467000758835601 -0.29297497791584359 0 -0.38607699004493318 -0.28757386461908069 0 -0.39217701296355612 -0.28987936211692023 0 -0.38607699004493318 -0.28757386461908069 0 -0.39049541959166939 -0.28414526237041138 0 -0.39217701296355612 -0.28987936211692023 0 -0.39049541959166939 -0.28414526237041138 0 -0.39420405367365152 -0.27853706101481662 0 -0.38483052758877101 -0.28123782127595193 0 -0.38607699004493318 -0.28757386461908069 0 -0.39049541959166939 -0.28414526237041138 0 -0.38483052758877101 -0.28123782127595193 0 -0.39597078832761667 -0.28551153658085893 0 -0.40174149504185092 -0.29681366012781812 0 -0.40123596036735593 -0.27818233727432817 0 -0.39049541959166939 -0.28414526237041138 0 -0.39597078832761667 -0.28551153658085893 0 -0.39420405367365152 -0.27853706101481662 0 -0.40174149504185092 -0.29681366012781812 0 -0.40123596036735593 -0.27818233727432817 0 -0.40174149504185092 -0.29681366012781812 0 -0.40322207619149192 -0.29288764445213411 0 -0.40123596036735593 -0.27818233727432817 0 -0.39049541959166939 -0.28414526237041138 0 -0.39597078832761667 -0.28551153658085893 0 -0.39217701296355612 -0.28987936211692023 0 -0.39597078832761667 -0.28551153658085893 0 -0.39217701296355612 -0.28987936211692023 0 -0.40174149504185092 -0.29681366012781812 0 -0.39448508010510541 -0.297525044214214 0 -0.39217701296355612 -0.28987936211692023 0 -0.40174149504185092 -0.29681366012781812 0 -0.40690107601488551 -0.28490397733270861 0 -0.40322207619149192 -0.29288764445213411 0 -0.40618483967714292 -0.29638963380315841 0 -0.40174149504185092 -0.29681366012781812 0 -0.40322207619149192 -0.29288764445213411 0 -0.40618483967714292 -0.29638963380315841 0 -0.40174149504185092 -0.29681366012781812 0 -0.40618483967714292 -0.29638963380315841 0 -0.40322207619149192 -0.29288764445213411 0 -0.40618483967714292 -0.29638963380315841 0 -0.40690107601488551 -0.28490397733270861 0 -0.40322207619149192 -0.29288764445213411 0 -0.40123596036735593 -0.27818233727432817 0 -0.39420405367365152 -0.27853706101481662 0 -0.37710287173325818 -0.2711091198417086 0 -0.40073042569286338 -0.25955101442083811 0 -0.40123596036735593 -0.27818233727432817 0 -0.39420405367365152 -0.27853706101481662 0 -0.40073042569286338 -0.25955101442083811 0 -0.40123596036735593 -0.27818233727432817 0 -0.40073042569286338 -0.25955101442083811 0 -0.40123596036735593 -0.27818233727432817 0 -0.40073042569286338 -0.25955101442083811 0 -0.41341650638623911 -0.27076301679274262 0 -0.39597078832761667 -0.28551153658085893 0 -0.40123596036735593 -0.27818233727432817 0 -0.39420405367365152 -0.27853706101481662 0 -0.39420405367365152 -0.27853706101481662 0 -0.37710287173325818 -0.2711091198417086 0 -0.3770412393053626 -0.27536550612006683 0 -0.39420405367365152 -0.27853706101481662 0 -0.3770412393053626 -0.27536550612006683 0 -0.39420405367365152 -0.27853706101481662 0 -0.38483052758877101 -0.28123782127595193 0 -0.3770412393053626 -0.27536550612006683 0 -0.37710287173325818 -0.2711091198417086 0 -0.3770412393053626 -0.27536550612006683 0 -0.37710287173325818 -0.2711091198417086 0 -0.38543722149146659 -0.25821727905458303 0 -0.40073042569286338 -0.25955101442083811 0 -0.37710287173325818 -0.2711091198417086 0 -0.37747963509906429 -0.24508953120583671 0 -0.37710287173325818 -0.2711091198417086 0 -0.40073042569286338 -0.25955101442083811 0 -0.37710287173325818 -0.2711091198417086 0 -0.38543722149146659 -0.25821727905458303 0 -0.37747963509906429 -0.24508953120583671 0 -0.38543722149146659 -0.25821727905458303 0 -0.3938256931015453 -0.25037754026629511 0 -0.37747963509906429 -0.24508953120583671 0 -0.38543722149146659 -0.25821727905458303 0 -0.3938256931015453 -0.25037754026629511 0 -0.40073042569286338 -0.25955101442083811 0 -0.40073042569286338 -0.25955101442083811 0 -0.40282532782868952 -0.25224285689579767 0 -0.40022281387448849 -0.24084313907701979 0 -0.40073042569286338 -0.25955101442083811 0 -0.40022281387448849 -0.24084313907701979 0 -0.3938256931015453 -0.25037754026629511 0 -0.40073042569286338 -0.25955101442083811 0 -0.40022281387448849 -0.24084313907701979 0 -0.40073042569286338 -0.25955101442083811 0 -0.40282532782868952 -0.25224285689579767 0 -0.41385673751816382 -0.25312989710486528 0 -0.40073042569286338 -0.25955101442083811 0 -0.41385673751816382 -0.25312989710486528 0 -0.40073042569286338 -0.25955101442083811 0 -0.41385673751816382 -0.25312989710486528 0 -0.41341650638623911 -0.27076301679274262 0 -0.41385673751816382 -0.25312989710486528 0 -0.41341650638623911 -0.27076301679274262 0 -0.42312684460972783 -0.26331748455384929 0 -0.41385673751816382 -0.25312989710486528 0 -0.41679144862722167 -0.25169429778568547 0 -0.43445882011373449 -0.25478651907497341 0 -0.40282532782868952 -0.25224285689579767 0 -0.41385673751816382 -0.25312989710486528 0 -0.4086566941719203 -0.24778871483445111 0 -0.40282532782868952 -0.25224285689579767 0 -0.41385673751816382 -0.25312989710486528 0 -0.41385673751816382 -0.25312989710486528 0 -0.41679144862722167 -0.25169429778568547 0 -0.41627810448972868 -0.24641300060905449 0 -0.41385673751816382 -0.25312989710486528 0 -0.41679144862722167 -0.25169429778568547 0 -0.41684225135067149 -0.28376244362903152 0 -0.41341650638623911 -0.27076301679274262 0 -0.43077531442077321 -0.27459050524281542 0 -0.40690107601488551 -0.28490397733270861 0 -0.40123596036735593 -0.27818233727432817 0 -0.41341650638623911 -0.27076301679274262 0 -0.41684225135067149 -0.28376244362903152 0 -0.40690107601488551 -0.28490397733270861 0 -0.41341650638623911 -0.27076301679274262 0 -0.41341650638623911 -0.27076301679274262 0 -0.43077531442077321 -0.27459050524281542 0 -0.42312684460972783 -0.26331748455384929 0 -0.43077531442077321 -0.27459050524281542 0 -0.42312684460972783 -0.26331748455384929 0 -0.43445882011373449 -0.25478651907497341 0 -0.41385673751816382 -0.25312989710486528 0 -0.43445882011373449 -0.25478651907497341 0 -0.43077531442077321 -0.27459050524281542 0 -0.43445882011373449 -0.25478651907497341 0 -0.41385673751816382 -0.25312989710486528 0 -0.42312684460972783 -0.26331748455384929 0 -0.43445882011373449 -0.25478651907497341 0 -0.41679144862722167 -0.25169429778568547 0 -0.43445882011373449 -0.25478651907497341 0 -0.42335340856967768 -0.24893549408922019 0 -0.32580796388430833 -0.26195871891040218 0 -0.34139866608006603 -0.2687790352098644 0 -0.31202674084989918 -0.26335133138269068 0 -0.32580796388430833 -0.26195871891040218 0 -0.33345250408021371 -0.25331871279766999 0 -0.32023222063025569 -0.2489608815952247 0 -0.32580796388430833 -0.26195871891040218 0 -0.31664960680882542 -0.25714232151458272 0 -0.32023222063025569 -0.2489608815952247 0 -0.31664960680882542 -0.25714232151458272 0 -0.30853150187083839 -0.25429835417001312 0 -0.32023222063025569 -0.2489608815952247 0 -0.32580796388430833 -0.26195871891040218 0 -0.31664960680882542 -0.25714232151458272 0 -0.31202674084989918 -0.26335133138269068 0 -0.33223611708196649 -0.27626932861073827 0 -0.31972670239926188 -0.28454160199560091 0 -0.31187737399160442 -0.27618124236115132 0 -0.34139866608006603 -0.2687790352098644 0 -0.31202674084989918 -0.26335133138269068 0 -0.33223611708196649 -0.27626932861073827 0 -0.31202674084989918 -0.26335133138269068 0 -0.3062135479255173 -0.26372173898871692 0 -0.33223611708196649 -0.27626932861073827 0 -0.31187737399160442 -0.27618124236115132 0 -0.3062135479255173 -0.26372173898871692 0 -0.33260241140844943 -0.2743168067351805 0 -0.33223611708196649 -0.27626932861073827 0 -0.31202674084989918 -0.26335133138269068 0 -0.33223611708196649 -0.27626932861073827 0 -0.3062135479255173 -0.26372173898871692 0 -0.33260241140844943 -0.2743168067351805 0 -0.34139866608006603 -0.2687790352098644 0 -0.31202674084989918 -0.26335133138269068 0 -0.33223611708196649 -0.27626932861073827 0 -0.34139866608006603 -0.2687790352098644 0 -0.34951875912658742 -0.28460269103381453 0 -0.33223611708196649 -0.27626932861073827 0 -0.34951875912658742 -0.28460269103381453 0 -0.33260241140844943 -0.2743168067351805 0 -0.33223611708196649 -0.27626932861073827 0 -0.34139866608006603 -0.2687790352098644 0 -0.33260241140844943 -0.2743168067351805 0 -0.33223611708196649 -0.27626932861073827 0 -0.34139866608006603 -0.2687790352098644 0 -0.3363084638556994 -0.26041051377605268 0 -0.34457472137820933 -0.25758558818627408 0 -0.32580796388430833 -0.26195871891040218 0 -0.34139866608006603 -0.2687790352098644 0 -0.3363084638556994 -0.26041051377605268 0 -0.32580796388430833 -0.26195871891040218 0 -0.3363084638556994 -0.26041051377605268 0 -0.33345250408021371 -0.25331871279766999 0 -0.3363084638556994 -0.26041051377605268 0 -0.33345250408021371 -0.25331871279766999 0 -0.34457472137820933 -0.25758558818627408 0 -0.33345250408021371 -0.25331871279766999 0 -0.34457472137820933 -0.25758558818627408 0 -0.34395992200845399 -0.24382677409400949 0 -0.34139866608006603 -0.2687790352098644 0 -0.34457472137820933 -0.25758558818627408 0 -0.35733732661955131 -0.26288598862094092 0 -0.34457472137820933 -0.25758558818627408 0 -0.35872453044413888 -0.25078889886649508 0 -0.34395992200845399 -0.24382677409400949 0 -0.34457472137820933 -0.25758558818627408 0 -0.35733732661955131 -0.26288598862094092 0 -0.35872453044413888 -0.25078889886649508 0 -0.37710287173325818 -0.2711091198417086 0 -0.36828299104124951 -0.26081605551440462 0 -0.37747963509906429 -0.24508953120583671 0 -0.35872453044413888 -0.25078889886649508 0 -0.36828299104124951 -0.26081605551440462 0 -0.37747963509906429 -0.24508953120583671 0 -0.35733732661955131 -0.26288598862094092 0 -0.35872453044413888 -0.25078889886649508 0 -0.36828299104124951 -0.26081605551440462 0 -0.37077059131023282 -0.27420673903703829 0 -0.34951875912658742 -0.28460269103381453 0 -0.37710287173325818 -0.2711091198417086 0 -0.3770412393053626 -0.27536550612006683 0 -0.37077059131023282 -0.27420673903703829 0 -0.3770412393053626 -0.27536550612006683 0 -0.37077059131023282 -0.27420673903703829 0 -0.37710287173325818 -0.2711091198417086 0 -0.36828299104124951 -0.26081605551440462 0 -0.37077059131023282 -0.27420673903703829 0 -0.37710287173325818 -0.2711091198417086 0 -0.37077059131023282 -0.27420673903703829 0 -0.35733732661955131 -0.26288598862094092 0 -0.36828299104124951 -0.26081605551440462 0 -0.37077059131023282 -0.27420673903703829 0 -0.34139866608006603 -0.2687790352098644 0 -0.35733732661955131 -0.26288598862094092 0 -0.37077059131023282 -0.27420673903703829 0 -0.34139866608006603 -0.2687790352098644 0 -0.37077059131023282 -0.27420673903703829 0 -0.34951875912658742 -0.28460269103381453 0 -0.34139866608006603 -0.2687790352098644 0 -0.37077059131023282 -0.27420673903703829 0 -0.34951875912658742 -0.28460269103381453 0 -0.3581763596052473 -0.30097106086504849 0 -0.34010739644885768 -0.2892065328944351 0 -0.34951875912658742 -0.28460269103381453 0 -0.34010739644885768 -0.2892065328944351 0 -0.37671758341694961 -0.29771744858697219 0 -0.37077059131023282 -0.27420673903703829 0 -0.34951875912658742 -0.28460269103381453 0 -0.37671758341694961 -0.29771744858697219 0 -0.34951875912658742 -0.28460269103381453 0 -0.37671758341694961 -0.29771744858697219 0 -0.3770412393053626 -0.27536550612006683 0 -0.37077059131023282 -0.27420673903703829 0 -0.37671758341694961 -0.29771744858697219 0 -0.34951875912658742 -0.28460269103381453 0 -0.3581763596052473 -0.30097106086504849 0 -0.37669606201677502 -0.29920373422444158 0 -0.37671758341694961 -0.29771744858697219 0 -0.3581763596052473 -0.30097106086504849 0 -0.37641717267996733 -0.3184640617331177 0 -0.37669606201677502 -0.29920373422444158 0 -0.36799370156123501 -0.30592930732763762 0 -0.37641717267996733 -0.3184640617331177 0 -0.36799370156123501 -0.30592930732763762 0 -0.35803691493684492 -0.31060122461938489 0 -0.37669606201677502 -0.29920373422444158 0 -0.36799370156123501 -0.30592930732763762 0 -0.3581763596052473 -0.30097106086504849 0 -0.37669606201677502 -0.29920373422444158 0 -0.3581763596052473 -0.30097106086504849 0 -0.36799370156123501 -0.30592930732763762 0 -0.35803691493684492 -0.31060122461938489 0 -0.3581763596052473 -0.30097106086504849 0 -0.35803691493684492 -0.31060122461938489 0 -0.33965665719371979 -0.30273838750565862 0 -0.35803691493684492 -0.31060122461938489 0 -0.33965665719371979 -0.30273838750565862 0 -0.34514704515453298 -0.31300544250539297 0 -0.3581763596052473 -0.30097106086504849 0 -0.33965665719371979 -0.30273838750565862 0 -0.34010739644885768 -0.2892065328944351 0 -0.35803691493684492 -0.31060122461938489 0 -0.3581763596052473 -0.30097106086504849 0 -0.33965665719371979 -0.30273838750565862 0 -0.3581763596052473 -0.30097106086504849 0 -0.33965665719371979 -0.30273838750565862 0 -0.33676996251121621 -0.31158184422573892 0 -0.33965665719371979 -0.30273838750565862 0 -0.34514704515453298 -0.31300544250539297 0 -0.33676996251121621 -0.31158184422573892 0 -0.33965665719371979 -0.30273838750565862 0 -0.32704471803945162 -0.30394193902942662 0 -0.33676996251121621 -0.31158184422573892 0 -0.32594772137393307 -0.30978944971135602 0 -0.32704471803945162 -0.30394193902942662 0 -0.33965665719371979 -0.30273838750565862 0 -0.32704471803945162 -0.30394193902942662 0 -0.32819068517220462 -0.29783339261299951 0 -0.33965665719371979 -0.30273838750565862 0 -0.32704471803945162 -0.30394193902942662 0 -0.32819068517220462 -0.29783339261299951 0 -0.33965665719371979 -0.30273838750565862 0 -0.33223611708196649 -0.27626932861073827 0 -0.32819068517220462 -0.29783339261299951 0 -0.33223611708196649 -0.27626932861073827 0 -0.32819068517220462 -0.29783339261299951 0 -0.34010739644885768 -0.2892065328944351 0 -0.33223611708196649 -0.27626932861073827 0 -0.34951875912658742 -0.28460269103381453 0 -0.34010739644885768 -0.2892065328944351 0 -0.32819068517220462 -0.29783339261299951 0 -0.33965665719371979 -0.30273838750565862 0 -0.34010739644885768 -0.2892065328944351 0 -0.32819068517220462 -0.29783339261299951 0 -0.31972670239926188 -0.28454160199560091 0 -0.31332574866090718 -0.291474364566292 0 -0.32819068517220462 -0.29783339261299951 0 -0.31332574866090718 -0.291474364566292 0 -0.33223611708196649 -0.27626932861073827 0 -0.32819068517220462 -0.29783339261299951 0 -0.31972670239926188 -0.28454160199560091 0 -0.31972670239926188 -0.28454160199560091 0 -0.31332574866090718 -0.291474364566292 0 -0.30937392239009109 -0.28339120160471948 0 -0.31972670239926188 -0.28454160199560091 0 -0.30937392239009109 -0.28339120160471948 0 -0.31187737399160442 -0.27618124236115132 0 -0.31992409361072222 -0.30462145692723192 0 -0.32594772137393307 -0.30978944971135602 0 -0.31307430431717392 -0.31869978567557272 0 -0.31992409361072222 -0.30462145692723192 0 -0.32594772137393307 -0.30978944971135602 0 -0.32594772137393307 -0.30978944971135602 0 -0.32704471803945162 -0.30394193902942662 0 -0.31992409361072222 -0.30462145692723192 0 -0.32594772137393307 -0.30978944971135602 0 -0.32704471803945162 -0.30394193902942662 0 -0.32819068517220462 -0.29783339261299951 0 -0.31332574866090718 -0.291474364566292 0 -0.31992409361072222 -0.30462145692723192 0 -0.32819068517220462 -0.29783339261299951 0 -0.32704471803945162 -0.30394193902942662 0 -0.32819068517220462 -0.29783339261299951 0 -0.31992409361072222 -0.30462145692723192 0 -0.32704471803945162 -0.30394193902942662 0 -0.31992409361072222 -0.30462145692723192 0 -0.32704471803945162 -0.30394193902942662 0 -0.32594772137393307 -0.30978944971135602 0 -0.31307430431717392 -0.31869978567557272 0 -0.32184288384298337 -0.33167017375041419 0 -0.32594772137393307 -0.30978944971135602 0 -0.32184288384298337 -0.33167017375041419 0 -0.32184288384298337 -0.33167017375041419 0 -0.31773804631203251 -0.35355089778947202 0 -0.32184288384298337 -0.33167017375041419 0 -0.34475024534571441 -0.34586667392980902 0 -0.31773804631203251 -0.35355089778947202 0 -0.32184288384298337 -0.33167017375041419 0 -0.34612464597635118 -0.32710031367078812 0 -0.34475024534571441 -0.34586667392980902 0 -0.33676996251121621 -0.31158184422573892 0 -0.32594772137393307 -0.30978944971135602 0 -0.34612464597635118 -0.32710031367078812 0 -0.32594772137393307 -0.30978944971135602 0 -0.34612464597635118 -0.32710031367078812 0 -0.32594772137393307 -0.30978944971135602 0 -0.32184288384298337 -0.33167017375041419 0 -0.34612464597635118 -0.32710031367078812 0 -0.33676996251121621 -0.31158184422573892 0 -0.34514704515453298 -0.31300544250539297 0 -0.34612464597635118 -0.32710031367078812 0 -0.35803691493684492 -0.31060122461938489 0 -0.34514704515453298 -0.31300544250539297 0 -0.34612464597635118 -0.32710031367078812 0 -0.35803691493684492 -0.31060122461938489 0 -0.34612464597635118 -0.32710031367078812 0 -0.35600230731325749 -0.33324145173106873 0 -0.37641717267996733 -0.3184640617331177 0 -0.35803691493684492 -0.31060122461938489 0 -0.37641717267996733 -0.3184640617331177 0 -0.35803691493684492 -0.31060122461938489 0 -0.36719759625642318 -0.33008752154143739 0 -0.35803691493684492 -0.31060122461938489 0 -0.36719759625642318 -0.33008752154143739 0 -0.35600230731325749 -0.33324145173106873 0 -0.37607676276689278 -0.3419730509543204 0 -0.37641717267996733 -0.3184640617331177 0 -0.36719759625642318 -0.33008752154143739 0 -0.37607676276689278 -0.3419730509543204 0 -0.3688763256213185 -0.34309961767568647 0 -0.36719759625642318 -0.33008752154143739 0 -0.36719759625642318 -0.33008752154143739 0 -0.36118874601324108 -0.3436521492952741 0 -0.35600230731325749 -0.33324145173106873 0 -0.3688763256213185 -0.34309961767568647 0 -0.36719759625642318 -0.33008752154143739 0 -0.36118874601324108 -0.3436521492952741 0 -0.34612464597635118 -0.32710031367078812 0 -0.35600230731325749 -0.33324145173106873 0 -0.34475024534571441 -0.34586667392980902 0 -0.36118874601324108 -0.3436521492952741 0 -0.35600230731325749 -0.33324145173106873 0 -0.34475024534571441 -0.34586667392980902 0 -0.36118874601324108 -0.3436521492952741 0 -0.34475024534571441 -0.34586667392980902 0 -0.35925477447714671 -0.35134479444962452 0 -0.34475024534571441 -0.34586667392980902 0 -0.35480891830463612 -0.3592101017575729 0 -0.33937201587241012 -0.36587749477948078 0 -0.34475024534571441 -0.34586667392980902 0 -0.35480891830463612 -0.3592101017575729 0 -0.35925477447714671 -0.35134479444962452 0 -0.36118874601324108 -0.3436521492952741 0 -0.37225797237559449 -0.35115364910559932 0 -0.36118874601324108 -0.3436521492952741 0 -0.35925477447714671 -0.35134479444962452 0 -0.36985982957495511 -0.35171195823109852 0 -0.37568304780698558 -0.36916333065311507 0 -0.37593298752455201 -0.35190228771479481 0 -0.37225797237559449 -0.35115364910559932 0 -0.35480891830463612 -0.3592101017575729 0 -0.35925477447714671 -0.35134479444962452 0 -0.36985982957495511 -0.35171195823109852 0 -0.37607676276689278 -0.3419730509543204 0 -0.3688763256213185 -0.34309961767568647 0 -0.37225797237559449 -0.35115364910559932 0 -0.37607676276689278 -0.3419730509543204 0 -0.37225797237559449 -0.35115364910559932 0 -0.37607676276689278 -0.3419730509543204 0 -0.37390838074359528 -0.35076941925389299 0 -0.37225797237559449 -0.35115364910559932 0 -0.37593298752455201 -0.35190228771479481 0 -0.37390838074359528 -0.35076941925389299 0 -0.37225797237559449 -0.35115364910559932 0 -0.3688763256213185 -0.34309961767568647 0 -0.36118874601324108 -0.3436521492952741 0 -0.37225797237559449 -0.35115364910559932 0 -0.37593298752455201 -0.35190228771479481 0 -0.37390838074359528 -0.35076941925389299 0 -0.36118874601324108 -0.3436521492952741 0 -0.36985982957495511 -0.35171195823109852 0 -0.37225797237559449 -0.35115364910559932 0 -0.37595629511297179 -0.35029264644438168 0 -0.37390838074359528 -0.35076941925389299 0 -0.37390838074359528 -0.35076941925389299 0 -0.37225797237559449 -0.35115364910559932 0 -0.36985982957495511 -0.35171195823109852 0 -0.37225797237559449 -0.35115364910559932 0 -0.37568304780698558 -0.36916333065311507 0 -0.37225797237559449 -0.35115364910559932 0 -0.36100598543278789 -0.37820409176948921 0 -0.35480891830463612 -0.3592101017575729 0 -0.36985982957495511 -0.35171195823109852 0 -0.36100598543278789 -0.37820409176948921 0 -0.36985982957495511 -0.35171195823109852 0 -0.37225797237559449 -0.35115364910559932 0 -0.36100598543278789 -0.37820409176948921 0 -0.37225797237559449 -0.35115364910559932 0 -0.36100598543278789 -0.37820409176948921 0 -0.33937201587241012 -0.36587749477948078 0 -0.36100598543278789 -0.37820409176948921 0 -0.35480891830463612 -0.3592101017575729 0 -0.33937201587241012 -0.36587749477948078 0 -0.36100598543278789 -0.37820409176948921 0 -0.33937201587241012 -0.36587749477948078 0 -0.31773804631203251 -0.35355089778947202 0 -0.33937201587241012 -0.36587749477948078 0 -0.31773804631203251 -0.35355089778947202 0 -0.32803705280137402 -0.37447550275240871 0 -0.34475024534571441 -0.34586667392980902 0 -0.33937201587241012 -0.36587749477948078 0 -0.31773804631203251 -0.35355089778947202 0 -0.31773804631203251 -0.35355089778947202 0 -0.31381007312398762 -0.37448885129246268 0 -0.31773804631203251 -0.35355089778947202 0 -0.31381007312398762 -0.37448885129246268 0 -0.32803705280137402 -0.37447550275240871 0 -0.31381007312398762 -0.37448885129246268 0 -0.29871455833571747 -0.36148408621311728 0 -0.29196992941862432 -0.3825632544476108 0 -0.31773804631203251 -0.35355089778947202 0 -0.31381007312398762 -0.37448885129246268 0 -0.29871455833571747 -0.36148408621311728 0 -0.31773804631203251 -0.35355089778947202 0 -0.29871455833571747 -0.36148408621311728 0 -0.29282778547957722 -0.33935753649529382 0 -0.31773804631203251 -0.35355089778947202 0 -0.29282778547957722 -0.33935753649529382 0 -0.29871455833571747 -0.36148408621311728 0 -0.27675503022224163 -0.36681377825091099 0 -0.29282778547957722 -0.33935753649529382 0 -0.29871455833571747 -0.36148408621311728 0 -0.27675503022224163 -0.36681377825091099 0 -0.29196992941862432 -0.3825632544476108 0 -0.27675503022224163 -0.36681377825091099 0 -0.25757508569408222 -0.36424633604315798 0 -0.26546808025963542 -0.34847395767735678 0 -0.27675503022224163 -0.36681377825091099 0 -0.25757508569408222 -0.36424633604315798 0 -0.25812358553267323 -0.37605355791306738 0 -0.25757508569408222 -0.36424633604315798 0 -0.24839247009954951 -0.37292447016044328 0 -0.24532753696728959 -0.36501789644951049 0 -0.25757508569408222 -0.36424633604315798 0 -0.25812358553267323 -0.37605355791306738 0 -0.24839247009954951 -0.37292447016044328 0 -0.25757508569408222 -0.36424633604315798 0 -0.26546808025963542 -0.34847395767735678 0 -0.24650166737573331 -0.3569693529562265 0 -0.26546808025963542 -0.34847395767735678 0 -0.24650166737573331 -0.3569693529562265 0 -0.24881121389389799 -0.33838995723746451 0 -0.27675503022224163 -0.36681377825091099 0 -0.26546808025963542 -0.34847395767735678 0 -0.29282778547957722 -0.33935753649529382 0 -0.26791752464712137 -0.32516417520111718 0 -0.27544300416693679 -0.31995488319631832 0 -0.29282778547957722 -0.33935753649529382 0 -0.26546808025963542 -0.34847395767735678 0 -0.26791752464712137 -0.32516417520111718 0 -0.29282778547957722 -0.33935753649529382 0 -0.26791752464712137 -0.32516417520111718 0 -0.29282778547957722 -0.33935753649529382 0 -0.26791752464712137 -0.32516417520111718 0 -0.24881121389389799 -0.33838995723746451 0 -0.26546808025963542 -0.34847395767735678 0 -0.26791752464712137 -0.32516417520111718 0 -0.24881121389389799 -0.33838995723746451 0 -0.26791752464712137 -0.32516417520111718 0 -0.24881121389389799 -0.33838995723746451 0 -0.2441082332202735 -0.32380704628422963 0 -0.26791752464712137 -0.32516417520111718 0 -0.2444966906846206 -0.31181945912301329 0 -0.26791752464712137 -0.32516417520111718 0 -0.26963915832665503 -0.30942012505775762 0 -0.2444966906846206 -0.31181945912301329 0 -0.26791752464712137 -0.32516417520111718 0 -0.2441082332202735 -0.32380704628422963 0 -0.2444966906846206 -0.31181945912301329 0 -0.26791752464712137 -0.32516417520111718 0 -0.27544300416693679 -0.31995488319631832 0 -0.26963915832665503 -0.30942012505775762 0 -0.26791752464712137 -0.32516417520111718 0 -0.27544300416693679 -0.31995488319631832 0 -0.27544300416693679 -0.31995488319631832 0 -0.29403167998309421 -0.32125824908992018 0 -0.29478162596868879 -0.30702079099249591 0 -0.27544300416693679 -0.31995488319631832 0 -0.29403167998309421 -0.32125824908992018 0 -0.29282778547957722 -0.33935753649529382 0 -0.31307430431717392 -0.31869978567557272 0 -0.32184288384298337 -0.33167017375041419 0 -0.29282778547957722 -0.33935753649529382 0 -0.32184288384298337 -0.33167017375041419 0 -0.31773804631203251 -0.35355089778947202 0 -0.29282778547957722 -0.33935753649529382 0 -0.31307430431717392 -0.31869978567557272 0 -0.29403167998309421 -0.32125824908992018 0 -0.29282778547957722 -0.33935753649529382 0 -0.31307430431717392 -0.31869978567557272 0 -0.29403167998309421 -0.32125824908992018 0 -0.29478162596868879 -0.30702079099249591 0 -0.31992409361072222 -0.30462145692723192 0 -0.29478162596868879 -0.30702079099249591 0 -0.31992409361072222 -0.30462145692723192 0 -0.31307430431717392 -0.31869978567557272 0 -0.29478162596868879 -0.30702079099249591 0 -0.31992409361072222 -0.30462145692723192 0 -0.30687808727867438 -0.29770175581860719 0 -0.29478162596868879 -0.30702079099249591 0 -0.30687808727867438 -0.29770175581860719 0 -0.29813438661480679 -0.29530641477552327 0 -0.29478162596868879 -0.30702079099249591 0 -0.31992409361072222 -0.30462145692723192 0 -0.2984608121496099 -0.28511533651958437 0 -0.31992409361072222 -0.30462145692723192 0 -0.30687808727867438 -0.29770175581860719 0 -0.2984608121496099 -0.28511533651958437 0 -0.31332574866090718 -0.291474364566292 0 -0.31992409361072222 -0.30462145692723192 0 -0.2984608121496099 -0.28511533651958437 0 -0.31332574866090718 -0.291474364566292 0 -0.30937392239009109 -0.28339120160471948 0 -0.2984608121496099 -0.28511533651958437 0 -0.31332574866090718 -0.291474364566292 0 -0.2984608121496099 -0.28511533651958437 0 -0.30937392239009109 -0.28339120160471948 0 -0.2984608121496099 -0.28511533651958437 0 -0.30347897474907187 -0.279643462580969 0 -0.30687808727867438 -0.29770175581860719 0 -0.29951482580247829 -0.29240083595456018 0 -0.29813438661480679 -0.29530641477552327 0 -0.30687808727867438 -0.29770175581860719 0 -0.2984608121496099 -0.28511533651958437 0 -0.29951482580247829 -0.29240083595456018 0 -0.29951482580247829 -0.29240083595456018 0 -0.29813438661480679 -0.29530641477552327 0 -0.29499124589990039 -0.29073588210889412 0 -0.2984608121496099 -0.28511533651958437 0 -0.29951482580247829 -0.29240083595456018 0 -0.29499124589990039 -0.29073588210889412 0 -0.29499124589990039 -0.29073588210889412 0 -0.29148170063899659 -0.29460773718781319 0 -0.28586576089235322 -0.28577101837165192 0 -0.29813438661480679 -0.29530641477552327 0 -0.29499124589990039 -0.29073588210889412 0 -0.29148170063899659 -0.29460773718781319 0 -0.2984608121496099 -0.28511533651958437 0 -0.29499124589990039 -0.29073588210889412 0 -0.28586576089235322 -0.28577101837165192 0 -0.29148170063899659 -0.29460773718781319 0 -0.28586576089235322 -0.28577101837165192 0 -0.2798353156189245 -0.29508903771003908 0 -0.29148170063899659 -0.29460773718781319 0 -0.29478162596868879 -0.30702079099249591 0 -0.2798353156189245 -0.29508903771003908 0 -0.29478162596868879 -0.30702079099249591 0 -0.26963915832665503 -0.30942012505775762 0 -0.2798353156189245 -0.29508903771003908 0 -0.29478162596868879 -0.30702079099249591 0 -0.26963915832665503 -0.30942012505775762 0 -0.29813438661480679 -0.29530641477552327 0 -0.29148170063899659 -0.29460773718781319 0 -0.29478162596868879 -0.30702079099249591 0 -0.27544300416693679 -0.31995488319631832 0 -0.29478162596868879 -0.30702079099249591 0 -0.26963915832665503 -0.30942012505775762 0 -0.26963915832665503 -0.30942012505775762 0 -0.26057201890547982 -0.29344093798311832 0 -0.2798353156189245 -0.29508903771003908 0 -0.26963915832665503 -0.30942012505775762 0 -0.2444966906846206 -0.31181945912301329 0 -0.26963915832665503 -0.30942012505775762 0 -0.26057201890547982 -0.29344093798311832 0 -0.2444966906846206 -0.31181945912301329 0 -0.26057201890547982 -0.29344093798311832 0 -0.27108878797196961 -0.28331686931735522 0 -0.25298377122075039 -0.27518622721876451 0 -0.26057201890547982 -0.29344093798311832 0 -0.25298377122075039 -0.27518622721876451 0 -0.2435111179254994 -0.29490773243705071 0 -0.26057201890547982 -0.29344093798311832 0 -0.27108878797196961 -0.28331686931735522 0 -0.2798353156189245 -0.29508903771003908 0 -0.28586576089235322 -0.28577101837165192 0 -0.27108878797196961 -0.28331686931735522 0 -0.2798353156189245 -0.29508903771003908 0 -0.27108878797196961 -0.28331686931735522 0 -0.27618707322233982 -0.26709712530320262 0 -0.25298377122075039 -0.27518622721876451 0 -0.28586576089235322 -0.28577101837165192 0 -0.27108878797196961 -0.28331686931735522 0 -0.27618707322233982 -0.26709712530320262 0 -0.27618707322233982 -0.26709712530320262 0 -0.25431856302814809 -0.24833495949118861 0 -0.27618707322233982 -0.26709712530320262 0 -0.25298377122075039 -0.27518622721876451 0 -0.25431856302814809 -0.24833495949118861 0 -0.27618707322233982 -0.26709712530320262 0 -0.27309361240676189 -0.24179026653703889 0 -0.25431856302814809 -0.24833495949118861 0 -0.27618707322233982 -0.26709712530320262 0 -0.2907170577323625 -0.25177677077710309 0 -0.27309361240676189 -0.24179026653703889 0 -0.27618707322233982 -0.26709712530320262 0 -0.2907170577323625 -0.25177677077710309 0 -0.29477899871119112 -0.26293378760569941 0 -0.2984608121496099 -0.28511533651958437 0 -0.28586576089235322 -0.28577101837165192 0 -0.27618707322233982 -0.26709712530320262 0 -0.2984608121496099 -0.28511533651958437 0 -0.27618707322233982 -0.26709712530320262 0 -0.27618707322233982 -0.26709712530320262 0 -0.29477899871119112 -0.26293378760569941 0 -0.29948479845841441 -0.27338487519771032 0 -0.2984608121496099 -0.28511533651958437 0 -0.27618707322233982 -0.26709712530320262 0 -0.29948479845841441 -0.27338487519771032 0 -0.29477899871119112 -0.26293378760569941 0 -0.29948479845841441 -0.27338487519771032 0 -0.30156079933714469 -0.26765617134954151 0 -0.30156079933714469 -0.26765617134954151 0 -0.30403476516136241 -0.27459464834518948 0 -0.30588444940973558 -0.27063474712059482 0 -0.29948479845841441 -0.27338487519771032 0 -0.30156079933714469 -0.26765617134954151 0 -0.30403476516136241 -0.27459464834518948 0 -0.30156079933714469 -0.26765617134954151 0 -0.30588444940973558 -0.27063474712059482 0 -0.3062135479255173 -0.26372173898871692 0 -0.2984608121496099 -0.28511533651958437 0 -0.29948479845841441 -0.27338487519771032 0 -0.30347897474907187 -0.279643462580969 0 -0.29948479845841441 -0.27338487519771032 0 -0.30403476516136241 -0.27459464834518948 0 -0.30347897474907187 -0.279643462580969 0 -0.30937392239009109 -0.28339120160471948 0 -0.30347897474907187 -0.279643462580969 0 -0.31187737399160442 -0.27618124236115132 0 -0.30403476516136241 -0.27459464834518948 0 -0.30347897474907187 -0.279643462580969 0 -0.31187737399160442 -0.27618124236115132 0 -0.30403476516136241 -0.27459464834518948 0 -0.31187737399160442 -0.27618124236115132 0 -0.30588444940973558 -0.27063474712059482 0 -0.31187737399160442 -0.27618124236115132 0 -0.30588444940973558 -0.27063474712059482 0 -0.3062135479255173 -0.26372173898871692 0 -0.31664960680882542 -0.25714232151458272 0 -0.31202674084989918 -0.26335133138269068 0 -0.30853150187083839 -0.25429835417001312 0 -0.2907170577323625 -0.25177677077710309 0 -0.29477899871119112 -0.26293378760569941 0 -0.30853150187083839 -0.25429835417001312 0 -0.31202674084989918 -0.26335133138269068 0 -0.3062135479255173 -0.26372173898871692 0 -0.30853150187083839 -0.25429835417001312 0 -0.29477899871119112 -0.26293378760569941 0 -0.30156079933714469 -0.26765617134954151 0 -0.3062135479255173 -0.26372173898871692 0 -0.29477899871119112 -0.26293378760569941 0 -0.3062135479255173 -0.26372173898871692 0 -0.30853150187083839 -0.25429835417001312 0 -0.33709504481289931 -0.46474263175187808 0 -0.33075086723682939 -0.45093918684289991 0 -0.35302422329502631 -0.44785824460859458 0 -0.33709504481289931 -0.46474263175187808 0 -0.33075086723682939 -0.45093918684289991 0 -0.32054712240525829 -0.47546959342145068 0 -0.33075086723682939 -0.45093918684289991 0 -0.34095461206840061 -0.42640878026434909 0 -0.33075086723682939 -0.45093918684289991 0 -0.35302422329502631 -0.44785824460859458 0 -0.34095461206840061 -0.42640878026434909 0 -0.33075086723682939 -0.45093918684289991 0 -0.32054706720266329 -0.44859283512714471 0 -0.3206124180200437 -0.43193612962395289 0 -0.33075086723682939 -0.45093918684289991 0 -0.32054706720266329 -0.44859283512714471 0 -0.31571728338184601 -0.45752087103574601 0 -0.32054706720266329 -0.44859283512714471 0 -0.31571728338184601 -0.45752087103574601 0 -0.30706080135445341 -0.45057148265483188 0 -0.33075086723682939 -0.45093918684289991 0 -0.32054712240525829 -0.47546959342145068 0 -0.33075086723682939 -0.45093918684289991 0 -0.31571728338184601 -0.45752087103574601 0 -0.32054712240525829 -0.47546959342145068 0 -0.32054712240525829 -0.47546959342145068 0 -0.32750579650535672 -0.48798687004089669 0 -0.32933965142182292 -0.47777380670114528 0 -0.32054712240525829 -0.47546959342145068 0 -0.31034337757368669 -0.50000000000000133 0 -0.32750579650535672 -0.48798687004089669 0 -0.33387795429423722 -0.5 0 -0.31034337757368669 -0.50000000000000133 0 -0.32054712240525829 -0.47546959342145068 0 -0.32750579650535672 -0.48798687004089669 0 -0.31034337757368669 -0.50000000000000133 0 -0.32750579650535672 -0.48798687004089669 0 -0.34342087683177741 -0.48669095008188618 0 -0.33387795429423722 -0.5 0 -0.33709504481289931 -0.46474263175187808 0 -0.32933965142182292 -0.47777380670114528 0 -0.35181335970555933 -0.47167232718529989 0 -0.34342087683177741 -0.48669095008188618 0 -0.32933965142182292 -0.47777380670114528 0 -0.35181335970555933 -0.47167232718529989 0 -0.32750579650535672 -0.48798687004089669 0 -0.34342087683177741 -0.48669095008188618 0 -0.32933965142182292 -0.47777380670114528 0 -0.33709504481289931 -0.46474263175187808 0 -0.32054712240525829 -0.47546959342145068 0 -0.32933965142182292 -0.47777380670114528 0 -0.32933965142182292 -0.47777380670114528 0 -0.35181335970555933 -0.47167232718529989 0 -0.34342087683177741 -0.48669095008188618 0 -0.35181335970555933 -0.47167232718529989 0 -0.35979455825166368 -0.48519290092039941 0 -0.34342087683177741 -0.48669095008188618 0 -0.35741253101478748 -0.5 0 -0.35979455825166368 -0.48519290092039941 0 -0.34342087683177741 -0.48669095008188618 0 -0.33387795429423722 -0.5 0 -0.35741253101478748 -0.5 0 -0.38094710773533791 -0.49999999999999839 0 -0.35741253101478748 -0.5 0 -0.37240076261097882 -0.48974555046165519 0 -0.35741253101478748 -0.5 0 -0.35979455825166368 -0.48519290092039941 0 -0.37240076261097882 -0.48974555046165519 0 -0.35181335970555933 -0.47167232718529989 0 -0.35979455825166368 -0.48519290092039941 0 -0.37411677223754131 -0.47733161267270968 0 -0.35181335970555933 -0.47167232718529989 0 -0.37411677223754131 -0.47733161267270968 0 -0.37428706798929601 -0.46557084766945539 0 -0.35979455825166368 -0.48519290092039941 0 -0.37240076261097882 -0.48974555046165519 0 -0.37411677223754131 -0.47733161267270968 0 -0.37411677223754131 -0.47733161267270968 0 -0.37428706798929601 -0.46557084766945539 0 -0.35181335970555933 -0.47167232718529989 0 -0.37428706798929601 -0.46557084766945539 0 -0.35302422329502631 -0.44785824460859458 0 -0.35181335970555933 -0.47167232718529989 0 -0.37428706798929601 -0.46557084766945539 0 -0.33709504481289931 -0.46474263175187808 0 -0.35181335970555933 -0.47167232718529989 0 -0.35302422329502631 -0.44785824460859458 0 -0.37428706798929601 -0.46557084766945539 0 -0.35302422329502631 -0.44785824460859458 0 -0.37472313619600889 -0.43545561783144832 0 -0.37428706798929601 -0.46557084766945539 0 -0.37472313619600889 -0.43545561783144832 0 -0.35302422329502631 -0.44785824460859458 0 -0.37472313619600889 -0.43545561783144832 0 -0.36076670325611282 -0.42019275678090617 0 -0.37515920440272033 -0.40534038799344108 0 -0.37472313619600889 -0.43545561783144832 0 -0.36076670325611282 -0.42019275678090617 0 -0.37515920440272033 -0.40534038799344108 0 -0.36076670325611282 -0.42019275678090617 0 -0.35115835689997099 -0.40187837368579798 0 -0.37515920440272033 -0.40534038799344108 0 -0.37472313619600889 -0.43545561783144832 0 -0.36076670325611282 -0.42019275678090617 0 -0.35115835689997099 -0.40187837368579798 0 -0.34095461206840061 -0.42640878026434909 0 -0.34815033243380111 -0.40144447968524521 0 -0.35115835689997099 -0.40187837368579798 0 -0.34095461206840061 -0.42640878026434909 0 -0.35115835689997099 -0.40187837368579798 0 -0.34095461206840061 -0.42640878026434909 0 -0.35302422329502631 -0.44785824460859458 0 -0.36076670325611282 -0.42019275678090617 0 -0.34095461206840061 -0.42640878026434909 0 -0.37543310808941849 -0.38642437359143528 0 -0.36100598543278789 -0.37820409176948921 0 -0.35115835689997099 -0.40187837368579798 0 -0.37543310808941849 -0.38642437359143528 0 -0.37568304780698558 -0.36916333065311507 0 -0.36100598543278789 -0.37820409176948921 0 -0.37543310808941849 -0.38642437359143528 0 -0.36100598543278789 -0.37820409176948921 0 -0.37515920440272033 -0.40534038799344108 0 -0.37543310808941849 -0.38642437359143528 0 -0.35115835689997099 -0.40187837368579798 0 -0.37515920440272033 -0.40534038799344108 0 -0.35115835689997099 -0.40187837368579798 0 -0.35115835689997099 -0.40187837368579798 0 -0.34646966066369161 -0.38533898881774881 0 -0.34316085436749 -0.39382471367395527 0 -0.34815033243380111 -0.40144447968524521 0 -0.35115835689997099 -0.40187837368579798 0 -0.34316085436749 -0.39382471367395527 0 -0.34815033243380111 -0.40144447968524521 0 -0.35115835689997099 -0.40187837368579798 0 -0.33937201587241012 -0.36587749477948078 0 -0.36100598543278789 -0.37820409176948921 0 -0.34646966066369161 -0.38533898881774881 0 -0.36100598543278789 -0.37820409176948921 0 -0.35115835689997099 -0.40187837368579798 0 -0.36100598543278789 -0.37820409176948921 0 -0.35115835689997099 -0.40187837368579798 0 -0.34646966066369161 -0.38533898881774881 0 -0.33937201587241012 -0.36587749477948078 0 -0.32803705280137402 -0.37447550275240871 0 -0.34646966066369161 -0.38533898881774881 0 -0.32803705280137402 -0.37447550275240871 0 -0.34646966066369161 -0.38533898881774881 0 -0.32931529664348408 -0.38869437358142001 0 -0.34646966066369161 -0.38533898881774881 0 -0.32931529664348408 -0.38869437358142001 0 -0.34316085436749 -0.39382471367395527 0 -0.34815033243380111 -0.40144447968524521 0 -0.33486919938690762 -0.39884665705885908 0 -0.32944617452305069 -0.41182817437998842 0 -0.32931529664348408 -0.38869437358142001 0 -0.34316085436749 -0.39382471367395527 0 -0.33486919938690762 -0.39884665705885908 0 -0.32931529664348408 -0.38869437358142001 0 -0.33486919938690762 -0.39884665705885908 0 -0.32365381597648563 -0.39942827076698811 0 -0.34815033243380111 -0.40144447968524521 0 -0.34316085436749 -0.39382471367395527 0 -0.33486919938690762 -0.39884665705885908 0 -0.33486919938690762 -0.39884665705885908 0 -0.32365381597648563 -0.39942827076698811 0 -0.32944617452305069 -0.41182817437998842 0 -0.32931529664348408 -0.38869437358142001 0 -0.32365381597648563 -0.39942827076698811 0 -0.30988209993594379 -0.39542680479545339 0 -0.32365381597648563 -0.39942827076698811 0 -0.30595412674790001 -0.41636475829844438 0 -0.30988209993594379 -0.39542680479545339 0 -0.31381007312398762 -0.37448885129246268 0 -0.32931529664348408 -0.38869437358142001 0 -0.30988209993594379 -0.39542680479545339 0 -0.31381007312398762 -0.37448885129246268 0 -0.32803705280137402 -0.37447550275240871 0 -0.32931529664348408 -0.38869437358142001 0 -0.34095461206840061 -0.42640878026434909 0 -0.32944617452305069 -0.41182817437998842 0 -0.3206124180200437 -0.43193612962395289 0 -0.33075086723682939 -0.45093918684289991 0 -0.34095461206840061 -0.42640878026434909 0 -0.3206124180200437 -0.43193612962395289 0 -0.34815033243380111 -0.40144447968524521 0 -0.34095461206840061 -0.42640878026434909 0 -0.32944617452305069 -0.41182817437998842 0 -0.32944617452305069 -0.41182817437998842 0 -0.3206124180200437 -0.43193612962395289 0 -0.30595412674790001 -0.41636475829844438 0 -0.32365381597648563 -0.39942827076698811 0 -0.32944617452305069 -0.41182817437998842 0 -0.30595412674790001 -0.41636475829844438 0 -0.3206124180200437 -0.43193612962395289 0 -0.30595412674790001 -0.41636475829844438 0 -0.29602166034141808 -0.43748304283089118 0 -0.30595412674790001 -0.41636475829844438 0 -0.28680587137917263 -0.41476105187328532 0 -0.29502227998321778 -0.40112933436643161 0 -0.30595412674790001 -0.41636475829844438 0 -0.28680587137917263 -0.41476105187328532 0 -0.29602166034141808 -0.43748304283089118 0 -0.28680587137917263 -0.41476105187328532 0 -0.29602166034141808 -0.43748304283089118 0 -0.27149625348017281 -0.42637325053463759 0 -0.29602166034141808 -0.43748304283089118 0 -0.27149625348017281 -0.42637325053463759 0 -0.29602166034141808 -0.43748304283089118 0 -0.27149625348017281 -0.42637325053463759 0 -0.27906578537949278 -0.44687665772048962 0 -0.31381007312398762 -0.37448885129246268 0 -0.30988209993594379 -0.39542680479545339 0 -0.31381007312398762 -0.37448885129246268 0 -0.30988209993594379 -0.39542680479545339 0 -0.29196992941862432 -0.3825632544476108 0 -0.30595412674790001 -0.41636475829844438 0 -0.30988209993594379 -0.39542680479545339 0 -0.30595412674790001 -0.41636475829844438 0 -0.30988209993594379 -0.39542680479545339 0 -0.29502227998321778 -0.40112933436643161 0 -0.30988209993594379 -0.39542680479545339 0 -0.29502227998321778 -0.40112933436643161 0 -0.29196992941862432 -0.3825632544476108 0 -0.28680587137917263 -0.41476105187328532 0 -0.29502227998321778 -0.40112933436643161 0 -0.2806661672136338 -0.39648987600255969 0 -0.29502227998321778 -0.40112933436643161 0 -0.29196992941862432 -0.3825632544476108 0 -0.2806661672136338 -0.39648987600255969 0 -0.27675503022224163 -0.36681377825091099 0 -0.29196992941862432 -0.3825632544476108 0 -0.26924588117792803 -0.38334910629271668 0 -0.29196992941862432 -0.3825632544476108 0 -0.26924588117792803 -0.38334910629271668 0 -0.2806661672136338 -0.39648987600255969 0 -0.27675503022224163 -0.36681377825091099 0 -0.26924588117792803 -0.38334910629271668 0 -0.25812358553267323 -0.37605355791306738 0 -0.28680587137917263 -0.41476105187328532 0 -0.2806661672136338 -0.39648987600255969 0 -0.26326431180229581 -0.40282557300305732 0 -0.26924588117792803 -0.38334910629271668 0 -0.2806661672136338 -0.39648987600255969 0 -0.26326431180229581 -0.40282557300305732 0 -0.26326431180229581 -0.40282557300305732 0 -0.2504897110532438 -0.38524934403489181 0 -0.24394706363899241 -0.39877073912243299 0 -0.26326431180229581 -0.40282557300305732 0 -0.24697084661892749 -0.41526345823838401 0 -0.24394706363899241 -0.39877073912243299 0 -0.26924588117792803 -0.38334910629271668 0 -0.26326431180229581 -0.40282557300305732 0 -0.2504897110532438 -0.38524934403489181 0 -0.26924588117792803 -0.38334910629271668 0 -0.2504897110532438 -0.38524934403489181 0 -0.25812358553267323 -0.37605355791306738 0 -0.2504897110532438 -0.38524934403489181 0 -0.25812358553267323 -0.37605355791306738 0 -0.24839247009954951 -0.37292447016044328 0 -0.28680587137917263 -0.41476105187328532 0 -0.26326431180229581 -0.40282557300305732 0 -0.27149625348017281 -0.42637325053463759 0 -0.27149625348017281 -0.42637325053463759 0 -0.24697084661892749 -0.41526345823838401 0 -0.26326431180229581 -0.40282557300305732 0 -0.27149625348017281 -0.42637325053463759 0 -0.24697084661892749 -0.41526345823838401 0 -0.27149625348017281 -0.42637325053463759 0 -0.25687425522332558 -0.44642006451091643 0 -0.24697084661892749 -0.41526345823838401 0 -0.25687425522332558 -0.44642006451091643 0 -0.27607931301277078 -0.46657199895299017 0 -0.25409384940020791 -0.47271975939701871 0 -0.25687425522332558 -0.44642006451091643 0 -0.27607931301277078 -0.46657199895299017 0 -0.27906578537949278 -0.44687665772048962 0 -0.27149625348017281 -0.42637325053463759 0 -0.25687425522332558 -0.44642006451091643 0 -0.27906578537949278 -0.44687665772048962 0 -0.29602166034141808 -0.43748304283089118 0 -0.27906578537949278 -0.44687665772048962 0 -0.29968055871002541 -0.46203125713240301 0 -0.27607931301277078 -0.46657199895299017 0 -0.27906578537949278 -0.44687665772048962 0 -0.29968055871002541 -0.46203125713240301 0 -0.31571728338184601 -0.45752087103574601 0 -0.29968055871002541 -0.46203125713240301 0 -0.30706080135445341 -0.45057148265483188 0 -0.31571728338184601 -0.45752087103574601 0 -0.32054712240525829 -0.47546959342145068 0 -0.29968055871002541 -0.46203125713240301 0 -0.32054706720266329 -0.44859283512714471 0 -0.29602166034141808 -0.43748304283089118 0 -0.32054706720266329 -0.44859283512714471 0 -0.3206124180200437 -0.43193612962395289 0 -0.29602166034141808 -0.43748304283089118 0 -0.32054706720266329 -0.44859283512714471 0 -0.29602166034141808 -0.43748304283089118 0 -0.30706080135445341 -0.45057148265483188 0 -0.29602166034141808 -0.43748304283089118 0 -0.29968055871002541 -0.46203125713240301 0 -0.30706080135445341 -0.45057148265483188 0 -0.32054712240525829 -0.47546959342145068 0 -0.31034337757368669 -0.50000000000000133 0 -0.2941570887960146 -0.48201569375099518 0 -0.32054712240525829 -0.47546959342145068 0 -0.29968055871002541 -0.46203125713240301 0 -0.2941570887960146 -0.48201569375099518 0 -0.27607931301277078 -0.46657199895299017 0 -0.29968055871002541 -0.46203125713240301 0 -0.2941570887960146 -0.48201569375099518 0 -0.2941570887960146 -0.48201569375099518 0 -0.28248249767631262 -0.5 0 -0.27039562620846602 -0.48462576079096858 0 -0.31034337757368669 -0.50000000000000133 0 -0.2941570887960146 -0.48201569375099518 0 -0.28248249767631262 -0.5 0 -0.28248249767631262 -0.5 0 -0.27039562620846602 -0.48462576079096858 0 -0.25462161777893849 -0.5 0 -0.27607931301277078 -0.46657199895299017 0 -0.2941570887960146 -0.48201569375099518 0 -0.27039562620846602 -0.48462576079096858 0 -0.27607931301277078 -0.46657199895299017 0 -0.27039562620846602 -0.48462576079096858 0 -0.25409384940020791 -0.47271975939701871 0 -0.27039562620846602 -0.48462576079096858 0 -0.25409384940020791 -0.47271975939701871 0 -0.25462161777893849 -0.5 0 -0.25462161777893849 -0.5 0 -0.23155232774708009 -0.47932355884050398 0 -0.22676073788156451 -0.5 0 -0.25409384940020791 -0.47271975939701871 0 -0.25462161777893849 -0.5 0 -0.23155232774708009 -0.47932355884050398 0 -0.25409384940020791 -0.47271975939701871 0 -0.23155232774708009 -0.47932355884050398 0 -0.2350399564306665 -0.45937717328673289 0 -0.23155232774708009 -0.47932355884050398 0 -0.2350399564306665 -0.45937717328673289 0 -0.2080224731694312 -0.47403962225972662 0 -0.23155232774708009 -0.47932355884050398 0 -0.22676073788156451 -0.5 0 -0.2080224731694312 -0.47403962225972662 0 -0.25687425522332558 -0.44642006451091643 0 -0.2350399564306665 -0.45937717328673289 0 -0.23180750449586429 -0.4343742486430574 0 -0.25687425522332558 -0.44642006451091643 0 -0.25409384940020791 -0.47271975939701871 0 -0.2350399564306665 -0.45937717328673289 0 -0.2350399564306665 -0.45937717328673289 0 -0.21590660946663959 -0.44883644739355771 0 -0.2080224731694312 -0.47403962225972662 0 -0.2350399564306665 -0.45937717328673289 0 -0.21590660946663959 -0.44883644739355771 0 -0.23180750449586429 -0.4343742486430574 0 -0.21590660946663959 -0.44883644739355771 0 -0.1943898331460783 -0.4473597119794826 0 -0.20910912931781811 -0.42543372189632289 0 -0.21590660946663959 -0.44883644739355771 0 -0.1943898331460783 -0.4473597119794826 0 -0.2080224731694312 -0.47403962225972662 0 -0.1943898331460783 -0.4473597119794826 0 -0.2080224731694312 -0.47403962225972662 0 -0.17967053697433849 -0.46928570206264231 0 -0.22676073788156451 -0.5 0 -0.2080224731694312 -0.47403962225972662 0 -0.19889985798419041 -0.5 0 -0.2080224731694312 -0.47403962225972662 0 -0.1821948971586228 -0.48648437486529872 0 -0.17967053697433849 -0.46928570206264231 0 -0.2080224731694312 -0.47403962225972662 0 -0.19889985798419041 -0.5 0 -0.1821948971586228 -0.48648437486529872 0 -0.19889985798419041 -0.5 0 -0.1821948971586228 -0.48648437486529872 0 -0.17103897808681609 -0.49999999999999778 0 -0.1821948971586228 -0.48648437486529872 0 -0.17103897808681609 -0.49999999999999778 0 -0.16495124080259491 -0.49121169214579941 0 -0.17103897808681609 -0.49999999999999778 0 -0.16495124080259491 -0.49121169214579941 0 -0.17103897808681609 -0.49999999999999778 0 -0.16495124080259491 -0.49121169214579941 0 -0.15905149781887321 -0.49999999999999961 0 -0.16495124080259491 -0.49121169214579941 0 -0.15905149781887321 -0.49999999999999961 0 -0.1545750311736096 -0.49062041690426861 0 -0.16495124080259491 -0.49121169214579941 0 -0.15905149781887321 -0.49999999999999961 0 -0.16495124080259491 -0.49121169214579941 0 -0.16530166315622061 -0.47155300009798301 0 -0.17967053697433849 -0.46928570206264231 0 -0.16495124080259491 -0.49121169214579941 0 -0.16530166315622061 -0.47155300009798301 0 -0.15083103946930049 -0.47082765280793248 0 -0.16495124080259491 -0.49121169214579941 0 -0.1545750311736096 -0.49062041690426861 0 -0.15083103946930049 -0.47082765280793248 0 -0.16495124080259491 -0.49121169214579941 0 -0.15083103946930049 -0.47082765280793248 0 -0.16495124080259491 -0.49121169214579941 0 -0.17967053697433849 -0.46928570206264231 0 -0.1821948971586228 -0.48648437486529872 0 -0.16495124080259491 -0.49121169214579941 0 -0.17967053697433849 -0.46928570206264231 0 -0.1943898331460783 -0.4473597119794826 0 -0.17967053697433849 -0.46928570206264231 0 -0.1943898331460783 -0.4473597119794826 0 -0.17967053697433849 -0.46928570206264231 0 -0.1657538353786501 -0.45488695337555668 0 -0.1943898331460783 -0.4473597119794826 0 -0.1657538353786501 -0.45488695337555668 0 -0.1755027511393909 -0.43471579892562301 0 -0.1657538353786501 -0.45488695337555668 0 -0.15761868306950341 -0.43586407366366631 0 -0.1755027511393909 -0.43471579892562301 0 -0.16530166315622061 -0.47155300009798301 0 -0.1657538353786501 -0.45488695337555668 0 -0.15083103946930049 -0.47082765280793248 0 -0.16530166315622061 -0.47155300009798301 0 -0.17967053697433849 -0.46928570206264231 0 -0.1657538353786501 -0.45488695337555668 0 -0.13671083813600751 -0.45044361347006462 0 -0.15083103946930049 -0.47082765280793248 0 -0.13671083813600751 -0.45044361347006462 0 -0.13441782301728619 -0.47175980973682791 0 -0.15083103946930049 -0.47082765280793248 0 -0.1657538353786501 -0.45488695337555668 0 -0.13671083813600751 -0.45044361347006462 0 -0.15083103946930049 -0.47082765280793248 0 -0.13671083813600751 -0.45044361347006462 0 -0.13816776916695811 -0.432543871779144 0 -0.15761868306950341 -0.43586407366366631 0 -0.1657538353786501 -0.45488695337555668 0 -0.13671083813600751 -0.45044361347006462 0 -0.15761868306950341 -0.43586407366366631 0 -0.13671083813600751 -0.45044361347006462 0 -0.13816776916695811 -0.432543871779144 0 -0.1225906368027144 -0.43005957413219659 0 -0.13671083813600751 -0.45044361347006462 0 -0.1225906368027144 -0.43005957413219659 0 -0.13671083813600751 -0.45044361347006462 0 -0.13441782301728619 -0.47175980973682791 0 -0.1201929706126502 -0.46127799294672761 0 -0.13441782301728619 -0.47175980973682791 0 -0.12605423818426559 -0.48707922202292669 0 -0.14429533434837091 -0.48908967660720287 0 -0.13441782301728619 -0.47175980973682791 0 -0.12605423818426559 -0.48707922202292669 0 -0.1201929706126502 -0.46127799294672761 0 -0.1295391708778694 -0.5 0 -0.12605423818426559 -0.48707922202292669 0 -0.14429533434837091 -0.48908967660720287 0 -0.15905149781887321 -0.49999999999999961 0 -0.1295391708778694 -0.5 0 -0.14429533434837091 -0.48908967660720287 0 -0.15905149781887321 -0.49999999999999961 0 -0.14429533434837091 -0.48908967660720287 0 -0.1545750311736096 -0.49062041690426861 0 -0.14429533434837091 -0.48908967660720287 0 -0.1545750311736096 -0.49062041690426861 0 -0.15083103946930049 -0.47082765280793248 0 -0.13441782301728619 -0.47175980973682791 0 -0.14429533434837091 -0.48908967660720287 0 -0.15083103946930049 -0.47082765280793248 0 -0.15345949684661231 -0.4053237642064671 0 -0.15136585988972451 -0.39002590355483568 0 -0.13982663417143551 -0.39933000433158738 0 -0.15136585988972451 -0.39002590355483568 0 -0.1368738238800834 -0.3880397179408614 0 -0.13982663417143551 -0.39933000433158738 0 -0.15345949684661231 -0.4053237642064671 0 -0.13982663417143551 -0.39933000433158738 0 -0.1398029654186671 -0.41064466143528439 0 -0.15136585988972451 -0.39002590355483568 0 -0.1368738238800834 -0.3880397179408614 0 -0.13959568407155781 -0.37291875636350952 0 -0.15136585988972451 -0.39002590355483568 0 -0.15951650330528561 -0.37856285477961621 0 -0.13959568407155781 -0.37291875636350952 0 -0.1368738238800834 -0.3880397179408614 0 -0.12625141541498519 -0.38197991289387551 0 -0.13959568407155781 -0.37291875636350952 0 -0.1368738238800834 -0.3880397179408614 0 -0.12625141541498519 -0.38197991289387551 0 -0.1273295258527142 -0.39594401256049883 0 -0.1368738238800834 -0.3880397179408614 0 -0.1273295258527142 -0.39594401256049883 0 -0.13982663417143551 -0.39933000433158738 0 -0.13982663417143551 -0.39933000433158738 0 -0.1295768038857959 -0.40463739140698729 0 -0.1398029654186671 -0.41064466143528439 0 -0.1273295258527142 -0.39594401256049883 0 -0.13982663417143551 -0.39933000433158738 0 -0.1295768038857959 -0.40463739140698729 0 -0.1273295258527142 -0.39594401256049883 0 -0.1295768038857959 -0.40463739140698729 0 -0.1219584454402414 -0.40406961642135292 0 -0.1295768038857959 -0.40463739140698729 0 -0.1296119374269841 -0.41417592727859581 0 -0.1225700411049412 -0.40994677461386392 0 -0.1296119374269841 -0.41417592727859581 0 -0.12315425937001 -0.41747458531602638 0 -0.1225700411049412 -0.40994677461386392 0 -0.1296119374269841 -0.41417592727859581 0 -0.13713184062407599 -0.42036644340313623 0 -0.12908399078123631 -0.42243277819987513 0 -0.1296119374269841 -0.41417592727859581 0 -0.12908399078123631 -0.42243277819987513 0 -0.12315425937001 -0.41747458531602638 0 -0.1296119374269841 -0.41417592727859581 0 -0.13713184062407599 -0.42036644340313623 0 -0.1398029654186671 -0.41064466143528439 0 -0.1295768038857959 -0.40463739140698729 0 -0.1296119374269841 -0.41417592727859581 0 -0.1398029654186671 -0.41064466143528439 0 -0.12908399078123631 -0.42243277819987513 0 -0.13816776916695811 -0.432543871779144 0 -0.1225906368027144 -0.43005957413219659 0 -0.13713184062407599 -0.42036644340313623 0 -0.12908399078123631 -0.42243277819987513 0 -0.13816776916695811 -0.432543871779144 0 -0.13816776916695811 -0.432543871779144 0 -0.14921107955709881 -0.42003443798493328 0 -0.15761868306950341 -0.43586407366366631 0 -0.13713184062407599 -0.42036644340313623 0 -0.13816776916695811 -0.432543871779144 0 -0.14921107955709881 -0.42003443798493328 0 -0.15345949684661231 -0.4053237642064671 0 -0.1398029654186671 -0.41064466143528439 0 -0.14921107955709881 -0.42003443798493328 0 -0.13713184062407599 -0.42036644340313623 0 -0.1398029654186671 -0.41064466143528439 0 -0.14921107955709881 -0.42003443798493328 0 -0.15345949684661231 -0.4053237642064671 0 -0.14921107955709881 -0.42003443798493328 0 -0.17009787391258249 -0.41611158199907422 0 -0.14921107955709881 -0.42003443798493328 0 -0.17009787391258249 -0.41611158199907422 0 -0.15761868306950341 -0.43586407366366631 0 -0.17009787391258249 -0.41611158199907422 0 -0.15761868306950341 -0.43586407366366631 0 -0.1755027511393909 -0.43471579892562301 0 -0.1943898331460783 -0.4473597119794826 0 -0.1755027511393909 -0.43471579892562301 0 -0.18951413900105801 -0.42212105940109063 0 -0.17009787391258249 -0.41611158199907422 0 -0.1755027511393909 -0.43471579892562301 0 -0.18951413900105801 -0.42212105940109063 0 -0.17009787391258249 -0.41611158199907422 0 -0.18562609472684241 -0.40161550393767448 0 -0.18951413900105801 -0.42212105940109063 0 -0.18562609472684241 -0.40161550393767448 0 -0.16863204450281991 -0.39380366607865908 0 -0.18254917963999329 -0.38971973427100182 0 -0.17009787391258249 -0.41611158199907422 0 -0.18562609472684241 -0.40161550393767448 0 -0.16863204450281991 -0.39380366607865908 0 -0.18562609472684241 -0.40161550393767448 0 -0.18254917963999329 -0.38971973427100182 0 -0.19364364155811911 -0.391297223908462 0 -0.15345949684661231 -0.4053237642064671 0 -0.17009787391258249 -0.41611158199907422 0 -0.16863204450281991 -0.39380366607865908 0 -0.15345949684661231 -0.4053237642064671 0 -0.15136585988972451 -0.39002590355483568 0 -0.16863204450281991 -0.39380366607865908 0 -0.15951650330528561 -0.37856285477961621 0 -0.17625218554490921 -0.38180729220612769 0 -0.1663610822414904 -0.3702523776444529 0 -0.16863204450281991 -0.39380366607865908 0 -0.15951650330528561 -0.37856285477961621 0 -0.17625218554490921 -0.38180729220612769 0 -0.15136585988972451 -0.39002590355483568 0 -0.16863204450281991 -0.39380366607865908 0 -0.15951650330528561 -0.37856285477961621 0 -0.17625218554490921 -0.38180729220612769 0 -0.1663610822414904 -0.3702523776444529 0 -0.18579747934449059 -0.37379744869579251 0 -0.16863204450281991 -0.39380366607865908 0 -0.17625218554490921 -0.38180729220612769 0 -0.18254917963999329 -0.38971973427100182 0 -0.17625218554490921 -0.38180729220612769 0 -0.18254917963999329 -0.38971973427100182 0 -0.18859193186727599 -0.38007498522408562 0 -0.17625218554490921 -0.38180729220612769 0 -0.18859193186727599 -0.38007498522408562 0 -0.18579747934449059 -0.37379744869579251 0 -0.18859193186727599 -0.38007498522408562 0 -0.2014200033848125 -0.37119512976538899 0 -0.18859193186727599 -0.38007498522408562 0 -0.2014200033848125 -0.37119512976538899 0 -0.18579747934449059 -0.37379744869579251 0 -0.18859193186727599 -0.38007498522408562 0 -0.1989719328316337 -0.38216032023399737 0 -0.2014200033848125 -0.37119512976538899 0 -0.1989719328316337 -0.38216032023399737 0 -0.20694960464083431 -0.38128159833907621 0 -0.2014200033848125 -0.37119512976538899 0 -0.1989719328316337 -0.38216032023399737 0 -0.19364364155811911 -0.391297223908462 0 -0.20620014074293039 -0.39180645285032889 0 -0.18859193186727599 -0.38007498522408562 0 -0.1989719328316337 -0.38216032023399737 0 -0.19364364155811911 -0.391297223908462 0 -0.18254917963999329 -0.38971973427100182 0 -0.18859193186727599 -0.38007498522408562 0 -0.19364364155811911 -0.391297223908462 0 -0.18562609472684241 -0.40161550393767448 0 -0.19364364155811911 -0.391297223908462 0 -0.20208872018367391 -0.4070926974887904 0 -0.19364364155811911 -0.391297223908462 0 -0.20620014074293039 -0.39180645285032889 0 -0.20208872018367391 -0.4070926974887904 0 -0.20620014074293039 -0.39180645285032889 0 -0.21479853281951461 -0.38638530273916921 0 -0.22382842548955789 -0.4035077318131633 0 -0.20620014074293039 -0.39180645285032889 0 -0.20208872018367391 -0.4070926974887904 0 -0.22382842548955789 -0.4035077318131633 0 -0.21479853281951461 -0.38638530273916921 0 -0.20694960464083431 -0.38128159833907621 0 -0.21335741342528061 -0.3748607861064962 0 -0.21479853281951461 -0.38638530273916921 0 -0.22412886374227589 -0.38235217247817599 0 -0.21335741342528061 -0.3748607861064962 0 -0.20694960464083431 -0.38128159833907621 0 -0.2014200033848125 -0.37119512976538899 0 -0.21335741342528061 -0.3748607861064962 0 -0.20620014074293039 -0.39180645285032889 0 -0.21479853281951461 -0.38638530273916921 0 -0.20694960464083431 -0.38128159833907621 0 -0.1989719328316337 -0.38216032023399737 0 -0.20620014074293039 -0.39180645285032889 0 -0.20694960464083431 -0.38128159833907621 0 -0.1943898331460783 -0.4473597119794826 0 -0.20910912931781811 -0.42543372189632289 0 -0.1943898331460783 -0.4473597119794826 0 -0.18951413900105801 -0.42212105940109063 0 -0.20910912931781811 -0.42543372189632289 0 -0.18951413900105801 -0.42212105940109063 0 -0.20208872018367391 -0.4070926974887904 0 -0.20910912931781811 -0.42543372189632289 0 -0.18562609472684241 -0.40161550393767448 0 -0.18951413900105801 -0.42212105940109063 0 -0.20208872018367391 -0.4070926974887904 0 -0.20208872018367391 -0.4070926974887904 0 -0.20910912931781811 -0.42543372189632289 0 -0.22382842548955789 -0.4035077318131633 0 -0.20910912931781811 -0.42543372189632289 0 -0.22382842548955789 -0.4035077318131633 0 -0.21590660946663959 -0.44883644739355771 0 -0.20910912931781811 -0.42543372189632289 0 -0.23180750449586429 -0.4343742486430574 0 -0.20910912931781811 -0.42543372189632289 0 -0.23180750449586429 -0.4343742486430574 0 -0.22382842548955789 -0.4035077318131633 0 -0.23180750449586429 -0.4343742486430574 0 -0.24697084661892749 -0.41526345823838401 0 -0.22382842548955789 -0.4035077318131633 0 -0.25687425522332558 -0.44642006451091643 0 -0.23180750449586429 -0.4343742486430574 0 -0.24697084661892749 -0.41526345823838401 0 -0.22412886374227589 -0.38235217247817599 0 -0.2351820232309369 -0.38700758852266848 0 -0.22952037500089251 -0.37311519752493849 0 -0.22412886374227589 -0.38235217247817599 0 -0.22186900287429051 -0.37074082218821958 0 -0.21335741342528061 -0.3748607861064962 0 -0.22412886374227589 -0.38235217247817599 0 -0.22952037500089251 -0.37311519752493849 0 -0.22186900287429051 -0.37074082218821958 0 -0.22382842548955789 -0.4035077318131633 0 -0.24394706363899241 -0.39877073912243299 0 -0.2351820232309369 -0.38700758852266848 0 -0.21479853281951461 -0.38638530273916921 0 -0.22412886374227589 -0.38235217247817599 0 -0.22382842548955789 -0.4035077318131633 0 -0.22412886374227589 -0.38235217247817599 0 -0.22382842548955789 -0.4035077318131633 0 -0.2351820232309369 -0.38700758852266848 0 -0.24697084661892749 -0.41526345823838401 0 -0.22382842548955789 -0.4035077318131633 0 -0.24394706363899241 -0.39877073912243299 0 -0.2504897110532438 -0.38524934403489181 0 -0.24394706363899241 -0.39877073912243299 0 -0.2351820232309369 -0.38700758852266848 0 -0.2504897110532438 -0.38524934403489181 0 -0.2351820232309369 -0.38700758852266848 0 -0.24036284435674521 -0.37772398595485779 0 -0.2351820232309369 -0.38700758852266848 0 -0.24036284435674521 -0.37772398595485779 0 -0.22952037500089251 -0.37311519752493849 0 -0.2504897110532438 -0.38524934403489181 0 -0.24036284435674521 -0.37772398595485779 0 -0.24839247009954951 -0.37292447016044328 0 -0.24839247009954951 -0.37292447016044328 0 -0.24532753696728959 -0.36501789644951049 0 -0.23861636880082099 -0.36955921174380651 0 -0.24036284435674521 -0.37772398595485779 0 -0.24839247009954951 -0.37292447016044328 0 -0.23861636880082099 -0.36955921174380651 0 -0.25757508569408222 -0.36424633604315798 0 -0.24532753696728959 -0.36501789644951049 0 -0.24650166737573331 -0.3569693529562265 0 -0.24532753696728959 -0.36501789644951049 0 -0.24234943749700691 -0.36154613291017651 0 -0.24650166737573331 -0.3569693529562265 0 -0.24532753696728959 -0.36501789644951049 0 -0.24234943749700691 -0.36154613291017651 0 -0.23928568589256061 -0.36455139619594779 0 -0.24234943749700691 -0.36154613291017651 0 -0.23928568589256061 -0.36455139619594779 0 -0.23696933381926599 -0.3585493042599866 0 -0.24532753696728959 -0.36501789644951049 0 -0.23928568589256061 -0.36455139619594779 0 -0.23861636880082099 -0.36955921174380651 0 -0.23928568589256061 -0.36455139619594779 0 -0.23861636880082099 -0.36955921174380651 0 -0.23345080570298909 -0.36409891217005902 0 -0.23928568589256061 -0.36455139619594779 0 -0.23345080570298909 -0.36409891217005902 0 -0.23696933381926599 -0.3585493042599866 0 -0.24036284435674521 -0.37772398595485779 0 -0.23861636880082099 -0.36955921174380651 0 -0.22952037500089251 -0.37311519752493849 0 -0.23345080570298909 -0.36409891217005902 0 -0.22186900287429051 -0.37074082218821958 0 -0.21424807490234879 -0.36231527430669241 0 -0.22952037500089251 -0.37311519752493849 0 -0.23345080570298909 -0.36409891217005902 0 -0.22186900287429051 -0.37074082218821958 0 -0.23696933381926599 -0.3585493042599866 0 -0.21424807490234879 -0.36231527430669241 0 -0.23861636880082099 -0.36955921174380651 0 -0.22952037500089251 -0.37311519752493849 0 -0.23345080570298909 -0.36409891217005902 0 -0.23345080570298909 -0.36409891217005902 0 -0.23696933381926599 -0.3585493042599866 0 -0.21424807490234879 -0.36231527430669241 0 -0.22913587473404851 -0.35200963246311751 0 -0.2097464541822805 -0.33582260124732738 0 -0.22913587473404851 -0.35200963246311751 0 -0.23696933381926599 -0.3585493042599866 0 -0.21424807490234879 -0.36231527430669241 0 -0.22913587473404851 -0.35200963246311751 0 -0.21998707993494029 -0.33959044394559312 0 -0.22913587473404851 -0.35200963246311751 0 -0.21424807490234879 -0.36231527430669241 0 -0.22913587473404851 -0.35200963246311751 0 -0.23696933381926599 -0.3585493042599866 0 -0.22913587473404851 -0.35200963246311751 0 -0.24881121389389799 -0.33838995723746451 0 -0.22913587473404851 -0.35200963246311751 0 -0.23696933381926599 -0.3585493042599866 0 -0.24650166737573331 -0.3569693529562265 0 -0.22913587473404851 -0.35200963246311751 0 -0.24650166737573331 -0.3569693529562265 0 -0.24881121389389799 -0.33838995723746451 0 -0.23696933381926599 -0.3585493042599866 0 -0.24650166737573331 -0.3569693529562265 0 -0.24234943749700691 -0.36154613291017651 0 -0.23696933381926599 -0.3585493042599866 0 -0.24650166737573331 -0.3569693529562265 0 -0.22913587473404851 -0.35200963246311751 0 -0.24881121389389799 -0.33838995723746451 0 -0.2325545649384867 -0.33453283978227571 0 -0.24881121389389799 -0.33838995723746451 0 -0.2441082332202735 -0.32380704628422963 0 -0.2325545649384867 -0.33453283978227571 0 -0.23613058105125781 -0.31890710479075163 0 -0.2279063026952847 -0.3135077128279592 0 -0.2444966906846206 -0.31181945912301329 0 -0.2441082332202735 -0.32380704628422963 0 -0.23498207165859719 -0.32537142019391418 0 -0.23613058105125781 -0.31890710479075163 0 -0.2441082332202735 -0.32380704628422963 0 -0.23498207165859719 -0.32537142019391418 0 -0.2325545649384867 -0.33453283978227571 0 -0.2441082332202735 -0.32380704628422963 0 -0.23613058105125781 -0.31890710479075163 0 -0.2444966906846206 -0.31181945912301329 0 -0.2279063026952847 -0.3135077128279592 0 -0.2193464910840433 -0.31976030368968739 0 -0.21134622408423179 -0.310554889255794 0 -0.23613058105125781 -0.31890710479075163 0 -0.2279063026952847 -0.3135077128279592 0 -0.22829430606921119 -0.32293804105388452 0 -0.23498207165859719 -0.32537142019391418 0 -0.22829430606921119 -0.32293804105388452 0 -0.2325545649384867 -0.33453283978227571 0 -0.23498207165859719 -0.32537142019391418 0 -0.23613058105125781 -0.31890710479075163 0 -0.22829430606921119 -0.32293804105388452 0 -0.22829430606921119 -0.32293804105388452 0 -0.2193464910840433 -0.31976030368968739 0 -0.22209033975117781 -0.32887735541776358 0 -0.2279063026952847 -0.3135077128279592 0 -0.22829430606921119 -0.32293804105388452 0 -0.2193464910840433 -0.31976030368968739 0 -0.22913587473404851 -0.35200963246311751 0 -0.2325545649384867 -0.33453283978227571 0 -0.21998707993494029 -0.33959044394559312 0 -0.22913587473404851 -0.35200963246311751 0 -0.21998707993494029 -0.33959044394559312 0 -0.2097464541822805 -0.33582260124732738 0 -0.22829430606921119 -0.32293804105388452 0 -0.2325545649384867 -0.33453283978227571 0 -0.22209033975117781 -0.32887735541776358 0 -0.2325545649384867 -0.33453283978227571 0 -0.22209033975117781 -0.32887735541776358 0 -0.21998707993494029 -0.33959044394559312 0 -0.21998707993494029 -0.33959044394559312 0 -0.21026925672920721 -0.32756514861737779 0 -0.22209033975117781 -0.32887735541776358 0 -0.21998707993494029 -0.33959044394559312 0 -0.21026925672920721 -0.32756514861737779 0 -0.21998707993494029 -0.33959044394559312 0 -0.2097464541822805 -0.33582260124732738 0 -0.21026925672920721 -0.32756514861737779 0 -0.2097464541822805 -0.33582260124732738 0 -0.21026925672920721 -0.32756514861737779 0 -0.21026925672920721 -0.32756514861737779 0 -0.21134622408423179 -0.310554889255794 0 -0.19267178705524021 -0.30578920503631912 0 -0.21026925672920721 -0.32756514861737779 0 -0.21134622408423179 -0.310554889255794 0 -0.2097464541822805 -0.33582260124732738 0 -0.21026925672920721 -0.32756514861737779 0 -0.19254159852174429 -0.31996122112867409 0 -0.2193464910840433 -0.31976030368968739 0 -0.21026925672920721 -0.32756514861737779 0 -0.21134622408423179 -0.310554889255794 0 -0.2193464910840433 -0.31976030368968739 0 -0.22209033975117781 -0.32887735541776358 0 -0.21026925672920721 -0.32756514861737779 0 -0.2097464541822805 -0.33582260124732738 0 -0.1943588054861482 -0.32297640251143073 0 -0.19254159852174429 -0.31996122112867409 0 -0.21026925672920721 -0.32756514861737779 0 -0.19267178705524021 -0.30578920503631912 0 -0.21026925672920721 -0.32756514861737779 0 -0.19254159852174429 -0.31996122112867409 0 -0.19267178705524021 -0.30578920503631912 0 -0.2097464541822805 -0.33582260124732738 0 -0.19254159852174429 -0.31996122112867409 0 -0.1943588054861482 -0.32297640251143073 0 -0.18737083868624629 -0.33075534874643497 0 -0.18479650728396149 -0.32227615663527998 0 -0.1943588054861482 -0.32297640251143073 0 -0.19254159852174429 -0.31996122112867409 0 -0.1789711567900161 -0.3101302037755338 0 -0.2097464541822805 -0.33582260124732738 0 -0.19466829689393059 -0.33824472710720138 0 -0.19565175395430129 -0.3512554891803924 0 -0.2097464541822805 -0.33582260124732738 0 -0.1943588054861482 -0.32297640251143073 0 -0.19466829689393059 -0.33824472710720138 0 -0.2097464541822805 -0.33582260124732738 0 -0.1943588054861482 -0.32297640251143073 0 -0.1943588054861482 -0.32297640251143073 0 -0.19466829689393059 -0.33824472710720138 0 -0.18737083868624629 -0.33075534874643497 0 -0.19466829689393059 -0.33824472710720138 0 -0.18164424501215659 -0.34621916084723381 0 -0.18737083868624629 -0.33075534874643497 0 -0.19466829689393059 -0.33824472710720138 0 -0.19565175395430129 -0.3512554891803924 0 -0.18164424501215659 -0.34621916084723381 0 -0.20800359978069241 -0.36335027445133922 0 -0.18480326185087809 -0.36719565018674682 0 -0.19565175395430129 -0.3512554891803924 0 -0.20800359978069241 -0.36335027445133922 0 -0.18480326185087809 -0.36719565018674682 0 -0.2014200033848125 -0.37119512976538899 0 -0.18480326185087809 -0.36719565018674682 0 -0.18579747934449059 -0.37379744869579251 0 -0.2014200033848125 -0.37119512976538899 0 -0.20800359978069241 -0.36335027445133922 0 -0.18480326185087809 -0.36719565018674682 0 -0.2014200033848125 -0.37119512976538899 0 -0.20800359978069241 -0.36335027445133922 0 -0.20803809997708481 -0.36661394692190907 0 -0.20800359978069241 -0.36335027445133922 0 -0.20803809997708481 -0.36661394692190907 0 -0.21424807490234879 -0.36231527430669241 0 -0.20800359978069241 -0.36335027445133922 0 -0.20803809997708481 -0.36661394692190907 0 -0.2014200033848125 -0.37119512976538899 0 -0.20803809997708481 -0.36661394692190907 0 -0.21335741342528061 -0.3748607861064962 0 -0.2014200033848125 -0.37119512976538899 0 -0.20803809997708481 -0.36661394692190907 0 -0.20803809997708481 -0.36661394692190907 0 -0.21335741342528061 -0.3748607861064962 0 -0.21424807490234879 -0.36231527430669241 0 -0.22186900287429051 -0.37074082218821958 0 -0.21335741342528061 -0.3748607861064962 0 -0.21424807490234879 -0.36231527430669241 0 -0.20800359978069241 -0.36335027445133922 0 -0.21424807490234879 -0.36231527430669241 0 -0.20803809997708481 -0.36661394692190907 0 -0.21424807490234879 -0.36231527430669241 0 -0.2097464541822805 -0.33582260124732738 0 -0.19565175395430129 -0.3512554891803924 0 -0.20800359978069241 -0.36335027445133922 0 -0.2097464541822805 -0.33582260124732738 0 -0.20800359978069241 -0.36335027445133922 0 -0.2097464541822805 -0.33582260124732738 0 -0.20800359978069241 -0.36335027445133922 0 -0.21424807490234879 -0.36231527430669241 0 -0.22913587473404851 -0.35200963246311751 0 -0.2097464541822805 -0.33582260124732738 0 -0.21424807490234879 -0.36231527430669241 0 -0.2335542019388327 -0.26090262277066528 0 -0.21472073189145299 -0.25725591714607071 0 -0.22837296648480071 -0.23789375384220129 0 -0.2335542019388327 -0.26090262277066528 0 -0.21357196166535461 -0.27540027352014051 0 -0.21472073189145299 -0.25725591714607071 0 -0.25298377122075039 -0.27518622721876451 0 -0.2335542019388327 -0.26090262277066528 0 -0.25431856302814809 -0.24833495949118861 0 -0.25298377122075039 -0.27518622721876451 0 -0.2335542019388327 -0.26090262277066528 0 -0.23093648268818689 -0.28342115129973 0 -0.2335542019388327 -0.26090262277066528 0 -0.23093648268818689 -0.28342115129973 0 -0.21357196166535461 -0.27540027352014051 0 -0.23093648268818689 -0.28342115129973 0 -0.21242319143925911 -0.29354462989421048 0 -0.21357196166535461 -0.27540027352014051 0 -0.23093648268818689 -0.28342115129973 0 -0.2435111179254994 -0.29490773243705071 0 -0.2284599410619414 -0.30268204450860919 0 -0.23093648268818689 -0.28342115129973 0 -0.2284599410619414 -0.30268204450860919 0 -0.21242319143925911 -0.29354462989421048 0 -0.25298377122075039 -0.27518622721876451 0 -0.23093648268818689 -0.28342115129973 0 -0.2435111179254994 -0.29490773243705071 0 -0.2444966906846206 -0.31181945912301329 0 -0.2284599410619414 -0.30268204450860919 0 -0.2435111179254994 -0.29490773243705071 0 -0.2444966906846206 -0.31181945912301329 0 -0.2284599410619414 -0.30268204450860919 0 -0.26057201890547982 -0.29344093798311832 0 -0.2435111179254994 -0.29490773243705071 0 -0.2444966906846206 -0.31181945912301329 0 -0.2279063026952847 -0.3135077128279592 0 -0.2444966906846206 -0.31181945912301329 0 -0.2284599410619414 -0.30268204450860919 0 -0.2284599410619414 -0.30268204450860919 0 -0.21242319143925911 -0.29354462989421048 0 -0.2279063026952847 -0.3135077128279592 0 -0.2284599410619414 -0.30268204450860919 0 -0.21134622408423179 -0.310554889255794 0 -0.2284599410619414 -0.30268204450860919 0 -0.21134622408423179 -0.310554889255794 0 -0.21242319143925911 -0.29354462989421048 0 -0.21134622408423179 -0.310554889255794 0 -0.19267178705524021 -0.30578920503631912 0 -0.21242319143925911 -0.29354462989421048 0 -0.21134622408423179 -0.310554889255794 0 -0.21242319143925911 -0.29354462989421048 0 -0.19267178705524021 -0.30578920503631912 0 -0.19410774352861071 -0.2831088592208712 0 -0.21242319143925911 -0.29354462989421048 0 -0.19410774352861071 -0.2831088592208712 0 -0.21242319143925911 -0.29354462989421048 0 -0.21357196166535461 -0.27540027352014051 0 -0.19410774352861071 -0.2831088592208712 0 -0.21242319143925911 -0.29354462989421048 0 -0.21242319143925911 -0.29354462989421048 0 -0.21357196166535461 -0.27540027352014051 0 -0.21357196166535461 -0.27540027352014051 0 -0.21472073189145299 -0.25725591714607071 0 -0.19410774352861071 -0.2831088592208712 0 -0.21357196166535461 -0.27540027352014051 0 -0.1965391795889786 -0.26204425282134669 0 -0.19410774352861071 -0.2831088592208712 0 -0.1965391795889786 -0.26204425282134669 0 -0.17579229561796161 -0.27267308854753308 0 -0.1965391795889786 -0.26204425282134669 0 -0.20565562739327201 -0.24334207984173631 0 -0.18863044441395099 -0.24733650333174401 0 -0.1965391795889786 -0.26204425282134669 0 -0.18340152769721799 -0.25642831405215172 0 -0.18863044441395099 -0.24733650333174401 0 -0.1965391795889786 -0.26204425282134669 0 -0.21472073189145299 -0.25725591714607071 0 -0.20565562739327201 -0.24334207984173631 0 -0.21357196166535461 -0.27540027352014051 0 -0.1965391795889786 -0.26204425282134669 0 -0.21472073189145299 -0.25725591714607071 0 -0.15747684770731041 -0.26223731787419863 0 -0.16344648285301799 -0.25937253054906129 0 -0.17579229561796161 -0.27267308854753308 0 -0.1593809120407062 -0.25278805690175971 0 -0.16344648285301799 -0.25937253054906129 0 -0.1534429259631987 -0.25724555178864622 0 -0.1593809120407062 -0.25278805690175971 0 -0.16344648285301799 -0.25937253054906129 0 -0.16709258238786229 -0.25188408856254202 0 -0.1593809120407062 -0.25278805690175971 0 -0.16709258238786229 -0.25188408856254202 0 -0.1601832428566283 -0.24550858739866141 0 -0.15747684770731041 -0.26223731787419863 0 -0.16344648285301799 -0.25937253054906129 0 -0.1534429259631987 -0.25724555178864622 0 -0.16344648285301799 -0.25937253054906129 0 -0.1534429259631987 -0.25724555178864622 0 -0.16344648285301799 -0.25937253054906129 0 -0.17379217291466831 -0.25992581321180469 0 -0.17579229561796161 -0.27267308854753308 0 -0.16344648285301799 -0.25937253054906129 0 -0.16709258238786229 -0.25188408856254202 0 -0.17379217291466831 -0.25992581321180469 0 -0.16709258238786229 -0.25188408856254202 0 -0.17679077873490559 -0.25046109420941731 0 -0.17379217291466831 -0.25992581321180469 0 -0.1965391795889786 -0.26204425282134669 0 -0.18340152769721799 -0.25642831405215172 0 -0.17579229561796161 -0.27267308854753308 0 -0.17679077873490559 -0.25046109420941731 0 -0.18340152769721799 -0.25642831405215172 0 -0.17379217291466831 -0.25992581321180469 0 -0.18340152769721799 -0.25642831405215172 0 -0.17379217291466831 -0.25992581321180469 0 -0.17579229561796161 -0.27267308854753308 0 -0.17679077873490559 -0.25046109420941731 0 -0.18340152769721799 -0.25642831405215172 0 -0.18863044441395099 -0.24733650333174401 0 -0.19410774352861071 -0.2831088592208712 0 -0.17579229561796161 -0.27267308854753308 0 -0.17507431738127369 -0.28401326145526029 0 -0.19410774352861071 -0.2831088592208712 0 -0.17579229561796161 -0.27267308854753308 0 -0.15747684770731041 -0.26223731787419863 0 -0.17507431738127369 -0.28401326145526029 0 -0.15747684770731041 -0.26223731787419863 0 -0.17579229561796161 -0.27267308854753308 0 -0.15747684770731041 -0.26223731787419863 0 -0.17579229561796161 -0.27267308854753308 0 -0.17507431738127369 -0.28401326145526029 0 -0.15747684770731041 -0.26223731787419863 0 -0.1596399504195592 -0.27820623095404468 0 -0.17507431738127369 -0.28401326145526029 0 -0.1596399504195592 -0.27820623095404468 0 -0.1624028041075358 -0.29248408411088062 0 -0.1494793968803598 -0.28070198605355251 0 -0.1624028041075358 -0.29248408411088062 0 -0.15973767967650701 -0.30493196891575292 0 -0.15108397830665751 -0.29236825921418419 0 -0.1624028041075358 -0.29248408411088062 0 -0.17507431738127369 -0.28401326145526029 0 -0.17391538329452061 -0.29489800819007239 0 -0.1596399504195592 -0.27820623095404468 0 -0.1624028041075358 -0.29248408411088062 0 -0.17507431738127369 -0.28401326145526029 0 -0.19267178705524021 -0.30578920503631912 0 -0.19410774352861071 -0.2831088592208712 0 -0.17507431738127369 -0.28401326145526029 0 -0.19267178705524021 -0.30578920503631912 0 -0.17507431738127369 -0.28401326145526029 0 -0.17391538329452061 -0.29489800819007239 0 -0.19267178705524021 -0.30578920503631912 0 -0.17507431738127369 -0.28401326145526029 0 -0.17391538329452061 -0.29489800819007239 0 -0.17532621133471249 -0.30426618216820789 0 -0.19254159852174429 -0.31996122112867409 0 -0.19267178705524021 -0.30578920503631912 0 -0.17532621133471249 -0.30426618216820789 0 -0.19267178705524021 -0.30578920503631912 0 -0.17391538329452061 -0.29489800819007239 0 -0.17532621133471249 -0.30426618216820789 0 -0.19254159852174429 -0.31996122112867409 0 -0.17532621133471249 -0.30426618216820789 0 -0.1789711567900161 -0.3101302037755338 0 -0.19254159852174429 -0.31996122112867409 0 -0.17532621133471249 -0.30426618216820789 0 -0.17532621133471249 -0.30426618216820789 0 -0.15973767967650701 -0.30493196891575292 0 -0.16582550601247259 -0.31644195918285489 0 -0.1624028041075358 -0.29248408411088062 0 -0.17532621133471249 -0.30426618216820789 0 -0.15973767967650701 -0.30493196891575292 0 -0.1624028041075358 -0.29248408411088062 0 -0.17532621133471249 -0.30426618216820789 0 -0.1624028041075358 -0.29248408411088062 0 -0.17391538329452061 -0.29489800819007239 0 -0.17532621133471249 -0.30426618216820789 0 -0.144593184228827 -0.30237793828586917 0 -0.15261731536399281 -0.31699983390472031 0 -0.1327552185807534 -0.31482398186879779 0 -0.15973767967650701 -0.30493196891575292 0 -0.144593184228827 -0.30237793828586917 0 -0.15261731536399281 -0.31699983390472031 0 -0.15973767967650701 -0.30493196891575292 0 -0.144593184228827 -0.30237793828586917 0 -0.15108397830665751 -0.29236825921418419 0 -0.144593184228827 -0.30237793828586917 0 -0.1304175251842298 -0.30012492429455973 0 -0.1327552185807534 -0.31482398186879779 0 -0.1304175251842298 -0.30012492429455973 0 -0.1327552185807534 -0.31482398186879779 0 -0.11567190875339491 -0.3081878681979589 0 -0.1304175251842298 -0.30012492429455973 0 -0.13697378053928061 -0.28594316463020741 0 -0.11725087491461519 -0.29108504565108578 0 -0.144593184228827 -0.30237793828586917 0 -0.1304175251842298 -0.30012492429455973 0 -0.13697378053928061 -0.28594316463020741 0 -0.13697378053928061 -0.28594316463020741 0 -0.15108397830665751 -0.29236825921418419 0 -0.1494793968803598 -0.28070198605355251 0 -0.144593184228827 -0.30237793828586917 0 -0.13697378053928061 -0.28594316463020741 0 -0.15108397830665751 -0.29236825921418419 0 -0.1624028041075358 -0.29248408411088062 0 -0.15108397830665751 -0.29236825921418419 0 -0.1494793968803598 -0.28070198605355251 0 -0.1624028041075358 -0.29248408411088062 0 -0.1494793968803598 -0.28070198605355251 0 -0.15747684770731041 -0.26223731787419863 0 -0.1596399504195592 -0.27820623095404468 0 -0.1503927610565664 -0.27179087804580171 0 -0.1596399504195592 -0.27820623095404468 0 -0.1494793968803598 -0.28070198605355251 0 -0.1503927610565664 -0.27179087804580171 0 -0.15747684770731041 -0.26223731787419863 0 -0.1503927610565664 -0.27179087804580171 0 -0.1469785187108 -0.2635474229235048 0 -0.1503927610565664 -0.27179087804580171 0 -0.13966748117377659 -0.26847157538705668 0 -0.1469785187108 -0.2635474229235048 0 -0.1503927610565664 -0.27179087804580171 0 -0.14153524490660671 -0.2763029116229278 0 -0.13966748117377659 -0.26847157538705668 0 -0.1494793968803598 -0.28070198605355251 0 -0.1503927610565664 -0.27179087804580171 0 -0.14153524490660671 -0.2763029116229278 0 -0.13697378053928061 -0.28594316463020741 0 -0.1494793968803598 -0.28070198605355251 0 -0.14153524490660671 -0.2763029116229278 0 -0.13697378053928061 -0.28594316463020741 0 -0.14153524490660671 -0.2763029116229278 0 -0.13219795163187159 -0.27110871778552531 0 -0.13697378053928061 -0.28594316463020741 0 -0.1173011125765811 -0.2721428964285707 0 -0.13697378053928061 -0.28594316463020741 0 -0.13219795163187159 -0.27110871778552531 0 -0.1173011125765811 -0.2721428964285707 0 -0.13219795163187159 -0.27110871778552531 0 -0.1333337708168415 -0.26377523499205202 0 -0.12600056203783161 -0.26301541000095829 0 -0.13219795163187159 -0.27110871778552531 0 -0.12600056203783161 -0.26301541000095829 0 -0.1173011125765811 -0.2721428964285707 0 -0.13219795163187159 -0.27110871778552531 0 -0.13966748117377659 -0.26847157538705668 0 -0.1333337708168415 -0.26377523499205202 0 -0.14153524490660671 -0.2763029116229278 0 -0.13219795163187159 -0.27110871778552531 0 -0.13966748117377659 -0.26847157538705668 0 -0.13966748117377659 -0.26847157538705668 0 -0.13807993829988649 -0.25979154560904222 0 -0.1333337708168415 -0.26377523499205202 0 -0.13807993829988649 -0.25979154560904222 0 -0.1333337708168415 -0.26377523499205202 0 -0.13072292094084129 -0.25648892617767749 0 -0.12600056203783161 -0.26301541000095829 0 -0.13072292094084129 -0.25648892617767749 0 -0.1187556211832122 -0.25814451816493872 0 -0.1333337708168415 -0.26377523499205202 0 -0.12600056203783161 -0.26301541000095829 0 -0.13072292094084129 -0.25648892617767749 0 -0.13072292094084129 -0.25648892617767749 0 -0.13218950310710981 -0.25272660122947088 0 -0.1187556211832122 -0.25814451816493872 0 -0.13072292094084129 -0.25648892617767749 0 -0.13218950310710981 -0.25272660122947088 0 -0.13218950310710981 -0.25272660122947088 0 -0.1459019403517107 -0.25564217047089421 0 -0.13375162957080131 -0.24871916986845621 0 -0.13218950310710981 -0.25272660122947088 0 -0.1459019403517107 -0.25564217047089421 0 -0.13218950310710981 -0.25272660122947088 0 -0.13375162957080131 -0.24871916986845621 0 -0.1459019403517107 -0.25564217047089421 0 -0.13375162957080131 -0.24871916986845621 0 -0.13807993829988649 -0.25979154560904222 0 -0.13218950310710981 -0.25272660122947088 0 -0.1459019403517107 -0.25564217047089421 0 -0.13807993829988649 -0.25979154560904222 0 -0.13072292094084129 -0.25648892617767749 0 -0.13218950310710981 -0.25272660122947088 0 -0.1459019403517107 -0.25564217047089421 0 -0.1534429259631987 -0.25724555178864622 0 -0.1378886282313006 -0.2381062402767252 0 -0.13966748117377659 -0.26847157538705668 0 -0.13807993829988649 -0.25979154560904222 0 -0.1469785187108 -0.2635474229235048 0 -0.13807993829988649 -0.25979154560904222 0 -0.1459019403517107 -0.25564217047089421 0 -0.1469785187108 -0.2635474229235048 0 -0.15747684770731041 -0.26223731787419863 0 -0.1459019403517107 -0.25564217047089421 0 -0.1534429259631987 -0.25724555178864622 0 -0.15747684770731041 -0.26223731787419863 0 -0.1459019403517107 -0.25564217047089421 0 -0.1469785187108 -0.2635474229235048 0 -0.15747684770731041 -0.26223731787419863 0 -0.1459019403517107 -0.25564217047089421 0 -0.15747684770731041 -0.26223731787419863 0 -0.1534429259631987 -0.25724555178864622 0 -0.1593809120407062 -0.25278805690175971 0 -0.1534429259631987 -0.25724555178864622 0 -0.15289321433053751 -0.246830478479277 0 -0.1459019403517107 -0.25564217047089421 0 -0.1534429259631987 -0.25724555178864622 0 -0.17143624801538501 -0.35840063883308271 0 -0.1580141783998408 -0.34710035810185619 0 -0.15489216358121211 -0.36256913283011211 0 -0.17143624801538501 -0.35840063883308271 0 -0.1580141783998408 -0.34710035810185619 0 -0.18164424501215659 -0.34621916084723381 0 -0.17143624801538501 -0.35840063883308271 0 -0.1663610822414904 -0.3702523776444529 0 -0.15489216358121211 -0.36256913283011211 0 -0.15951650330528561 -0.37856285477961621 0 -0.1663610822414904 -0.3702523776444529 0 -0.15489216358121211 -0.36256913283011211 0 -0.17143624801538501 -0.35840063883308271 0 -0.1663610822414904 -0.3702523776444529 0 -0.18480326185087809 -0.36719565018674682 0 -0.1663610822414904 -0.3702523776444529 0 -0.18480326185087809 -0.36719565018674682 0 -0.1663610822414904 -0.3702523776444529 0 -0.18480326185087809 -0.36719565018674682 0 -0.18579747934449059 -0.37379744869579251 0 -0.18480326185087809 -0.36719565018674682 0 -0.18579747934449059 -0.37379744869579251 0 -0.18480326185087809 -0.36719565018674682 0 -0.18164424501215659 -0.34621916084723381 0 -0.19565175395430129 -0.3512554891803924 0 -0.18480326185087809 -0.36719565018674682 0 -0.18164424501215659 -0.34621916084723381 0 -0.17143624801538501 -0.35840063883308271 0 -0.18480326185087809 -0.36719565018674682 0 -0.18164424501215659 -0.34621916084723381 0 -0.18164424501215659 -0.34621916084723381 0 -0.17848522817343529 -0.32524267150772068 0 -0.1629610955137164 -0.33076913941787212 0 -0.18164424501215659 -0.34621916084723381 0 -0.17848522817343529 -0.32524267150772068 0 -0.18164424501215659 -0.34621916084723381 0 -0.18737083868624629 -0.33075534874643497 0 -0.17848522817343529 -0.32524267150772068 0 -0.17532621133471249 -0.30426618216820789 0 -0.17848522817343529 -0.32524267150772068 0 -0.17532621133471249 -0.30426618216820789 0 -0.1789711567900161 -0.3101302037755338 0 -0.17848522817343529 -0.32524267150772068 0 -0.17532621133471249 -0.30426618216820789 0 -0.17848522817343529 -0.32524267150772068 0 -0.16582550601247259 -0.31644195918285489 0 -0.1943588054861482 -0.32297640251143073 0 -0.1789711567900161 -0.3101302037755338 0 -0.18479650728396149 -0.32227615663527998 0 -0.1789711567900161 -0.3101302037755338 0 -0.18479650728396149 -0.32227615663527998 0 -0.17848522817343529 -0.32524267150772068 0 -0.1943588054861482 -0.32297640251143073 0 -0.1789711567900161 -0.3101302037755338 0 -0.18737083868624629 -0.33075534874643497 0 -0.18479650728396149 -0.32227615663527998 0 -0.17848522817343529 -0.32524267150772068 0 -0.17848522817343529 -0.32524267150772068 0 -0.16582550601247259 -0.31644195918285489 0 -0.1629610955137164 -0.33076913941787212 0 -0.16582550601247259 -0.31644195918285489 0 -0.1629610955137164 -0.33076913941787212 0 -0.15261731536399281 -0.31699983390472031 0 -0.15973767967650701 -0.30493196891575292 0 -0.16582550601247259 -0.31644195918285489 0 -0.15261731536399281 -0.31699983390472031 0 -0.1580141783998408 -0.34710035810185619 0 -0.18164424501215659 -0.34621916084723381 0 -0.1629610955137164 -0.33076913941787212 0 -0.1580141783998408 -0.34710035810185619 0 -0.1629610955137164 -0.33076913941787212 0 -0.14559484309128301 -0.3331209990743299 0 -0.14559484309128301 -0.3331209990743299 0 -0.15261731536399281 -0.31699983390472031 0 -0.1327552185807534 -0.31482398186879779 0 -0.1629610955137164 -0.33076913941787212 0 -0.14559484309128301 -0.3331209990743299 0 -0.15261731536399281 -0.31699983390472031 0 -0.14559484309128301 -0.3331209990743299 0 -0.1327552185807534 -0.31482398186879779 0 -0.12678352480283511 -0.3369129194106073 0 -0.14559484309128301 -0.3331209990743299 0 -0.12678352480283511 -0.3369129194106073 0 -0.14043772588655989 -0.35211976174212622 0 -0.12678352480283511 -0.3369129194106073 0 -0.14043772588655989 -0.35211976174212622 0 -0.1203130985899742 -0.35955571918490481 0 -0.1580141783998408 -0.34710035810185619 0 -0.14043772588655989 -0.35211976174212622 0 -0.15489216358121211 -0.36256913283011211 0 -0.1580141783998408 -0.34710035810185619 0 -0.14559484309128301 -0.3331209990743299 0 -0.14043772588655989 -0.35211976174212622 0 -0.14043772588655989 -0.35211976174212622 0 -0.15489216358121211 -0.36256913283011211 0 -0.13959568407155781 -0.37291875636350952 0 -0.15951650330528561 -0.37856285477961621 0 -0.15489216358121211 -0.36256913283011211 0 -0.13959568407155781 -0.37291875636350952 0 -0.12625141541498519 -0.38197991289387551 0 -0.13959568407155781 -0.37291875636350952 0 -0.1203130985899742 -0.35955571918490481 0 -0.14043772588655989 -0.35211976174212622 0 -0.13959568407155781 -0.37291875636350952 0 -0.1203130985899742 -0.35955571918490481 0 -0.1203130985899742 -0.35955571918490481 0 -0.11384267237711319 -0.38219851895920232 0 -0.1203130985899742 -0.35955571918490481 0 -0.10849363524981311 -0.36442991456039969 0 -0.11384267237711319 -0.38219851895920232 0 -0.12625141541498519 -0.38197991289387551 0 -0.1203130985899742 -0.35955571918490481 0 -0.11384267237711319 -0.38219851895920232 0 -0.10849363524981311 -0.36442991456039969 0 -0.096157591159299352 -0.35547454281719221 0 -0.10176491866177829 -0.38015793077534599 0 -0.096157591159299352 -0.35547454281719221 0 -0.10176491866177829 -0.38015793077534599 0 -0.096157591159299352 -0.35547454281719221 0 -0.10176491866177829 -0.38015793077534599 0 -0.085276019388031976 -0.37619188405436782 0 -0.096157591159299352 -0.35547454281719221 0 -0.10964553082547281 -0.34513317088572909 0 -0.090550263656820479 -0.33079115485903843 0 -0.10849363524981311 -0.36442991456039969 0 -0.096157591159299352 -0.35547454281719221 0 -0.10964553082547281 -0.34513317088572909 0 -0.1203130985899742 -0.35955571918490481 0 -0.10849363524981311 -0.36442991456039969 0 -0.10964553082547281 -0.34513317088572909 0 -0.12678352480283511 -0.3369129194106073 0 -0.1203130985899742 -0.35955571918490481 0 -0.10964553082547281 -0.34513317088572909 0 -0.12678352480283511 -0.3369129194106073 0 -0.1203130985899742 -0.35955571918490481 0 -0.12678352480283511 -0.3369129194106073 0 -0.10964553082547281 -0.34513317088572909 0 -0.1112875311940303 -0.32576775904759792 0 -0.1327552185807534 -0.31482398186879779 0 -0.12678352480283511 -0.3369129194106073 0 -0.1112875311940303 -0.32576775904759792 0 -0.1327552185807534 -0.31482398186879779 0 -0.1112875311940303 -0.32576775904759792 0 -0.11567190875339491 -0.3081878681979589 0 -0.1112875311940303 -0.32576775904759792 0 -0.1011365257202933 -0.31403431577096802 0 -0.11567190875339491 -0.3081878681979589 0 -0.1112875311940303 -0.32576775904759792 0 -0.1011365257202933 -0.31403431577096802 0 -0.090550263656820479 -0.33079115485903843 0 -0.10964553082547281 -0.34513317088572909 0 -0.1112875311940303 -0.32576775904759792 0 -0.090550263656820479 -0.33079115485903843 0 -0.096157591159299352 -0.35547454281719221 0 -0.090550263656820479 -0.33079115485903843 0 -0.096157591159299352 -0.35547454281719221 0 -0.090550263656820479 -0.33079115485903843 0 -0.073144777225565616 -0.33606175945158517 0 -0.090550263656820479 -0.33079115485903843 0 -0.084942936154341619 -0.30610776690088481 0 -0.090550263656820479 -0.33079115485903843 0 -0.073144777225565616 -0.33606175945158517 0 -0.084942936154341619 -0.30610776690088481 0 -0.1011365257202933 -0.31403431577096802 0 -0.090550263656820479 -0.33079115485903843 0 -0.084942936154341619 -0.30610776690088481 0 -0.073144777225565616 -0.33606175945158517 0 -0.084942936154341619 -0.30610776690088481 0 -0.060613113796085999 -0.32288269869712272 0 -0.073144777225565616 -0.33606175945158517 0 -0.076755031766953086 -0.35884624094615858 0 -0.063306301319701316 -0.35299520754669739 0 -0.076755031766953086 -0.35884624094615858 0 -0.063306301319701316 -0.35299520754669739 0 -0.065890469742167113 -0.37350781086095058 0 -0.076755031766953086 -0.35884624094615858 0 -0.065890469742167113 -0.37350781086095058 0 -0.085276019388031976 -0.37619188405436782 0 -0.096157591159299352 -0.35547454281719221 0 -0.076755031766953086 -0.35884624094615858 0 -0.085276019388031976 -0.37619188405436782 0 -0.096157591159299352 -0.35547454281719221 0 -0.073144777225565616 -0.33606175945158517 0 -0.076755031766953086 -0.35884624094615858 0 -0.097628444613881649 -0.25834262822693399 0 -0.1173011125765811 -0.2721428964285707 0 -0.097628444613881649 -0.25834262822693399 0 -0.1187556211832122 -0.25814451816493872 0 -0.1098930818979398 -0.24798588601512411 0 -0.13218950310710981 -0.25272660122947088 0 -0.1187556211832122 -0.25814451816493872 0 -0.1098930818979398 -0.24798588601512411 0 -0.097628444613881649 -0.25834262822693399 0 -0.1187556211832122 -0.25814451816493872 0 -0.1173011125765811 -0.2721428964285707 0 -0.13218950310710981 -0.25272660122947088 0 -0.1098930818979398 -0.24798588601512411 0 -0.12600056203783161 -0.26301541000095829 0 -0.1187556211832122 -0.25814451816493872 0 -0.1173011125765811 -0.2721428964285707 0 -0.097628444613881649 -0.25834262822693399 0 -0.1173011125765811 -0.2721428964285707 0 -0.090762408808148426 -0.27102181932101072 0 -0.1173011125765811 -0.2721428964285707 0 -0.096655829275762523 -0.28444542957314378 0 -0.090762408808148426 -0.27102181932101072 0 -0.096655829275762523 -0.28444542957314378 0 -0.10322998884287909 -0.29931702984935987 0 -0.084942936154341619 -0.30610776690088481 0 -0.096655829275762523 -0.28444542957314378 0 -0.11725087491461519 -0.29108504565108578 0 -0.10322998884287909 -0.29931702984935987 0 -0.13697378053928061 -0.28594316463020741 0 -0.1173011125765811 -0.2721428964285707 0 -0.11725087491461519 -0.29108504565108578 0 -0.1173011125765811 -0.2721428964285707 0 -0.096655829275762523 -0.28444542957314378 0 -0.11725087491461519 -0.29108504565108578 0 -0.11725087491461519 -0.29108504565108578 0 -0.11567190875339491 -0.3081878681979589 0 -0.10322998884287909 -0.29931702984935987 0 -0.1304175251842298 -0.30012492429455973 0 -0.11725087491461519 -0.29108504565108578 0 -0.11567190875339491 -0.3081878681979589 0 -0.1011365257202933 -0.31403431577096802 0 -0.10322998884287909 -0.29931702984935987 0 -0.084942936154341619 -0.30610776690088481 0 -0.1011365257202933 -0.31403431577096802 0 -0.11567190875339491 -0.3081878681979589 0 -0.10322998884287909 -0.29931702984935987 0 -0.084942936154341619 -0.30610776690088481 0 -0.066237696895848033 -0.30175990202967712 0 -0.078368201618682937 -0.28822753231137022 0 -0.084942936154341619 -0.30610776690088481 0 -0.066237696895848033 -0.30175990202967712 0 -0.060613113796085999 -0.32288269869712272 0 -0.066237696895848033 -0.30175990202967712 0 -0.078368201618682937 -0.28822753231137022 0 -0.057136779716869042 -0.28712205926022771 0 -0.078368201618682937 -0.28822753231137022 0 -0.072744725061100565 -0.27289296274949931 0 -0.057136779716869042 -0.28712205926022771 0 -0.096655829275762523 -0.28444542957314378 0 -0.084942936154341619 -0.30610776690088481 0 -0.078368201618682937 -0.28822753231137022 0 -0.096655829275762523 -0.28444542957314378 0 -0.078368201618682937 -0.28822753231137022 0 -0.090762408808148426 -0.27102181932101072 0 -0.078368201618682937 -0.28822753231137022 0 -0.090762408808148426 -0.27102181932101072 0 -0.072744725061100565 -0.27289296274949931 0 -0.090762408808148426 -0.27102181932101072 0 -0.072744725061100565 -0.27289296274949931 0 -0.081281336266817772 -0.26097832242812891 0 -0.072744725061100565 -0.27289296274949931 0 -0.067161912638977472 -0.25903173736147111 0 -0.055745381016590281 -0.2682223094504298 0 -0.072744725061100565 -0.27289296274949931 0 -0.067161912638977472 -0.25903173736147111 0 -0.081281336266817772 -0.26097832242812891 0 -0.067161912638977472 -0.25903173736147111 0 -0.081281336266817772 -0.26097832242812891 0 -0.077955776651182085 -0.24454236002529731 0 -0.067161912638977472 -0.25903173736147111 0 -0.056939497423126581 -0.24878681181634871 0 -0.077955776651182085 -0.24454236002529731 0 -0.097628444613881649 -0.25834262822693399 0 -0.081281336266817772 -0.26097832242812891 0 -0.077955776651182085 -0.24454236002529731 0 -0.097628444613881649 -0.25834262822693399 0 -0.090762408808148426 -0.27102181932101072 0 -0.081281336266817772 -0.26097832242812891 0 -0.097628444613881649 -0.25834262822693399 0 -0.077955776651182085 -0.24454236002529731 0 -0.025857267464119819 -0.25506418495113531 0 -0.050191684441297867 -0.2485850187836515 0 -0.034199021844566052 -0.25740496373097072 0 -0.056939497423126581 -0.24878681181634871 0 -0.034199021844566052 -0.25740496373097072 0 -0.041398382443623198 -0.25192549838374201 0 -0.056939497423126581 -0.24878681181634871 0 -0.041398382443623198 -0.25192549838374201 0 -0.025857267464119819 -0.25506418495113531 0 -0.050191684441297867 -0.2485850187836515 0 -0.034199021844566052 -0.25740496373097072 0 -0.048255079716108998 -0.25800015923011232 0 -0.056939497423126581 -0.24878681181634871 0 -0.034199021844566052 -0.25740496373097072 0 -0.041398382443623198 -0.25192549838374201 0 -0.025857267464119819 -0.25506418495113531 0 -0.041398382443623198 -0.25192549838374201 0 -0.025857267464119819 -0.25506418495113531 0 -0.034199021844566052 -0.25740496373097072 0 -0.037307574571523318 -0.26201401924185519 0 -0.024854767991187229 -0.26705994663832661 0 -0.037307574571523318 -0.26201401924185519 0 -0.048255079716108998 -0.25800015923011232 0 -0.046606779304586107 -0.26584835010199509 0 -0.034199021844566052 -0.25740496373097072 0 -0.037307574571523318 -0.26201401924185519 0 -0.048255079716108998 -0.25800015923011232 0 -0.05702546769870083 -0.25851025446459042 0 -0.048255079716108998 -0.25800015923011232 0 -0.056939497423126581 -0.24878681181634871 0 -0.041398382443623198 -0.25192549838374201 0 -0.056939497423126581 -0.24878681181634871 0 -0.067161912638977472 -0.25903173736147111 0 -0.05702546769870083 -0.25851025446459042 0 -0.056939497423126581 -0.24878681181634871 0 -0.067161912638977472 -0.25903173736147111 0 -0.05702546769870083 -0.25851025446459042 0 -0.055745381016590281 -0.2682223094504298 0 -0.05702546769870083 -0.25851025446459042 0 -0.048255079716108998 -0.25800015923011232 0 -0.055745381016590281 -0.2682223094504298 0 -0.048255079716108998 -0.25800015923011232 0 -0.055745381016590281 -0.2682223094504298 0 -0.046606779304586107 -0.26584835010199509 0 -0.055745381016590281 -0.2682223094504298 0 -0.045119081914121867 -0.27515691248558288 0 -0.046606779304586107 -0.26584835010199509 0 -0.055745381016590281 -0.2682223094504298 0 -0.045119081914121867 -0.27515691248558288 0 -0.057136779716869042 -0.28712205926022771 0 -0.072744725061100565 -0.27289296274949931 0 -0.055745381016590281 -0.2682223094504298 0 -0.057136779716869042 -0.28712205926022771 0 -0.037307574571523318 -0.26201401924185519 0 -0.034478529498429812 -0.28951379058442123 0 -0.037307574571523318 -0.26201401924185519 0 -0.034478529498429812 -0.28951379058442123 0 -0.024854767991187229 -0.26705994663832661 0 -0.037307574571523318 -0.26201401924185519 0 -0.045119081914121867 -0.27515691248558288 0 -0.034478529498429812 -0.28951379058442123 0 -0.037307574571523318 -0.26201401924185519 0 -0.045119081914121867 -0.27515691248558288 0 -0.046606779304586107 -0.26584835010199509 0 -0.045119081914121867 -0.27515691248558288 0 -0.034478529498429812 -0.28951379058442123 0 -0.057136779716869042 -0.28712205926022771 0 -0.034478529498429812 -0.28951379058442123 0 -0.057136779716869042 -0.28712205926022771 0 -0.05012745319326059 -0.30445945297878008 0 -0.066237696895848033 -0.30175990202967712 0 -0.05012745319326059 -0.30445945297878008 0 -0.060613113796085999 -0.32288269869712272 0 -0.066237696895848033 -0.30175990202967712 0 -0.057136779716869042 -0.28712205926022771 0 -0.05012745319326059 -0.30445945297878008 0 -0.034478529498429812 -0.28951379058442123 0 -0.05012745319326059 -0.30445945297878008 0 -0.031649484425336299 -0.31701356192698721 0 -0.034478529498429812 -0.28951379058442123 0 -0.031649484425336299 -0.31701356192698721 0 -0.034478529498429812 -0.28951379058442123 0 -0.020284114256294641 -0.29759304008048471 0 -0.031649484425336299 -0.31701356192698721 0 -0.020284114256294641 -0.29759304008048471 0 -0.01007927323019326 -0.3103345258507364 0 -0.031649484425336299 -0.31701356192698721 0 -0.020284114256294641 -0.29759304008048471 0 -0.01007927323019326 -0.3103345258507364 0 -0.0080748459131490501 -0.2914060437848453 0 -0.01007927323019326 -0.3103345258507364 0 -0.0080748459131490501 -0.2914060437848453 0 0.0017563221397047381 -0.2997067901486577 0 -0.020284114256294641 -0.29759304008048471 0 -0.0080748459131490501 -0.2914060437848453 0 -0.017138438214364771 -0.27969727825543328 0 -0.0080748459131490501 -0.2914060437848453 0 -0.002848760243290064 -0.27761611820401882 0 0.0066437179820165657 -0.2861171845936395 0 -0.0080748459131490501 -0.2914060437848453 0 -0.017138438214364771 -0.27969727825543328 0 -0.002848760243290064 -0.27761611820401882 0 -0.034478529498429812 -0.28951379058442123 0 -0.020284114256294641 -0.29759304008048471 0 -0.017138438214364771 -0.27969727825543328 0 -0.034478529498429812 -0.28951379058442123 0 -0.024854767991187229 -0.26705994663832661 0 -0.017138438214364771 -0.27969727825543328 0 -0.024854767991187229 -0.26705994663832661 0 -0.01588915841142927 -0.27169793716392882 0 -0.01145854626600548 -0.26602311564559261 0 -0.024854767991187229 -0.26705994663832661 0 -0.01588915841142927 -0.27169793716392882 0 -0.017138438214364771 -0.27969727825543328 0 -0.017138438214364771 -0.27969727825543328 0 -0.011833725783772399 -0.27375861231724341 0 -0.002848760243290064 -0.27761611820401882 0 -0.01145854626600548 -0.26602311564559261 0 0.01128192931255503 -0.27464126756021451 0 -0.002848760243290064 -0.27761611820401882 0 -0.01145854626600548 -0.26602311564559261 0 0.01128192931255503 -0.27464126756021451 0 -0.01588915841142927 -0.27169793716392882 0 -0.017138438214364771 -0.27969727825543328 0 -0.011833725783772399 -0.27375861231724341 0 -0.011833725783772399 -0.27375861231724341 0 -0.002848760243290064 -0.27761611820401882 0 -0.01145854626600548 -0.26602311564559261 0 -0.01588915841142927 -0.27169793716392882 0 -0.011833725783772399 -0.27375861231724341 0 -0.01145854626600548 -0.26602311564559261 0 -0.01269776775011346 -0.25850600500130039 0 -0.0051360078472848583 -0.25701396995817721 0 0.0057158633005241696 -0.26337829885565528 0 -0.01145854626600548 -0.26602311564559261 0 -0.01269776775011346 -0.25850600500130039 0 0.0057158633005241696 -0.26337829885565528 0 -0.01269776775011346 -0.25850600500130039 0 0.0057158633005241696 -0.26337829885565528 0 -0.0009620894167222515 -0.25496392916579452 0 -0.0051360078472848583 -0.25701396995817721 0 0.0057158633005241696 -0.26337829885565528 0 -0.0071971320314794382 -0.2528457057960789 0 -0.01082738352359053 -0.24876902592697839 0 -0.0029313858115674811 -0.24854412401401971 0 -0.0009620894167222515 -0.25496392916579452 0 -0.0071971320314794382 -0.2528457057960789 0 -0.0029313858115674811 -0.24854412401401971 0 -0.0009620894167222515 -0.25496392916579452 0 -0.0051360078472848583 -0.25701396995817721 0 -0.0071971320314794382 -0.2528457057960789 0 -0.0051360078472848583 -0.25701396995817721 0 -0.0071971320314794382 -0.2528457057960789 0 -0.0094143843739788544 -0.25459574361389747 0 -0.0071971320314794382 -0.2528457057960789 0 -0.0094143843739788544 -0.25459574361389747 0 -0.01082738352359053 -0.24876902592697839 0 -0.01269776775011346 -0.25850600500130039 0 -0.0094143843739788544 -0.25459574361389747 0 -0.01082738352359053 -0.24876902592697839 0 -0.01269776775011346 -0.25850600500130039 0 -0.0051360078472848583 -0.25701396995817721 0 -0.0094143843739788544 -0.25459574361389747 0 -0.01269776775011346 -0.25850600500130039 0 -0.025857267464119819 -0.25506418495113531 0 -0.034199021844566052 -0.25740496373097072 0 -0.01145854626600548 -0.26602311564559261 0 -0.025857267464119819 -0.25506418495113531 0 -0.01269776775011346 -0.25850600500130039 0 -0.025857267464119819 -0.25506418495113531 0 -0.02368513365757598 -0.23851275990414511 0 -0.034199021844566052 -0.25740496373097072 0 -0.024854767991187229 -0.26705994663832661 0 -0.01145854626600548 -0.26602311564559261 0 -0.034199021844566052 -0.25740496373097072 0 -0.01145854626600548 -0.26602311564559261 0 -0.01145854626600548 -0.26602311564559261 0 -0.01269776775011346 -0.25850600500130039 0 -0.025857267464119819 -0.25506418495113531 0 -0.046940286889098168 -0.35955036210978841 0 -0.050269733973634309 -0.3392354021108881 0 -0.02882043935224279 -0.34451333326955308 0 -0.046940286889098168 -0.35955036210978841 0 -0.02882043935224279 -0.34451333326955308 0 -0.026419717968229769 -0.36867473508972981 0 -0.046940286889098168 -0.35955036210978841 0 -0.026419717968229769 -0.36867473508972981 0 -0.046935058978613817 -0.3783756837809118 0 -0.065890469742167113 -0.37350781086095058 0 -0.046940286889098168 -0.35955036210978841 0 -0.046935058978613817 -0.3783756837809118 0 -0.063306301319701316 -0.35299520754669739 0 -0.065890469742167113 -0.37350781086095058 0 -0.046940286889098168 -0.35955036210978841 0 -0.063306301319701316 -0.35299520754669739 0 -0.046940286889098168 -0.35955036210978841 0 -0.050269733973634309 -0.3392354021108881 0 -0.073144777225565616 -0.33606175945158517 0 -0.063306301319701316 -0.35299520754669739 0 -0.050269733973634309 -0.3392354021108881 0 -0.073144777225565616 -0.33606175945158517 0 -0.050269733973634309 -0.3392354021108881 0 -0.060613113796085999 -0.32288269869712272 0 -0.050269733973634309 -0.3392354021108881 0 -0.060613113796085999 -0.32288269869712272 0 -0.031649484425336299 -0.31701356192698721 0 -0.05012745319326059 -0.30445945297878008 0 -0.060613113796085999 -0.32288269869712272 0 -0.031649484425336299 -0.31701356192698721 0 -0.050269733973634309 -0.3392354021108881 0 -0.031649484425336299 -0.31701356192698721 0 -0.02882043935224279 -0.34451333326955308 0 -0.031649484425336299 -0.31701356192698721 0 -0.02882043935224279 -0.34451333326955308 0 -0.031649484425336299 -0.31701356192698721 0 -0.0038616663111063101 -0.33241552487502413 0 -0.02882043935224279 -0.34451333326955308 0 -0.01007927323019326 -0.3103345258507364 0 -0.031649484425336299 -0.31701356192698721 0 -0.0038616663111063101 -0.33241552487502413 0 -0.01007927323019326 -0.3103345258507364 0 -0.0038616663111063101 -0.33241552487502413 0 0.0094652366165251054 -0.31053241408104548 0 -0.0038616663111063101 -0.33241552487502413 0 -0.0043130761299947744 -0.35643483176966217 0 -0.02882043935224279 -0.34451333326955308 0 -0.0043130761299947744 -0.35643483176966217 0 -0.02882043935224279 -0.34451333326955308 0 -0.026419717968229769 -0.36867473508972981 0 -0.0043130761299947744 -0.35643483176966217 0 -0.026419717968229769 -0.36867473508972981 0 -0.0064694903547723136 -0.38059021958606692 0 -0.0064694903547723136 -0.38059021958606692 0 -0.0080625817845775948 -0.40608726553411861 0 -0.026496984295852101 -0.39226102623928111 0 -0.0064694903547723136 -0.38059021958606692 0 -0.0080625817845775948 -0.40608726553411861 0 0.009690974369139977 -0.39295199195252922 0 -0.0080625817845775948 -0.40608726553411861 0 -0.026496984295852101 -0.39226102623928111 0 -0.029852467816379728 -0.41236872525256307 0 -0.026419717968229769 -0.36867473508972981 0 -0.0064694903547723136 -0.38059021958606692 0 -0.026496984295852101 -0.39226102623928111 0 -0.026496984295852101 -0.39226102623928111 0 -0.048213792324517578 -0.39768762776665978 0 -0.046935058978613817 -0.3783756837809118 0 -0.026419717968229769 -0.36867473508972981 0 -0.026496984295852101 -0.39226102623928111 0 -0.046935058978613817 -0.3783756837809118 0 -0.026496984295852101 -0.39226102623928111 0 -0.048213792324517578 -0.39768762776665978 0 -0.029852467816379728 -0.41236872525256307 0 -0.048213792324517578 -0.39768762776665978 0 -0.065379196062645584 -0.39052657147488062 0 -0.06528413140028641 -0.40548789039177052 0 -0.048213792324517578 -0.39768762776665978 0 -0.046935058978613817 -0.3783756837809118 0 -0.065379196062645584 -0.39052657147488062 0 -0.065890469742167113 -0.37350781086095058 0 -0.046935058978613817 -0.3783756837809118 0 -0.065379196062645584 -0.39052657147488062 0 -0.052630130657334448 -0.42871109396582502 0 -0.036803499053157718 -0.43392585985635063 0 -0.055908543568221357 -0.44353945242809251 0 -0.052630130657334448 -0.42871109396582502 0 -0.048282499091199083 -0.41684649723306111 0 -0.065713266975248902 -0.42040157794015642 0 -0.052630130657334448 -0.42871109396582502 0 -0.055908543568221357 -0.44353945242809251 0 -0.077753046024815156 -0.43509142098737241 0 -0.048282499091199083 -0.41684649723306111 0 -0.06528413140028641 -0.40548789039177052 0 -0.065713266975248902 -0.42040157794015642 0 -0.048213792324517578 -0.39768762776665978 0 -0.048282499091199083 -0.41684649723306111 0 -0.06528413140028641 -0.40548789039177052 0 -0.048213792324517578 -0.39768762776665978 0 -0.048282499091199083 -0.41684649723306111 0 -0.029852467816379728 -0.41236872525256307 0 -0.048282499091199083 -0.41684649723306111 0 -0.036803499053157718 -0.43392585985635063 0 -0.029852467816379728 -0.41236872525256307 0 -0.052630130657334448 -0.42871109396582502 0 -0.048282499091199083 -0.41684649723306111 0 -0.036803499053157718 -0.43392585985635063 0 -0.036803499053157718 -0.43392585985635063 0 -0.01686747062211669 -0.42668809062348251 0 -0.022482277956740859 -0.44034230556013138 0 -0.036803499053157718 -0.43392585985635063 0 -0.01686747062211669 -0.42668809062348251 0 -0.029852467816379728 -0.41236872525256307 0 -0.0080625817845775948 -0.40608726553411861 0 -0.01686747062211669 -0.42668809062348251 0 -0.029852467816379728 -0.41236872525256307 0 -0.0080625817845775948 -0.40608726553411861 0 -0.01686747062211669 -0.42668809062348251 0 0.01224976062295041 -0.42183763890738629 0 -0.01686747062211669 -0.42668809062348251 0 -0.008216644178786571 -0.4466179140804285 0 0.01224976062295041 -0.42183763890738629 0 -0.008216644178786571 -0.4466179140804285 0 -0.0021957942935651631 -0.46571035637089769 0 -0.016151777162071251 -0.46269316979172348 0 -0.0021957942935651631 -0.46571035637089769 0 -0.016151777162071251 -0.46269316979172348 0 -0.01292321871024151 -0.47600360382280887 0 -0.008216644178786571 -0.4466179140804285 0 -0.016151777162071251 -0.46269316979172348 0 -0.028753682251359231 -0.45370767630375852 0 -0.016151777162071251 -0.46269316979172348 0 -0.030722049445265721 -0.46513815794063051 0 -0.025757536927686689 -0.47561542944709773 0 -0.016151777162071251 -0.46269316979172348 0 -0.030722049445265721 -0.46513815794063051 0 -0.028753682251359231 -0.45370767630375852 0 -0.036803499053157718 -0.43392585985635063 0 -0.028753682251359231 -0.45370767630375852 0 -0.022482277956740859 -0.44034230556013138 0 -0.01686747062211669 -0.42668809062348251 0 -0.008216644178786571 -0.4466179140804285 0 -0.022482277956740859 -0.44034230556013138 0 -0.008216644178786571 -0.4466179140804285 0 -0.028753682251359231 -0.45370767630375852 0 -0.022482277956740859 -0.44034230556013138 0 -0.011489863113854141 -0.5 0 -0.010144146689038991 -0.48941639725935437 0 0.012735562036971701 -0.48508522326900949 0 -0.010144146689038991 -0.48941639725935437 0 -0.00065605929082254884 -0.47874224407546379 0 -0.01292321871024151 -0.47600360382280887 0 -0.010144146689038991 -0.48941639725935437 0 -0.01292321871024151 -0.47600360382280887 0 -0.022633997898264431 -0.48384402599231691 0 -0.0021957942935651631 -0.46571035637089769 0 -0.00065605929082254884 -0.47874224407546379 0 -0.01292321871024151 -0.47600360382280887 0 -0.016151777162071251 -0.46269316979172348 0 -0.01292321871024151 -0.47600360382280887 0 -0.025757536927686689 -0.47561542944709773 0 -0.025757536927686689 -0.47561542944709773 0 -0.022633997898264431 -0.48384402599231691 0 -0.032724513000240443 -0.48384135401243772 0 -0.01292321871024151 -0.47600360382280887 0 -0.025757536927686689 -0.47561542944709773 0 -0.022633997898264431 -0.48384402599231691 0 -0.011489863113854141 -0.5 0 -0.010144146689038991 -0.48941639725935437 0 -0.033023855415049652 -0.49374757124969931 0 -0.010144146689038991 -0.48941639725935437 0 -0.022633997898264431 -0.48384402599231691 0 -0.033023855415049652 -0.49374757124969931 0 -0.011489863113854141 -0.5 0 -0.041002190054857779 -0.5 0 -0.033023855415049652 -0.49374757124969931 0 -0.010144146689038991 -0.48941639725935437 0 -0.033023855415049652 -0.49374757124969931 0 -0.022633997898264431 -0.48384402599231691 0 -0.033023855415049652 -0.49374757124969931 0 -0.032724513000240443 -0.48384135401243772 0 -0.041002190054857779 -0.5 0 -0.040644419244316249 -0.48874723383863622 0 -0.055758353525359711 -0.48944453406372251 0 -0.041002190054857779 -0.5 0 -0.033023855415049652 -0.49374757124969931 0 -0.040644419244316249 -0.48874723383863622 0 -0.033023855415049652 -0.49374757124969931 0 -0.040644419244316249 -0.48874723383863622 0 -0.032724513000240443 -0.48384135401243772 0 -0.040644419244316249 -0.48874723383863622 0 -0.040713184226073652 -0.47670270986732172 0 -0.055758353525359711 -0.48944453406372251 0 -0.040644419244316249 -0.48874723383863622 0 -0.040713184226073652 -0.47670270986732172 0 -0.032724513000240443 -0.48384135401243772 0 -0.025757536927686689 -0.47561542944709773 0 -0.040713184226073652 -0.47670270986732172 0 -0.032724513000240443 -0.48384135401243772 0 -0.030722049445265721 -0.46513815794063051 0 -0.025757536927686689 -0.47561542944709773 0 -0.040713184226073652 -0.47670270986732172 0 -0.040713184226073652 -0.47670270986732172 0 -0.05604151524233808 -0.47085547185542692 0 -0.042137987481662489 -0.46199998676314519 0 -0.040713184226073652 -0.47670270986732172 0 -0.05604151524233808 -0.47085547185542692 0 -0.055758353525359711 -0.48944453406372251 0 -0.05604151524233808 -0.47085547185542692 0 -0.055758353525359711 -0.48944453406372251 0 -0.068357021366280857 -0.47830767763467641 0 -0.041002190054857779 -0.5 0 -0.055758353525359711 -0.48944453406372251 0 -0.070514516995861642 -0.5 0 -0.036803499053157718 -0.43392585985635063 0 -0.028753682251359231 -0.45370767630375852 0 -0.042591220718736618 -0.44931976272637059 0 -0.036803499053157718 -0.43392585985635063 0 -0.042591220718736618 -0.44931976272637059 0 -0.055908543568221357 -0.44353945242809251 0 -0.028753682251359231 -0.45370767630375852 0 -0.042591220718736618 -0.44931976272637059 0 -0.042137987481662489 -0.46199998676314519 0 -0.030722049445265721 -0.46513815794063051 0 -0.028753682251359231 -0.45370767630375852 0 -0.042137987481662489 -0.46199998676314519 0 -0.030722049445265721 -0.46513815794063051 0 -0.040713184226073652 -0.47670270986732172 0 -0.042137987481662489 -0.46199998676314519 0 -0.042591220718736618 -0.44931976272637059 0 -0.042137987481662489 -0.46199998676314519 0 -0.054601469153056192 -0.45704509188174619 0 -0.05604151524233808 -0.47085547185542692 0 -0.054601469153056192 -0.45704509188174619 0 -0.071896784036839162 -0.45711427830285839 0 -0.05604151524233808 -0.47085547185542692 0 -0.042137987481662489 -0.46199998676314519 0 -0.054601469153056192 -0.45704509188174619 0 -0.054601469153056192 -0.45704509188174619 0 -0.055908543568221357 -0.44353945242809251 0 -0.071896784036839162 -0.45711427830285839 0 -0.042591220718736618 -0.44931976272637059 0 -0.054601469153056192 -0.45704509188174619 0 -0.055908543568221357 -0.44353945242809251 0 -0.055908543568221357 -0.44353945242809251 0 -0.071896784036839162 -0.45711427830285839 0 -0.077753046024815156 -0.43509142098737241 0 -0.071896784036839162 -0.45711427830285839 0 -0.087573937031005744 -0.47412410395137422 0 -0.093954286744555499 -0.45179652052777369 0 -0.087573937031005744 -0.47412410395137422 0 -0.093954286744555499 -0.45179652052777369 0 -0.071896784036839162 -0.45711427830285839 0 -0.093954286744555499 -0.45179652052777369 0 -0.077753046024815156 -0.43509142098737241 0 -0.093954286744555499 -0.45179652052777369 0 -0.10033463645810529 -0.42946893710417328 0 -0.077753046024815156 -0.43509142098737241 0 -0.055758353525359711 -0.48944453406372251 0 -0.070514516995861642 -0.5 0 -0.068357021366280857 -0.47830767763467641 0 -0.05604151524233808 -0.47085547185542692 0 -0.071896784036839162 -0.45711427830285839 0 -0.068357021366280857 -0.47830767763467641 0 -0.071896784036839162 -0.45711427830285839 0 -0.068357021366280857 -0.47830767763467641 0 -0.087573937031005744 -0.47412410395137422 0 -0.070514516995861642 -0.5 0 -0.068357021366280857 -0.47830767763467641 0 -0.087573937031005744 -0.47412410395137422 0 -0.070514516995861642 -0.5 0 -0.087573937031005744 -0.47412410395137422 0 -0.10002684393686551 -0.5 0 -0.087573937031005744 -0.47412410395137422 0 -0.10002684393686551 -0.5 0 -0.10780494223314389 -0.47765854937150709 0 -0.087573937031005744 -0.47412410395137422 0 -0.10780494223314389 -0.47765854937150709 0 -0.1029954147344513 -0.46359439800738522 0 -0.12605423818426559 -0.48707922202292669 0 -0.10780494223314389 -0.47765854937150709 0 -0.1201929706126502 -0.46127799294672761 0 -0.12605423818426559 -0.48707922202292669 0 -0.1201929706126502 -0.46127799294672761 0 -0.12605423818426559 -0.48707922202292669 0 -0.10002684393686551 -0.5 0 -0.10780494223314389 -0.47765854937150709 0 -0.1295391708778694 -0.5 0 -0.12605423818426559 -0.48707922202292669 0 -0.10002684393686551 -0.5 0 -0.093954286744555499 -0.45179652052777369 0 -0.10033463645810529 -0.42946893710417328 0 -0.10636180231815941 -0.44832292249131772 0 -0.11433170304103479 -0.43547676387052858 0 -0.10033463645810529 -0.42946893710417328 0 -0.10636180231815941 -0.44832292249131772 0 -0.093954286744555499 -0.45179652052777369 0 -0.10033463645810529 -0.42946893710417328 0 -0.087573937031005744 -0.47412410395137422 0 -0.093954286744555499 -0.45179652052777369 0 -0.1029954147344513 -0.46359439800738522 0 -0.10636180231815941 -0.44832292249131772 0 -0.093954286744555499 -0.45179652052777369 0 -0.1029954147344513 -0.46359439800738522 0 -0.10780494223314389 -0.47765854937150709 0 -0.1029954147344513 -0.46359439800738522 0 -0.1201929706126502 -0.46127799294672761 0 -0.10636180231815941 -0.44832292249131772 0 -0.1029954147344513 -0.46359439800738522 0 -0.1201929706126502 -0.46127799294672761 0 -0.13671083813600751 -0.45044361347006462 0 -0.1201929706126502 -0.46127799294672761 0 -0.11433170304103479 -0.43547676387052858 0 -0.10636180231815941 -0.44832292249131772 0 -0.1201929706126502 -0.46127799294672761 0 -0.11433170304103479 -0.43547676387052858 0 -0.13671083813600751 -0.45044361347006462 0 -0.1225906368027144 -0.43005957413219659 0 -0.11433170304103479 -0.43547676387052858 0 -0.1201929706126502 -0.46127799294672761 0 -0.11433170304103479 -0.43547676387052858 0 -0.1225906368027144 -0.43005957413219659 0 -0.11433170304103479 -0.43547676387052858 0 -0.10847043546942051 -0.40967553479432928 0 -0.11433170304103479 -0.43547676387052858 0 -0.10847043546942051 -0.40967553479432928 0 -0.12908399078123631 -0.42243277819987513 0 -0.1225906368027144 -0.43005957413219659 0 -0.12315425937001 -0.41747458531602638 0 -0.11433170304103479 -0.43547676387052858 0 -0.10033463645810529 -0.42946893710417328 0 -0.10847043546942051 -0.40967553479432928 0 -0.10033463645810529 -0.42946893710417328 0 -0.094107383989168333 -0.41562629379671062 0 -0.1067149861716557 -0.40714135368057303 0 -0.10033463645810529 -0.42946893710417328 0 -0.1067149861716557 -0.40714135368057303 0 -0.10847043546942051 -0.40967553479432928 0 -0.10033463645810529 -0.42946893710417328 0 -0.1067149861716557 -0.40714135368057303 0 -0.094107383989168333 -0.41562629379671062 0 -0.1067149861716557 -0.40714135368057303 0 -0.093615658715422545 -0.40476526464288082 0 -0.10847043546942051 -0.40967553479432928 0 -0.1105756132387118 -0.40676785322215941 0 -0.1073722461642546 -0.40484131873350049 0 -0.10847043546942051 -0.40967553479432928 0 -0.1073722461642546 -0.40484131873350049 0 -0.1067149861716557 -0.40714135368057303 0 -0.10847043546942051 -0.40967553479432928 0 -0.1073722461642546 -0.40484131873350049 0 -0.1067149861716557 -0.40714135368057303 0 -0.10847043546942051 -0.40967553479432928 0 -0.1225906368027144 -0.43005957413219659 0 -0.1163272184937543 -0.41351727508190028 0 -0.12315425937001 -0.41747458531602638 0 -0.10847043546942051 -0.40967553479432928 0 -0.1125412123036873 -0.40894162881917728 0 -0.1163272184937543 -0.41351727508190028 0 -0.1125412123036873 -0.40894162881917728 0 -0.1105756132387118 -0.40676785322215941 0 -0.1147915820128618 -0.40580585217832088 0 -0.1225906368027144 -0.43005957413219659 0 -0.10847043546942051 -0.40967553479432928 0 -0.1163272184937543 -0.41351727508190028 0 -0.10847043546942051 -0.40967553479432928 0 -0.1125412123036873 -0.40894162881917728 0 -0.1105756132387118 -0.40676785322215941 0 -0.1225906368027144 -0.43005957413219659 0 -0.10847043546942051 -0.40967553479432928 0 -0.1125412123036873 -0.40894162881917728 0 -0.1163272184937543 -0.41351727508190028 0 -0.1147915820128618 -0.40580585217832088 0 -0.1225700411049412 -0.40994677461386392 0 -0.1219584454402414 -0.40406961642135292 0 -0.1147915820128618 -0.40580585217832088 0 -0.1163272184937543 -0.41351727508190028 0 -0.1225700411049412 -0.40994677461386392 0 -0.1147915820128618 -0.40580585217832088 0 -0.1163272184937543 -0.41351727508190028 0 -0.12315425937001 -0.41747458531602638 0 -0.1225700411049412 -0.40994677461386392 0 -0.1273295258527142 -0.39594401256049883 0 -0.1219584454402414 -0.40406961642135292 0 -0.1190781430676657 -0.39944145851713192 0 -0.11305295545189779 -0.39895005080087959 0 -0.11384267237711319 -0.38219851895920232 0 -0.1073722461642546 -0.40484131873350049 0 -0.1295768038857959 -0.40463739140698729 0 -0.1225700411049412 -0.40994677461386392 0 -0.1219584454402414 -0.40406961642135292 0 -0.1182582065806136 -0.392437760624607 0 -0.11305295545189779 -0.39895005080087959 0 -0.11384267237711319 -0.38219851895920232 0 -0.11384267237711319 -0.38219851895920232 0 -0.1073722461642546 -0.40484131873350049 0 -0.1219584454402414 -0.40406961642135292 0 -0.1190781430676657 -0.39944145851713192 0 -0.1147915820128618 -0.40580585217832088 0 -0.1273295258527142 -0.39594401256049883 0 -0.1190781430676657 -0.39944145851713192 0 -0.1182582065806136 -0.392437760624607 0 -0.1190781430676657 -0.39944145851713192 0 -0.1182582065806136 -0.392437760624607 0 -0.11305295545189779 -0.39895005080087959 0 -0.1105756132387118 -0.40676785322215941 0 -0.1114480992169309 -0.40409126873371493 0 -0.1073722461642546 -0.40484131873350049 0 -0.1105756132387118 -0.40676785322215941 0 -0.1114480992169309 -0.40409126873371493 0 -0.1147915820128618 -0.40580585217832088 0 -0.11305295545189779 -0.39895005080087959 0 -0.1114480992169309 -0.40409126873371493 0 -0.1147915820128618 -0.40580585217832088 0 -0.11305295545189779 -0.39895005080087959 0 -0.1114480992169309 -0.40409126873371493 0 -0.1073722461642546 -0.40484131873350049 0 -0.1190781430676657 -0.39944145851713192 0 -0.11305295545189779 -0.39895005080087959 0 -0.1147915820128618 -0.40580585217832088 0 -0.12625141541498519 -0.38197991289387551 0 -0.1182582065806136 -0.392437760624607 0 -0.11384267237711319 -0.38219851895920232 0 -0.12625141541498519 -0.38197991289387551 0 -0.1273295258527142 -0.39594401256049883 0 -0.1182582065806136 -0.392437760624607 0 -0.11384267237711319 -0.38219851895920232 0 -0.10176491866177829 -0.38015793077534599 0 -0.1073722461642546 -0.40484131873350049 0 -0.10176491866177829 -0.38015793077534599 0 -0.095995502779844255 -0.39166661886747001 0 -0.085276019388031976 -0.37619188405436782 0 -0.10849363524981311 -0.36442991456039969 0 -0.11384267237711319 -0.38219851895920232 0 -0.10176491866177829 -0.38015793077534599 0 -0.10176491866177829 -0.38015793077534599 0 -0.1073722461642546 -0.40484131873350049 0 -0.095995502779844255 -0.39166661886747001 0 -0.10176491866177829 -0.38015793077534599 0 -0.1073722461642546 -0.40484131873350049 0 -0.1067149861716557 -0.40714135368057303 0 -0.1073722461642546 -0.40484131873350049 0 -0.095995502779844255 -0.39166661886747001 0 -0.1067149861716557 -0.40714135368057303 0 -0.1073722461642546 -0.40484131873350049 0 -0.1067149861716557 -0.40714135368057303 0 -0.095995502779844255 -0.39166661886747001 0 -0.1067149861716557 -0.40714135368057303 0 -0.095995502779844255 -0.39166661886747001 0 -0.093615658715422545 -0.40476526464288082 0 -0.093615658715422545 -0.40476526464288082 0 -0.081664681120336771 -0.39582842074610342 0 -0.082451352827770552 -0.41163664718976212 0 -0.095995502779844255 -0.39166661886747001 0 -0.093615658715422545 -0.40476526464288082 0 -0.081664681120336771 -0.39582842074610342 0 -0.095995502779844255 -0.39166661886747001 0 -0.081664681120336771 -0.39582842074610342 0 -0.085276019388031976 -0.37619188405436782 0 -0.081664681120336771 -0.39582842074610342 0 -0.085276019388031976 -0.37619188405436782 0 -0.074552591578295357 -0.38401367178407558 0 -0.095995502779844255 -0.39166661886747001 0 -0.085276019388031976 -0.37619188405436782 0 -0.081664681120336771 -0.39582842074610342 0 -0.065379196062645584 -0.39052657147488062 0 -0.074552591578295357 -0.38401367178407558 0 -0.065890469742167113 -0.37350781086095058 0 -0.085276019388031976 -0.37619188405436782 0 -0.074552591578295357 -0.38401367178407558 0 -0.065890469742167113 -0.37350781086095058 0 -0.065379196062645584 -0.39052657147488062 0 -0.074552591578295357 -0.38401367178407558 0 -0.081664681120336771 -0.39582842074610342 0 -0.06528413140028641 -0.40548789039177052 0 -0.082451352827770552 -0.41163664718976212 0 -0.081664681120336771 -0.39582842074610342 0 -0.065379196062645584 -0.39052657147488062 0 -0.06528413140028641 -0.40548789039177052 0 -0.065713266975248902 -0.42040157794015642 0 -0.085028608260126398 -0.42320905853578622 0 -0.082451352827770552 -0.41163664718976212 0 -0.06528413140028641 -0.40548789039177052 0 -0.065713266975248902 -0.42040157794015642 0 -0.082451352827770552 -0.41163664718976212 0 -0.065713266975248902 -0.42040157794015642 0 -0.077753046024815156 -0.43509142098737241 0 -0.085028608260126398 -0.42320905853578622 0 -0.052630130657334448 -0.42871109396582502 0 -0.065713266975248902 -0.42040157794015642 0 -0.077753046024815156 -0.43509142098737241 0 -0.10033463645810529 -0.42946893710417328 0 -0.077753046024815156 -0.43509142098737241 0 -0.085028608260126398 -0.42320905853578622 0 -0.10033463645810529 -0.42946893710417328 0 -0.094107383989168333 -0.41562629379671062 0 -0.085028608260126398 -0.42320905853578622 0 -0.094107383989168333 -0.41562629379671062 0 -0.085028608260126398 -0.42320905853578622 0 -0.082451352827770552 -0.41163664718976212 0 -0.094107383989168333 -0.41562629379671062 0 -0.093615658715422545 -0.40476526464288082 0 -0.082451352827770552 -0.41163664718976212 0 -0.080832567710134945 -0.085265223789800185 0 -0.09573268077664969 -0.090624673380050064 0 -0.094924188455715333 -0.074372309221374736 0 -0.080832567710134945 -0.085265223789800185 0 -0.0944050220014645 -0.1050702242089397 0 -0.09573268077664969 -0.090624673380050064 0 -0.094924188455715333 -0.074372309221374736 0 -0.077079431972146645 -0.050953682142663811 0 -0.080832567710134945 -0.085265223789800185 0 -0.077460787511610923 -0.070469280456870842 0 -0.094924188455715333 -0.074372309221374736 0 -0.077460787511610923 -0.070469280456870842 0 -0.094924188455715333 -0.074372309221374736 0 -0.078535685693175539 -0.061573663464548622 0 -0.080832567710134945 -0.085265223789800185 0 -0.072736864716213656 -0.076885636419884412 0 -0.077460787511610923 -0.070469280456870842 0 -0.072736864716213656 -0.076885636419884412 0 -0.077460787511610923 -0.070469280456870842 0 -0.067174029152377468 -0.071022972744677337 0 -0.077460787511610923 -0.070469280456870842 0 -0.067174029152377468 -0.071022972744677337 0 -0.070308423821052124 -0.061023041189074957 0 -0.077460787511610923 -0.070469280456870842 0 -0.078535685693175539 -0.061573663464548622 0 -0.070308423821052124 -0.061023041189074957 0 -0.067174029152377468 -0.071022972744677337 0 -0.070308423821052124 -0.061023041189074957 0 -0.060830035872249492 -0.064558057335980773 0 -0.072736864716213656 -0.076885636419884412 0 -0.067174029152377468 -0.071022972744677337 0 -0.063732237529271596 -0.080733089011810297 0 -0.067174029152377468 -0.071022972744677337 0 -0.063732237529271596 -0.080733089011810297 0 -0.058000192015007383 -0.073011667883306972 0 -0.080832567710134945 -0.085265223789800185 0 -0.063732237529271596 -0.080733089011810297 0 -0.066023591375222151 -0.09957098179305135 0 -0.080832567710134945 -0.085265223789800185 0 -0.072736864716213656 -0.076885636419884412 0 -0.063732237529271596 -0.080733089011810297 0 -0.066023591375222151 -0.09957098179305135 0 -0.069466171350113709 -0.1135628440840601 0 -0.0944050220014645 -0.1050702242089397 0 -0.066023591375222151 -0.09957098179305135 0 -0.069466171350113709 -0.1135628440840601 0 -0.054384952187449757 -0.110609208962567 0 -0.077516787342341589 -0.1242022911324857 0 -0.069466171350113709 -0.1135628440840601 0 -0.059238207921678762 -0.13024384051707169 0 -0.077516787342341589 -0.1242022911324857 0 -0.093262550211769629 -0.1231040070079162 0 -0.0944050220014645 -0.1050702242089397 0 -0.077516787342341589 -0.1242022911324857 0 -0.069466171350113709 -0.1135628440840601 0 -0.0944050220014645 -0.1050702242089397 0 -0.066023591375222151 -0.09957098179305135 0 -0.0944050220014645 -0.1050702242089397 0 -0.080832567710134945 -0.085265223789800185 0 -0.066023591375222151 -0.09957098179305135 0 -0.0944050220014645 -0.1050702242089397 0 -0.0944050220014645 -0.1050702242089397 0 -0.1071147179002416 -0.1244919901550422 0 -0.11276894493928399 -0.097790936300085646 0 -0.0944050220014645 -0.1050702242089397 0 -0.11276894493928399 -0.097790936300085646 0 -0.09573268077664969 -0.090624673380050064 0 -0.093262550211769629 -0.1231040070079162 0 -0.0944050220014645 -0.1050702242089397 0 -0.1071147179002416 -0.1244919901550422 0 -0.1071147179002416 -0.1244919901550422 0 -0.11276894493928399 -0.097790936300085646 0 -0.1306137014228527 -0.1212095633787966 0 -0.11276894493928399 -0.097790936300085646 0 -0.1306137014228527 -0.1212095633787966 0 -0.112702195828283 -0.076339248342475546 0 -0.13438499311011279 -0.096174695905308166 0 -0.11276894493928399 -0.097790936300085646 0 -0.112702195828283 -0.076339248342475546 0 -0.13438499311011279 -0.096174695905308166 0 -0.11276894493928399 -0.097790936300085646 0 -0.094924188455715333 -0.074372309221374736 0 -0.112702195828283 -0.076339248342475546 0 -0.11276894493928399 -0.097790936300085646 0 -0.094924188455715333 -0.074372309221374736 0 -0.11276894493928399 -0.097790936300085646 0 -0.09573268077664969 -0.090624673380050064 0 -0.094924188455715333 -0.074372309221374736 0 -0.094924188455715333 -0.074372309221374736 0 -0.1026030192468113 -0.064894788769428779 0 -0.112702195828283 -0.076339248342475546 0 -0.094924188455715333 -0.074372309221374736 0 -0.1026030192468113 -0.064894788769428779 0 -0.090333769324138391 -0.059362086744932152 0 -0.1026030192468113 -0.064894788769428779 0 -0.112702195828283 -0.076339248342475546 0 -0.1158705629695205 -0.060236298698018297 0 -0.112702195828283 -0.076339248342475546 0 -0.1158705629695205 -0.060236298698018297 0 -0.13497135686491851 -0.078315161523928284 0 -0.1158705629695205 -0.060236298698018297 0 -0.1150956899200111 -0.045830426672337207 0 -0.1070798181065768 -0.041876824406217303 0 -0.1158705629695205 -0.060236298698018297 0 -0.1150956899200111 -0.045830426672337207 0 -0.12809376798702951 -0.047905065599393698 0 -0.1163329610324388 -0.034474533447810513 0 -0.12530131535501859 -0.034952786400489197 0 -0.12809376798702951 -0.047905065599393698 0 -0.11023593420079281 -0.033339602888773932 0 -0.1150956899200111 -0.045830426672337207 0 -0.12809376798702951 -0.047905065599393698 0 -0.11023593420079281 -0.033339602888773932 0 -0.1163329610324388 -0.034474533447810513 0 -0.12809376798702951 -0.047905065599393698 0 -0.11023593420079281 -0.033339602888773932 0 -0.12809376798702951 -0.047905065599393698 0 -0.1163329610324388 -0.034474533447810513 0 -0.1221370268088495 -0.025998648103035 0 -0.12530131535501859 -0.034952786400489197 0 -0.11023593420079281 -0.033339602888773932 0 -0.1150956899200111 -0.045830426672337207 0 -0.1070798181065768 -0.041876824406217303 0 -0.11023593420079281 -0.033339602888773932 0 -0.1163329610324388 -0.034474533447810513 0 -0.097427134368436918 -0.027820357899848831 0 -0.11023593420079281 -0.033339602888773932 0 -0.1070798181065768 -0.041876824406217303 0 -0.097427134368436918 -0.027820357899848831 0 -0.1070798181065768 -0.041876824406217303 0 -0.096769769074122519 -0.04215743587210824 0 -0.097427134368436918 -0.027820357899848831 0 -0.1158705629695205 -0.060236298698018297 0 -0.1070798181065768 -0.041876824406217303 0 -0.096769769074122519 -0.04215743587210824 0 -0.1026030192468113 -0.064894788769428779 0 -0.1158705629695205 -0.060236298698018297 0 -0.099264754381345577 -0.055060356505970513 0 -0.1158705629695205 -0.060236298698018297 0 -0.096769769074122519 -0.04215743587210824 0 -0.099264754381345577 -0.055060356505970513 0 -0.096769769074122519 -0.04215743587210824 0 -0.099264754381345577 -0.055060356505970513 0 -0.090746651292135133 -0.048651172445365112 0 -0.1158705629695205 -0.060236298698018297 0 -0.096769769074122519 -0.04215743587210824 0 -0.1026030192468113 -0.064894788769428779 0 -0.099264754381345577 -0.055060356505970513 0 -0.090333769324138391 -0.059362086744932152 0 -0.1029392013539359 -0.0085751277431150782 0 -0.12735709500343681 0.004015926865657337 0 -0.1236693299605585 -0.0137973575501921 0 -0.1110604598185659 -0.0207882196779367 0 -0.1029392013539359 -0.0085751277431150782 0 -0.1236693299605585 -0.0137973575501921 0 -0.1029392013539359 -0.0085751277431150782 0 -0.12735709500343681 0.004015926865657337 0 -0.1236693299605585 -0.0137973575501921 0 -0.1110604598185659 -0.0207882196779367 0 -0.1221370268088495 -0.025998648103035 0 -0.1163329610324388 -0.034474533447810513 0 -0.1221370268088495 -0.025998648103035 0 -0.11173939550707281 -0.027270439782157759 0 -0.1110604598185659 -0.0207882196779367 0 -0.1221370268088495 -0.025998648103035 0 -0.11173939550707281 -0.027270439782157759 0 -0.1163329610324388 -0.034474533447810513 0 -0.097427134368436918 -0.027820357899848831 0 -0.1110604598185659 -0.0207882196779367 0 -0.097427134368436918 -0.027820357899848831 0 -0.1029392013539359 -0.0085751277431150782 0 -0.1163329610324388 -0.034474533447810513 0 -0.11173939550707281 -0.027270439782157759 0 -0.097427134368436918 -0.027820357899848831 0 -0.1110604598185659 -0.0207882196779367 0 -0.11173939550707281 -0.027270439782157759 0 -0.097427134368436918 -0.027820357899848831 0 -0.1029392013539359 -0.0085751277431150782 0 -0.086097875964997059 -0.0058870606910941042 0 -0.078521307704434995 -0.021166182351887271 0 -0.1029392013539359 -0.0085751277431150782 0 -0.078521307704434995 -0.021166182351887271 0 -0.1029392013539359 -0.0085751277431150782 0 -0.086097875964997059 -0.0058870606910941042 0 -0.091682611010439896 0.0063963380850077774 0 -0.086097875964997059 -0.0058870606910941042 0 -0.073830544796709738 -0.0078542708917730738 0 -0.078933949510919491 0.00072378658541613432 0 -0.086097875964997059 -0.0058870606910941042 0 -0.078521307704434995 -0.021166182351887271 0 -0.073830544796709738 -0.0078542708917730738 0 -0.097427134368436918 -0.027820357899848831 0 -0.078521307704434995 -0.021166182351887271 0 -0.097427134368436918 -0.027820357899848831 0 -0.078521307704434995 -0.021166182351887271 0 -0.077668975178724509 -0.024078573046198169 0 -0.097427134368436918 -0.027820357899848831 0 -0.1029392013539359 -0.0085751277431150782 0 -0.078521307704434995 -0.021166182351887271 0 -0.078521307704434995 -0.021166182351887271 0 -0.055132092173872667 -0.033226800447327051 0 -0.05822397002114936 -0.01402224463886402 0 -0.078521307704434995 -0.021166182351887271 0 -0.055132092173872667 -0.033226800447327051 0 -0.077668975178724509 -0.024078573046198169 0 -0.075465350998538308 -0.032772608828030472 0 -0.055132092173872667 -0.033226800447327051 0 -0.078521307704434995 -0.021166182351887271 0 -0.077668975178724509 -0.024078573046198169 0 -0.055132092173872667 -0.033226800447327051 0 -0.078521307704434995 -0.021166182351887271 0 -0.05822397002114936 -0.01402224463886402 0 -0.078521307704434995 -0.021166182351887271 0 -0.073830544796709738 -0.0078542708917730738 0 -0.05822397002114936 -0.01402224463886402 0 -0.073830544796709738 -0.0078542708917730738 0 -0.05822397002114936 -0.01402224463886402 0 -0.068462160169621672 0.0025537029525893409 0 -0.073830544796709738 -0.0078542708917730738 0 -0.078933949510919491 0.00072378658541613432 0 -0.068462160169621672 0.0025537029525893409 0 -0.094924188455715333 -0.074372309221374736 0 -0.090333769324138391 -0.059362086744932152 0 -0.077079431972146645 -0.050953682142663811 0 -0.094924188455715333 -0.074372309221374736 0 -0.078535685693175539 -0.061573663464548622 0 -0.077079431972146645 -0.050953682142663811 0 -0.084868245962835154 -0.053326759561897898 0 -0.090333769324138391 -0.059362086744932152 0 -0.077079431972146645 -0.050953682142663811 0 -0.084868245962835154 -0.053326759561897898 0 -0.080876314157704687 -0.04955372347343575 0 -0.082849096915408454 -0.045583035938281863 0 -0.080876314157704687 -0.04955372347343575 0 -0.078708481780428496 -0.048351416250899462 0 -0.082849096915408454 -0.045583035938281863 0 -0.080876314157704687 -0.04955372347343575 0 -0.078708481780428496 -0.048351416250899462 0 -0.077079431972146645 -0.050953682142663811 0 -0.084868245962835154 -0.053326759561897898 0 -0.080876314157704687 -0.04955372347343575 0 -0.077079431972146645 -0.050953682142663811 0 -0.084868245962835154 -0.053326759561897898 0 -0.090746651292135133 -0.048651172445365112 0 -0.082849096915408454 -0.045583035938281863 0 -0.084868245962835154 -0.053326759561897898 0 -0.090333769324138391 -0.059362086744932152 0 -0.090746651292135133 -0.048651172445365112 0 -0.099264754381345577 -0.055060356505970513 0 -0.090333769324138391 -0.059362086744932152 0 -0.090746651292135133 -0.048651172445365112 0 -0.096769769074122519 -0.04215743587210824 0 -0.088481073739883592 -0.043344290748051233 0 -0.083558777677868248 -0.036985518736449702 0 -0.096769769074122519 -0.04215743587210824 0 -0.097427134368436918 -0.027820357899848831 0 -0.077668975178724509 -0.024078573046198169 0 -0.096769769074122519 -0.04215743587210824 0 -0.077668975178724509 -0.024078573046198169 0 -0.083558777677868248 -0.036985518736449702 0 -0.096769769074122519 -0.04215743587210824 0 -0.077668975178724509 -0.024078573046198169 0 -0.090746651292135133 -0.048651172445365112 0 -0.088481073739883592 -0.043344290748051233 0 -0.082849096915408454 -0.045583035938281863 0 -0.096769769074122519 -0.04215743587210824 0 -0.090746651292135133 -0.048651172445365112 0 -0.088481073739883592 -0.043344290748051233 0 -0.077668975178724509 -0.024078573046198169 0 -0.083558777677868248 -0.036985518736449702 0 -0.075465350998538308 -0.032772608828030472 0 -0.083558777677868248 -0.036985518736449702 0 -0.082849096915408454 -0.045583035938281863 0 -0.075062618692292638 -0.040325846155841297 0 -0.088481073739883592 -0.043344290748051233 0 -0.083558777677868248 -0.036985518736449702 0 -0.082849096915408454 -0.045583035938281863 0 -0.082849096915408454 -0.045583035938281863 0 -0.078067002861142085 -0.04575568247049161 0 -0.075062618692292638 -0.040325846155841297 0 -0.078708481780428496 -0.048351416250899462 0 -0.082849096915408454 -0.045583035938281863 0 -0.078067002861142085 -0.04575568247049161 0 -0.075647814056438792 -0.048762431536943832 0 -0.055132092173872667 -0.033226800447327051 0 -0.078067002861142085 -0.04575568247049161 0 -0.075062618692292638 -0.040325846155841297 0 -0.075647814056438792 -0.048762431536943832 0 -0.075062618692292638 -0.040325846155841297 0 -0.075465350998538308 -0.032772608828030472 0 -0.055132092173872667 -0.033226800447327051 0 -0.075647814056438792 -0.048762431536943832 0 -0.061428605263776047 -0.046553119166432878 0 -0.055132092173872667 -0.033226800447327051 0 -0.075062618692292638 -0.040325846155841297 0 -0.075647814056438792 -0.048762431536943832 0 -0.055132092173872667 -0.033226800447327051 0 -0.083558777677868248 -0.036985518736449702 0 -0.075062618692292638 -0.040325846155841297 0 -0.075465350998538308 -0.032772608828030472 0 -0.065722760200719738 -0.052253177456942877 0 -0.075647814056438792 -0.048762431536943832 0 -0.061428605263776047 -0.046553119166432878 0 -0.065722760200719738 -0.052253177456942877 0 -0.07269306068786438 -0.052406879740114577 0 -0.069833853901725543 -0.055329661047837618 0 -0.065722760200719738 -0.052253177456942877 0 -0.07269306068786438 -0.052406879740114577 0 -0.075647814056438792 -0.048762431536943832 0 -0.07269306068786438 -0.052406879740114577 0 -0.073703714626092445 -0.056102563442451223 0 -0.069833853901725543 -0.055329661047837618 0 -0.07269306068786438 -0.052406879740114577 0 -0.077079431972146645 -0.050953682142663811 0 -0.073703714626092445 -0.056102563442451223 0 -0.078708481780428496 -0.048351416250899462 0 -0.077079431972146645 -0.050953682142663811 0 -0.075647814056438792 -0.048762431536943832 0 -0.07269306068786438 -0.052406879740114577 0 -0.077079431972146645 -0.050953682142663811 0 -0.075647814056438792 -0.048762431536943832 0 -0.078708481780428496 -0.048351416250899462 0 -0.078067002861142085 -0.04575568247049161 0 -0.075647814056438792 -0.048762431536943832 0 -0.078535685693175539 -0.061573663464548622 0 -0.073703714626092445 -0.056102563442451223 0 -0.070308423821052124 -0.061023041189074957 0 -0.078535685693175539 -0.061573663464548622 0 -0.077079431972146645 -0.050953682142663811 0 -0.073703714626092445 -0.056102563442451223 0 -0.073703714626092445 -0.056102563442451223 0 -0.070308423821052124 -0.061023041189074957 0 -0.069833853901725543 -0.055329661047837618 0 -0.070308423821052124 -0.061023041189074957 0 -0.064391701294429504 -0.057679717025484439 0 -0.060830035872249492 -0.064558057335980773 0 -0.070308423821052124 -0.061023041189074957 0 -0.069833853901725543 -0.055329661047837618 0 -0.064391701294429504 -0.057679717025484439 0 -0.065722760200719738 -0.052253177456942877 0 -0.069833853901725543 -0.055329661047837618 0 -0.064391701294429504 -0.057679717025484439 0 -0.064391701294429504 -0.057679717025484439 0 -0.055978059279945473 -0.056388284161067823 0 -0.060830035872249492 -0.064558057335980773 0 -0.065722760200719738 -0.052253177456942877 0 -0.064391701294429504 -0.057679717025484439 0 -0.055978059279945473 -0.056388284161067823 0 -0.055978059279945473 -0.056388284161067823 0 -0.041230103293456458 -0.058058117591144771 0 -0.049479852383656611 -0.067543566470139038 0 -0.055978059279945473 -0.056388284161067823 0 -0.049741921456861897 -0.048697412542500033 0 -0.041230103293456458 -0.058058117591144771 0 -0.055978059279945473 -0.056388284161067823 0 -0.049741921456861897 -0.048697412542500033 0 -0.061428605263776047 -0.046553119166432878 0 -0.065722760200719738 -0.052253177456942877 0 -0.055978059279945473 -0.056388284161067823 0 -0.061428605263776047 -0.046553119166432878 0 -0.049741921456861897 -0.048697412542500033 0 -0.061428605263776047 -0.046553119166432878 0 -0.055132092173872667 -0.033226800447327051 0 -0.049741921456861897 -0.048697412542500033 0 -0.055132092173872667 -0.033226800447327051 0 -0.032367863380537598 -0.044965144957206583 0 -0.055132092173872667 -0.033226800447327051 0 -0.032367863380537598 -0.044965144957206583 0 -0.055132092173872667 -0.033226800447327051 0 -0.032367863380537598 -0.044965144957206583 0 -0.031233838643279398 -0.031193199633022049 0 -0.049741921456861897 -0.048697412542500033 0 -0.032367863380537598 -0.044965144957206583 0 -0.041230103293456458 -0.058058117591144771 0 -0.032367863380537598 -0.044965144957206583 0 -0.041230103293456458 -0.058058117591144771 0 -0.026902341230915561 -0.060374551747501753 0 -0.05822397002114936 -0.01402224463886402 0 -0.057836245250817257 0.0062936453779614283 0 -0.044352522143416888 0.0050416822031405977 0 -0.05822397002114936 -0.01402224463886402 0 -0.037926632337863607 -0.0068783069258408786 0 -0.05822397002114936 -0.01402224463886402 0 -0.068462160169621672 0.0025537029525893409 0 -0.057836245250817257 0.0062936453779614283 0 -0.055132092173872667 -0.033226800447327051 0 -0.05822397002114936 -0.01402224463886402 0 -0.036243114184870161 -0.018923029155399909 0 -0.055132092173872667 -0.033226800447327051 0 -0.036243114184870161 -0.018923029155399909 0 -0.031233838643279398 -0.031193199633022049 0 -0.055132092173872667 -0.033226800447327051 0 -0.036243114184870161 -0.018923029155399909 0 -0.05822397002114936 -0.01402224463886402 0 -0.036243114184870161 -0.018923029155399909 0 -0.037926632337863607 -0.0068783069258408786 0 -0.05822397002114936 -0.01402224463886402 0 -0.037926632337863607 -0.0068783069258408786 0 -0.044352522143416888 0.0050416822031405977 0 -0.036243114184870161 -0.018923029155399909 0 -0.037926632337863607 -0.0068783069258408786 0 -0.029121832422534862 -0.0067169982391169078 0 -0.037926632337863607 -0.0068783069258408786 0 -0.029539197120254941 -0.00051038393964639519 0 -0.029121832422534862 -0.0067169982391169078 0 -0.037926632337863607 -0.0068783069258408786 0 -0.029539197120254941 -0.00051038393964639519 0 -0.03614709390981162 0.0015378833132510439 0 -0.037926632337863607 -0.0068783069258408786 0 -0.03614709390981162 0.0015378833132510439 0 -0.044352522143416888 0.0050416822031405977 0 -0.036243114184870161 -0.018923029155399909 0 -0.017354136195868258 -0.0046192578634720229 0 -0.01819617019275287 -0.0061732580868559192 0 -0.036243114184870161 -0.018923029155399909 0 -0.017354136195868258 -0.0046192578634720229 0 -0.029121832422534862 -0.0067169982391169078 0 -0.036243114184870161 -0.018923029155399909 0 -0.01819617019275287 -0.0061732580868559192 0 -0.019637671972121611 -0.02148729346067638 0 -0.036243114184870161 -0.018923029155399909 0 -0.017354136195868258 -0.0046192578634720229 0 -0.017354136195868258 -0.0046192578634720229 0 -0.01819617019275287 -0.0061732580868559192 0 -0.013500839782477779 -0.0058155532537883976 0 -0.017354136195868258 -0.0046192578634720229 0 -0.01819617019275287 -0.0061732580868559192 0 -0.017354136195868258 -0.0046192578634720229 0 -0.024546082273817361 -0.00265401331122534 0 -0.02112675760807068 0.0030512678310729521 0 -0.024546082273817361 -0.00265401331122534 0 -0.029539197120254941 -0.00051038393964639519 0 -0.02112675760807068 0.0030512678310729521 0 -0.017354136195868258 -0.0046192578634720229 0 -0.024546082273817361 -0.00265401331122534 0 -0.029121832422534862 -0.0067169982391169078 0 -0.024546082273817361 -0.00265401331122534 0 -0.029539197120254941 -0.00051038393964639519 0 -0.029121832422534862 -0.0067169982391169078 0 -0.01819617019275287 -0.0061732580868559192 0 -0.019637671972121611 -0.02148729346067638 0 -0.011008321991883009 -0.01057962122923565 0 -0.036243114184870161 -0.018923029155399909 0 -0.019637671972121611 -0.02148729346067638 0 -0.031233838643279398 -0.031193199633022049 0 -0.019637671972121611 -0.02148729346067638 0 -0.031233838643279398 -0.031193199633022049 0 -0.016064986363794779 -0.036441041599790329 0 -0.0077215053668332834 -0.022860670268973711 0 -0.00118246574067416 -0.01324232368796026 0 0.0015263381015913891 -0.033415212413580753 0 -0.0077215053668332834 -0.022860670268973711 0 -0.016064986363794779 -0.036441041599790329 0 0.0015263381015913891 -0.033415212413580753 0 -0.019637671972121611 -0.02148729346067638 0 -0.0077215053668332834 -0.022860670268973711 0 -0.016064986363794779 -0.036441041599790329 0 -0.019637671972121611 -0.02148729346067638 0 -0.0077215053668332834 -0.022860670268973711 0 -0.011008321991883009 -0.01057962122923565 0 -0.011008321991883009 -0.01057962122923565 0 -0.00118246574067416 -0.01324232368796026 0 -0.0072764121498596901 -0.0036325873431357339 0 -0.0077215053668332834 -0.022860670268973711 0 -0.011008321991883009 -0.01057962122923565 0 -0.00118246574067416 -0.01324232368796026 0 -0.00118246574067416 -0.01324232368796026 0 -0.0072764121498596901 -0.0036325873431357339 0 0.0012074066645448821 -0.00065723147797176382 0 -0.0072764121498596901 -0.0036325873431357339 0 -0.013500839782477779 -0.0058155532537883976 0 -0.013607688627124061 -0.00178224205395049 0 -0.011008321991883009 -0.01057962122923565 0 -0.0072764121498596901 -0.0036325873431357339 0 -0.013500839782477779 -0.0058155532537883976 0 -0.01819617019275287 -0.0061732580868559192 0 -0.011008321991883009 -0.01057962122923565 0 -0.013500839782477779 -0.0058155532537883976 0 -0.017354136195868258 -0.0046192578634720229 0 -0.013500839782477779 -0.0058155532537883976 0 -0.013607688627124061 -0.00178224205395049 0 -0.017354136195868258 -0.0046192578634720229 0 -0.013607688627124061 -0.00178224205395049 0 -0.032367863380537598 -0.044965144957206583 0 -0.0096036345872028556 -0.056703489467087059 0 -0.032367863380537598 -0.044965144957206583 0 -0.026902341230915561 -0.060374551747501753 0 -0.0096036345872028556 -0.056703489467087059 0 -0.032367863380537598 -0.044965144957206583 0 -0.031233838643279398 -0.031193199633022049 0 -0.016064986363794779 -0.036441041599790329 0 -0.032367863380537598 -0.044965144957206583 0 -0.016064986363794779 -0.036441041599790329 0 -0.0096036345872028556 -0.056703489467087059 0 -0.0096036345872028556 -0.056703489467087059 0 0.0015263381015913891 -0.033415212413580753 0 -0.016064986363794779 -0.036441041599790329 0 -0.0096036345872028556 -0.056703489467087059 0 0.0015263381015913891 -0.033415212413580753 0 -0.0096036345872028556 -0.056703489467087059 0 0.0015263381015913891 -0.033415212413580753 0 0.007298405735321048 -0.051477207310420908 0 -0.0096036345872028556 -0.056703489467087059 0 0.0052181775422467033 -0.064346337314722044 0 -0.0096036345872028556 -0.056703489467087059 0 -0.0043762627118289626 -0.071729097412358583 0 0.0052181775422467033 -0.064346337314722044 0 -0.0043762627118289626 -0.071729097412358583 0 -0.0092607301227374331 -0.088572496961274561 0 -0.01646375475339092 -0.071057556949349329 0 -0.0096036345872028556 -0.056703489467087059 0 -0.01646375475339092 -0.071057556949349329 0 -0.0096036345872028556 -0.056703489467087059 0 -0.0043762627118289626 -0.071729097412358583 0 -0.01646375475339092 -0.071057556949349329 0 -0.0092607301227374331 -0.088572496961274561 0 -0.00044729776891663488 -0.1011528385718463 0 0.0042106568376920582 -0.081118225430045127 0 -0.0043762627118289626 -0.071729097412358583 0 -0.0092607301227374331 -0.088572496961274561 0 0.0042106568376920582 -0.081118225430045127 0 -0.0092607301227374331 -0.088572496961274561 0 -0.037642160748979789 -0.094071739377162955 0 -0.0092607301227374331 -0.088572496961274561 0 -0.023323874919582349 -0.085411624431610003 0 -0.01646375475339092 -0.071057556949349329 0 -0.0092607301227374331 -0.088572496961274561 0 -0.023323874919582349 -0.085411624431610003 0 -0.037642160748979789 -0.094071739377162955 0 -0.023323874919582349 -0.085411624431610003 0 -0.01646375475339092 -0.071057556949349329 0 -0.023323874919582349 -0.085411624431610003 0 -0.01646375475339092 -0.071057556949349329 0 -0.034846350139989962 -0.07108844977272101 0 -0.026902341230915561 -0.060374551747501753 0 -0.01646375475339092 -0.071057556949349329 0 -0.034846350139989962 -0.07108844977272101 0 -0.026902341230915561 -0.060374551747501753 0 -0.0096036345872028556 -0.056703489467087059 0 -0.01646375475339092 -0.071057556949349329 0 -0.041230103293456458 -0.058058117591144771 0 -0.026902341230915561 -0.060374551747501753 0 -0.034846350139989962 -0.07108844977272101 0 -0.041230103293456458 -0.058058117591144771 0 -0.034846350139989962 -0.07108844977272101 0 -0.049479852383656611 -0.067543566470139038 0 -0.034846350139989962 -0.07108844977272101 0 -0.048784805137481749 -0.081200653853927454 0 -0.049479852383656611 -0.067543566470139038 0 -0.023323874919582349 -0.085411624431610003 0 -0.034846350139989962 -0.07108844977272101 0 -0.036149297736508462 -0.082943116858855345 0 -0.023323874919582349 -0.085411624431610003 0 -0.036149297736508462 -0.082943116858855345 0 -0.037642160748979789 -0.094071739377162955 0 -0.036149297736508462 -0.082943116858855345 0 -0.048784805137481749 -0.081200653853927454 0 -0.037642160748979789 -0.094071739377162955 0 -0.034846350139989962 -0.07108844977272101 0 -0.036149297736508462 -0.082943116858855345 0 -0.048784805137481749 -0.081200653853927454 0 -0.063732237529271596 -0.080733089011810297 0 -0.066023591375222151 -0.09957098179305135 0 -0.048784805137481749 -0.081200653853927454 0 -0.066023591375222151 -0.09957098179305135 0 -0.048784805137481749 -0.081200653853927454 0 -0.037642160748979789 -0.094071739377162955 0 -0.063732237529271596 -0.080733089011810297 0 -0.048784805137481749 -0.081200653853927454 0 -0.058000192015007383 -0.073011667883306972 0 -0.055978059279945473 -0.056388284161067823 0 -0.060830035872249492 -0.064558057335980773 0 -0.049479852383656611 -0.067543566470139038 0 -0.058000192015007383 -0.073011667883306972 0 -0.060830035872249492 -0.064558057335980773 0 -0.049479852383656611 -0.067543566470139038 0 -0.067174029152377468 -0.071022972744677337 0 -0.058000192015007383 -0.073011667883306972 0 -0.060830035872249492 -0.064558057335980773 0 -0.048784805137481749 -0.081200653853927454 0 -0.058000192015007383 -0.073011667883306972 0 -0.049479852383656611 -0.067543566470139038 0 -0.069466171350113709 -0.1135628440840601 0 -0.054384952187449757 -0.110609208962567 0 -0.059238207921678762 -0.13024384051707169 0 -0.054384952187449757 -0.110609208962567 0 -0.059238207921678762 -0.13024384051707169 0 -0.032945469352336033 -0.1293562392835419 0 -0.066023591375222151 -0.09957098179305135 0 -0.054384952187449757 -0.110609208962567 0 -0.037642160748979789 -0.094071739377162955 0 -0.066023591375222151 -0.09957098179305135 0 -0.037642160748979789 -0.094071739377162955 0 -0.054384952187449757 -0.110609208962567 0 -0.037642160748979789 -0.094071739377162955 0 -0.035661083064217503 -0.11124856921529409 0 -0.054384952187449757 -0.110609208962567 0 -0.032945469352336033 -0.1293562392835419 0 -0.054384952187449757 -0.110609208962567 0 -0.035661083064217503 -0.11124856921529409 0 -0.032945469352336033 -0.1293562392835419 0 -0.01767174996810443 -0.1109570892379047 0 -0.012892303975098539 -0.12786221844410239 0 -0.032945469352336033 -0.1293562392835419 0 -0.035661083064217503 -0.11124856921529409 0 -0.01767174996810443 -0.1109570892379047 0 -0.032945469352336033 -0.1293562392835419 0 -0.0092607301227374331 -0.088572496961274561 0 -0.037642160748979789 -0.094071739377162955 0 -0.01767174996810443 -0.1109570892379047 0 -0.037642160748979789 -0.094071739377162955 0 -0.035661083064217503 -0.11124856921529409 0 -0.01767174996810443 -0.1109570892379047 0 -0.01767174996810443 -0.1109570892379047 0 -0.00044729776891663488 -0.1011528385718463 0 0.005085065621477718 -0.1151057880332567 0 -0.0092607301227374331 -0.088572496961274561 0 -0.01767174996810443 -0.1109570892379047 0 -0.00044729776891663488 -0.1011528385718463 0 -0.01767174996810443 -0.1109570892379047 0 -0.012892303975098539 -0.12786221844410239 0 0.005085065621477718 -0.1151057880332567 0 -0.012892303975098539 -0.12786221844410239 0 0.0027021066240326768 -0.1317064378292063 0 0.005085065621477718 -0.1151057880332567 0 -0.011505986517222349 -0.14810326960451681 0 -0.033736789854580403 -0.16402697950055581 0 -0.032945469352336033 -0.1293562392835419 0 -0.012892303975098539 -0.12786221844410239 0 -0.011505986517222349 -0.14810326960451681 0 0.0027021066240326768 -0.1317064378292063 0 -0.011505986517222349 -0.14810326960451681 0 -0.032945469352336033 -0.1293562392835419 0 -0.012892303975098539 -0.12786221844410239 0 -0.011505986517222349 -0.14810326960451681 0 -0.032945469352336033 -0.1293562392835419 0 -0.011505986517222349 -0.14810326960451681 0 0.009933496317892726 -0.16685029992549011 0 -0.011505986517222349 -0.14810326960451681 0 -0.0085976242789068957 -0.177408956520272 0 0.009933496317892726 -0.16685029992549011 0 -0.0085976242789068957 -0.177408956520272 0 -0.003739977245034012 -0.19168309442994089 0 -0.02712874487570623 -0.18796761311505439 0 -0.0085976242789068957 -0.177408956520272 0 -0.003739977245034012 -0.19168309442994089 0 0.0034571977838801569 -0.17702496179755631 0 -0.0085976242789068957 -0.177408956520272 0 -0.02712874487570623 -0.18796761311505439 0 -0.0085976242789068957 -0.177408956520272 0 -0.033736789854580403 -0.16402697950055581 0 -0.02712874487570623 -0.18796761311505439 0 -0.011505986517222349 -0.14810326960451681 0 -0.0085976242789068957 -0.177408956520272 0 -0.033736789854580403 -0.16402697950055581 0 -0.033736789854580403 -0.16402697950055581 0 -0.041678182321736049 -0.18065303021324261 0 -0.02712874487570623 -0.18796761311505439 0 -0.033736789854580403 -0.16402697950055581 0 -0.041678182321736049 -0.18065303021324261 0 -0.060187329084152079 -0.17209125852752319 0 -0.041678182321736049 -0.18065303021324261 0 -0.060187329084152079 -0.17209125852752319 0 -0.045659865472505487 -0.198526269709837 0 -0.060187329084152079 -0.17209125852752319 0 -0.045659865472505487 -0.198526269709837 0 -0.033736789854580403 -0.16402697950055581 0 -0.060187329084152079 -0.17209125852752319 0 -0.051699405537506939 -0.14899167338562519 0 -0.060187329084152079 -0.17209125852752319 0 -0.051699405537506939 -0.14899167338562519 0 -0.072389231474787458 -0.1492400490994332 0 -0.051699405537506939 -0.14899167338562519 0 -0.059238207921678762 -0.13024384051707169 0 -0.072389231474787458 -0.1492400490994332 0 -0.033736789854580403 -0.16402697950055581 0 -0.051699405537506939 -0.14899167338562519 0 -0.032945469352336033 -0.1293562392835419 0 -0.051699405537506939 -0.14899167338562519 0 -0.059238207921678762 -0.13024384051707169 0 -0.032945469352336033 -0.1293562392835419 0 -0.025857267464119819 -0.25506418495113531 0 -0.02368513365757598 -0.23851275990414511 0 -0.036167443228362108 -0.24337299090061551 0 -0.01269776775011346 -0.25850600500130039 0 -0.02368513365757598 -0.23851275990414511 0 -0.01269776775011346 -0.25850600500130039 0 -0.02368513365757598 -0.23851275990414511 0 -0.01082738352359053 -0.24876902592697839 0 -0.02368513365757598 -0.23851275990414511 0 -0.0067432183097289999 -0.239968376336817 0 -0.0090267388034834407 -0.23007068799598671 0 -0.02368513365757598 -0.23851275990414511 0 -0.01082738352359053 -0.24876902592697839 0 -0.0067432183097289999 -0.239968376336817 0 -0.01082738352359053 -0.24876902592697839 0 -0.0029313858115674811 -0.24854412401401971 0 -0.0067432183097289999 -0.239968376336817 0 -0.0029313858115674811 -0.24854412401401971 0 -0.0067432183097289999 -0.239968376336817 0 0.0026199421412959989 -0.2430643023623929 0 -0.0067432183097289999 -0.239968376336817 0 0.0026199421412959989 -0.2430643023623929 0 0.0017465435191736189 -0.23378549097037141 0 -0.0067432183097289999 -0.239968376336817 0 -0.0090267388034834407 -0.23007068799598671 0 0.0017465435191736189 -0.23378549097037141 0 -0.0090267388034834407 -0.23007068799598671 0 -0.00080535468136348092 -0.21995366459000901 0 -0.01839049427805331 -0.2195873775130934 0 -0.0090267388034834407 -0.23007068799598671 0 -0.00080535468136348092 -0.21995366459000901 0 0.0017465435191736189 -0.23378549097037141 0 -0.02368513365757598 -0.23851275990414511 0 -0.0090267388034834407 -0.23007068799598671 0 -0.01839049427805331 -0.2195873775130934 0 -0.02368513365757598 -0.23851275990414511 0 -0.01839049427805331 -0.2195873775130934 0 -0.034672499565036527 -0.2185195148069887 0 -0.02368513365757598 -0.23851275990414511 0 -0.034672499565036527 -0.2185195148069887 0 -0.01839049427805331 -0.2195873775130934 0 -0.027127261386640289 -0.20489204062456881 0 -0.034672499565036527 -0.2185195148069887 0 -0.01839049427805331 -0.2195873775130934 0 -0.027127261386640289 -0.20489204062456881 0 -0.01084996336714465 -0.20584666152463099 0 -0.00080535468136348092 -0.21995366459000901 0 -0.01839049427805331 -0.2195873775130934 0 -0.01084996336714465 -0.20584666152463099 0 -0.00080535468136348092 -0.21995366459000901 0 -0.01084996336714465 -0.20584666152463099 0 0.01016515501406726 -0.20926501301563591 0 -0.01084996336714465 -0.20584666152463099 0 -0.003739977245034012 -0.19168309442994089 0 0.01016515501406726 -0.20926501301563591 0 -0.01084996336714465 -0.20584666152463099 0 -0.003739977245034012 -0.19168309442994089 0 -0.02712874487570623 -0.18796761311505439 0 -0.027127261386640289 -0.20489204062456881 0 -0.01084996336714465 -0.20584666152463099 0 -0.02712874487570623 -0.18796761311505439 0 -0.041678182321736049 -0.18065303021324261 0 -0.02712874487570623 -0.18796761311505439 0 -0.045659865472505487 -0.198526269709837 0 -0.02712874487570623 -0.18796761311505439 0 -0.045659865472505487 -0.198526269709837 0 -0.027127261386640289 -0.20489204062456881 0 -0.02712874487570623 -0.18796761311505439 0 -0.045659865472505487 -0.198526269709837 0 -0.045659865472505487 -0.198526269709837 0 -0.067682806497079445 -0.21107449474949169 0 -0.062708331551170268 -0.19442045911658551 0 -0.060187329084152079 -0.17209125852752319 0 -0.045659865472505487 -0.198526269709837 0 -0.062708331551170268 -0.19442045911658551 0 -0.045659865472505487 -0.198526269709837 0 -0.067682806497079445 -0.21107449474949169 0 -0.045659865472505487 -0.198526269709837 0 -0.054546183461555722 -0.22015285450131489 0 -0.067682806497079445 -0.21107449474949169 0 -0.045659865472505487 -0.198526269709837 0 -0.034672499565036527 -0.2185195148069887 0 -0.054546183461555722 -0.22015285450131489 0 -0.045659865472505487 -0.198526269709837 0 -0.034672499565036527 -0.2185195148069887 0 -0.027127261386640289 -0.20489204062456881 0 -0.045659865472505487 -0.198526269709837 0 -0.034672499565036527 -0.2185195148069887 0 -0.034672499565036527 -0.2185195148069887 0 -0.044145410485190079 -0.23242073182379891 0 -0.054546183461555722 -0.22015285450131489 0 -0.02368513365757598 -0.23851275990414511 0 -0.034672499565036527 -0.2185195148069887 0 -0.044145410485190079 -0.23242073182379891 0 -0.044145410485190079 -0.23242073182379891 0 -0.054546183461555722 -0.22015285450131489 0 -0.061280333386656921 -0.23284462843810469 0 -0.061280333386656921 -0.23284462843810469 0 -0.050191684441297867 -0.2485850187836515 0 -0.071591358857016049 -0.2429226102204386 0 -0.050191684441297867 -0.2485850187836515 0 -0.071591358857016049 -0.2429226102204386 0 -0.056939497423126581 -0.24878681181634871 0 -0.050191684441297867 -0.2485850187836515 0 -0.071591358857016049 -0.2429226102204386 0 -0.044145410485190079 -0.23242073182379891 0 -0.061280333386656921 -0.23284462843810469 0 -0.050191684441297867 -0.2485850187836515 0 -0.041398382443623198 -0.25192549838374201 0 -0.056939497423126581 -0.24878681181634871 0 -0.050191684441297867 -0.2485850187836515 0 -0.044145410485190079 -0.23242073182379891 0 -0.050191684441297867 -0.2485850187836515 0 -0.036167443228362108 -0.24337299090061551 0 -0.02368513365757598 -0.23851275990414511 0 -0.044145410485190079 -0.23242073182379891 0 -0.036167443228362108 -0.24337299090061551 0 -0.025857267464119819 -0.25506418495113531 0 -0.050191684441297867 -0.2485850187836515 0 -0.036167443228362108 -0.24337299090061551 0 -0.097628444613881649 -0.25834262822693399 0 -0.087470553331264578 -0.24262075389877999 0 -0.077955776651182085 -0.24454236002529731 0 -0.087470553331264578 -0.24262075389877999 0 -0.087928467376508473 -0.23859976953689591 0 -0.1005617376665941 -0.23997685579502359 0 -0.087928467376508473 -0.23859976953689591 0 -0.07453604668454375 -0.2421434382925548 0 -0.07383618536286593 -0.22753148747966839 0 -0.087928467376508473 -0.23859976953689591 0 -0.07453604668454375 -0.2421434382925548 0 -0.087928467376508473 -0.23859976953689591 0 -0.077955776651182085 -0.24454236002529731 0 -0.07453604668454375 -0.2421434382925548 0 -0.087470553331264578 -0.24262075389877999 0 -0.087928467376508473 -0.23859976953689591 0 -0.077955776651182085 -0.24454236002529731 0 -0.087470553331264578 -0.24262075389877999 0 -0.077955776651182085 -0.24454236002529731 0 -0.056939497423126581 -0.24878681181634871 0 -0.077955776651182085 -0.24454236002529731 0 -0.071591358857016049 -0.2429226102204386 0 -0.056939497423126581 -0.24878681181634871 0 -0.077955776651182085 -0.24454236002529731 0 -0.077955776651182085 -0.24454236002529731 0 -0.071591358857016049 -0.2429226102204386 0 -0.07453604668454375 -0.2421434382925548 0 -0.077955776651182085 -0.24454236002529731 0 -0.07453604668454375 -0.2421434382925548 0 -0.071591358857016049 -0.2429226102204386 0 -0.07453604668454375 -0.2421434382925548 0 -0.056939497423126581 -0.24878681181634871 0 -0.071591358857016049 -0.2429226102204386 0 -0.061280333386656921 -0.23284462843810469 0 -0.071591358857016049 -0.2429226102204386 0 -0.07453604668454375 -0.2421434382925548 0 -0.061280333386656921 -0.23284462843810469 0 -0.07453604668454375 -0.2421434382925548 0 -0.07383618536286593 -0.22753148747966839 0 -0.089705747521653334 -0.22362271978914661 0 -0.067682806497079445 -0.21107449474949169 0 -0.054546183461555722 -0.22015285450131489 0 -0.061280333386656921 -0.23284462843810469 0 -0.07383618536286593 -0.22753148747966839 0 -0.054546183461555722 -0.22015285450131489 0 -0.07383618536286593 -0.22753148747966839 0 -0.067682806497079445 -0.21107449474949169 0 -0.061280333386656921 -0.23284462843810469 0 -0.07453604668454375 -0.2421434382925548 0 -0.07383618536286593 -0.22753148747966839 0 -0.087928467376508473 -0.23859976953689591 0 -0.07383618536286593 -0.22753148747966839 0 -0.089705747521653334 -0.22362271978914661 0 -0.087928467376508473 -0.23859976953689591 0 -0.089705747521653334 -0.22362271978914661 0 -0.1005617376665941 -0.23997685579502359 0 -0.089705747521653334 -0.22362271978914661 0 -0.067682806497079445 -0.21107449474949169 0 -0.089705747521653334 -0.22362271978914661 0 -0.084027466008495671 -0.20735524824550181 0 -0.09921486728828334 -0.20109800384388701 0 -0.089705747521653334 -0.22362271978914661 0 -0.084027466008495671 -0.20735524824550181 0 -0.067682806497079445 -0.21107449474949169 0 -0.084027466008495671 -0.20735524824550181 0 -0.067682806497079445 -0.21107449474949169 0 -0.079506442726966622 -0.19362577459948219 0 -0.067682806497079445 -0.21107449474949169 0 -0.062708331551170268 -0.19442045911658551 0 -0.079506442726966622 -0.19362577459948219 0 -0.079506442726966622 -0.19362577459948219 0 -0.09921486728828334 -0.20109800384388701 0 -0.089369030920126963 -0.1732707743578942 0 -0.084027466008495671 -0.20735524824550181 0 -0.079506442726966622 -0.19362577459948219 0 -0.09921486728828334 -0.20109800384388701 0 -0.09921486728828334 -0.20109800384388701 0 -0.1156293974943295 -0.1822747327150937 0 -0.1210853022939376 -0.205467400633562 0 -0.1156293974943295 -0.1822747327150937 0 -0.13505851963374399 -0.18906788910329131 0 -0.09921486728828334 -0.20109800384388701 0 -0.1210853022939376 -0.205467400633562 0 -0.1156293974943295 -0.1822747327150937 0 -0.1210853022939376 -0.205467400633562 0 -0.10755849924533691 -0.2178899443088799 0 -0.11989889803527461 -0.22145143588075511 0 -0.1210853022939376 -0.205467400633562 0 -0.11989889803527461 -0.22145143588075511 0 -0.13086176299679239 -0.21746526838305219 0 -0.089705747521653334 -0.22362271978914661 0 -0.09921486728828334 -0.20109800384388701 0 -0.10755849924533691 -0.2178899443088799 0 -0.09921486728828334 -0.20109800384388701 0 -0.1210853022939376 -0.205467400633562 0 -0.10755849924533691 -0.2178899443088799 0 -0.089705747521653334 -0.22362271978914661 0 -0.11172868854622731 -0.23617094482880149 0 -0.1005617376665941 -0.23997685579502359 0 -0.089705747521653334 -0.22362271978914661 0 -0.11172868854622731 -0.23617094482880149 0 -0.089705747521653334 -0.22362271978914661 0 -0.10755849924533691 -0.2178899443088799 0 -0.11172868854622731 -0.23617094482880149 0 -0.11989889803527461 -0.22145143588075511 0 -0.11172868854622731 -0.23617094482880149 0 -0.127825895831608 -0.22987551408160201 0 -0.10755849924533691 -0.2178899443088799 0 -0.11989889803527461 -0.22145143588075511 0 -0.11172868854622731 -0.23617094482880149 0 -0.13218950310710981 -0.25272660122947088 0 -0.1218823470606431 -0.24640061544388489 0 -0.1098930818979398 -0.24798588601512411 0 -0.11172868854622731 -0.23617094482880149 0 -0.13375162957080131 -0.24871916986845621 0 -0.11172868854622731 -0.23617094482880149 0 -0.1218823470606431 -0.24640061544388489 0 -0.13375162957080131 -0.24871916986845621 0 -0.11172868854622731 -0.23617094482880149 0 -0.13375162957080131 -0.24871916986845621 0 -0.127825895831608 -0.22987551408160201 0 -0.11172868854622731 -0.23617094482880149 0 -0.1218823470606431 -0.24640061544388489 0 -0.1098930818979398 -0.24798588601512411 0 -0.097628444613881649 -0.25834262822693399 0 -0.087470553331264578 -0.24262075389877999 0 -0.1098930818979398 -0.24798588601512411 0 -0.087470553331264578 -0.24262075389877999 0 -0.1098930818979398 -0.24798588601512411 0 -0.1005617376665941 -0.23997685579502359 0 -0.087470553331264578 -0.24262075389877999 0 -0.1098930818979398 -0.24798588601512411 0 -0.11172868854622731 -0.23617094482880149 0 -0.1098930818979398 -0.24798588601512411 0 -0.1005617376665941 -0.23997685579502359 0 -0.087470553331264578 -0.24262075389877999 0 -0.1005617376665941 -0.23997685579502359 0 -0.072389231474787458 -0.1492400490994332 0 -0.089369030920126963 -0.1732707743578942 0 -0.096011965921864201 -0.14265464397282879 0 -0.077516787342341589 -0.1242022911324857 0 -0.093262550211769629 -0.1231040070079162 0 -0.096011965921864201 -0.14265464397282879 0 -0.077516787342341589 -0.1242022911324857 0 -0.072389231474787458 -0.1492400490994332 0 -0.096011965921864201 -0.14265464397282879 0 -0.077516787342341589 -0.1242022911324857 0 -0.059238207921678762 -0.13024384051707169 0 -0.072389231474787458 -0.1492400490994332 0 -0.060187329084152079 -0.17209125852752319 0 -0.072389231474787458 -0.1492400490994332 0 -0.089369030920126963 -0.1732707743578942 0 -0.060187329084152079 -0.17209125852752319 0 -0.079506442726966622 -0.19362577459948219 0 -0.089369030920126963 -0.1732707743578942 0 -0.060187329084152079 -0.17209125852752319 0 -0.062708331551170268 -0.19442045911658551 0 -0.079506442726966622 -0.19362577459948219 0 -0.089369030920126963 -0.1732707743578942 0 -0.1107512355661594 -0.16096683979900789 0 -0.096011965921864201 -0.14265464397282879 0 -0.09921486728828334 -0.20109800384388701 0 -0.089369030920126963 -0.1732707743578942 0 -0.1156293974943295 -0.1822747327150937 0 -0.089369030920126963 -0.1732707743578942 0 -0.1156293974943295 -0.1822747327150937 0 -0.1107512355661594 -0.16096683979900789 0 -0.1156293974943295 -0.1822747327150937 0 -0.13204392770037571 -0.1634514615863005 0 -0.1156293974943295 -0.1822747327150937 0 -0.1107512355661594 -0.16096683979900789 0 -0.13204392770037571 -0.1634514615863005 0 -0.1107512355661594 -0.16096683979900789 0 -0.12070185579410091 -0.1431825863629223 0 -0.13204392770037571 -0.1634514615863005 0 -0.1107512355661594 -0.16096683979900789 0 -0.12070185579410091 -0.1431825863629223 0 -0.096011965921864201 -0.14265464397282879 0 -0.1071147179002416 -0.1244919901550422 0 -0.12070185579410091 -0.1431825863629223 0 -0.096011965921864201 -0.14265464397282879 0 -0.093262550211769629 -0.1231040070079162 0 -0.1071147179002416 -0.1244919901550422 0 -0.096011965921864201 -0.14265464397282879 0 -0.1071147179002416 -0.1244919901550422 0 -0.12070185579410091 -0.1431825863629223 0 -0.1306137014228527 -0.1212095633787966 0 -0.12070185579410091 -0.1431825863629223 0 -0.14845845790642179 -0.14462819045750719 0 -0.1306137014228527 -0.1212095633787966 0 -0.14845845790642179 -0.14462819045750719 0 -0.1306137014228527 -0.1212095633787966 0 -0.15036797716661271 -0.14243845987679379 0 -0.14845845790642179 -0.14462819045750719 0 -0.1306137014228527 -0.1212095633787966 0 -0.15406265534163929 -0.1294064941378926 0 -0.15036797716661271 -0.14243845987679379 0 -0.1306137014228527 -0.1212095633787966 0 -0.15406265534163929 -0.1294064941378926 0 -0.15036797716661271 -0.14243845987679379 0 -0.1564494690737798 -0.13971242061594299 0 -0.1543278084257422 -0.1453912472931165 0 -0.14845845790642179 -0.14462819045750719 0 -0.15894149653025619 -0.15184230729274609 0 -0.15519343748037609 -0.14309809199123349 0 -0.15036797716661271 -0.14243845987679379 0 -0.1564494690737798 -0.13971242061594299 0 -0.1543278084257422 -0.1453912472931165 0 -0.15519343748037609 -0.14309809199123349 0 -0.15036797716661271 -0.14243845987679379 0 -0.1543278084257422 -0.1453912472931165 0 -0.15036797716661271 -0.14243845987679379 0 -0.14845845790642179 -0.14462819045750719 0 -0.15036797716661271 -0.14243845987679379 0 -0.14845845790642179 -0.14462819045750719 0 -0.12070185579410091 -0.1431825863629223 0 -0.14845845790642179 -0.14462819045750719 0 -0.13204392770037571 -0.1634514615863005 0 -0.14845845790642179 -0.14462819045750719 0 -0.13204392770037571 -0.1634514615863005 0 -0.13204392770037571 -0.1634514615863005 0 -0.1475860696211248 -0.17640031700015249 0 -0.13505851963374399 -0.18906788910329131 0 -0.1156293974943295 -0.1822747327150937 0 -0.13204392770037571 -0.1634514615863005 0 -0.13505851963374399 -0.18906788910329131 0 -0.1475860696211248 -0.17640031700015249 0 -0.1655722477793394 -0.1670875310098065 0 -0.15496537504316019 -0.19429807729602311 0 -0.1475860696211248 -0.17640031700015249 0 -0.13505851963374399 -0.18906788910329131 0 -0.15496537504316019 -0.19429807729602311 0 -0.1475860696211248 -0.17640031700015249 0 -0.14862352044039201 -0.16347018067920821 0 -0.1655722477793394 -0.1670875310098065 0 -0.14845845790642179 -0.14462819045750719 0 -0.13204392770037571 -0.1634514615863005 0 -0.14862352044039201 -0.16347018067920821 0 -0.14845845790642179 -0.14462819045750719 0 -0.14862352044039201 -0.16347018067920821 0 -0.1655722477793394 -0.1670875310098065 0 -0.13204392770037571 -0.1634514615863005 0 -0.1475860696211248 -0.17640031700015249 0 -0.14862352044039201 -0.16347018067920821 0 -0.1655722477793394 -0.1670875310098065 0 -0.1716614177265566 -0.15146656102038991 0 -0.1655722477793394 -0.1670875310098065 0 -0.15894149653025619 -0.15184230729274609 0 -0.1716614177265566 -0.15146656102038991 0 -0.1655722477793394 -0.1670875310098065 0 -0.17557921295501691 -0.18022020591375351 0 -0.1689483943248192 -0.19264195369377959 0 -0.1655722477793394 -0.1670875310098065 0 -0.15496537504316019 -0.19429807729602311 0 -0.1689483943248192 -0.19264195369377959 0 -0.1655722477793394 -0.1670875310098065 0 -0.15496537504316019 -0.19429807729602311 0 -0.1655722477793394 -0.1670875310098065 0 -0.17557921295501691 -0.18022020591375351 0 -0.17557921295501691 -0.18022020591375351 0 -0.18239484980351819 -0.16464781923938721 0 -0.1907059301477185 -0.18468107337543721 0 -0.1655722477793394 -0.1670875310098065 0 -0.17557921295501691 -0.18022020591375351 0 -0.18239484980351819 -0.16464781923938721 0 -0.1655722477793394 -0.1670875310098065 0 -0.18239484980351819 -0.16464781923938721 0 -0.1716614177265566 -0.15146656102038991 0 -0.18239484980351819 -0.16464781923938721 0 -0.1716614177265566 -0.15146656102038991 0 -0.1894311146879058 -0.1465309504005988 0 -0.17775058767377289 -0.13584559103097291 0 -0.1716614177265566 -0.15146656102038991 0 -0.1894311146879058 -0.1465309504005988 0 -0.17775058767377289 -0.13584559103097291 0 -0.1716614177265566 -0.15146656102038991 0 -0.17775058767377289 -0.13584559103097291 0 -0.1894311146879058 -0.1465309504005988 0 -0.17775058767377289 -0.13584559103097291 0 -0.19823449762692411 -0.13229999761030051 0 -0.18534812722118199 -0.1163550958908785 0 -0.17775058767377289 -0.13584559103097291 0 -0.18534812722118199 -0.1163550958908785 0 -0.15406265534163929 -0.1294064941378926 0 -0.16394560233522651 -0.1386698702264933 0 -0.15606779039194271 -0.1160101434681408 0 -0.17775058767377289 -0.13584559103097291 0 -0.16394560233522651 -0.1386698702264933 0 -0.15606779039194271 -0.1160101434681408 0 -0.17775058767377289 -0.13584559103097291 0 -0.15606779039194271 -0.1160101434681408 0 -0.15406265534163929 -0.1294064941378926 0 -0.16394560233522651 -0.1386698702264933 0 -0.1564494690737798 -0.13971242061594299 0 -0.16394560233522651 -0.1386698702264933 0 -0.1564494690737798 -0.13971242061594299 0 -0.15962849525536979 -0.1448502401790808 0 -0.14845845790642179 -0.14462819045750719 0 -0.1655722477793394 -0.1670875310098065 0 -0.14845845790642179 -0.14462819045750719 0 -0.1655722477793394 -0.1670875310098065 0 -0.15894149653025619 -0.15184230729274609 0 -0.15519343748037609 -0.14309809199123349 0 -0.1564494690737798 -0.13971242061594299 0 -0.15962849525536979 -0.1448502401790808 0 -0.1543278084257422 -0.1453912472931165 0 -0.15519343748037609 -0.14309809199123349 0 -0.15962849525536979 -0.1448502401790808 0 -0.1543278084257422 -0.1453912472931165 0 -0.15962849525536979 -0.1448502401790808 0 -0.15894149653025619 -0.15184230729274609 0 -0.15962849525536979 -0.1448502401790808 0 -0.15894149653025619 -0.15184230729274609 0 -0.1716614177265566 -0.15146656102038991 0 -0.17775058767377289 -0.13584559103097291 0 -0.16394560233522651 -0.1386698702264933 0 -0.1716614177265566 -0.15146656102038991 0 -0.16394560233522651 -0.1386698702264933 0 -0.15962849525536979 -0.1448502401790808 0 -0.1716614177265566 -0.15146656102038991 0 -0.1534429259631987 -0.25724555178864622 0 -0.15289321433053751 -0.246830478479277 0 -0.1378886282313006 -0.2381062402767252 0 -0.1534429259631987 -0.25724555178864622 0 -0.1378886282313006 -0.2381062402767252 0 -0.15348527020851541 -0.23913552791147211 0 -0.1378886282313006 -0.2381062402767252 0 -0.15430752157141919 -0.22794821467022949 0 -0.15289321433053751 -0.246830478479277 0 -0.15348527020851541 -0.23913552791147211 0 -0.1601832428566283 -0.24550858739866141 0 -0.15289321433053751 -0.246830478479277 0 -0.15348527020851541 -0.23913552791147211 0 -0.1378886282313006 -0.2381062402767252 0 -0.1459019403517107 -0.25564217047089421 0 -0.13375162957080131 -0.24871916986845621 0 -0.1378886282313006 -0.2381062402767252 0 -0.13375162957080131 -0.24871916986845621 0 -0.1378886282313006 -0.2381062402767252 0 -0.127825895831608 -0.22987551408160201 0 -0.13375162957080131 -0.24871916986845621 0 -0.1378886282313006 -0.2381062402767252 0 -0.13218950310710981 -0.25272660122947088 0 -0.1218823470606431 -0.24640061544388489 0 -0.13375162957080131 -0.24871916986845621 0 -0.127825895831608 -0.22987551408160201 0 -0.14435850230698141 -0.22150862358223991 0 -0.13086176299679239 -0.21746526838305219 0 -0.1378886282313006 -0.2381062402767252 0 -0.127825895831608 -0.22987551408160201 0 -0.14435850230698141 -0.22150862358223991 0 -0.11989889803527461 -0.22145143588075511 0 -0.127825895831608 -0.22987551408160201 0 -0.13086176299679239 -0.21746526838305219 0 -0.1378886282313006 -0.2381062402767252 0 -0.14435850230698141 -0.22150862358223991 0 -0.14435850230698141 -0.22150862358223991 0 -0.15430752157141919 -0.22794821467022949 0 -0.16410544360365359 -0.21493654602220469 0 -0.1378886282313006 -0.2381062402767252 0 -0.14435850230698141 -0.22150862358223991 0 -0.15430752157141919 -0.22794821467022949 0 -0.14435850230698141 -0.22150862358223991 0 -0.15496537504316019 -0.19429807729602311 0 -0.14435850230698141 -0.22150862358223991 0 -0.1373527607074172 -0.20563907323320921 0 -0.15496537504316019 -0.19429807729602311 0 -0.14435850230698141 -0.22150862358223991 0 -0.15496537504316019 -0.19429807729602311 0 -0.16410544360365359 -0.21493654602220469 0 -0.14435850230698141 -0.22150862358223991 0 -0.1373527607074172 -0.20563907323320921 0 -0.13086176299679239 -0.21746526838305219 0 -0.1210853022939376 -0.205467400633562 0 -0.1373527607074172 -0.20563907323320921 0 -0.13086176299679239 -0.21746526838305219 0 -0.1210853022939376 -0.205467400633562 0 -0.1373527607074172 -0.20563907323320921 0 -0.13505851963374399 -0.18906788910329131 0 -0.1373527607074172 -0.20563907323320921 0 -0.13505851963374399 -0.18906788910329131 0 -0.15496537504316019 -0.19429807729602311 0 -0.1689483943248192 -0.19264195369377959 0 -0.17994482166635981 -0.2014366202218163 0 -0.16410544360365359 -0.21493654602220469 0 -0.15496537504316019 -0.19429807729602311 0 -0.1689483943248192 -0.19264195369377959 0 -0.16410544360365359 -0.21493654602220469 0 -0.17557921295501691 -0.18022020591375351 0 -0.1689483943248192 -0.19264195369377959 0 -0.17994482166635981 -0.2014366202218163 0 -0.17557921295501691 -0.18022020591375351 0 -0.17994482166635981 -0.2014366202218163 0 -0.1907059301477185 -0.18468107337543721 0 -0.17994482166635981 -0.2014366202218163 0 -0.1784102433228649 -0.21681777692650089 0 -0.16410544360365359 -0.21493654602220469 0 -0.17994482166635981 -0.2014366202218163 0 -0.18904495760185211 -0.20873870471059999 0 -0.19252771524915421 -0.19930647688205899 0 -0.17994482166635981 -0.2014366202218163 0 -0.1784102433228649 -0.21681777692650089 0 -0.18904495760185211 -0.20873870471059999 0 -0.1784102433228649 -0.21681777692650089 0 -0.19175951728552271 -0.21959172261586679 0 -0.18904495760185211 -0.20873870471059999 0 -0.15430752157141919 -0.22794821467022949 0 -0.16410544360365359 -0.21493654602220469 0 -0.16877954452522659 -0.2255120540677526 0 -0.15430752157141919 -0.22794821467022949 0 -0.16877954452522659 -0.2255120540677526 0 -0.16324537569009509 -0.2357306359809743 0 -0.15348527020851541 -0.23913552791147211 0 -0.15430752157141919 -0.22794821467022949 0 -0.16324537569009509 -0.2357306359809743 0 -0.16877954452522659 -0.2255120540677526 0 -0.17781387366555559 -0.23090770197000129 0 -0.16324537569009509 -0.2357306359809743 0 -0.1784102433228649 -0.21681777692650089 0 -0.16410544360365359 -0.21493654602220469 0 -0.16877954452522659 -0.2255120540677526 0 -0.1784102433228649 -0.21681777692650089 0 -0.16877954452522659 -0.2255120540677526 0 -0.17781387366555559 -0.23090770197000129 0 -0.1784102433228649 -0.21681777692650089 0 -0.17781387366555559 -0.23090770197000129 0 -0.19175951728552271 -0.21959172261586679 0 -0.17781387366555559 -0.23090770197000129 0 -0.1805311654956796 -0.2411950136452527 0 -0.19410287643929239 -0.23312434657521411 0 -0.17781387366555559 -0.23090770197000129 0 -0.1805311654956796 -0.2411950136452527 0 -0.16955513552828311 -0.24305067226283769 0 -0.17679077873490559 -0.25046109420941731 0 -0.1805311654956796 -0.2411950136452527 0 -0.18863044441395099 -0.24733650333174401 0 -0.17679077873490559 -0.25046109420941731 0 -0.1805311654956796 -0.2411950136452527 0 -0.16955513552828311 -0.24305067226283769 0 -0.16709258238786229 -0.25188408856254202 0 -0.17679077873490559 -0.25046109420941731 0 -0.16955513552828311 -0.24305067226283769 0 -0.16709258238786229 -0.25188408856254202 0 -0.16955513552828311 -0.24305067226283769 0 -0.1601832428566283 -0.24550858739866141 0 -0.17781387366555559 -0.23090770197000129 0 -0.16955513552828311 -0.24305067226283769 0 -0.16324537569009509 -0.2357306359809743 0 -0.16955513552828311 -0.24305067226283769 0 -0.16324537569009509 -0.2357306359809743 0 -0.1601832428566283 -0.24550858739866141 0 -0.15348527020851541 -0.23913552791147211 0 -0.16324537569009509 -0.2357306359809743 0 -0.1601832428566283 -0.24550858739866141 0 -0.1593809120407062 -0.25278805690175971 0 -0.15289321433053751 -0.246830478479277 0 -0.1601832428566283 -0.24550858739866141 0 -0.20565562739327201 -0.24334207984173631 0 -0.19410287643929239 -0.23312434657521411 0 -0.21201774175915139 -0.2290986139018284 0 -0.21472073189145299 -0.25725591714607071 0 -0.20565562739327201 -0.24334207984173631 0 -0.22837296648480071 -0.23789375384220129 0 -0.20565562739327201 -0.24334207984173631 0 -0.21201774175915139 -0.2290986139018284 0 -0.22837296648480071 -0.23789375384220129 0 -0.20565562739327201 -0.24334207984173631 0 -0.18863044441395099 -0.24733650333174401 0 -0.19410287643929239 -0.23312434657521411 0 -0.1805311654956796 -0.2411950136452527 0 -0.18863044441395099 -0.24733650333174401 0 -0.19410287643929239 -0.23312434657521411 0 -0.17781387366555559 -0.23090770197000129 0 -0.19410287643929239 -0.23312434657521411 0 -0.19175951728552271 -0.21959172261586679 0 -0.19410287643929239 -0.23312434657521411 0 -0.19175951728552271 -0.21959172261586679 0 -0.20443040571370949 -0.21985141578154491 0 -0.21201774175915139 -0.2290986139018284 0 -0.20443040571370949 -0.21985141578154491 0 -0.22630383013383959 -0.21240708539258099 0 -0.19410287643929239 -0.23312434657521411 0 -0.21201774175915139 -0.2290986139018284 0 -0.20443040571370949 -0.21985141578154491 0 -0.20157622681128409 -0.2075672839719423 0 -0.21557055542943429 -0.1904257004922347 0 -0.22630383013383959 -0.21240708539258099 0 -0.20157622681128409 -0.2075672839719423 0 -0.22630383013383959 -0.21240708539258099 0 -0.20443040571370949 -0.21985141578154491 0 -0.20157622681128409 -0.2075672839719423 0 -0.22630383013383959 -0.21240708539258099 0 -0.19175951728552271 -0.21959172261586679 0 -0.20443040571370949 -0.21985141578154491 0 -0.20157622681128409 -0.2075672839719423 0 -0.19175951728552271 -0.21959172261586679 0 -0.20157622681128409 -0.2075672839719423 0 -0.19175951728552271 -0.21959172261586679 0 -0.18904495760185211 -0.20873870471059999 0 -0.20157622681128409 -0.2075672839719423 0 -0.18904495760185211 -0.20873870471059999 0 -0.20157622681128409 -0.2075672839719423 0 -0.19252771524915421 -0.19930647688205899 0 -0.17994482166635981 -0.2014366202218163 0 -0.19252771524915421 -0.19930647688205899 0 -0.1907059301477185 -0.18468107337543721 0 -0.20157622681128409 -0.2075672839719423 0 -0.19252771524915421 -0.19930647688205899 0 -0.20187756758401409 -0.19506767240709361 0 -0.19252771524915421 -0.19930647688205899 0 -0.20187756758401409 -0.19506767240709361 0 -0.1907059301477185 -0.18468107337543721 0 -0.20157622681128409 -0.2075672839719423 0 -0.21557055542943429 -0.1904257004922347 0 -0.20187756758401409 -0.19506767240709361 0 -0.21557055542943429 -0.1904257004922347 0 -0.2038146335316797 -0.1820121315948606 0 -0.20157622681128409 -0.2075672839719423 0 -0.20187756758401409 -0.19506767240709361 0 -0.21557055542943429 -0.1904257004922347 0 -0.21557055542943429 -0.1904257004922347 0 -0.23533053747689989 -0.1962925907305976 0 -0.22630383013383959 -0.21240708539258099 0 -0.23533053747689989 -0.1962925907305976 0 -0.25103143345639523 -0.21724688681321891 0 -0.25418198431724581 -0.18809916394242601 0 -0.22630383013383959 -0.21240708539258099 0 -0.25103143345639523 -0.21724688681321891 0 -0.23533053747689989 -0.1962925907305976 0 -0.22630383013383959 -0.21240708539258099 0 -0.25103143345639523 -0.21724688681321891 0 -0.21201774175915139 -0.2290986139018284 0 -0.22630383013383959 -0.21240708539258099 0 -0.22837296648480071 -0.23789375384220129 0 -0.22630383013383959 -0.21240708539258099 0 -0.22837296648480071 -0.23789375384220129 0 -0.25103143345639523 -0.21724688681321891 0 -0.22837296648480071 -0.23789375384220129 0 -0.25431856302814809 -0.24833495949118861 0 -0.25103143345639523 -0.21724688681321891 0 -0.2335542019388327 -0.26090262277066528 0 -0.22837296648480071 -0.23789375384220129 0 -0.25431856302814809 -0.24833495949118861 0 -0.20708483324238849 -0.15128624944667929 0 -0.22647357207813959 -0.15205360930679629 0 -0.2195633859389316 -0.1340578990397249 0 -0.20708483324238849 -0.15128624944667929 0 -0.19823449762692411 -0.13229999761030051 0 -0.2195633859389316 -0.1340578990397249 0 -0.19823449762692411 -0.13229999761030051 0 -0.2195633859389316 -0.1340578990397249 0 -0.21022893699736381 -0.1097241998529486 0 -0.17775058767377289 -0.13584559103097291 0 -0.19823449762692411 -0.13229999761030051 0 -0.1894311146879058 -0.1465309504005988 0 -0.20708483324238849 -0.15128624944667929 0 -0.1894311146879058 -0.1465309504005988 0 -0.19351686899232889 -0.15854259719770419 0 -0.20708483324238849 -0.15128624944667929 0 -0.19823449762692411 -0.13229999761030051 0 -0.1894311146879058 -0.1465309504005988 0 -0.20708483324238849 -0.15128624944667929 0 -0.19351686899232889 -0.15854259719770419 0 -0.19880271024428661 -0.17007658736909009 0 -0.18239484980351819 -0.16464781923938721 0 -0.1894311146879058 -0.1465309504005988 0 -0.19351686899232889 -0.15854259719770419 0 -0.18239484980351819 -0.16464781923938721 0 -0.19351686899232889 -0.15854259719770419 0 -0.19880271024428661 -0.17007658736909009 0 -0.18239484980351819 -0.16464781923938721 0 -0.19880271024428661 -0.17007658736909009 0 -0.1907059301477185 -0.18468107337543721 0 -0.19880271024428661 -0.17007658736909009 0 -0.1907059301477185 -0.18468107337543721 0 -0.2038146335316797 -0.1820121315948606 0 -0.20187756758401409 -0.19506767240709361 0 -0.1907059301477185 -0.18468107337543721 0 -0.2038146335316797 -0.1820121315948606 0 -0.21557055542943429 -0.1904257004922347 0 -0.2038146335316797 -0.1820121315948606 0 -0.21355186476225221 -0.16985639920369799 0 -0.19880271024428661 -0.17007658736909009 0 -0.2038146335316797 -0.1820121315948606 0 -0.21355186476225221 -0.16985639920369799 0 -0.20708483324238849 -0.15128624944667929 0 -0.21355186476225221 -0.16985639920369799 0 -0.22647357207813959 -0.15205360930679629 0 -0.20708483324238849 -0.15128624944667929 0 -0.19880271024428661 -0.17007658736909009 0 -0.21355186476225221 -0.16985639920369799 0 -0.22956488404758479 -0.1732841170125273 0 -0.2435592126657353 -0.1561425335328199 0 -0.22647357207813959 -0.15205360930679629 0 -0.21355186476225221 -0.16985639920369799 0 -0.22956488404758479 -0.1732841170125273 0 -0.22647357207813959 -0.15205360930679629 0 -0.21557055542943429 -0.1904257004922347 0 -0.21355186476225221 -0.16985639920369799 0 -0.22956488404758479 -0.1732841170125273 0 -0.21557055542943429 -0.1904257004922347 0 -0.22956488404758479 -0.1732841170125273 0 -0.21557055542943429 -0.1904257004922347 0 -0.23533053747689989 -0.1962925907305976 0 -0.22956488404758479 -0.1732841170125273 0 -0.23533053747689989 -0.1962925907305976 0 -0.22956488404758479 -0.1732841170125273 0 -0.25418198431724581 -0.18809916394242601 0 -0.22956488404758479 -0.1732841170125273 0 -0.25418198431724581 -0.18809916394242601 0 -0.2565438833259911 -0.1687602707777138 0 -0.22956488404758479 -0.1732841170125273 0 -0.2435592126657353 -0.1561425335328199 0 -0.22956488404758479 -0.1732841170125273 0 -0.2435592126657353 -0.1561425335328199 0 -0.2565438833259911 -0.1687602707777138 0 -0.2435592126657353 -0.1561425335328199 0 -0.22647357207813959 -0.15205360930679629 0 -0.2432602079730701 -0.13485583854350039 0 -0.22647357207813959 -0.15205360930679629 0 -0.2195633859389316 -0.1340578990397249 0 -0.2432602079730701 -0.13485583854350039 0 -0.2195633859389316 -0.1340578990397249 0 -0.2432602079730701 -0.13485583854350039 0 -0.23065476516460279 -0.11957242830579699 0 -0.2432602079730701 -0.13485583854350039 0 -0.2499653418643101 -0.1102460646797562 0 -0.23065476516460279 -0.11957242830579699 0 -0.2499653418643101 -0.1102460646797562 0 -0.2308399038819596 -0.1034577205422559 0 -0.23065476516460279 -0.11957242830579699 0 -0.2308399038819596 -0.1034577205422559 0 -0.25308440776240432 -0.086371671251396109 0 -0.2499653418643101 -0.1102460646797562 0 -0.2308399038819596 -0.1034577205422559 0 -0.25308440776240432 -0.086371671251396109 0 -0.2308399038819596 -0.1034577205422559 0 -0.21022893699736381 -0.1097241998529486 0 -0.21520721362926831 -0.098298511723915558 0 -0.2308399038819596 -0.1034577205422559 0 -0.22013457808717909 -0.089221868029860679 0 -0.21520721362926831 -0.098298511723915558 0 -0.2308399038819596 -0.1034577205422559 0 -0.23065476516460279 -0.11957242830579699 0 -0.21022893699736381 -0.1097241998529486 0 -0.2195633859389316 -0.1340578990397249 0 -0.23065476516460279 -0.11957242830579699 0 -0.21022893699736381 -0.1097241998529486 0 -0.2335598957907816 -0.079883889973887123 0 -0.24475965461883589 -0.059498385283178377 0 -0.2582325144520296 -0.070050845257802419 0 -0.2335598957907816 -0.079883889973887123 0 -0.2582325144520296 -0.070050845257802419 0 -0.25308440776240432 -0.086371671251396109 0 -0.2308399038819596 -0.1034577205422559 0 -0.2335598957907816 -0.079883889973887123 0 -0.25308440776240432 -0.086371671251396109 0 -0.2308399038819596 -0.1034577205422559 0 -0.22013457808717909 -0.089221868029860679 0 -0.2335598957907816 -0.079883889973887123 0 -0.22013457808717909 -0.089221868029860679 0 -0.2335598957907816 -0.079883889973887123 0 -0.21963876375789801 -0.077814354495200549 0 -0.2335598957907816 -0.079883889973887123 0 -0.21595644614104051 -0.065738508165203102 0 -0.24475965461883589 -0.059498385283178377 0 -0.21595644614104051 -0.065738508165203102 0 -0.24475965461883589 -0.059498385283178377 0 -0.2335598957907816 -0.079883889973887123 0 -0.21963876375789801 -0.077814354495200549 0 -0.21595644614104051 -0.065738508165203102 0 -0.20438945881064449 -0.068244458930106389 0 -0.21100771399754009 -0.086966924160961745 0 -0.21595644614104051 -0.065738508165203102 0 -0.21100771399754009 -0.086966924160961745 0 -0.20438945881064449 -0.068244458930106389 0 -0.21595644614104051 -0.065738508165203102 0 -0.21100771399754009 -0.086966924160961745 0 -0.21963876375789801 -0.077814354495200549 0 -0.21595644614104051 -0.065738508165203102 0 -0.21100771399754009 -0.086966924160961745 0 -0.20438945881064449 -0.068244458930106389 0 -0.21595644614104051 -0.065738508165203102 0 -0.20438945881064449 -0.068244458930106389 0 -0.21595644614104051 -0.065738508165203102 0 -0.20711132549122371 -0.057203435059411119 0 -0.20438945881064449 -0.068244458930106389 0 -0.21100771399754009 -0.086966924160961745 0 -0.19851231957361129 -0.085310821531315487 0 -0.22013457808717909 -0.089221868029860679 0 -0.21963876375789801 -0.077814354495200549 0 -0.21100771399754009 -0.086966924160961745 0 -0.22013457808717909 -0.089221868029860679 0 -0.21100771399754009 -0.086966924160961745 0 -0.21520721362926831 -0.098298511723915558 0 -0.21100771399754009 -0.086966924160961745 0 -0.19851231957361129 -0.085310821531315487 0 -0.20550431009004061 -0.095676697317907802 0 -0.21100771399754009 -0.086966924160961745 0 -0.21520721362926831 -0.098298511723915558 0 -0.20550431009004061 -0.095676697317907802 0 -0.19851231957361129 -0.085310821531315487 0 -0.18118326058104209 -0.08825419183970401 0 -0.18409944718507371 -0.07264022497537044 0 -0.19851231957361129 -0.085310821531315487 0 -0.19294566676858971 -0.096864600750783431 0 -0.18118326058104209 -0.08825419183970401 0 -0.19851231957361129 -0.085310821531315487 0 -0.20550431009004061 -0.095676697317907802 0 -0.19294566676858971 -0.096864600750783431 0 -0.20438945881064449 -0.068244458930106389 0 -0.19851231957361129 -0.085310821531315487 0 -0.18409944718507371 -0.07264022497537044 0 -0.20438945881064449 -0.068244458930106389 0 -0.18409944718507371 -0.07264022497537044 0 -0.18769526278089041 -0.057829612445021099 0 -0.20438945881064449 -0.068244458930106389 0 -0.18409944718507371 -0.07264022497537044 0 -0.21022893699736381 -0.1097241998529486 0 -0.21520721362926831 -0.098298511723915558 0 -0.20550431009004061 -0.095676697317907802 0 -0.21022893699736381 -0.1097241998529486 0 -0.20550431009004061 -0.095676697317907802 0 -0.19294566676858971 -0.096864600750783431 0 -0.19294566676858971 -0.096864600750783431 0 -0.18534812722118199 -0.1163550958908785 0 -0.21022893699736381 -0.1097241998529486 0 -0.19294566676858971 -0.096864600750783431 0 -0.18534812722118199 -0.1163550958908785 0 -0.19823449762692411 -0.13229999761030051 0 -0.21022893699736381 -0.1097241998529486 0 -0.18534812722118199 -0.1163550958908785 0 -0.18534812722118199 -0.1163550958908785 0 -0.17423934197139679 -0.1017815859784342 0 -0.15606779039194271 -0.1160101434681408 0 -0.17775058767377289 -0.13584559103097291 0 -0.18534812722118199 -0.1163550958908785 0 -0.15606779039194271 -0.1160101434681408 0 -0.16057304666404501 -0.10079887419961479 0 -0.17423934197139679 -0.1017815859784342 0 -0.15606779039194271 -0.1160101434681408 0 -0.16057304666404501 -0.10079887419961479 0 -0.16746185343044401 -0.091445336260546128 0 -0.1570966781871318 -0.090327755750333361 0 -0.16057304666404501 -0.10079887419961479 0 -0.17423934197139679 -0.1017815859784342 0 -0.16746185343044401 -0.091445336260546128 0 -0.17423934197139679 -0.1017815859784342 0 -0.18118326058104209 -0.08825419183970401 0 -0.16746185343044401 -0.091445336260546128 0 -0.19294566676858971 -0.096864600750783431 0 -0.18534812722118199 -0.1163550958908785 0 -0.17423934197139679 -0.1017815859784342 0 -0.19294566676858971 -0.096864600750783431 0 -0.17423934197139679 -0.1017815859784342 0 -0.18118326058104209 -0.08825419183970401 0 -0.18118326058104209 -0.08825419183970401 0 -0.18409944718507371 -0.07264022497537044 0 -0.16915717098214109 -0.081397787743409861 0 -0.18118326058104209 -0.08825419183970401 0 -0.16746185343044401 -0.091445336260546128 0 -0.16915717098214109 -0.081397787743409861 0 -0.18409944718507371 -0.07264022497537044 0 -0.1702117591297739 -0.06777753321031553 0 -0.16380943555950259 -0.077035991020633382 0 -0.18409944718507371 -0.07264022497537044 0 -0.16380943555950259 -0.077035991020633382 0 -0.16915717098214109 -0.081397787743409861 0 -0.18409944718507371 -0.07264022497537044 0 -0.17187825396406881 -0.057945450019426657 0 -0.18769526278089041 -0.057829612445021099 0 -0.18409944718507371 -0.07264022497537044 0 -0.16380943555950259 -0.077035991020633382 0 -0.18409944718507371 -0.07264022497537044 0 -0.1702117591297739 -0.06777753321031553 0 -0.17187825396406881 -0.057945450019426657 0 -0.16380943555950259 -0.077035991020633382 0 -0.16105989981045041 -0.063488466825831633 0 -0.14595160177326619 -0.062470528310013429 0 -0.1702117591297739 -0.06777753321031553 0 -0.16105989981045041 -0.063488466825831633 0 -0.17187825396406881 -0.057945450019426657 0 -0.1702117591297739 -0.06777753321031553 0 -0.16380943555950259 -0.077035991020633382 0 -0.16105989981045041 -0.063488466825831633 0 -0.16380943555950259 -0.077035991020633382 0 -0.16109871639751261 -0.084134952385501949 0 -0.14796844382834351 -0.080467891152587012 0 -0.16746185343044401 -0.091445336260546128 0 -0.16915717098214109 -0.081397787743409861 0 -0.16109871639751261 -0.084134952385501949 0 -0.16380943555950259 -0.077035991020633382 0 -0.16915717098214109 -0.081397787743409861 0 -0.16109871639751261 -0.084134952385501949 0 -0.16380943555950259 -0.077035991020633382 0 -0.16915717098214109 -0.081397787743409861 0 -0.16746185343044401 -0.091445336260546128 0 -0.16109871639751261 -0.084134952385501949 0 -0.1570966781871318 -0.090327755750333361 0 -0.16380943555950259 -0.077035991020633382 0 -0.14796844382834351 -0.080467891152587012 0 -0.14796844382834351 -0.080467891152587012 0 -0.13497135686491851 -0.078315161523928284 0 -0.1484932433812913 -0.094043062253026791 0 -0.1570966781871318 -0.090327755750333361 0 -0.14796844382834351 -0.080467891152587012 0 -0.1484932433812913 -0.094043062253026791 0 -0.16109871639751261 -0.084134952385501949 0 -0.1570966781871318 -0.090327755750333361 0 -0.14796844382834351 -0.080467891152587012 0 -0.16380943555950259 -0.077035991020633382 0 -0.14796844382834351 -0.080467891152587012 0 -0.14595160177326619 -0.062470528310013429 0 -0.16380943555950259 -0.077035991020633382 0 -0.14595160177326619 -0.062470528310013429 0 -0.14796844382834351 -0.080467891152587012 0 -0.13497135686491851 -0.078315161523928284 0 -0.14595160177326619 -0.062470528310013429 0 -0.1158705629695205 -0.060236298698018297 0 -0.13497135686491851 -0.078315161523928284 0 -0.1158705629695205 -0.060236298698018297 0 -0.13497135686491851 -0.078315161523928284 0 -0.13122182239868371 -0.062231763532838429 0 -0.13497135686491851 -0.078315161523928284 0 -0.13122182239868371 -0.062231763532838429 0 -0.14595160177326619 -0.062470528310013429 0 -0.112702195828283 -0.076339248342475546 0 -0.13497135686491851 -0.078315161523928284 0 -0.13438499311011279 -0.096174695905308166 0 -0.13497135686491851 -0.078315161523928284 0 -0.13438499311011279 -0.096174695905308166 0 -0.1484932433812913 -0.094043062253026791 0 -0.11276894493928399 -0.097790936300085646 0 -0.13438499311011279 -0.096174695905308166 0 -0.1306137014228527 -0.1212095633787966 0 -0.13438499311011279 -0.096174695905308166 0 -0.1306137014228527 -0.1212095633787966 0 -0.15606779039194271 -0.1160101434681408 0 -0.15406265534163929 -0.1294064941378926 0 -0.1306137014228527 -0.1212095633787966 0 -0.15606779039194271 -0.1160101434681408 0 -0.13438499311011279 -0.096174695905308166 0 -0.15606779039194271 -0.1160101434681408 0 -0.1484932433812913 -0.094043062253026791 0 -0.16057304666404501 -0.10079887419961479 0 -0.15606779039194271 -0.1160101434681408 0 -0.1484932433812913 -0.094043062253026791 0 -0.13438499311011279 -0.096174695905308166 0 -0.15606779039194271 -0.1160101434681408 0 -0.16057304666404501 -0.10079887419961479 0 -0.1570966781871318 -0.090327755750333361 0 -0.1484932433812913 -0.094043062253026791 0 -0.14513665439653431 -0.02122229521611602 0 -0.15148395360685291 -0.031475856168514699 0 -0.16129500549156001 -0.024264335985147129 0 -0.14513665439653431 -0.02122229521611602 0 -0.1346415055917565 -0.031432898451717602 0 -0.15148395360685291 -0.031475856168514699 0 -0.14513665439653431 -0.02122229521611602 0 -0.15327979458335059 -0.01391829646419882 0 -0.16129500549156001 -0.024264335985147129 0 -0.1412848112475209 -0.008091449167619497 0 -0.15773416148281841 -0.0035868741371463562 0 -0.14801408494475049 0.0031182785745780331 0 -0.15327979458335059 -0.01391829646419882 0 -0.1412848112475209 -0.008091449167619497 0 -0.15773416148281841 -0.0035868741371463562 0 -0.14513665439653431 -0.02122229521611602 0 -0.15327979458335059 -0.01391829646419882 0 -0.1412848112475209 -0.008091449167619497 0 -0.1236693299605585 -0.0137973575501921 0 -0.1412848112475209 -0.008091449167619497 0 -0.12735709500343681 0.004015926865657337 0 -0.1412848112475209 -0.008091449167619497 0 -0.12735709500343681 0.004015926865657337 0 -0.14801408494475049 0.0031182785745780331 0 -0.1236693299605585 -0.0137973575501921 0 -0.1412848112475209 -0.008091449167619497 0 -0.13426109495296229 -0.02049569832685658 0 -0.1236693299605585 -0.0137973575501921 0 -0.1221370268088495 -0.025998648103035 0 -0.13426109495296229 -0.02049569832685658 0 -0.14513665439653431 -0.02122229521611602 0 -0.1412848112475209 -0.008091449167619497 0 -0.13426109495296229 -0.02049569832685658 0 -0.14513665439653431 -0.02122229521611602 0 -0.13426109495296229 -0.02049569832685658 0 -0.1346415055917565 -0.031432898451717602 0 -0.1221370268088495 -0.025998648103035 0 -0.12530131535501859 -0.034952786400489197 0 -0.1346415055917565 -0.031432898451717602 0 -0.1221370268088495 -0.025998648103035 0 -0.13426109495296229 -0.02049569832685658 0 -0.1346415055917565 -0.031432898451717602 0 -0.12530131535501859 -0.034952786400489197 0 -0.1346415055917565 -0.031432898451717602 0 -0.12809376798702951 -0.047905065599393698 0 -0.1346415055917565 -0.031432898451717602 0 -0.12809376798702951 -0.047905065599393698 0 -0.14629371500633531 -0.042796653234188263 0 -0.12809376798702951 -0.047905065599393698 0 -0.14595160177326619 -0.062470528310013429 0 -0.12809376798702951 -0.047905065599393698 0 -0.14595160177326619 -0.062470528310013429 0 -0.14629371500633531 -0.042796653234188263 0 -0.13122182239868371 -0.062231763532838429 0 -0.12809376798702951 -0.047905065599393698 0 -0.14595160177326619 -0.062470528310013429 0 -0.1158705629695205 -0.060236298698018297 0 -0.13122182239868371 -0.062231763532838429 0 -0.12809376798702951 -0.047905065599393698 0 -0.14595160177326619 -0.062470528310013429 0 -0.14629371500633531 -0.042796653234188263 0 -0.15696853651444401 -0.052603520026387289 0 -0.16105989981045041 -0.063488466825831633 0 -0.14595160177326619 -0.062470528310013429 0 -0.15696853651444401 -0.052603520026387289 0 -0.15148395360685291 -0.031475856168514699 0 -0.14629371500633531 -0.042796653234188263 0 -0.16402488563849801 -0.041062174760887443 0 -0.1346415055917565 -0.031432898451717602 0 -0.15148395360685291 -0.031475856168514699 0 -0.14629371500633531 -0.042796653234188263 0 -0.14629371500633531 -0.042796653234188263 0 -0.16402488563849801 -0.041062174760887443 0 -0.15696853651444401 -0.052603520026387289 0 -0.15148395360685291 -0.031475856168514699 0 -0.16402488563849801 -0.041062174760887443 0 -0.16129500549156001 -0.024264335985147129 0 -0.16402488563849801 -0.041062174760887443 0 -0.17409393016306191 -0.030370879776367592 0 -0.16129500549156001 -0.024264335985147129 0 -0.16402488563849801 -0.041062174760887443 0 -0.15696853651444401 -0.052603520026387289 0 -0.17187825396406881 -0.057945450019426657 0 -0.16105989981045041 -0.063488466825831633 0 -0.15696853651444401 -0.052603520026387289 0 -0.17187825396406881 -0.057945450019426657 0 -0.16402488563849801 -0.041062174760887443 0 -0.17187825396406881 -0.057945450019426657 0 -0.18133558272394029 -0.043618149437272283 0 -0.17187825396406881 -0.057945450019426657 0 -0.18133558272394029 -0.043618149437272283 0 -0.18769526278089041 -0.057829612445021099 0 -0.18133558272394029 -0.043618149437272283 0 -0.17409393016306191 -0.030370879776367592 0 -0.18915768363079971 -0.025155098795753519 0 -0.16402488563849801 -0.041062174760887443 0 -0.18133558272394029 -0.043618149437272283 0 -0.17409393016306191 -0.030370879776367592 0 -0.17409393016306191 -0.030370879776367592 0 -0.17549551533112251 -0.014893414490097231 0 -0.18915768363079971 -0.025155098795753519 0 -0.16129500549156001 -0.024264335985147129 0 -0.16350931143073591 -0.01273440345064396 0 -0.17549551533112251 -0.014893414490097231 0 -0.17409393016306191 -0.030370879776367592 0 -0.16129500549156001 -0.024264335985147129 0 -0.17549551533112251 -0.014893414490097231 0 -0.15327979458335059 -0.01391829646419882 0 -0.16129500549156001 -0.024264335985147129 0 -0.16350931143073591 -0.01273440345064396 0 -0.15773416148281841 -0.0035868741371463562 0 -0.16716832075785379 -0.0032078365625175 0 -0.1619193683370386 0.0066468078375689294 0 -0.15773416148281841 -0.0035868741371463562 0 -0.16350931143073591 -0.01273440345064396 0 -0.16716832075785379 -0.0032078365625175 0 -0.15327979458335059 -0.01391829646419882 0 -0.15773416148281841 -0.0035868741371463562 0 -0.16350931143073591 -0.01273440345064396 0 -0.16350931143073591 -0.01273440345064396 0 -0.16716832075785379 -0.0032078365625175 0 -0.17549551533112251 -0.014893414490097231 0 -0.17549551533112251 -0.014893414490097231 0 -0.18154179604087481 -0.0036104187285780349 0 -0.18915768363079971 -0.025155098795753519 0 -0.18154179604087481 -0.0036104187285780349 0 -0.18915768363079971 -0.025155098795753519 0 -0.17549551533112251 -0.014893414490097231 0 -0.17584419881677341 0.0071523107965592754 0 -0.17549551533112251 -0.014893414490097231 0 -0.18154179604087481 -0.0036104187285780349 0 -0.17584419881677341 0.0071523107965592754 0 -0.16716832075785379 -0.0032078365625175 0 -0.17549551533112251 -0.014893414490097231 0 -0.17584419881677341 0.0071523107965592754 0 -0.18154179604087481 -0.0036104187285780349 0 -0.19066530249761049 -0.0041303576494283751 0 -0.18915768363079971 -0.025155098795753519 0 -0.18154179604087481 -0.0036104187285780349 0 -0.19066530249761049 -0.0041303576494283751 0 -0.18717715497560061 0.0062623078557712403 0 -0.19066530249761049 -0.0041303576494283751 0 -0.1989264366345522 -0.0080023544535597537 0 -0.18915768363079971 -0.025155098795753519 0 -0.19066530249761049 -0.0041303576494283751 0 -0.1989264366345522 -0.0080023544535597537 0 -0.1965234412062255 0.0098537758749781944 0 -0.1989264366345522 -0.0080023544535597537 0 -0.2007918169376324 -0.0191738513677071 0 -0.20680177871376751 -0.0119671669755851 0 -0.18915768363079971 -0.025155098795753519 0 -0.2007918169376324 -0.0191738513677071 0 -0.21013076049929519 -0.028334228638799381 0 -0.1989264366345522 -0.0080023544535597537 0 -0.18915768363079971 -0.025155098795753519 0 -0.2007918169376324 -0.0191738513677071 0 -0.2007918169376324 -0.0191738513677071 0 -0.21013076049929519 -0.028334228638799381 0 -0.20680177871376751 -0.0119671669755851 0 -0.21013076049929519 -0.028334228638799381 0 -0.21702438745170211 -0.0043907958627755336 0 -0.21921501925093501 -0.017985606360015789 0 -0.21013076049929519 -0.028334228638799381 0 -0.21702438745170211 -0.0043907958627755336 0 -0.21013076049929519 -0.028334228638799381 0 -0.22271521407306469 -0.037269361340154371 0 -0.21921501925093501 -0.017985606360015789 0 -0.21013076049929519 -0.028334228638799381 0 -0.21702438745170211 -0.0043907958627755336 0 -0.20680177871376751 -0.0119671669755851 0 -0.1989264366345522 -0.0080023544535597537 0 -0.20680177871376751 -0.0119671669755851 0 -0.20713549204565579 6.5395444916274768e-05 0 -0.21702438745170211 -0.0043907958627755336 0 -0.20680177871376751 -0.0119671669755851 0 -0.20713549204565579 6.5395444916274768e-05 0 -0.20438945881064449 -0.068244458930106389 0 -0.1967735712207245 -0.046699778862929052 0 -0.20438945881064449 -0.068244458930106389 0 -0.18769526278089041 -0.057829612445021099 0 -0.1967735712207245 -0.046699778862929052 0 -0.20438945881064449 -0.068244458930106389 0 -0.1967735712207245 -0.046699778862929052 0 -0.20711132549122371 -0.057203435059411119 0 -0.18133558272394029 -0.043618149437272283 0 -0.18769526278089041 -0.057829612445021099 0 -0.1967735712207245 -0.046699778862929052 0 -0.18133558272394029 -0.043618149437272283 0 -0.18915768363079971 -0.025155098795753519 0 -0.1967735712207245 -0.046699778862929052 0 -0.18915768363079971 -0.025155098795753519 0 -0.1967735712207245 -0.046699778862929052 0 -0.18915768363079971 -0.025155098795753519 0 -0.21013076049929519 -0.028334228638799381 0 -0.1967735712207245 -0.046699778862929052 0 -0.21013076049929519 -0.028334228638799381 0 -0.21132582579248671 -0.048130994279405613 0 -0.22271521407306469 -0.037269361340154371 0 -0.21013076049929519 -0.028334228638799381 0 -0.1967735712207245 -0.046699778862929052 0 -0.21132582579248671 -0.048130994279405613 0 -0.21595644614104051 -0.065738508165203102 0 -0.21132582579248671 -0.048130994279405613 0 -0.22271521407306469 -0.037269361340154371 0 -0.21595644614104051 -0.065738508165203102 0 -0.21132582579248671 -0.048130994279405613 0 -0.20711132549122371 -0.057203435059411119 0 -0.1967735712207245 -0.046699778862929052 0 -0.21132582579248671 -0.048130994279405613 0 -0.20711132549122371 -0.057203435059411119 0 -0.21595644614104051 -0.065738508165203102 0 -0.2284172135094342 -0.053659916570315727 0 -0.24475965461883589 -0.059498385283178377 0 -0.21595644614104051 -0.065738508165203102 0 -0.2284172135094342 -0.053659916570315727 0 -0.22271521407306469 -0.037269361340154371 0 -0.21595644614104051 -0.065738508165203102 0 -0.22271521407306469 -0.037269361340154371 0 -0.2284172135094342 -0.053659916570315727 0 -0.22271521407306469 -0.037269361340154371 0 -0.23903543051913109 -0.043198085603962481 0 -0.22271521407306469 -0.037269361340154371 0 -0.23903543051913109 -0.043198085603962481 0 -0.24161885061771041 -0.026720350447010301 0 -0.23903543051913109 -0.043198085603962481 0 -0.24161885061771041 -0.026720350447010301 0 -0.25766621977661042 -0.038842414379153638 0 -0.23903543051913109 -0.043198085603962481 0 -0.24475965461883589 -0.059498385283178377 0 -0.25766621977661042 -0.038842414379153638 0 -0.2284172135094342 -0.053659916570315727 0 -0.23903543051913109 -0.043198085603962481 0 -0.24475965461883589 -0.059498385283178377 0 -0.22947398200509031 -0.0088002145151058891 0 -0.22867745033346079 0.0038692188645070222 0 -0.2401015516947359 0.00075261550232862703 0 -0.21702438745170211 -0.0043907958627755336 0 -0.22947398200509031 -0.0088002145151058891 0 -0.22867745033346079 0.0038692188645070222 0 -0.21702438745170211 -0.0043907958627755336 0 -0.22947398200509031 -0.0088002145151058891 0 -0.21921501925093501 -0.017985606360015789 0 -0.22271521407306469 -0.037269361340154371 0 -0.22947398200509031 -0.0088002145151058891 0 -0.21921501925093501 -0.017985606360015789 0 -0.22271521407306469 -0.037269361340154371 0 -0.22947398200509031 -0.0088002145151058891 0 -0.22271521407306469 -0.037269361340154371 0 -0.22947398200509031 -0.0088002145151058891 0 -0.24161885061771041 -0.026720350447010301 0 -0.22947398200509031 -0.0088002145151058891 0 -0.24161885061771041 -0.026720350447010301 0 -0.2437457614006571 -0.011962382738850049 0 -0.24161885061771041 -0.026720350447010301 0 -0.2437457614006571 -0.011962382738850049 0 -0.2598032925822476 -0.0188915667982569 0 -0.22947398200509031 -0.0088002145151058891 0 -0.2437457614006571 -0.011962382738850049 0 -0.2401015516947359 0.00075261550232862703 0 -0.2437457614006571 -0.011962382738850049 0 -0.25267499080189931 -0.0034516002120552492 0 -0.2401015516947359 0.00075261550232862703 0 -0.25267499080189931 -0.0034516002120552492 0 -0.2598032925822476 -0.0188915667982569 0 -0.26909988492935111 -0.0018655285383734981 0 -0.2437457614006571 -0.011962382738850049 0 -0.25267499080189931 -0.0034516002120552492 0 -0.2598032925822476 -0.0188915667982569 0 -0.2598032925822476 -0.0188915667982569 0 -0.27267419604841259 -0.026924212746328481 0 -0.25766621977661042 -0.038842414379153638 0 -0.24161885061771041 -0.026720350447010301 0 -0.2598032925822476 -0.0188915667982569 0 -0.25766621977661042 -0.038842414379153638 0 -0.2598032925822476 -0.0188915667982569 0 -0.27267419604841259 -0.026924212746328481 0 -0.27804425228895369 -0.016131696666228459 0 -0.27267419604841259 -0.026924212746328481 0 -0.27804425228895369 -0.016131696666228459 0 -0.28378415359151371 -0.031280105512012511 0 -0.27804425228895369 -0.016131696666228459 0 -0.26909988492935111 -0.0018655285383734981 0 -0.2917254884257266 -0.0017566381736345419 0 -0.2598032925822476 -0.0188915667982569 0 -0.27804425228895369 -0.016131696666228459 0 -0.26909988492935111 -0.0018655285383734981 0 -0.27804425228895369 -0.016131696666228459 0 -0.2917254884257266 -0.0017566381736345419 0 -0.2928870998243559 -0.020527937726781 0 -0.27804425228895369 -0.016131696666228459 0 -0.2928870998243559 -0.020527937726781 0 -0.28378415359151371 -0.031280105512012511 0 -0.2928870998243559 -0.020527937726781 0 -0.29943422057661201 -0.032203920876667472 0 -0.28378415359151371 -0.031280105512012511 0 -0.2928870998243559 -0.020527937726781 0 -0.31144738423897378 -0.02126732740536201 0 -0.29943422057661201 -0.032203920876667472 0 -0.31144738423897378 -0.02126732740536201 0 -0.31110423911055801 -0.035316851109560482 0 -0.29943422057661201 -0.032203920876667472 0 -0.2917254884257266 -0.0017566381736345419 0 -0.31144738423897378 -0.02126732740536201 0 -0.31177688145040278 0.0050359958776742568 0 -0.2917254884257266 -0.0017566381736345419 0 -0.2928870998243559 -0.020527937726781 0 -0.31144738423897378 -0.02126732740536201 0 -0.2917254884257266 -0.0017566381736345419 0 -0.31144738423897378 -0.02126732740536201 0 -0.30323190850646392 -0.052883144282766713 0 -0.3023660715744253 -0.047018139519123002 0 -0.29757341552329353 -0.05219957266967655 0 -0.29931176789370939 -0.061629941742321552 0 -0.30659897303184058 -0.057135789817405573 0 -0.30728911182784302 -0.064893595009923935 0 -0.30323190850646392 -0.052883144282766713 0 -0.29931176789370939 -0.061629941742321552 0 -0.30659897303184058 -0.057135789817405573 0 -0.30323190850646392 -0.052883144282766713 0 -0.29757341552329353 -0.05219957266967655 0 -0.29931176789370939 -0.061629941742321552 0 -0.30659897303184058 -0.057135789817405573 0 -0.30728911182784302 -0.064893595009923935 0 -0.31405483352543062 -0.056831087900065053 0 -0.30323190850646392 -0.052883144282766713 0 -0.3023660715744253 -0.047018139519123002 0 -0.31025625293594222 -0.050033124508212908 0 -0.30659897303184058 -0.057135789817405573 0 -0.31025625293594222 -0.050033124508212908 0 -0.31405483352543062 -0.056831087900065053 0 -0.30323190850646392 -0.052883144282766713 0 -0.30659897303184058 -0.057135789817405573 0 -0.31025625293594222 -0.050033124508212908 0 -0.3023660715744253 -0.047018139519123002 0 -0.31110423911055801 -0.035316851109560482 0 -0.29943422057661201 -0.032203920876667472 0 -0.3023660715744253 -0.047018139519123002 0 -0.29943422057661201 -0.032203920876667472 0 -0.29166722635019171 -0.038853801873014321 0 -0.29943422057661201 -0.032203920876667472 0 -0.29166722635019171 -0.038853801873014321 0 -0.28378415359151371 -0.031280105512012511 0 -0.3023660715744253 -0.047018139519123002 0 -0.29166722635019171 -0.038853801873014321 0 -0.28390051605192418 -0.042754285685484159 0 -0.29166722635019171 -0.038853801873014321 0 -0.28378415359151371 -0.031280105512012511 0 -0.28390051605192418 -0.042754285685484159 0 -0.3023660715744253 -0.047018139519123002 0 -0.28390051605192418 -0.042754285685484159 0 -0.27356286309663053 -0.053258262401150697 0 -0.3023660715744253 -0.047018139519123002 0 -0.27356286309663053 -0.053258262401150697 0 -0.29757341552329353 -0.05219957266967655 0 -0.27356286309663053 -0.053258262401150697 0 -0.27532891164284878 -0.069285621960536392 0 -0.29757341552329353 -0.05219957266967655 0 -0.27532891164284878 -0.069285621960536392 0 -0.3023660715744253 -0.047018139519123002 0 -0.29757341552329353 -0.05219957266967655 0 -0.27356286309663053 -0.053258262401150697 0 -0.29757341552329353 -0.05219957266967655 0 -0.29931176789370939 -0.061629941742321552 0 -0.27532891164284878 -0.069285621960536392 0 -0.27267419604841259 -0.026924212746328481 0 -0.27375437843427658 -0.039043607324579933 0 -0.25766621977661042 -0.038842414379153638 0 -0.27356286309663053 -0.053258262401150697 0 -0.27375437843427658 -0.039043607324579933 0 -0.25766621977661042 -0.038842414379153638 0 -0.28378415359151371 -0.031280105512012511 0 -0.28390051605192418 -0.042754285685484159 0 -0.27375437843427658 -0.039043607324579933 0 -0.27267419604841259 -0.026924212746328481 0 -0.28378415359151371 -0.031280105512012511 0 -0.27375437843427658 -0.039043607324579933 0 -0.28390051605192418 -0.042754285685484159 0 -0.27356286309663053 -0.053258262401150697 0 -0.27375437843427658 -0.039043607324579933 0 -0.24475965461883589 -0.059498385283178377 0 -0.27356286309663053 -0.053258262401150697 0 -0.2582325144520296 -0.070050845257802419 0 -0.24475965461883589 -0.059498385283178377 0 -0.27356286309663053 -0.053258262401150697 0 -0.24475965461883589 -0.059498385283178377 0 -0.27356286309663053 -0.053258262401150697 0 -0.25766621977661042 -0.038842414379153638 0 -0.2582325144520296 -0.070050845257802419 0 -0.25308440776240432 -0.086371671251396109 0 -0.27532891164284878 -0.069285621960536392 0 -0.25308440776240432 -0.086371671251396109 0 -0.27532891164284878 -0.069285621960536392 0 -0.25308440776240432 -0.086371671251396109 0 -0.27361062541114611 -0.085405998149086934 0 -0.26907394573302829 -0.10103393024372311 0 -0.27361062541114611 -0.085405998149086934 0 -0.26907394573302829 -0.10103393024372311 0 -0.28494676303449051 -0.09097811142482605 0 -0.25308440776240432 -0.086371671251396109 0 -0.27361062541114611 -0.085405998149086934 0 -0.27532891164284878 -0.069285621960536392 0 -0.27356286309663053 -0.053258262401150697 0 -0.2582325144520296 -0.070050845257802419 0 -0.27532891164284878 -0.069285621960536392 0 -0.27361062541114611 -0.085405998149086934 0 -0.27532891164284878 -0.069285621960536392 0 -0.28561909888295839 -0.079360655864953042 0 -0.2432602079730701 -0.13485583854350039 0 -0.2499653418643101 -0.1102460646797562 0 -0.26490928006600228 -0.12397715003998409 0 -0.2499653418643101 -0.1102460646797562 0 -0.26490928006600228 -0.12397715003998409 0 -0.26907394573302829 -0.10103393024372311 0 -0.2499653418643101 -0.1102460646797562 0 -0.25308440776240432 -0.086371671251396109 0 -0.26907394573302829 -0.10103393024372311 0 -0.26907394573302829 -0.10103393024372311 0 -0.28789548083438649 -0.11161882002010511 0 -0.28494676303449051 -0.09097811142482605 0 -0.26490928006600228 -0.12397715003998409 0 -0.28789548083438649 -0.11161882002010511 0 -0.28428672055728371 -0.13281235115180859 0 -0.26490928006600228 -0.12397715003998409 0 -0.26907394573302829 -0.10103393024372311 0 -0.28789548083438649 -0.11161882002010511 0 -0.28789548083438649 -0.11161882002010511 0 -0.28428672055728371 -0.13281235115180859 0 -0.30877835781368662 -0.12931532841693749 0 -0.28789548083438649 -0.11161882002010511 0 -0.29765529442092259 -0.094840601490837839 0 -0.28494676303449051 -0.09097811142482605 0 -0.30761934067920371 -0.1042503242997595 0 -0.29765529442092259 -0.094840601490837839 0 -0.30832877355579341 -0.086934752854072747 0 -0.30761934067920371 -0.1042503242997595 0 -0.30832877355579341 -0.086934752854072747 0 -0.31968159473222052 -0.091584555267719248 0 -0.28789548083438649 -0.11161882002010511 0 -0.30761934067920371 -0.1042503242997595 0 -0.29765529442092259 -0.094840601490837839 0 -0.28789548083438649 -0.11161882002010511 0 -0.30761934067920371 -0.1042503242997595 0 -0.30877835781368662 -0.12931532841693749 0 -0.29931176789370939 -0.061629941742321552 0 -0.27532891164284878 -0.069285621960536392 0 -0.29568251685582603 -0.071589435967753134 0 -0.27532891164284878 -0.069285621960536392 0 -0.29568251685582603 -0.071589435967753134 0 -0.28561909888295839 -0.079360655864953042 0 -0.29568251685582603 -0.071589435967753134 0 -0.28561909888295839 -0.079360655864953042 0 -0.29849490204505058 -0.081938345925378783 0 -0.27361062541114611 -0.085405998149086934 0 -0.28561909888295839 -0.079360655864953042 0 -0.28494676303449051 -0.09097811142482605 0 -0.29765529442092259 -0.094840601490837839 0 -0.28494676303449051 -0.09097811142482605 0 -0.29849490204505058 -0.081938345925378783 0 -0.28561909888295839 -0.079360655864953042 0 -0.28494676303449051 -0.09097811142482605 0 -0.29849490204505058 -0.081938345925378783 0 -0.29849490204505058 -0.081938345925378783 0 -0.30832877355579341 -0.086934752854072747 0 -0.3066986514807607 -0.074546990101646726 0 -0.29765529442092259 -0.094840601490837839 0 -0.29849490204505058 -0.081938345925378783 0 -0.30832877355579341 -0.086934752854072747 0 -0.30832877355579341 -0.086934752854072747 0 -0.3066986514807607 -0.074546990101646726 0 -0.31636087034116728 -0.076704125898778439 0 -0.3066986514807607 -0.074546990101646726 0 -0.31411021802290889 -0.069356746280106005 0 -0.31636087034116728 -0.076704125898778439 0 -0.29568251685582603 -0.071589435967753134 0 -0.29849490204505058 -0.081938345925378783 0 -0.3066986514807607 -0.074546990101646726 0 -0.29568251685582603 -0.071589435967753134 0 -0.3066986514807607 -0.074546990101646726 0 -0.30728911182784302 -0.064893595009923935 0 -0.29931176789370939 -0.061629941742321552 0 -0.29568251685582603 -0.071589435967753134 0 -0.30728911182784302 -0.064893595009923935 0 -0.3066986514807607 -0.074546990101646726 0 -0.30728911182784302 -0.064893595009923935 0 -0.31411021802290889 -0.069356746280106005 0 -0.30728911182784302 -0.064893595009923935 0 -0.31630436981946819 -0.062936971351065629 0 -0.31411021802290889 -0.069356746280106005 0 -0.31630436981946819 -0.062936971351065629 0 -0.31411021802290889 -0.069356746280106005 0 -0.32389808664530562 -0.067702049039115322 0 -0.31630436981946819 -0.062936971351065629 0 -0.32389808664530562 -0.067702049039115322 0 -0.32481687078849097 -0.058022226865728103 0 -0.32389808664530562 -0.067702049039115322 0 -0.3259684841043719 -0.075020057435826168 0 -0.31636087034116728 -0.076704125898778439 0 -0.31411021802290889 -0.069356746280106005 0 -0.32389808664530562 -0.067702049039115322 0 -0.31636087034116728 -0.076704125898778439 0 -0.30832877355579341 -0.086934752854072747 0 -0.32608803180755441 -0.084321365842938284 0 -0.30832877355579341 -0.086934752854072747 0 -0.31968159473222052 -0.091584555267719248 0 -0.32608803180755441 -0.084321365842938284 0 -0.30832877355579341 -0.086934752854072747 0 -0.31636087034116728 -0.076704125898778439 0 -0.32608803180755441 -0.084321365842938284 0 -0.31968159473222052 -0.091584555267719248 0 -0.32608803180755441 -0.084321365842938284 0 -0.3259684841043719 -0.075020057435826168 0 -0.31636087034116728 -0.076704125898778439 0 -0.32608803180755441 -0.084321365842938284 0 -0.31968159473222052 -0.091584555267719248 0 -0.32608803180755441 -0.084321365842938284 0 -0.34030971713070318 -0.087052614945596102 0 -0.32608803180755441 -0.084321365842938284 0 -0.34030971713070318 -0.087052614945596102 0 -0.34745734249292459 -0.081176736816750444 0 -0.32608803180755441 -0.084321365842938284 0 -0.33752694762346008 -0.07135268896247253 0 -0.34745734249292459 -0.081176736816750444 0 -0.32608803180755441 -0.084321365842938284 0 -0.34745734249292459 -0.081176736816750444 0 -0.33752694762346008 -0.07135268896247253 0 -0.3489658634393657 -0.058384012082006782 0 -0.33645864726091979 -0.05858208772264157 0 -0.33752694762346008 -0.07135268896247253 0 -0.3489658634393657 -0.058384012082006782 0 -0.32389808664530562 -0.067702049039115322 0 -0.33752694762346008 -0.07135268896247253 0 -0.33645864726091979 -0.05858208772264157 0 -0.3259684841043719 -0.075020057435826168 0 -0.32608803180755441 -0.084321365842938284 0 -0.33752694762346008 -0.07135268896247253 0 -0.32608803180755441 -0.084321365842938284 0 -0.33752694762346008 -0.07135268896247253 0 -0.32389808664530562 -0.067702049039115322 0 -0.3259684841043719 -0.075020057435826168 0 -0.33752694762346008 -0.07135268896247253 0 -0.32454403747219479 -0.1081839716812668 0 -0.30877835781368662 -0.12931532841693749 0 -0.30761934067920371 -0.1042503242997595 0 -0.32454403747219479 -0.1081839716812668 0 -0.30877835781368662 -0.12931532841693749 0 -0.32454403747219479 -0.1081839716812668 0 -0.33570809008837621 -0.11845594114356341 0 -0.30877835781368662 -0.12931532841693749 0 -0.30761934067920371 -0.1042503242997595 0 -0.31968159473222052 -0.091584555267719248 0 -0.32454403747219479 -0.1081839716812668 0 -0.34030971713070318 -0.087052614945596102 0 -0.32454403747219479 -0.1081839716812668 0 -0.34278855512837281 -0.1049294584887832 0 -0.31968159473222052 -0.091584555267719248 0 -0.34030971713070318 -0.087052614945596102 0 -0.32454403747219479 -0.1081839716812668 0 -0.34030971713070318 -0.087052614945596102 0 -0.32454403747219479 -0.1081839716812668 0 -0.32454403747219479 -0.1081839716812668 0 -0.34278855512837281 -0.1049294584887832 0 -0.33570809008837621 -0.11845594114356341 0 -0.33570809008837621 -0.11845594114356341 0 -0.35404294059136687 -0.1217835462641018 0 -0.33688620478323589 -0.13358080389391511 0 -0.34278855512837281 -0.1049294584887832 0 -0.35404294059136687 -0.1217835462641018 0 -0.35932798989652742 -0.1047455147758234 0 -0.34278855512837281 -0.1049294584887832 0 -0.33570809008837621 -0.11845594114356341 0 -0.35404294059136687 -0.1217835462641018 0 -0.34278855512837281 -0.1049294584887832 0 -0.35932798989652742 -0.1047455147758234 0 -0.35079718399447979 -0.093651592615473511 0 -0.34030971713070318 -0.087052614945596102 0 -0.34278855512837281 -0.1049294584887832 0 -0.35079718399447979 -0.093651592615473511 0 -0.35932798989652742 -0.1047455147758234 0 -0.35079718399447979 -0.093651592615473511 0 -0.36132419909701757 -0.091459041133748031 0 -0.35932798989652742 -0.1047455147758234 0 -0.37367929427193591 -0.1014825750548952 0 -0.37212838853434238 -0.11808059788504249 0 -0.35932798989652742 -0.1047455147758234 0 -0.37367929427193591 -0.1014825750548952 0 -0.36132419909701757 -0.091459041133748031 0 -0.35404294059136687 -0.1217835462641018 0 -0.37212838853434238 -0.11808059788504249 0 -0.37028068739271691 -0.13083580994494901 0 -0.35404294059136687 -0.1217835462641018 0 -0.35932798989652742 -0.1047455147758234 0 -0.37212838853434238 -0.11808059788504249 0 -0.35069420168351129 -0.07223638641294812 0 -0.34745734249292459 -0.081176736816750444 0 -0.36882665317829499 -0.078032107790563188 0 -0.36882665317829499 -0.078032107790563188 0 -0.3489658634393657 -0.058384012082006782 0 -0.35069420168351129 -0.07223638641294812 0 -0.36882665317829499 -0.078032107790563188 0 -0.3489658634393657 -0.058384012082006782 0 -0.33752694762346008 -0.07135268896247253 0 -0.35069420168351129 -0.07223638641294812 0 -0.3489658634393657 -0.058384012082006782 0 -0.33752694762346008 -0.07135268896247253 0 -0.35069420168351129 -0.07223638641294812 0 -0.34745734249292459 -0.081176736816750444 0 -0.34745734249292459 -0.081176736816750444 0 -0.36882665317829499 -0.078032107790563188 0 -0.34745734249292459 -0.081176736816750444 0 -0.36132419909701757 -0.091459041133748031 0 -0.36882665317829499 -0.078032107790563188 0 -0.34030971713070318 -0.087052614945596102 0 -0.34745734249292459 -0.081176736816750444 0 -0.35079718399447979 -0.093651592615473511 0 -0.34745734249292459 -0.081176736816750444 0 -0.35079718399447979 -0.093651592615473511 0 -0.36132419909701757 -0.091459041133748031 0 -0.37367929427193591 -0.1014825750548952 0 -0.36132419909701757 -0.091459041133748031 0 -0.36882665317829499 -0.078032107790563188 0 -0.36882665317829499 -0.078032107790563188 0 -0.36862349457690058 -0.057461967220355487 0 -0.3489658634393657 -0.058384012082006782 0 -0.36882665317829499 -0.078032107790563188 0 -0.36862349457690058 -0.057461967220355487 0 -0.37947166312044489 -0.067272628224985004 0 -0.36862349457690058 -0.057461967220355487 0 -0.3489658634393657 -0.058384012082006782 0 -0.36066681755822472 -0.045118253717945672 0 -0.36862349457690058 -0.057461967220355487 0 -0.37355784227175309 -0.045246792894939887 0 -0.3815482533063424 -0.052412606119804542 0 -0.36862349457690058 -0.057461967220355487 0 -0.36066681755822472 -0.045118253717945672 0 -0.37355784227175309 -0.045246792894939887 0 -0.3489658634393657 -0.058384012082006782 0 -0.36066681755822472 -0.045118253717945672 0 -0.3489658634393657 -0.058384012082006782 0 -0.34511111307690212 -0.046137334811030092 0 -0.36066681755822472 -0.045118253717945672 0 -0.35304062521722218 -0.036039659744318157 0 -0.3553139768507978 -0.023567241021099371 0 -0.33371347875736079 -0.040226824134751989 0 -0.34511111307690212 -0.046137334811030092 0 -0.35304062521722218 -0.036039659744318157 0 -0.33371347875736079 -0.040226824134751989 0 -0.34511111307690212 -0.046137334811030092 0 -0.35304062521722218 -0.036039659744318157 0 -0.36066681755822472 -0.045118253717945672 0 -0.36066681755822472 -0.045118253717945672 0 -0.37236777167708351 -0.031852495353884333 0 -0.35304062521722218 -0.036039659744318157 0 -0.37236777167708351 -0.031852495353884333 0 -0.35304062521722218 -0.036039659744318157 0 -0.36066681755822472 -0.045118253717945672 0 -0.37236777167708351 -0.031852495353884333 0 -0.36066681755822472 -0.045118253717945672 0 -0.37355784227175309 -0.045246792894939887 0 -0.37236777167708351 -0.031852495353884333 0 -0.37236777167708351 -0.031852495353884333 0 -0.3739022591900184 -0.02415390189740213 0 -0.36770044175442279 -0.02036669541201027 0 -0.37236777167708351 -0.031852495353884333 0 -0.36770044175442279 -0.02036669541201027 0 -0.3553139768507978 -0.023567241021099371 0 -0.36770044175442279 -0.02036669541201027 0 -0.35847393927256738 -0.010652033510738681 0 -0.38297625517291389 -0.017448943304264108 0 -0.35304062521722218 -0.036039659744318157 0 -0.37236777167708351 -0.031852495353884333 0 -0.3553139768507978 -0.023567241021099371 0 -0.3739022591900184 -0.02415390189740213 0 -0.36770044175442279 -0.02036669541201027 0 -0.38297625517291389 -0.017448943304264108 0 -0.36770044175442279 -0.02036669541201027 0 -0.35847393927256738 -0.010652033510738681 0 -0.3553139768507978 -0.023567241021099371 0 -0.35847393927256738 -0.010652033510738681 0 -0.38297625517291389 -0.017448943304264108 0 -0.37278444596104371 -0.0079457960458173115 0 -0.35847393927256738 -0.010652033510738681 0 -0.38297625517291389 -0.017448943304264108 0 -0.37474494217865062 -0.0022388935110706832 0 -0.37278444596104371 -0.0079457960458173115 0 -0.36307869926690151 -0.00068504054922277494 0 -0.37278444596104371 -0.0079457960458173115 0 -0.36307869926690151 -0.00068504054922277494 0 -0.35847393927256738 -0.010652033510738681 0 -0.36307869926690151 -0.00068504054922277494 0 -0.34718119132474479 -0.01384164818341615 0 -0.36064890389212972 0.0125435277679194 0 -0.36307869926690151 -0.00068504054922277494 0 -0.35847393927256738 -0.010652033510738681 0 -0.34718119132474479 -0.01384164818341615 0 -0.34718119132474479 -0.01384164818341615 0 -0.36064890389212972 0.0125435277679194 0 -0.34718119132474479 -0.01384164818341615 0 -0.3553139768507978 -0.023567241021099371 0 -0.33371347875736079 -0.040226824134751989 0 -0.35847393927256738 -0.010652033510738681 0 -0.34718119132474479 -0.01384164818341615 0 -0.3553139768507978 -0.023567241021099371 0 -0.34718119132474479 -0.01384164818341615 0 -0.33035884889608558 -0.02420969997450095 0 -0.33371347875736079 -0.040226824134751989 0 -0.34718119132474479 -0.01384164818341615 0 -0.33371347875736079 -0.040226824134751989 0 -0.34718119132474479 -0.01384164818341615 0 -0.32828291010712762 -0.0049346835118845543 0 -0.34055428987364128 0.0059527955302196532 0 -0.34718119132474479 -0.01384164818341615 0 -0.33035884889608558 -0.02420969997450095 0 -0.32828291010712762 -0.0049346835118845543 0 -0.31144738423897378 -0.02126732740536201 0 -0.32828291010712762 -0.0049346835118845543 0 -0.31177688145040278 0.0050359958776742568 0 -0.31144738423897378 -0.02126732740536201 0 -0.33116928005221918 -0.040778016637091109 0 -0.31144738423897378 -0.02126732740536201 0 -0.33035884889608558 -0.02420969997450095 0 -0.32828291010712762 -0.0049346835118845543 0 -0.31144738423897378 -0.02126732740536201 0 -0.33035884889608558 -0.02420969997450095 0 -0.33116928005221918 -0.040778016637091109 0 -0.3023660715744253 -0.047018139519123002 0 -0.31110423911055801 -0.035316851109560482 0 -0.33116928005221918 -0.040778016637091109 0 -0.3023660715744253 -0.047018139519123002 0 -0.31025625293594222 -0.050033124508212908 0 -0.33116928005221918 -0.040778016637091109 0 -0.3023660715744253 -0.047018139519123002 0 -0.33116928005221918 -0.040778016637091109 0 -0.31144738423897378 -0.02126732740536201 0 -0.31110423911055801 -0.035316851109560482 0 -0.33116928005221918 -0.040778016637091109 0 -0.31025625293594222 -0.050033124508212908 0 -0.31770057673851387 -0.05020147555903863 0 -0.33116928005221918 -0.040778016637091109 0 -0.31025625293594222 -0.050033124508212908 0 -0.31770057673851387 -0.05020147555903863 0 -0.31405483352543062 -0.056831087900065053 0 -0.31770057673851387 -0.05020147555903863 0 -0.31405483352543062 -0.056831087900065053 0 -0.31936567051967829 -0.054711673150449433 0 -0.31630436981946819 -0.062936971351065629 0 -0.31936567051967829 -0.054711673150449433 0 -0.32481687078849097 -0.058022226865728103 0 -0.30728911182784302 -0.064893595009923935 0 -0.31630436981946819 -0.062936971351065629 0 -0.31405483352543062 -0.056831087900065053 0 -0.31630436981946819 -0.062936971351065629 0 -0.31405483352543062 -0.056831087900065053 0 -0.31936567051967829 -0.054711673150449433 0 -0.31770057673851387 -0.05020147555903863 0 -0.32448711316898249 -0.050622394842538963 0 -0.33116928005221918 -0.040778016637091109 0 -0.31936567051967829 -0.054711673150449433 0 -0.32481687078849097 -0.058022226865728103 0 -0.32448711316898249 -0.050622394842538963 0 -0.31770057673851387 -0.05020147555903863 0 -0.31936567051967829 -0.054711673150449433 0 -0.32448711316898249 -0.050622394842538963 0 -0.32481687078849097 -0.058022226865728103 0 -0.32770904195502032 -0.053173566283506987 0 -0.32448711316898249 -0.050622394842538963 0 -0.32770904195502032 -0.053173566283506987 0 -0.32448711316898249 -0.050622394842538963 0 -0.32972533979495861 -0.048040159006195682 0 -0.3489658634393657 -0.058384012082006782 0 -0.34511111307690212 -0.046137334811030092 0 -0.3326728772282519 -0.042265511425067279 0 -0.32972533979495861 -0.048040159006195682 0 -0.33645864726091979 -0.05858208772264157 0 -0.3326728772282519 -0.042265511425067279 0 -0.3489658634393657 -0.058384012082006782 0 -0.3326728772282519 -0.042265511425067279 0 -0.32770904195502032 -0.053173566283506987 0 -0.32972533979495861 -0.048040159006195682 0 -0.33645864726091979 -0.05858208772264157 0 -0.3489658634393657 -0.058384012082006782 0 -0.33645864726091979 -0.05858208772264157 0 -0.3326728772282519 -0.042265511425067279 0 -0.32389808664530562 -0.067702049039115322 0 -0.32481687078849097 -0.058022226865728103 0 -0.33645864726091979 -0.05858208772264157 0 -0.32481687078849097 -0.058022226865728103 0 -0.32770904195502032 -0.053173566283506987 0 -0.33645864726091979 -0.05858208772264157 0 -0.34511111307690212 -0.046137334811030092 0 -0.33371347875736079 -0.040226824134751989 0 -0.3326728772282519 -0.042265511425067279 0 -0.33035884889608558 -0.02420969997450095 0 -0.33116928005221918 -0.040778016637091109 0 -0.33371347875736079 -0.040226824134751989 0 -0.35304062521722218 -0.036039659744318157 0 -0.33371347875736079 -0.040226824134751989 0 -0.32448711316898249 -0.050622394842538963 0 -0.32972533979495861 -0.048040159006195682 0 -0.33116928005221918 -0.040778016637091109 0 -0.33116928005221918 -0.040778016637091109 0 -0.3326728772282519 -0.042265511425067279 0 -0.32972533979495861 -0.048040159006195682 0 -0.3326728772282519 -0.042265511425067279 0 -0.32972533979495861 -0.048040159006195682 0 -0.33116928005221918 -0.040778016637091109 0 -0.3326728772282519 -0.042265511425067279 0 -0.33116928005221918 -0.040778016637091109 0 -0.33371347875736079 -0.040226824134751989 0 -0.33116928005221918 -0.040778016637091109 0 -0.33371347875736079 -0.040226824134751989 0 -0.3326728772282519 -0.042265511425067279 0 -0.33371347875736079 -0.040226824134751989 0 -0.3326728772282519 -0.042265511425067279 0 -0.2907170577323625 -0.25177677077710309 0 -0.30853150187083839 -0.25429835417001312 0 -0.30748271917561598 -0.2431056607245809 0 -0.30748271917561598 -0.2431056607245809 0 -0.3004866401015065 -0.2269264896544945 0 -0.32066485276457768 -0.2334308190911655 0 -0.2907170577323625 -0.25177677077710309 0 -0.30748271917561598 -0.2431056607245809 0 -0.3004866401015065 -0.2269264896544945 0 -0.30853150187083839 -0.25429835417001312 0 -0.30748271917561598 -0.2431056607245809 0 -0.32023222063025569 -0.2489608815952247 0 -0.3004866401015065 -0.2269264896544945 0 -0.27575903677895092 -0.22208668823385669 0 -0.3004866401015065 -0.2269264896544945 0 -0.27309361240676189 -0.24179026653703889 0 -0.27575903677895092 -0.22208668823385669 0 -0.3004866401015065 -0.2269264896544945 0 -0.27575903677895092 -0.22208668823385669 0 -0.29482007196541532 -0.2089319155152673 0 -0.2907170577323625 -0.25177677077710309 0 -0.3004866401015065 -0.2269264896544945 0 -0.27309361240676189 -0.24179026653703889 0 -0.27309361240676189 -0.24179026653703889 0 -0.25431856302814809 -0.24833495949118861 0 -0.25103143345639523 -0.21724688681321891 0 -0.27575903677895092 -0.22208668823385669 0 -0.25103143345639523 -0.21724688681321891 0 -0.27309361240676189 -0.24179026653703889 0 -0.27575903677895092 -0.22208668823385669 0 -0.25103143345639523 -0.21724688681321891 0 -0.27575903677895092 -0.22208668823385669 0 -0.25103143345639523 -0.21724688681321891 0 -0.27708552823660842 -0.19790031786117671 0 -0.25103143345639523 -0.21724688681321891 0 -0.25418198431724581 -0.18809916394242601 0 -0.27708552823660842 -0.19790031786117671 0 -0.27708552823660842 -0.19790031786117671 0 -0.29482007196541532 -0.2089319155152673 0 -0.30195969341908391 -0.19078830755985379 0 -0.29482007196541532 -0.2089319155152673 0 -0.30195969341908391 -0.19078830755985379 0 -0.32674672588845421 -0.2120308859258328 0 -0.3004866401015065 -0.2269264896544945 0 -0.29482007196541532 -0.2089319155152673 0 -0.32674672588845421 -0.2120308859258328 0 -0.27575903677895092 -0.22208668823385669 0 -0.27708552823660842 -0.19790031786117671 0 -0.29482007196541532 -0.2089319155152673 0 -0.30195969341908391 -0.19078830755985379 0 -0.30674796742087651 -0.1684647150882764 0 -0.32123008678095788 -0.18729232698745699 0 -0.30674796742087651 -0.1684647150882764 0 -0.2930126781551784 -0.15044668515260809 0 -0.3206808779707625 -0.15110047818677941 0 -0.27724699849667023 -0.17157804188827869 0 -0.2930126781551784 -0.15044668515260809 0 -0.30674796742087651 -0.1684647150882764 0 -0.27724699849667023 -0.17157804188827869 0 -0.2930126781551784 -0.15044668515260809 0 -0.27708552823660842 -0.19790031786117671 0 -0.30195969341908391 -0.19078830755985379 0 -0.27724699849667023 -0.17157804188827869 0 -0.30195969341908391 -0.19078830755985379 0 -0.30674796742087651 -0.1684647150882764 0 -0.27724699849667023 -0.17157804188827869 0 -0.25418198431724581 -0.18809916394242601 0 -0.27708552823660842 -0.19790031786117671 0 -0.27724699849667023 -0.17157804188827869 0 -0.25418198431724581 -0.18809916394242601 0 -0.2565438833259911 -0.1687602707777138 0 -0.27724699849667023 -0.17157804188827869 0 -0.2435592126657353 -0.1561425335328199 0 -0.2565438833259911 -0.1687602707777138 0 -0.26683780591716472 -0.14870377212940841 0 -0.27724699849667023 -0.17157804188827869 0 -0.26683780591716472 -0.14870377212940841 0 -0.2930126781551784 -0.15044668515260809 0 -0.2565438833259911 -0.1687602707777138 0 -0.27724699849667023 -0.17157804188827869 0 -0.26683780591716472 -0.14870377212940841 0 -0.2435592126657353 -0.1561425335328199 0 -0.2432602079730701 -0.13485583854350039 0 -0.26683780591716472 -0.14870377212940841 0 -0.2432602079730701 -0.13485583854350039 0 -0.26490928006600228 -0.12397715003998409 0 -0.26683780591716472 -0.14870377212940841 0 -0.26490928006600228 -0.12397715003998409 0 -0.26683780591716472 -0.14870377212940841 0 -0.28428672055728371 -0.13281235115180859 0 -0.28428672055728371 -0.13281235115180859 0 -0.2930126781551784 -0.15044668515260809 0 -0.30877835781368662 -0.12931532841693749 0 -0.26683780591716472 -0.14870377212940841 0 -0.28428672055728371 -0.13281235115180859 0 -0.2930126781551784 -0.15044668515260809 0 -0.2930126781551784 -0.15044668515260809 0 -0.30877835781368662 -0.12931532841693749 0 -0.3206808779707625 -0.15110047818677941 0 -0.2930126781551784 -0.15044668515260809 0 -0.30877835781368662 -0.12931532841693749 0 -0.33570809008837621 -0.11845594114356341 0 -0.30877835781368662 -0.12931532841693749 0 -0.33688620478323589 -0.13358080389391511 0 -0.30877835781368662 -0.12931532841693749 0 -0.3206808779707625 -0.15110047818677941 0 -0.33688620478323589 -0.13358080389391511 0 -0.3206808779707625 -0.15110047818677941 0 -0.33688620478323589 -0.13358080389391511 0 -0.34399943231138669 -0.15408109000358611 0 -0.33688620478323589 -0.13358080389391511 0 -0.35929992868189681 -0.1386942596847188 0 -0.35404294059136687 -0.1217835462641018 0 -0.33688620478323589 -0.13358080389391511 0 -0.35929992868189681 -0.1386942596847188 0 -0.35404294059136687 -0.1217835462641018 0 -0.35929992868189681 -0.1386942596847188 0 -0.37028068739271691 -0.13083580994494901 0 -0.35929992868189681 -0.1386942596847188 0 -0.37028068739271691 -0.13083580994494901 0 -0.3804539816512269 -0.14482329966991631 0 -0.35929992868189681 -0.1386942596847188 0 -0.3804539816512269 -0.14482329966991631 0 -0.35929992868189681 -0.1386942596847188 0 -0.3655172116091886 -0.15688196674787641 0 -0.3804539816512269 -0.14482329966991631 0 -0.3655172116091886 -0.15688196674787641 0 -0.3804539816512269 -0.14482329966991631 0 -0.3655172116091886 -0.15688196674787641 0 -0.37839901512320262 -0.15996290040625341 0 -0.3804539816512269 -0.14482329966991631 0 -0.33688620478323589 -0.13358080389391511 0 -0.35929992868189681 -0.1386942596847188 0 -0.34399943231138669 -0.15408109000358611 0 -0.35929992868189681 -0.1386942596847188 0 -0.34399943231138669 -0.15408109000358611 0 -0.3655172116091886 -0.15688196674787641 0 -0.34399943231138669 -0.15408109000358611 0 -0.35323542112630057 -0.1671812377988513 0 -0.3655172116091886 -0.15688196674787641 0 -0.3655172116091886 -0.15688196674787641 0 -0.37378547386561772 -0.17392500984250869 0 -0.37839901512320262 -0.15996290040625341 0 -0.35323542112630057 -0.1671812377988513 0 -0.3655172116091886 -0.15688196674787641 0 -0.37378547386561772 -0.17392500984250869 0 -0.37378547386561772 -0.17392500984250869 0 -0.35240556330307887 -0.18479875362473361 0 -0.36895563931783232 -0.19259611207654981 0 -0.35323542112630057 -0.1671812377988513 0 -0.37378547386561772 -0.17392500984250869 0 -0.35240556330307887 -0.18479875362473361 0 -0.35323542112630057 -0.1671812377988513 0 -0.35240556330307887 -0.18479875362473361 0 -0.33400288196205857 -0.17193246321376471 0 -0.35240556330307887 -0.18479875362473361 0 -0.33400288196205857 -0.17193246321376471 0 -0.33669316521431608 -0.19324526314955739 0 -0.33400288196205857 -0.17193246321376471 0 -0.32123008678095788 -0.18729232698745699 0 -0.33669316521431608 -0.19324526314955739 0 -0.3206808779707625 -0.15110047818677941 0 -0.34399943231138669 -0.15408109000358611 0 -0.33400288196205857 -0.17193246321376471 0 -0.34399943231138669 -0.15408109000358611 0 -0.35323542112630057 -0.1671812377988513 0 -0.33400288196205857 -0.17193246321376471 0 -0.30674796742087651 -0.1684647150882764 0 -0.3206808779707625 -0.15110047818677941 0 -0.33400288196205857 -0.17193246321376471 0 -0.30674796742087651 -0.1684647150882764 0 -0.33400288196205857 -0.17193246321376471 0 -0.32123008678095788 -0.18729232698745699 0 -0.30195969341908391 -0.19078830755985379 0 -0.32123008678095788 -0.18729232698745699 0 -0.32674672588845421 -0.2120308859258328 0 -0.32674672588845421 -0.2120308859258328 0 -0.35024140450074381 -0.20994798342056251 0 -0.32674672588845421 -0.2120308859258328 0 -0.33669316521431608 -0.19324526314955739 0 -0.35024140450074381 -0.20994798342056251 0 -0.32674672588845421 -0.2120308859258328 0 -0.35024140450074381 -0.20994798342056251 0 -0.3377174746324717 -0.2284461722996495 0 -0.32123008678095788 -0.18729232698745699 0 -0.32674672588845421 -0.2120308859258328 0 -0.33669316521431608 -0.19324526314955739 0 -0.35240556330307887 -0.18479875362473361 0 -0.36895563931783232 -0.19259611207654981 0 -0.35024140450074381 -0.20994798342056251 0 -0.35240556330307887 -0.18479875362473361 0 -0.33669316521431608 -0.19324526314955739 0 -0.35024140450074381 -0.20994798342056251 0 -0.36895563931783232 -0.19259611207654981 0 -0.37373608311303341 -0.20786508091529229 0 -0.35024140450074381 -0.20994798342056251 0 -0.37373608311303341 -0.20786508091529229 0 -0.35024140450074381 -0.20994798342056251 0 -0.37373608311303341 -0.20786508091529229 0 -0.35024140450074381 -0.20994798342056251 0 -0.36602803805366552 -0.21914337572849349 0 -0.37373608311303341 -0.20786508091529229 0 -0.36602803805366552 -0.21914337572849349 0 -0.37785639846487218 -0.21906994256996459 0 -0.35024140450074381 -0.20994798342056251 0 -0.357966965356528 -0.23170644806675769 0 -0.3377174746324717 -0.2284461722996495 0 -0.35024140450074381 -0.20994798342056251 0 -0.357966965356528 -0.23170644806675769 0 -0.36602803805366552 -0.21914337572849349 0 -0.357966965356528 -0.23170644806675769 0 -0.36602803805366552 -0.21914337572849349 0 -0.36983275924353248 -0.22875232439276311 0 -0.36602803805366552 -0.21914337572849349 0 -0.36983275924353248 -0.22875232439276311 0 -0.37785639846487218 -0.21906994256996459 0 -0.357966965356528 -0.23170644806675769 0 -0.36983275924353248 -0.22875232439276311 0 -0.37747963509906429 -0.24508953120583671 0 -0.35872453044413888 -0.25078889886649508 0 -0.357966965356528 -0.23170644806675769 0 -0.37747963509906429 -0.24508953120583671 0 -0.357966965356528 -0.23170644806675769 0 -0.34395992200845399 -0.24382677409400949 0 -0.3377174746324717 -0.2284461722996495 0 -0.35872453044413888 -0.25078889886649508 0 -0.357966965356528 -0.23170644806675769 0 -0.34395992200845399 -0.24382677409400949 0 -0.33345250408021371 -0.25331871279766999 0 -0.34395992200845399 -0.24382677409400949 0 -0.33132333615916232 -0.2411148243472106 0 -0.33345250408021371 -0.25331871279766999 0 -0.33132333615916232 -0.2411148243472106 0 -0.32023222063025569 -0.2489608815952247 0 -0.34395992200845399 -0.24382677409400949 0 -0.33132333615916232 -0.2411148243472106 0 -0.3377174746324717 -0.2284461722996495 0 -0.32674672588845421 -0.2120308859258328 0 -0.3377174746324717 -0.2284461722996495 0 -0.32066485276457768 -0.2334308190911655 0 -0.33132333615916232 -0.2411148243472106 0 -0.3377174746324717 -0.2284461722996495 0 -0.32066485276457768 -0.2334308190911655 0 -0.3004866401015065 -0.2269264896544945 0 -0.32674672588845421 -0.2120308859258328 0 -0.32066485276457768 -0.2334308190911655 0 -0.30748271917561598 -0.2431056607245809 0 -0.32066485276457768 -0.2334308190911655 0 -0.32023222063025569 -0.2489608815952247 0 -0.33132333615916232 -0.2411148243472106 0 -0.32066485276457768 -0.2334308190911655 0 -0.32023222063025569 -0.2489608815952247 0 -0.43445882011373449 -0.25478651907497341 0 -0.43806130733353449 -0.23541812032183559 0 -0.43445882011373449 -0.25478651907497341 0 -0.4258852610480256 -0.24284815888716721 0 -0.43806130733353449 -0.23541812032183559 0 -0.4258852610480256 -0.24284815888716721 0 -0.42538833238501789 -0.2333934851751748 0 -0.41698539980062188 -0.23875950084572559 0 -0.43445882011373449 -0.25478651907497341 0 -0.4258852610480256 -0.24284815888716721 0 -0.42335340856967768 -0.24893549408922019 0 -0.4258852610480256 -0.24284815888716721 0 -0.42538833238501789 -0.2333934851751748 0 -0.43806130733353449 -0.23541812032183559 0 -0.43091611572645672 -0.22699763907763329 0 -0.42538833238501789 -0.2333934851751748 0 -0.43806130733353449 -0.23541812032183559 0 -0.43091611572645672 -0.22699763907763329 0 -0.44166379455333399 -0.21604972156869759 0 -0.43806130733353449 -0.23541812032183559 0 -0.43091611572645672 -0.22699763907763329 0 -0.43133498143110582 -0.21921018883561361 0 -0.44166379455333399 -0.21604972156869759 0 -0.43133498143110582 -0.21921018883561361 0 -0.4232485836513401 -0.22477446532261011 0 -0.4232102070061276 -0.21869015764887889 0 -0.43091611572645672 -0.22699763907763329 0 -0.43133498143110582 -0.21921018883561361 0 -0.4232485836513401 -0.22477446532261011 0 -0.43091611572645672 -0.22699763907763329 0 -0.4232485836513401 -0.22477446532261011 0 -0.42538833238501789 -0.2333934851751748 0 -0.4232485836513401 -0.22477446532261011 0 -0.42538833238501789 -0.2333934851751748 0 -0.41731365953457839 -0.2310953018814938 0 -0.4232485836513401 -0.22477446532261011 0 -0.41731365953457839 -0.2310953018814938 0 -0.4121948509493269 -0.2247325638453028 0 -0.41731365953457839 -0.2310953018814938 0 -0.4080561583250083 -0.23272886934204159 0 -0.41698539980062188 -0.23875950084572559 0 -0.4232485836513401 -0.22477446532261011 0 -0.4121948509493269 -0.2247325638453028 0 -0.41685681033243982 -0.21746512418924929 0 -0.4232485836513401 -0.22477446532261011 0 -0.41685681033243982 -0.21746512418924929 0 -0.4232102070061276 -0.21869015764887889 0 -0.4121948509493269 -0.2247325638453028 0 -0.4080561583250083 -0.23272886934204159 0 -0.39971520205611372 -0.2221352637332015 0 -0.4121948509493269 -0.2247325638453028 0 -0.40807454407470489 -0.21592977391801271 0 -0.41685681033243982 -0.21746512418924929 0 -0.4121948509493269 -0.2247325638453028 0 -0.39971520205611372 -0.2221352637332015 0 -0.40807454407470489 -0.21592977391801271 0 -0.41731365953457839 -0.2310953018814938 0 -0.4121948509493269 -0.2247325638453028 0 -0.4080561583250083 -0.23272886934204159 0 -0.4080561583250083 -0.23272886934204159 0 -0.40983148527785651 -0.24118391776602099 0 -0.41698539980062188 -0.23875950084572559 0 -0.42538833238501789 -0.2333934851751748 0 -0.41731365953457839 -0.2310953018814938 0 -0.41698539980062188 -0.23875950084572559 0 -0.40983148527785651 -0.24118391776602099 0 -0.41698539980062188 -0.23875950084572559 0 -0.41627810448972868 -0.24641300060905449 0 -0.4258852610480256 -0.24284815888716721 0 -0.42335340856967768 -0.24893549408922019 0 -0.41627810448972868 -0.24641300060905449 0 -0.4258852610480256 -0.24284815888716721 0 -0.41698539980062188 -0.23875950084572559 0 -0.41627810448972868 -0.24641300060905449 0 -0.41679144862722167 -0.25169429778568547 0 -0.42335340856967768 -0.24893549408922019 0 -0.41627810448972868 -0.24641300060905449 0 -0.41385673751816382 -0.25312989710486528 0 -0.41627810448972868 -0.24641300060905449 0 -0.4086566941719203 -0.24778871483445111 0 -0.40983148527785651 -0.24118391776602099 0 -0.41627810448972868 -0.24641300060905449 0 -0.4086566941719203 -0.24778871483445111 0 -0.40282532782868952 -0.25224285689579767 0 -0.4086566941719203 -0.24778871483445111 0 -0.40022281387448849 -0.24084313907701979 0 -0.40983148527785651 -0.24118391776602099 0 -0.4086566941719203 -0.24778871483445111 0 -0.40022281387448849 -0.24084313907701979 0 -0.4080561583250083 -0.23272886934204159 0 -0.40983148527785651 -0.24118391776602099 0 -0.40022281387448849 -0.24084313907701979 0 -0.40022281387448849 -0.24084313907701979 0 -0.3903832871219331 -0.2411545733314838 0 -0.38772777019650018 -0.2315142496456449 0 -0.3938256931015453 -0.25037754026629511 0 -0.40022281387448849 -0.24084313907701979 0 -0.3903832871219331 -0.2411545733314838 0 -0.3938256931015453 -0.25037754026629511 0 -0.3903832871219331 -0.2411545733314838 0 -0.37747963509906429 -0.24508953120583671 0 -0.3903832871219331 -0.2411545733314838 0 -0.37747963509906429 -0.24508953120583671 0 -0.38772777019650018 -0.2315142496456449 0 -0.37747963509906429 -0.24508953120583671 0 -0.37785639846487218 -0.21906994256996459 0 -0.37747963509906429 -0.24508953120583671 0 -0.37785639846487218 -0.21906994256996459 0 -0.38772777019650018 -0.2315142496456449 0 -0.36983275924353248 -0.22875232439276311 0 -0.37747963509906429 -0.24508953120583671 0 -0.37785639846487218 -0.21906994256996459 0 -0.37785639846487218 -0.21906994256996459 0 -0.38772777019650018 -0.2315142496456449 0 -0.38790285805175961 -0.2167146319195192 0 -0.4080561583250083 -0.23272886934204159 0 -0.40022281387448849 -0.24084313907701979 0 -0.39971520205611372 -0.2221352637332015 0 -0.40022281387448849 -0.24084313907701979 0 -0.39971520205611372 -0.2221352637332015 0 -0.38772777019650018 -0.2315142496456449 0 -0.39971520205611372 -0.2221352637332015 0 -0.38790285805175961 -0.2167146319195192 0 -0.40022281387448849 -0.24084313907701979 0 -0.38772777019650018 -0.2315142496456449 0 -0.39971520205611372 -0.2221352637332015 0 -0.39971520205611372 -0.2221352637332015 0 -0.39723076172532301 -0.205782178410022 0 -0.40807454407470489 -0.21592977391801271 0 -0.39971520205611372 -0.2221352637332015 0 -0.39723076172532301 -0.205782178410022 0 -0.38790285805175961 -0.2167146319195192 0 -0.39723076172532301 -0.205782178410022 0 -0.41303892827123678 -0.21093405469715851 0 -0.40807454407470489 -0.21592977391801271 0 -0.37373608311303341 -0.20786508091529229 0 -0.39723076172532301 -0.205782178410022 0 -0.38370630256805799 -0.1971119561512929 0 -0.37373608311303341 -0.20786508091529229 0 -0.39723076172532301 -0.205782178410022 0 -0.38790285805175961 -0.2167146319195192 0 -0.37373608311303341 -0.20786508091529229 0 -0.39723076172532301 -0.205782178410022 0 -0.37373608311303341 -0.20786508091529229 0 -0.37785639846487218 -0.21906994256996459 0 -0.38790285805175961 -0.2167146319195192 0 -0.36895563931783232 -0.19259611207654981 0 -0.38370630256805799 -0.1971119561512929 0 -0.3831693110633177 -0.1873742460103984 0 -0.36895563931783232 -0.19259611207654981 0 -0.37373608311303341 -0.20786508091529229 0 -0.38370630256805799 -0.1971119561512929 0 -0.38370630256805799 -0.1971119561512929 0 -0.39543971762078378 -0.19194216334420211 0 -0.3831693110633177 -0.1873742460103984 0 -0.39723076172532301 -0.205782178410022 0 -0.38370630256805799 -0.1971119561512929 0 -0.39543971762078378 -0.19194216334420211 0 -0.39723076172532301 -0.205782178410022 0 -0.39543971762078378 -0.19194216334420211 0 -0.40534117689708921 -0.19634387975323889 0 -0.39543971762078378 -0.19194216334420211 0 -0.40534117689708921 -0.19634387975323889 0 -0.40730162077548249 -0.18407395049314179 0 -0.39723076172532301 -0.205782178410022 0 -0.40534117689708921 -0.19634387975323889 0 -0.42072544033761272 -0.20369927590475301 0 -0.42032122747045741 -0.1927313373696285 0 -0.42072544033761272 -0.20369927590475301 0 -0.40730162077548249 -0.18407395049314179 0 -0.42072544033761272 -0.20369927590475301 0 -0.40730162077548249 -0.18407395049314179 0 -0.40534117689708921 -0.19634387975323889 0 -0.42072544033761272 -0.20369927590475301 0 -0.40730162077548249 -0.18407395049314179 0 -0.39723076172532301 -0.205782178410022 0 -0.41303892827123678 -0.21093405469715851 0 -0.42072544033761272 -0.20369927590475301 0 -0.39723076172532301 -0.205782178410022 0 -0.42072544033761272 -0.20369927590475301 0 -0.41303892827123678 -0.21093405469715851 0 -0.40807454407470489 -0.21592977391801271 0 -0.41685681033243982 -0.21746512418924929 0 -0.41303892827123678 -0.21093405469715851 0 -0.41685681033243982 -0.21746512418924929 0 -0.42140045260962489 -0.21331085224804261 0 -0.41685681033243982 -0.21746512418924929 0 -0.42140045260962489 -0.21331085224804261 0 -0.4232102070061276 -0.21869015764887889 0 -0.41303892827123678 -0.21093405469715851 0 -0.42140045260962489 -0.21331085224804261 0 -0.42072544033761272 -0.20369927590475301 0 -0.42512182626149492 -0.2033095177213731 0 -0.43378961613155448 -0.20908682079381441 0 -0.44184138868315109 -0.20247798044170351 0 -0.42072544033761272 -0.20369927590475301 0 -0.42512182626149492 -0.2033095177213731 0 -0.43133498143110582 -0.21921018883561361 0 -0.42072544033761272 -0.20369927590475301 0 -0.42512182626149492 -0.2033095177213731 0 -0.43133498143110582 -0.21921018883561361 0 -0.42512182626149492 -0.2033095177213731 0 -0.43378961613155448 -0.20908682079381441 0 -0.43133498143110582 -0.21921018883561361 0 -0.42140045260962489 -0.21331085224804261 0 -0.4232102070061276 -0.21869015764887889 0 -0.43133498143110582 -0.21921018883561361 0 -0.42072544033761272 -0.20369927590475301 0 -0.43133498143110582 -0.21921018883561361 0 -0.42140045260962489 -0.21331085224804261 0 -0.42072544033761272 -0.20369927590475301 0 -0.43133498143110582 -0.21921018883561361 0 -0.43378961613155448 -0.20908682079381441 0 -0.44166379455333399 -0.21604972156869759 0 -0.42032122747045741 -0.1927313373696285 0 -0.44184138868315109 -0.20247798044170351 0 -0.42032122747045741 -0.1927313373696285 0 -0.43099962817645188 -0.18319011649723049 0 -0.43833565968517207 -0.19112957676178299 0 -0.42032122747045741 -0.1927313373696285 0 -0.42512182626149492 -0.2033095177213731 0 -0.44184138868315109 -0.20247798044170351 0 -0.42032122747045741 -0.1927313373696285 0 -0.43833565968517207 -0.19112957676178299 0 -0.44184138868315109 -0.20247798044170351 0 -0.42032122747045741 -0.1927313373696285 0 -0.42072544033761272 -0.20369927590475301 0 -0.42512182626149492 -0.2033095177213731 0 -0.42549584187692119 -0.17333418479170171 0 -0.43099962817645188 -0.18319011649723049 0 -0.41834400919125792 -0.18158621355319651 0 -0.42032122747045741 -0.1927313373696285 0 -0.43099962817645188 -0.18319011649723049 0 -0.41834400919125792 -0.18158621355319651 0 -0.43099962817645188 -0.18319011649723049 0 -0.43495901877196291 -0.17485617288990979 0 -0.44455133712372419 -0.18300714728765441 0 -0.42549584187692119 -0.17333418479170171 0 -0.43099962817645188 -0.18319011649723049 0 -0.43495901877196291 -0.17485617288990979 0 -0.42549584187692119 -0.17333418479170171 0 -0.43495901877196291 -0.17485617288990979 0 -0.43155613508544272 -0.1669321437644439 0 -0.43495901877196291 -0.17485617288990979 0 -0.43155613508544272 -0.1669321437644439 0 -0.44219215159727421 -0.16781727210851849 0 -0.43155613508544272 -0.1669321437644439 0 -0.43166640735559808 -0.1552039120346444 0 -0.44219215159727421 -0.16781727210851849 0 -0.43155613508544272 -0.1669321437644439 0 -0.4214232379976206 -0.16216052115063159 0 -0.43166640735559808 -0.1552039120346444 0 -0.42549584187692119 -0.17333418479170171 0 -0.43155613508544272 -0.1669321437644439 0 -0.4214232379976206 -0.16216052115063159 0 -0.42549584187692119 -0.17333418479170171 0 -0.4214232379976206 -0.16216052115063159 0 -0.41110577652129249 -0.1670682470007229 0 -0.4214232379976206 -0.16216052115063159 0 -0.41110577652129249 -0.1670682470007229 0 -0.40669002996807779 -0.1495058137550834 0 -0.41110577652129249 -0.1670682470007229 0 -0.41834400919125792 -0.18158621355319651 0 -0.40730162077548249 -0.18407395049314179 0 -0.42549584187692119 -0.17333418479170171 0 -0.41110577652129249 -0.1670682470007229 0 -0.41834400919125792 -0.18158621355319651 0 -0.42032122747045741 -0.1927313373696285 0 -0.41834400919125792 -0.18158621355319651 0 -0.40730162077548249 -0.18407395049314179 0 -0.39543971762078378 -0.19194216334420211 0 -0.40730162077548249 -0.18407395049314179 0 -0.39267839793348491 -0.17927693187167279 0 -0.40730162077548249 -0.18407395049314179 0 -0.39267839793348491 -0.17927693187167279 0 -0.39387780121335469 -0.16444862508152899 0 -0.40730162077548249 -0.18407395049314179 0 -0.39387780121335469 -0.16444862508152899 0 -0.37378547386561772 -0.17392500984250869 0 -0.36895563931783232 -0.19259611207654981 0 -0.3831693110633177 -0.1873742460103984 0 -0.37378547386561772 -0.17392500984250869 0 -0.39267839793348491 -0.17927693187167279 0 -0.3831693110633177 -0.1873742460103984 0 -0.37378547386561772 -0.17392500984250869 0 -0.39267839793348491 -0.17927693187167279 0 -0.39387780121335469 -0.16444862508152899 0 -0.39543971762078378 -0.19194216334420211 0 -0.39267839793348491 -0.17927693187167279 0 -0.3831693110633177 -0.1873742460103984 0 -0.37378547386561772 -0.17392500984250869 0 -0.37839901512320262 -0.15996290040625341 0 -0.39387780121335469 -0.16444862508152899 0 -0.37839901512320262 -0.15996290040625341 0 -0.39387780121335469 -0.16444862508152899 0 -0.3804539816512269 -0.14482329966991631 0 -0.41110577652129249 -0.1670682470007229 0 -0.39387780121335469 -0.16444862508152899 0 -0.40669002996807779 -0.1495058137550834 0 -0.41110577652129249 -0.1670682470007229 0 -0.40730162077548249 -0.18407395049314179 0 -0.39387780121335469 -0.16444862508152899 0 -0.39387780121335469 -0.16444862508152899 0 -0.3804539816512269 -0.14482329966991631 0 -0.40669002996807779 -0.1495058137550834 0 -0.3804539816512269 -0.14482329966991631 0 -0.39647179587780151 -0.13189450107720049 0 -0.40669002996807779 -0.1495058137550834 0 -0.3804539816512269 -0.14482329966991631 0 -0.40669002996807779 -0.1495058137550834 0 -0.39387780121335469 -0.16444862508152899 0 -0.3804539816512269 -0.14482329966991631 0 -0.3804539816512269 -0.14482329966991631 0 -0.38278168804071749 -0.12940228238898679 0 -0.39647179587780151 -0.13189450107720049 0 -0.3804539816512269 -0.14482329966991631 0 -0.39647179587780151 -0.13189450107720049 0 -0.37212838853434238 -0.11808059788504249 0 -0.37028068739271691 -0.13083580994494901 0 -0.38278168804071749 -0.12940228238898679 0 -0.37028068739271691 -0.13083580994494901 0 -0.3804539816512269 -0.14482329966991631 0 -0.38278168804071749 -0.12940228238898679 0 -0.38278168804071749 -0.12940228238898679 0 -0.39647179587780151 -0.13189450107720049 0 -0.39044023874876249 -0.11757149150947201 0 -0.39647179587780151 -0.13189450107720049 0 -0.40828286160401828 -0.1310364195873514 0 -0.40669002996807779 -0.1495058137550834 0 -0.39647179587780151 -0.13189450107720049 0 -0.40828286160401828 -0.1310364195873514 0 -0.41122993917504558 -0.1199812866788818 0 -0.39647179587780151 -0.13189450107720049 0 -0.41122993917504558 -0.1199812866788818 0 -0.40828286160401828 -0.1310364195873514 0 -0.41930562378398423 -0.12797048681614909 0 -0.41122993917504558 -0.1199812866788818 0 -0.41930562378398423 -0.12797048681614909 0 -0.41533589961201212 -0.13938201891822019 0 -0.4273858072007774 -0.14414008567558009 0 -0.40828286160401828 -0.1310364195873514 0 -0.41533589961201212 -0.13938201891822019 0 -0.40669002996807779 -0.1495058137550834 0 -0.40828286160401828 -0.1310364195873514 0 -0.41930562378398423 -0.12797048681614909 0 -0.41533589961201212 -0.13938201891822019 0 -0.40669002996807779 -0.1495058137550834 0 -0.43166640735559808 -0.1552039120346444 0 -0.4214232379976206 -0.16216052115063159 0 -0.40669002996807779 -0.1495058137550834 0 -0.43166640735559808 -0.1552039120346444 0 -0.41533589961201212 -0.13938201891822019 0 -0.40669002996807779 -0.1495058137550834 0 -0.4273858072007774 -0.14414008567558009 0 -0.40669002996807779 -0.1495058137550834 0 -0.4273858072007774 -0.14414008567558009 0 -0.43166640735559808 -0.1552039120346444 0 -0.43166640735559808 -0.1552039120346444 0 -0.43525592456887258 -0.14374997194848471 0 -0.44410307239699631 -0.15282998285397989 0 -0.4273858072007774 -0.14414008567558009 0 -0.43166640735559808 -0.1552039120346444 0 -0.43525592456887258 -0.14374997194848471 0 -0.41930562378398423 -0.12797048681614909 0 -0.43525592456887258 -0.14374997194848471 0 -0.41930562378398423 -0.12797048681614909 0 -0.4273858072007774 -0.14414008567558009 0 -0.43525592456887258 -0.14374997194848471 0 -0.41930562378398423 -0.12797048681614909 0 -0.4273858072007774 -0.14414008567558009 0 -0.41930562378398423 -0.12797048681614909 0 -0.43525592456887258 -0.14374997194848471 0 -0.43389101300267191 -0.13422730327376839 0 -0.41930562378398423 -0.12797048681614909 0 -0.43389101300267191 -0.13422730327376839 0 -0.4149348530849476 -0.1169905694289516 0 -0.43389101300267191 -0.13422730327376839 0 -0.4149348530849476 -0.1169905694289516 0 -0.43389101300267191 -0.13422730327376839 0 -0.43160182387889101 -0.1187955019330571 0 -0.44085253015216358 -0.1237950587173612 0 -0.43389101300267191 -0.13422730327376839 0 -0.44872577578551592 -0.13320174295465559 0 -0.452847172920396 -0.1514640371185853 0 -0.44872577578551592 -0.13320174295465559 0 -0.45896755277767909 -0.12575633132281341 0 -0.45000974795797011 -0.119430952696417 0 -0.44872577578551592 -0.13320174295465559 0 -0.45000974795797011 -0.119430952696417 0 -0.44085253015216358 -0.1237950587173612 0 -0.43389101300267191 -0.13422730327376839 0 -0.44872577578551592 -0.13320174295465559 0 -0.44085253015216358 -0.1237950587173612 0 -0.43525592456887258 -0.14374997194848471 0 -0.43389101300267191 -0.13422730327376839 0 -0.452847172920396 -0.1514640371185853 0 -0.43525592456887258 -0.14374997194848471 0 -0.44410307239699631 -0.15282998285397989 0 -0.452847172920396 -0.1514640371185853 0 -0.44872577578551592 -0.13320174295465559 0 -0.452847172920396 -0.1514640371185853 0 -0.456386085566235 -0.14096643446963419 0 -0.43389101300267191 -0.13422730327376839 0 -0.452847172920396 -0.1514640371185853 0 -0.44410307239699631 -0.15282998285397989 0 -0.452847172920396 -0.1514640371185853 0 -0.45664278474311831 -0.16090201031420531 0 -0.452847172920396 -0.1514640371185853 0 -0.456386085566235 -0.14096643446963419 0 -0.46738274896045578 -0.15003021006820461 0 -0.452847172920396 -0.1514640371185853 0 -0.46738274896045578 -0.15003021006820461 0 -0.45664278474311831 -0.16090201031420531 0 -0.456386085566235 -0.14096643446963419 0 -0.46738274896045578 -0.15003021006820461 0 -0.47200539146090159 -0.13839174763128981 0 -0.456386085566235 -0.14096643446963419 0 -0.47200539146090159 -0.13839174763128981 0 -0.47750202174635031 -0.1215216316744509 0 -0.456386085566235 -0.14096643446963419 0 -0.45896755277767909 -0.12575633132281341 0 -0.47750202174635031 -0.1215216316744509 0 -0.456386085566235 -0.14096643446963419 0 -0.47750202174635031 -0.1215216316744509 0 -0.44872577578551592 -0.13320174295465559 0 -0.456386085566235 -0.14096643446963419 0 -0.45896755277767909 -0.12575633132281341 0 -0.47200539146090159 -0.13839174763128981 0 -0.48675070957056549 -0.14104871431286931 0 -0.47750202174635031 -0.1215216316744509 0 -0.50000000000000011 -0.12648838757554831 0 -0.48675070957056549 -0.14104871431286931 0 -0.5 -0.15043640832747529 0 -0.50000000000000011 -0.12648838757554831 0 -0.48675070957056549 -0.14104871431286931 0 -0.47750202174635031 -0.1215216316744509 0 -0.48675070957056549 -0.14104871431286931 0 -0.5 -0.15043640832747529 0 -0.48062174440056549 -0.15969986187448909 0 -0.46738274896045578 -0.15003021006820461 0 -0.47200539146090159 -0.13839174763128981 0 -0.48675070957056549 -0.14104871431286931 0 -0.48675070957056549 -0.14104871431286931 0 -0.48062174440056549 -0.15969986187448909 0 -0.46738274896045578 -0.15003021006820461 0 -0.48675070957056549 -0.14104871431286931 0 -0.48062174440056549 -0.15969986187448909 0 -0.48062174440056549 -0.15969986187448909 0 -0.46548313673471758 -0.16971310035941381 0 -0.46753260370971428 -0.1600862956540782 0 -0.46738274896045578 -0.15003021006820461 0 -0.48062174440056549 -0.15969986187448909 0 -0.46753260370971428 -0.1600862956540782 0 -0.48062174440056549 -0.15969986187448909 0 -0.47449277923056221 -0.17835100943610771 0 -0.46548313673471758 -0.16971310035941381 0 -0.48062174440056549 -0.15969986187448909 0 -0.47449277923056221 -0.17835100943610771 0 -0.5 -0.15043640832747529 0 -0.48062174440056549 -0.15969986187448909 0 -0.49999999999999828 -0.17438442907940241 0 -0.48062174440056549 -0.15969986187448909 0 -0.49999999999999828 -0.17438442907940241 0 -0.47449277923056221 -0.17835100943610771 0 -0.49999999999999828 -0.17438442907940241 0 -0.47449277923056221 -0.17835100943610771 0 -0.49999999999999828 -0.17438442907940241 0 -0.47449277923056221 -0.17835100943610771 0 -0.48549376880548989 -0.19132810400505559 0 -0.47449277923056221 -0.17835100943610771 0 -0.46892716456320649 -0.19528781647494389 0 -0.47449277923056221 -0.17835100943610771 0 -0.45952205817714309 -0.18067907836188021 0 -0.46892716456320649 -0.19528781647494389 0 -0.45952205817714309 -0.18067907836188021 0 -0.46548313673471758 -0.16971310035941381 0 -0.45289664290439807 -0.17180374819378549 0 -0.47449277923056221 -0.17835100943610771 0 -0.45952205817714309 -0.18067907836188021 0 -0.47449277923056221 -0.17835100943610771 0 -0.45952205817714309 -0.18067907836188021 0 -0.46548313673471758 -0.16971310035941381 0 -0.46548313673471758 -0.16971310035941381 0 -0.46753260370971428 -0.1600862956540782 0 -0.45664278474311831 -0.16090201031420531 0 -0.46738274896045578 -0.15003021006820461 0 -0.46753260370971428 -0.1600862956540782 0 -0.45664278474311831 -0.16090201031420531 0 -0.46548313673471758 -0.16971310035941381 0 -0.45664278474311831 -0.16090201031420531 0 -0.45289664290439807 -0.17180374819378549 0 -0.45664278474311831 -0.16090201031420531 0 -0.45289664290439807 -0.17180374819378549 0 -0.44219215159727421 -0.16781727210851849 0 -0.43166640735559808 -0.1552039120346444 0 -0.45664278474311831 -0.16090201031420531 0 -0.44219215159727421 -0.16781727210851849 0 -0.43166640735559808 -0.1552039120346444 0 -0.45664278474311831 -0.16090201031420531 0 -0.43166640735559808 -0.1552039120346444 0 -0.44410307239699631 -0.15282998285397989 0 -0.45664278474311831 -0.16090201031420531 0 -0.43495901877196291 -0.17485617288990979 0 -0.44219215159727421 -0.16781727210851849 0 -0.44455133712372419 -0.18300714728765441 0 -0.43099962817645188 -0.18319011649723049 0 -0.44455133712372419 -0.18300714728765441 0 -0.43833565968517207 -0.19112957676178299 0 -0.45952205817714309 -0.18067907836188021 0 -0.44455133712372419 -0.18300714728765441 0 -0.45396471697207569 -0.194241302212698 0 -0.45952205817714309 -0.18067907836188021 0 -0.44455133712372419 -0.18300714728765441 0 -0.45952205817714309 -0.18067907836188021 0 -0.45289664290439807 -0.17180374819378549 0 -0.44455133712372419 -0.18300714728765441 0 -0.45289664290439807 -0.17180374819378549 0 -0.44219215159727421 -0.16781727210851849 0 -0.44455133712372419 -0.18300714728765441 0 -0.44455133712372419 -0.18300714728765441 0 -0.43833565968517207 -0.19112957676178299 0 -0.45396471697207569 -0.194241302212698 0 -0.43833565968517207 -0.19112957676178299 0 -0.44184138868315109 -0.20247798044170351 0 -0.45396471697207569 -0.194241302212698 0 -0.44184138868315109 -0.20247798044170351 0 -0.46336154989584488 -0.2122246235137781 0 -0.45396471697207569 -0.194241302212698 0 -0.44184138868315109 -0.20247798044170351 0 -0.46336154989584488 -0.2122246235137781 0 -0.45338394269579491 -0.2190794284651259 0 -0.43378961613155448 -0.20908682079381441 0 -0.44184138868315109 -0.20247798044170351 0 -0.44166379455333399 -0.21604972156869759 0 -0.44184138868315109 -0.20247798044170351 0 -0.44166379455333399 -0.21604972156869759 0 -0.45338394269579491 -0.2190794284651259 0 -0.44184138868315109 -0.20247798044170351 0 -0.46336154989584488 -0.2122246235137781 0 -0.46336154989584488 -0.2122246235137781 0 -0.46892716456320649 -0.19528781647494389 0 -0.46336154989584488 -0.2122246235137781 0 -0.45396471697207569 -0.194241302212698 0 -0.46892716456320649 -0.19528781647494389 0 -0.45952205817714309 -0.18067907836188021 0 -0.45396471697207569 -0.194241302212698 0 -0.46892716456320649 -0.19528781647494389 0 -0.47449277923056221 -0.17835100943610771 0 -0.46892716456320649 -0.19528781647494389 0 -0.48549376880548989 -0.19132810400505559 0 -0.46892716456320649 -0.19528781647494389 0 -0.48549376880548989 -0.19132810400505559 0 -0.47978640147694102 -0.20418872613165631 0 -0.5 -0.20182215567114031 0 -0.48549376880548989 -0.19132810400505559 0 -0.47978640147694102 -0.20418872613165631 0 -0.49999999999999828 -0.17438442907940241 0 -0.5 -0.20182215567114031 0 -0.48549376880548989 -0.19132810400505559 0 -0.5 -0.20182215567114031 0 -0.48114952412016337 -0.22028093099336349 0 -0.49893749834448198 -0.22833723847294871 0 -0.5 -0.20182215567114031 0 -0.47978640147694102 -0.20418872613165631 0 -0.48114952412016337 -0.22028093099336349 0 -0.46336154989584488 -0.2122246235137781 0 -0.48114952412016337 -0.22028093099336349 0 -0.46336154989584488 -0.2122246235137781 0 -0.47978640147694102 -0.20418872613165631 0 -0.48114952412016337 -0.22028093099336349 0 -0.46336154989584488 -0.2122246235137781 0 -0.46892716456320649 -0.19528781647494389 0 -0.47978640147694102 -0.20418872613165631 0 -0.46336154989584488 -0.2122246235137781 0 -0.48114952412016337 -0.22028093099336349 0 -0.46857810181099829 -0.22486784275082261 0 -0.48114952412016337 -0.22028093099336349 0 -0.48798868478634799 -0.231470988200419 0 -0.47142395938804471 -0.23802335247430181 0 -0.48114952412016337 -0.22028093099336349 0 -0.47142395938804471 -0.23802335247430181 0 -0.46857810181099829 -0.22486784275082261 0 -0.48114952412016337 -0.22028093099336349 0 -0.48798868478634799 -0.231470988200419 0 -0.49893749834448198 -0.22833723847294871 0 -0.48114952412016337 -0.22028093099336349 0 -0.49893749834448198 -0.22833723847294871 0 -0.48798868478634799 -0.231470988200419 0 -0.49893749834448198 -0.22833723847294871 0 -0.4875835208682564 -0.24248539692068891 0 -0.5 -0.25669760885461612 0 -0.49893749834448198 -0.22833723847294871 0 -0.4875835208682564 -0.24248539692068891 0 -0.48798868478634799 -0.231470988200419 0 -0.4875835208682564 -0.24248539692068891 0 -0.47142395938804471 -0.23802335247430181 0 -0.47878778985378329 -0.25835102983948688 0 -0.4875835208682564 -0.24248539692068891 0 -0.47142395938804471 -0.23802335247430181 0 -0.45662330498375908 -0.25656877445722759 0 -0.47142395938804471 -0.23802335247430181 0 -0.45034617445999431 -0.24335722649563979 0 -0.47142395938804471 -0.23802335247430181 0 -0.45735065046854989 -0.23051648340969341 0 -0.45034617445999431 -0.24335722649563979 0 -0.46336154989584488 -0.2122246235137781 0 -0.46857810181099829 -0.22486784275082261 0 -0.45735065046854989 -0.23051648340969341 0 -0.46336154989584488 -0.2122246235137781 0 -0.45735065046854989 -0.23051648340969341 0 -0.47142395938804471 -0.23802335247430181 0 -0.46857810181099829 -0.22486784275082261 0 -0.45735065046854989 -0.23051648340969341 0 -0.46336154989584488 -0.2122246235137781 0 -0.45338394269579491 -0.2190794284651259 0 -0.45735065046854989 -0.23051648340969341 0 -0.45338394269579491 -0.2190794284651259 0 -0.45735065046854989 -0.23051648340969341 0 -0.43806130733353449 -0.23541812032183559 0 -0.44166379455333399 -0.21604972156869759 0 -0.43806130733353449 -0.23541812032183559 0 -0.44166379455333399 -0.21604972156869759 0 -0.45338394269579491 -0.2190794284651259 0 -0.43806130733353449 -0.23541812032183559 0 -0.45735065046854989 -0.23051648340969341 0 -0.45034617445999431 -0.24335722649563979 0 -0.43806130733353449 -0.23541812032183559 0 -0.43445882011373449 -0.25478651907497341 0 -0.45034617445999431 -0.24335722649563979 0 -0.43806130733353449 -0.23541812032183559 0 -0.41324955929443102 -0.038374170610562031 0 -0.41005136228565903 -0.05540387285823338 0 -0.42435348212729052 -0.04457483879584373 0 -0.41324955929443102 -0.038374170610562031 0 -0.41005136228565903 -0.05540387285823338 0 -0.39900851660089293 -0.046429079601448257 0 -0.41324955929443102 -0.038374170610562031 0 -0.40747857107326091 -0.02424585309778798 0 -0.40045416304880688 -0.034240371911693122 0 -0.41005136228565903 -0.05540387285823338 0 -0.4246600563061857 -0.059067830999859447 0 -0.41422906440869389 -0.068128229862373102 0 -0.41005136228565903 -0.05540387285823338 0 -0.4246600563061857 -0.059067830999859447 0 -0.42435348212729052 -0.04457483879584373 0 -0.4246600563061857 -0.059067830999859447 0 -0.42435348212729052 -0.04457483879584373 0 -0.43957367317472601 -0.045089571971719818 0 -0.4246600563061857 -0.059067830999859447 0 -0.43957367317472601 -0.045089571971719818 0 -0.44544580640037118 -0.056213229689383748 0 -0.41324955929443102 -0.038374170610562031 0 -0.42435348212729052 -0.04457483879584373 0 -0.42981912379901888 -0.030443092666165631 0 -0.42435348212729052 -0.04457483879584373 0 -0.42981912379901888 -0.030443092666165631 0 -0.43957367317472601 -0.045089571971719818 0 -0.41302196833726168 -0.01226972299954816 0 -0.4392085005598273 -0.024676348383282701 0 -0.42659341977192161 -0.010103830507352861 0 -0.41302196833726168 -0.01226972299954816 0 -0.4392085005598273 -0.024676348383282701 0 -0.42981912379901888 -0.030443092666165631 0 -0.41673372021425997 -0.022240754673565791 0 -0.4392085005598273 -0.024676348383282701 0 -0.41302196833726168 -0.01226972299954816 0 -0.41673372021425997 -0.022240754673565791 0 -0.4392085005598273 -0.024676348383282701 0 -0.43741768347029059 -0.01288367903972009 0 -0.42659341977192161 -0.010103830507352861 0 -0.4392085005598273 -0.024676348383282701 0 -0.4441818909265971 -0.00998157505946092 0 -0.42578104856505677 0.0031949168855625672 0 -0.43741768347029059 -0.01288367903972009 0 -0.4441818909265971 -0.00998157505946092 0 -0.42578104856505677 0.0031949168855625672 0 -0.43741768347029059 -0.01288367903972009 0 -0.42659341977192161 -0.010103830507352861 0 -0.42578104856505677 0.0031949168855625672 0 -0.43741768347029059 -0.01288367903972009 0 -0.42578104856505677 0.0031949168855625672 0 -0.42659341977192161 -0.010103830507352861 0 -0.41753789792717189 -0.0038843189997757009 0 -0.42578104856505677 0.0031949168855625672 0 -0.42659341977192161 -0.010103830507352861 0 -0.41753789792717189 -0.0038843189997757009 0 -0.41302196833726168 -0.01226972299954816 0 -0.41753789792717189 -0.0038843189997757009 0 -0.41302196833726168 -0.01226972299954816 0 -0.40771050441737638 -0.0035262849216432719 0 -0.41753789792717189 -0.0038843189997757009 0 -0.40771050441737638 -0.0035262849216432719 0 -0.41105156913745711 0.0034129409419674369 0 -0.42981912379901888 -0.030443092666165631 0 -0.40747857107326091 -0.02424585309778798 0 -0.41324955929443102 -0.038374170610562031 0 -0.42981912379901888 -0.030443092666165631 0 -0.40747857107326091 -0.02424585309778798 0 -0.42981912379901888 -0.030443092666165631 0 -0.41673372021425997 -0.022240754673565791 0 -0.40747857107326091 -0.02424585309778798 0 -0.41302196833726168 -0.01226972299954816 0 -0.41673372021425997 -0.022240754673565791 0 -0.40747857107326091 -0.02424585309778798 0 -0.41673372021425997 -0.022240754673565791 0 -0.40747857107326091 -0.02424585309778798 0 -0.40747857107326091 -0.02424585309778798 0 -0.38992317137517202 -0.02804917422583518 0 -0.40747857107326091 -0.02424585309778798 0 -0.38992317137517202 -0.02804917422583518 0 -0.38297625517291389 -0.017448943304264108 0 -0.40747857107326091 -0.02424585309778798 0 -0.38992317137517202 -0.02804917422583518 0 -0.40045416304880688 -0.034240371911693122 0 -0.40747857107326091 -0.02424585309778798 0 -0.39567459441968961 -0.012635194689989219 0 -0.38297625517291389 -0.017448943304264108 0 -0.40747857107326091 -0.02424585309778798 0 -0.38297625517291389 -0.017448943304264108 0 -0.41302196833726168 -0.01226972299954816 0 -0.40747857107326091 -0.02424585309778798 0 -0.39567459441968961 -0.012635194689989219 0 -0.41302196833726168 -0.01226972299954816 0 -0.40771050441737638 -0.0035262849216432719 0 -0.38683543611469601 0.0001369023841863784 0 -0.41302196833726168 -0.01226972299954816 0 -0.39567459441968961 -0.012635194689989219 0 -0.38683543611469601 0.0001369023841863784 0 -0.41302196833726168 -0.01226972299954816 0 -0.38683543611469601 0.0001369023841863784 0 -0.40771050441737638 -0.0035262849216432719 0 -0.38683543611469601 0.0001369023841863784 0 -0.40226596945639398 0.0014711925349297271 0 -0.39567459441968961 -0.012635194689989219 0 -0.38502252263107412 -0.0084426060797158468 0 -0.38683543611469601 0.0001369023841863784 0 -0.39567459441968961 -0.012635194689989219 0 -0.38502252263107412 -0.0084426060797158468 0 -0.38297625517291389 -0.017448943304264108 0 -0.38502252263107412 -0.0084426060797158468 0 -0.38009964520605882 -0.0090403485437739461 0 -0.38297625517291389 -0.017448943304264108 0 -0.37278444596104371 -0.0079457960458173115 0 -0.38009964520605882 -0.0090403485437739461 0 -0.38297625517291389 -0.017448943304264108 0 -0.37474494217865062 -0.0022388935110706832 0 -0.38502252263107412 -0.0084426060797158468 0 -0.38683543611469601 0.0001369023841863784 0 -0.37474494217865062 -0.0022388935110706832 0 -0.38502252263107412 -0.0084426060797158468 0 -0.38009964520605882 -0.0090403485437739461 0 -0.37474494217865062 -0.0022388935110706832 0 -0.37278444596104371 -0.0079457960458173115 0 -0.38009964520605882 -0.0090403485437739461 0 -0.37236777167708351 -0.031852495353884333 0 -0.38992317137517202 -0.02804917422583518 0 -0.37990921189048049 -0.023302515363219579 0 -0.37236777167708351 -0.031852495353884333 0 -0.38992317137517202 -0.02804917422583518 0 -0.38992317137517202 -0.02804917422583518 0 -0.38297625517291389 -0.017448943304264108 0 -0.37990921189048049 -0.023302515363219579 0 -0.3739022591900184 -0.02415390189740213 0 -0.38297625517291389 -0.017448943304264108 0 -0.37990921189048049 -0.023302515363219579 0 -0.37236777167708351 -0.031852495353884333 0 -0.3739022591900184 -0.02415390189740213 0 -0.37990921189048049 -0.023302515363219579 0 -0.37236777167708351 -0.031852495353884333 0 -0.37990921189048049 -0.023302515363219579 0 -0.38458287424021398 -0.039388642062709187 0 -0.39900851660089293 -0.046429079601448257 0 -0.3815482533063424 -0.052412606119804542 0 -0.37355784227175309 -0.045246792894939887 0 -0.37236777167708351 -0.031852495353884333 0 -0.38458287424021398 -0.039388642062709187 0 -0.37236777167708351 -0.031852495353884333 0 -0.38992317137517202 -0.02804917422583518 0 -0.38458287424021398 -0.039388642062709187 0 -0.37355784227175309 -0.045246792894939887 0 -0.38458287424021398 -0.039388642062709187 0 -0.3815482533063424 -0.052412606119804542 0 -0.38458287424021398 -0.039388642062709187 0 -0.39900851660089293 -0.046429079601448257 0 -0.40045416304880688 -0.034240371911693122 0 -0.38992317137517202 -0.02804917422583518 0 -0.38458287424021398 -0.039388642062709187 0 -0.40045416304880688 -0.034240371911693122 0 -0.41324955929443102 -0.038374170610562031 0 -0.39900851660089293 -0.046429079601448257 0 -0.40045416304880688 -0.034240371911693122 0 -0.39900851660089293 -0.046429079601448257 0 -0.39626447370361728 -0.06091275685647668 0 -0.3815482533063424 -0.052412606119804542 0 -0.41005136228565903 -0.05540387285823338 0 -0.39626447370361728 -0.06091275685647668 0 -0.40517181862379281 -0.066558370858305557 0 -0.41005136228565903 -0.05540387285823338 0 -0.39900851660089293 -0.046429079601448257 0 -0.39626447370361728 -0.06091275685647668 0 -0.36862349457690058 -0.057461967220355487 0 -0.3815482533063424 -0.052412606119804542 0 -0.37947166312044489 -0.067272628224985004 0 -0.3815482533063424 -0.052412606119804542 0 -0.37947166312044489 -0.067272628224985004 0 -0.39260231949431601 -0.074533368335879327 0 -0.36882665317829499 -0.078032107790563188 0 -0.39260231949431601 -0.074533368335879327 0 -0.39626447370361728 -0.06091275685647668 0 -0.3815482533063424 -0.052412606119804542 0 -0.39260231949431601 -0.074533368335879327 0 -0.3815482533063424 -0.052412606119804542 0 -0.39260231949431601 -0.074533368335879327 0 -0.36882665317829499 -0.078032107790563188 0 -0.37947166312044489 -0.067272628224985004 0 -0.39260231949431601 -0.074533368335879327 0 -0.36882665317829499 -0.078032107790563188 0 -0.39260231949431601 -0.074533368335879327 0 -0.39002829617667018 -0.099006697234722524 0 -0.36882665317829499 -0.078032107790563188 0 -0.39002829617667018 -0.099006697234722524 0 -0.37367929427193591 -0.1014825750548952 0 -0.36882665317829499 -0.078032107790563188 0 -0.39002829617667018 -0.099006697234722524 0 -0.39260231949431601 -0.074533368335879327 0 -0.39002829617667018 -0.099006697234722524 0 -0.39510370691593599 -0.098958215311000047 0 -0.39260231949431601 -0.074533368335879327 0 -0.40274583300482147 -0.094831984843681591 0 -0.39260231949431601 -0.074533368335879327 0 -0.39510370691593599 -0.098958215311000047 0 -0.40274583300482147 -0.094831984843681591 0 -0.40361170428446441 -0.083317353290434007 0 -0.39260231949431601 -0.074533368335879327 0 -0.40274583300482147 -0.094831984843681591 0 -0.40361170428446441 -0.083317353290434007 0 -0.39867569396630093 -0.073639632925658519 0 -0.40696916935602839 -0.074517235882718885 0 -0.39867569396630093 -0.073639632925658519 0 -0.40517181862379281 -0.066558370858305557 0 -0.40696916935602839 -0.074517235882718885 0 -0.39626447370361728 -0.06091275685647668 0 -0.39867569396630093 -0.073639632925658519 0 -0.40517181862379281 -0.066558370858305557 0 -0.39626447370361728 -0.06091275685647668 0 -0.39867569396630093 -0.073639632925658519 0 -0.39260231949431601 -0.074533368335879327 0 -0.40361170428446441 -0.083317353290434007 0 -0.39867569396630093 -0.073639632925658519 0 -0.39260231949431601 -0.074533368335879327 0 -0.39867569396630093 -0.073639632925658519 0 -0.39260231949431601 -0.074533368335879327 0 -0.37212838853434238 -0.11808059788504249 0 -0.38278168804071749 -0.12940228238898679 0 -0.39044023874876249 -0.11757149150947201 0 -0.37367929427193591 -0.1014825750548952 0 -0.37212838853434238 -0.11808059788504249 0 -0.39044023874876249 -0.11757149150947201 0 -0.37367929427193591 -0.1014825750548952 0 -0.39044023874876249 -0.11757149150947201 0 -0.39002829617667018 -0.099006697234722524 0 -0.39510370691593599 -0.098958215311000047 0 -0.40274583300482147 -0.094831984843681591 0 -0.41288934651532883 -0.11513060135148299 0 -0.39002829617667018 -0.099006697234722524 0 -0.39510370691593599 -0.098958215311000047 0 -0.41122993917504558 -0.1199812866788818 0 -0.39510370691593599 -0.098958215311000047 0 -0.41288934651532883 -0.11513060135148299 0 -0.39647179587780151 -0.13189450107720049 0 -0.39044023874876249 -0.11757149150947201 0 -0.41122993917504558 -0.1199812866788818 0 -0.39002829617667018 -0.099006697234722524 0 -0.41122993917504558 -0.1199812866788818 0 -0.39044023874876249 -0.11757149150947201 0 -0.39002829617667018 -0.099006697234722524 0 -0.41122993917504558 -0.1199812866788818 0 -0.39510370691593599 -0.098958215311000047 0 -0.41122993917504558 -0.1199812866788818 0 -0.41288934651532883 -0.11513060135148299 0 -0.41930562378398423 -0.12797048681614909 0 -0.41122993917504558 -0.1199812866788818 0 -0.4149348530849476 -0.1169905694289516 0 -0.41930562378398423 -0.12797048681614909 0 -0.41122993917504558 -0.1199812866788818 0 -0.41930562378398423 -0.12797048681614909 0 -0.4149348530849476 -0.1169905694289516 0 -0.41122993917504558 -0.1199812866788818 0 -0.41288934651532883 -0.11513060135148299 0 -0.4149348530849476 -0.1169905694289516 0 -0.41122993917504558 -0.1199812866788818 0 -0.4149348530849476 -0.1169905694289516 0 -0.41288934651532883 -0.11513060135148299 0 -0.4149348530849476 -0.1169905694289516 0 -0.41288934651532883 -0.11513060135148299 0 -0.4149348530849476 -0.1169905694289516 0 -0.41458672172207622 -0.10427776634057311 0 -0.40274583300482147 -0.094831984843681591 0 -0.41288934651532883 -0.11513060135148299 0 -0.4149348530849476 -0.1169905694289516 0 -0.41458672172207622 -0.10427776634057311 0 -0.43059848591229039 -0.1043464168163742 0 -0.40274583300482147 -0.094831984843681591 0 -0.41288934651532883 -0.11513060135148299 0 -0.41458672172207622 -0.10427776634057311 0 -0.41458672172207622 -0.10427776634057311 0 -0.41348552386521947 -0.090840815536544176 0 -0.43025813067654672 -0.08737754853092726 0 -0.40274583300482147 -0.094831984843681591 0 -0.41458672172207622 -0.10427776634057311 0 -0.41348552386521947 -0.090840815536544176 0 -0.43059848591229039 -0.1043464168163742 0 -0.43025813067654672 -0.08737754853092726 0 -0.44626211873963212 -0.091702264203795431 0 -0.41458672172207622 -0.10427776634057311 0 -0.43059848591229039 -0.1043464168163742 0 -0.43025813067654672 -0.08737754853092726 0 -0.41458672172207622 -0.10427776634057311 0 -0.43025813067654672 -0.08737754853092726 0 -0.4149348530849476 -0.1169905694289516 0 -0.43059848591229039 -0.1043464168163742 0 -0.43160182387889101 -0.1187955019330571 0 -0.4149348530849476 -0.1169905694289516 0 -0.43059848591229039 -0.1043464168163742 0 -0.43389101300267191 -0.13422730327376839 0 -0.4149348530849476 -0.1169905694289516 0 -0.43160182387889101 -0.1187955019330571 0 -0.43059848591229039 -0.1043464168163742 0 -0.43160182387889101 -0.1187955019330571 0 -0.44003429013576911 -0.11331979272890801 0 -0.43160182387889101 -0.1187955019330571 0 -0.44085253015216358 -0.1237950587173612 0 -0.44003429013576911 -0.11331979272890801 0 -0.41422906440869389 -0.068128229862373102 0 -0.41539885585273961 -0.080089681603359497 0 -0.42594434486026628 -0.073522222089585226 0 -0.4246600563061857 -0.059067830999859447 0 -0.41422906440869389 -0.068128229862373102 0 -0.42594434486026628 -0.073522222089585226 0 -0.41005136228565903 -0.05540387285823338 0 -0.40517181862379281 -0.066558370858305557 0 -0.41422906440869389 -0.068128229862373102 0 -0.40517181862379281 -0.066558370858305557 0 -0.41422906440869389 -0.068128229862373102 0 -0.40696916935602839 -0.074517235882718885 0 -0.41422906440869389 -0.068128229862373102 0 -0.40696916935602839 -0.074517235882718885 0 -0.41539885585273961 -0.080089681603359497 0 -0.41348552386521947 -0.090840815536544176 0 -0.41539885585273961 -0.080089681603359497 0 -0.43025813067654672 -0.08737754853092726 0 -0.40361170428446441 -0.083317353290434007 0 -0.41348552386521947 -0.090840815536544176 0 -0.41539885585273961 -0.080089681603359497 0 -0.40361170428446441 -0.083317353290434007 0 -0.40696916935602839 -0.074517235882718885 0 -0.41539885585273961 -0.080089681603359497 0 -0.40361170428446441 -0.083317353290434007 0 -0.40274583300482147 -0.094831984843681591 0 -0.41348552386521947 -0.090840815536544176 0 -0.41539885585273961 -0.080089681603359497 0 -0.43025813067654672 -0.08737754853092726 0 -0.42594434486026628 -0.073522222089585226 0 -0.4246600563061857 -0.059067830999859447 0 -0.44592953963101739 -0.07047733072128165 0 -0.43025813067654672 -0.08737754853092726 0 -0.42594434486026628 -0.073522222089585226 0 -0.44592953963101739 -0.07047733072128165 0 -0.4246600563061857 -0.059067830999859447 0 -0.42594434486026628 -0.073522222089585226 0 -0.44592953963101739 -0.07047733072128165 0 -0.44592953963101739 -0.07047733072128165 0 -0.45893666683642192 -0.056450303318209168 0 -0.44592953963101739 -0.07047733072128165 0 -0.44626211873963212 -0.091702264203795431 0 -0.46192575156697407 -0.079058111591217034 0 -0.43025813067654672 -0.08737754853092726 0 -0.44592953963101739 -0.07047733072128165 0 -0.43025813067654672 -0.08737754853092726 0 -0.44592953963101739 -0.07047733072128165 0 -0.44626211873963212 -0.091702264203795431 0 -0.44626211873963212 -0.091702264203795431 0 -0.46631049206888459 -0.091444160656324658 0 -0.46192575156697407 -0.079058111591217034 0 -0.44626211873963212 -0.091702264203795431 0 -0.46192575156697407 -0.079058111591217034 0 -0.46631049206888459 -0.091444160656324658 0 -0.46192575156697407 -0.079058111591217034 0 -0.47702460168979111 -0.087157524427869615 0 -0.44592953963101739 -0.07047733072128165 0 -0.46192575156697407 -0.079058111591217034 0 -0.45893666683642192 -0.056450303318209168 0 -0.46192575156697407 -0.079058111591217034 0 -0.47491389520024407 -0.068573693827893439 0 -0.45893666683642192 -0.056450303318209168 0 -0.46192575156697407 -0.079058111591217034 0 -0.47491389520024407 -0.068573693827893439 0 -0.44592953963101739 -0.07047733072128165 0 -0.46192575156697407 -0.079058111591217034 0 -0.45000974795797011 -0.119430952696417 0 -0.44085253015216358 -0.1237950587173612 0 -0.44003429013576911 -0.11331979272890801 0 -0.45000974795797011 -0.119430952696417 0 -0.44003429013576911 -0.11331979272890801 0 -0.44926481423485548 -0.10476542824413421 0 -0.43059848591229039 -0.1043464168163742 0 -0.44626211873963212 -0.091702264203795431 0 -0.43059848591229039 -0.1043464168163742 0 -0.44626211873963212 -0.091702264203795431 0 -0.44926481423485548 -0.10476542824413421 0 -0.43059848591229039 -0.1043464168163742 0 -0.44003429013576911 -0.11331979272890801 0 -0.44926481423485548 -0.10476542824413421 0 -0.44626211873963212 -0.091702264203795431 0 -0.44926481423485548 -0.10476542824413421 0 -0.46153012095291662 -0.1019472767233552 0 -0.44626211873963212 -0.091702264203795431 0 -0.46631049206888459 -0.091444160656324658 0 -0.46153012095291662 -0.1019472767233552 0 -0.46631049206888459 -0.091444160656324658 0 -0.46153012095291662 -0.1019472767233552 0 -0.4710589232177344 -0.098453604121520433 0 -0.46153012095291662 -0.1019472767233552 0 -0.46221413283232399 -0.11366089481890911 0 -0.47430793409480421 -0.10627177682285049 0 -0.44926481423485548 -0.10476542824413421 0 -0.46153012095291662 -0.1019472767233552 0 -0.46221413283232399 -0.11366089481890911 0 -0.45896755277767909 -0.12575633132281341 0 -0.46221413283232399 -0.11366089481890911 0 -0.47750202174635031 -0.1215216316744509 0 -0.45000974795797011 -0.119430952696417 0 -0.44926481423485548 -0.10476542824413421 0 -0.46221413283232399 -0.11366089481890911 0 -0.45896755277767909 -0.12575633132281341 0 -0.45000974795797011 -0.119430952696417 0 -0.46221413283232399 -0.11366089481890911 0 -0.47750202174635031 -0.1215216316744509 0 -0.47430793409480421 -0.10627177682285049 0 -0.48673501487359588 -0.1010237797652184 0 -0.46221413283232399 -0.11366089481890911 0 -0.47750202174635031 -0.1215216316744509 0 -0.47430793409480421 -0.10627177682285049 0 -0.47430793409480421 -0.10627177682285049 0 -0.47745372589702628 -0.099742000537211661 0 -0.48673501487359588 -0.1010237797652184 0 -0.46153012095291662 -0.1019472767233552 0 -0.47430793409480421 -0.10627177682285049 0 -0.4710589232177344 -0.098453604121520433 0 -0.46631049206888459 -0.091444160656324658 0 -0.4710589232177344 -0.098453604121520433 0 -0.47771303140197108 -0.093218841439257433 0 -0.47430793409480421 -0.10627177682285049 0 -0.4710589232177344 -0.098453604121520433 0 -0.47745372589702628 -0.099742000537211661 0 -0.4710589232177344 -0.098453604121520433 0 -0.47745372589702628 -0.099742000537211661 0 -0.47771303140197108 -0.093218841439257433 0 -0.47745372589702628 -0.099742000537211661 0 -0.48673501487359588 -0.1010237797652184 0 -0.47771303140197108 -0.093218841439257433 0 -0.48673501487359588 -0.1010237797652184 0 -0.47771303140197108 -0.093218841439257433 0 -0.47702460168979111 -0.087157524427869615 0 -0.47750202174635031 -0.1215216316744509 0 -0.48673501487359588 -0.1010237797652184 0 -0.4986179579264654 -0.1020768288792674 0 -0.48673501487359588 -0.1010237797652184 0 -0.49842317329231273 -0.098636270432611556 0 -0.47702460168979111 -0.087157524427869615 0 -0.48673501487359588 -0.1010237797652184 0 -0.49842317329231273 -0.098636270432611556 0 -0.4986179579264654 -0.1020768288792674 0 -0.49999999999999939 -0.099482120969144883 0 -0.49842317329231273 -0.098636270432611556 0 -0.4986179579264654 -0.1020768288792674 0 -0.49842317329231273 -0.098636270432611556 0 -0.4986179579264654 -0.1020768288792674 0 -0.49999999999999939 -0.099482120969144883 0 -0.49842317329231273 -0.098636270432611556 0 -0.50000000000000011 -0.12648838757554831 0 -0.47750202174635031 -0.1215216316744509 0 -0.4986179579264654 -0.1020768288792674 0 -0.47750202174635031 -0.1215216316744509 0 -0.4986179579264654 -0.1020768288792674 0 -0.47491389520024407 -0.068573693827893439 0 -0.47702460168979111 -0.087157524427869615 0 -0.4847984782487687 -0.075944598732494498 0 -0.47491389520024407 -0.068573693827893439 0 -0.47702460168979111 -0.087157524427869615 0 -0.47967839073812912 -0.064727650616396362 0 -0.4847984782487687 -0.075944598732494498 0 -0.48794163871831331 -0.064119883023254248 0 -0.47967839073812912 -0.064727650616396362 0 -0.47491389520024407 -0.068573693827893439 0 -0.4847984782487687 -0.075944598732494498 0 -0.47967839073812912 -0.064727650616396362 0 -0.47491389520024407 -0.068573693827893439 0 -0.46192575156697407 -0.079058111591217034 0 -0.47702460168979111 -0.087157524427869615 0 -0.46192575156697407 -0.079058111591217034 0 -0.47491389520024407 -0.068573693827893439 0 -0.47702460168979111 -0.087157524427869615 0 -0.46631049206888459 -0.091444160656324658 0 -0.47771303140197108 -0.093218841439257433 0 -0.47702460168979111 -0.087157524427869615 0 -0.47771303140197108 -0.093218841439257433 0 -0.47702460168979111 -0.087157524427869615 0 -0.49842317329231273 -0.098636270432611556 0 -0.49712708577170861 -0.075742961183477536 0 -0.4847984782487687 -0.075944598732494498 0 -0.49999999999999939 -0.099482120969144883 0 -0.49842317329231273 -0.098636270432611556 0 -0.5 -0.078030389970551228 0 -0.49842317329231273 -0.098636270432611556 0 -0.49712708577170861 -0.075742961183477536 0 -0.49842317329231273 -0.098636270432611556 0 -0.5 -0.078030389970551228 0 -0.49712708577170861 -0.075742961183477536 0 -0.49842317329231273 -0.098636270432611556 0 -0.47702460168979111 -0.087157524427869615 0 -0.4847984782487687 -0.075944598732494498 0 -0.49842317329231273 -0.098636270432611556 0 -0.47702460168979111 -0.087157524427869615 0 -0.5 -0.078030389970551228 0 -0.49712708577170861 -0.075742961183477536 0 -0.49999999999999928 -0.056578658971957581 0 -0.49712708577170861 -0.075742961183477536 0 -0.49583099825110311 -0.052849651934343489 0 -0.49712708577170861 -0.075742961183477536 0 -0.48794163871831331 -0.064119883023254248 0 -0.49583099825110311 -0.052849651934343489 0 -0.49712708577170861 -0.075742961183477536 0 -0.4847984782487687 -0.075944598732494498 0 -0.48794163871831331 -0.064119883023254248 0 -0.49712708577170861 -0.075742961183477536 0 -0.49999999999999928 -0.056578658971957581 0 -0.49583099825110311 -0.052849651934343489 0 -0.49583099825110311 -0.052849651934343489 0 -0.47748890114140963 -0.036443372127734748 0 -0.48227324058185622 -0.051334552649559453 0 -0.49999999999999928 -0.056578658971957581 0 -0.49583099825110311 -0.052849651934343489 0 -0.49999999999999928 -0.056578658971957581 0 -0.50000000000000144 -0.053559852644015388 0 -0.49583099825110311 -0.052849651934343489 0 -0.48794163871831331 -0.064119883023254248 0 -0.49583099825110311 -0.052849651934343489 0 -0.48227324058185622 -0.051334552649559453 0 -0.50000000000000144 -0.053559852644015388 0 -0.49583099825110311 -0.052849651934343489 0 -0.48598145264485831 -0.02728491224803695 0 -0.49583099825110311 -0.052849651934343489 0 -0.47748890114140963 -0.036443372127734748 0 -0.48598145264485831 -0.02728491224803695 0 -0.50000000000000144 -0.053559852644015388 0 -0.48598145264485831 -0.02728491224803695 0 -0.50000000000000144 -0.053559852644015388 0 -0.48598145264485831 -0.02728491224803695 0 -0.5 -0.025161366008633609 0 -0.49583099825110311 -0.052849651934343489 0 -0.47748890114140963 -0.036443372127734748 0 -0.47748890114140963 -0.036443372127734748 0 -0.48598145264485831 -0.02728491224803695 0 -0.47748890114140963 -0.036443372127734748 0 -0.47194379404182718 -0.042423275915137587 0 -0.48227324058185622 -0.051334552649559453 0 -0.47748890114140963 -0.036443372127734748 0 -0.47194379404182718 -0.042423275915137587 0 -0.47748890114140963 -0.036443372127734748 0 -0.47194379404182718 -0.042423275915137587 0 -0.47056077858213702 -0.03024644074295027 0 -0.47194379404182718 -0.042423275915137587 0 -0.46539503278239303 -0.037082973767017267 0 -0.47056077858213702 -0.03024644074295027 0 -0.47194379404182718 -0.042423275915137587 0 -0.47056077858213702 -0.03024644074295027 0 -0.47748890114140963 -0.036443372127734748 0 -0.47056077858213702 -0.03024644074295027 0 -0.47748890114140963 -0.036443372127734748 0 -0.47056077858213702 -0.03024644074295027 0 -0.47745882259212458 -0.028728106929589409 0 -0.47967839073812912 -0.064727650616396362 0 -0.47491389520024407 -0.068573693827893439 0 -0.47194379404182718 -0.042423275915137587 0 -0.47967839073812912 -0.064727650616396362 0 -0.47194379404182718 -0.042423275915137587 0 -0.48227324058185622 -0.051334552649559453 0 -0.47491389520024407 -0.068573693827893439 0 -0.47194379404182718 -0.042423275915137587 0 -0.47967839073812912 -0.064727650616396362 0 -0.48794163871831331 -0.064119883023254248 0 -0.48227324058185622 -0.051334552649559453 0 -0.47491389520024407 -0.068573693827893439 0 -0.47194379404182718 -0.042423275915137587 0 -0.45893666683642192 -0.056450303318209168 0 -0.45893666683642192 -0.056450303318209168 0 -0.45743491846808387 -0.04563500224908737 0 -0.44544580640037118 -0.056213229689383748 0 -0.47194379404182718 -0.042423275915137587 0 -0.45893666683642192 -0.056450303318209168 0 -0.45743491846808387 -0.04563500224908737 0 -0.47194379404182718 -0.042423275915137587 0 -0.45893666683642192 -0.056450303318209168 0 -0.46539503278239303 -0.037082973767017267 0 -0.44890774518284438 -0.02927164544362729 0 -0.46539503278239303 -0.037082973767017267 0 -0.45215967652477718 -0.036640332234541717 0 -0.44890774518284438 -0.02927164544362729 0 -0.46539503278239303 -0.037082973767017267 0 -0.44890774518284438 -0.02927164544362729 0 -0.46189821575704781 -0.02986243911986371 0 -0.47194379404182718 -0.042423275915137587 0 -0.46539503278239303 -0.037082973767017267 0 -0.45743491846808387 -0.04563500224908737 0 -0.46539503278239303 -0.037082973767017267 0 -0.46189821575704781 -0.02986243911986371 0 -0.47056077858213702 -0.03024644074295027 0 -0.46539503278239303 -0.037082973767017267 0 -0.45743491846808387 -0.04563500224908737 0 -0.45215967652477718 -0.036640332234541717 0 -0.42981912379901888 -0.030443092666165631 0 -0.45215967652477718 -0.036640332234541717 0 -0.45743491846808387 -0.04563500224908737 0 -0.45215967652477718 -0.036640332234541717 0 -0.43957367317472601 -0.045089571971719818 0 -0.42981912379901888 -0.030443092666165631 0 -0.45215967652477718 -0.036640332234541717 0 -0.43957367317472601 -0.045089571971719818 0 -0.45743491846808387 -0.04563500224908737 0 -0.43957367317472601 -0.045089571971719818 0 -0.44544580640037118 -0.056213229689383748 0 -0.4246600563061857 -0.059067830999859447 0 -0.44592953963101739 -0.07047733072128165 0 -0.44544580640037118 -0.056213229689383748 0 -0.44592953963101739 -0.07047733072128165 0 -0.45893666683642192 -0.056450303318209168 0 -0.44544580640037118 -0.056213229689383748 0 -0.4441818909265971 -0.00998157505946092 0 -0.45588653083934588 0.00041698580085632909 0 -0.44737850259376799 0.0077656591989471307 0 -0.4441818909265971 -0.00998157505946092 0 -0.4570262928383732 -0.018140378997512391 0 -0.45633913854906122 -0.0094275687658610888 0 -0.4441818909265971 -0.00998157505946092 0 -0.45633913854906122 -0.0094275687658610888 0 -0.45588653083934588 0.00041698580085632909 0 -0.43741768347029059 -0.01288367903972009 0 -0.4441818909265971 -0.00998157505946092 0 -0.44890774518284438 -0.02927164544362729 0 -0.42981912379901888 -0.030443092666165631 0 -0.45215967652477718 -0.036640332234541717 0 -0.4392085005598273 -0.024676348383282701 0 -0.4441818909265971 -0.00998157505946092 0 -0.44890774518284438 -0.02927164544362729 0 -0.46258273328813732 -0.023158067004484729 0 -0.43741768347029059 -0.01288367903972009 0 -0.44890774518284438 -0.02927164544362729 0 -0.43741768347029059 -0.01288367903972009 0 -0.4392085005598273 -0.024676348383282701 0 -0.44890774518284438 -0.02927164544362729 0 -0.4392085005598273 -0.024676348383282701 0 -0.44890774518284438 -0.02927164544362729 0 -0.45215967652477718 -0.036640332234541717 0 -0.4392085005598273 -0.024676348383282701 0 -0.44890774518284438 -0.02927164544362729 0 -0.4441818909265971 -0.00998157505946092 0 -0.46258273328813732 -0.023158067004484729 0 -0.46258273328813732 -0.023158067004484729 0 -0.46826183959192841 -0.01000530680732737 0 -0.47056077858213702 -0.03024644074295027 0 -0.4441818909265971 -0.00998157505946092 0 -0.4570262928383732 -0.018140378997512391 0 -0.46258273328813732 -0.023158067004484729 0 -0.4570262928383732 -0.018140378997512391 0 -0.46258273328813732 -0.023158067004484729 0 -0.44890774518284438 -0.02927164544362729 0 -0.46189821575704781 -0.02986243911986371 0 -0.46258273328813732 -0.023158067004484729 0 -0.46258273328813732 -0.023158067004484729 0 -0.47056077858213702 -0.03024644074295027 0 -0.46189821575704781 -0.02986243911986371 0 -0.46258273328813732 -0.023158067004484729 0 -0.47056077858213702 -0.03024644074295027 0 -0.4570262928383732 -0.018140378997512391 0 -0.46258273328813732 -0.023158067004484729 0 -0.46826183959192841 -0.01000530680732737 0 -0.4570262928383732 -0.018140378997512391 0 -0.46826183959192841 -0.01000530680732737 0 -0.45633913854906122 -0.0094275687658610888 0 -0.46826183959192841 -0.01000530680732737 0 -0.45633913854906122 -0.0094275687658610888 0 -0.45588653083934588 0.00041698580085632909 0 -0.46826183959192841 -0.01000530680732737 0 -0.47597217662329228 -0.0085245425598697612 0 -0.4659629006017233 0.010235827128295859 0 -0.46826183959192841 -0.01000530680732737 0 -0.47597217662329228 -0.0085245425598697612 0 -0.47580415800009379 -0.02093770259963601 0 -0.47597217662329228 -0.0085245425598697612 0 -0.48922725890134677 -0.010453537226696331 0 -0.48082517856277007 0.001845263919603602 0 -0.47597217662329228 -0.0085245425598697612 0 -0.47580415800009379 -0.02093770259963601 0 -0.48598145264485831 -0.02728491224803695 0 -0.47597217662329228 -0.0085245425598697612 0 -0.48598145264485831 -0.02728491224803695 0 -0.46826183959192841 -0.01000530680732737 0 -0.47056077858213702 -0.03024644074295027 0 -0.47580415800009379 -0.02093770259963601 0 -0.47597217662329228 -0.0085245425598697612 0 -0.48598145264485831 -0.02728491224803695 0 -0.4893389393206713 -0.02366416211133009 0 -0.46826183959192841 -0.01000530680732737 0 -0.47056077858213702 -0.03024644074295027 0 -0.47056077858213702 -0.03024644074295027 0 -0.47580415800009379 -0.02093770259963601 0 -0.47745882259212458 -0.028728106929589409 0 -0.47580415800009379 -0.02093770259963601 0 -0.47745882259212458 -0.028728106929589409 0 -0.48598145264485831 -0.02728491224803695 0 -0.47748890114140963 -0.036443372127734748 0 -0.47745882259212458 -0.028728106929589409 0 -0.48598145264485831 -0.02728491224803695 0 -0.48598145264485831 -0.02728491224803695 0 -0.4893389393206713 -0.02366416211133009 0 -0.5 -0.025161366008633609 0 -0.48598145264485831 -0.02728491224803695 0 -0.4893389393206713 -0.02366416211133009 0 -0.4893389393206713 -0.02366416211133009 0 -0.5 -0.025161366008633609 0 -0.48922725890134677 -0.010453537226696331 0 -0.48922725890134677 -0.010453537226696331 0 -0.5 0.0032371206267481911 0 -0.48082517856277007 0.001845263919603602 0 -0.5 -0.025161366008633609 0 -0.48922725890134677 -0.010453537226696331 0 -0.5 0.0032371206267481911 0 -0.47597217662329228 -0.0085245425598697612 0 -0.4893389393206713 -0.02366416211133009 0 -0.48922725890134677 -0.010453537226696331 0 -0.5 0.0032371206267481911 0 -0.48596576445654982 0.01457961489688041 0 -0.48082517856277007 0.001845263919603602 0 -0.48596576445654982 0.01457961489688041 0 -0.47541999506787802 0.025418180444172121 0 -0.5 0.031635607262129987 0 -0.5 0.0032371206267481911 0 -0.48596576445654982 0.01457961489688041 0 -0.5 0.031635607262129987 0 -0.48596576445654982 0.01457961489688041 0 -0.47541999506787802 0.025418180444172121 0 -0.47401658579892991 0.013489912392399149 0 -0.47541999506787802 0.025418180444172121 0 -0.46963945276383978 0.01793989872667965 0 -0.47401658579892991 0.013489912392399149 0 -0.47597217662329228 -0.0085245425598697612 0 -0.48082517856277007 0.001845263919603602 0 -0.4659629006017233 0.010235827128295859 0 -0.47401658579892991 0.013489912392399149 0 -0.48082517856277007 0.001845263919603602 0 -0.4659629006017233 0.010235827128295859 0 -0.46963945276383978 0.01793989872667965 0 -0.47401658579892991 0.013489912392399149 0 -0.4659629006017233 0.010235827128295859 0 -0.47597217662329228 -0.0085245425598697612 0 -0.4659629006017233 0.010235827128295859 0 -0.48596576445654982 0.01457961489688041 0 -0.47401658579892991 0.013489912392399149 0 -0.48082517856277007 0.001845263919603602 0 -0.5 0.060034093897511798 0 -0.47816362815030861 0.043832779932641487 0 -0.48068047186290208 0.063626500276227002 0 -0.47541999506787802 0.025418180444172121 0 -0.5 0.031635607262129987 0 -0.47816362815030861 0.043832779932641487 0 -0.5 0.060034093897511798 0 -0.5 0.031635607262129987 0 -0.47816362815030861 0.043832779932641487 0 -0.47541999506787802 0.025418180444172121 0 -0.47816362815030861 0.043832779932641487 0 -0.46442391639916691 0.036471327701905212 0 -0.47816362815030861 0.043832779932641487 0 -0.46119618507356652 0.049359273152949731 0 -0.48068047186290208 0.063626500276227002 0 -0.46119618507356652 0.049359273152949731 0 -0.46103932749027238 0.064238871702306077 0 -0.48068047186290208 0.063626500276227002 0 -0.46119618507356652 0.049359273152949731 0 -0.44286953411296898 0.045255716157198693 0 -0.46103932749027238 0.064238871702306077 0 -0.47816362815030861 0.043832779932641487 0 -0.46119618507356652 0.049359273152949731 0 -0.46442391639916691 0.036471327701905212 0 -0.46119618507356652 0.049359273152949731 0 -0.46442391639916691 0.036471327701905212 0 -0.45082509298125129 0.038608595210277222 0 -0.46442391639916691 0.036471327701905212 0 -0.45082509298125129 0.038608595210277222 0 -0.4583939967914884 0.024422211169287101 0 -0.45082509298125129 0.038608595210277222 0 -0.4583939967914884 0.024422211169287101 0 -0.46119618507356652 0.049359273152949731 0 -0.45082509298125129 0.038608595210277222 0 -0.44286953411296898 0.045255716157198693 0 -0.45082509298125129 0.038608595210277222 0 -0.4405409619944019 0.035432846457562263 0 -0.4458839614772655 0.023387518650519249 0 -0.45082509298125129 0.038608595210277222 0 -0.4405409619944019 0.035432846457562263 0 -0.44286953411296898 0.045255716157198693 0 -0.4405409619944019 0.035432846457562263 0 -0.44286953411296898 0.045255716157198693 0 -0.43229092530358848 0.04451632412921195 0 -0.44286953411296898 0.045255716157198693 0 -0.44282721760043869 0.062046251170956107 0 -0.46103932749027238 0.064238871702306077 0 -0.44286953411296898 0.045255716157198693 0 -0.44282721760043869 0.062046251170956107 0 -0.43188097302969042 0.056955122555226501 0 -0.44286953411296898 0.045255716157198693 0 -0.46103932749027238 0.064238871702306077 0 -0.46826183959192841 -0.01000530680732737 0 -0.45588653083934588 0.00041698580085632909 0 -0.4659629006017233 0.010235827128295859 0 -0.46826183959192841 -0.01000530680732737 0 -0.4659629006017233 0.010235827128295859 0 -0.45609316173783881 0.014082317838893479 0 -0.45588653083934588 0.00041698580085632909 0 -0.4659629006017233 0.010235827128295859 0 -0.46963945276383978 0.01793989872667965 0 -0.4659629006017233 0.010235827128295859 0 -0.4583939967914884 0.024422211169287101 0 -0.4659629006017233 0.010235827128295859 0 -0.4583939967914884 0.024422211169287101 0 -0.47541999506787802 0.025418180444172121 0 -0.46963945276383978 0.01793989872667965 0 -0.4583939967914884 0.024422211169287101 0 -0.47541999506787802 0.025418180444172121 0 -0.46442391639916691 0.036471327701905212 0 -0.4583939967914884 0.024422211169287101 0 -0.45609316173783881 0.014082317838893479 0 -0.4659629006017233 0.010235827128295859 0 -0.4583939967914884 0.024422211169287101 0 -0.45609316173783881 0.014082317838893479 0 -0.4583939967914884 0.024422211169287101 0 -0.4458839614772655 0.023387518650519249 0 -0.45082509298125129 0.038608595210277222 0 -0.4583939967914884 0.024422211169287101 0 -0.4458839614772655 0.023387518650519249 0 -0.4405409619944019 0.035432846457562263 0 -0.4458839614772655 0.023387518650519249 0 -0.43566193494816191 0.02574822372494872 0 -0.4458839614772655 0.023387518650519249 0 -0.4359559447540089 0.01018896392150693 0 -0.43566193494816191 0.02574822372494872 0 -0.4441818909265971 -0.00998157505946092 0 -0.44737850259376799 0.0077656591989471307 0 -0.4359559447540089 0.01018896392150693 0 -0.4458839614772655 0.023387518650519249 0 -0.44737850259376799 0.0077656591989471307 0 -0.4359559447540089 0.01018896392150693 0 -0.45609316173783881 0.014082317838893479 0 -0.4458839614772655 0.023387518650519249 0 -0.44737850259376799 0.0077656591989471307 0 -0.45609316173783881 0.014082317838893479 0 -0.45588653083934588 0.00041698580085632909 0 -0.44737850259376799 0.0077656591989471307 0 -0.4441818909265971 -0.00998157505946092 0 -0.4359559447540089 0.01018896392150693 0 -0.42578104856505677 0.0031949168855625672 0 -0.42578104856505677 0.0031949168855625672 0 -0.41622595309658328 0.016397403714119251 0 -0.42870406893849561 0.019163111370922251 0 -0.4359559447540089 0.01018896392150693 0 -0.42578104856505677 0.0031949168855625672 0 -0.42870406893849561 0.019163111370922251 0 -0.41753789792717189 -0.0038843189997757009 0 -0.42578104856505677 0.0031949168855625672 0 -0.41105156913745711 0.0034129409419674369 0 -0.42578104856505677 0.0031949168855625672 0 -0.40852807671777941 0.0155494406680463 0 -0.41622595309658328 0.016397403714119251 0 -0.42578104856505677 0.0031949168855625672 0 -0.40852807671777941 0.0155494406680463 0 -0.41105156913745711 0.0034129409419674369 0 -0.42578104856505677 0.0031949168855625672 0 -0.40852807671777941 0.0155494406680463 0 -0.42578104856505677 0.0031949168855625672 0 -0.41622595309658328 0.016397403714119251 0 -0.40852807671777941 0.0155494406680463 0 -0.41105156913745711 0.0034129409419674369 0 -0.40262572535869262 0.0089097845909437267 0 -0.40771050441737638 -0.0035262849216432719 0 -0.41105156913745711 0.0034129409419674369 0 -0.40226596945639398 0.0014711925349297271 0 -0.40667085762811028 0.029599890542676258 0 -0.41622595309658328 0.016397403714119251 0 -0.42870406893849561 0.019163111370922251 0 -0.40667085762811028 0.029599890542676258 0 -0.42870406893849561 0.019163111370922251 0 -0.40667085762811028 0.029599890542676258 0 -0.41990433555607742 0.03061685230769556 0 -0.42870406893849561 0.019163111370922251 0 -0.40852807671777941 0.0155494406680463 0 -0.40667085762811028 0.029599890542676258 0 -0.41622595309658328 0.016397403714119251 0 -0.40667085762811028 0.029599890542676258 0 -0.41622595309658328 0.016397403714119251 0 -0.41990433555607742 0.03061685230769556 0 -0.4284463216954002 0.029357354603554459 0 -0.42870406893849561 0.019163111370922251 0 -0.4359559447540089 0.01018896392150693 0 -0.42870406893849561 0.019163111370922251 0 -0.43566193494816191 0.02574822372494872 0 -0.4284463216954002 0.029357354603554459 0 -0.42870406893849561 0.019163111370922251 0 -0.43566193494816191 0.02574822372494872 0 -0.4284463216954002 0.029357354603554459 0 -0.43566193494816191 0.02574822372494872 0 -0.43264023121812112 0.033917661463996759 0 -0.4405409619944019 0.035432846457562263 0 -0.43264023121812112 0.033917661463996759 0 -0.43229092530358848 0.04451632412921195 0 -0.43264023121812112 0.033917661463996759 0 -0.43229092530358848 0.04451632412921195 0 -0.42532103781614489 0.037340924150209003 0 -0.4405409619944019 0.035432846457562263 0 -0.43566193494816191 0.02574822372494872 0 -0.43264023121812112 0.033917661463996759 0 -0.43229092530358848 0.04451632412921195 0 -0.42532103781614489 0.037340924150209003 0 -0.42042490988599091 0.046091327469671317 0 -0.4284463216954002 0.029357354603554459 0 -0.43264023121812112 0.033917661463996759 0 -0.42532103781614489 0.037340924150209003 0 -0.41990433555607742 0.03061685230769556 0 -0.4284463216954002 0.029357354603554459 0 -0.42532103781614489 0.037340924150209003 0 -0.43229092530358848 0.04451632412921195 0 -0.43188097302969042 0.056955122555226501 0 -0.42585725303016408 0.051510102087770737 0 -0.44286953411296898 0.045255716157198693 0 -0.43229092530358848 0.04451632412921195 0 -0.43188097302969042 0.056955122555226501 0 -0.43229092530358848 0.04451632412921195 0 -0.42585725303016408 0.051510102087770737 0 -0.42042490988599091 0.046091327469671317 0 -0.43188097302969042 0.056955122555226501 0 -0.41883220390138681 0.058477634196973202 0 -0.43131469147834472 0.070632617455275076 0 -0.43188097302969042 0.056955122555226501 0 -0.42585725303016408 0.051510102087770737 0 -0.41883220390138681 0.058477634196973202 0 -0.41883220390138681 0.058477634196973202 0 -0.40840220717331749 0.048304634434869917 0 -0.39985653820026013 0.060860810446949978 0 -0.42585725303016408 0.051510102087770737 0 -0.41883220390138681 0.058477634196973202 0 -0.42042490988599091 0.046091327469671317 0 -0.41883220390138681 0.058477634196973202 0 -0.40840220717331749 0.048304634434869917 0 -0.42042490988599091 0.046091327469671317 0 -0.41990433555607742 0.03061685230769556 0 -0.42532103781614489 0.037340924150209003 0 -0.4122967326089878 0.037821593301397609 0 -0.42532103781614489 0.037340924150209003 0 -0.42042490988599091 0.046091327469671317 0 -0.4122967326089878 0.037821593301397609 0 -0.40840220717331749 0.048304634434869917 0 -0.4122967326089878 0.037821593301397609 0 -0.40579981868685489 0.041495006097714962 0 -0.40840220717331749 0.048304634434869917 0 -0.42042490988599091 0.046091327469671317 0 -0.4122967326089878 0.037821593301397609 0 -0.4122967326089878 0.037821593301397609 0 -0.40278544391907911 0.034968452634622761 0 -0.40579981868685489 0.041495006097714962 0 -0.40667085762811028 0.029599890542676258 0 -0.4122967326089878 0.037821593301397609 0 -0.40278544391907911 0.034968452634622761 0 -0.40667085762811028 0.029599890542676258 0 -0.41990433555607742 0.03061685230769556 0 -0.4122967326089878 0.037821593301397609 0 -0.40667085762811028 0.029599890542676258 0 -0.40278544391907911 0.034968452634622761 0 -0.40667085762811028 0.029599890542676258 0 -0.38856614517843069 0.038175802748282091 0 -0.40667085762811028 0.029599890542676258 0 -0.38856614517843069 0.038175802748282091 0 -0.39127510487050182 0.027903964450529759 0 -0.40667085762811028 0.029599890542676258 0 -0.40278544391907911 0.034968452634622761 0 -0.38856614517843069 0.038175802748282091 0 -0.40278544391907911 0.034968452634622761 0 -0.40579981868685489 0.041495006097714962 0 -0.3977250587697031 0.045015474274426849 0 -0.40840220717331749 0.048304634434869917 0 -0.40579981868685489 0.041495006097714962 0 -0.3977250587697031 0.045015474274426849 0 -0.40278544391907911 0.034968452634622761 0 -0.3977250587697031 0.045015474274426849 0 -0.38856614517843069 0.038175802748282091 0 -0.40840220717331749 0.048304634434869917 0 -0.3977250587697031 0.045015474274426849 0 -0.39985653820026013 0.060860810446949978 0 -0.3977250587697031 0.045015474274426849 0 -0.39985653820026013 0.060860810446949978 0 -0.38472691017257071 0.052921849058569698 0 -0.39985653820026013 0.060860810446949978 0 -0.38472691017257071 0.052921849058569698 0 -0.38510762700538009 0.066428587654483159 0 -0.38472691017257071 0.052921849058569698 0 -0.37046143272875132 0.04675171495388801 0 -0.37000681959492809 0.05831264468359916 0 -0.38472691017257071 0.052921849058569698 0 -0.38510762700538009 0.066428587654483159 0 -0.37000681959492809 0.05831264468359916 0 -0.38856614517843069 0.038175802748282091 0 -0.37871402691879819 0.03757115751491092 0 -0.37046143272875132 0.04675171495388801 0 -0.38856614517843069 0.038175802748282091 0 -0.37046143272875132 0.04675171495388801 0 -0.38472691017257071 0.052921849058569698 0 -0.38856614517843069 0.038175802748282091 0 -0.37046143272875132 0.04675171495388801 0 -0.38856614517843069 0.038175802748282091 0 -0.38315308642314733 0.033917821982192238 0 -0.39127510487050182 0.027903964450529759 0 -0.38856614517843069 0.038175802748282091 0 -0.38315308642314733 0.033917821982192238 0 -0.37871402691879819 0.03757115751491092 0 -0.3977250587697031 0.045015474274426849 0 -0.38472691017257071 0.052921849058569698 0 -0.38856614517843069 0.038175802748282091 0 -0.37871402691879819 0.03757115751491092 0 -0.3764786745208083 0.032098692741998169 0 -0.37046143272875132 0.04675171495388801 0 -0.38315308642314733 0.033917821982192238 0 -0.3764786745208083 0.032098692741998169 0 -0.38155727091044611 0.028316364585127811 0 -0.38315308642314733 0.033917821982192238 0 -0.37871402691879819 0.03757115751491092 0 -0.3764786745208083 0.032098692741998169 0 -0.3764786745208083 0.032098692741998169 0 -0.38155727091044611 0.028316364585127811 0 -0.37960108001976323 0.022263106047543741 0 -0.37960108001976323 0.022263106047543741 0 -0.37998819155715241 0.0057865511937031933 0 -0.37123175334181557 0.027162262264614271 0 -0.3764786745208083 0.032098692741998169 0 -0.37960108001976323 0.022263106047543741 0 -0.37123175334181557 0.027162262264614271 0 -0.38155727091044611 0.028316364585127811 0 -0.38533699425949169 0.022674384769296389 0 -0.37960108001976323 0.022263106047543741 0 -0.38155727091044611 0.028316364585127811 0 -0.38533699425949169 0.022674384769296389 0 -0.39127510487050182 0.027903964450529759 0 -0.38315308642314733 0.033917821982192238 0 -0.38155727091044611 0.028316364585127811 0 -0.39127510487050182 0.027903964450529759 0 -0.39054146691731162 0.018060194648231769 0 -0.38533699425949169 0.022674384769296389 0 -0.39127510487050182 0.027903964450529759 0 -0.38533699425949169 0.022674384769296389 0 -0.3837100485794358 0.01682829411504885 0 -0.37960108001976323 0.022263106047543741 0 -0.39054146691731162 0.018060194648231769 0 -0.38533699425949169 0.022674384769296389 0 -0.3837100485794358 0.01682829411504885 0 -0.3837100485794358 0.01682829411504885 0 -0.37960108001976323 0.022263106047543741 0 -0.37998819155715241 0.0057865511937031933 0 -0.37998819155715241 0.0057865511937031933 0 -0.38683543611469601 0.0001369023841863784 0 -0.36064890389212972 0.0125435277679194 0 -0.37998819155715241 0.0057865511937031933 0 -0.38683543611469601 0.0001369023841863784 0 -0.38901012294298121 0.0062908016400105649 0 -0.38683543611469601 0.0001369023841863784 0 -0.38901012294298121 0.0062908016400105649 0 -0.39501457079486157 0.0055715078560810288 0 -0.37998819155715241 0.0057865511937031933 0 -0.38901012294298121 0.0062908016400105649 0 -0.38744744785130802 0.01185902438546781 0 -0.3837100485794358 0.01682829411504885 0 -0.37998819155715241 0.0057865511937031933 0 -0.38744744785130802 0.01185902438546781 0 -0.38901012294298121 0.0062908016400105649 0 -0.38744744785130802 0.01185902438546781 0 -0.39422738021243581 0.01127211946813913 0 -0.39054146691731162 0.018060194648231769 0 -0.3837100485794358 0.01682829411504885 0 -0.38744744785130802 0.01185902438546781 0 -0.39054146691731162 0.018060194648231769 0 -0.39422738021243581 0.01127211946813913 0 -0.39743955081534421 0.016339100765178138 0 -0.39054146691731162 0.018060194648231769 0 -0.38744744785130802 0.01185902438546781 0 -0.39422738021243581 0.01127211946813913 0 -0.39422738021243581 0.01127211946813913 0 -0.39501457079486157 0.0055715078560810288 0 -0.40262572535869262 0.0089097845909437267 0 -0.39422738021243581 0.01127211946813913 0 -0.40262572535869262 0.0089097845909437267 0 -0.39743955081534421 0.016339100765178138 0 -0.38683543611469601 0.0001369023841863784 0 -0.39501457079486157 0.0055715078560810288 0 -0.40226596945639398 0.0014711925349297271 0 -0.38901012294298121 0.0062908016400105649 0 -0.39422738021243581 0.01127211946813913 0 -0.39501457079486157 0.0055715078560810288 0 -0.41105156913745711 0.0034129409419674369 0 -0.40226596945639398 0.0014711925349297271 0 -0.40262572535869262 0.0089097845909437267 0 -0.39501457079486157 0.0055715078560810288 0 -0.40226596945639398 0.0014711925349297271 0 -0.40262572535869262 0.0089097845909437267 0 -0.40852807671777941 0.0155494406680463 0 -0.40262572535869262 0.0089097845909437267 0 -0.39743955081534421 0.016339100765178138 0 -0.40852807671777941 0.0155494406680463 0 -0.39127510487050182 0.027903964450529759 0 -0.40852807671777941 0.0155494406680463 0 -0.40667085762811028 0.029599890542676258 0 -0.39127510487050182 0.027903964450529759 0 -0.40852807671777941 0.0155494406680463 0 -0.39127510487050182 0.027903964450529759 0 -0.39743955081534421 0.016339100765178138 0 -0.39054146691731162 0.018060194648231769 0 -0.39127510487050182 0.027903964450529759 0 -0.39743955081534421 0.016339100765178138 0 -0.39792088922733271 0.1160922105611595 0 -0.40104213778508202 0.092866093853817611 0 -0.41467909406405851 0.1139188519362445 0 -0.39792088922733271 0.1160922105611595 0 -0.3782625711058698 0.101617738696854 0 -0.40104213778508202 0.092866093853817611 0 -0.3782625711058698 0.101617738696854 0 -0.38372255811484618 0.13025780258704611 0 -0.3782625711058698 0.101617738696854 0 -0.38372255811484618 0.13025780258704611 0 -0.36747352968705388 0.12273486311700831 0 -0.39792088922733271 0.1160922105611595 0 -0.3782625711058698 0.101617738696854 0 -0.38372255811484618 0.13025780258704611 0 -0.39792088922733271 0.1160922105611595 0 -0.3782625711058698 0.101617738696854 0 -0.3782625711058698 0.101617738696854 0 -0.40104213778508202 0.092866093853817611 0 -0.37470600383380392 0.082961959162170973 0 -0.39520328107527708 0.075997639864115257 0 -0.40104213778508202 0.092866093853817611 0 -0.37470600383380392 0.082961959162170973 0 -0.3782625711058698 0.101617738696854 0 -0.37470600383380392 0.082961959162170973 0 -0.40104213778508202 0.092866093853817611 0 -0.37470600383380392 0.082961959162170973 0 -0.38510762700538009 0.066428587654483159 0 -0.37000681959492809 0.05831264468359916 0 -0.37470600383380392 0.082961959162170973 0 -0.38510762700538009 0.066428587654483159 0 -0.39520328107527708 0.075997639864115257 0 -0.37470600383380392 0.082961959162170973 0 -0.39985653820026013 0.060860810446949978 0 -0.39520328107527708 0.075997639864115257 0 -0.41322693425173768 0.074694678089132868 0 -0.39985653820026013 0.060860810446949978 0 -0.38510762700538009 0.066428587654483159 0 -0.39520328107527708 0.075997639864115257 0 -0.39520328107527708 0.075997639864115257 0 -0.40104213778508202 0.092866093853817611 0 -0.41322693425173768 0.074694678089132868 0 -0.40104213778508202 0.092866093853817611 0 -0.41322693425173768 0.074694678089132868 0 -0.42957324029363853 0.085693113452461764 0 -0.41883220390138681 0.058477634196973202 0 -0.41322693425173768 0.074694678089132868 0 -0.43131469147834472 0.070632617455275076 0 -0.41883220390138681 0.058477634196973202 0 -0.39985653820026013 0.060860810446949978 0 -0.41322693425173768 0.074694678089132868 0 -0.43131469147834472 0.070632617455275076 0 -0.42957324029363853 0.085693113452461764 0 -0.4470315618909167 0.073148927984774167 0 -0.41322693425173768 0.074694678089132868 0 -0.43131469147834472 0.070632617455275076 0 -0.42957324029363853 0.085693113452461764 0 -0.44282721760043869 0.062046251170956107 0 -0.43188097302969042 0.056955122555226501 0 -0.43131469147834472 0.070632617455275076 0 -0.42957324029363853 0.085693113452461764 0 -0.42737827173636012 0.1027702285454639 0 -0.44343173260412461 0.097571970950778963 0 -0.40104213778508202 0.092866093853817611 0 -0.42737827173636012 0.1027702285454639 0 -0.41467909406405851 0.1139188519362445 0 -0.40104213778508202 0.092866093853817611 0 -0.42737827173636012 0.1027702285454639 0 -0.40104213778508202 0.092866093853817611 0 -0.42957324029363853 0.085693113452461764 0 -0.42737827173636012 0.1027702285454639 0 -0.39792088922733271 0.1160922105611595 0 -0.41467909406405851 0.1139188519362445 0 -0.417579207348795 0.13056668242546571 0 -0.39792088922733271 0.1160922105611595 0 -0.417579207348795 0.13056668242546571 0 -0.41467909406405851 0.1139188519362445 0 -0.42608096723388439 0.1205091241492761 0 -0.417579207348795 0.13056668242546571 0 -0.42737827173636012 0.1027702285454639 0 -0.41467909406405851 0.1139188519362445 0 -0.42608096723388439 0.1205091241492761 0 -0.42737827173636012 0.1027702285454639 0 -0.42608096723388439 0.1205091241492761 0 -0.43826405507869293 0.1195835460605416 0 -0.42608096723388439 0.1205091241492761 0 -0.43826405507869293 0.1195835460605416 0 -0.43293323699752101 0.1317554923945817 0 -0.43826405507869293 0.1195835460605416 0 -0.45371440568763749 0.1126743632371118 0 -0.44901593584904892 0.12912088192892021 0 -0.42737827173636012 0.1027702285454639 0 -0.43826405507869293 0.1195835460605416 0 -0.45371440568763749 0.1126743632371118 0 -0.4523882543875366 0.10983005993361 0 -0.45371440568763749 0.1126743632371118 0 -0.42737827173636012 0.1027702285454639 0 -0.4523882543875366 0.10983005993361 0 -0.44343173260412461 0.097571970950778963 0 -0.42737827173636012 0.1027702285454639 0 -0.4523882543875366 0.10983005993361 0 -0.45371440568763749 0.1126743632371118 0 -0.42737827173636012 0.1027702285454639 0 -0.45371440568763749 0.1126743632371118 0 -0.44343173260412461 0.097571970950778963 0 -0.45084974973894648 0.096020795281878568 0 -0.45306155814551219 0.1028275296158008 0 -0.44343173260412461 0.097571970950778963 0 -0.45084974973894648 0.096020795281878568 0 -0.44733932132275389 0.088290098875458828 0 -0.4523882543875366 0.10983005993361 0 -0.44343173260412461 0.097571970950778963 0 -0.45306155814551219 0.1028275296158008 0 -0.4523882543875366 0.10983005993361 0 -0.45306155814551219 0.1028275296158008 0 -0.45661100561120399 0.109540819014999 0 -0.45306155814551219 0.1028275296158008 0 -0.46084618436187341 0.10490351706993729 0 -0.45661100561120399 0.109540819014999 0 -0.45306155814551219 0.1028275296158008 0 -0.46084618436187341 0.10490351706993729 0 -0.45799439118323759 0.099220837031069903 0 -0.46084618436187341 0.10490351706993729 0 -0.4635407771028337 0.1124237257980706 0 -0.45661100561120399 0.109540819014999 0 -0.45799439118323759 0.099220837031069903 0 -0.46723244863383712 0.097971273043108306 0 -0.45594156200913483 0.091684632610025046 0 -0.45084974973894648 0.096020795281878568 0 -0.45799439118323759 0.099220837031069903 0 -0.45594156200913483 0.091684632610025046 0 -0.45084974973894648 0.096020795281878568 0 -0.45306155814551219 0.1028275296158008 0 -0.45799439118323759 0.099220837031069903 0 -0.46084618436187341 0.10490351706993729 0 -0.45799439118323759 0.099220837031069903 0 -0.46723244863383712 0.097971273043108306 0 -0.46084618436187341 0.10490351706993729 0 -0.46723244863383712 0.097971273043108306 0 -0.46686982756835349 0.1074114054382402 0 -0.46084618436187341 0.10490351706993729 0 -0.46686982756835349 0.1074114054382402 0 -0.4635407771028337 0.1124237257980706 0 -0.45371440568763749 0.1126743632371118 0 -0.46425598871103851 0.13528374379222011 0 -0.4635407771028337 0.1124237257980706 0 -0.45674497769142258 0.1138140594952527 0 -0.46958882025875243 0.12035793204680111 0 -0.46686982756835349 0.1074114054382402 0 -0.4635407771028337 0.1124237257980706 0 -0.47044075898603932 0.11380610730348489 0 -0.4635407771028337 0.1124237257980706 0 -0.46958882025875243 0.12035793204680111 0 -0.47044075898603932 0.11380610730348489 0 -0.45674497769142258 0.1138140594952527 0 -0.45371440568763749 0.1126743632371118 0 -0.46425598871103851 0.13528374379222011 0 -0.45674497769142258 0.1138140594952527 0 -0.46958882025875243 0.12035793204680111 0 -0.46425598871103851 0.13528374379222011 0 -0.4523882543875366 0.10983005993361 0 -0.45661100561120399 0.109540819014999 0 -0.45371440568763749 0.1126743632371118 0 -0.45674497769142258 0.1138140594952527 0 -0.45661100561120399 0.109540819014999 0 -0.45371440568763749 0.1126743632371118 0 -0.45674497769142258 0.1138140594952527 0 -0.45371440568763749 0.1126743632371118 0 -0.4635407771028337 0.1124237257980706 0 -0.45674497769142258 0.1138140594952527 0 -0.45661100561120399 0.109540819014999 0 -0.44282721760043869 0.062046251170956107 0 -0.4470315618909167 0.073148927984774167 0 -0.46103932749027238 0.064238871702306077 0 -0.44282721760043869 0.062046251170956107 0 -0.43131469147834472 0.070632617455275076 0 -0.4470315618909167 0.073148927984774167 0 -0.42957324029363853 0.085693113452461764 0 -0.44343173260412461 0.097571970950778963 0 -0.44733932132275389 0.088290098875458828 0 -0.42957324029363853 0.085693113452461764 0 -0.4470315618909167 0.073148927984774167 0 -0.44733932132275389 0.088290098875458828 0 -0.4470315618909167 0.073148927984774167 0 -0.44733932132275389 0.088290098875458828 0 -0.46047789149500767 0.082617330138573752 0 -0.45084974973894648 0.096020795281878568 0 -0.44733932132275389 0.088290098875458828 0 -0.45594156200913483 0.091684632610025046 0 -0.44733932132275389 0.088290098875458828 0 -0.45594156200913483 0.091684632610025046 0 -0.46047789149500767 0.082617330138573752 0 -0.46723244863383712 0.097971273043108306 0 -0.45594156200913483 0.091684632610025046 0 -0.46047789149500767 0.082617330138573752 0 -0.46047789149500767 0.082617330138573752 0 -0.46103932749027238 0.064238871702306077 0 -0.47920912086757578 0.083222027247413538 0 -0.4470315618909167 0.073148927984774167 0 -0.46047789149500767 0.082617330138573752 0 -0.46103932749027238 0.064238871702306077 0 -0.46103932749027238 0.064238871702306077 0 -0.48068047186290208 0.063626500276227002 0 -0.47920912086757578 0.083222027247413538 0 -0.46103932749027238 0.064238871702306077 0 -0.47920912086757578 0.083222027247413538 0 -0.46723244863383712 0.097971273043108306 0 -0.46047789149500767 0.082617330138573752 0 -0.47920912086757578 0.083222027247413538 0 -0.48068047186290208 0.063626500276227002 0 -0.47920912086757578 0.083222027247413538 0 -0.5 0.088432580532893601 0 -0.47920912086757578 0.083222027247413538 0 -0.49737891424487929 0.102205182792521 0 -0.47920912086757578 0.083222027247413538 0 -0.5 0.088432580532893601 0 -0.49737891424487929 0.102205182792521 0 -0.5 0.060034093897511798 0 -0.48068047186290208 0.063626500276227002 0 -0.5 0.088432580532893601 0 -0.47827810320487629 0.116675775998883 0 -0.48837893466537508 0.1117690854599766 0 -0.4842723158563047 0.1301441798928954 0 -0.47827810320487629 0.116675775998883 0 -0.47512549980118862 0.10796659812409699 0 -0.48837893466537508 0.1117690854599766 0 -0.47827810320487629 0.116675775998883 0 -0.46958882025875243 0.12035793204680111 0 -0.4842723158563047 0.1301441798928954 0 -0.47827810320487629 0.116675775998883 0 -0.47044075898603932 0.11380610730348489 0 -0.47512549980118862 0.10796659812409699 0 -0.46686982756835349 0.1074114054382402 0 -0.47044075898603932 0.11380610730348489 0 -0.47512549980118862 0.10796659812409699 0 -0.47827810320487629 0.116675775998883 0 -0.46958882025875243 0.12035793204680111 0 -0.47044075898603932 0.11380610730348489 0 -0.46723244863383712 0.097971273043108306 0 -0.47512549980118862 0.10796659812409699 0 -0.48162445158666772 0.1005823670901454 0 -0.46723244863383712 0.097971273043108306 0 -0.47920912086757578 0.083222027247413538 0 -0.48162445158666772 0.1005823670901454 0 -0.46723244863383712 0.097971273043108306 0 -0.46686982756835349 0.1074114054382402 0 -0.47512549980118862 0.10796659812409699 0 -0.47512549980118862 0.10796659812409699 0 -0.48162445158666772 0.1005823670901454 0 -0.48837893466537508 0.1117690854599766 0 -0.48162445158666772 0.1005823670901454 0 -0.49737891424487929 0.102205182792521 0 -0.48837893466537508 0.1117690854599766 0 -0.47920912086757578 0.083222027247413538 0 -0.48162445158666772 0.1005823670901454 0 -0.49737891424487929 0.102205182792521 0 -0.5 0.088432580532893601 0 -0.49737891424487929 0.102205182792521 0 -0.5 0.1168310671682755 0 -0.49737891424487929 0.102205182792521 0 -0.5 0.1168310671682755 0 -0.48837893466537508 0.1117690854599766 0 -0.5 0.1168310671682755 0 -0.48837893466537508 0.1117690854599766 0 -0.4842723158563047 0.1301441798928954 0 -0.5 0.1168310671682755 0 -0.4842723158563047 0.1301441798928954 0 -0.5 0.14522955380365729 0 -0.46958882025875243 0.12035793204680111 0 -0.4842723158563047 0.1301441798928954 0 -0.46425598871103851 0.13528374379222011 0 -0.4842723158563047 0.1301441798928954 0 -0.47479757173443998 0.15789312434732811 0 -0.46425598871103851 0.13528374379222011 0 -0.47479757173443998 0.15789312434732811 0 -0.46425598871103851 0.13528374379222011 0 -0.4842723158563047 0.1301441798928954 0 -0.5 0.14522955380365729 0 -0.47479757173443998 0.15789312434732811 0 -0.5 0.14522955380365729 0 -0.49999999999999972 0.17362804043903909 0 -0.47479757173443998 0.15789312434732811 0 -0.49999999999999972 0.17362804043903909 0 -0.47479757173443998 0.15789312434732811 0 -0.49999999999999972 0.17362804043903909 0 -0.49200992699072321 0.1743962810239672 0 -0.47479757173443998 0.15789312434732811 0 -0.48341269367675271 0.17637066895233999 0 -0.49170634683837577 0.1941587336203292 0 -0.49368671912131301 0.1828531969182482 0 -0.49999999999999972 0.17362804043903909 0 -0.5 0.19278741936367841 0 -0.49368671912131301 0.1828531969182482 0 -0.48341269367675271 0.17637066895233999 0 -0.49170634683837577 0.1941587336203292 0 -0.49368671912131301 0.1828531969182482 0 -0.49999999999999972 0.17362804043903909 0 -0.49200992699072321 0.1743962810239672 0 -0.49200992699072321 0.1743962810239672 0 -0.48341269367675271 0.17637066895233999 0 -0.49368671912131301 0.1828531969182482 0 -0.49200992699072321 0.1743962810239672 0 -0.48341269367675271 0.17637066895233999 0 -0.48341269367675271 0.17637066895233999 0 -0.45591042926964898 0.18268667049205081 0 -0.47274380268756999 0.19288508587190861 0 -0.48341269367675271 0.17637066895233999 0 -0.45591042926964898 0.18268667049205081 0 -0.49200992699072321 0.1743962810239672 0 -0.48341269367675271 0.17637066895233999 0 -0.47479757173443998 0.15789312434732811 0 -0.48341269367675271 0.17637066895233999 0 -0.47479757173443998 0.15789312434732811 0 -0.48341269367675271 0.17637066895233999 0 -0.47479757173443998 0.15789312434732811 0 -0.45723956394668003 0.16387676974864759 0 -0.48341269367675271 0.17637066895233999 0 -0.45723956394668003 0.16387676974864759 0 -0.45591042926964898 0.18268667049205081 0 -0.45591042926964898 0.18268667049205081 0 -0.43992511097516529 0.17411109905454999 0 -0.4284081648625454 0.1890026720317621 0 -0.45591042926964898 0.18268667049205081 0 -0.4284081648625454 0.1890026720317621 0 -0.45723956394668003 0.16387676974864759 0 -0.45591042926964898 0.18268667049205081 0 -0.43992511097516529 0.17411109905454999 0 -0.45723956394668003 0.16387676974864759 0 -0.43992511097516529 0.17411109905454999 0 -0.43892522612619872 0.15930650560997939 0 -0.43892522612619872 0.15930650560997939 0 -0.43796764784210812 0.14528805014891141 0 -0.45386540436598038 0.14482430837095511 0 -0.45723956394668003 0.16387676974864759 0 -0.43892522612619872 0.15930650560997939 0 -0.45386540436598038 0.14482430837095511 0 -0.45386540436598038 0.14482430837095511 0 -0.43293323699752101 0.1317554923945817 0 -0.43826405507869293 0.1195835460605416 0 -0.44901593584904892 0.12912088192892021 0 -0.43293323699752101 0.1317554923945817 0 -0.43796764784210812 0.14528805014891141 0 -0.45386540436598038 0.14482430837095511 0 -0.43293323699752101 0.1317554923945817 0 -0.44901593584904892 0.12912088192892021 0 -0.45386540436598038 0.14482430837095511 0 -0.43293323699752101 0.1317554923945817 0 -0.45371440568763749 0.1126743632371118 0 -0.44901593584904892 0.12912088192892021 0 -0.46425598871103851 0.13528374379222011 0 -0.44901593584904892 0.12912088192892021 0 -0.46425598871103851 0.13528374379222011 0 -0.45386540436598038 0.14482430837095511 0 -0.47479757173443998 0.15789312434732811 0 -0.45723956394668003 0.16387676974864759 0 -0.45386540436598038 0.14482430837095511 0 -0.47479757173443998 0.15789312434732811 0 -0.46425598871103851 0.13528374379222011 0 -0.45386540436598038 0.14482430837095511 0 -0.47479757173443998 0.15789312434732811 0 -0.45386540436598038 0.14482430837095511 0 -0.48226153920099157 0.23766317590200001 0 -0.47864167104372218 0.246590621409366 0 -0.48932095354102823 0.25454658797793611 0 -0.47315400564016008 0.2364435414805684 0 -0.47864167104372218 0.246590621409366 0 -0.46938038244821267 0.25133041049185839 0 -0.47315400564016008 0.2364435414805684 0 -0.48226153920099157 0.23766317590200001 0 -0.47864167104372218 0.246590621409366 0 -0.49106398183666961 0.22759324404760359 0 -0.48932095354102823 0.25454658797793611 0 -0.5 0.23810140997737081 0 -0.49106398183666961 0.22759324404760359 0 -0.48932095354102823 0.25454658797793611 0 -0.48226153920099157 0.23766317590200001 0 -0.49106398183666961 0.22759324404760359 0 -0.48932095354102823 0.25454658797793611 0 -0.5 0.23810140997737081 0 -0.49106398183666961 0.22759324404760359 0 -0.50000000000000022 0.21194679828831781 0 -0.49106398183666961 0.22759324404760359 0 -0.47912708394337772 0.2231418845945258 0 -0.48726644121087642 0.21298690825741631 0 -0.48226153920099157 0.23766317590200001 0 -0.49106398183666961 0.22759324404760359 0 -0.47912708394337772 0.2231418845945258 0 -0.47315400564016008 0.2364435414805684 0 -0.48226153920099157 0.23766317590200001 0 -0.47912708394337772 0.2231418845945258 0 -0.47315400564016008 0.2364435414805684 0 -0.47912708394337772 0.2231418845945258 0 -0.46764368341616458 0.22415830119077751 0 -0.47912708394337772 0.2231418845945258 0 -0.47360767850491831 0.20951316246361981 0 -0.46764368341616458 0.22415830119077751 0 -0.47360767850491831 0.20951316246361981 0 -0.48726644121087642 0.21298690825741631 0 -0.49170634683837577 0.1941587336203292 0 -0.47912708394337772 0.2231418845945258 0 -0.47360767850491831 0.20951316246361981 0 -0.48726644121087642 0.21298690825741631 0 -0.49106398183666961 0.22759324404760359 0 -0.50000000000000022 0.21194679828831781 0 -0.48726644121087642 0.21298690825741631 0 -0.50000000000000022 0.21194679828831781 0 -0.48726644121087642 0.21298690825741631 0 -0.49170634683837577 0.1941587336203292 0 -0.50000000000000022 0.21194679828831781 0 -0.49170634683837577 0.1941587336203292 0 -0.50000000000000022 0.21194679828831781 0 -0.5 0.19278741936367841 0 -0.49170634683837577 0.1941587336203292 0 -0.49368671912131301 0.1828531969182482 0 -0.5 0.19278741936367841 0 -0.49170634683837577 0.1941587336203292 0 -0.48341269367675271 0.17637066895233999 0 -0.49170634683837577 0.1941587336203292 0 -0.47274380268756999 0.19288508587190861 0 -0.47360767850491831 0.20951316246361981 0 -0.49170634683837577 0.1941587336203292 0 -0.47274380268756999 0.19288508587190861 0 -0.47360767850491831 0.20951316246361981 0 -0.47274380268756999 0.19288508587190861 0 -0.45820261548712909 0.20353130823034371 0 -0.45591042926964898 0.18268667049205081 0 -0.47274380268756999 0.19288508587190861 0 -0.45820261548712909 0.20353130823034371 0 -0.45591042926964898 0.18268667049205081 0 -0.43516662619925378 0.20614333559983469 0 -0.4284081648625454 0.1890026720317621 0 -0.45591042926964898 0.18268667049205081 0 -0.45820261548712909 0.20353130823034371 0 -0.43516662619925378 0.20614333559983469 0 -0.44192508753596349 0.22328399916790689 0 -0.43516662619925378 0.20614333559983469 0 -0.45032248765871591 0.2151961798839368 0 -0.44192508753596349 0.22328399916790689 0 -0.43516662619925378 0.20614333559983469 0 -0.45032248765871591 0.2151961798839368 0 -0.45820261548712909 0.20353130823034371 0 -0.43516662619925378 0.20614333559983469 0 -0.45032248765871591 0.2151961798839368 0 -0.46109406183397039 0.21551848415653921 0 -0.45620465585954723 0.2251951411450015 0 -0.45032248765871591 0.2151961798839368 0 -0.45820261548712909 0.20353130823034371 0 -0.46109406183397039 0.21551848415653921 0 -0.47360767850491831 0.20951316246361981 0 -0.45820261548712909 0.20353130823034371 0 -0.46109406183397039 0.21551848415653921 0 -0.47360767850491831 0.20951316246361981 0 -0.46109406183397039 0.21551848415653921 0 -0.46764368341616458 0.22415830119077751 0 -0.47315400564016008 0.2364435414805684 0 -0.46764368341616458 0.22415830119077751 0 -0.45925329591452863 0.2407771106774913 0 -0.46764368341616458 0.22415830119077751 0 -0.45620465585954723 0.2251951411450015 0 -0.45925329591452863 0.2407771106774913 0 -0.46109406183397039 0.21551848415653921 0 -0.46764368341616458 0.22415830119077751 0 -0.45620465585954723 0.2251951411450015 0 -0.45032248765871591 0.2151961798839368 0 -0.45620465585954723 0.2251951411450015 0 -0.44192508753596349 0.22328399916790689 0 -0.44192508753596349 0.22328399916790689 0 -0.44062222049055039 0.24203477259657111 0 -0.43146145522804691 0.2313120115293863 0 -0.45620465585954723 0.2251951411450015 0 -0.44062222049055039 0.24203477259657111 0 -0.45620465585954723 0.2251951411450015 0 -0.44192508753596349 0.22328399916790689 0 -0.44062222049055039 0.24203477259657111 0 -0.44062222049055039 0.24203477259657111 0 -0.45046339488490522 0.249057113070103 0 -0.44442574262614493 0.25832327296872359 0 -0.44062222049055039 0.24203477259657111 0 -0.45046339488490522 0.249057113070103 0 -0.45925329591452863 0.2407771106774913 0 -0.45620465585954723 0.2251951411450015 0 -0.44062222049055039 0.24203477259657111 0 -0.45925329591452863 0.2407771106774913 0 -0.45046339488490522 0.249057113070103 0 -0.45925329591452863 0.2407771106774913 0 -0.45807104112411212 0.25534721177055669 0 -0.45925329591452863 0.2407771106774913 0 -0.46938038244821267 0.25133041049185839 0 -0.45807104112411212 0.25534721177055669 0 -0.47315400564016008 0.2364435414805684 0 -0.45925329591452863 0.2407771106774913 0 -0.46938038244821267 0.25133041049185839 0 -0.4198454647722451 0.23985190764030939 0 -0.40081965837488509 0.24074316727492401 0 -0.40585136056822319 0.25674789398696107 0 -0.4198454647722451 0.23985190764030939 0 -0.405480724964072 0.22581663549259839 0 -0.40081965837488509 0.24074316727492401 0 -0.44062222049055039 0.24203477259657111 0 -0.4198454647722451 0.23985190764030939 0 -0.42503978512155383 0.25887440404814072 0 -0.44062222049055039 0.24203477259657111 0 -0.4198454647722451 0.23985190764030939 0 -0.43146145522804691 0.2313120115293863 0 -0.4198454647722451 0.23985190764030939 0 -0.43146145522804691 0.2313120115293863 0 -0.42370673975344808 0.22056464269113771 0 -0.44192508753596349 0.22328399916790689 0 -0.43146145522804691 0.2313120115293863 0 -0.42370673975344808 0.22056464269113771 0 -0.4198454647722451 0.23985190764030939 0 -0.42370673975344808 0.22056464269113771 0 -0.405480724964072 0.22581663549259839 0 -0.42370673975344808 0.22056464269113771 0 -0.40708390191205951 0.20882890034131879 0 -0.405480724964072 0.22581663549259839 0 -0.42370673975344808 0.22056464269113771 0 -0.40708390191205951 0.20882890034131879 0 -0.42107335870595469 0.2022269477122331 0 -0.44192508753596349 0.22328399916790689 0 -0.42370673975344808 0.22056464269113771 0 -0.43516662619925378 0.20614333559983469 0 -0.42370673975344808 0.22056464269113771 0 -0.43516662619925378 0.20614333559983469 0 -0.42107335870595469 0.2022269477122331 0 -0.43516662619925378 0.20614333559983469 0 -0.4284081648625454 0.1890026720317621 0 -0.42107335870595469 0.2022269477122331 0 -0.43516662619925378 0.20614333559983469 0 -0.4284081648625454 0.1890026720317621 0 -0.4284081648625454 0.1890026720317621 0 -0.40915969581062839 0.19342315750049971 0 -0.4284081648625454 0.1890026720317621 0 -0.42107335870595469 0.2022269477122331 0 -0.40915969581062839 0.19342315750049971 0 -0.40708390191205951 0.20882890034131879 0 -0.42107335870595469 0.2022269477122331 0 -0.40915969581062839 0.19342315750049971 0 -0.40708390191205951 0.20882890034131879 0 -0.40915969581062839 0.19342315750049971 0 -0.38991122675871148 0.19784364296923759 0 -0.40915969581062839 0.19342315750049971 0 -0.38991122675871148 0.19784364296923759 0 -0.40915969581062839 0.19342315750049971 0 -0.38991122675871148 0.19784364296923759 0 -0.39569501158598158 0.17813944679546001 0 -0.39158905321283283 0.2136173787495643 0 -0.38435338999826391 0.22831720607051781 0 -0.36414166766971379 0.2074649771098355 0 -0.38991122675871148 0.19784364296923759 0 -0.39158905321283283 0.2136173787495643 0 -0.36414166766971379 0.2074649771098355 0 -0.40708390191205951 0.20882890034131879 0 -0.39158905321283283 0.2136173787495643 0 -0.405480724964072 0.22581663549259839 0 -0.40708390191205951 0.20882890034131879 0 -0.38991122675871148 0.19784364296923759 0 -0.39158905321283283 0.2136173787495643 0 -0.405480724964072 0.22581663549259839 0 -0.38435338999826391 0.22831720607051781 0 -0.40081965837488509 0.24074316727492401 0 -0.39158905321283283 0.2136173787495643 0 -0.405480724964072 0.22581663549259839 0 -0.38435338999826391 0.22831720607051781 0 -0.37619177155740557 0.24036243622333081 0 -0.38790582398472923 0.24962922847932231 0 -0.36318679658289171 0.25196182354824148 0 -0.38435338999826391 0.22831720607051781 0 -0.37619177155740557 0.24036243622333081 0 -0.38790582398472923 0.24962922847932231 0 -0.38435338999826391 0.22831720607051781 0 -0.38790582398472923 0.24962922847932231 0 -0.40081965837488509 0.24074316727492401 0 -0.38790582398472923 0.24962922847932231 0 -0.40081965837488509 0.24074316727492401 0 -0.40585136056822319 0.25674789398696107 0 -0.40926453963391513 0.14045102348790381 0 -0.42614672387873248 0.14526589422012931 0 -0.41883635224822963 0.16472684775983329 0 -0.40926453963391513 0.14045102348790381 0 -0.41883635224822963 0.16472684775983329 0 -0.40926453963391513 0.14045102348790381 0 -0.41883635224822963 0.16472684775983329 0 -0.40029434983296169 0.15790366282291429 0 -0.40926453963391513 0.14045102348790381 0 -0.417579207348795 0.13056668242546571 0 -0.40026410281127539 0.13237877311027449 0 -0.40926453963391513 0.14045102348790381 0 -0.417579207348795 0.13056668242546571 0 -0.42614672387873248 0.14526589422012931 0 -0.417579207348795 0.13056668242546571 0 -0.43293323699752101 0.1317554923945817 0 -0.42614672387873248 0.14526589422012931 0 -0.42608096723388439 0.1205091241492761 0 -0.417579207348795 0.13056668242546571 0 -0.43293323699752101 0.1317554923945817 0 -0.43796764784210812 0.14528805014891141 0 -0.43293323699752101 0.1317554923945817 0 -0.42614672387873248 0.14526589422012931 0 -0.43892522612619872 0.15930650560997939 0 -0.43796764784210812 0.14528805014891141 0 -0.42614672387873248 0.14526589422012931 0 -0.43892522612619872 0.15930650560997939 0 -0.42614672387873248 0.14526589422012931 0 -0.41883635224822963 0.16472684775983329 0 -0.43992511097516529 0.17411109905454999 0 -0.43892522612619872 0.15930650560997939 0 -0.41883635224822963 0.16472684775983329 0 -0.4284081648625454 0.1890026720317621 0 -0.41883635224822963 0.16472684775983329 0 -0.43992511097516529 0.17411109905454999 0 -0.4284081648625454 0.1890026720317621 0 -0.41883635224822963 0.16472684775983329 0 -0.40915969581062839 0.19342315750049971 0 -0.41883635224822963 0.16472684775983329 0 -0.39569501158598158 0.17813944679546001 0 -0.4284081648625454 0.1890026720317621 0 -0.40915969581062839 0.19342315750049971 0 -0.41883635224822963 0.16472684775983329 0 -0.40029434983296169 0.15790366282291429 0 -0.39569501158598158 0.17813944679546001 0 -0.38484252596519369 0.16167484958157691 0 -0.41883635224822963 0.16472684775983329 0 -0.40029434983296169 0.15790366282291429 0 -0.39569501158598158 0.17813944679546001 0 -0.39569501158598158 0.17813944679546001 0 -0.38484252596519369 0.16167484958157691 0 -0.36525228834216061 0.17922160577889321 0 -0.38991122675871148 0.19784364296923759 0 -0.39569501158598158 0.17813944679546001 0 -0.36525228834216061 0.17922160577889321 0 -0.39283331973148827 0.14452614648979731 0 -0.38372255811484618 0.13025780258704611 0 -0.36636290901460722 0.1509782344479508 0 -0.38484252596519369 0.16167484958157691 0 -0.39283331973148827 0.14452614648979731 0 -0.36636290901460722 0.1509782344479508 0 -0.40029434983296169 0.15790366282291429 0 -0.38484252596519369 0.16167484958157691 0 -0.39283331973148827 0.14452614648979731 0 -0.40926453963391513 0.14045102348790381 0 -0.40029434983296169 0.15790366282291429 0 -0.39283331973148827 0.14452614648979731 0 -0.39283331973148827 0.14452614648979731 0 -0.40026410281127539 0.13237877311027449 0 -0.38372255811484618 0.13025780258704611 0 -0.39792088922733271 0.1160922105611595 0 -0.417579207348795 0.13056668242546571 0 -0.40026410281127539 0.13237877311027449 0 -0.39792088922733271 0.1160922105611595 0 -0.40026410281127539 0.13237877311027449 0 -0.38372255811484618 0.13025780258704611 0 -0.40926453963391513 0.14045102348790381 0 -0.39283331973148827 0.14452614648979731 0 -0.40026410281127539 0.13237877311027449 0 -0.38372255811484618 0.13025780258704611 0 -0.36636290901460722 0.1509782344479508 0 -0.36747352968705388 0.12273486311700831 0 -0.36636290901460722 0.1509782344479508 0 -0.36747352968705388 0.12273486311700831 0 -0.35528769071996391 0.12689780186549679 0 -0.36636290901460722 0.1509782344479508 0 -0.36747352968705388 0.12273486311700831 0 -0.35528769071996391 0.12689780186549679 0 -0.33512599087492562 0.1447950320020088 0 -0.35528769071996391 0.12689780186549679 0 -0.35168351666373848 0.14314256241625531 0 -0.33512599087492562 0.1447950320020088 0 -0.35528769071996391 0.12689780186549679 0 -0.33512599087492562 0.1447950320020088 0 -0.34115039425197219 0.12498493974687711 0 -0.35528769071996391 0.12689780186549679 0 -0.35168351666373848 0.14314256241625531 0 -0.36636290901460722 0.1509782344479508 0 -0.35168351666373848 0.14314256241625531 0 -0.36636290901460722 0.1509782344479508 0 -0.34333519974196419 0.16612441953572921 0 -0.38484252596519369 0.16167484958157691 0 -0.36636290901460722 0.1509782344479508 0 -0.36525228834216061 0.17922160577889321 0 -0.36636290901460722 0.1509782344479508 0 -0.36525228834216061 0.17922160577889321 0 -0.36525228834216061 0.17922160577889321 0 -0.34333519974196419 0.16612441953572921 0 -0.34654591437965571 0.19533490523866279 0 -0.36636290901460722 0.1509782344479508 0 -0.36525228834216061 0.17922160577889321 0 -0.34333519974196419 0.16612441953572921 0 -0.34333519974196419 0.16612441953572921 0 -0.31496429102988749 0.16269226213852109 0 -0.33512599087492562 0.1447950320020088 0 -0.34333519974196419 0.16612441953572921 0 -0.34654591437965571 0.19533490523866279 0 -0.32412519241006588 0.1878495682783011 0 -0.31496429102988749 0.16269226213852109 0 -0.32412519241006588 0.1878495682783011 0 -0.34333519974196419 0.16612441953572921 0 -0.31496429102988749 0.16269226213852109 0 -0.32412519241006588 0.1878495682783011 0 -0.31303823693556859 0.17707572181323081 0 -0.31496429102988749 0.16269226213852109 0 -0.32412519241006588 0.1878495682783011 0 -0.31303823693556859 0.17707572181323081 0 -0.32412519241006588 0.1878495682783011 0 -0.3108046026399135 0.18379038091696129 0 -0.31496429102988749 0.16269226213852109 0 -0.31353256245119709 0.1587605055712967 0 -0.31354631638020197 0.13395604467094269 0 -0.33512599087492562 0.1447950320020088 0 -0.3122891553291075 0.14635758184588041 0 -0.31353256245119709 0.1587605055712967 0 -0.33512599087492562 0.1447950320020088 0 -0.3122891553291075 0.14635758184588041 0 -0.31496429102988749 0.16269226213852109 0 -0.31353256245119709 0.1587605055712967 0 -0.33512599087492562 0.1447950320020088 0 -0.31496429102988749 0.16269226213852109 0 -0.33512599087492562 0.1447950320020088 0 -0.31354631638020197 0.13395604467094269 0 -0.32917568526667751 0.12578156900391591 0 -0.33512599087492562 0.1447950320020088 0 -0.31354631638020197 0.13395604467094269 0 -0.32917568526667751 0.12578156900391591 0 -0.32114709127587232 0.11611322513389059 0 -0.32917568526667751 0.12578156900391591 0 -0.33512599087492562 0.1447950320020088 0 -0.34115039425197219 0.12498493974687711 0 -0.35168351666373848 0.14314256241625531 0 -0.34333519974196419 0.16612441953572921 0 -0.33512599087492562 0.1447950320020088 0 -0.36303104699726713 0.23570834844077809 0 -0.34244699517042121 0.23816418055786151 0 -0.36318679658289171 0.25196182354824148 0 -0.34244699517042121 0.23816418055786151 0 -0.36318679658289171 0.25196182354824148 0 -0.33952374355129727 0.25899057541505788 0 -0.37619177155740557 0.24036243622333081 0 -0.36303104699726713 0.23570834844077809 0 -0.36318679658289171 0.25196182354824148 0 -0.38435338999826391 0.22831720607051781 0 -0.37619177155740557 0.24036243622333081 0 -0.36303104699726713 0.23570834844077809 0 -0.38435338999826391 0.22831720607051781 0 -0.36303104699726713 0.23570834844077809 0 -0.36414166766971379 0.2074649771098355 0 -0.36303104699726713 0.23570834844077809 0 -0.36414166766971379 0.2074649771098355 0 -0.36303104699726713 0.23570834844077809 0 -0.35084793517488477 0.2210857468323085 0 -0.34244699517042121 0.23816418055786151 0 -0.36303104699726713 0.23570834844077809 0 -0.35084793517488477 0.2210857468323085 0 -0.36414166766971379 0.2074649771098355 0 -0.35084793517488477 0.2210857468323085 0 -0.36414166766971379 0.2074649771098355 0 -0.34654591437965571 0.19533490523866279 0 -0.36525228834216061 0.17922160577889321 0 -0.36414166766971379 0.2074649771098355 0 -0.38991122675871148 0.19784364296923759 0 -0.36525228834216061 0.17922160577889321 0 -0.36414166766971379 0.2074649771098355 0 -0.36525228834216061 0.17922160577889321 0 -0.36414166766971379 0.2074649771098355 0 -0.34654591437965571 0.19533490523866279 0 -0.32412519241006588 0.1878495682783011 0 -0.33328609379024349 0.2130068744180813 0 -0.34654591437965571 0.19533490523866279 0 -0.32412519241006588 0.1878495682783011 0 -0.33328609379024349 0.2130068744180813 0 -0.32412519241006588 0.1878495682783011 0 -0.33328609379024349 0.2130068744180813 0 -0.31080006153106382 0.20197173666100501 0 -0.32412519241006588 0.1878495682783011 0 -0.31080006153106382 0.20197173666100501 0 -0.3108046026399135 0.18379038091696129 0 -0.33328609379024349 0.2130068744180813 0 -0.31873218963182409 0.22654972870499029 0 -0.31080006153106382 0.20197173666100501 0 -0.35084793517488477 0.2210857468323085 0 -0.34654591437965571 0.19533490523866279 0 -0.33328609379024349 0.2130068744180813 0 -0.35084793517488477 0.2210857468323085 0 -0.33328609379024349 0.2130068744180813 0 -0.34244699517042121 0.23816418055786151 0 -0.33328609379024349 0.2130068744180813 0 -0.34244699517042121 0.23816418055786151 0 -0.33328609379024349 0.2130068744180813 0 -0.31873218963182409 0.22654972870499029 0 -0.34244699517042121 0.23816418055786151 0 -0.31873218963182409 0.22654972870499029 0 -0.32200613725511351 0.24850726385495631 0 -0.34244699517042121 0.23816418055786151 0 -0.31873218963182409 0.22654972870499029 0 -0.32200613725511351 0.24850726385495631 0 -0.30672251365844311 0.23743048015470111 0 -0.32200613725511351 0.24850726385495631 0 -0.34244699517042121 0.23816418055786151 0 -0.33952374355129727 0.25899057541505788 0 -0.29125564533142001 0.24067530578368901 0 -0.30672251365844311 0.23743048015470111 0 -0.30640548876467488 0.25787073169030861 0 -0.32200613725511351 0.24850726385495631 0 -0.30672251365844311 0.23743048015470111 0 -0.30640548876467488 0.25787073169030861 0 -0.29125564533142001 0.24067530578368901 0 -0.30672251365844311 0.23743048015470111 0 -0.29521310730918271 0.21354937073956171 0 -0.31873218963182409 0.22654972870499029 0 -0.30672251365844311 0.23743048015470111 0 -0.29521310730918271 0.21354937073956171 0 -0.29125564533142001 0.24067530578368901 0 -0.29521310730918271 0.21354937073956171 0 -0.29125564533142001 0.24067530578368901 0 -0.29521310730918271 0.21354937073956171 0 -0.27258595833473342 0.22149207507906341 0 -0.29521310730918271 0.21354937073956171 0 -0.28878760701375322 0.1984352968903606 0 -0.27490594785389072 0.20112241201531189 0 -0.31873218963182409 0.22654972870499029 0 -0.29521310730918271 0.21354937073956171 0 -0.31080006153106382 0.20197173666100501 0 -0.29521310730918271 0.21354937073956171 0 -0.29917056928694541 0.1864234356954344 0 -0.29521310730918271 0.21354937073956171 0 -0.31080006153106382 0.20197173666100501 0 -0.29917056928694541 0.1864234356954344 0 -0.31080006153106382 0.20197173666100501 0 -0.3108046026399135 0.18379038091696129 0 -0.29917056928694541 0.1864234356954344 0 -0.28878760701375322 0.1984352968903606 0 -0.29917056928694541 0.1864234356954344 0 -0.28955343229492791 0.1852490896997587 0 -0.29521310730918271 0.21354937073956171 0 -0.28878760701375322 0.1984352968903606 0 -0.29917056928694541 0.1864234356954344 0 -0.28878760701375322 0.1984352968903606 0 -0.27938784373491388 0.18917199981814359 0 -0.28955343229492791 0.1852490896997587 0 -0.27938784373491388 0.18917199981814359 0 -0.27490594785389072 0.20112241201531189 0 -0.26439180367967152 0.18225540552070321 0 -0.28878760701375322 0.1984352968903606 0 -0.27938784373491388 0.18917199981814359 0 -0.27490594785389072 0.20112241201531189 0 -0.27490594785389072 0.20112241201531189 0 -0.25370102580463139 0.2052288024824625 0 -0.26439180367967152 0.18225540552070321 0 -0.25370102580463139 0.2052288024824625 0 -0.26439180367967152 0.18225540552070321 0 -0.23359887481107691 0.1809086922627815 0 -0.27490594785389072 0.20112241201531189 0 -0.25370102580463139 0.2052288024824625 0 -0.27258595833473342 0.22149207507906341 0 -0.29521310730918271 0.21354937073956171 0 -0.27490594785389072 0.20112241201531189 0 -0.27258595833473342 0.22149207507906341 0 -0.29125564533142001 0.24067530578368901 0 -0.27258595833473342 0.22149207507906341 0 -0.26834113505385238 0.23837358332174549 0 -0.27258595833473342 0.22149207507906341 0 -0.25272375818517617 0.22994970808158929 0 -0.26834113505385238 0.23837358332174549 0 -0.25370102580463139 0.2052288024824625 0 -0.27258595833473342 0.22149207507906341 0 -0.25272375818517617 0.22994970808158929 0 -0.25272375818517617 0.22994970808158929 0 -0.25621817608628389 0.2460965770837312 0 -0.26834113505385238 0.23837358332174549 0 -0.25621817608628389 0.2460965770837312 0 -0.26834113505385238 0.23837358332174549 0 -0.26892213733164849 0.25365425058065472 0 -0.29125564533142001 0.24067530578368901 0 -0.26834113505385238 0.23837358332174549 0 -0.26892213733164849 0.25365425058065472 0 -0.29370567785695612 0.15770531643225719 0 -0.28412418886142132 0.16518528890623771 0 -0.28065913062351988 0.14575155473079041 0 -0.30159211447790629 0.14759241864651959 0 -0.29370567785695612 0.15770531643225719 0 -0.28065913062351988 0.14575155473079041 0 -0.29682817834931757 0.13068013418198679 0 -0.30159211447790629 0.14759241864651959 0 -0.28065913062351988 0.14575155473079041 0 -0.29682817834931757 0.13068013418198679 0 -0.28065913062351988 0.14575155473079041 0 -0.28285123447775751 0.1183560919224374 0 -0.31354631638020197 0.13395604467094269 0 -0.29682817834931757 0.13068013418198679 0 -0.30159211447790629 0.14759241864651959 0 -0.31354631638020197 0.13395604467094269 0 -0.3122891553291075 0.14635758184588041 0 -0.30159211447790629 0.14759241864651959 0 -0.31353256245119709 0.1587605055712967 0 -0.3122891553291075 0.14635758184588041 0 -0.30159211447790629 0.14759241864651959 0 -0.31496429102988749 0.16269226213852109 0 -0.31353256245119709 0.1587605055712967 0 -0.30488677357152572 0.1641353808659653 0 -0.30159211447790629 0.14759241864651959 0 -0.30488677357152572 0.1641353808659653 0 -0.29370567785695612 0.15770531643225719 0 -0.31353256245119709 0.1587605055712967 0 -0.30159211447790629 0.14759241864651959 0 -0.30488677357152572 0.1641353808659653 0 -0.31496429102988749 0.16269226213852109 0 -0.30225886166240762 0.17397067591913981 0 -0.31303823693556859 0.17707572181323081 0 -0.31496429102988749 0.16269226213852109 0 -0.30225886166240762 0.17397067591913981 0 -0.31496429102988749 0.16269226213852109 0 -0.30488677357152572 0.1641353808659653 0 -0.30225886166240762 0.17397067591913981 0 -0.30488677357152572 0.1641353808659653 0 -0.30225886166240762 0.17397067591913981 0 -0.29597535979189887 0.1670989905046398 0 -0.30488677357152572 0.1641353808659653 0 -0.29370567785695612 0.15770531643225719 0 -0.29597535979189887 0.1670989905046398 0 -0.31303823693556859 0.17707572181323081 0 -0.3108046026399135 0.18379038091696129 0 -0.30225886166240762 0.17397067591913981 0 -0.30225886166240762 0.17397067591913981 0 -0.29917056928694541 0.1864234356954344 0 -0.28955343229492791 0.1852490896997587 0 -0.3108046026399135 0.18379038091696129 0 -0.30225886166240762 0.17397067591913981 0 -0.29917056928694541 0.1864234356954344 0 -0.30225886166240762 0.17397067591913981 0 -0.28955343229492791 0.1852490896997587 0 -0.30225886166240762 0.17397067591913981 0 -0.28955343229492791 0.1852490896997587 0 -0.29024545837739651 0.173916500811098 0 -0.28955343229492791 0.1852490896997587 0 -0.29024545837739651 0.173916500811098 0 -0.27889874324695868 0.17762520371433099 0 -0.29024545837739651 0.173916500811098 0 -0.28412418886142132 0.16518528890623771 0 -0.27889874324695868 0.17762520371433099 0 -0.27938784373491388 0.18917199981814359 0 -0.28955343229492791 0.1852490896997587 0 -0.27889874324695868 0.17762520371433099 0 -0.29370567785695612 0.15770531643225719 0 -0.29597535979189887 0.1670989905046398 0 -0.28412418886142132 0.16518528890623771 0 -0.30225886166240762 0.17397067591913981 0 -0.29024545837739651 0.173916500811098 0 -0.29597535979189887 0.1670989905046398 0 -0.29024545837739651 0.173916500811098 0 -0.29597535979189887 0.1670989905046398 0 -0.28412418886142132 0.16518528890623771 0 -0.28412418886142132 0.16518528890623771 0 -0.26844272787379447 0.16268744982768751 0 -0.27889874324695868 0.17762520371433099 0 -0.28412418886142132 0.16518528890623771 0 -0.26844272787379447 0.16268744982768751 0 -0.28065913062351988 0.14575155473079041 0 -0.26844272787379447 0.16268744982768751 0 -0.27889874324695868 0.17762520371433099 0 -0.26439180367967152 0.18225540552070321 0 -0.27938784373491388 0.18917199981814359 0 -0.27889874324695868 0.17762520371433099 0 -0.26439180367967152 0.18225540552070321 0 -0.26844272787379447 0.16268744982768751 0 -0.26439180367967152 0.18225540552070321 0 -0.247018622616726 0.15992587597476091 0 -0.26844272787379447 0.16268744982768751 0 -0.25846103874104392 0.14702121199507179 0 -0.247018622616726 0.15992587597476091 0 -0.26844272787379447 0.16268744982768751 0 -0.25846103874104392 0.14702121199507179 0 -0.28065913062351988 0.14575155473079041 0 -0.25846103874104392 0.14702121199507179 0 -0.28065913062351988 0.14575155473079041 0 -0.25922316449870308 0.12628093809151891 0 -0.28065913062351988 0.14575155473079041 0 -0.25922316449870308 0.12628093809151891 0 -0.28285123447775751 0.1183560919224374 0 -0.25846103874104392 0.14702121199507179 0 -0.25922316449870308 0.12628093809151891 0 -0.2369615480924761 0.1404602413506009 0 -0.25922316449870308 0.12628093809151891 0 -0.25136603029008331 0.1103208693098497 0 -0.26687835675477128 0.1014348965859585 0 -0.25136603029008331 0.1103208693098497 0 -0.26687835675477128 0.1014348965859585 0 -0.24377998071086901 0.096378574065869249 0 -0.26687835675477128 0.1014348965859585 0 -0.28737892951993471 0.098967158637655914 0 -0.27569457229827071 0.081243623470509244 0 -0.26687835675477128 0.1014348965859585 0 -0.28285123447775751 0.1183560919224374 0 -0.28737892951993471 0.098967158637655914 0 -0.25922316449870308 0.12628093809151891 0 -0.26687835675477128 0.1014348965859585 0 -0.28285123447775751 0.1183560919224374 0 -0.29682817834931757 0.13068013418198679 0 -0.28285123447775751 0.1183560919224374 0 -0.30549209578720232 0.10774456093924389 0 -0.28285123447775751 0.1183560919224374 0 -0.28737892951993471 0.098967158637655914 0 -0.30549209578720232 0.10774456093924389 0 -0.28737892951993471 0.098967158637655914 0 -0.30549209578720232 0.10774456093924389 0 -0.29743787519420251 0.08153307720754506 0 -0.30549209578720232 0.10774456093924389 0 -0.29743787519420251 0.08153307720754506 0 -0.31354631638020197 0.13395604467094269 0 -0.29682817834931757 0.13068013418198679 0 -0.30549209578720232 0.10774456093924389 0 -0.31354631638020197 0.13395604467094269 0 -0.30549209578720232 0.10774456093924389 0 -0.29926204670725021 0.066629363318123747 0 -0.30931237829482389 0.073252958087475881 0 -0.31697319293959142 0.061410437985649477 0 -0.29926204670725021 0.066629363318123747 0 -0.30931237829482389 0.073252958087475881 0 -0.29743787519420251 0.08153307720754506 0 -0.30549209578720232 0.10774456093924389 0 -0.29743787519420251 0.08153307720754506 0 -0.31312795334666071 0.083579729522452809 0 -0.30931237829482389 0.073252958087475881 0 -0.29743787519420251 0.08153307720754506 0 -0.31312795334666071 0.083579729522452809 0 -0.28737892951993471 0.098967158637655914 0 -0.29743787519420251 0.08153307720754506 0 -0.27569457229827071 0.081243623470509244 0 -0.29743787519420251 0.08153307720754506 0 -0.28743776060402371 0.060458689408765323 0 -0.28938365460120269 0.05532159347584624 0 -0.29743787519420251 0.08153307720754506 0 -0.28938365460120269 0.05532159347584624 0 -0.29926204670725021 0.066629363318123747 0 -0.29743787519420251 0.08153307720754506 0 -0.28938365460120269 0.05532159347584624 0 -0.29743787519420251 0.08153307720754506 0 -0.27569457229827071 0.081243623470509244 0 -0.28743776060402371 0.060458689408765323 0 -0.27569457229827071 0.081243623470509244 0 -0.26257114212692878 0.06573449919026883 0 -0.28743776060402371 0.060458689408765323 0 -0.26257114212692878 0.06573449919026883 0 -0.28743776060402371 0.060458689408765323 0 -0.26687835675477128 0.1014348965859585 0 -0.25261226255175379 0.080423606239198905 0 -0.24377998071086901 0.096378574065869249 0 -0.26687835675477128 0.1014348965859585 0 -0.27569457229827071 0.081243623470509244 0 -0.25261226255175379 0.080423606239198905 0 -0.26257114212692878 0.06573449919026883 0 -0.23770452364983391 0.071010308971772351 0 -0.25261226255175379 0.080423606239198905 0 -0.26257114212692878 0.06573449919026883 0 -0.23770452364983391 0.071010308971772351 0 -0.27569457229827071 0.081243623470509244 0 -0.25261226255175379 0.080423606239198905 0 -0.26257114212692878 0.06573449919026883 0 -0.2522816967992324 0.037264740289820159 0 -0.27263172987273521 0.051913181220590639 0 -0.24906194248509719 0.058488871325365822 0 -0.26257114212692878 0.06573449919026883 0 -0.27263172987273521 0.051913181220590639 0 -0.24906194248509719 0.058488871325365822 0 -0.2522816967992324 0.037264740289820159 0 -0.2684979789729644 0.03593820420606865 0 -0.27263172987273521 0.051913181220590639 0 -0.2684979789729644 0.03593820420606865 0 -0.27263172987273521 0.051913181220590639 0 -0.28132943400820298 0.02911010974414751 0 -0.27263172987273521 0.051913181220590639 0 -0.28132943400820298 0.02911010974414751 0 -0.28938365460120269 0.05532159347584624 0 -0.26257114212692878 0.06573449919026883 0 -0.27263172987273521 0.051913181220590639 0 -0.28743776060402371 0.060458689408765323 0 -0.25267499080189931 -0.0034516002120552492 0 -0.26909988492935111 -0.0018655285383734981 0 -0.25157722050270093 0.012682655753942951 0 -0.26909988492935111 -0.0018655285383734981 0 -0.25157722050270093 0.012682655753942951 0 -0.27200359261247947 0.017754051058092819 0 -0.2522816967992324 0.037264740289820159 0 -0.25157722050270093 0.012682655753942951 0 -0.27200359261247947 0.017754051058092819 0 -0.2522816967992324 0.037264740289820159 0 -0.2684979789729644 0.03593820420606865 0 -0.27200359261247947 0.017754051058092819 0 -0.2522816967992324 0.037264740289820159 0 -0.27200359261247947 0.017754051058092819 0 -0.27200359261247947 0.017754051058092819 0 -0.28831373269731447 0.017122983851404761 0 -0.28132943400820298 0.02911010974414751 0 -0.2684979789729644 0.03593820420606865 0 -0.27200359261247947 0.017754051058092819 0 -0.28132943400820298 0.02911010974414751 0 -0.26909988492935111 -0.0018655285383734981 0 -0.2917254884257266 -0.0017566381736345419 0 -0.27200359261247947 0.017754051058092819 0 -0.2917254884257266 -0.0017566381736345419 0 -0.27200359261247947 0.017754051058092819 0 -0.28831373269731447 0.017122983851404761 0 -0.2917254884257266 -0.0017566381736345419 0 -0.28831373269731447 0.017122983851404761 0 -0.29997880334656019 0.01439552450637107 0 -0.2917254884257266 -0.0017566381736345419 0 -0.27200359261247947 0.017754051058092819 0 -0.28831373269731447 0.017122983851404761 0 -0.29656482898857922 0.02610767777843559 0 -0.29997880334656019 0.01439552450637107 0 -0.28831373269731447 0.017122983851404761 0 -0.28132943400820298 0.02911010974414751 0 -0.29656482898857922 0.02610767777843559 0 -0.28132943400820298 0.02911010974414751 0 -0.29656482898857922 0.02610767777843559 0 -0.29344050585463782 0.03493273697686209 0 -0.29656482898857922 0.02610767777843559 0 -0.31039051656375261 0.022327184027059441 0 -0.30541723396373921 0.038711125382435783 0 -0.31039051656375261 0.022327184027059441 0 -0.30541723396373921 0.038711125382435783 0 -0.32038394146944787 0.031620215762440292 0 -0.29656482898857922 0.02610767777843559 0 -0.31039051656375261 0.022327184027059441 0 -0.29997880334656019 0.01439552450637107 0 -0.31039051656375261 0.022327184027059441 0 -0.31177688145040278 0.0050359958776742568 0 -0.29997880334656019 0.01439552450637107 0 -0.2917254884257266 -0.0017566381736345419 0 -0.31177688145040278 0.0050359958776742568 0 -0.29997880334656019 0.01439552450637107 0 -0.27263172987273521 0.051913181220590639 0 -0.28743776060402371 0.060458689408765323 0 -0.28938365460120269 0.05532159347584624 0 -0.28938365460120269 0.05532159347584624 0 -0.29045052645802971 0.045802035002429492 0 -0.29738278035354182 0.050541329601553678 0 -0.28938365460120269 0.05532159347584624 0 -0.29738278035354182 0.050541329601553678 0 -0.29780899910201009 0.056562827273038227 0 -0.29926204670725021 0.066629363318123747 0 -0.28938365460120269 0.05532159347584624 0 -0.29780899910201009 0.056562827273038227 0 -0.28132943400820298 0.02911010974414751 0 -0.28938365460120269 0.05532159347584624 0 -0.29045052645802971 0.045802035002429492 0 -0.28132943400820298 0.02911010974414751 0 -0.28938365460120269 0.05532159347584624 0 -0.28132943400820298 0.02911010974414751 0 -0.29344050585463782 0.03493273697686209 0 -0.29045052645802971 0.045802035002429492 0 -0.29344050585463782 0.03493273697686209 0 -0.29045052645802971 0.045802035002429492 0 -0.30541723396373921 0.038711125382435783 0 -0.29045052645802971 0.045802035002429492 0 -0.30541723396373921 0.038711125382435783 0 -0.29738278035354182 0.050541329601553678 0 -0.29045052645802971 0.045802035002429492 0 -0.30541723396373921 0.038711125382435783 0 -0.29656482898857922 0.02610767777843559 0 -0.29344050585463782 0.03493273697686209 0 -0.30541723396373921 0.038711125382435783 0 -0.30541723396373921 0.038711125382435783 0 -0.30520751474604563 0.05375902269662923 0 -0.31780711793698518 0.045521831715634557 0 -0.29926204670725021 0.066629363318123747 0 -0.30520751474604563 0.05375902269662923 0 -0.31697319293959142 0.061410437985649477 0 -0.30541723396373921 0.038711125382435783 0 -0.30520751474604563 0.05375902269662923 0 -0.29738278035354182 0.050541329601553678 0 -0.30520751474604563 0.05375902269662923 0 -0.29738278035354182 0.050541329601553678 0 -0.29780899910201009 0.056562827273038227 0 -0.29926204670725021 0.066629363318123747 0 -0.30520751474604563 0.05375902269662923 0 -0.29780899910201009 0.056562827273038227 0 -0.32553678940662539 0.052415823907368687 0 -0.31780711793698518 0.045521831715634557 0 -0.33422422494732851 0.04449049745268327 0 -0.31697319293959142 0.061410437985649477 0 -0.32553678940662539 0.052415823907368687 0 -0.31780711793698518 0.045521831715634557 0 -0.30520751474604563 0.05375902269662923 0 -0.31697319293959142 0.061410437985649477 0 -0.31780711793698518 0.045521831715634557 0 -0.31697319293959142 0.061410437985649477 0 -0.32808937753058609 0.059947696530402161 0 -0.32553678940662539 0.052415823907368687 0 -0.31780711793698518 0.045521831715634557 0 -0.32038394146944787 0.031620215762440292 0 -0.33422422494732851 0.04449049745268327 0 -0.30541723396373921 0.038711125382435783 0 -0.31780711793698518 0.045521831715634557 0 -0.32038394146944787 0.031620215762440292 0 -0.30541723396373921 0.038711125382435783 0 -0.32038394146944787 0.031620215762440292 0 -0.32038394146944787 0.031620215762440292 0 -0.33422422494732851 0.04449049745268327 0 -0.33422422494732851 0.04449049745268327 0 -0.34051642268078958 0.02208187176518148 0 -0.34924074101412461 0.03711639968071382 0 -0.32038394146944787 0.031620215762440292 0 -0.33422422494732851 0.04449049745268327 0 -0.34051642268078958 0.02208187176518148 0 -0.33422422494732851 0.04449049745268327 0 -0.34715076893326918 0.04673829876922056 0 -0.34924074101412461 0.03711639968071382 0 -0.33422422494732851 0.04449049745268327 0 -0.34806450842520742 0.057360779142928031 0 -0.34715076893326918 0.04673829876922056 0 -0.33422422494732851 0.04449049745268327 0 -0.34806450842520742 0.057360779142928031 0 -0.33422422494732851 0.04449049745268327 0 -0.33482930480244999 0.055095026294593591 0 -0.34806450842520742 0.057360779142928031 0 -0.3407399656121517 0.06083029771636933 0 -0.33482930480244999 0.055095026294593591 0 -0.33440717105718593 0.063083878638897639 0 -0.3407399656121517 0.06083029771636933 0 -0.33482930480244999 0.055095026294593591 0 -0.34806450842520742 0.057360779142928031 0 -0.32808937753058609 0.059947696530402161 0 -0.33482930480244999 0.055095026294593591 0 -0.33440717105718593 0.063083878638897639 0 -0.32808937753058609 0.059947696530402161 0 -0.32553678940662539 0.052415823907368687 0 -0.33482930480244999 0.055095026294593591 0 -0.32553678940662539 0.052415823907368687 0 -0.33422422494732851 0.04449049745268327 0 -0.33482930480244999 0.055095026294593591 0 -0.31039051656375261 0.022327184027059441 0 -0.31177688145040278 0.0050359958776742568 0 -0.3261420213634148 0.01391490981329808 0 -0.32828291010712762 -0.0049346835118845543 0 -0.31177688145040278 0.0050359958776742568 0 -0.3261420213634148 0.01391490981329808 0 -0.31039051656375261 0.022327184027059441 0 -0.32038394146944787 0.031620215762440292 0 -0.3261420213634148 0.01391490981329808 0 -0.31039051656375261 0.022327184027059441 0 -0.32038394146944787 0.031620215762440292 0 -0.32038394146944787 0.031620215762440292 0 -0.34051642268078958 0.02208187176518148 0 -0.32038394146944787 0.031620215762440292 0 -0.3261420213634148 0.01391490981329808 0 -0.34051642268078958 0.02208187176518148 0 -0.3261420213634148 0.01391490981329808 0 -0.34051642268078958 0.02208187176518148 0 -0.34055428987364128 0.0059527955302196532 0 -0.32828291010712762 -0.0049346835118845543 0 -0.3261420213634148 0.01391490981329808 0 -0.34055428987364128 0.0059527955302196532 0 -0.34051642268078958 0.02208187176518148 0 -0.34055428987364128 0.0059527955302196532 0 -0.36064890389212972 0.0125435277679194 0 -0.34718119132474479 -0.01384164818341615 0 -0.34055428987364128 0.0059527955302196532 0 -0.36064890389212972 0.0125435277679194 0 -0.34051642268078958 0.02208187176518148 0 -0.36064890389212972 0.0125435277679194 0 -0.34051642268078958 0.02208187176518148 0 -0.35699945364537122 0.027147445145089769 0 -0.34924074101412461 0.03711639968071382 0 -0.34051642268078958 0.02208187176518148 0 -0.35699945364537122 0.027147445145089769 0 -0.36064890389212972 0.0125435277679194 0 -0.35699945364537122 0.027147445145089769 0 -0.36163302121541668 0.029781402687577421 0 -0.35940737946489582 0.035374977024224222 0 -0.37998819155715241 0.0057865511937031933 0 -0.36738966121720701 0.029980518529024301 0 -0.37123175334181557 0.027162262264614271 0 -0.37998819155715241 0.0057865511937031933 0 -0.36738966121720701 0.029980518529024301 0 -0.3645477689834325 0.020181962352102071 0 -0.37998819155715241 0.0057865511937031933 0 -0.36738966121720701 0.029980518529024301 0 -0.36273559053419291 0.026622670051971411 0 -0.36738966121720701 0.029980518529024301 0 -0.3645477689834325 0.020181962352102071 0 -0.35699945364537122 0.027147445145089769 0 -0.36163302121541668 0.029781402687577421 0 -0.36273559053419291 0.026622670051971411 0 -0.35699945364537122 0.027147445145089769 0 -0.36273559053419291 0.026622670051971411 0 -0.3645477689834325 0.020181962352102071 0 -0.36163302121541668 0.029781402687577421 0 -0.36273559053419291 0.026622670051971411 0 -0.36738966121720701 0.029980518529024301 0 -0.35699945364537122 0.027147445145089769 0 -0.3645477689834325 0.020181962352102071 0 -0.36064890389212972 0.0125435277679194 0 -0.3645477689834325 0.020181962352102071 0 -0.36064890389212972 0.0125435277679194 0 -0.37998819155715241 0.0057865511937031933 0 -0.3645477689834325 0.020181962352102071 0 -0.36064890389212972 0.0125435277679194 0 -0.38683543611469601 0.0001369023841863784 0 -0.36064890389212972 0.0125435277679194 0 -0.37474494217865062 -0.0022388935110706832 0 -0.38683543611469601 0.0001369023841863784 0 -0.36064890389212972 0.0125435277679194 0 -0.37474494217865062 -0.0022388935110706832 0 -0.36307869926690151 -0.00068504054922277494 0 -0.36064890389212972 0.0125435277679194 0 -0.35479113087726238 0.05417448586434577 0 -0.34715076893326918 0.04673829876922056 0 -0.35593663516940488 0.04278932274017315 0 -0.35479113087726238 0.05417448586434577 0 -0.35147867423579721 0.06053566178096708 0 -0.3622197730044176 0.060127746183944272 0 -0.35479113087726238 0.05417448586434577 0 -0.35147867423579721 0.06053566178096708 0 -0.35479113087726238 0.05417448586434577 0 -0.34806450842520742 0.057360779142928031 0 -0.35147867423579721 0.06053566178096708 0 -0.35479113087726238 0.05417448586434577 0 -0.34806450842520742 0.057360779142928031 0 -0.34806450842520742 0.057360779142928031 0 -0.35147867423579721 0.06053566178096708 0 -0.3447014191436914 0.063951910484466787 0 -0.34806450842520742 0.057360779142928031 0 -0.35147867423579721 0.06053566178096708 0 -0.3407399656121517 0.06083029771636933 0 -0.34806450842520742 0.057360779142928031 0 -0.3407399656121517 0.06083029771636933 0 -0.34806450842520742 0.057360779142928031 0 -0.3447014191436914 0.063951910484466787 0 -0.35479113087726238 0.05417448586434577 0 -0.34806450842520742 0.057360779142928031 0 -0.34715076893326918 0.04673829876922056 0 -0.34715076893326918 0.04673829876922056 0 -0.34924074101412461 0.03711639968071382 0 -0.35593663516940488 0.04278932274017315 0 -0.36738966121720701 0.029980518529024301 0 -0.35479113087726238 0.05417448586434577 0 -0.35593663516940488 0.04278932274017315 0 -0.35699945364537122 0.027147445145089769 0 -0.34924074101412461 0.03711639968071382 0 -0.35940737946489582 0.035374977024224222 0 -0.34924074101412461 0.03711639968071382 0 -0.35593663516940488 0.04278932274017315 0 -0.35940737946489582 0.035374977024224222 0 -0.36738966121720701 0.029980518529024301 0 -0.35479113087726238 0.05417448586434577 0 -0.36677646394688163 0.041367990420506082 0 -0.37123175334181557 0.027162262264614271 0 -0.37046143272875132 0.04675171495388801 0 -0.36738966121720701 0.029980518529024301 0 -0.35479113087726238 0.05417448586434577 0 -0.37123175334181557 0.027162262264614271 0 -0.36677646394688163 0.041367990420506082 0 -0.37046143272875132 0.04675171495388801 0 -0.3764786745208083 0.032098692741998169 0 -0.37123175334181557 0.027162262264614271 0 -0.37046143272875132 0.04675171495388801 0 -0.36163302121541668 0.029781402687577421 0 -0.36738966121720701 0.029980518529024301 0 -0.35940737946489582 0.035374977024224222 0 -0.36738966121720701 0.029980518529024301 0 -0.35593663516940488 0.04278932274017315 0 -0.35940737946489582 0.035374977024224222 0 -0.36738966121720701 0.029980518529024301 0 -0.37123175334181557 0.027162262264614271 0 -0.36677646394688163 0.041367990420506082 0 -0.36677646394688163 0.041367990420506082 0 -0.37046143272875132 0.04675171495388801 0 -0.36802302346639398 0.047906750352184523 0 -0.36677646394688163 0.041367990420506082 0 -0.36802302346639398 0.047906750352184523 0 -0.37046143272875132 0.04675171495388801 0 -0.37000681959492809 0.05831264468359916 0 -0.36802302346639398 0.047906750352184523 0 -0.37000681959492809 0.05831264468359916 0 -0.37046143272875132 0.04675171495388801 0 -0.36802302346639398 0.047906750352184523 0 -0.37000681959492809 0.05831264468359916 0 -0.37046143272875132 0.04675171495388801 0 -0.36802302346639398 0.047906750352184523 0 -0.35479113087726238 0.05417448586434577 0 -0.36802302346639398 0.047906750352184523 0 -0.35479113087726238 0.05417448586434577 0 -0.36802302346639398 0.047906750352184523 0 -0.3622197730044176 0.060127746183944272 0 -0.35479113087726238 0.05417448586434577 0 -0.36677646394688163 0.041367990420506082 0 -0.36802302346639398 0.047906750352184523 0 -0.36802302346639398 0.047906750352184523 0 -0.3622197730044176 0.060127746183944272 0 -0.37000681959492809 0.05831264468359916 0 -0.35147867423579721 0.06053566178096708 0 -0.36926886504626422 0.077079019973005369 0 -0.3622197730044176 0.060127746183944272 0 -0.37000681959492809 0.05831264468359916 0 -0.36926886504626422 0.077079019973005369 0 -0.37000681959492809 0.05831264468359916 0 -0.36926886504626422 0.077079019973005369 0 -0.37079498002478778 0.078498176574577722 0 -0.36926886504626422 0.077079019973005369 0 -0.34551673285671652 0.071984855543133663 0 -0.36912013352382872 0.080861301107253064 0 -0.37000681959492809 0.05831264468359916 0 -0.37079498002478778 0.078498176574577722 0 -0.37470600383380392 0.082961959162170973 0 -0.35147867423579721 0.06053566178096708 0 -0.3622197730044176 0.060127746183944272 0 -0.36926886504626422 0.077079019973005369 0 -0.37000681959492809 0.05831264468359916 0 -0.37470600383380392 0.082961959162170973 0 -0.37000681959492809 0.05831264468359916 0 -0.36926886504626422 0.077079019973005369 0 -0.36926886504626422 0.077079019973005369 0 -0.37079498002478778 0.078498176574577722 0 -0.34551673285671652 0.071984855543133663 0 -0.34763839367566191 0.079069075487607554 0 -0.36912013352382872 0.080861301107253064 0 -0.34551673285671652 0.071984855543133663 0 -0.36912013352382872 0.080861301107253064 0 -0.35147867423579721 0.06053566178096708 0 -0.36926886504626422 0.077079019973005369 0 -0.34551673285671652 0.071984855543133663 0 -0.34408269824063842 0.074738747125954852 0 -0.34763839367566191 0.079069075487607554 0 -0.34179116264722731 0.080399472229040897 0 -0.34408269824063842 0.074738747125954852 0 -0.34551673285671652 0.071984855543133663 0 -0.34763839367566191 0.079069075487607554 0 -0.34408269824063842 0.074738747125954852 0 -0.34551673285671652 0.071984855543133663 0 -0.35147867423579721 0.06053566178096708 0 -0.34551673285671652 0.071984855543133663 0 -0.3447014191436914 0.063951910484466787 0 -0.35147867423579721 0.06053566178096708 0 -0.34551673285671652 0.071984855543133663 0 -0.34763839367566191 0.079069075487607554 0 -0.36858415035949882 0.094491491786065696 0 -0.34763839367566191 0.079069075487607554 0 -0.36858415035949882 0.094491491786065696 0 -0.35198293914272999 0.094145145766245733 0 -0.34456144318064219 0.08667329674911145 0 -0.34763839367566191 0.079069075487607554 0 -0.35198293914272999 0.094145145766245733 0 -0.34456144318064219 0.08667329674911145 0 -0.35198293914272999 0.094145145766245733 0 -0.34431035454597703 0.093789606507308373 0 -0.34456144318064219 0.08667329674911145 0 -0.34763839367566191 0.079069075487607554 0 -0.34179116264722731 0.080399472229040897 0 -0.3782625711058698 0.101617738696854 0 -0.37470600383380392 0.082961959162170973 0 -0.36858415035949882 0.094491491786065696 0 -0.34763839367566191 0.079069075487607554 0 -0.36912013352382872 0.080861301107253064 0 -0.36858415035949882 0.094491491786065696 0 -0.36926886504626422 0.077079019973005369 0 -0.37079498002478778 0.078498176574577722 0 -0.36912013352382872 0.080861301107253064 0 -0.36926886504626422 0.077079019973005369 0 -0.36912013352382872 0.080861301107253064 0 -0.36912013352382872 0.080861301107253064 0 -0.37470600383380392 0.082961959162170973 0 -0.37079498002478778 0.078498176574577722 0 -0.36912013352382872 0.080861301107253064 0 -0.37470600383380392 0.082961959162170973 0 -0.36912013352382872 0.080861301107253064 0 -0.37470600383380392 0.082961959162170973 0 -0.36858415035949882 0.094491491786065696 0 -0.36912013352382872 0.080861301107253064 0 -0.36858415035949882 0.094491491786065696 0 -0.36858415035949882 0.094491491786065696 0 -0.36747352968705388 0.12273486311700831 0 -0.3782625711058698 0.101617738696854 0 -0.36858415035949882 0.094491491786065696 0 -0.36858415035949882 0.094491491786065696 0 -0.36006702585218792 0.10838608290929221 0 -0.35198293914272999 0.094145145766245733 0 -0.36858415035949882 0.094491491786065696 0 -0.36006702585218792 0.10838608290929221 0 -0.36747352968705388 0.12273486311700831 0 -0.3782625711058698 0.101617738696854 0 -0.36858415035949882 0.094491491786065696 0 -0.36747352968705388 0.12273486311700831 0 -0.36006702585218792 0.10838608290929221 0 -0.36747352968705388 0.12273486311700831 0 -0.35832203275528268 0.1183511860346923 0 -0.35528769071996391 0.12689780186549679 0 -0.36747352968705388 0.12273486311700831 0 -0.35832203275528268 0.1183511860346923 0 -0.35528769071996391 0.12689780186549679 0 -0.35832203275528268 0.1183511860346923 0 -0.35045988476192508 0.115385996246972 0 -0.36006702585218792 0.10838608290929221 0 -0.35832203275528268 0.1183511860346923 0 -0.35045988476192508 0.115385996246972 0 -0.35045988476192508 0.115385996246972 0 -0.34547580274860562 0.10394098399483009 0 -0.33570271963636877 0.11206429961599181 0 -0.35528769071996391 0.12689780186549679 0 -0.35045988476192508 0.115385996246972 0 -0.34115039425197219 0.12498493974687711 0 -0.36006702585218792 0.10838608290929221 0 -0.35198293914272999 0.094145145766245733 0 -0.34547580274860562 0.10394098399483009 0 -0.36006702585218792 0.10838608290929221 0 -0.35045988476192508 0.115385996246972 0 -0.34547580274860562 0.10394098399483009 0 -0.35198293914272999 0.094145145766245733 0 -0.34547580274860562 0.10394098399483009 0 -0.34431035454597703 0.093789606507308373 0 -0.34547580274860562 0.10394098399483009 0 -0.34431035454597703 0.093789606507308373 0 -0.335413749579693 0.097286071719103154 0 -0.34547580274860562 0.10394098399483009 0 -0.335413749579693 0.097286071719103154 0 -0.33570271963636877 0.11206429961599181 0 -0.335413749579693 0.097286071719103154 0 -0.33570271963636877 0.11206429961599181 0 -0.32444247844199348 0.1047035033472971 0 -0.35045988476192508 0.115385996246972 0 -0.34115039425197219 0.12498493974687711 0 -0.33570271963636877 0.11206429961599181 0 -0.32917568526667751 0.12578156900391591 0 -0.33570271963636877 0.11206429961599181 0 -0.32114709127587232 0.11611322513389059 0 -0.32917568526667751 0.12578156900391591 0 -0.34115039425197219 0.12498493974687711 0 -0.33570271963636877 0.11206429961599181 0 -0.31354631638020197 0.13395604467094269 0 -0.30549209578720232 0.10774456093924389 0 -0.32114709127587232 0.11611322513389059 0 -0.30549209578720232 0.10774456093924389 0 -0.32114709127587232 0.11611322513389059 0 -0.32444247844199348 0.1047035033472971 0 -0.33570271963636877 0.11206429961599181 0 -0.32114709127587232 0.11611322513389059 0 -0.32444247844199348 0.1047035033472971 0 -0.30549209578720232 0.10774456093924389 0 -0.32444247844199348 0.1047035033472971 0 -0.32445673593083119 0.090309359328255762 0 -0.30549209578720232 0.10774456093924389 0 -0.32445673593083119 0.090309359328255762 0 -0.31312795334666071 0.083579729522452809 0 -0.335413749579693 0.097286071719103154 0 -0.32444247844199348 0.1047035033472971 0 -0.32445673593083119 0.090309359328255762 0 -0.32445673593083119 0.090309359328255762 0 -0.3275606083710243 0.080211281293741998 0 -0.31312795334666071 0.083579729522452809 0 -0.3275606083710243 0.080211281293741998 0 -0.31312795334666071 0.083579729522452809 0 -0.31976082328641481 0.073112182403608325 0 -0.30931237829482389 0.073252958087475881 0 -0.31312795334666071 0.083579729522452809 0 -0.31976082328641481 0.073112182403608325 0 -0.30931237829482389 0.073252958087475881 0 -0.31697319293959142 0.061410437985649477 0 -0.31976082328641481 0.073112182403608325 0 -0.31697319293959142 0.061410437985649477 0 -0.31976082328641481 0.073112182403608325 0 -0.32886731949388731 0.069155273298144179 0 -0.31697319293959142 0.061410437985649477 0 -0.32808937753058609 0.059947696530402161 0 -0.32886731949388731 0.069155273298144179 0 -0.3275606083710243 0.080211281293741998 0 -0.31976082328641481 0.073112182403608325 0 -0.32886731949388731 0.069155273298144179 0 -0.32886731949388731 0.069155273298144179 0 -0.33770721458858299 0.069047958238937293 0 -0.336378655355973 0.076693290193422539 0 -0.3275606083710243 0.080211281293741998 0 -0.32886731949388731 0.069155273298144179 0 -0.336378655355973 0.076693290193422539 0 -0.33440717105718593 0.063083878638897639 0 -0.32886731949388731 0.069155273298144179 0 -0.33770721458858299 0.069047958238937293 0 -0.32808937753058609 0.059947696530402161 0 -0.33440717105718593 0.063083878638897639 0 -0.32886731949388731 0.069155273298144179 0 -0.3407399656121517 0.06083029771636933 0 -0.33440717105718593 0.063083878638897639 0 -0.33770721458858299 0.069047958238937293 0 -0.3407399656121517 0.06083029771636933 0 -0.3447014191436914 0.063951910484466787 0 -0.33770721458858299 0.069047958238937293 0 -0.34551673285671652 0.071984855543133663 0 -0.3447014191436914 0.063951910484466787 0 -0.33770721458858299 0.069047958238937293 0 -0.34408269824063842 0.074738747125954852 0 -0.33770721458858299 0.069047958238937293 0 -0.336378655355973 0.076693290193422539 0 -0.34408269824063842 0.074738747125954852 0 -0.34551673285671652 0.071984855543133663 0 -0.33770721458858299 0.069047958238937293 0 -0.34551673285671652 0.071984855543133663 0 -0.33770721458858299 0.069047958238937293 0 -0.34408269824063842 0.074738747125954852 0 -0.336378655355973 0.076693290193422539 0 -0.34179116264722731 0.080399472229040897 0 -0.336378655355973 0.076693290193422539 0 -0.34179116264722731 0.080399472229040897 0 -0.33708436589161489 0.085963183755354639 0 -0.34456144318064219 0.08667329674911145 0 -0.34179116264722731 0.080399472229040897 0 -0.33708436589161489 0.085963183755354639 0 -0.34456144318064219 0.08667329674911145 0 -0.34431035454597703 0.093789606507308373 0 -0.33708436589161489 0.085963183755354639 0 -0.34431035454597703 0.093789606507308373 0 -0.335413749579693 0.097286071719103154 0 -0.33708436589161489 0.085963183755354639 0 -0.335413749579693 0.097286071719103154 0 -0.32445673593083119 0.090309359328255762 0 -0.33708436589161489 0.085963183755354639 0 -0.32445673593083119 0.090309359328255762 0 -0.3275606083710243 0.080211281293741998 0 -0.33708436589161489 0.085963183755354639 0 -0.3275606083710243 0.080211281293741998 0 -0.336378655355973 0.076693290193422539 0 -0.33708436589161489 0.085963183755354639 0 -0.38891458820749281 0.47713565504117422 0 -0.42172655890518862 0.5 0 -0.3640375775585698 0.5 0 -0.38891458820749281 0.47713565504117422 0 -0.37103467036260362 0.45695891695805302 0 -0.36943712044780219 0.47475959506207249 0 -0.39694697642853649 0.45370639251272787 0 -0.37103467036260362 0.45695891695805302 0 -0.38891458820749281 0.47713565504117422 0 -0.39694697642853649 0.45370639251272787 0 -0.37103467036260362 0.45695891695805302 0 -0.38249991962136642 0.44345487931465249 0 -0.39694697642853649 0.45370639251272787 0 -0.37103467036260362 0.45695891695805302 0 -0.38249991962136642 0.44345487931465249 0 -0.39694697642853649 0.45370639251272787 0 -0.40464661760035381 0.43350824459614162 0 -0.38891458820749281 0.47713565504117422 0 -0.39694697642853649 0.45370639251272787 0 -0.41631826774707797 0.4711213942969617 0 -0.39694697642853649 0.45370639251272787 0 -0.42285928249446952 0.45045386806740279 0 -0.41631826774707797 0.4711213942969617 0 -0.42285928249446952 0.45045386806740279 0 -0.42501824733507809 0.43459816807542118 0 -0.40464661760035381 0.43350824459614162 0 -0.39694697642853649 0.45370639251272787 0 -0.42285928249446952 0.45045386806740279 0 -0.39694697642853649 0.45370639251272787 0 -0.42285928249446952 0.45045386806740279 0 -0.40464661760035381 0.43350824459614162 0 -0.42285928249446952 0.45045386806740279 0 -0.43521244088076849 0.46107148678855758 0 -0.44877158856040261 0.44720134362207808 0 -0.42285928249446952 0.45045386806740279 0 -0.44877158856040261 0.44720134362207808 0 -0.42285928249446952 0.45045386806740279 0 -0.43592409671607729 0.44045812782560079 0 -0.44877158856040261 0.44720134362207808 0 -0.42285928249446952 0.45045386806740279 0 -0.43592409671607729 0.44045812782560079 0 -0.42501824733507809 0.43459816807542118 0 -0.42285928249446952 0.45045386806740279 0 -0.43521244088076849 0.46107148678855758 0 -0.41631826774707797 0.4711213942969617 0 -0.41631826774707797 0.4711213942969617 0 -0.42172655890518862 0.5 0 -0.43935827984199688 0.47473889959161758 0 -0.43521244088076849 0.46107148678855758 0 -0.41631826774707797 0.4711213942969617 0 -0.43935827984199688 0.47473889959161758 0 -0.38891458820749281 0.47713565504117422 0 -0.41631826774707797 0.4711213942969617 0 -0.42172655890518862 0.5 0 -0.42172655890518862 0.5 0 -0.43935827984199688 0.47473889959161758 0 -0.47784082473980471 0.47626967285504462 0 -0.42172655890518862 0.5 0 -0.5 0.5 0 -0.47784082473980471 0.47626967285504462 0 -0.43935827984199688 0.47473889959161758 0 -0.47784082473980471 0.47626967285504462 0 -0.4487547857598953 0.46184192836472759 0 -0.5 0.5 0 -0.47784082473980471 0.47626967285504462 0 -0.49999999999999589 0.44077113011354369 0 -0.47784082473980471 0.47626967285504462 0 -0.47438579428019922 0.44398623686781052 0 -0.4627013265822788 0.4545376326069438 0 -0.47784082473980471 0.47626967285504462 0 -0.49999999999999589 0.44077113011354369 0 -0.47438579428019922 0.44398623686781052 0 -0.49999999999999589 0.44077113011354369 0 -0.47438579428019922 0.44398623686781052 0 -0.48180565015534738 0.42787197640755792 0 -0.49999999999999589 0.44077113011354369 0 -0.47438579428019922 0.44398623686781052 0 -0.47438579428019922 0.44398623686781052 0 -0.4627013265822788 0.4545376326069438 0 -0.44877158856040261 0.44720134362207808 0 -0.47438579428019922 0.44398623686781052 0 -0.44877158856040261 0.44720134362207808 0 -0.47438579428019922 0.44398623686781052 0 -0.44877158856040261 0.44720134362207808 0 -0.46289485375526918 0.43579199928955081 0 -0.44877158856040261 0.44720134362207808 0 -0.44878504691792248 0.43547483269414872 0 -0.46289485375526918 0.43579199928955081 0 -0.47784082473980471 0.47626967285504462 0 -0.4627013265822788 0.4545376326069438 0 -0.4487547857598953 0.46184192836472759 0 -0.4627013265822788 0.4545376326069438 0 -0.4487547857598953 0.46184192836472759 0 -0.44877158856040261 0.44720134362207808 0 -0.4487547857598953 0.46184192836472759 0 -0.44877158856040261 0.44720134362207808 0 -0.43521244088076849 0.46107148678855758 0 -0.4487547857598953 0.46184192836472759 0 -0.44877158856040261 0.44720134362207808 0 -0.43521244088076849 0.46107148678855758 0 -0.43935827984199688 0.47473889959161758 0 -0.4487547857598953 0.46184192836472759 0 -0.44877158856040261 0.44720134362207808 0 -0.44508566455651338 0.43839632914573512 0 -0.44878504691792248 0.43547483269414872 0 -0.44877158856040261 0.44720134362207808 0 -0.44878504691792248 0.43547483269414872 0 -0.43592409671607729 0.44045812782560079 0 -0.44877158856040261 0.44720134362207808 0 -0.44508566455651338 0.43839632914573512 0 -0.44531233658805403 0.42513554986162888 0 -0.44878504691792248 0.43547483269414872 0 -0.44880957839306629 0.41410011360809668 0 -0.44878504691792248 0.43547483269414872 0 -0.44880957839306629 0.41410011360809668 0 -0.43788570063392329 0.43164093021736671 0 -0.44531233658805403 0.42513554986162888 0 -0.44878504691792248 0.43547483269414872 0 -0.43592409671607729 0.44045812782560079 0 -0.44508566455651338 0.43839632914573512 0 -0.43788570063392329 0.43164093021736671 0 -0.44508566455651338 0.43839632914573512 0 -0.43788570063392329 0.43164093021736671 0 -0.44878504691792248 0.43547483269414872 0 -0.44508566455651338 0.43839632914573512 0 -0.44878504691792248 0.43547483269414872 0 -0.44531233658805403 0.42513554986162888 0 -0.44880957839306629 0.41410011360809668 0 -0.42391867717568832 0.41711337076656618 0 -0.44880957839306629 0.41410011360809668 0 -0.46585669794528167 0.42199291516666237 0 -0.4641229039382897 0.40091036417177778 0 -0.44878504691792248 0.43547483269414872 0 -0.46585669794528167 0.42199291516666237 0 -0.44878504691792248 0.43547483269414872 0 -0.44880957839306629 0.41410011360809668 0 -0.46585669794528167 0.42199291516666237 0 -0.44878504691792248 0.43547483269414872 0 -0.46585669794528167 0.42199291516666237 0 -0.46289485375526918 0.43579199928955081 0 -0.47438579428019922 0.44398623686781052 0 -0.46289485375526918 0.43579199928955081 0 -0.48180565015534738 0.42787197640755792 0 -0.46585669794528167 0.42199291516666237 0 -0.46289485375526918 0.43579199928955081 0 -0.48180565015534738 0.42787197640755792 0 -0.46585669794528167 0.42199291516666237 0 -0.48292834897264081 0.4085109976391762 0 -0.4641229039382897 0.40091036417177778 0 -0.46585669794528167 0.42199291516666237 0 -0.48292834897264081 0.4085109976391762 0 -0.46585669794528167 0.42199291516666237 0 -0.48180565015534738 0.42787197640755792 0 -0.48292834897264081 0.4085109976391762 0 -0.48292834897264081 0.4085109976391762 0 -0.5 0.41790010511261683 0 -0.5 0.39502908011169002 0 -0.48180565015534738 0.42787197640755792 0 -0.48292834897264081 0.4085109976391762 0 -0.5 0.41790010511261683 0 -0.49999999999999589 0.44077113011354369 0 -0.48180565015534738 0.42787197640755792 0 -0.5 0.41790010511261683 0 -0.48850556386005051 0.3766603246979251 0 -0.5 0.39502908011169002 0 -0.47832653283541199 0.38608194873200979 0 -0.48850556386005051 0.3766603246979251 0 -0.5 0.39502908011169002 0 -0.5 0.36887446842263683 0 -0.48292834897264081 0.4085109976391762 0 -0.5 0.39502908011169002 0 -0.47832653283541199 0.38608194873200979 0 -0.48292834897264081 0.4085109976391762 0 -0.5 0.39502908011169002 0 -0.48292834897264081 0.4085109976391762 0 -0.47832653283541199 0.38608194873200979 0 -0.4641229039382897 0.40091036417177778 0 -0.48850556386005051 0.3766603246979251 0 -0.47832653283541199 0.38608194873200979 0 -0.48259334700195489 0.36409898273387958 0 -0.47832653283541199 0.38608194873200979 0 -0.46059005399087027 0.38292215568240928 0 -0.4641229039382897 0.40091036417177778 0 -0.47832653283541199 0.38608194873200979 0 -0.46059005399087027 0.38292215568240928 0 -0.46572599417265398 0.36772482908493609 0 -0.44880957839306629 0.41410011360809668 0 -0.4641229039382897 0.40091036417177778 0 -0.44883410986820999 0.3927253945220448 0 -0.46059005399087027 0.38292215568240928 0 -0.4641229039382897 0.40091036417177778 0 -0.44883410986820999 0.3927253945220448 0 -0.44880957839306629 0.41410011360809668 0 -0.44883410986820999 0.3927253945220448 0 -0.43699833754743561 0.40294499431243458 0 -0.44880957839306629 0.41410011360809668 0 -0.44883410986820999 0.3927253945220448 0 -0.44883410986820999 0.3927253945220448 0 -0.43978391516082421 0.3912231797547942 0 -0.43699833754743561 0.40294499431243458 0 -0.44883410986820999 0.3927253945220448 0 -0.43978391516082421 0.3912231797547942 0 -0.44802713623065987 0.37645115623263098 0 -0.44883410986820999 0.3927253945220448 0 -0.44885864134335329 0.37135067543599282 0 -0.44883410986820999 0.3927253945220448 0 -0.44802713623065987 0.37645115623263098 0 -0.44885864134335329 0.37135067543599282 0 -0.43978391516082421 0.3912231797547942 0 -0.44802713623065987 0.37645115623263098 0 -0.42527607699699133 0.39277117395206662 0 -0.46059005399087027 0.38292215568240928 0 -0.44883410986820999 0.3927253945220448 0 -0.44885864134335329 0.37135067543599282 0 -0.44802713623065987 0.37645115623263098 0 -0.4250431626101242 0.37647010748543319 0 -0.42527607699699133 0.39277117395206662 0 -0.44802713623065987 0.37645115623263098 0 -0.42527607699699133 0.39277117395206662 0 -0.4250431626101242 0.37647010748543319 0 -0.4134887672477453 0.38574914578498593 0 -0.40122768387689522 0.38158953953487368 0 -0.4250431626101242 0.37647010748543319 0 -0.40122768387689522 0.38158953953487368 0 -0.4250431626101242 0.37647010748543319 0 -0.4134887672477453 0.38574914578498593 0 -0.42527607699699133 0.39277117395206662 0 -0.4250431626101242 0.37647010748543319 0 -0.40122768387689522 0.38158953953487368 0 -0.40086489287733429 0.37467411733839928 0 -0.4134887672477453 0.38574914578498593 0 -0.40798835104355652 0.39359067917546098 0 -0.40557429982823212 0.38794008425198068 0 -0.4134887672477453 0.38574914578498593 0 -0.40122768387689522 0.38158953953487368 0 -0.40557429982823212 0.38794008425198068 0 -0.40798835104355652 0.39359067917546098 0 -0.42527607699699133 0.39277117395206662 0 -0.40252501776332311 0.40909119167150271 0 -0.42527607699699133 0.39277117395206662 0 -0.40252501776332311 0.40909119167150271 0 -0.4134887672477453 0.38574914578498593 0 -0.40798835104355652 0.39359067917546098 0 -0.42527607699699133 0.39277117395206662 0 -0.42527607699699133 0.39277117395206662 0 -0.43699833754743561 0.40294499431243458 0 -0.42391867717568832 0.41711337076656618 0 -0.43978391516082421 0.3912231797547942 0 -0.42527607699699133 0.39277117395206662 0 -0.43699833754743561 0.40294499431243458 0 -0.44880957839306629 0.41410011360809668 0 -0.43699833754743561 0.40294499431243458 0 -0.42391867717568832 0.41711337076656618 0 -0.44531233658805403 0.42513554986162888 0 -0.42391867717568832 0.41711337076656618 0 -0.43788570063392329 0.43164093021736671 0 -0.44531233658805403 0.42513554986162888 0 -0.42391867717568832 0.41711337076656618 0 -0.43788570063392329 0.43164093021736671 0 -0.42391867717568832 0.41711337076656618 0 -0.42501824733507809 0.43459816807542118 0 -0.43592409671607729 0.44045812782560079 0 -0.43788570063392329 0.43164093021736671 0 -0.42501824733507809 0.43459816807542118 0 -0.42391867717568832 0.41711337076656618 0 -0.42501824733507809 0.43459816807542118 0 -0.40464661760035381 0.43350824459614162 0 -0.42527607699699133 0.39277117395206662 0 -0.42391867717568832 0.41711337076656618 0 -0.40252501776332311 0.40909119167150271 0 -0.42391867717568832 0.41711337076656618 0 -0.40252501776332311 0.40909119167150271 0 -0.40464661760035381 0.43350824459614162 0 -0.42391867717568832 0.41711337076656618 0 -0.40252501776332311 0.40909119167150271 0 -0.40252501776332311 0.40909119167150271 0 -0.37875820238401509 0.42613984176471847 0 -0.40252501776332311 0.40909119167150271 0 -0.40464661760035381 0.43350824459614162 0 -0.37875820238401509 0.42613984176471847 0 -0.38249991962136642 0.44345487931465249 0 -0.40464661760035381 0.43350824459614162 0 -0.37875820238401509 0.42613984176471847 0 -0.40252501776332311 0.40909119167150271 0 -0.37875820238401509 0.42613984176471847 0 -0.37769092578324193 0.39977892163450779 0 -0.37769092578324193 0.39977892163450779 0 -0.38963770449155072 0.39285491215608792 0 -0.37686086334024771 0.38257038446795849 0 -0.40252501776332311 0.40909119167150271 0 -0.37769092578324193 0.39977892163450779 0 -0.38963770449155072 0.39285491215608792 0 -0.40252501776332311 0.40909119167150271 0 -0.37769092578324193 0.39977892163450779 0 -0.37686086334024771 0.38257038446795849 0 -0.39363670834615189 0.38450398520198442 0 -0.40086489287733429 0.37467411733839928 0 -0.38963770449155072 0.39285491215608792 0 -0.37686086334024771 0.38257038446795849 0 -0.39363670834615189 0.38450398520198442 0 -0.37686086334024771 0.38257038446795849 0 -0.40086489287733429 0.37467411733839928 0 -0.37686086334024771 0.38257038446795849 0 -0.40086489287733429 0.37467411733839928 0 -0.39033592763893787 0.37070590072739279 0 -0.39363670834615189 0.38450398520198442 0 -0.40122768387689522 0.38158953953487368 0 -0.39959239714473138 0.39083097251260251 0 -0.38963770449155072 0.39285491215608792 0 -0.39363670834615189 0.38450398520198442 0 -0.39959239714473138 0.39083097251260251 0 -0.39363670834615189 0.38450398520198442 0 -0.40122768387689522 0.38158953953487368 0 -0.40086489287733429 0.37467411733839928 0 -0.40122768387689522 0.38158953953487368 0 -0.40557429982823212 0.38794008425198068 0 -0.39959239714473138 0.39083097251260251 0 -0.40798835104355652 0.39359067917546098 0 -0.40557429982823212 0.38794008425198068 0 -0.39959239714473138 0.39083097251260251 0 -0.40252501776332311 0.40909119167150271 0 -0.38963770449155072 0.39285491215608792 0 -0.39959239714473138 0.39083097251260251 0 -0.40798835104355652 0.39359067917546098 0 -0.40252501776332311 0.40909119167150271 0 -0.39959239714473138 0.39083097251260251 0 -0.3926828114571661 0.35541775914535301 0 -0.40105078960399698 0.34662517948293931 0 -0.40586906590548888 0.3393029225754271 0 -0.3926828114571661 0.35541775914535301 0 -0.39400561065841477 0.34382680172727831 0 -0.40586906590548888 0.3393029225754271 0 -0.3926828114571661 0.35541775914535301 0 -0.40586906590548888 0.3393029225754271 0 -0.3926828114571661 0.35541775914535301 0 -0.39969836615416421 0.35756427730283669 0 -0.39341808057325789 0.36431669671432632 0 -0.3926828114571661 0.35541775914535301 0 -0.40105078960399698 0.34662517948293931 0 -0.39969836615416421 0.35756427730283669 0 -0.3926828114571661 0.35541775914535301 0 -0.39400561065841477 0.34382680172727831 0 -0.38539473684528258 0.34837828204789067 0 -0.40105078960399698 0.34662517948293931 0 -0.40525205349158999 0.35429039595711992 0 -0.40888688292129022 0.34941903462410451 0 -0.40105078960399698 0.34662517948293931 0 -0.4080564418273247 0.34368885170405422 0 -0.40888688292129022 0.34941903462410451 0 -0.40105078960399698 0.34662517948293931 0 -0.40525205349158999 0.35429039595711992 0 -0.39969836615416421 0.35756427730283669 0 -0.40525205349158999 0.35429039595711992 0 -0.39969836615416421 0.35756427730283669 0 -0.40553625032349627 0.36037170931698131 0 -0.40553625032349627 0.36037170931698131 0 -0.40544017780568847 0.3661562974108753 0 -0.40025021147547779 0.36436392320030081 0 -0.40544017780568847 0.3661562974108753 0 -0.40025021147547779 0.36436392320030081 0 -0.397742957241214 0.36844985128713797 0 -0.39969836615416421 0.35756427730283669 0 -0.40553625032349627 0.36037170931698131 0 -0.40025021147547779 0.36436392320030081 0 -0.40544017780568847 0.3661562974108753 0 -0.40086489287733429 0.37467411733839928 0 -0.397742957241214 0.36844985128713797 0 -0.40086489287733429 0.37467411733839928 0 -0.397742957241214 0.36844985128713797 0 -0.39033592763893787 0.37070590072739279 0 -0.397742957241214 0.36844985128713797 0 -0.39341808057325789 0.36431669671432632 0 -0.39033592763893787 0.37070590072739279 0 -0.39969836615416421 0.35756427730283669 0 -0.40025021147547779 0.36436392320030081 0 -0.39341808057325789 0.36431669671432632 0 -0.40025021147547779 0.36436392320030081 0 -0.397742957241214 0.36844985128713797 0 -0.39341808057325789 0.36431669671432632 0 -0.3926828114571661 0.35541775914535301 0 -0.39341808057325789 0.36431669671432632 0 -0.37949655700884349 0.37153259571527891 0 -0.37949655700884349 0.37153259571527891 0 -0.37823932191431281 0.35548757599615399 0 -0.37024808467873749 0.36543132639488701 0 -0.3926828114571661 0.35541775914535301 0 -0.37949655700884349 0.37153259571527891 0 -0.37823932191431281 0.35548757599615399 0 -0.3926828114571661 0.35541775914535301 0 -0.37949655700884349 0.37153259571527891 0 -0.39341808057325789 0.36431669671432632 0 -0.39033592763893787 0.37070590072739279 0 -0.37949655700884349 0.37153259571527891 0 -0.37686086334024771 0.38257038446795849 0 -0.39033592763893787 0.37070590072739279 0 -0.37949655700884349 0.37153259571527891 0 -0.37823932191431281 0.35548757599615399 0 -0.38539473684528258 0.34837828204789067 0 -0.3787015959315434 0.33902802614693439 0 -0.3926828114571661 0.35541775914535301 0 -0.37823932191431281 0.35548757599615399 0 -0.38539473684528258 0.34837828204789067 0 -0.3787015959315434 0.33902802614693439 0 -0.37816355277066899 0.32985684687273281 0 -0.39158393304450312 0.32769252248945308 0 -0.39400561065841477 0.34382680172727831 0 -0.38539473684528258 0.34837828204789067 0 -0.3787015959315434 0.33902802614693439 0 -0.39158393304450312 0.32769252248945308 0 -0.37442838800096029 0.32044424157556423 0 -0.37816355277066899 0.32985684687273281 0 -0.39158393304450312 0.32769252248945308 0 -0.37442838800096029 0.32044424157556423 0 -0.38613629988198012 0.31665983269396758 0 -0.39158393304450312 0.32769252248945308 0 -0.37442838800096029 0.32044424157556423 0 -0.38613629988198012 0.31665983269396758 0 -0.37442838800096029 0.32044424157556423 0 -0.37415321332832258 0.31386652142517069 0 -0.39158393304450312 0.32769252248945308 0 -0.4039094095666334 0.320812311378052 0 -0.40925887999808552 0.33516025262174892 0 -0.38613629988198012 0.31665983269396758 0 -0.39830358576524327 0.31266849694114901 0 -0.39158393304450312 0.32769252248945308 0 -0.39830358576524327 0.31266849694114901 0 -0.39158393304450312 0.32769252248945308 0 -0.4039094095666334 0.320812311378052 0 -0.39830358576524327 0.31266849694114901 0 -0.4039094095666334 0.320812311378052 0 -0.40826549608127172 0.31275764886218971 0 -0.3787015959315434 0.33902802614693439 0 -0.40777024278950652 0.33697950655941222 0 -0.39158393304450312 0.32769252248945308 0 -0.40925887999808552 0.33516025262174892 0 -0.39158393304450312 0.32769252248945308 0 -0.40777024278950652 0.33697950655941222 0 -0.40925887999808552 0.33516025262174892 0 -0.3787015959315434 0.33902802614693439 0 -0.39158393304450312 0.32769252248945308 0 -0.40777024278950652 0.33697950655941222 0 -0.39400561065841477 0.34382680172727831 0 -0.3787015959315434 0.33902802614693439 0 -0.40777024278950652 0.33697950655941222 0 -0.39400561065841477 0.34382680172727831 0 -0.40586906590548888 0.3393029225754271 0 -0.40777024278950652 0.33697950655941222 0 -0.40105078960399698 0.34662517948293931 0 -0.40586906590548888 0.3393029225754271 0 -0.40105078960399698 0.34662517948293931 0 -0.40586906590548888 0.3393029225754271 0 -0.4080564418273247 0.34368885170405422 0 -0.4080564418273247 0.34368885170405422 0 -0.41125860555200922 0.34134685969384471 0 -0.40895905381070002 0.33957121871677393 0 -0.40586906590548888 0.3393029225754271 0 -0.4080564418273247 0.34368885170405422 0 -0.40895905381070002 0.33957121871677393 0 -0.4080564418273247 0.34368885170405422 0 -0.41125860555200922 0.34134685969384471 0 -0.41366919887348358 0.34576378073699821 0 -0.41125860555200922 0.34134685969384471 0 -0.41273643032526569 0.33662953043248711 0 -0.41433336845197538 0.3415594658204692 0 -0.41125860555200922 0.34134685969384471 0 -0.41433336845197538 0.3415594658204692 0 -0.41366919887348358 0.34576378073699821 0 -0.41125860555200922 0.34134685969384471 0 -0.41273643032526569 0.33662953043248711 0 -0.40895905381070002 0.33957121871677393 0 -0.41273643032526569 0.33662953043248711 0 -0.40777024278950652 0.33697950655941222 0 -0.41273643032526569 0.33662953043248711 0 -0.40895905381070002 0.33957121871677393 0 -0.40777024278950652 0.33697950655941222 0 -0.41273643032526569 0.33662953043248711 0 -0.40777024278950652 0.33697950655941222 0 -0.40925887999808552 0.33516025262174892 0 -0.40777024278950652 0.33697950655941222 0 -0.40925887999808552 0.33516025262174892 0 -0.40586906590548888 0.3393029225754271 0 -0.40895905381070002 0.33957121871677393 0 -0.40777024278950652 0.33697950655941222 0 -0.40586906590548888 0.3393029225754271 0 -0.40777024278950652 0.33697950655941222 0 -0.41273643032526569 0.33662953043248711 0 -0.40925887999808552 0.33516025262174892 0 -0.40925887999808552 0.33516025262174892 0 -0.42024067891477529 0.32173946694831868 0 -0.40925887999808552 0.33516025262174892 0 -0.42071708592719742 0.33131558094746122 0 -0.42024067891477529 0.32173946694831868 0 -0.41273643032526569 0.33662953043248711 0 -0.40925887999808552 0.33516025262174892 0 -0.42071708592719742 0.33131558094746122 0 -0.41273643032526569 0.33662953043248711 0 -0.4199209072431685 0.34318781838679219 0 -0.41433336845197538 0.3415594658204692 0 -0.4199209072431685 0.34318781838679219 0 -0.41433336845197538 0.3415594658204692 0 -0.41366919887348358 0.34576378073699821 0 -0.40925887999808552 0.33516025262174892 0 -0.41892768793075841 0.31754462100172592 0 -0.42141481873501418 0.31567829233095179 0 -0.40925887999808552 0.33516025262174892 0 -0.411263050936583 0.31954773430139438 0 -0.41892768793075841 0.31754462100172592 0 -0.40925887999808552 0.33516025262174892 0 -0.42141481873501418 0.31567829233095179 0 -0.40925887999808552 0.33516025262174892 0 -0.42024067891477529 0.32173946694831868 0 -0.42141481873501418 0.31567829233095179 0 -0.411263050936583 0.31954773430139438 0 -0.40826549608127172 0.31275764886218971 0 -0.41647318301620623 0.31168328686166002 0 -0.4039094095666334 0.320812311378052 0 -0.411263050936583 0.31954773430139438 0 -0.40826549608127172 0.31275764886218971 0 -0.4039094095666334 0.320812311378052 0 -0.40925887999808552 0.33516025262174892 0 -0.411263050936583 0.31954773430139438 0 -0.411263050936583 0.31954773430139438 0 -0.41892768793075841 0.31754462100172592 0 -0.41647318301620623 0.31168328686166002 0 -0.41892768793075841 0.31754462100172592 0 -0.42141481873501418 0.31567829233095179 0 -0.41892768793075841 0.31754462100172592 0 -0.42141481873501418 0.31567829233095179 0 -0.41647318301620623 0.31168328686166002 0 -0.42024067891477529 0.32173946694831868 0 -0.43790895006943947 0.32081412042189511 0 -0.43122247783146522 0.30831868127488848 0 -0.42024067891477529 0.32173946694831868 0 -0.42938605365092247 0.3272194948190838 0 -0.43790895006943947 0.32081412042189511 0 -0.42024067891477529 0.32173946694831868 0 -0.42141481873501418 0.31567829233095179 0 -0.43122247783146522 0.30831868127488848 0 -0.42024067891477529 0.32173946694831868 0 -0.43122247783146522 0.30831868127488848 0 -0.42071708592719742 0.33131558094746122 0 -0.42024067891477529 0.32173946694831868 0 -0.42938605365092247 0.3272194948190838 0 -0.42938605365092247 0.3272194948190838 0 -0.43674098495811231 0.33493788649063261 0 -0.43790895006943947 0.32081412042189511 0 -0.43790895006943947 0.32081412042189511 0 -0.4401847358662575 0.3127477530096977 0 -0.43122247783146522 0.30831868127488848 0 -0.41273643032526569 0.33662953043248711 0 -0.43674098495811231 0.33493788649063261 0 -0.42071708592719742 0.33131558094746122 0 -0.42938605365092247 0.3272194948190838 0 -0.43674098495811231 0.33493788649063261 0 -0.41273643032526569 0.33662953043248711 0 -0.4199209072431685 0.34318781838679219 0 -0.43385085243219867 0.34555045147446217 0 -0.41273643032526569 0.33662953043248711 0 -0.42071708592719742 0.33131558094746122 0 -0.43674098495811231 0.33493788649063261 0 -0.41273643032526569 0.33662953043248711 0 -0.43385085243219867 0.34555045147446217 0 -0.41273643032526569 0.33662953043248711 0 -0.43674098495811231 0.33493788649063261 0 -0.43385085243219867 0.34555045147446217 0 -0.43385085243219867 0.34555045147446217 0 -0.4302486007270056 0.35272204188882378 0 -0.42573384958437638 0.34916959158482058 0 -0.43385085243219867 0.34555045147446217 0 -0.43539550265875948 0.35741731211322858 0 -0.44110397924445488 0.35756373905142852 0 -0.43539550265875948 0.35741731211322858 0 -0.4302486007270056 0.35272204188882378 0 -0.42757171946388478 0.35850981688022993 0 -0.43385085243219867 0.34555045147446217 0 -0.43539550265875948 0.35741731211322858 0 -0.4302486007270056 0.35272204188882378 0 -0.4302486007270056 0.35272204188882378 0 -0.42480748600639012 0.35482075793933809 0 -0.42573384958437638 0.34916959158482058 0 -0.4302486007270056 0.35272204188882378 0 -0.42757171946388478 0.35850981688022993 0 -0.42480748600639012 0.35482075793933809 0 -0.42757171946388478 0.35850981688022993 0 -0.42480748600639012 0.35482075793933809 0 -0.42195212413097077 0.36043988011418487 0 -0.4199209072431685 0.34318781838679219 0 -0.43385085243219867 0.34555045147446217 0 -0.42573384958437638 0.34916959158482058 0 -0.42480748600639012 0.35482075793933809 0 -0.42573384958437638 0.34916959158482058 0 -0.41984140151311927 0.3495668882346864 0 -0.4199209072431685 0.34318781838679219 0 -0.42573384958437638 0.34916959158482058 0 -0.41984140151311927 0.3495668882346864 0 -0.4199209072431685 0.34318781838679219 0 -0.41984140151311927 0.3495668882346864 0 -0.41366919887348358 0.34576378073699821 0 -0.41984140151311927 0.3495668882346864 0 -0.41366919887348358 0.34576378073699821 0 -0.41404230344944593 0.35073751764187411 0 -0.42480748600639012 0.35482075793933809 0 -0.41984140151311927 0.3495668882346864 0 -0.41755863725870102 0.35684421707679032 0 -0.42480748600639012 0.35482075793933809 0 -0.41755863725870102 0.35684421707679032 0 -0.42195212413097077 0.36043988011418487 0 -0.41984140151311927 0.3495668882346864 0 -0.41755863725870102 0.35684421707679032 0 -0.41404230344944593 0.35073751764187411 0 -0.41755863725870102 0.35684421707679032 0 -0.41125051028190041 0.35540848222164118 0 -0.41404230344944593 0.35073751764187411 0 -0.41125051028190041 0.35540848222164118 0 -0.40888688292129022 0.34941903462410451 0 -0.41404230344944593 0.35073751764187411 0 -0.41755863725870102 0.35684421707679032 0 -0.41125051028190041 0.35540848222164118 0 -0.41142088061722581 0.36176204086772412 0 -0.40553625032349627 0.36037170931698131 0 -0.41125051028190041 0.35540848222164118 0 -0.41142088061722581 0.36176204086772412 0 -0.40525205349158999 0.35429039595711992 0 -0.40553625032349627 0.36037170931698131 0 -0.41125051028190041 0.35540848222164118 0 -0.40525205349158999 0.35429039595711992 0 -0.41125051028190041 0.35540848222164118 0 -0.40888688292129022 0.34941903462410451 0 -0.4080564418273247 0.34368885170405422 0 -0.40888688292129022 0.34941903462410451 0 -0.41366919887348358 0.34576378073699821 0 -0.40888688292129022 0.34941903462410451 0 -0.41366919887348358 0.34576378073699821 0 -0.41404230344944593 0.35073751764187411 0 -0.4250431626101242 0.37647010748543319 0 -0.40086489287733429 0.37467411733839928 0 -0.42486892241442098 0.36677785020884007 0 -0.40086489287733429 0.37467411733839928 0 -0.42486892241442098 0.36677785020884007 0 -0.40086489287733429 0.37467411733839928 0 -0.41378193274770297 0.36450427419225789 0 -0.42486892241442098 0.36677785020884007 0 -0.40544017780568847 0.3661562974108753 0 -0.40086489287733429 0.37467411733839928 0 -0.41378193274770297 0.36450427419225789 0 -0.40544017780568847 0.3661562974108753 0 -0.41142088061722581 0.36176204086772412 0 -0.41378193274770297 0.36450427419225789 0 -0.40553625032349627 0.36037170931698131 0 -0.40544017780568847 0.3661562974108753 0 -0.41142088061722581 0.36176204086772412 0 -0.41755863725870102 0.35684421707679032 0 -0.41378193274770297 0.36450427419225789 0 -0.42195212413097077 0.36043988011418487 0 -0.41378193274770297 0.36450427419225789 0 -0.42486892241442098 0.36677785020884007 0 -0.42195212413097077 0.36043988011418487 0 -0.41755863725870102 0.35684421707679032 0 -0.41142088061722581 0.36176204086772412 0 -0.41378193274770297 0.36450427419225789 0 -0.4250431626101242 0.37647010748543319 0 -0.44885864134335329 0.37135067543599282 0 -0.4250431626101242 0.37647010748543319 0 -0.42486892241442098 0.36677785020884007 0 -0.44885864134335329 0.37135067543599282 0 -0.42486892241442098 0.36677785020884007 0 -0.448872951951507 0.35888158307927881 0 -0.43539550265875948 0.35741731211322858 0 -0.42486892241442098 0.36677785020884007 0 -0.44110397924445488 0.35756373905142852 0 -0.43539550265875948 0.35741731211322858 0 -0.42757171946388478 0.35850981688022993 0 -0.42486892241442098 0.36677785020884007 0 -0.42757171946388478 0.35850981688022993 0 -0.42486892241442098 0.36677785020884007 0 -0.42195212413097077 0.36043988011418487 0 -0.42486892241442098 0.36677785020884007 0 -0.44885864134335329 0.37135067543599282 0 -0.448872951951507 0.35888158307927881 0 -0.44802713623065987 0.37645115623263098 0 -0.4250431626101242 0.37647010748543319 0 -0.44885864134335329 0.37135067543599282 0 -0.42486892241442098 0.36677785020884007 0 -0.44110397924445488 0.35756373905142852 0 -0.448872951951507 0.35888158307927881 0 -0.44885864134335329 0.37135067543599282 0 -0.448872951951507 0.35888158307927881 0 -0.44885864134335329 0.37135067543599282 0 -0.448872951951507 0.35888158307927881 0 -0.45634368000688869 0.36512471152292858 0 -0.43385085243219867 0.34555045147446217 0 -0.45496527453913199 0.35447137251643651 0 -0.44889299330712729 0.34242966823447613 0 -0.43385085243219867 0.34555045147446217 0 -0.45496527453913199 0.35447137251643651 0 -0.43385085243219867 0.34555045147446217 0 -0.44887533288597797 0.35680703170406669 0 -0.45496527453913199 0.35447137251643651 0 -0.43385085243219867 0.34555045147446217 0 -0.44110397924445488 0.35756373905142852 0 -0.44887533288597797 0.35680703170406669 0 -0.44110397924445488 0.35756373905142852 0 -0.44887533288597797 0.35680703170406669 0 -0.448872951951507 0.35888158307927881 0 -0.44887533288597797 0.35680703170406669 0 -0.448872951951507 0.35888158307927881 0 -0.44887533288597797 0.35680703170406669 0 -0.448872951951507 0.35888158307927881 0 -0.45496527453913199 0.35447137251643651 0 -0.448872951951507 0.35888158307927881 0 -0.45496527453913199 0.35447137251643651 0 -0.47186707529616939 0.3513175305497272 0 -0.448872951951507 0.35888158307927881 0 -0.47186707529616939 0.3513175305497272 0 -0.448872951951507 0.35888158307927881 0 -0.45634368000688869 0.36512471152292858 0 -0.47186707529616939 0.3513175305497272 0 -0.45911772068334677 0.34536620346235469 0 -0.45496527453913199 0.35447137251643651 0 -0.47186707529616939 0.3513175305497272 0 -0.45911772068334677 0.34536620346235469 0 -0.45496527453913199 0.35447137251643651 0 -0.44889299330712729 0.34242966823447613 0 -0.46572599417265398 0.36772482908493609 0 -0.45634368000688869 0.36512471152292858 0 -0.47186707529616939 0.3513175305497272 0 -0.46059005399087027 0.38292215568240928 0 -0.44885864134335329 0.37135067543599282 0 -0.46572599417265398 0.36772482908493609 0 -0.44885864134335329 0.37135067543599282 0 -0.46572599417265398 0.36772482908493609 0 -0.44885864134335329 0.37135067543599282 0 -0.46572599417265398 0.36772482908493609 0 -0.45634368000688869 0.36512471152292858 0 -0.47832653283541199 0.38608194873200979 0 -0.46572599417265398 0.36772482908493609 0 -0.48259334700195489 0.36409898273387958 0 -0.46572599417265398 0.36772482908493609 0 -0.48259334700195489 0.36409898273387958 0 -0.47186707529616939 0.3513175305497272 0 -0.46572599417265398 0.36772482908493609 0 -0.48259334700195489 0.36409898273387958 0 -0.47186707529616939 0.3513175305497272 0 -0.494861198640831 0.34375347802017348 0 -0.47186707529616939 0.3513175305497272 0 -0.48536711719674469 0.35339641184703091 0 -0.494861198640831 0.34375347802017348 0 -0.48259334700195489 0.36409898273387958 0 -0.47186707529616939 0.3513175305497272 0 -0.48536711719674469 0.35339641184703091 0 -0.48259334700195489 0.36409898273387958 0 -0.49214684784802371 0.35441565608434311 0 -0.48536711719674469 0.35339641184703091 0 -0.49214684784802371 0.35441565608434311 0 -0.5 0.36887446842263683 0 -0.5 0.34271985673358363 0 -0.49214684784802371 0.35441565608434311 0 -0.48536711719674469 0.35339641184703091 0 -0.494861198640831 0.34375347802017348 0 -0.49214684784802371 0.35441565608434311 0 -0.494861198640831 0.34375347802017348 0 -0.5 0.34271985673358363 0 -0.48850556386005051 0.3766603246979251 0 -0.48259334700195489 0.36409898273387958 0 -0.5 0.36887446842263683 0 -0.48259334700195489 0.36409898273387958 0 -0.49214684784802371 0.35441565608434311 0 -0.5 0.36887446842263683 0 -0.485708092488497 0.3189911195031831 0 -0.5 0.31656524504453032 0 -0.48475009422380527 0.3315545986069256 0 -0.485708092488497 0.3189911195031831 0 -0.5 0.31656524504453032 0 -0.48583489694974541 0.30845327583860088 0 -0.5 0.31656524504453032 0 -0.5 0.34271985673358363 0 -0.48475009422380527 0.3315545986069256 0 -0.494861198640831 0.34375347802017348 0 -0.5 0.34271985673358363 0 -0.48475009422380527 0.3315545986069256 0 -0.48475009422380527 0.3315545986069256 0 -0.46074553959095882 0.3332462425487791 0 -0.47186707529616939 0.3513175305497272 0 -0.494861198640831 0.34375347802017348 0 -0.48475009422380527 0.3315545986069256 0 -0.47186707529616939 0.3513175305497272 0 -0.48475009422380527 0.3315545986069256 0 -0.46074553959095882 0.3332462425487791 0 -0.48475009422380527 0.3315545986069256 0 -0.47224737878043732 0.31939135852267558 0 -0.46074553959095882 0.3332462425487791 0 -0.485708092488497 0.3189911195031831 0 -0.48475009422380527 0.3315545986069256 0 -0.47224737878043732 0.31939135852267558 0 -0.485708092488497 0.3189911195031831 0 -0.47224737878043732 0.31939135852267558 0 -0.48583489694974541 0.30845327583860088 0 -0.47224737878043732 0.31939135852267558 0 -0.46258830912673421 0.31343425170936878 0 -0.46074553959095882 0.3332462425487791 0 -0.46258830912673421 0.31343425170936878 0 -0.46074553959095882 0.3332462425487791 0 -0.45107709460752138 0.31557533431346357 0 -0.45911772068334677 0.34536620346235469 0 -0.47186707529616939 0.3513175305497272 0 -0.46074553959095882 0.3332462425487791 0 -0.45911772068334677 0.34536620346235469 0 -0.46074553959095882 0.3332462425487791 0 -0.44889299330712729 0.34242966823447613 0 -0.43674098495811231 0.33493788649063261 0 -0.46074553959095882 0.3332462425487791 0 -0.43674098495811231 0.33493788649063261 0 -0.46074553959095882 0.3332462425487791 0 -0.44889299330712729 0.34242966823447613 0 -0.43674098495811231 0.33493788649063261 0 -0.46074553959095882 0.3332462425487791 0 -0.43790895006943947 0.32081412042189511 0 -0.43674098495811231 0.33493788649063261 0 -0.43385085243219867 0.34555045147446217 0 -0.44889299330712729 0.34242966823447613 0 -0.46074553959095882 0.3332462425487791 0 -0.45107709460752138 0.31557533431346357 0 -0.43790895006943947 0.32081412042189511 0 -0.45107709460752138 0.31557533431346357 0 -0.43790895006943947 0.32081412042189511 0 -0.4401847358662575 0.3127477530096977 0 -0.44444415583193408 0.29216055381020578 0 -0.43122247783146522 0.30831868127488848 0 -0.44810052680614793 0.29565349026271098 0 -0.43122247783146522 0.30831868127488848 0 -0.44368336155109173 0.30649675881006838 0 -0.44810052680614793 0.29565349026271098 0 -0.43122247783146522 0.30831868127488848 0 -0.4401847358662575 0.3127477530096977 0 -0.44368336155109173 0.30649675881006838 0 -0.43122247783146522 0.30831868127488848 0 -0.44444415583193408 0.29216055381020578 0 -0.44810052680614793 0.29565349026271098 0 -0.43122247783146522 0.30831868127488848 0 -0.45107709460752138 0.31557533431346357 0 -0.4401847358662575 0.3127477530096977 0 -0.44368336155109173 0.30649675881006838 0 -0.44368336155109173 0.30649675881006838 0 -0.44996115485610377 0.3015940899144034 0 -0.4551770389262465 0.30483297142504889 0 -0.44368336155109173 0.30649675881006838 0 -0.44996115485610377 0.3015940899144034 0 -0.44810052680614793 0.29565349026271098 0 -0.45288369214092922 0.29939313915978533 0 -0.44996115485610377 0.3015940899144034 0 -0.44810052680614793 0.29565349026271098 0 -0.45288369214092922 0.29939313915978533 0 -0.44996115485610377 0.3015940899144034 0 -0.4551770389262465 0.30483297142504889 0 -0.45107709460752138 0.31557533431346357 0 -0.44368336155109173 0.30649675881006838 0 -0.4551770389262465 0.30483297142504889 0 -0.44702735364695217 0.27675533545947301 0 -0.43422108619098299 0.29621681389521232 0 -0.44444415583193408 0.29216055381020578 0 -0.44702735364695217 0.27675533545947301 0 -0.43422108619098299 0.29621681389521232 0 -0.44702735364695217 0.27675533545947301 0 -0.43274811138672559 0.28469846643612018 0 -0.43422108619098299 0.29621681389521232 0 -0.44810052680614793 0.29565349026271098 0 -0.4493542421043164 0.28919027156790111 0 -0.45395006383388498 0.28587005882998617 0 -0.44444415583193408 0.29216055381020578 0 -0.44810052680614793 0.29565349026271098 0 -0.4493542421043164 0.28919027156790111 0 -0.44444415583193408 0.29216055381020578 0 -0.4493542421043164 0.28919027156790111 0 -0.44702735364695217 0.27675533545947301 0 -0.4493542421043164 0.28919027156790111 0 -0.45395006383388498 0.28587005882998617 0 -0.44702735364695217 0.27675533545947301 0 -0.44810052680614793 0.29565349026271098 0 -0.45395006383388498 0.28587005882998617 0 -0.46497857578083068 0.28298829925053381 0 -0.44810052680614793 0.29565349026271098 0 -0.4593999708052337 0.29480301670676529 0 -0.46497857578083068 0.28298829925053381 0 -0.44810052680614793 0.29565349026271098 0 -0.46497857578083068 0.28298829925053381 0 -0.45288369214092922 0.29939313915978533 0 -0.44810052680614793 0.29565349026271098 0 -0.4593999708052337 0.29480301670676529 0 -0.4593999708052337 0.29480301670676529 0 -0.46827174088950307 0.29409138505043392 0 -0.46497857578083068 0.28298829925053381 0 -0.46258830912673421 0.31343425170936878 0 -0.45107709460752138 0.31557533431346357 0 -0.4551770389262465 0.30483297142504889 0 -0.45288369214092922 0.29939313915978533 0 -0.4593999708052337 0.29480301670676529 0 -0.4551770389262465 0.30483297142504889 0 -0.4593999708052337 0.29480301670676529 0 -0.4551770389262465 0.30483297142504889 0 -0.46625021185001803 0.30380681263807602 0 -0.4593999708052337 0.29480301670676529 0 -0.46827174088950307 0.29409138505043392 0 -0.46625021185001803 0.30380681263807602 0 -0.47224737878043732 0.31939135852267558 0 -0.46258830912673421 0.31343425170936878 0 -0.46625021185001803 0.30380681263807602 0 -0.46258830912673421 0.31343425170936878 0 -0.4551770389262465 0.30483297142504889 0 -0.46625021185001803 0.30380681263807602 0 -0.47551717359816043 0.30301602212345602 0 -0.4769183937012712 0.29196404103452073 0 -0.48583489694974541 0.30845327583860088 0 -0.47224737878043732 0.31939135852267558 0 -0.46625021185001803 0.30380681263807602 0 -0.47551717359816043 0.30301602212345602 0 -0.47224737878043732 0.31939135852267558 0 -0.47551717359816043 0.30301602212345602 0 -0.48583489694974541 0.30845327583860088 0 -0.46827174088950307 0.29409138505043392 0 -0.46625021185001803 0.30380681263807602 0 -0.47551717359816043 0.30301602212345602 0 -0.46827174088950307 0.29409138505043392 0 -0.46497857578083068 0.28298829925053381 0 -0.4769183937012712 0.29196404103452073 0 -0.4769183937012712 0.29196404103452073 0 -0.48757792524538679 0.2814999319082685 0 -0.48583489694974541 0.30845327583860088 0 -0.46827174088950307 0.29409138505043392 0 -0.47551717359816043 0.30301602212345602 0 -0.4769183937012712 0.29196404103452073 0 -0.46497857578083068 0.28298829925053381 0 -0.47783287987075052 0.28169384510791978 0 -0.4769183937012712 0.29196404103452073 0 -0.47783287987075052 0.28169384510791978 0 -0.4769183937012712 0.29196404103452073 0 -0.48757792524538679 0.2814999319082685 0 -0.5 0.29041063335547701 0 -0.48757792524538679 0.2814999319082685 0 -0.48583489694974541 0.30845327583860088 0 -0.48757792524538679 0.2814999319082685 0 -0.48583489694974541 0.30845327583860088 0 -0.5 0.31656524504453032 0 -0.5 0.29041063335547701 0 -0.48583489694974541 0.30845327583860088 0 -0.5 0.23810140997737081 0 -0.5 0.26425602166642381 0 -0.48932095354102823 0.25454658797793611 0 -0.48757792524538679 0.2814999319082685 0 -0.48932095354102823 0.25454658797793611 0 -0.48366697684514259 0.26703881783025729 0 -0.48757792524538679 0.2814999319082685 0 -0.5 0.26425602166642381 0 -0.48932095354102823 0.25454658797793611 0 -0.48757792524538679 0.2814999319082685 0 -0.48932095354102823 0.25454658797793611 0 -0.5 0.29041063335547701 0 -0.48757792524538679 0.2814999319082685 0 -0.5 0.26425602166642381 0 -0.46497857578083068 0.28298829925053381 0 -0.48185662475551339 0.27032310823835648 0 -0.46497857578083068 0.28298829925053381 0 -0.47783287987075052 0.28169384510791978 0 -0.48185662475551339 0.27032310823835648 0 -0.48366697684514259 0.26703881783025729 0 -0.45893043448094739 0.2699305570534084 0 -0.48757792524538679 0.2814999319082685 0 -0.48366697684514259 0.26703881783025729 0 -0.48185662475551339 0.27032310823835648 0 -0.48366697684514259 0.26703881783025729 0 -0.48185662475551339 0.27032310823835648 0 -0.47235815296560851 0.27257019559313889 0 -0.46497857578083068 0.28298829925053381 0 -0.48185662475551339 0.27032310823835648 0 -0.47235815296560851 0.27257019559313889 0 -0.48366697684514259 0.26703881783025729 0 -0.46959483388743167 0.25994315597580908 0 -0.45893043448094739 0.2699305570534084 0 -0.48366697684514259 0.26703881783025729 0 -0.47235815296560851 0.27257019559313889 0 -0.45893043448094739 0.2699305570534084 0 -0.47783287987075052 0.28169384510791978 0 -0.48757792524538679 0.2814999319082685 0 -0.48185662475551339 0.27032310823835648 0 -0.48932095354102823 0.25454658797793611 0 -0.48366697684514259 0.26703881783025729 0 -0.47792533453874358 0.25606878273296479 0 -0.48366697684514259 0.26703881783025729 0 -0.46959483388743167 0.25994315597580908 0 -0.47792533453874358 0.25606878273296479 0 -0.47864167104372218 0.246590621409366 0 -0.48932095354102823 0.25454658797793611 0 -0.47792533453874358 0.25606878273296479 0 -0.47864167104372218 0.246590621409366 0 -0.47792533453874358 0.25606878273296479 0 -0.46938038244821267 0.25133041049185839 0 -0.46959483388743167 0.25994315597580908 0 -0.47792533453874358 0.25606878273296479 0 -0.46938038244821267 0.25133041049185839 0 -0.46959483388743167 0.25994315597580908 0 -0.46938038244821267 0.25133041049185839 0 -0.45807104112411212 0.25534721177055669 0 -0.46959483388743167 0.25994315597580908 0 -0.45807104112411212 0.25534721177055669 0 -0.45893043448094739 0.2699305570534084 0 -0.45807104112411212 0.25534721177055669 0 -0.45893043448094739 0.2699305570534084 0 -0.44442574262614493 0.25832327296872359 0 -0.45395006383388498 0.28587005882998617 0 -0.46497857578083068 0.28298829925053381 0 -0.45893043448094739 0.2699305570534084 0 -0.45395006383388498 0.28587005882998617 0 -0.45893043448094739 0.2699305570534084 0 -0.44702735364695217 0.27675533545947301 0 -0.46497857578083068 0.28298829925053381 0 -0.47235815296560851 0.27257019559313889 0 -0.45893043448094739 0.2699305570534084 0 -0.45893043448094739 0.2699305570534084 0 -0.43419389211675241 0.27282229627655952 0 -0.45893043448094739 0.2699305570534084 0 -0.44442574262614493 0.25832327296872359 0 -0.43419389211675241 0.27282229627655952 0 -0.45893043448094739 0.2699305570534084 0 -0.44702735364695217 0.27675533545947301 0 -0.43419389211675241 0.27282229627655952 0 -0.44702735364695217 0.27675533545947301 0 -0.43419389211675241 0.27282229627655952 0 -0.43274811138672559 0.28469846643612018 0 -0.45046339488490522 0.249057113070103 0 -0.45807104112411212 0.25534721177055669 0 -0.44442574262614493 0.25832327296872359 0 -0.44062222049055039 0.24203477259657111 0 -0.44442574262614493 0.25832327296872359 0 -0.42503978512155383 0.25887440404814072 0 -0.44062222049055039 0.24203477259657111 0 -0.42503978512155383 0.25887440404814072 0 -0.44442574262614493 0.25832327296872359 0 -0.42503978512155383 0.25887440404814072 0 -0.43419389211675241 0.27282229627655952 0 -0.42503978512155383 0.25887440404814072 0 -0.40945734975255721 0.27571403549971041 0 -0.40585136056822319 0.25674789398696107 0 -0.4198454647722451 0.23985190764030939 0 -0.42503978512155383 0.25887440404814072 0 -0.40585136056822319 0.25674789398696107 0 -0.40945734975255721 0.27571403549971041 0 -0.43419389211675241 0.27282229627655952 0 -0.42503978512155383 0.25887440404814072 0 -0.40945734975255721 0.27571403549971041 0 -0.42503978512155383 0.25887440404814072 0 -0.40945734975255721 0.27571403549971041 0 -0.43419389211675241 0.27282229627655952 0 -0.40945734975255721 0.27571403549971041 0 -0.43419389211675241 0.27282229627655952 0 -0.4229835889384117 0.28415291652507912 0 -0.43419389211675241 0.27282229627655952 0 -0.43274811138672559 0.28469846643612018 0 -0.4229835889384117 0.28415291652507912 0 -0.43274811138672559 0.28469846643612018 0 -0.43422108619098299 0.29621681389521232 0 -0.42519236151645012 0.29288975242762622 0 -0.43274811138672559 0.28469846643612018 0 -0.42519236151645012 0.29288975242762622 0 -0.4229835889384117 0.28415291652507912 0 -0.42141481873501418 0.31567829233095179 0 -0.43422108619098299 0.29621681389521232 0 -0.42141481873501418 0.31567829233095179 0 -0.43422108619098299 0.29621681389521232 0 -0.42237726971740519 0.30236741203524931 0 -0.44444415583193408 0.29216055381020578 0 -0.43422108619098299 0.29621681389521232 0 -0.43122247783146522 0.30831868127488848 0 -0.42141481873501418 0.31567829233095179 0 -0.43422108619098299 0.29621681389521232 0 -0.43122247783146522 0.30831868127488848 0 -0.43422108619098299 0.29621681389521232 0 -0.42519236151645012 0.29288975242762622 0 -0.42237726971740519 0.30236741203524931 0 -0.42141481873501418 0.31567829233095179 0 -0.43122247783146522 0.30831868127488848 0 -0.42237726971740519 0.30236741203524931 0 -0.41647318301620623 0.31168328686166002 0 -0.40812109447663159 0.30329838776079099 0 -0.42141481873501418 0.31567829233095179 0 -0.42237726971740519 0.30236741203524931 0 -0.41647318301620623 0.31168328686166002 0 -0.42237726971740519 0.30236741203524931 0 -0.40812109447663159 0.30329838776079099 0 -0.41256551749876041 0.29129965580367562 0 -0.40826549608127172 0.31275764886218971 0 -0.41647318301620623 0.31168328686166002 0 -0.40812109447663159 0.30329838776079099 0 -0.40945734975255721 0.27571403549971041 0 -0.4229835889384117 0.28415291652507912 0 -0.41256551749876041 0.29129965580367562 0 -0.42519236151645012 0.29288975242762622 0 -0.4229835889384117 0.28415291652507912 0 -0.41256551749876041 0.29129965580367562 0 -0.42519236151645012 0.29288975242762622 0 -0.42237726971740519 0.30236741203524931 0 -0.41256551749876041 0.29129965580367562 0 -0.40945734975255721 0.27571403549971041 0 -0.39180528154043992 0.29479027846244049 0 -0.39350738277932218 0.27757861076756318 0 -0.40945734975255721 0.27571403549971041 0 -0.39180528154043992 0.29479027846244049 0 -0.40812109447663159 0.30329838776079099 0 -0.41256551749876041 0.29129965580367562 0 -0.39180528154043992 0.29479027846244049 0 -0.40945734975255721 0.27571403549971041 0 -0.41256551749876041 0.29129965580367562 0 -0.39180528154043992 0.29479027846244049 0 -0.38613629988198012 0.31665983269396758 0 -0.39830358576524327 0.31266849694114901 0 -0.39180528154043992 0.29479027846244049 0 -0.39830358576524327 0.31266849694114901 0 -0.40812109447663159 0.30329838776079099 0 -0.39180528154043992 0.29479027846244049 0 -0.39830358576524327 0.31266849694114901 0 -0.40826549608127172 0.31275764886218971 0 -0.40812109447663159 0.30329838776079099 0 -0.39180528154043992 0.29479027846244049 0 -0.37819889022761238 0.29924868842846319 0 -0.37415321332832258 0.31386652142517069 0 -0.38613629988198012 0.31665983269396758 0 -0.39180528154043992 0.29479027846244049 0 -0.37415321332832258 0.31386652142517069 0 -0.39180528154043992 0.29479027846244049 0 -0.37415321332832258 0.31386652142517069 0 -0.39180528154043992 0.29479027846244049 0 -0.37819889022761238 0.29924868842846319 0 -0.37870614451813112 0.28175948497688769 0 -0.39180528154043992 0.29479027846244049 0 -0.37870614451813112 0.28175948497688769 0 -0.39350738277932218 0.27757861076756318 0 -0.37870614451813112 0.28175948497688769 0 -0.37647038179830861 0.26645711442365799 0 -0.39350738277932218 0.27757861076756318 0 -0.37647038179830861 0.26645711442365799 0 -0.39336972403141229 0.26369738761855421 0 -0.39350738277932218 0.27757861076756318 0 -0.38790582398472923 0.24962922847932231 0 -0.37647038179830861 0.26645711442365799 0 -0.39336972403141229 0.26369738761855421 0 -0.38790582398472923 0.24962922847932231 0 -0.37647038179830861 0.26645711442365799 0 -0.36318679658289171 0.25196182354824148 0 -0.40945734975255721 0.27571403549971041 0 -0.40585136056822319 0.25674789398696107 0 -0.39336972403141229 0.26369738761855421 0 -0.38790582398472923 0.24962922847932231 0 -0.40585136056822319 0.25674789398696107 0 -0.39336972403141229 0.26369738761855421 0 -0.40945734975255721 0.27571403549971041 0 -0.39336972403141229 0.26369738761855421 0 -0.39350738277932218 0.27757861076756318 0 -0.40945734975255721 0.27571403549971041 0 -0.39350738277932218 0.27757861076756318 0 -0.35583614606747688 0.27501819518035592 0 -0.36318679658289171 0.25196182354824148 0 -0.33952374355129727 0.25899057541505788 0 -0.37647038179830861 0.26645711442365799 0 -0.35583614606747688 0.27501819518035592 0 -0.36318679658289171 0.25196182354824148 0 -0.37870614451813112 0.28175948497688769 0 -0.37647038179830861 0.26645711442365799 0 -0.35583614606747688 0.27501819518035592 0 -0.37819889022761238 0.29924868842846319 0 -0.37870614451813112 0.28175948497688769 0 -0.36775571630023218 0.2927315942663431 0 -0.37870614451813112 0.28175948497688769 0 -0.35583614606747688 0.27501819518035592 0 -0.36775571630023218 0.2927315942663431 0 -0.37819889022761238 0.29924868842846319 0 -0.36899777432263853 0.30469822459034263 0 -0.37415321332832258 0.31386652142517069 0 -0.36899777432263853 0.30469822459034263 0 -0.36272901898995358 0.31473918551029578 0 -0.37415321332832258 0.31386652142517069 0 -0.37819889022761238 0.29924868842846319 0 -0.36775571630023218 0.2927315942663431 0 -0.36899777432263853 0.30469822459034263 0 -0.36775571630023218 0.2927315942663431 0 -0.36899777432263853 0.30469822459034263 0 -0.35931620367806588 0.30475084950198522 0 -0.36775571630023218 0.2927315942663431 0 -0.35931620367806588 0.30475084950198522 0 -0.35261706249820868 0.29381533636168528 0 -0.36899777432263853 0.30469822459034263 0 -0.35931620367806588 0.30475084950198522 0 -0.36272901898995358 0.31473918551029578 0 -0.35931620367806588 0.30475084950198522 0 -0.35261706249820868 0.29381533636168528 0 -0.34344143829887858 0.30736403781452232 0 -0.35931620367806588 0.30475084950198522 0 -0.34344143829887858 0.30736403781452232 0 -0.35467675850453528 0.31743756764607989 0 -0.35931620367806588 0.30475084950198522 0 -0.35467675850453528 0.31743756764607989 0 -0.36272901898995358 0.31473918551029578 0 -0.35583614606747688 0.27501819518035592 0 -0.36775571630023218 0.2927315942663431 0 -0.35261706249820868 0.29381533636168528 0 -0.35583614606747688 0.27501819518035592 0 -0.35261706249820868 0.29381533636168528 0 -0.33673580814638959 0.28921200504521999 0 -0.35261706249820868 0.29381533636168528 0 -0.33673580814638959 0.28921200504521999 0 -0.34344143829887858 0.30736403781452232 0 -0.33673580814638959 0.28921200504521999 0 -0.32075162894010661 0.28280614760534989 0 -0.33379142081270979 0.2734424933293601 0 -0.34344143829887858 0.30736403781452232 0 -0.31699951866320542 0.30755322334125379 0 -0.34344143829887858 0.30736403781452232 0 -0.31699951866320542 0.30755322334125379 0 -0.33459812393413729 0.32207732583041709 0 -0.33673580814638959 0.28921200504521999 0 -0.34344143829887858 0.30736403781452232 0 -0.31699951866320542 0.30755322334125379 0 -0.33673580814638959 0.28921200504521999 0 -0.31699951866320542 0.30755322334125379 0 -0.32075162894010661 0.28280614760534989 0 -0.31699951866320542 0.30755322334125379 0 -0.32075162894010661 0.28280614760534989 0 -0.30493521127791462 0.28695781074044469 0 -0.32075162894010661 0.28280614760534989 0 -0.31931282352829687 0.26617321261290411 0 -0.33379142081270979 0.2734424933293601 0 -0.32075162894010661 0.28280614760534989 0 -0.31931282352829687 0.26617321261290411 0 -0.30493521127791462 0.28695781074044469 0 -0.35583614606747688 0.27501819518035592 0 -0.33673580814638959 0.28921200504521999 0 -0.33379142081270979 0.2734424933293601 0 -0.35583614606747688 0.27501819518035592 0 -0.33379142081270979 0.2734424933293601 0 -0.33952374355129727 0.25899057541505788 0 -0.31931282352829687 0.26617321261290411 0 -0.33379142081270979 0.2734424933293601 0 -0.33952374355129727 0.25899057541505788 0 -0.32200613725511351 0.24850726385495631 0 -0.31931282352829687 0.26617321261290411 0 -0.33952374355129727 0.25899057541505788 0 -0.32200613725511351 0.24850726385495631 0 -0.31931282352829687 0.26617321261290411 0 -0.30640548876467488 0.25787073169030861 0 -0.31931282352829687 0.26617321261290411 0 -0.30640548876467488 0.25787073169030861 0 -0.3010630097917536 0.27273037638764702 0 -0.31931282352829687 0.26617321261290411 0 -0.3010630097917536 0.27273037638764702 0 -0.30493521127791462 0.28695781074044469 0 -0.31931282352829687 0.26617321261290411 0 -0.30493521127791462 0.28695781074044469 0 -0.3010630097917536 0.27273037638764702 0 -0.29309283898050847 0.28048055459605348 0 -0.30493521127791462 0.28695781074044469 0 -0.3010630097917536 0.27273037638764702 0 -0.29309283898050847 0.28048055459605348 0 -0.28156868640737281 0.27216957229852412 0 -0.30640548876467488 0.25787073169030861 0 -0.3010630097917536 0.27273037638764702 0 -0.28156868640737281 0.27216957229852412 0 -0.30640548876467488 0.25787073169030861 0 -0.28156868640737281 0.27216957229852412 0 -0.28729818335365731 0.26780124082781631 0 -0.28156868640737281 0.27216957229852412 0 -0.28729818335365731 0.26780124082781631 0 -0.27880962639343299 0.26078065685839158 0 -0.29309283898050847 0.28048055459605348 0 -0.28156868640737281 0.27216957229852412 0 -0.28401529333418091 0.28255904946725641 0 -0.30640548876467488 0.25787073169030861 0 -0.28156868640737281 0.27216957229852412 0 -0.29125564533142001 0.24067530578368901 0 -0.30640548876467488 0.25787073169030861 0 -0.28729818335365731 0.26780124082781631 0 -0.29125564533142001 0.24067530578368901 0 -0.28729818335365731 0.26780124082781631 0 -0.27880962639343299 0.26078065685839158 0 -0.29125564533142001 0.24067530578368901 0 -0.28729818335365731 0.26780124082781631 0 -0.29125564533142001 0.24067530578368901 0 -0.26892213733164849 0.25365425058065472 0 -0.27880962639343299 0.26078065685839158 0 -0.26892213733164849 0.25365425058065472 0 -0.27880962639343299 0.26078065685839158 0 -0.26500347954306669 0.26960291480127369 0 -0.28156868640737281 0.27216957229852412 0 -0.25673188405007052 0.28646841290673969 0 -0.28156868640737281 0.27216957229852412 0 -0.26500347954306669 0.26960291480127369 0 -0.25673188405007052 0.28646841290673969 0 -0.28156868640737281 0.27216957229852412 0 -0.27880962639343299 0.26078065685839158 0 -0.26500347954306669 0.26960291480127369 0 -0.28156868640737281 0.27216957229852412 0 -0.27479408276187339 0.28687287199942368 0 -0.28401529333418091 0.28255904946725641 0 -0.26500347954306669 0.26960291480127369 0 -0.25265925142613249 0.26128234508680298 0 -0.25673188405007052 0.28646841290673969 0 -0.26892213733164849 0.25365425058065472 0 -0.26500347954306669 0.26960291480127369 0 -0.25265925142613249 0.26128234508680298 0 -0.25621817608628389 0.2460965770837312 0 -0.26892213733164849 0.25365425058065472 0 -0.25265925142613249 0.26128234508680298 0 -0.25505401324638421 0.30366623925853881 0 -0.26661761067819428 0.2958317928062858 0 -0.26721257633701828 0.30790943684761429 0 -0.25505401324638421 0.30366623925853881 0 -0.26721257633701828 0.30790943684761429 0 -0.25901197930261888 0.31383205914145501 0 -0.26721257633701828 0.30790943684761429 0 -0.25901197930261888 0.31383205914145501 0 -0.26528599585519008 0.31471464054907522 0 -0.25505401324638421 0.30366623925853881 0 -0.25901197930261888 0.31383205914145501 0 -0.24885494741763489 0.31718848033418301 0 -0.25505401324638421 0.30366623925853881 0 -0.25673188405007052 0.28646841290673969 0 -0.26661761067819428 0.2958317928062858 0 -0.26661761067819428 0.2958317928062858 0 -0.27573637841232751 0.29432500902679382 0 -0.27326763327687947 0.30016750757533939 0 -0.28156868640737281 0.27216957229852412 0 -0.25673188405007052 0.28646841290673969 0 -0.27479408276187339 0.28687287199942368 0 -0.26661761067819428 0.2958317928062858 0 -0.27479408276187339 0.28687287199942368 0 -0.27573637841232751 0.29432500902679382 0 -0.25673188405007052 0.28646841290673969 0 -0.26661761067819428 0.2958317928062858 0 -0.27479408276187339 0.28687287199942368 0 -0.27479408276187339 0.28687287199942368 0 -0.28401529333418091 0.28255904946725641 0 -0.28313816676434478 0.29069510378855717 0 -0.27479408276187339 0.28687287199942368 0 -0.27573637841232751 0.29432500902679382 0 -0.28313816676434478 0.29069510378855717 0 -0.27573637841232751 0.29432500902679382 0 -0.28086439858034518 0.29805776896436298 0 -0.28313816676434478 0.29069510378855717 0 -0.28086439858034518 0.29805776896436298 0 -0.27753065875984329 0.30327410754998058 0 -0.28274061889410179 0.30278083970340541 0 -0.27753065875984329 0.30327410754998058 0 -0.27514776209796898 0.30785266251660498 0 -0.28274061889410179 0.30278083970340541 0 -0.27753065875984329 0.30327410754998058 0 -0.27326763327687947 0.30016750757533939 0 -0.27348155140824082 0.30658246875079598 0 -0.28086439858034518 0.29805776896436298 0 -0.27753065875984329 0.30327410754998058 0 -0.27326763327687947 0.30016750757533939 0 -0.27573637841232751 0.29432500902679382 0 -0.28086439858034518 0.29805776896436298 0 -0.27326763327687947 0.30016750757533939 0 -0.26661761067819428 0.2958317928062858 0 -0.27326763327687947 0.30016750757533939 0 -0.26721257633701828 0.30790943684761429 0 -0.26721257633701828 0.30790943684761429 0 -0.27514776209796898 0.30785266251660498 0 -0.27123720609067609 0.3158529302113221 0 -0.26721257633701828 0.30790943684761429 0 -0.27348155140824082 0.30658246875079598 0 -0.27514776209796898 0.30785266251660498 0 -0.26721257633701828 0.30790943684761429 0 -0.27514776209796898 0.30785266251660498 0 -0.27326763327687947 0.30016750757533939 0 -0.26721257633701828 0.30790943684761429 0 -0.27348155140824082 0.30658246875079598 0 -0.27514776209796898 0.30785266251660498 0 -0.2851872012256097 0.31550597615259851 0 -0.27753065875984329 0.30327410754998058 0 -0.27348155140824082 0.30658246875079598 0 -0.27514776209796898 0.30785266251660498 0 -0.27348155140824082 0.30658246875079598 0 -0.27514776209796898 0.30785266251660498 0 -0.27514776209796898 0.30785266251660498 0 -0.2905575990275322 0.30774240886798532 0 -0.27514776209796898 0.30785266251660498 0 -0.2905575990275322 0.30774240886798532 0 -0.2851872012256097 0.31550597615259851 0 -0.2896026760048197 0.2969772506180926 0 -0.2905575990275322 0.30774240886798532 0 -0.30493521127791462 0.28695781074044469 0 -0.27514776209796898 0.30785266251660498 0 -0.28274061889410179 0.30278083970340541 0 -0.2905575990275322 0.30774240886798532 0 -0.2905575990275322 0.30774240886798532 0 -0.2851872012256097 0.31550597615259851 0 -0.28274061889410179 0.30278083970340541 0 -0.2896026760048197 0.2969772506180926 0 -0.2905575990275322 0.30774240886798532 0 -0.28086439858034518 0.29805776896436298 0 -0.28274061889410179 0.30278083970340541 0 -0.2896026760048197 0.2969772506180926 0 -0.28401529333418091 0.28255904946725641 0 -0.28313816676434478 0.29069510378855717 0 -0.29095683727235372 0.28753395384208091 0 -0.28086439858034518 0.29805776896436298 0 -0.2896026760048197 0.2969772506180926 0 -0.28313816676434478 0.29069510378855717 0 -0.2896026760048197 0.2969772506180926 0 -0.28313816676434478 0.29069510378855717 0 -0.29095683727235372 0.28753395384208091 0 -0.2896026760048197 0.2969772506180926 0 -0.29095683727235372 0.28753395384208091 0 -0.30493521127791462 0.28695781074044469 0 -0.29309283898050847 0.28048055459605348 0 -0.29095683727235372 0.28753395384208091 0 -0.30493521127791462 0.28695781074044469 0 -0.29309283898050847 0.28048055459605348 0 -0.28401529333418091 0.28255904946725641 0 -0.29095683727235372 0.28753395384208091 0 -0.31699951866320542 0.30755322334125379 0 -0.2905575990275322 0.30774240886798532 0 -0.30563014257680821 0.31779627416788381 0 -0.31699951866320542 0.30755322334125379 0 -0.2905575990275322 0.30774240886798532 0 -0.2905575990275322 0.30774240886798532 0 -0.30493521127791462 0.28695781074044469 0 -0.31699951866320542 0.30755322334125379 0 -0.2905575990275322 0.30774240886798532 0 -0.30493521127791462 0.28695781074044469 0 -0.30538608464820588 0.33090408634228141 0 -0.28942706780696309 0.31873813168532672 0 -0.30563014257680821 0.31779627416788381 0 -0.30538608464820588 0.33090408634228141 0 -0.31811651498789978 0.32488887006413791 0 -0.30563014257680821 0.31779627416788381 0 -0.30538608464820588 0.33090408634228141 0 -0.2937791937433501 0.31637108240395312 0 -0.30538608464820588 0.33090408634228141 0 -0.3017933608705089 0.344447887165377 0 -0.32134510148944728 0.34307004099923799 0 -0.30538608464820588 0.33090408634228141 0 -0.29093013722955491 0.33661105704622479 0 -0.3017933608705089 0.344447887165377 0 -0.30538608464820588 0.33090408634228141 0 -0.29093013722955491 0.33661105704622479 0 -0.2885751077852815 0.32830696870384862 0 -0.29093013722955491 0.33661105704622479 0 -0.28224162025157051 0.34582573333151501 0 -0.3017933608705089 0.344447887165377 0 -0.2885751077852815 0.32830696870384862 0 -0.28146834572906437 0.33465123959114113 0 -0.2790455690922089 0.3243844570517187 0 -0.29093013722955491 0.33661105704622479 0 -0.2885751077852815 0.32830696870384862 0 -0.28146834572906437 0.33465123959114113 0 -0.29093013722955491 0.33661105704622479 0 -0.28146834572906437 0.33465123959114113 0 -0.28224162025157051 0.34582573333151501 0 -0.30538608464820588 0.33090408634228141 0 -0.2885751077852815 0.32830696870384862 0 -0.28942706780696309 0.31873813168532672 0 -0.30538608464820588 0.33090408634228141 0 -0.28942706780696309 0.31873813168532672 0 -0.2937791937433501 0.31637108240395312 0 -0.28942706780696309 0.31873813168532672 0 -0.2937791937433501 0.31637108240395312 0 -0.2851872012256097 0.31550597615259851 0 -0.2905575990275322 0.30774240886798532 0 -0.30563014257680821 0.31779627416788381 0 -0.2937791937433501 0.31637108240395312 0 -0.2905575990275322 0.30774240886798532 0 -0.2937791937433501 0.31637108240395312 0 -0.2851872012256097 0.31550597615259851 0 -0.28942706780696309 0.31873813168532672 0 -0.2937791937433501 0.31637108240395312 0 -0.2885751077852815 0.32830696870384862 0 -0.28942706780696309 0.31873813168532672 0 -0.2790455690922089 0.3243844570517187 0 -0.28942706780696309 0.31873813168532672 0 -0.2790455690922089 0.3243844570517187 0 -0.2851872012256097 0.31550597615259851 0 -0.2790455690922089 0.3243844570517187 0 -0.28942706780696309 0.31873813168532672 0 -0.2851872012256097 0.31550597615259851 0 -0.2790455690922089 0.3243844570517187 0 -0.28942706780696309 0.31873813168532672 0 -0.2851872012256097 0.31550597615259851 0 -0.27514776209796898 0.30785266251660498 0 -0.2851872012256097 0.31550597615259851 0 -0.27699557949655113 0.31645322234696882 0 -0.2851872012256097 0.31550597615259851 0 -0.27699557949655113 0.31645322234696882 0 -0.2790455690922089 0.3243844570517187 0 -0.27514776209796898 0.30785266251660498 0 -0.27699557949655113 0.31645322234696882 0 -0.27123720609067609 0.3158529302113221 0 -0.27001263578126711 0.32263717043347712 0 -0.2790455690922089 0.3243844570517187 0 -0.25910260253645218 0.33523110656146687 0 -0.26721257633701828 0.30790943684761429 0 -0.27123720609067609 0.3158529302113221 0 -0.26528599585519008 0.31471464054907522 0 -0.27699557949655113 0.31645322234696882 0 -0.27123720609067609 0.3158529302113221 0 -0.27001263578126711 0.32263717043347712 0 -0.27123720609067609 0.3158529302113221 0 -0.26528599585519008 0.31471464054907522 0 -0.26368222169044719 0.32126413599590953 0 -0.27123720609067609 0.3158529302113221 0 -0.27001263578126711 0.32263717043347712 0 -0.26368222169044719 0.32126413599590953 0 -0.27699557949655113 0.31645322234696882 0 -0.27001263578126711 0.32263717043347712 0 -0.2790455690922089 0.3243844570517187 0 -0.2790455690922089 0.3243844570517187 0 -0.25910260253645218 0.33523110656146687 0 -0.2790455690922089 0.3243844570517187 0 -0.26824012707650141 0.34000504592112352 0 -0.28146834572906437 0.33465123959114113 0 -0.2790455690922089 0.3243844570517187 0 -0.26824012707650141 0.34000504592112352 0 -0.2790455690922089 0.3243844570517187 0 -0.26824012707650141 0.34000504592112352 0 -0.25910260253645218 0.33523110656146687 0 -0.28146834572906437 0.33465123959114113 0 -0.26824012707650141 0.34000504592112352 0 -0.28224162025157051 0.34582573333151501 0 -0.25910260253645218 0.33523110656146687 0 -0.25407523553642281 0.3497448278934856 0 -0.23915963598069589 0.34607775607121571 0 -0.25910260253645218 0.33523110656146687 0 -0.25407523553642281 0.3497448278934856 0 -0.26309588156361569 0.34576168367824162 0 -0.26824012707650141 0.34000504592112352 0 -0.25910260253645218 0.33523110656146687 0 -0.26309588156361569 0.34576168367824162 0 -0.25910260253645218 0.33523110656146687 0 -0.25451497659773847 0.32559442806853028 0 -0.24843663428782739 0.33758714710907461 0 -0.25451497659773847 0.32559442806853028 0 -0.25901197930261888 0.31383205914145501 0 -0.24885494741763489 0.31718848033418301 0 -0.25451497659773847 0.32559442806853028 0 -0.25901197930261888 0.31383205914145501 0 -0.26368222169044719 0.32126413599590953 0 -0.25901197930261888 0.31383205914145501 0 -0.26528599585519008 0.31471464054907522 0 -0.26368222169044719 0.32126413599590953 0 -0.27001263578126711 0.32263717043347712 0 -0.25910260253645218 0.33523110656146687 0 -0.26368222169044719 0.32126413599590953 0 -0.25910260253645218 0.33523110656146687 0 -0.25451497659773847 0.32559442806853028 0 -0.26368222169044719 0.32126413599590953 0 -0.26470209097228098 0.37140351159401941 0 -0.25562758441007077 0.36194187249828802 0 -0.266880351992417 0.3582272519812631 0 -0.26470209097228098 0.37140351159401941 0 -0.25213085833087667 0.37355178257669552 0 -0.25562758441007077 0.36194187249828802 0 -0.25213085833087667 0.37355178257669552 0 -0.25562758441007077 0.36194187249828802 0 -0.24329038266145239 0.36134909741814653 0 -0.25562758441007077 0.36194187249828802 0 -0.25407523553642281 0.3497448278934856 0 -0.24329038266145239 0.36134909741814653 0 -0.25407523553642281 0.3497448278934856 0 -0.26309588156361569 0.34576168367824162 0 -0.266880351992417 0.3582272519812631 0 -0.25562758441007077 0.36194187249828802 0 -0.25407523553642281 0.3497448278934856 0 -0.266880351992417 0.3582272519812631 0 -0.266880351992417 0.3582272519812631 0 -0.27640009279511962 0.35155878343443242 0 -0.28837447244510311 0.36628710188532532 0 -0.26309588156361569 0.34576168367824162 0 -0.266880351992417 0.3582272519812631 0 -0.27640009279511962 0.35155878343443242 0 -0.26824012707650141 0.34000504592112352 0 -0.26309588156361569 0.34576168367824162 0 -0.27640009279511962 0.35155878343443242 0 -0.26824012707650141 0.34000504592112352 0 -0.27640009279511962 0.35155878343443242 0 -0.28224162025157051 0.34582573333151501 0 -0.266880351992417 0.3582272519812631 0 -0.28837447244510311 0.36628710188532532 0 -0.266880351992417 0.3582272519812631 0 -0.28837447244510311 0.36628710188532532 0 -0.27747916353329311 0.37529003384729942 0 -0.26470209097228098 0.37140351159401941 0 -0.266880351992417 0.3582272519812631 0 -0.27747916353329311 0.37529003384729942 0 -0.28837447244510311 0.36628710188532532 0 -0.28714059247178902 0.37543321948423419 0 -0.27747916353329311 0.37529003384729942 0 -0.28837447244510311 0.36628710188532532 0 -0.28956810344150979 0.35324588380912608 0 -0.30292150033679799 0.36018321991941088 0 -0.28837447244510311 0.36628710188532532 0 -0.29874239202075642 0.37528196759933868 0 -0.28714059247178902 0.37543321948423419 0 -0.28224162025157051 0.34582573333151501 0 -0.3017933608705089 0.344447887165377 0 -0.28224162025157051 0.34582573333151501 0 -0.28956810344150979 0.35324588380912608 0 -0.3017933608705089 0.344447887165377 0 -0.27640009279511962 0.35155878343443242 0 -0.28224162025157051 0.34582573333151501 0 -0.28956810344150979 0.35324588380912608 0 -0.27640009279511962 0.35155878343443242 0 -0.28837447244510311 0.36628710188532532 0 -0.28956810344150979 0.35324588380912608 0 -0.3017933608705089 0.344447887165377 0 -0.31193410579265052 0.3536039280541286 0 -0.30292150033679799 0.36018321991941088 0 -0.28956810344150979 0.35324588380912608 0 -0.3017933608705089 0.344447887165377 0 -0.30292150033679799 0.36018321991941088 0 -0.3017933608705089 0.344447887165377 0 -0.32134510148944728 0.34307004099923799 0 -0.3017933608705089 0.344447887165377 0 -0.31193410579265052 0.3536039280541286 0 -0.32134510148944728 0.34307004099923799 0 -0.31193410579265052 0.3536039280541286 0 -0.30292150033679799 0.36018321991941088 0 -0.31340485972314069 0.36375751913665871 0 -0.28837447244510311 0.36628710188532532 0 -0.30292150033679799 0.36018321991941088 0 -0.30986859289778912 0.37434695178938759 0 -0.28837447244510311 0.36628710188532532 0 -0.30986859289778912 0.37434695178938759 0 -0.28837447244510311 0.36628710188532532 0 -0.30986859289778912 0.37434695178938759 0 -0.29874239202075642 0.37528196759933868 0 -0.30292150033679799 0.36018321991941088 0 -0.30986859289778912 0.37434695178938759 0 -0.31340485972314069 0.36375751913665871 0 -0.30986859289778912 0.37434695178938759 0 -0.31340485972314069 0.36375751913665871 0 -0.32167824364597858 0.36970754211250728 0 -0.31340485972314069 0.36375751913665871 0 -0.32243327870136801 0.35950699838777223 0 -0.32167824364597858 0.36970754211250728 0 -0.32243327870136801 0.35950699838777223 0 -0.32167824364597858 0.36970754211250728 0 -0.33132177355711989 0.36851943955526861 0 -0.32167824364597858 0.36970754211250728 0 -0.33132177355711989 0.36851943955526861 0 -0.33136271335047512 0.38240680169344993 0 -0.32243327870136801 0.35950699838777223 0 -0.33132177355711989 0.36851943955526861 0 -0.33989838930305449 0.35721367281084643 0 -0.33132177355711989 0.36851943955526861 0 -0.34304766554360439 0.37232322735168022 0 -0.33136271335047512 0.38240680169344993 0 -0.33132177355711989 0.36851943955526861 0 -0.34304766554360439 0.37232322735168022 0 -0.33989838930305449 0.35721367281084643 0 -0.33989838930305449 0.35721367281084643 0 -0.32134510148944728 0.34307004099923799 0 -0.33989838930305449 0.35721367281084643 0 -0.32134510148944728 0.34307004099923799 0 -0.3500233487104954 0.34104903357308669 0 -0.32243327870136801 0.35950699838777223 0 -0.33989838930305449 0.35721367281084643 0 -0.32134510148944728 0.34307004099923799 0 -0.31193410579265052 0.3536039280541286 0 -0.32243327870136801 0.35950699838777223 0 -0.32134510148944728 0.34307004099923799 0 -0.31193410579265052 0.3536039280541286 0 -0.31340485972314069 0.36375751913665871 0 -0.32243327870136801 0.35950699838777223 0 -0.30538608464820588 0.33090408634228141 0 -0.32134510148944728 0.34307004099923799 0 -0.30538608464820588 0.33090408634228141 0 -0.32134510148944728 0.34307004099923799 0 -0.31811651498789978 0.32488887006413791 0 -0.32134510148944728 0.34307004099923799 0 -0.31811651498789978 0.32488887006413791 0 -0.33459812393413729 0.32207732583041709 0 -0.31699951866320542 0.30755322334125379 0 -0.30563014257680821 0.31779627416788381 0 -0.31811651498789978 0.32488887006413791 0 -0.31699951866320542 0.30755322334125379 0 -0.31811651498789978 0.32488887006413791 0 -0.33459812393413729 0.32207732583041709 0 -0.32134510148944728 0.34307004099923799 0 -0.34342889555096417 0.33131534648734451 0 -0.3500233487104954 0.34104903357308669 0 -0.32134510148944728 0.34307004099923799 0 -0.33459812393413729 0.32207732583041709 0 -0.34342889555096417 0.33131534648734451 0 -0.32134510148944728 0.34307004099923799 0 -0.3500233487104954 0.34104903357308669 0 -0.3500233487104954 0.34104903357308669 0 -0.35650114511620551 0.33294276438790088 0 -0.36794029410566942 0.33226259727897972 0 -0.34342889555096417 0.33131534648734451 0 -0.3500233487104954 0.34104903357308669 0 -0.35650114511620551 0.33294276438790088 0 -0.33459812393413729 0.32207732583041709 0 -0.34342889555096417 0.33131534648734451 0 -0.35467675850453528 0.31743756764607989 0 -0.34344143829887858 0.30736403781452232 0 -0.33459812393413729 0.32207732583041709 0 -0.35467675850453528 0.31743756764607989 0 -0.35650114511620551 0.33294276438790088 0 -0.35467675850453528 0.31743756764607989 0 -0.36272901898995358 0.31473918551029578 0 -0.34342889555096417 0.33131534648734451 0 -0.35650114511620551 0.33294276438790088 0 -0.35467675850453528 0.31743756764607989 0 -0.35650114511620551 0.33294276438790088 0 -0.36272901898995358 0.31473918551029578 0 -0.37415321332832258 0.31386652142517069 0 -0.35650114511620551 0.33294276438790088 0 -0.37415321332832258 0.31386652142517069 0 -0.35650114511620551 0.33294276438790088 0 -0.37442838800096029 0.32044424157556423 0 -0.37415321332832258 0.31386652142517069 0 -0.37816355277066899 0.32985684687273281 0 -0.37442838800096029 0.32044424157556423 0 -0.36794029410566942 0.33226259727897972 0 -0.3787015959315434 0.33902802614693439 0 -0.3500233487104954 0.34104903357308669 0 -0.36794029410566942 0.33226259727897972 0 -0.35650114511620551 0.33294276438790088 0 -0.37442838800096029 0.32044424157556423 0 -0.36794029410566942 0.33226259727897972 0 -0.3787015959315434 0.33902802614693439 0 -0.3500233487104954 0.34104903357308669 0 -0.3787015959315434 0.33902802614693439 0 -0.37816355277066899 0.32985684687273281 0 -0.36794029410566942 0.33226259727897972 0 -0.3787015959315434 0.33902802614693439 0 -0.3500233487104954 0.34104903357308669 0 -0.36501658974902518 0.35367198233662939 0 -0.37823932191431281 0.35548757599615399 0 -0.3787015959315434 0.33902802614693439 0 -0.36501658974902518 0.35367198233662939 0 -0.37823932191431281 0.35548757599615399 0 -0.36501658974902518 0.35367198233662939 0 -0.37024808467873749 0.36543132639488701 0 -0.36501658974902518 0.35367198233662939 0 -0.37024808467873749 0.36543132639488701 0 -0.35845167711666143 0.37135730462245548 0 -0.37949655700884349 0.37153259571527891 0 -0.37024808467873749 0.36543132639488701 0 -0.36758280318953013 0.37627165255961892 0 -0.37024808467873749 0.36543132639488701 0 -0.35845167711666143 0.37135730462245548 0 -0.36758280318953013 0.37627165255961892 0 -0.36501658974902518 0.35367198233662939 0 -0.35845167711666143 0.37135730462245548 0 -0.35334750121980912 0.35582299833575448 0 -0.34304766554360439 0.37232322735168022 0 -0.33989838930305449 0.35721367281084643 0 -0.35845167711666143 0.37135730462245548 0 -0.33989838930305449 0.35721367281084643 0 -0.35845167711666143 0.37135730462245548 0 -0.35334750121980912 0.35582299833575448 0 -0.33989838930305449 0.35721367281084643 0 -0.35845167711666143 0.37135730462245548 0 -0.33989838930305449 0.35721367281084643 0 -0.3500233487104954 0.34104903357308669 0 -0.35334750121980912 0.35582299833575448 0 -0.3500233487104954 0.34104903357308669 0 -0.36501658974902518 0.35367198233662939 0 -0.35334750121980912 0.35582299833575448 0 -0.35285683380316007 0.39046665159751448 0 -0.36027192889352422 0.40897543894708011 0 -0.34270265381785459 0.40768080501023862 0 -0.34304766554360439 0.37232322735168022 0 -0.35845167711666143 0.37135730462245548 0 -0.35285683380316007 0.39046665159751448 0 -0.37686086334024771 0.38257038446795849 0 -0.35285683380316007 0.39046665159751448 0 -0.37686086334024771 0.38257038446795849 0 -0.35285683380316007 0.39046665159751448 0 -0.36758280318953013 0.37627165255961892 0 -0.35845167711666143 0.37135730462245548 0 -0.35285683380316007 0.39046665159751448 0 -0.36758280318953013 0.37627165255961892 0 -0.37686086334024771 0.38257038446795849 0 -0.37949655700884349 0.37153259571527891 0 -0.36758280318953013 0.37627165255961892 0 -0.37769092578324193 0.39977892163450779 0 -0.35285683380316007 0.39046665159751448 0 -0.37769092578324193 0.39977892163450779 0 -0.37686086334024771 0.38257038446795849 0 -0.35285683380316007 0.39046665159751448 0 -0.37769092578324193 0.39977892163450779 0 -0.35285683380316007 0.39046665159751448 0 -0.36027192889352422 0.40897543894708011 0 -0.37875820238401509 0.42613984176471847 0 -0.37769092578324193 0.39977892163450779 0 -0.36027192889352422 0.40897543894708011 0 -0.37875820238401509 0.42613984176471847 0 -0.36027192889352422 0.40897543894708011 0 -0.36048507512927641 0.42545129427310208 0 -0.37875820238401509 0.42613984176471847 0 -0.36048507512927641 0.42545129427310208 0 -0.35499138700470761 0.44318849185793469 0 -0.37875820238401509 0.42613984176471847 0 -0.35499138700470761 0.44318849185793469 0 -0.34691622899781399 0.42161541908905831 0 -0.33223168701086447 0.43660936806356893 0 -0.35499138700470761 0.44318849185793469 0 -0.36048507512927641 0.42545129427310208 0 -0.34691622899781399 0.42161541908905831 0 -0.35499138700470761 0.44318849185793469 0 -0.36027192889352422 0.40897543894708011 0 -0.34691622899781399 0.42161541908905831 0 -0.34270265381785459 0.40768080501023862 0 -0.36027192889352422 0.40897543894708011 0 -0.36048507512927641 0.42545129427310208 0 -0.34691622899781399 0.42161541908905831 0 -0.34270265381785459 0.40768080501023862 0 -0.32841174735063311 0.41773478988879181 0 -0.32505653004414181 0.39961172552874852 0 -0.34691622899781399 0.42161541908905831 0 -0.34270265381785459 0.40768080501023862 0 -0.32841174735063311 0.41773478988879181 0 -0.34691622899781399 0.42161541908905831 0 -0.32841174735063311 0.41773478988879181 0 -0.33223168701086447 0.43660936806356893 0 -0.32841174735063311 0.41773478988879181 0 -0.33223168701086447 0.43660936806356893 0 -0.31148998866141242 0.43181261152586448 0 -0.32841174735063311 0.41773478988879181 0 -0.31441363705571701 0.41408607272300291 0 -0.32505653004414181 0.39961172552874852 0 -0.32841174735063311 0.41773478988879181 0 -0.31441363705571701 0.41408607272300291 0 -0.31148998866141242 0.43181261152586448 0 -0.32505653004414181 0.39961172552874852 0 -0.31219235154091651 0.39185403334122892 0 -0.30619500853749271 0.39725637532293351 0 -0.32505653004414181 0.39961172552874852 0 -0.31778050989885959 0.38527433798844479 0 -0.31219235154091651 0.39185403334122892 0 -0.35285683380316007 0.39046665159751448 0 -0.32505653004414181 0.39961172552874852 0 -0.33136271335047512 0.38240680169344993 0 -0.35285683380316007 0.39046665159751448 0 -0.34270265381785459 0.40768080501023862 0 -0.32505653004414181 0.39961172552874852 0 -0.35285683380316007 0.39046665159751448 0 -0.32505653004414181 0.39961172552874852 0 -0.35285683380316007 0.39046665159751448 0 -0.33136271335047512 0.38240680169344993 0 -0.34304766554360439 0.37232322735168022 0 -0.35285683380316007 0.39046665159751448 0 -0.33136271335047512 0.38240680169344993 0 -0.30986859289778912 0.37434695178938759 0 -0.32167824364597858 0.36970754211250728 0 -0.33136271335047512 0.38240680169344993 0 -0.30986859289778912 0.37434695178938759 0 -0.33136271335047512 0.38240680169344993 0 -0.32505653004414181 0.39961172552874852 0 -0.33136271335047512 0.38240680169344993 0 -0.31778050989885959 0.38527433798844479 0 -0.30986859289778912 0.37434695178938759 0 -0.33136271335047512 0.38240680169344993 0 -0.31778050989885959 0.38527433798844479 0 -0.30986859289778912 0.37434695178938759 0 -0.31778050989885959 0.38527433798844479 0 -0.30574515252343709 0.38648905476423068 0 -0.30986859289778912 0.37434695178938759 0 -0.30574515252343709 0.38648905476423068 0 -0.29874239202075642 0.37528196759933868 0 -0.30574515252343709 0.38648905476423068 0 -0.29874239202075642 0.37528196759933868 0 -0.29146244090030071 0.40289140707507309 0 -0.31778050989885959 0.38527433798844479 0 -0.30574515252343709 0.38648905476423068 0 -0.31219235154091651 0.39185403334122892 0 -0.32505653004414181 0.39961172552874852 0 -0.30619500853749271 0.39725637532293351 0 -0.29725622628512233 0.40875679945997928 0 -0.32505653004414181 0.39961172552874852 0 -0.29725622628512233 0.40875679945997928 0 -0.30574515252343709 0.38648905476423068 0 -0.30619500853749271 0.39725637532293351 0 -0.29146244090030071 0.40289140707507309 0 -0.30574515252343709 0.38648905476423068 0 -0.31219235154091651 0.39185403334122892 0 -0.30619500853749271 0.39725637532293351 0 -0.30619500853749271 0.39725637532293351 0 -0.29146244090030071 0.40289140707507309 0 -0.29725622628512233 0.40875679945997928 0 -0.29146244090030071 0.40289140707507309 0 -0.2882496590958894 0.39023794275143442 0 -0.278827461574497 0.39790462172635238 0 -0.28396634188800352 0.38487377460497352 0 -0.2882496590958894 0.39023794275143442 0 -0.278827461574497 0.39790462172635238 0 -0.29146244090030071 0.40289140707507309 0 -0.278827461574497 0.39790462172635238 0 -0.27940045790464241 0.41220012044695847 0 -0.29874239202075642 0.37528196759933868 0 -0.29146244090030071 0.40289140707507309 0 -0.29874239202075642 0.37528196759933868 0 -0.29146244090030071 0.40289140707507309 0 -0.2882496590958894 0.39023794275143442 0 -0.29874239202075642 0.37528196759933868 0 -0.28396634188800352 0.38487377460497352 0 -0.28714059247178902 0.37543321948423419 0 -0.29874239202075642 0.37528196759933868 0 -0.28396634188800352 0.38487377460497352 0 -0.2882496590958894 0.39023794275143442 0 -0.28396634188800352 0.38487377460497352 0 -0.28714059247178902 0.37543321948423419 0 -0.27747916353329311 0.37529003384729942 0 -0.28396634188800352 0.38487377460497352 0 -0.27747916353329311 0.37529003384729942 0 -0.26775424033426293 0.38456849691175748 0 -0.28396634188800352 0.38487377460497352 0 -0.26775424033426293 0.38456849691175748 0 -0.278827461574497 0.39790462172635238 0 -0.26470209097228098 0.37140351159401941 0 -0.27747916353329311 0.37529003384729942 0 -0.26775424033426293 0.38456849691175748 0 -0.278827461574497 0.39790462172635238 0 -0.26298604578065232 0.3973558675440883 0 -0.2677584473194361 0.40899541659639099 0 -0.26775424033426293 0.38456849691175748 0 -0.278827461574497 0.39790462172635238 0 -0.26298604578065232 0.3973558675440883 0 -0.26298604578065232 0.3973558675440883 0 -0.25152819264859128 0.38883491631829081 0 -0.2490618870264745 0.40647588616764979 0 -0.26298604578065232 0.3973558675440883 0 -0.2677584473194361 0.40899541659639099 0 -0.2490618870264745 0.40647588616764979 0 -0.25213085833087667 0.37355178257669552 0 -0.26775424033426293 0.38456849691175748 0 -0.25152819264859128 0.38883491631829081 0 -0.26775424033426293 0.38456849691175748 0 -0.26298604578065232 0.3973558675440883 0 -0.25152819264859128 0.38883491631829081 0 -0.26470209097228098 0.37140351159401941 0 -0.25213085833087667 0.37355178257669552 0 -0.26775424033426293 0.38456849691175748 0 -0.2572482915111563 0.42152384209731297 0 -0.26330490497154813 0.43976041958731371 0 -0.24092688658692171 0.43286849171069308 0 -0.2572482915111563 0.42152384209731297 0 -0.27163392734069919 0.42205675226444578 0 -0.26330490497154813 0.43976041958731371 0 -0.2572482915111563 0.42152384209731297 0 -0.2677584473194361 0.40899541659639099 0 -0.2490618870264745 0.40647588616764979 0 -0.2572482915111563 0.42152384209731297 0 -0.2677584473194361 0.40899541659639099 0 -0.27163392734069919 0.42205675226444578 0 -0.27940045790464241 0.41220012044695847 0 -0.27163392734069919 0.42205675226444578 0 -0.28418248977984512 0.43050084655080739 0 -0.2677584473194361 0.40899541659639099 0 -0.27940045790464241 0.41220012044695847 0 -0.27163392734069919 0.42205675226444578 0 -0.278827461574497 0.39790462172635238 0 -0.2677584473194361 0.40899541659639099 0 -0.27940045790464241 0.41220012044695847 0 -0.27163392734069919 0.42205675226444578 0 -0.28418248977984512 0.43050084655080739 0 -0.26330490497154813 0.43976041958731371 0 -0.28418248977984512 0.43050084655080739 0 -0.29943060469912958 0.42576946359573847 0 -0.28981068171355151 0.44369098771903792 0 -0.29146244090030071 0.40289140707507309 0 -0.28418248977984512 0.43050084655080739 0 -0.29146244090030071 0.40289140707507309 0 -0.27940045790464241 0.41220012044695847 0 -0.28418248977984512 0.43050084655080739 0 -0.28418248977984512 0.43050084655080739 0 -0.29725622628512233 0.40875679945997928 0 -0.29943060469912958 0.42576946359573847 0 -0.29146244090030071 0.40289140707507309 0 -0.28418248977984512 0.43050084655080739 0 -0.29725622628512233 0.40875679945997928 0 -0.31441363705571701 0.41408607272300291 0 -0.32505653004414181 0.39961172552874852 0 -0.29725622628512233 0.40875679945997928 0 -0.31441363705571701 0.41408607272300291 0 -0.29725622628512233 0.40875679945997928 0 -0.29943060469912958 0.42576946359573847 0 -0.31441363705571701 0.41408607272300291 0 -0.29943060469912958 0.42576946359573847 0 -0.31148998866141242 0.43181261152586448 0 -0.29943060469912958 0.42576946359573847 0 -0.31148998866141242 0.43181261152586448 0 -0.28981068171355151 0.44369098771903792 0 -0.31148998866141242 0.43181261152586448 0 -0.30120616623050861 0.45239726712555162 0 -0.31718999816658727 0.45065056632578487 0 -0.31148998866141242 0.43181261152586448 0 -0.30120616623050861 0.45239726712555162 0 -0.31148998866141242 0.43181261152586448 0 -0.30120616623050861 0.45239726712555162 0 -0.28981068171355151 0.44369098771903792 0 -0.30120616623050861 0.45239726712555162 0 -0.29092234379960469 0.47298192272523881 0 -0.30745775624609217 0.47728579204436761 0 -0.30120616623050861 0.45239726712555162 0 -0.30745775624609217 0.47728579204436761 0 -0.31718999816658727 0.45065056632578487 0 -0.2852957606144535 0.45730244818253718 0 -0.28186649269177161 0.46567885888970018 0 -0.29092234379960469 0.47298192272523881 0 -0.30120616623050861 0.45239726712555162 0 -0.29092234379960469 0.47298192272523881 0 -0.30120616623050861 0.45239726712555162 0 -0.2852957606144535 0.45730244818253718 0 -0.29092234379960469 0.47298192272523881 0 -0.2852957606144535 0.45730244818253718 0 -0.28186649269177161 0.46567885888970018 0 -0.27690253865938408 0.45811028602654041 0 -0.28418248977984512 0.43050084655080739 0 -0.28981068171355151 0.44369098771903792 0 -0.27690253865938408 0.45811028602654041 0 -0.30120616623050861 0.45239726712555162 0 -0.2852957606144535 0.45730244818253718 0 -0.28981068171355151 0.44369098771903792 0 -0.2852957606144535 0.45730244818253718 0 -0.28981068171355151 0.44369098771903792 0 -0.27690253865938408 0.45811028602654041 0 -0.28418248977984512 0.43050084655080739 0 -0.27690253865938408 0.45811028602654041 0 -0.28418248977984512 0.43050084655080739 0 -0.27690253865938408 0.45811028602654041 0 -0.26330490497154813 0.43976041958731371 0 -0.2852957606144535 0.45730244818253718 0 -0.27690253865938408 0.45811028602654041 0 -0.28186649269177161 0.46567885888970018 0 -0.27690253865938408 0.45811028602654041 0 -0.27835780074514338 0.47366975871288508 0 -0.27690253865938408 0.45811028602654041 0 -0.25345677561811758 0.46036691342989022 0 -0.27690253865938408 0.45811028602654041 0 -0.25345677561811758 0.46036691342989022 0 -0.26590293397843329 0.47057525233348851 0 -0.25345677561811758 0.46036691342989022 0 -0.25315469521642581 0.4750486889203015 0 -0.26590293397843329 0.47057525233348851 0 -0.25345677561811758 0.46036691342989022 0 -0.26330490497154813 0.43976041958731371 0 -0.24129970279445639 0.44943490890582899 0 -0.27690253865938408 0.45811028602654041 0 -0.25345677561811758 0.46036691342989022 0 -0.26330490497154813 0.43976041958731371 0 -0.26169037092037989 0.4910190989046625 0 -0.25397816739109252 0.5 0 -0.27113802145370669 0.49283981386083792 0 -0.26169037092037989 0.4910190989046625 0 -0.25474868654415728 0.48692894813519849 0 -0.26689660829256312 0.48430763362261348 0 -0.26169037092037989 0.4910190989046625 0 -0.25397816739109252 0.5 0 -0.25474868654415728 0.48692894813519849 0 -0.25315469521642581 0.4750486889203015 0 -0.26689660829256312 0.48430763362261348 0 -0.25315469521642581 0.4750486889203015 0 -0.26689660829256312 0.48430763362261348 0 -0.26590293397843329 0.47057525233348851 0 -0.25474868654415728 0.48692894813519849 0 -0.25315469521642581 0.4750486889203015 0 -0.26689660829256312 0.48430763362261348 0 -0.27690253865938408 0.45811028602654041 0 -0.26590293397843329 0.47057525233348851 0 -0.26946370716205509 0.4860372782758946 0 -0.27690253865938408 0.45811028602654041 0 -0.26946370716205509 0.4860372782758946 0 -0.27690253865938408 0.45811028602654041 0 -0.27835780074514338 0.47366975871288508 0 -0.26946370716205509 0.4860372782758946 0 -0.26689660829256312 0.48430763362261348 0 -0.26590293397843329 0.47057525233348851 0 -0.26946370716205509 0.4860372782758946 0 -0.28186649269177161 0.46567885888970018 0 -0.27835780074514338 0.47366975871288508 0 -0.28298297564177088 0.4743823417855309 0 -0.27835780074514338 0.47366975871288508 0 -0.2798907507987049 0.48286402398659151 0 -0.28298297564177088 0.4743823417855309 0 -0.27835780074514338 0.47366975871288508 0 -0.2798907507987049 0.48286402398659151 0 -0.26946370716205509 0.4860372782758946 0 -0.26946370716205509 0.4860372782758946 0 -0.28063852136870049 0.49356657832492562 0 -0.26946370716205509 0.4860372782758946 0 -0.27113802145370669 0.49283981386083792 0 -0.28063852136870049 0.49356657832492562 0 -0.2798907507987049 0.48286402398659151 0 -0.26946370716205509 0.4860372782758946 0 -0.28063852136870049 0.49356657832492562 0 -0.25397816739109252 0.5 0 -0.27113802145370669 0.49283981386083792 0 -0.27742446875513049 0.50000000000000155 0 -0.26689660829256312 0.48430763362261348 0 -0.26946370716205509 0.4860372782758946 0 -0.27113802145370669 0.49283981386083792 0 -0.26169037092037989 0.4910190989046625 0 -0.26689660829256312 0.48430763362261348 0 -0.27113802145370669 0.49283981386083792 0 -0.26689660829256312 0.48430763362261348 0 -0.26946370716205509 0.4860372782758946 0 -0.27113802145370669 0.49283981386083792 0 -0.28063852136870049 0.49356657832492562 0 -0.27742446875513049 0.50000000000000155 0 -0.28063852136870049 0.49356657832492562 0 -0.27742446875513049 0.50000000000000155 0 -0.28063852136870049 0.49356657832492562 0 -0.27742446875513049 0.50000000000000155 0 -0.29018685806186229 0.50000000000000122 0 -0.28063852136870049 0.49356657832492562 0 -0.29018685806186229 0.50000000000000122 0 -0.29092234379960469 0.47298192272523881 0 -0.28063852136870049 0.49356657832492562 0 -0.29018685806186229 0.50000000000000122 0 -0.29018685806186229 0.50000000000000122 0 -0.29092234379960469 0.47298192272523881 0 -0.30745775624609217 0.47728579204436761 0 -0.28063852136870049 0.49356657832492562 0 -0.29092234379960469 0.47298192272523881 0 -0.2798907507987049 0.48286402398659151 0 -0.28063852136870049 0.49356657832492562 0 -0.29092234379960469 0.47298192272523881 0 -0.28186649269177161 0.46567885888970018 0 -0.28298297564177088 0.4743823417855309 0 -0.29092234379960469 0.47298192272523881 0 -0.2798907507987049 0.48286402398659151 0 -0.28298297564177088 0.4743823417855309 0 -0.29092234379960469 0.47298192272523881 0 -0.29018685806186229 0.50000000000000122 0 -0.30745775624609217 0.47728579204436761 0 -0.3640375775585698 0.5 0 -0.30745775624609217 0.47728579204436761 0 -0.33122457162539992 0.46023714195115112 0 -0.3640375775585698 0.5 0 -0.30745775624609217 0.47728579204436761 0 -0.33122457162539992 0.46023714195115112 0 -0.30745775624609217 0.47728579204436761 0 -0.31718999816658727 0.45065056632578487 0 -0.33122457162539992 0.46023714195115112 0 -0.33223168701086447 0.43660936806356893 0 -0.31148998866141242 0.43181261152586448 0 -0.31718999816658727 0.45065056632578487 0 -0.33223168701086447 0.43660936806356893 0 -0.31718999816658727 0.45065056632578487 0 -0.33122457162539992 0.46023714195115112 0 -0.33122457162539992 0.46023714195115112 0 -0.35499138700470761 0.44318849185793469 0 -0.33223168701086447 0.43660936806356893 0 -0.33122457162539992 0.46023714195115112 0 -0.35499138700470761 0.44318849185793469 0 -0.33122457162539992 0.46023714195115112 0 -0.35376164566254242 0.46494380824906301 0 -0.35499138700470761 0.44318849185793469 0 -0.38249991962136642 0.44345487931465249 0 -0.35499138700470761 0.44318849185793469 0 -0.37103467036260362 0.45695891695805302 0 -0.38249991962136642 0.44345487931465249 0 -0.37875820238401509 0.42613984176471847 0 -0.35499138700470761 0.44318849185793469 0 -0.35376164566254242 0.46494380824906301 0 -0.35499138700470761 0.44318849185793469 0 -0.37103467036260362 0.45695891695805302 0 -0.35376164566254242 0.46494380824906301 0 -0.37103467036260362 0.45695891695805302 0 -0.36943712044780219 0.47475959506207249 0 -0.33122457162539992 0.46023714195115112 0 -0.35376164566254242 0.46494380824906301 0 -0.3640375775585698 0.5 0 -0.38891458820749281 0.47713565504117422 0 -0.36943712044780219 0.47475959506207249 0 -0.3640375775585698 0.5 0 -0.35376164566254242 0.46494380824906301 0 -0.36943712044780219 0.47475959506207249 0 -0.3640375775585698 0.5 0 -0.1410608215807003 0.47118489318428192 0 -0.1506389915883973 0.47451242435581331 0 -0.15779819732271971 0.4695739402503486 0 -0.1410608215807003 0.47118489318428192 0 -0.15779819732271971 0.4695739402503486 0 -0.1455325599989582 0.47665965757352818 0 -0.14983465253105441 0.48099067897208148 0 -0.1405957742956809 0.47995063378193648 0 -0.14983465253105441 0.48099067897208148 0 -0.14427471349546869 0.48965289008050411 0 -0.1405957742956809 0.47995063378193648 0 -0.1455325599989582 0.47665965757352818 0 -0.1410608215807003 0.47118489318428192 0 -0.1506389915883973 0.47451242435581331 0 -0.1455325599989582 0.47665965757352818 0 -0.1410608215807003 0.47118489318428192 0 -0.1405957742956809 0.47995063378193648 0 -0.1506389915883973 0.47451242435581331 0 -0.15682389603308189 0.47748605108520858 0 -0.15779819732271971 0.4695739402503486 0 -0.1506389915883973 0.47451242435581331 0 -0.14983465253105441 0.48099067897208148 0 -0.15682389603308189 0.47748605108520858 0 -0.1455325599989582 0.47665965757352818 0 -0.1506389915883973 0.47451242435581331 0 -0.14983465253105441 0.48099067897208148 0 -0.14983465253105441 0.48099067897208148 0 -0.1558122254133027 0.48316327461493752 0 -0.15682389603308189 0.47748605108520858 0 -0.14983465253105441 0.48099067897208148 0 -0.1558122254133027 0.48316327461493752 0 -0.15140604362779489 0.486968875654338 0 -0.1558122254133027 0.48316327461493752 0 -0.15140604362779489 0.486968875654338 0 -0.15545271364459581 0.49281799385228547 0 -0.14983465253105441 0.48099067897208148 0 -0.15140604362779489 0.486968875654338 0 -0.14427471349546869 0.48965289008050411 0 -0.15140604362779489 0.486968875654338 0 -0.15545271364459581 0.49281799385228547 0 -0.14427471349546869 0.48965289008050411 0 -0.15453849507163009 0.5 0 -0.14427471349546869 0.48965289008050411 0 -0.12543772684428189 0.5 0 -0.15453849507163009 0.5 0 -0.15545271364459581 0.49281799385228547 0 -0.14427471349546869 0.48965289008050411 0 -0.14427471349546869 0.48965289008050411 0 -0.12543772684428189 0.5 0 -0.13178312884530541 0.48627570230508688 0 -0.14427471349546869 0.48965289008050411 0 -0.13178312884530541 0.48627570230508688 0 -0.1405957742956809 0.47995063378193648 0 -0.13178312884530541 0.48627570230508688 0 -0.1317912103042716 0.47600940211286807 0 -0.11642361318749669 0.48420448820259387 0 -0.1317912103042716 0.47600940211286807 0 -0.14083201439797821 0.46516349611765162 0 -0.12052644250191399 0.4682622397032008 0 -0.13178312884530541 0.48627570230508688 0 -0.1405957742956809 0.47995063378193648 0 -0.1317912103042716 0.47600940211286807 0 -0.1410608215807003 0.47118489318428192 0 -0.1405957742956809 0.47995063378193648 0 -0.1317912103042716 0.47600940211286807 0 -0.1410608215807003 0.47118489318428192 0 -0.1317912103042716 0.47600940211286807 0 -0.14083201439797821 0.46516349611765162 0 -0.12618187852634369 0.45882241462805679 0 -0.14083201439797821 0.46516349611765162 0 -0.12052644250191399 0.4682622397032008 0 -0.14083201439797821 0.46516349611765162 0 -0.12052644250191399 0.4682622397032008 0 -0.12618187852634369 0.45882241462805679 0 -0.13621980461969219 0.45775649261309698 0 -0.13482926781972801 0.45201676164804122 0 -0.13621980461969219 0.45775649261309698 0 -0.13482926781972801 0.45201676164804122 0 -0.1430360577347192 0.45502329805863873 0 -0.13621980461969219 0.45775649261309698 0 -0.14083201439797821 0.46516349611765162 0 -0.1430360577347192 0.45502329805863873 0 -0.12618187852634369 0.45882241462805679 0 -0.13621980461969219 0.45775649261309698 0 -0.14083201439797821 0.46516349611765162 0 -0.12618187852634369 0.45882241462805679 0 -0.13482926781972801 0.45201676164804122 0 -0.1248743097581413 0.44162978393037222 0 -0.13482926781972801 0.45201676164804122 0 -0.13973201497409549 0.44099892737807922 0 -0.1415241139788854 0.4488412036993919 0 -0.13482926781972801 0.45201676164804122 0 -0.1415241139788854 0.4488412036993919 0 -0.1430360577347192 0.45502329805863873 0 -0.13973201497409549 0.44099892737807922 0 -0.13491063247587859 0.43073185275000708 0 -0.1248743097581413 0.44162978393037222 0 -0.13482926781972801 0.45201676164804122 0 -0.13973201497409549 0.44099892737807922 0 -0.1248743097581413 0.44162978393037222 0 -0.13973201497409549 0.44099892737807922 0 -0.14849911538699881 0.44732582771280882 0 -0.14949031039727409 0.43903968606904947 0 -0.14849911538699881 0.44732582771280882 0 -0.1430360577347192 0.45502329805863873 0 -0.15230793746503779 0.45507497120342549 0 -0.13973201497409549 0.44099892737807922 0 -0.1415241139788854 0.4488412036993919 0 -0.14849911538699881 0.44732582771280882 0 -0.1415241139788854 0.4488412036993919 0 -0.14849911538699881 0.44732582771280882 0 -0.1430360577347192 0.45502329805863873 0 -0.14849911538699881 0.44732582771280882 0 -0.15230793746503779 0.45507497120342549 0 -0.15767924869329919 0.44641741059368378 0 -0.14949031039727409 0.43903968606904947 0 -0.15767924869329919 0.44641741059368378 0 -0.15912083936695831 0.4347249498771325 0 -0.14849911538699881 0.44732582771280882 0 -0.14949031039727409 0.43903968606904947 0 -0.15767924869329919 0.44641741059368378 0 -0.14083201439797821 0.46516349611765162 0 -0.16113758629404229 0.46206475253210239 0 -0.15779819732271971 0.4695739402503486 0 -0.1410608215807003 0.47118489318428192 0 -0.14083201439797821 0.46516349611765162 0 -0.15779819732271971 0.4695739402503486 0 -0.14083201439797821 0.46516349611765162 0 -0.16113758629404229 0.46206475253210239 0 -0.14083201439797821 0.46516349611765162 0 -0.15230793746503779 0.45507497120342549 0 -0.16113758629404229 0.46206475253210239 0 -0.14083201439797821 0.46516349611765162 0 -0.1430360577347192 0.45502329805863873 0 -0.15230793746503779 0.45507497120342549 0 -0.16113758629404229 0.46206475253210239 0 -0.16940388650370539 0.44815354093755089 0 -0.18144315819010631 0.45896600894655282 0 -0.16113758629404229 0.46206475253210239 0 -0.18144315819010631 0.45896600894655282 0 -0.16113758629404229 0.46206475253210239 0 -0.17453557306473899 0.46796298731641428 0 -0.15779819732271971 0.4695739402503486 0 -0.15230793746503779 0.45507497120342549 0 -0.16113758629404229 0.46206475253210239 0 -0.16013216473902109 0.45292766881669072 0 -0.16113758629404229 0.46206475253210239 0 -0.16013216473902109 0.45292766881669072 0 -0.16940388650370539 0.44815354093755089 0 -0.15767924869329919 0.44641741059368378 0 -0.16940388650370539 0.44815354093755089 0 -0.15912083936695831 0.4347249498771325 0 -0.15230793746503779 0.45507497120342549 0 -0.16013216473902109 0.45292766881669072 0 -0.15767924869329919 0.44641741059368378 0 -0.16013216473902109 0.45292766881669072 0 -0.15767924869329919 0.44641741059368378 0 -0.16940388650370539 0.44815354093755089 0 -0.1829590266345629 0.45699162349075462 0 -0.18255950863604661 0.43173185523385532 0 -0.1829590266345629 0.45699162349075462 0 -0.19557533522393281 0.44055915781337712 0 -0.18255950863604661 0.43173185523385532 0 -0.16940388650370539 0.44815354093755089 0 -0.1829590266345629 0.45699162349075462 0 -0.18255950863604661 0.43173185523385532 0 -0.16113758629404229 0.46206475253210239 0 -0.17453557306473899 0.46796298731641428 0 -0.18144315819010631 0.45896600894655282 0 -0.17453557306473899 0.46796298731641428 0 -0.18144315819010631 0.45896600894655282 0 -0.17453557306473899 0.46796298731641428 0 -0.18311948649431831 0.46713679563994498 0 -0.16940388650370539 0.44815354093755089 0 -0.18144315819010631 0.45896600894655282 0 -0.1829590266345629 0.45699162349075462 0 -0.18144315819010631 0.45896600894655282 0 -0.1829590266345629 0.45699162349075462 0 -0.18144315819010631 0.45896600894655282 0 -0.1829865290739871 0.45873048193697258 0 -0.1829590266345629 0.45699162349075462 0 -0.18144315819010631 0.45896600894655282 0 -0.1829865290739871 0.45873048193697258 0 -0.1829865290739871 0.45873048193697258 0 -0.1829590266345629 0.45699162349075462 0 -0.17453557306473899 0.46796298731641428 0 -0.18144315819010631 0.45896600894655282 0 -0.18311948649431831 0.46713679563994498 0 -0.1829865290739871 0.45873048193697258 0 -0.18311948649431831 0.46713679563994498 0 -0.18144315819010631 0.45896600894655282 0 -0.1829865290739871 0.45873048193697258 0 -0.18311948649431831 0.46713679563994498 0 -0.18311948649431831 0.46713679563994498 0 -0.18337937489664821 0.48356839781997168 0 -0.19511197543601369 0.47606725323690458 0 -0.18311948649431831 0.46713679563994498 0 -0.18337937489664821 0.48356839781997168 0 -0.18311948649431831 0.46713679563994498 0 -0.18337937489664821 0.48356839781997168 0 -0.17485937494801759 0.47808814193434568 0 -0.17453557306473899 0.46796298731641428 0 -0.18311948649431831 0.46713679563994498 0 -0.17485937494801759 0.47808814193434568 0 -0.17453557306473899 0.46796298731641428 0 -0.15779819732271971 0.4695739402503486 0 -0.17453557306473899 0.46796298731641428 0 -0.16499414335466689 0.48039049058434952 0 -0.17453557306473899 0.46796298731641428 0 -0.16499414335466689 0.48039049058434952 0 -0.15779819732271971 0.4695739402503486 0 -0.17453557306473899 0.46796298731641428 0 -0.17485937494801759 0.47808814193434568 0 -0.16499414335466689 0.48039049058434952 0 -0.17485937494801759 0.47808814193434568 0 -0.16499414335466689 0.48039049058434952 0 -0.1699453859209171 0.49288017845899518 0 -0.1558122254133027 0.48316327461493752 0 -0.16499414335466689 0.48039049058434952 0 -0.15682389603308189 0.47748605108520858 0 -0.16499414335466689 0.48039049058434952 0 -0.15682389603308189 0.47748605108520858 0 -0.15779819732271971 0.4695739402503486 0 -0.15453849507163009 0.5 0 -0.1699453859209171 0.49288017845899518 0 -0.18363926329897839 0.49999999999999828 0 -0.15453849507163009 0.5 0 -0.15545271364459581 0.49281799385228547 0 -0.1699453859209171 0.49288017845899518 0 -0.15545271364459581 0.49281799385228547 0 -0.16499414335466689 0.48039049058434952 0 -0.1699453859209171 0.49288017845899518 0 -0.15545271364459581 0.49281799385228547 0 -0.16499414335466689 0.48039049058434952 0 -0.1558122254133027 0.48316327461493752 0 -0.15545271364459581 0.49281799385228547 0 -0.16499414335466689 0.48039049058434952 0 -0.18337937489664821 0.48356839781997168 0 -0.18363926329897839 0.49999999999999828 0 -0.18337937489664821 0.48356839781997168 0 -0.1699453859209171 0.49288017845899518 0 -0.18363926329897839 0.49999999999999828 0 -0.18337937489664821 0.48356839781997168 0 -0.17485937494801759 0.47808814193434568 0 -0.1699453859209171 0.49288017845899518 0 -0.18337937489664821 0.48356839781997168 0 -0.18363926329897839 0.49999999999999828 0 -0.19848883175809501 0.48685236178056529 0 -0.18363926329897839 0.49999999999999828 0 -0.19848883175809501 0.48685236178056529 0 -0.20708556466301639 0.5 0 -0.18311948649431831 0.46713679563994498 0 -0.19511197543601369 0.47606725323690458 0 -0.20656524953558469 0.46488016823659339 0 -0.18337937489664821 0.48356839781997168 0 -0.19848883175809501 0.48685236178056529 0 -0.19511197543601369 0.47606725323690458 0 -0.19848883175809501 0.48685236178056529 0 -0.19511197543601369 0.47606725323690458 0 -0.206747867840962 0.47700509082497228 0 -0.19511197543601369 0.47606725323690458 0 -0.206747867840962 0.47700509082497228 0 -0.20656524953558469 0.46488016823659339 0 -0.19848883175809501 0.48685236178056529 0 -0.206747867840962 0.47700509082497228 0 -0.21585796601610141 0.48648558657266339 0 -0.206747867840962 0.47700509082497228 0 -0.21852396914967101 0.47285401242330122 0 -0.20656524953558469 0.46488016823659339 0 -0.206747867840962 0.47700509082497228 0 -0.21852396914967101 0.47285401242330122 0 -0.21585796601610141 0.48648558657266339 0 -0.20708556466301639 0.5 0 -0.21585796601610141 0.48648558657266339 0 -0.23053186602705439 0.5 0 -0.19848883175809501 0.48685236178056529 0 -0.20708556466301639 0.5 0 -0.21585796601610141 0.48648558657266339 0 -0.21585796601610141 0.48648558657266339 0 -0.23053186602705439 0.5 0 -0.2373192826940049 0.48342253064983348 0 -0.21852396914967101 0.47285401242330122 0 -0.2373192826940049 0.48342253064983348 0 -0.23001101257685119 0.46262354083324181 0 -0.21852396914967101 0.47285401242330122 0 -0.21585796601610141 0.48648558657266339 0 -0.2373192826940049 0.48342253064983348 0 -0.25474868654415728 0.48692894813519849 0 -0.25315469521642581 0.4750486889203015 0 -0.2373192826940049 0.48342253064983348 0 -0.25315469521642581 0.4750486889203015 0 -0.2373192826940049 0.48342253064983348 0 -0.23001101257685119 0.46262354083324181 0 -0.25397816739109252 0.5 0 -0.23053186602705439 0.5 0 -0.2373192826940049 0.48342253064983348 0 -0.25397816739109252 0.5 0 -0.25474868654415728 0.48692894813519849 0 -0.2373192826940049 0.48342253064983348 0 -0.26330490497154813 0.43976041958731371 0 -0.24129970279445639 0.44943490890582899 0 -0.24092688658692171 0.43286849171069308 0 -0.24129970279445639 0.44943490890582899 0 -0.2242493546558077 0.44235471361969553 0 -0.24092688658692171 0.43286849171069308 0 -0.25345677561811758 0.46036691342989022 0 -0.23001101257685119 0.46262354083324181 0 -0.25345677561811758 0.46036691342989022 0 -0.24129970279445639 0.44943490890582899 0 -0.23001101257685119 0.46262354083324181 0 -0.25345677561811758 0.46036691342989022 0 -0.25315469521642581 0.4750486889203015 0 -0.23001101257685119 0.46262354083324181 0 -0.24129970279445639 0.44943490890582899 0 -0.23001101257685119 0.46262354083324181 0 -0.2242493546558077 0.44235471361969553 0 -0.23001101257685119 0.46262354083324181 0 -0.2242493546558077 0.44235471361969553 0 -0.2144914677851314 0.45380351874251162 0 -0.2242493546558077 0.44235471361969553 0 -0.20880164963731279 0.443380440886459 0 -0.2144914677851314 0.45380351874251162 0 -0.20880164963731279 0.443380440886459 0 -0.2144914677851314 0.45380351874251162 0 -0.20415969833182021 0.45549933815243238 0 -0.23001101257685119 0.46262354083324181 0 -0.2144914677851314 0.45380351874251162 0 -0.20656524953558469 0.46488016823659339 0 -0.21852396914967101 0.47285401242330122 0 -0.23001101257685119 0.46262354083324181 0 -0.20656524953558469 0.46488016823659339 0 -0.23001101257685119 0.46262354083324181 0 -0.20656524953558469 0.46488016823659339 0 -0.2144914677851314 0.45380351874251162 0 -0.20415969833182021 0.45549933815243238 0 -0.20656524953558469 0.46488016823659339 0 -0.1829865290739871 0.45873048193697258 0 -0.1829590266345629 0.45699162349075462 0 -0.20415969833182021 0.45549933815243238 0 -0.1829865290739871 0.45873048193697258 0 -0.20415969833182021 0.45549933815243238 0 -0.18311948649431831 0.46713679563994498 0 -0.20415969833182021 0.45549933815243238 0 -0.20656524953558469 0.46488016823659339 0 -0.1829865290739871 0.45873048193697258 0 -0.18311948649431831 0.46713679563994498 0 -0.20415969833182021 0.45549933815243238 0 -0.18311948649431831 0.46713679563994498 0 -0.20656524953558469 0.46488016823659339 0 -0.1829590266345629 0.45699162349075462 0 -0.19557533522393281 0.44055915781337712 0 -0.1829590266345629 0.45699162349075462 0 -0.20415969833182021 0.45549933815243238 0 -0.19557533522393281 0.44055915781337712 0 -0.20880164963731279 0.443380440886459 0 -0.20415969833182021 0.45549933815243238 0 -0.19557533522393281 0.44055915781337712 0 -0.19557533522393281 0.44055915781337712 0 -0.20819164381331129 0.42412669213600601 0 -0.19557533522393281 0.44055915781337712 0 -0.19413142888046839 0.4217351031076268 0 -0.18255950863604661 0.43173185523385532 0 -0.19557533522393281 0.44055915781337712 0 -0.19413142888046839 0.4217351031076268 0 -0.20819164381331129 0.42412669213600601 0 -0.19413142888046839 0.4217351031076268 0 -0.20819164381331129 0.42412669213600601 0 -0.2021706660915297 0.40578572337793972 0 -0.19413142888046839 0.4217351031076268 0 -0.2021706660915297 0.40578572337793972 0 -0.18215999063752189 0.40647208697695608 0 -0.20819164381331129 0.42412669213600601 0 -0.22405449890785839 0.40643558214578251 0 -0.2021706660915297 0.40578572337793972 0 -0.20880164963731279 0.443380440886459 0 -0.19557533522393281 0.44055915781337712 0 -0.20819164381331129 0.42412669213600601 0 -0.2242493546558077 0.44235471361969553 0 -0.20880164963731279 0.443380440886459 0 -0.20819164381331129 0.42412669213600601 0 -0.2242493546558077 0.44235471361969553 0 -0.20819164381331129 0.42412669213600601 0 -0.22600929792909111 0.42518400498706249 0 -0.2242493546558077 0.44235471361969553 0 -0.22600929792909111 0.42518400498706249 0 -0.24092688658692171 0.43286849171069308 0 -0.20819164381331129 0.42412669213600601 0 -0.22600929792909111 0.42518400498706249 0 -0.22405449890785839 0.40643558214578251 0 -0.22600929792909111 0.42518400498706249 0 -0.22405449890785839 0.40643558214578251 0 -0.2382988550227183 0.41778448946306668 0 -0.2572482915111563 0.42152384209731297 0 -0.2382988550227183 0.41778448946306668 0 -0.2490618870264745 0.40647588616764979 0 -0.22405449890785839 0.40643558214578251 0 -0.2382988550227183 0.41778448946306668 0 -0.2490618870264745 0.40647588616764979 0 -0.2572482915111563 0.42152384209731297 0 -0.2382988550227183 0.41778448946306668 0 -0.24092688658692171 0.43286849171069308 0 -0.22600929792909111 0.42518400498706249 0 -0.2382988550227183 0.41778448946306668 0 -0.24092688658692171 0.43286849171069308 0 -0.24000210142933509 0.37809552861286783 0 -0.23801773827758249 0.39392053259368742 0 -0.22567210936962789 0.38582584627882549 0 -0.25152819264859128 0.38883491631829081 0 -0.24000210142933509 0.37809552861286783 0 -0.23801773827758249 0.39392053259368742 0 -0.25213085833087667 0.37355178257669552 0 -0.25152819264859128 0.38883491631829081 0 -0.24000210142933509 0.37809552861286783 0 -0.25152819264859128 0.38883491631829081 0 -0.2490618870264745 0.40647588616764979 0 -0.23801773827758249 0.39392053259368742 0 -0.22405449890785839 0.40643558214578251 0 -0.2490618870264745 0.40647588616764979 0 -0.23801773827758249 0.39392053259368742 0 -0.22405449890785839 0.40643558214578251 0 -0.22567210936962789 0.38582584627882549 0 -0.2099895612515065 0.38861519238670661 0 -0.22405449890785839 0.40643558214578251 0 -0.23801773827758249 0.39392053259368742 0 -0.22567210936962789 0.38582584627882549 0 -0.22567210936962789 0.38582584627882549 0 -0.21752164111765379 0.37637519474985792 0 -0.23054114355980421 0.3681661286558337 0 -0.24000210142933509 0.37809552861286783 0 -0.22567210936962789 0.38582584627882549 0 -0.23054114355980421 0.3681661286558337 0 -0.22567210936962789 0.38582584627882549 0 -0.21752164111765379 0.37637519474985792 0 -0.2099895612515065 0.38861519238670661 0 -0.21752164111765379 0.37637519474985792 0 -0.2099895612515065 0.38861519238670661 0 -0.20825127389149589 0.37038948781896619 0 -0.2099895612515065 0.38861519238670661 0 -0.1956253707180633 0.37355818799515828 0 -0.20825127389149589 0.37038948781896619 0 -0.22405449890785839 0.40643558214578251 0 -0.2099895612515065 0.38861519238670661 0 -0.2021706660915297 0.40578572337793972 0 -0.2021706660915297 0.40578572337793972 0 -0.19434121226752371 0.39112870189136351 0 -0.18215999063752189 0.40647208697695608 0 -0.2099895612515065 0.38861519238670661 0 -0.2021706660915297 0.40578572337793972 0 -0.19434121226752371 0.39112870189136351 0 -0.2099895612515065 0.38861519238670661 0 -0.19434121226752371 0.39112870189136351 0 -0.1956253707180633 0.37355818799515828 0 -0.19434121226752371 0.39112870189136351 0 -0.18176047263899719 0.38121231872005679 0 -0.1956253707180633 0.37355818799515828 0 -0.18176047263899719 0.38121231872005679 0 -0.16585623702428451 0.39107516703040651 0 -0.16689278400863089 0.37048631692620287 0 -0.16585623702428451 0.39107516703040651 0 -0.1532541744773912 0.375434017343177 0 -0.15169756500005979 0.38990146883471011 0 -0.16585623702428451 0.39107516703040651 0 -0.1532541744773912 0.375434017343177 0 -0.16689278400863089 0.37048631692620287 0 -0.16585623702428451 0.39107516703040651 0 -0.1665369108918931 0.40914444316194981 0 -0.1556916669008335 0.40278409093046019 0 -0.16585623702428451 0.39107516703040651 0 -0.18215999063752189 0.40647208697695608 0 -0.1665369108918931 0.40914444316194981 0 -0.16585623702428451 0.39107516703040651 0 -0.15169756500005979 0.38990146883471011 0 -0.1556916669008335 0.40278409093046019 0 -0.18176047263899719 0.38121231872005679 0 -0.16585623702428451 0.39107516703040651 0 -0.18215999063752189 0.40647208697695608 0 -0.18176047263899719 0.38121231872005679 0 -0.18215999063752189 0.40647208697695608 0 -0.19434121226752371 0.39112870189136351 0 -0.18176047263899719 0.38121231872005679 0 -0.18215999063752189 0.40647208697695608 0 -0.18215999063752189 0.40647208697695608 0 -0.18255950863604661 0.43173185523385532 0 -0.18215999063752189 0.40647208697695608 0 -0.16958367679162159 0.42493542776846188 0 -0.1665369108918931 0.40914444316194981 0 -0.19413142888046839 0.4217351031076268 0 -0.18215999063752189 0.40647208697695608 0 -0.18255950863604661 0.43173185523385532 0 -0.18215999063752189 0.40647208697695608 0 -0.18255950863604661 0.43173185523385532 0 -0.16958367679162159 0.42493542776846188 0 -0.16940388650370539 0.44815354093755089 0 -0.18255950863604661 0.43173185523385532 0 -0.16958367679162159 0.42493542776846188 0 -0.16940388650370539 0.44815354093755089 0 -0.16958367679162159 0.42493542776846188 0 -0.15912083936695831 0.4347249498771325 0 -0.16958367679162159 0.42493542776846188 0 -0.15912083936695831 0.4347249498771325 0 -0.15604886632200479 0.41831593774319042 0 -0.16958367679162159 0.42493542776846188 0 -0.1665369108918931 0.40914444316194981 0 -0.15604886632200479 0.41831593774319042 0 -0.1665369108918931 0.40914444316194981 0 -0.15604886632200479 0.41831593774319042 0 -0.1556916669008335 0.40278409093046019 0 -0.15604886632200479 0.41831593774319042 0 -0.14768726638806501 0.40958107086639878 0 -0.1556916669008335 0.40278409093046019 0 -0.15604886632200479 0.41831593774319042 0 -0.1455440964649429 0.41771164433310332 0 -0.14575226394851429 0.42876386523653243 0 -0.15604886632200479 0.41831593774319042 0 -0.1455440964649429 0.41771164433310332 0 -0.14768726638806501 0.40958107086639878 0 -0.1455440964649429 0.41771164433310332 0 -0.14768726638806501 0.40958107086639878 0 -0.13820848934052041 0.41088683445876423 0 -0.15912083936695831 0.4347249498771325 0 -0.15604886632200479 0.41831593774319042 0 -0.14575226394851429 0.42876386523653243 0 -0.14949031039727409 0.43903968606904947 0 -0.15912083936695831 0.4347249498771325 0 -0.14575226394851429 0.42876386523653243 0 -0.1455440964649429 0.41771164433310332 0 -0.14575226394851429 0.42876386523653243 0 -0.13557398954387551 0.42076075412316039 0 -0.13973201497409549 0.44099892737807922 0 -0.14949031039727409 0.43903968606904947 0 -0.14575226394851429 0.42876386523653243 0 -0.13491063247587859 0.43073185275000708 0 -0.1242188050129694 0.42501783294758849 0 -0.1248743097581413 0.44162978393037222 0 -0.13973201497409549 0.44099892737807922 0 -0.14575226394851429 0.42876386523653243 0 -0.13491063247587859 0.43073185275000708 0 -0.14575226394851429 0.42876386523653243 0 -0.13491063247587859 0.43073185275000708 0 -0.13557398954387551 0.42076075412316039 0 -0.13491063247587859 0.43073185275000708 0 -0.13557398954387551 0.42076075412316039 0 -0.1242188050129694 0.42501783294758849 0 -0.13820848934052041 0.41088683445876423 0 -0.13557398954387551 0.42076075412316039 0 -0.12623023605756489 0.41143854881348008 0 -0.1455440964649429 0.41771164433310332 0 -0.13820848934052041 0.41088683445876423 0 -0.13557398954387551 0.42076075412316039 0 -0.13557398954387551 0.42076075412316039 0 -0.12623023605756489 0.41143854881348008 0 -0.1242188050129694 0.42501783294758849 0 -0.13820848934052041 0.41088683445876423 0 -0.12623023605756489 0.41143854881348008 0 -0.13398515235888339 0.40371564514020769 0 -0.12997925716256209 0.39431640422262348 0 -0.14074253368576661 0.38200722200303072 0 -0.1429432129120235 0.39820684686647628 0 -0.12623023605756489 0.41143854881348008 0 -0.13398515235888339 0.40371564514020769 0 -0.12997925716256209 0.39431640422262348 0 -0.13398515235888339 0.40371564514020769 0 -0.12997925716256209 0.39431640422262348 0 -0.1429432129120235 0.39820684686647628 0 -0.13820848934052041 0.41088683445876423 0 -0.13398515235888339 0.40371564514020769 0 -0.1429432129120235 0.39820684686647628 0 -0.12997925716256209 0.39431640422262348 0 -0.14074253368576661 0.38200722200303072 0 -0.12523428666698541 0.37069662222368049 0 -0.12997925716256209 0.39431640422262348 0 -0.12523428666698541 0.37069662222368049 0 -0.12103247972044499 0.39311621374447298 0 -0.14074253368576661 0.38200722200303072 0 -0.15169756500005979 0.38990146883471011 0 -0.1429432129120235 0.39820684686647628 0 -0.14074253368576661 0.38200722200303072 0 -0.1532541744773912 0.375434017343177 0 -0.15169756500005979 0.38990146883471011 0 -0.15169756500005979 0.38990146883471011 0 -0.1556916669008335 0.40278409093046019 0 -0.1429432129120235 0.39820684686647628 0 -0.14768726638806501 0.40958107086639878 0 -0.1556916669008335 0.40278409093046019 0 -0.1429432129120235 0.39820684686647628 0 -0.14768726638806501 0.40958107086639878 0 -0.13820848934052041 0.41088683445876423 0 -0.1429432129120235 0.39820684686647628 0 -0.14407255521749979 0.34403263722221961 0 -0.15504053286571459 0.3545366000593369 0 -0.14129669608781389 0.36249735492572199 0 -0.14407255521749979 0.34403263722221961 0 -0.15504053286571459 0.3545366000593369 0 -0.1549481930100888 0.34056708499864929 0 -0.14074253368576661 0.38200722200303072 0 -0.1532541744773912 0.375434017343177 0 -0.14129669608781389 0.36249735492572199 0 -0.1532541744773912 0.375434017343177 0 -0.15504053286571459 0.3545366000593369 0 -0.14129669608781389 0.36249735492572199 0 -0.14129669608781389 0.36249735492572199 0 -0.12523428666698541 0.37069662222368049 0 -0.1294360936135257 0.3482770307028879 0 -0.12523428666698541 0.37069662222368049 0 -0.1294360936135257 0.3482770307028879 0 -0.14074253368576661 0.38200722200303072 0 -0.14129669608781389 0.36249735492572199 0 -0.12523428666698541 0.37069662222368049 0 -0.14407255521749979 0.34403263722221961 0 -0.14129669608781389 0.36249735492572199 0 -0.1294360936135257 0.3482770307028879 0 -0.1294360936135257 0.3482770307028879 0 -0.13363790056006589 0.32585743918209531 0 -0.14407255521749979 0.34403263722221961 0 -0.1294360936135257 0.3482770307028879 0 -0.13363790056006589 0.32585743918209531 0 -0.1294360936135257 0.3482770307028879 0 -0.13363790056006589 0.32585743918209531 0 -0.1154499742120704 0.34086754873962172 0 -0.12722248981549561 0.3181430308760943 0 -0.13363790056006589 0.32585743918209531 0 -0.1360408951285694 0.3130357752318072 0 -0.12722248981549561 0.3181430308760943 0 -0.1360408951285694 0.3130357752318072 0 -0.12136448477009221 0.30951812845445109 0 -0.12722248981549561 0.3181430308760943 0 -0.13363790056006589 0.32585743918209531 0 -0.12142985306419619 0.32461006626398298 0 -0.13363790056006589 0.32585743918209531 0 -0.12142985306419619 0.32461006626398298 0 -0.13363790056006589 0.32585743918209531 0 -0.1360408951285694 0.3130357752318072 0 -0.14290423209994971 0.32095809222069871 0 -0.13363790056006589 0.32585743918209531 0 -0.1360408951285694 0.3130357752318072 0 -0.14290423209994971 0.32095809222069871 0 -0.1532404752523272 0.32269894785805692 0 -0.1464174014568787 0.29836992735667278 0 -0.13363790056006589 0.32585743918209531 0 -0.14290423209994971 0.32095809222069871 0 -0.15729966860100811 0.32827511069417059 0 -0.13363790056006589 0.32585743918209531 0 -0.15729966860100811 0.32827511069417059 0 -0.14290423209994971 0.32095809222069871 0 -0.1532404752523272 0.32269894785805692 0 -0.15729966860100811 0.32827511069417059 0 -0.1532404752523272 0.32269894785805692 0 -0.15943794807189979 0.31595908059817063 0 -0.1547819877644892 0.3091453549012102 0 -0.14407255521749979 0.34403263722221961 0 -0.13363790056006589 0.32585743918209531 0 -0.14748957934716561 0.33468306802428371 0 -0.13363790056006589 0.32585743918209531 0 -0.14748957934716561 0.33468306802428371 0 -0.15729966860100811 0.32827511069417059 0 -0.14748957934716561 0.33468306802428371 0 -0.1549481930100888 0.34056708499864929 0 -0.15729966860100811 0.32827511069417059 0 -0.14407255521749979 0.34403263722221961 0 -0.14748957934716561 0.33468306802428371 0 -0.1549481930100888 0.34056708499864929 0 -0.15729966860100811 0.32827511069417059 0 -0.18096143664194889 0.33069278220625808 0 -0.1549481930100888 0.34056708499864929 0 -0.15729966860100811 0.32827511069417059 0 -0.16781010436956259 0.34240718275037813 0 -0.15729966860100811 0.32827511069417059 0 -0.16781010436956259 0.34240718275037813 0 -0.18096143664194889 0.33069278220625808 0 -0.15729966860100811 0.32827511069417059 0 -0.17028988351433311 0.32233995817617028 0 -0.18096143664194889 0.33069278220625808 0 -0.15943794807189979 0.31595908059817063 0 -0.16495134068588049 0.31685297469802859 0 -0.1638395481514221 0.30983277085387728 0 -0.1532404752523272 0.32269894785805692 0 -0.15943794807189979 0.31595908059817063 0 -0.16037638850537991 0.32126535467967993 0 -0.15943794807189979 0.31595908059817063 0 -0.16037638850537991 0.32126535467967993 0 -0.16495134068588049 0.31685297469802859 0 -0.15729966860100811 0.32827511069417059 0 -0.16037638850537991 0.32126535467967993 0 -0.17028988351433311 0.32233995817617028 0 -0.1532404752523272 0.32269894785805692 0 -0.15729966860100811 0.32827511069417059 0 -0.16037638850537991 0.32126535467967993 0 -0.16495134068588049 0.31685297469802859 0 -0.17285953122972289 0.31090601179704258 0 -0.1638395481514221 0.30983277085387728 0 -0.17028988351433311 0.32233995817617028 0 -0.16495134068588049 0.31685297469802859 0 -0.17285953122972289 0.31090601179704258 0 -0.16037638850537991 0.32126535467967993 0 -0.17028988351433311 0.32233995817617028 0 -0.16495134068588049 0.31685297469802859 0 -0.18077272512400111 0.31876138179813301 0 -0.17285953122972289 0.31090601179704258 0 -0.17028988351433311 0.32233995817617028 0 -0.18077272512400111 0.31876138179813301 0 -0.17285953122972289 0.31090601179704258 0 -0.17028988351433311 0.32233995817617028 0 -0.18077272512400111 0.31876138179813301 0 -0.18096143664194889 0.33069278220625808 0 -0.18077272512400111 0.31876138179813301 0 -0.19386790912735871 0.33176087567547108 0 -0.18077272512400111 0.31876138179813301 0 -0.18096143664194889 0.33069278220625808 0 -0.18077272512400111 0.31876138179813301 0 -0.18096143664194889 0.33069278220625808 0 -0.19386790912735871 0.33176087567547108 0 -0.18096143664194889 0.33069278220625808 0 -0.1813609546404725 0.35595255046315749 0 -0.18096143664194889 0.33069278220625808 0 -0.1813609546404725 0.35595255046315749 0 -0.19258948339875709 0.33633707034479371 0 -0.16781010436956259 0.34240718275037813 0 -0.18096143664194889 0.33069278220625808 0 -0.1813609546404725 0.35595255046315749 0 -0.18096143664194889 0.33069278220625808 0 -0.19386790912735871 0.33176087567547108 0 -0.15504053286571459 0.3545366000593369 0 -0.16781010436956259 0.34240718275037813 0 -0.1813609546404725 0.35595255046315749 0 -0.15504053286571459 0.3545366000593369 0 -0.1549481930100888 0.34056708499864929 0 -0.16781010436956259 0.34240718275037813 0 -0.1532541744773912 0.375434017343177 0 -0.15504053286571459 0.3545366000593369 0 -0.16689278400863089 0.37048631692620287 0 -0.15504053286571459 0.3545366000593369 0 -0.1813609546404725 0.35595255046315749 0 -0.16689278400863089 0.37048631692620287 0 -0.18176047263899719 0.38121231872005679 0 -0.1813609546404725 0.35595255046315749 0 -0.18176047263899719 0.38121231872005679 0 -0.1813609546404725 0.35595255046315749 0 -0.1956253707180633 0.37355818799515828 0 -0.18176047263899719 0.38121231872005679 0 -0.1813609546404725 0.35595255046315749 0 -0.16689278400863089 0.37048631692620287 0 -0.1813609546404725 0.35595255046315749 0 -0.1956253707180633 0.37355818799515828 0 -0.2000380028121157 0.35856944723279938 0 -0.1956253707180633 0.37355818799515828 0 -0.2000380028121157 0.35856944723279938 0 -0.20825127389149589 0.37038948781896619 0 -0.1813609546404725 0.35595255046315749 0 -0.1951678646333711 0.34883535218340811 0 -0.19258948339875709 0.33633707034479371 0 -0.1813609546404725 0.35595255046315749 0 -0.1951678646333711 0.34883535218340811 0 -0.2000380028121157 0.35856944723279938 0 -0.1951678646333711 0.34883535218340811 0 -0.2000380028121157 0.35856944723279938 0 -0.20668301768213909 0.34448234069288158 0 -0.20668301768213909 0.34448234069288158 0 -0.2120127789660084 0.36084248239747968 0 -0.21921666942493959 0.3569244055809645 0 -0.2000380028121157 0.35856944723279938 0 -0.20668301768213909 0.34448234069288158 0 -0.2120127789660084 0.36084248239747968 0 -0.2120127789660084 0.36084248239747968 0 -0.21921666942493959 0.3569244055809645 0 -0.20668301768213909 0.34448234069288158 0 -0.21921666942493959 0.3569244055809645 0 -0.22158808080033929 0.34557455345049992 0 -0.20668301768213909 0.34448234069288158 0 -0.21921666942493959 0.3569244055809645 0 -0.2000380028121157 0.35856944723279938 0 -0.20825127389149589 0.37038948781896619 0 -0.2120127789660084 0.36084248239747968 0 -0.2120127789660084 0.36084248239747968 0 -0.2199937556016836 0.36693485901855288 0 -0.21921666942493959 0.3569244055809645 0 -0.20825127389149589 0.37038948781896619 0 -0.2120127789660084 0.36084248239747968 0 -0.2199937556016836 0.36693485901855288 0 -0.21752164111765379 0.37637519474985792 0 -0.20825127389149589 0.37038948781896619 0 -0.2199937556016836 0.36693485901855288 0 -0.21752164111765379 0.37637519474985792 0 -0.23054114355980421 0.3681661286558337 0 -0.2199937556016836 0.36693485901855288 0 -0.23054114355980421 0.3681661286558337 0 -0.21921666942493959 0.3569244055809645 0 -0.23305195790672301 0.35812934693154008 0 -0.23054114355980421 0.3681661286558337 0 -0.2199937556016836 0.36693485901855288 0 -0.21921666942493959 0.3569244055809645 0 -0.23054114355980421 0.3681661286558337 0 -0.21921666942493959 0.3569244055809645 0 -0.21921666942493959 0.3569244055809645 0 -0.22158808080033929 0.34557455345049992 0 -0.23915963598069589 0.34607775607121571 0 -0.21921666942493959 0.3569244055809645 0 -0.23915963598069589 0.34607775607121571 0 -0.21921666942493959 0.3569244055809645 0 -0.23305195790672301 0.35812934693154008 0 -0.23915963598069589 0.34607775607121571 0 -0.23305195790672301 0.35812934693154008 0 -0.23915963598069589 0.34607775607121571 0 -0.24329038266145239 0.36134909741814653 0 -0.25407523553642281 0.3497448278934856 0 -0.23915963598069589 0.34607775607121571 0 -0.24329038266145239 0.36134909741814653 0 -0.25213085833087667 0.37355178257669552 0 -0.24000210142933509 0.37809552861286783 0 -0.24329038266145239 0.36134909741814653 0 -0.24000210142933509 0.37809552861286783 0 -0.23054114355980421 0.3681661286558337 0 -0.24329038266145239 0.36134909741814653 0 -0.23054114355980421 0.3681661286558337 0 -0.23305195790672301 0.35812934693154008 0 -0.24329038266145239 0.36134909741814653 0 -0.23582541811145999 0.32679902143390172 0 -0.24885494741763489 0.31718848033418301 0 -0.23189508169276829 0.30076725351495531 0 -0.23582541811145999 0.32679902143390172 0 -0.24885494741763489 0.31718848033418301 0 -0.24633099797708269 0.32737693631841108 0 -0.25451497659773847 0.32559442806853028 0 -0.24885494741763489 0.31718848033418301 0 -0.24633099797708269 0.32737693631841108 0 -0.24843663428782739 0.33758714710907461 0 -0.22129300011358269 0.33481371145693772 0 -0.25451497659773847 0.32559442806853028 0 -0.24633099797708269 0.32737693631841108 0 -0.24843663428782739 0.33758714710907461 0 -0.25910260253645218 0.33523110656146687 0 -0.23915963598069589 0.34607775607121571 0 -0.23582541811145999 0.32679902143390172 0 -0.24633099797708269 0.32737693631841108 0 -0.24843663428782739 0.33758714710907461 0 -0.25910260253645218 0.33523110656146687 0 -0.23915963598069589 0.34607775607121571 0 -0.24843663428782739 0.33758714710907461 0 -0.23582541811145999 0.32679902143390172 0 -0.24843663428782739 0.33758714710907461 0 -0.22129300011358269 0.33481371145693772 0 -0.23915963598069589 0.34607775607121571 0 -0.24843663428782739 0.33758714710907461 0 -0.22129300011358269 0.33481371145693772 0 -0.22158808080033929 0.34557455345049992 0 -0.23915963598069589 0.34607775607121571 0 -0.22129300011358269 0.33481371145693772 0 -0.23582541811145999 0.32679902143390172 0 -0.21954464392232159 0.31820766509236142 0 -0.23189508169276829 0.30076725351495531 0 -0.23582541811145999 0.32679902143390172 0 -0.22129300011358269 0.33481371145693772 0 -0.21954464392232159 0.31820766509236142 0 -0.21954464392232159 0.31820766509236142 0 -0.20492818889453221 0.32276220977772679 0 -0.20060783596013981 0.3076349397264902 0 -0.22129300011358269 0.33481371145693772 0 -0.21954464392232159 0.31820766509236142 0 -0.20492818889453221 0.32276220977772679 0 -0.22129300011358269 0.33481371145693772 0 -0.20492818889453221 0.32276220977772679 0 -0.19386790912735871 0.33176087567547108 0 -0.22129300011358269 0.33481371145693772 0 -0.19386790912735871 0.33176087567547108 0 -0.20668301768213909 0.34448234069288158 0 -0.22129300011358269 0.33481371145693772 0 -0.19386790912735871 0.33176087567547108 0 -0.20668301768213909 0.34448234069288158 0 -0.22158808080033929 0.34557455345049992 0 -0.22129300011358269 0.33481371145693772 0 -0.20668301768213909 0.34448234069288158 0 -0.19386790912735871 0.33176087567547108 0 -0.19258948339875709 0.33633707034479371 0 -0.20668301768213909 0.34448234069288158 0 -0.19386790912735871 0.33176087567547108 0 -0.1951678646333711 0.34883535218340811 0 -0.20668301768213909 0.34448234069288158 0 -0.19258948339875709 0.33633707034479371 0 -0.18096143664194889 0.33069278220625808 0 -0.19386790912735871 0.33176087567547108 0 -0.19258948339875709 0.33633707034479371 0 -0.19386790912735871 0.33176087567547108 0 -0.19258948339875709 0.33633707034479371 0 -0.18077272512400111 0.31876138179813301 0 -0.19386790912735871 0.33176087567547108 0 -0.20060783596013981 0.3076349397264902 0 -0.20492818889453221 0.32276220977772679 0 -0.19386790912735871 0.33176087567547108 0 -0.20060783596013981 0.3076349397264902 0 -0.19386790912735871 0.33176087567547108 0 -0.20060783596013981 0.3076349397264902 0 -0.20060783596013981 0.3076349397264902 0 -0.20734776279292019 0.28350900377750898 0 -0.23189508169276829 0.30076725351495531 0 -0.21954464392232159 0.31820766509236142 0 -0.20060783596013981 0.3076349397264902 0 -0.23189508169276829 0.30076725351495531 0 -0.20060783596013981 0.3076349397264902 0 -0.20734776279292019 0.28350900377750898 0 -0.18034630435624241 0.29180066960649809 0 -0.20734776279292019 0.28350900377750898 0 -0.19375927737912041 0.2730469699042487 0 -0.18034630435624241 0.29180066960649809 0 -0.20060783596013981 0.3076349397264902 0 -0.20734776279292019 0.28350900377750898 0 -0.20734776279292019 0.28350900377750898 0 -0.23189508169276829 0.30076725351495531 0 -0.22396762922540969 0.27514125130055722 0 -0.23189508169276829 0.30076725351495531 0 -0.2378434694439332 0.28391349183279069 0 -0.22396762922540969 0.27514125130055722 0 -0.25673188405007052 0.28646841290673969 0 -0.23189508169276829 0.30076725351495531 0 -0.2378434694439332 0.28391349183279069 0 -0.25673188405007052 0.28646841290673969 0 -0.23189508169276829 0.30076725351495531 0 -0.25505401324638421 0.30366623925853881 0 -0.25673188405007052 0.28646841290673969 0 -0.23189508169276829 0.30076725351495531 0 -0.25505401324638421 0.30366623925853881 0 -0.24885494741763489 0.31718848033418301 0 -0.23189508169276829 0.30076725351495531 0 -0.25265925142613249 0.26128234508680298 0 -0.23885305679183191 0.2684477152547543 0 -0.23951274761537589 0.2474853768326048 0 -0.23885305679183191 0.2684477152547543 0 -0.22811192938500721 0.25829645972706228 0 -0.23951274761537589 0.2474853768326048 0 -0.25621817608628389 0.2460965770837312 0 -0.25265925142613249 0.26128234508680298 0 -0.23951274761537589 0.2474853768326048 0 -0.25673188405007052 0.28646841290673969 0 -0.2378434694439332 0.28391349183279069 0 -0.23885305679183191 0.2684477152547543 0 -0.25265925142613249 0.26128234508680298 0 -0.25673188405007052 0.28646841290673969 0 -0.23885305679183191 0.2684477152547543 0 -0.23885305679183191 0.2684477152547543 0 -0.22396762922540969 0.27514125130055722 0 -0.22811192938500721 0.25829645972706228 0 -0.2378434694439332 0.28391349183279069 0 -0.23885305679183191 0.2684477152547543 0 -0.22396762922540969 0.27514125130055722 0 -0.22811192938500721 0.25829645972706228 0 -0.22371849106378741 0.2462845034026982 0 -0.23951274761537589 0.2474853768326048 0 -0.22396762922540969 0.27514125130055722 0 -0.22811192938500721 0.25829645972706228 0 -0.21408768962570049 0.25938306782852782 0 -0.22811192938500721 0.25829645972706228 0 -0.21408768962570049 0.25938306782852782 0 -0.22371849106378741 0.2462845034026982 0 -0.21408768962570049 0.25938306782852782 0 -0.19928355658839081 0.25766712263582692 0 -0.2066863838603582 0.24242880758937649 0 -0.21408768962570049 0.25938306782852782 0 -0.20163280817849061 0.26608937016207479 0 -0.19928355658839081 0.25766712263582692 0 -0.20734776279292019 0.28350900377750898 0 -0.21408768962570049 0.25938306782852782 0 -0.20734776279292019 0.28350900377750898 0 -0.22396762922540969 0.27514125130055722 0 -0.21408768962570049 0.25938306782852782 0 -0.20734776279292019 0.28350900377750898 0 -0.21408768962570049 0.25938306782852782 0 -0.20163280817849061 0.26608937016207479 0 -0.20734776279292019 0.28350900377750898 0 -0.20163280817849061 0.26608937016207479 0 -0.19375927737912041 0.2730469699042487 0 -0.20163280817849061 0.26608937016207479 0 -0.19375927737912041 0.2730469699042487 0 -0.19160269433399771 0.26436194023610149 0 -0.19375927737912041 0.2730469699042487 0 -0.19160269433399771 0.26436194023610149 0 -0.17991988358848049 0.26483995741486333 0 -0.19928355658839081 0.25766712263582692 0 -0.18259587964237009 0.2606558300825601 0 -0.2066863838603582 0.24242880758937649 0 -0.18259587964237009 0.2606558300825601 0 -0.19333963139412971 0.24385714112684301 0 -0.19928355658839081 0.25766712263582692 0 -0.19160269433399771 0.26436194023610149 0 -0.18259587964237009 0.2606558300825601 0 -0.18259587964237009 0.2606558300825601 0 -0.2066863838603582 0.24242880758937649 0 -0.20163280817849061 0.26608937016207479 0 -0.19928355658839081 0.25766712263582692 0 -0.19160269433399771 0.26436194023610149 0 -0.17991988358848049 0.26483995741486333 0 -0.17951502337729761 0.2392424245160312 0 -0.17991988358848049 0.26483995741486333 0 -0.17042143569771079 0.26099360542817968 0 -0.17951502337729761 0.2392424245160312 0 -0.18259587964237009 0.2606558300825601 0 -0.17991988358848049 0.26483995741486333 0 -0.17951502337729761 0.2392424245160312 0 -0.19160269433399771 0.26436194023610149 0 -0.18259587964237009 0.2606558300825601 0 -0.17991988358848049 0.26483995741486333 0 -0.18259587964237009 0.2606558300825601 0 -0.17991988358848049 0.26483995741486333 0 -0.17991988358848049 0.26483995741486333 0 -0.17042143569771079 0.26099360542817968 0 -0.17716480609589361 0.26914773470870201 0 -0.17042143569771079 0.26099360542817968 0 -0.1627301728603629 0.26968240911070368 0 -0.1532221513837192 0.25419418888983192 0 -0.17042143569771079 0.26099360542817968 0 -0.1532221513837192 0.25419418888983192 0 -0.17951502337729761 0.2392424245160312 0 -0.1627301728603629 0.26968240911070368 0 -0.1620479085915319 0.28265904931380531 0 -0.15271877240598841 0.27446820953958367 0 -0.17042143569771079 0.26099360542817968 0 -0.1627301728603629 0.26968240911070368 0 -0.1699765768805111 0.26885491792894611 0 -0.1627301728603629 0.26968240911070368 0 -0.1699765768805111 0.26885491792894611 0 -0.16860704672851359 0.27535934789532951 0 -0.1627301728603629 0.26968240911070368 0 -0.16860704672851359 0.27535934789532951 0 -0.1620479085915319 0.28265904931380531 0 -0.16860704672851359 0.27535934789532951 0 -0.17077339862397739 0.28423195702734899 0 -0.1620479085915319 0.28265904931380531 0 -0.17991988358848049 0.26483995741486333 0 -0.18034630435624241 0.29180066960649809 0 -0.17991988358848049 0.26483995741486333 0 -0.17716480609589361 0.26914773470870201 0 -0.18034630435624241 0.29180066960649809 0 -0.16860704672851359 0.27535934789532951 0 -0.17716480609589361 0.26914773470870201 0 -0.17077339862397739 0.28423195702734899 0 -0.19375927737912041 0.2730469699042487 0 -0.17991988358848049 0.26483995741486333 0 -0.18034630435624241 0.29180066960649809 0 -0.17042143569771079 0.26099360542817968 0 -0.1699765768805111 0.26885491792894611 0 -0.17716480609589361 0.26914773470870201 0 -0.1699765768805111 0.26885491792894611 0 -0.16860704672851359 0.27535934789532951 0 -0.17716480609589361 0.26914773470870201 0 -0.17991988358848049 0.26483995741486333 0 -0.17716480609589361 0.26914773470870201 0 -0.17716480609589361 0.26914773470870201 0 -0.18034630435624241 0.29180066960649809 0 -0.17077339862397739 0.28423195702734899 0 -0.18034630435624241 0.29180066960649809 0 -0.16501618616712291 0.29775164083812761 0 -0.17077339862397739 0.28423195702734899 0 -0.18077272512400111 0.31876138179813301 0 -0.18034630435624241 0.29180066960649809 0 -0.18077272512400111 0.31876138179813301 0 -0.18034630435624241 0.29180066960649809 0 -0.17285953122972289 0.31090601179704258 0 -0.18034630435624241 0.29180066960649809 0 -0.17285953122972289 0.31090601179704258 0 -0.16501618616712291 0.29775164083812761 0 -0.18077272512400111 0.31876138179813301 0 -0.20060783596013981 0.3076349397264902 0 -0.18034630435624241 0.29180066960649809 0 -0.16501618616712291 0.29775164083812761 0 -0.15329008091572741 0.28945008379417048 0 -0.1547819877644892 0.3091453549012102 0 -0.17285953122972289 0.31090601179704258 0 -0.16501618616712291 0.29775164083812761 0 -0.1638395481514221 0.30983277085387728 0 -0.16501618616712291 0.29775164083812761 0 -0.1638395481514221 0.30983277085387728 0 -0.1547819877644892 0.3091453549012102 0 -0.15943794807189979 0.31595908059817063 0 -0.1638395481514221 0.30983277085387728 0 -0.1547819877644892 0.3091453549012102 0 -0.16501618616712291 0.29775164083812761 0 -0.17077339862397739 0.28423195702734899 0 -0.1620479085915319 0.28265904931380531 0 -0.16501618616712291 0.29775164083812761 0 -0.1620479085915319 0.28265904931380531 0 -0.15329008091572741 0.28945008379417048 0 -0.1464174014568787 0.29836992735667278 0 -0.13959432766143021 0.2740409068552887 0 -0.1620479085915319 0.28265904931380531 0 -0.15329008091572741 0.28945008379417048 0 -0.15271877240598841 0.27446820953958367 0 -0.15329008091572741 0.28945008379417048 0 -0.1464174014568787 0.29836992735667278 0 -0.13959432766143021 0.2740409068552887 0 -0.15329008091572741 0.28945008379417048 0 -0.1464174014568787 0.29836992735667278 0 -0.1547819877644892 0.3091453549012102 0 -0.1532404752523272 0.32269894785805692 0 -0.1464174014568787 0.29836992735667278 0 -0.1360408951285694 0.3130357752318072 0 -0.14290423209994971 0.32095809222069871 0 -0.1464174014568787 0.29836992735667278 0 -0.1532404752523272 0.32269894785805692 0 -0.1464174014568787 0.29836992735667278 0 -0.1547819877644892 0.3091453549012102 0 -0.1360408951285694 0.3130357752318072 0 -0.1264253840414637 0.29528772621663357 0 -0.12136448477009221 0.30951812845445109 0 -0.1360408951285694 0.3130357752318072 0 -0.1464174014568787 0.29836992735667278 0 -0.1264253840414637 0.29528772621663357 0 -0.1464174014568787 0.29836992735667278 0 -0.1264253840414637 0.29528772621663357 0 -0.13959432766143021 0.2740409068552887 0 -0.1264253840414637 0.29528772621663357 0 -0.13959432766143021 0.2740409068552887 0 -0.1185373796182298 0.27837978510360878 0 -0.13959432766143021 0.2740409068552887 0 -0.1327712538659816 0.24971188635390451 0 -0.13959432766143021 0.2740409068552887 0 -0.116744543106582 0.25728181003509248 0 -0.1327712538659816 0.24971188635390451 0 -0.13959432766143021 0.2740409068552887 0 -0.1532221513837192 0.25419418888983192 0 -0.1327712538659816 0.24971188635390451 0 -0.1627301728603629 0.26968240911070368 0 -0.1532221513837192 0.25419418888983192 0 -0.15271877240598841 0.27446820953958367 0 -0.13959432766143021 0.2740409068552887 0 -0.1532221513837192 0.25419418888983192 0 -0.15271877240598841 0.27446820953958367 0 -0.15329008091572741 0.28945008379417048 0 -0.13959432766143021 0.2740409068552887 0 -0.15271877240598841 0.27446820953958367 0 -0.1061606963602142 0.26761343855331338 0 -0.1001789302111205 0.27974269320078388 0 -0.1185373796182298 0.27837978510360878 0 -0.1061606963602142 0.26761343855331338 0 -0.1001789302111205 0.27974269320078388 0 -0.092613028744971265 0.26767711662392979 0 -0.1061606963602142 0.26761343855331338 0 -0.10005120432924321 0.25626016583208688 0 -0.116744543106582 0.25728181003509248 0 -0.1061606963602142 0.26761343855331338 0 -0.10005120432924321 0.25626016583208688 0 -0.092613028744971265 0.26767711662392979 0 -0.10005120432924321 0.25626016583208688 0 -0.116744543106582 0.25728181003509248 0 -0.1045487088169635 0.24438495162540061 0 -0.13959432766143021 0.2740409068552887 0 -0.116744543106582 0.25728181003509248 0 -0.1185373796182298 0.27837978510360878 0 -0.1061606963602142 0.26761343855331338 0 -0.116744543106582 0.25728181003509248 0 -0.1185373796182298 0.27837978510360878 0 -0.1264253840414637 0.29528772621663357 0 -0.1127724140037699 0.30190213115774378 0 -0.1091517300735869 0.29135078386346752 0 -0.1264253840414637 0.29528772621663357 0 -0.1185373796182298 0.27837978510360878 0 -0.1091517300735869 0.29135078386346752 0 -0.1264253840414637 0.29528772621663357 0 -0.12136448477009221 0.30951812845445109 0 -0.1127724140037699 0.30190213115774378 0 -0.12136448477009221 0.30951812845445109 0 -0.1127724140037699 0.30190213115774378 0 -0.1061991548417472 0.31213959050036899 0 -0.1127724140037699 0.30190213115774378 0 -0.1061991548417472 0.31213959050036899 0 -0.1005146973405663 0.30141191014932889 0 -0.1127724140037699 0.30190213115774378 0 -0.1005146973405663 0.30141191014932889 0 -0.1091517300735869 0.29135078386346752 0 -0.1005146973405663 0.30141191014932889 0 -0.094430836728355921 0.29177030977787999 0 -0.089068024122243669 0.30112896568664949 0 -0.1061991548417472 0.31213959050036899 0 -0.1005146973405663 0.30141191014932889 0 -0.090928135519314904 0.31087631578889069 0 -0.1001789302111205 0.27974269320078388 0 -0.1185373796182298 0.27837978510360878 0 -0.1091517300735869 0.29135078386346752 0 -0.1005146973405663 0.30141191014932889 0 -0.1091517300735869 0.29135078386346752 0 -0.094430836728355921 0.29177030977787999 0 -0.1001789302111205 0.27974269320078388 0 -0.1091517300735869 0.29135078386346752 0 -0.094430836728355921 0.29177030977787999 0 -0.1001789302111205 0.27974269320078388 0 -0.094430836728355921 0.29177030977787999 0 -0.086145563619835275 0.2816538088019015 0 -0.094430836728355921 0.29177030977787999 0 -0.086145563619835275 0.2816538088019015 0 -0.081526075002782958 0.29533369696514911 0 -0.094430836728355921 0.29177030977787999 0 -0.081526075002782958 0.29533369696514911 0 -0.089068024122243669 0.30112896568664949 0 -0.086145563619835275 0.2816538088019015 0 -0.081526075002782958 0.29533369696514911 0 -0.070830210313899522 0.29195808219782299 0 -0.090928135519314904 0.31087631578889069 0 -0.079482369404140468 0.30560554845979909 0 -0.074915307566508993 0.31649039264194578 0 -0.090928135519314904 0.31087631578889069 0 -0.089068024122243669 0.30112896568664949 0 -0.079482369404140468 0.30560554845979909 0 -0.1005146973405663 0.30141191014932889 0 -0.090928135519314904 0.31087631578889069 0 -0.089068024122243669 0.30112896568664949 0 -0.081526075002782958 0.29533369696514911 0 -0.089068024122243669 0.30112896568664949 0 -0.079482369404140468 0.30560554845979909 0 -0.054647974243728172 0.30430181459310768 0 -0.074915307566508993 0.31649039264194578 0 -0.079482369404140468 0.30560554845979909 0 -0.068661557073843291 0.3005821027458685 0 -0.074915307566508993 0.31649039264194578 0 -0.068661557073843291 0.3005821027458685 0 -0.054647974243728172 0.30430181459310768 0 -0.074915307566508993 0.31649039264194578 0 -0.081526075002782958 0.29533369696514911 0 -0.079482369404140468 0.30560554845979909 0 -0.068661557073843291 0.3005821027458685 0 -0.070830210313899522 0.29195808219782299 0 -0.067453711470644842 0.27023673344429472 0 -0.052574645638654917 0.28480468584225688 0 -0.081526075002782958 0.29533369696514911 0 -0.068661557073843291 0.3005821027458685 0 -0.070830210313899522 0.29195808219782299 0 -0.068661557073843291 0.3005821027458685 0 -0.070830210313899522 0.29195808219782299 0 -0.068661557073843291 0.3005821027458685 0 -0.070830210313899522 0.29195808219782299 0 -0.059610011597539182 0.29372125904316332 0 -0.086145563619835275 0.2816538088019015 0 -0.070830210313899522 0.29195808219782299 0 -0.077256670317037021 0.26667642926106078 0 -0.070830210313899522 0.29195808219782299 0 -0.067453711470644842 0.27023673344429472 0 -0.070830210313899522 0.29195808219782299 0 -0.077256670317037021 0.26667642926106078 0 -0.070830210313899522 0.29195808219782299 0 -0.067453711470644842 0.27023673344429472 0 -0.077256670317037021 0.26667642926106078 0 -0.086145563619835275 0.2816538088019015 0 -0.077256670317037021 0.26667642926106078 0 -0.092613028744971265 0.26767711662392979 0 -0.1001789302111205 0.27974269320078388 0 -0.086145563619835275 0.2816538088019015 0 -0.092613028744971265 0.26767711662392979 0 -0.077256670317037021 0.26667642926106078 0 -0.086302411784292182 0.25447467192259482 0 -0.083666647235009842 0.24139059785004849 0 -0.077256670317037021 0.26667642926106078 0 -0.083666647235009842 0.24139059785004849 0 -0.10005120432924321 0.25626016583208688 0 -0.086302411784292182 0.25447467192259482 0 -0.094679029848152713 0.24609146959404629 0 -0.10005120432924321 0.25626016583208688 0 -0.092613028744971265 0.26767711662392979 0 -0.086302411784292182 0.25447467192259482 0 -0.077256670317037021 0.26667642926106078 0 -0.092613028744971265 0.26767711662392979 0 -0.086302411784292182 0.25447467192259482 0 -0.077256670317037021 0.26667642926106078 0 -0.064077212627390134 0.24851538469076631 0 -0.083666647235009842 0.24139059785004849 0 -0.067453711470644842 0.27023673344429472 0 -0.077256670317037021 0.26667642926106078 0 -0.064077212627390134 0.24851538469076631 0 -0.067453711470644842 0.27023673344429472 0 -0.064077212627390134 0.24851538469076631 0 -0.067453711470644842 0.27023673344429472 0 -0.04634179854296408 0.26632715615711849 0 -0.064077212627390134 0.24851538469076631 0 -0.04634179854296408 0.26632715615711849 0 -0.064077212627390134 0.24851538469076631 0 -0.046578861792199937 0.24361118962503389 0 -0.067453711470644842 0.27023673344429472 0 -0.04634179854296408 0.26632715615711849 0 -0.052574645638654917 0.28480468584225688 0 -0.04634179854296408 0.26632715615711849 0 -0.034380640920947357 0.29211323654426968 0 -0.052574645638654917 0.28480468584225688 0 -0.04634179854296408 0.26632715615711849 0 -0.022607631921228569 0.27169805167723737 0 -0.034380640920947357 0.29211323654426968 0 -0.04634179854296408 0.26632715615711849 0 -0.03068766995985707 0.25286978792993342 0 -0.022607631921228569 0.27169805167723737 0 -0.04634179854296408 0.26632715615711849 0 -0.03068766995985707 0.25286978792993342 0 -0.046578861792199937 0.24361118962503389 0 -0.03068766995985707 0.25286978792993342 0 -0.022607631921228569 0.27169805167723737 0 -0.0098044441781452579 0.25473951632571468 0 -0.022607631921228569 0.27169805167723737 0 -0.015153941911089409 0.29208252597919021 0 3.3590645499582607e-05 0.27236849017123349 0 -0.022607631921228569 0.27169805167723737 0 -0.0098044441781452579 0.25473951632571468 0 3.3590645499582607e-05 0.27236849017123349 0 -0.0098044441781452579 0.25473951632571468 0 0.0073806355134042019 0.25529449578482938 0 3.3590645499582607e-05 0.27236849017123349 0 -0.0088759444352828343 0.31092800175718183 0 -0.015153941911089409 0.29208252597919021 0 0.0083336089875100904 0.29343585490586271 0 -0.015153941911089409 0.29208252597919021 0 0.0083336089875100904 0.29343585490586271 0 3.3590645499582607e-05 0.27236849017123349 0 -0.022607631921228569 0.27169805167723737 0 -0.015153941911089409 0.29208252597919021 0 -0.034380640920947357 0.29211323654426968 0 -0.0088759444352828343 0.31092800175718183 0 -0.015153941911089409 0.29208252597919021 0 -0.03508050583840458 0.3127012881250415 0 -0.015153941911089409 0.29208252597919021 0 -0.034380640920947357 0.29211323654426968 0 -0.03508050583840458 0.3127012881250415 0 -0.034380640920947357 0.29211323654426968 0 -0.054647974243728172 0.30430181459310768 0 -0.034380640920947357 0.29211323654426968 0 -0.054647974243728172 0.30430181459310768 0 -0.03508050583840458 0.3127012881250415 0 -0.034380640920947357 0.29211323654426968 0 -0.052574645638654917 0.28480468584225688 0 -0.054647974243728172 0.30430181459310768 0 -0.052574645638654917 0.28480468584225688 0 -0.059610011597539182 0.29372125904316332 0 -0.054647974243728172 0.30430181459310768 0 -0.070830210313899522 0.29195808219782299 0 -0.052574645638654917 0.28480468584225688 0 -0.059610011597539182 0.29372125904316332 0 -0.068661557073843291 0.3005821027458685 0 -0.059610011597539182 0.29372125904316332 0 -0.054647974243728172 0.30430181459310768 0 -0.058679851530075752 0.32054224196392622 0 -0.045885169747561752 0.33132665820789581 0 -0.073191842414501496 0.33174208285196288 0 -0.054647974243728172 0.30430181459310768 0 -0.058679851530075752 0.32054224196392622 0 -0.03508050583840458 0.3127012881250415 0 -0.045885169747561752 0.33132665820789581 0 -0.067541502003893042 0.3482616942848048 0 -0.073191842414501496 0.33174208285196288 0 -0.045885169747561752 0.33132665820789581 0 -0.073191842414501496 0.33174208285196288 0 -0.045885169747561752 0.33132665820789581 0 -0.018578497080621779 0.33091123356382868 0 -0.045885169747561752 0.33132665820789581 0 -0.03508050583840458 0.3127012881250415 0 -0.018578497080621779 0.33091123356382868 0 -0.058679851530075752 0.32054224196392622 0 -0.045885169747561752 0.33132665820789581 0 -0.03508050583840458 0.3127012881250415 0 -0.0088759444352828343 0.31092800175718183 0 -0.03508050583840458 0.3127012881250415 0 -0.018578497080621779 0.33091123356382868 0 -0.018578497080621779 0.33091123356382868 0 -0.0050552824635438226 0.34569829691311771 0 -0.02749858990914332 0.35301881799134821 0 -0.045885169747561752 0.33132665820789581 0 -0.018578497080621779 0.33091123356382868 0 -0.02749858990914332 0.35301881799134821 0 -0.018578497080621779 0.33091123356382868 0 -0.0050552824635438226 0.34569829691311771 0 0.0064742168078369342 0.3347740657525386 0 -0.018578497080621779 0.33091123356382868 0 0.0087281755863181168 0.33049580891976171 0 -0.018578497080621779 0.33091123356382868 0 0.0064742168078369342 0.3347740657525386 0 0.0087281755863181168 0.33049580891976171 0 -0.018578497080621779 0.33091123356382868 0 -0.003280447873963227 0.32161399115684158 0 0.0087281755863181168 0.33049580891976171 0 -0.0088759444352828343 0.31092800175718183 0 -0.018578497080621779 0.33091123356382868 0 -0.003280447873963227 0.32161399115684158 0 -0.0088759444352828343 0.31092800175718183 0 -0.003280447873963227 0.32161399115684158 0 0.0056044744337335906 0.31412092038659428 0 -0.0052616759920083916 0.36132776784546622 0 -0.0045342830833226501 0.3863935686212247 0 -0.0052616759920083916 0.36132776784546622 0 -0.024169526760701381 0.37267007813580277 0 -0.0045342830833226501 0.3863935686212247 0 -0.0052616759920083916 0.36132776784546622 0 -0.0045342830833226501 0.3863935686212247 0 0.0079023355216259559 0.37348921158265391 0 -0.0052616759920083916 0.36132776784546622 0 -0.0050552824635438226 0.34569829691311771 0 0.0061318462344260851 0.35417601161121459 0 -0.0052616759920083916 0.36132776784546622 0 -0.0050552824635438226 0.34569829691311771 0 -0.02749858990914332 0.35301881799134821 0 -0.02749858990914332 0.35301881799134821 0 -0.024169526760701381 0.37267007813580277 0 -0.04149310004589906 0.37124785083274592 0 -0.0052616759920083916 0.36132776784546622 0 -0.02749858990914332 0.35301881799134821 0 -0.024169526760701381 0.37267007813580277 0 -0.02749858990914332 0.35301881799134821 0 -0.04149310004589906 0.37124785083274592 0 -0.051818441616049399 0.35735321764765782 0 -0.045885169747561752 0.33132665820789581 0 -0.02749858990914332 0.35301881799134821 0 -0.051818441616049399 0.35735321764765782 0 -0.045885169747561752 0.33132665820789581 0 -0.051818441616049399 0.35735321764765782 0 -0.067541502003893042 0.3482616942848048 0 -0.04149310004589906 0.37124785083274592 0 -0.051818441616049399 0.35735321764765782 0 -0.056875823715872062 0.37631267096962301 0 -0.051818441616049399 0.35735321764765782 0 -0.069616273344600341 0.3650636543096733 0 -0.056875823715872062 0.37631267096962301 0 -0.069616273344600341 0.3650636543096733 0 -0.085055645225370236 0.37193713089684588 0 -0.071788917171084016 0.3809272333041443 0 -0.069616273344600341 0.3650636543096733 0 -0.071788917171084016 0.3809272333041443 0 -0.056875823715872062 0.37631267096962301 0 -0.069616273344600341 0.3650636543096733 0 -0.085055645225370236 0.37193713089684588 0 -0.084100884505446297 0.3554636863979832 0 -0.085055645225370236 0.37193713089684588 0 -0.084100884505446297 0.3554636863979832 0 -0.1008292236537022 0.36036332390371462 0 -0.084100884505446297 0.3554636863979832 0 -0.067541502003893042 0.3482616942848048 0 -0.085709514220790303 0.34113927750747819 0 -0.084100884505446297 0.3554636863979832 0 -0.085709514220790303 0.34113927750747819 0 -0.099722393067727538 0.34687368244968458 0 -0.069616273344600341 0.3650636543096733 0 -0.084100884505446297 0.3554636863979832 0 -0.067541502003893042 0.3482616942848048 0 -0.051818441616049399 0.35735321764765782 0 -0.069616273344600341 0.3650636543096733 0 -0.067541502003893042 0.3482616942848048 0 -0.067541502003893042 0.3482616942848048 0 -0.073191842414501496 0.33174208285196288 0 -0.085709514220790303 0.34113927750747819 0 -0.058679851530075752 0.32054224196392622 0 -0.073191842414501496 0.33174208285196288 0 -0.074915307566508993 0.31649039264194578 0 -0.054647974243728172 0.30430181459310768 0 -0.058679851530075752 0.32054224196392622 0 -0.074915307566508993 0.31649039264194578 0 -0.073191842414501496 0.33174208285196288 0 -0.074915307566508993 0.31649039264194578 0 -0.095182640889289766 0.32867897069078372 0 -0.090928135519314904 0.31087631578889069 0 -0.074915307566508993 0.31649039264194578 0 -0.095182640889289766 0.32867897069078372 0 -0.074915307566508993 0.31649039264194578 0 -0.095182640889289766 0.32867897069078372 0 -0.073191842414501496 0.33174208285196288 0 -0.085709514220790303 0.34113927750747819 0 -0.095182640889289766 0.32867897069078372 0 -0.085709514220790303 0.34113927750747819 0 -0.095182640889289766 0.32867897069078372 0 -0.099722393067727538 0.34687368244968458 0 -0.095182640889289766 0.32867897069078372 0 -0.1154499742120704 0.34086754873962172 0 -0.095182640889289766 0.32867897069078372 0 -0.1098512680755149 0.32470257897991811 0 -0.1154499742120704 0.34086754873962172 0 -0.095182640889289766 0.32867897069078372 0 -0.1154499742120704 0.34086754873962172 0 -0.099722393067727538 0.34687368244968458 0 -0.1061991548417472 0.31213959050036899 0 -0.090928135519314904 0.31087631578889069 0 -0.095182640889289766 0.32867897069078372 0 -0.1061991548417472 0.31213959050036899 0 -0.095182640889289766 0.32867897069078372 0 -0.1098512680755149 0.32470257897991811 0 -0.1061991548417472 0.31213959050036899 0 -0.115330384384618 0.31728312261503783 0 -0.1098512680755149 0.32470257897991811 0 -0.12136448477009221 0.30951812845445109 0 -0.1061991548417472 0.31213959050036899 0 -0.115330384384618 0.31728312261503783 0 -0.115330384384618 0.31728312261503783 0 -0.1098512680755149 0.32470257897991811 0 -0.12142985306419619 0.32461006626398298 0 -0.12722248981549561 0.3181430308760943 0 -0.115330384384618 0.31728312261503783 0 -0.12142985306419619 0.32461006626398298 0 -0.12722248981549561 0.3181430308760943 0 -0.12136448477009221 0.30951812845445109 0 -0.115330384384618 0.31728312261503783 0 -0.1098512680755149 0.32470257897991811 0 -0.12142985306419619 0.32461006626398298 0 -0.1154499742120704 0.34086754873962172 0 -0.13363790056006589 0.32585743918209531 0 -0.12142985306419619 0.32461006626398298 0 -0.1154499742120704 0.34086754873962172 0 -0.12523428666698541 0.37069662222368049 0 -0.1294360936135257 0.3482770307028879 0 -0.1154159689866658 0.35521970897278921 0 -0.1154499742120704 0.34086754873962172 0 -0.1154159689866658 0.35521970897278921 0 -0.099722393067727538 0.34687368244968458 0 -0.1294360936135257 0.3482770307028879 0 -0.1154499742120704 0.34086754873962172 0 -0.1154159689866658 0.35521970897278921 0 -0.12523428666698541 0.37069662222368049 0 -0.1154159689866658 0.35521970897278921 0 -0.11117961403065831 0.36839673047223442 0 -0.12523428666698541 0.37069662222368049 0 -0.11117961403065831 0.36839673047223442 0 -0.1123930043347208 0.38073562172137532 0 -0.11117961403065831 0.36839673047223442 0 -0.1008292236537022 0.36036332390371462 0 -0.09970079949094271 0.37763208900548878 0 -0.1154159689866658 0.35521970897278921 0 -0.11117961403065831 0.36839673047223442 0 -0.1008292236537022 0.36036332390371462 0 -0.085055645225370236 0.37193713089684588 0 -0.1008292236537022 0.36036332390371462 0 -0.09970079949094271 0.37763208900548878 0 -0.084100884505446297 0.3554636863979832 0 -0.1008292236537022 0.36036332390371462 0 -0.099722393067727538 0.34687368244968458 0 -0.1154159689866658 0.35521970897278921 0 -0.1008292236537022 0.36036332390371462 0 -0.099722393067727538 0.34687368244968458 0 -0.1036554482544351 0.39516830989393792 0 -0.1102807352191843 0.41378788895710661 0 -0.09259379641793411 0.40948313349934218 0 -0.1036554482544351 0.39516830989393792 0 -0.09970079949094271 0.37763208900548878 0 -0.1123930043347208 0.38073562172137532 0 -0.1036554482544351 0.39516830989393792 0 -0.09970079949094271 0.37763208900548878 0 -0.084297773186445962 0.39217279846007119 0 -0.11117961403065831 0.36839673047223442 0 -0.09970079949094271 0.37763208900548878 0 -0.1123930043347208 0.38073562172137532 0 -0.12523428666698541 0.37069662222368049 0 -0.1123930043347208 0.38073562172137532 0 -0.12103247972044499 0.39311621374447298 0 -0.1036554482544351 0.39516830989393792 0 -0.1123930043347208 0.38073562172137532 0 -0.12103247972044499 0.39311621374447298 0 -0.12523428666698541 0.37069662222368049 0 -0.12103247972044499 0.39311621374447298 0 -0.1036554482544351 0.39516830989393792 0 -0.12103247972044499 0.39311621374447298 0 -0.1102807352191843 0.41378788895710661 0 -0.12997925716256209 0.39431640422262348 0 -0.1102807352191843 0.41378788895710661 0 -0.12997925716256209 0.39431640422262348 0 -0.12103247972044499 0.39311621374447298 0 -0.1102807352191843 0.41378788895710661 0 -0.12623023605756489 0.41143854881348008 0 -0.1102807352191843 0.41378788895710661 0 -0.1242188050129694 0.42501783294758849 0 -0.12623023605756489 0.41143854881348008 0 -0.12997925716256209 0.39431640422262348 0 -0.1102807352191843 0.41378788895710661 0 -0.1102807352191843 0.41378788895710661 0 -0.1104760497445479 0.43296770510105842 0 -0.1242188050129694 0.42501783294758849 0 -0.1104760497445479 0.43296770510105842 0 -0.1242188050129694 0.42501783294758849 0 -0.1248743097581413 0.44162978393037222 0 -0.1102807352191843 0.41378788895710661 0 -0.090582213275806372 0.43325937369158968 0 -0.1102807352191843 0.41378788895710661 0 -0.1104760497445479 0.43296770510105842 0 -0.090582213275806372 0.43325937369158968 0 -0.1102807352191843 0.41378788895710661 0 -0.09259379641793411 0.40948313349934218 0 -0.090582213275806372 0.43325937369158968 0 -0.09259379641793411 0.40948313349934218 0 -0.090582213275806372 0.43325937369158968 0 -0.074152812153798875 0.41302729649400538 0 -0.090582213275806372 0.43325937369158968 0 -0.066022972602334681 0.42956105407568013 0 -0.074152812153798875 0.41302729649400538 0 -0.066022972602334681 0.42956105407568013 0 -0.074152812153798875 0.41302729649400538 0 -0.049329429094603867 0.41198700835812702 0 -0.074152812153798875 0.41302729649400538 0 -0.063154715464804681 0.39516467689365731 0 -0.084297773186445962 0.39217279846007119 0 -0.09259379641793411 0.40948313349934218 0 -0.074152812153798875 0.41302729649400538 0 -0.084297773186445962 0.39217279846007119 0 -0.1036554482544351 0.39516830989393792 0 -0.09259379641793411 0.40948313349934218 0 -0.084297773186445962 0.39217279846007119 0 -0.085055645225370236 0.37193713089684588 0 -0.09970079949094271 0.37763208900548878 0 -0.084297773186445962 0.39217279846007119 0 -0.085055645225370236 0.37193713089684588 0 -0.084297773186445962 0.39217279846007119 0 -0.071788917171084016 0.3809272333041443 0 -0.063154715464804681 0.39516467689365731 0 -0.084297773186445962 0.39217279846007119 0 -0.071788917171084016 0.3809272333041443 0 -0.063154715464804681 0.39516467689365731 0 -0.071788917171084016 0.3809272333041443 0 -0.056875823715872062 0.37631267096962301 0 -0.04149310004589906 0.37124785083274592 0 -0.056875823715872062 0.37631267096962301 0 -0.04338349465279491 0.38811939282985902 0 -0.063154715464804681 0.39516467689365731 0 -0.056875823715872062 0.37631267096962301 0 -0.04338349465279491 0.38811939282985902 0 -0.063154715464804681 0.39516467689365731 0 -0.04338349465279491 0.38811939282985902 0 -0.049329429094603867 0.41198700835812702 0 -0.04338349465279491 0.38811939282985902 0 -0.024844401122877391 0.39948633252540261 0 -0.049329429094603867 0.41198700835812702 0 -0.024169526760701381 0.37267007813580277 0 -0.04149310004589906 0.37124785083274592 0 -0.04338349465279491 0.38811939282985902 0 -0.024169526760701381 0.37267007813580277 0 -0.04338349465279491 0.38811939282985902 0 -0.024844401122877391 0.39948633252540261 0 -0.024169526760701381 0.37267007813580277 0 -0.024844401122877391 0.39948633252540261 0 -0.0045342830833226501 0.3863935686212247 0 -0.024844401122877391 0.39948633252540261 0 -0.0045342830833226501 0.3863935686212247 0 -0.0038092142255275289 0.41137928311071797 0 -0.0045342830833226501 0.3863935686212247 0 -0.0038092142255275289 0.41137928311071797 0 -0.024169526760701381 0.37267007813580277 0 -0.0045342830833226501 0.3863935686212247 0 -0.0030841453677343121 0.43636499760021141 0 -0.0038092142255275289 0.41137928311071797 0 -0.026324668085478481 0.42779129271708288 0 -0.0030841453677343121 0.43636499760021141 0 -0.0038092142255275289 0.41137928311071797 0 -0.024844401122877391 0.39948633252540261 0 -0.0038092142255275289 0.41137928311071797 0 -0.026324668085478481 0.42779129271708288 0 -0.026324668085478481 0.42779129271708288 0 -0.049329429094603867 0.41198700835812702 0 -0.049413859365407042 0.43472239834070731 0 -0.024844401122877391 0.39948633252540261 0 -0.026324668085478481 0.42779129271708288 0 -0.049329429094603867 0.41198700835812702 0 -0.074152812153798875 0.41302729649400538 0 -0.063154715464804681 0.39516467689365731 0 -0.049329429094603867 0.41198700835812702 0 -0.066022972602334681 0.42956105407568013 0 -0.049329429094603867 0.41198700835812702 0 -0.049413859365407042 0.43472239834070731 0 -0.066022972602334681 0.42956105407568013 0 -0.049413859365407042 0.43472239834070731 0 -0.0708836913324285 0.45273085842607269 0 -0.0393713920190637 0.45112048084748302 0 -0.052402143273794041 0.47435943831340011 0 -0.0708836913324285 0.45273085842607269 0 -0.049413859365407042 0.43472239834070731 0 -0.0393713920190637 0.45112048084748302 0 -0.0708836913324285 0.45273085842607269 0 -0.0393713920190637 0.45112048084748302 0 -0.02876560419008364 0.47203163756026523 0 -0.052402143273794041 0.47435943831340011 0 -0.026324668085478481 0.42779129271708288 0 -0.049413859365407042 0.43472239834070731 0 -0.0393713920190637 0.45112048084748302 0 -0.0030841453677343121 0.43636499760021141 0 -0.026324668085478481 0.42779129271708288 0 -0.01888650882967766 0.45329231687868837 0 -0.026324668085478481 0.42779129271708288 0 -0.0393713920190637 0.45112048084748302 0 -0.01888650882967766 0.45329231687868837 0 -0.0393713920190637 0.45112048084748302 0 -0.01888650882967766 0.45329231687868837 0 -0.02876560419008364 0.47203163756026523 0 -0.01888650882967766 0.45329231687868837 0 -0.01341416680576474 0.47109478045738301 0 -0.02876560419008364 0.47203163756026523 0 -0.01888650882967766 0.45329231687868837 0 -0.002359076509941094 0.46135071208970457 0 -0.01341416680576474 0.47109478045738301 0 -0.0030841453677343121 0.43636499760021141 0 -0.01888650882967766 0.45329231687868837 0 -0.002359076509941094 0.46135071208970457 0 -0.0030841453677343121 0.43636499760021141 0 -0.002359076509941094 0.46135071208970457 0 -0.0090346539348886701 0.5 0 -0.0016340076521478781 0.48633642657919801 0 -0.017460482120078509 0.48648722646036041 0 -0.0016340076521478781 0.48633642657919801 0 -0.01341416680576474 0.47109478045738301 0 -0.017460482120078509 0.48648722646036041 0 -0.002359076509941094 0.46135071208970457 0 -0.0016340076521478781 0.48633642657919801 0 -0.01341416680576474 0.47109478045738301 0 -0.002359076509941094 0.46135071208970457 0 -0.0016340076521478781 0.48633642657919801 0 -0.002359076509941094 0.46135071208970457 0 -0.0016340076521478781 0.48633642657919801 0 0.0036787250480955699 0.47408322248379448 0 -0.01341416680576474 0.47109478045738301 0 -0.02876560419008364 0.47203163756026523 0 -0.017460482120078509 0.48648722646036041 0 -0.02876560419008364 0.47203163756026523 0 -0.017460482120078509 0.48648722646036041 0 -0.038135422162237087 0.5 0 -0.0090346539348886701 0.5 0 -0.017460482120078509 0.48648722646036041 0 -0.038135422162237087 0.5 0 -0.02876560419008364 0.47203163756026523 0 -0.038135422162237087 0.5 0 -0.052402143273794041 0.47435943831340011 0 -0.038135422162237087 0.5 0 -0.052402143273794041 0.47435943831340011 0 -0.067236190389585393 0.5 0 -0.052402143273794041 0.47435943831340011 0 -0.067236190389585393 0.5 0 -0.073349005429332273 0.47921852398434828 0 -0.067236190389585393 0.5 0 -0.073349005429332273 0.47921852398434828 0 -0.096336958616933588 0.5 0 -0.073349005429332273 0.47921852398434828 0 -0.096336958616933588 0.5 0 -0.093805091172543903 0.47224368257650851 0 -0.052402143273794041 0.47435943831340011 0 -0.073349005429332273 0.47921852398434828 0 -0.0708836913324285 0.45273085842607269 0 -0.0708836913324285 0.45273085842607269 0 -0.1043361340672995 0.45358667135048331 0 -0.093805091172543903 0.47224368257650851 0 -0.090582213275806372 0.43325937369158968 0 -0.0708836913324285 0.45273085842607269 0 -0.1043361340672995 0.45358667135048331 0 -0.090582213275806372 0.43325937369158968 0 -0.066022972602334681 0.42956105407568013 0 -0.0708836913324285 0.45273085842607269 0 -0.090582213275806372 0.43325937369158968 0 -0.0708836913324285 0.45273085842607269 0 -0.073349005429332273 0.47921852398434828 0 -0.0708836913324285 0.45273085842607269 0 -0.093805091172543903 0.47224368257650851 0 -0.1043361340672995 0.45358667135048331 0 -0.12052644250191399 0.4682622397032008 0 -0.093805091172543903 0.47224368257650851 0 -0.1104760497445479 0.43296770510105842 0 -0.090582213275806372 0.43325937369158968 0 -0.1043361340672995 0.45358667135048331 0 -0.12618187852634369 0.45882241462805679 0 -0.1043361340672995 0.45358667135048331 0 -0.1248743097581413 0.44162978393037222 0 -0.1104760497445479 0.43296770510105842 0 -0.1043361340672995 0.45358667135048331 0 -0.1248743097581413 0.44162978393037222 0 -0.12618187852634369 0.45882241462805679 0 -0.1043361340672995 0.45358667135048331 0 -0.12052644250191399 0.4682622397032008 0 -0.1317912103042716 0.47600940211286807 0 -0.12052644250191399 0.4682622397032008 0 -0.11642361318749669 0.48420448820259387 0 -0.12052644250191399 0.4682622397032008 0 -0.11642361318749669 0.48420448820259387 0 -0.093805091172543903 0.47224368257650851 0 -0.12543772684428189 0.5 0 -0.11642361318749669 0.48420448820259387 0 -0.096336958616933588 0.5 0 -0.12543772684428189 0.5 0 -0.13178312884530541 0.48627570230508688 0 -0.11642361318749669 0.48420448820259387 0 -0.11642361318749669 0.48420448820259387 0 -0.096336958616933588 0.5 0 -0.093805091172543903 0.47224368257650851 0 -0.1693268494853358 0.079538523923443544 0 -0.16945340910355561 0.089496265134995978 0 -0.1618062267740645 0.07958177760614682 0 -0.16945340910355561 0.089496265134995978 0 -0.1618062267740645 0.07958177760614682 0 -0.1616157516695074 0.095139316102685473 0 -0.1618062267740645 0.07958177760614682 0 -0.1616157516695074 0.095139316102685473 0 -0.14767322655010931 0.084806545451415583 0 -0.1618062267740645 0.07958177760614682 0 -0.16640070467345031 0.07104807823334372 0 -0.15517576509654349 0.068304766057398533 0 -0.16640070467345031 0.07104807823334372 0 -0.15517576509654349 0.068304766057398533 0 -0.16451238623864939 0.061110077383343737 0 -0.16640070467345031 0.07104807823334372 0 -0.17354141001077031 0.063798093567348918 0 -0.16451238623864939 0.061110077383343737 0 -0.17157411485926041 0.074087910936242465 0 -0.16640070467345031 0.07104807823334372 0 -0.17354141001077031 0.063798093567348918 0 -0.1693268494853358 0.079538523923443544 0 -0.17157411485926041 0.074087910936242465 0 -0.16640070467345031 0.07104807823334372 0 -0.1693268494853358 0.079538523923443544 0 -0.1618062267740645 0.07958177760614682 0 -0.16640070467345031 0.07104807823334372 0 -0.17354141001077031 0.063798093567348918 0 -0.17702749526748529 0.081966948020833708 0 -0.17656426821359539 0.052679136019797047 0 -0.18185637422210199 0.067243003367259677 0 -0.17702749526748529 0.081966948020833708 0 -0.17656426821359539 0.052679136019797047 0 -0.17702749526748529 0.081966948020833708 0 -0.17656426821359539 0.052679136019797047 0 -0.17157411485926041 0.074087910936242465 0 -0.17354141001077031 0.063798093567348918 0 -0.17702749526748529 0.081966948020833708 0 -0.18185637422210199 0.067243003367259677 0 -0.1853153676200878 0.058850167416455039 0 -0.18892740292417859 0.064703221589215376 0 -0.18185637422210199 0.067243003367259677 0 -0.19050021368002351 0.072419239531055349 0 -0.18892740292417859 0.064703221589215376 0 -0.18185637422210199 0.067243003367259677 0 -0.18141962227324601 0.075216957450553817 0 -0.17702749526748529 0.081966948020833708 0 -0.18185637422210199 0.067243003367259677 0 -0.18141962227324601 0.075216957450553817 0 -0.19050021368002351 0.072419239531055349 0 -0.18141962227324601 0.075216957450553817 0 -0.1867192510276118 0.077748512173410014 0 -0.19050021368002351 0.072419239531055349 0 -0.18141962227324601 0.075216957450553817 0 -0.1867192510276118 0.077748512173410014 0 -0.1819129998543452 0.079414551687582866 0 -0.18248563084903771 0.082725789105533951 0 -0.17702749526748529 0.081966948020833708 0 -0.17749072232138041 0.1112547600218704 0 -0.1867192510276118 0.077748512173410014 0 -0.18248563084903771 0.082725789105533951 0 -0.1819129998543452 0.079414551687582866 0 -0.18141962227324601 0.075216957450553817 0 -0.1819129998543452 0.079414551687582866 0 -0.17702749526748529 0.081966948020833708 0 -0.18248563084903771 0.082725789105533951 0 -0.1819129998543452 0.079414551687582866 0 -0.17702749526748529 0.081966948020833708 0 -0.1693268494853358 0.079538523923443544 0 -0.16945340910355561 0.089496265134995978 0 -0.17702749526748529 0.081966948020833708 0 -0.1693268494853358 0.079538523923443544 0 -0.17157411485926041 0.074087910936242465 0 -0.17702749526748529 0.081966948020833708 0 -0.17702749526748529 0.081966948020833708 0 -0.17749072232138041 0.1112547600218704 0 -0.16945340910355561 0.089496265134995978 0 -0.17702749526748529 0.081966948020833708 0 -0.17749072232138041 0.1112547600218704 0 -0.17749072232138041 0.1112547600218704 0 -0.1951643137470572 0.093770439387570487 0 -0.18248563084903771 0.082725789105533951 0 -0.17749072232138041 0.1112547600218704 0 -0.1951643137470572 0.093770439387570487 0 -0.17749072232138041 0.1112547600218704 0 -0.19150979458678249 0.1243728737611647 0 -0.17789558253256721 0.1368522929207025 0 -0.17749072232138041 0.1112547600218704 0 -0.17789558253256721 0.1368522929207025 0 -0.17749072232138041 0.1112547600218704 0 -0.16113979031376621 0.12743058591966341 0 -0.17749072232138041 0.1112547600218704 0 -0.15084139672814201 0.110160429760413 0 -0.16113979031376621 0.12743058591966341 0 -0.17749072232138041 0.1112547600218704 0 -0.1616157516695074 0.095139316102685473 0 -0.15084139672814201 0.110160429760413 0 -0.16945340910355561 0.089496265134995978 0 -0.17749072232138041 0.1112547600218704 0 -0.1616157516695074 0.095139316102685473 0 -0.1616157516695074 0.095139316102685473 0 -0.15084139672814201 0.110160429760413 0 -0.14767322655010931 0.084806545451415583 0 -0.15084139672814201 0.110160429760413 0 -0.1348328660863515 0.097215266237156234 0 -0.14767322655010931 0.084806545451415583 0 -0.15084139672814201 0.110160429760413 0 -0.13137241316615089 0.11357835761918721 0 -0.14300315410871919 0.1253406317882016 0 -0.15084139672814201 0.110160429760413 0 -0.16113979031376621 0.12743058591966341 0 -0.14300315410871919 0.1253406317882016 0 -0.13137241316615089 0.11357835761918721 0 -0.14300315410871919 0.1253406317882016 0 -0.12687331202938101 0.13192737382428379 0 -0.13137241316615089 0.11357835761918721 0 -0.1348328660863515 0.097215266237156234 0 -0.1198812247159142 0.095002477965890675 0 -0.15084139672814201 0.110160429760413 0 -0.13137241316615089 0.11357835761918721 0 -0.1348328660863515 0.097215266237156234 0 -0.1348328660863515 0.097215266237156234 0 -0.12533951967512769 0.078274991835817334 0 -0.1198812247159142 0.095002477965890675 0 -0.1348328660863515 0.097215266237156234 0 -0.12533951967512769 0.078274991835817334 0 -0.14767322655010931 0.084806545451415583 0 -0.1618062267740645 0.07958177760614682 0 -0.14767322655010931 0.084806545451415583 0 -0.15517576509654349 0.068304766057398533 0 -0.14767322655010931 0.084806545451415583 0 -0.15517576509654349 0.068304766057398533 0 -0.14001017723872511 0.063978020277280875 0 -0.12533951967512769 0.078274991835817334 0 -0.14767322655010931 0.084806545451415583 0 -0.14001017723872511 0.063978020277280875 0 -0.12533951967512769 0.078274991835817334 0 -0.14001017723872511 0.063978020277280875 0 -0.1248745965026067 0.059896082918310993 0 -0.14001017723872511 0.063978020277280875 0 -0.13626681081840961 0.042829268155062397 0 -0.1248745965026067 0.059896082918310993 0 -0.13626681081840961 0.042829268155062397 0 -0.1339340902388827 0.022300844741854581 0 -0.1180188049733784 0.030804183747700629 0 -0.13626681081840961 0.042829268155062397 0 -0.1339340902388827 0.022300844741854581 0 -0.15968783393996419 0.037567277286728401 0 -0.13626681081840961 0.042829268155062397 0 -0.15351002702878311 0.053877414325468623 0 -0.15968783393996419 0.037567277286728401 0 -0.13626681081840961 0.042829268155062397 0 -0.15968783393996419 0.037567277286728401 0 -0.14001017723872511 0.063978020277280875 0 -0.13626681081840961 0.042829268155062397 0 -0.15351002702878311 0.053877414325468623 0 -0.15517576509654349 0.068304766057398533 0 -0.14001017723872511 0.063978020277280875 0 -0.15351002702878311 0.053877414325468623 0 -0.12735709500343681 0.004015926865657337 0 -0.15177498865293759 0.016606981474429749 0 -0.12735709500343681 0.004015926865657337 0 -0.1339340902388827 0.022300844741854581 0 -0.15177498865293759 0.016606981474429749 0 -0.12735709500343681 0.004015926865657337 0 -0.1339340902388827 0.022300844741854581 0 -0.11835839359799651 0.016938700943610479 0 -0.1339340902388827 0.022300844741854581 0 -0.15177498865293759 0.016606981474429749 0 -0.15968783393996419 0.037567277286728401 0 -0.1339340902388827 0.022300844741854581 0 -0.15968783393996419 0.037567277286728401 0 -0.12735709500343681 0.004015926865657337 0 -0.15177498865293759 0.016606981474429749 0 -0.14801408494475049 0.0031182785745780331 0 -0.15177498865293759 0.016606981474429749 0 -0.14801408494475049 0.0031182785745780331 0 -0.1619193683370386 0.0066468078375689294 0 -0.15773416148281841 -0.0035868741371463562 0 -0.14801408494475049 0.0031182785745780331 0 -0.1619193683370386 0.0066468078375689294 0 -0.15177498865293759 0.016606981474429749 0 -0.1619193683370386 0.0066468078375689294 0 -0.16760309597538539 0.015861310899326669 0 -0.16716832075785379 -0.0032078365625175 0 -0.1619193683370386 0.0066468078375689294 0 -0.17584419881677341 0.0071523107965592754 0 -0.1619193683370386 0.0066468078375689294 0 -0.16760309597538539 0.015861310899326669 0 -0.17584419881677341 0.0071523107965592754 0 -0.15177498865293759 0.016606981474429749 0 -0.17619288230243149 0.029198036083215671 0 -0.15177498865293759 0.016606981474429749 0 -0.17619288230243149 0.029198036083215671 0 -0.15968783393996419 0.037567277286728401 0 -0.15177498865293759 0.016606981474429749 0 -0.16760309597538539 0.015861310899326669 0 -0.17619288230243149 0.029198036083215671 0 -0.17619288230243149 0.029198036083215671 0 -0.1852069371874478 0.015311100034367831 0 -0.17584419881677341 0.0071523107965592754 0 -0.17619288230243149 0.029198036083215671 0 -0.17584419881677341 0.0071523107965592754 0 -0.16760309597538539 0.015861310899326669 0 -0.17619288230243149 0.029198036083215671 0 -0.17584419881677341 0.0071523107965592754 0 -0.17619288230243149 0.029198036083215671 0 -0.19572946351785711 0.039272048382664133 0 -0.19029700863621521 0.024089069561314659 0 -0.17619288230243149 0.029198036083215671 0 -0.1852069371874478 0.015311100034367831 0 -0.19029700863621521 0.024089069561314659 0 -0.1852069371874478 0.015311100034367831 0 -0.18717715497560061 0.0062623078557712403 0 -0.17584419881677341 0.0071523107965592754 0 -0.18154179604087481 -0.0036104187285780349 0 -0.18717715497560061 0.0062623078557712403 0 -0.17584419881677341 0.0071523107965592754 0 -0.15351002702878311 0.053877414325468623 0 -0.1659033968134131 0.050269055427132232 0 -0.15968783393996419 0.037567277286728401 0 -0.1659033968134131 0.050269055427132232 0 -0.16451238623864939 0.061110077383343737 0 -0.17656426821359539 0.052679136019797047 0 -0.17354141001077031 0.063798093567348918 0 -0.16451238623864939 0.061110077383343737 0 -0.17656426821359539 0.052679136019797047 0 -0.16451238623864939 0.061110077383343737 0 -0.17656426821359539 0.052679136019797047 0 -0.15351002702878311 0.053877414325468623 0 -0.1659033968134131 0.050269055427132232 0 -0.16451238623864939 0.061110077383343737 0 -0.15517576509654349 0.068304766057398533 0 -0.15351002702878311 0.053877414325468623 0 -0.16451238623864939 0.061110077383343737 0 -0.15968783393996419 0.037567277286728401 0 -0.1762663423330757 0.033842591165095401 0 -0.1659033968134131 0.050269055427132232 0 -0.15968783393996419 0.037567277286728401 0 -0.1764827173319595 0.047523031967639129 0 -0.17619288230243149 0.029198036083215671 0 -0.15968783393996419 0.037567277286728401 0 -0.1762663423330757 0.033842591165095401 0 -0.15968783393996419 0.037567277286728401 0 -0.1764827173319595 0.047523031967639129 0 -0.15968783393996419 0.037567277286728401 0 -0.1762663423330757 0.033842591165095401 0 -0.1764827173319595 0.047523031967639129 0 -0.17619288230243149 0.029198036083215671 0 -0.19572946351785711 0.039272048382664133 0 -0.181281627628781 0.040827380692469641 0 -0.18051660755046151 0.049914261515807259 0 -0.1764827173319595 0.047523031967639129 0 -0.17619288230243149 0.029198036083215671 0 -0.1762663423330757 0.033842591165095401 0 -0.19572946351785711 0.039272048382664133 0 -0.1762663423330757 0.033842591165095401 0 -0.181281627628781 0.040827380692469641 0 -0.19572946351785711 0.039272048382664133 0 -0.1762663423330757 0.033842591165095401 0 -0.181281627628781 0.040827380692469641 0 -0.1764827173319595 0.047523031967639129 0 -0.1762663423330757 0.033842591165095401 0 -0.1764827173319595 0.047523031967639129 0 -0.17619288230243149 0.029198036083215671 0 -0.1762663423330757 0.033842591165095401 0 -0.181281627628781 0.040827380692469641 0 -0.18051660755046151 0.049914261515807259 0 -0.19572946351785711 0.039272048382664133 0 -0.18051660755046151 0.049914261515807259 0 -0.17656426821359539 0.052679136019797047 0 -0.1853153676200878 0.058850167416455039 0 -0.18051660755046151 0.049914261515807259 0 -0.1764827173319595 0.047523031967639129 0 -0.1764827173319595 0.047523031967639129 0 -0.17656426821359539 0.052679136019797047 0 -0.1659033968134131 0.050269055427132232 0 -0.1764827173319595 0.047523031967639129 0 -0.17656426821359539 0.052679136019797047 0 -0.18051660755046151 0.049914261515807259 0 -0.1764827173319595 0.047523031967639129 0 -0.17656426821359539 0.052679136019797047 0 -0.18051660755046151 0.049914261515807259 0 -0.17656426821359539 0.052679136019797047 0 -0.18185637422210199 0.067243003367259677 0 -0.17656426821359539 0.052679136019797047 0 -0.1853153676200878 0.058850167416455039 0 -0.1853153676200878 0.058850167416455039 0 -0.19803765617450109 0.060300476042091433 0 -0.18892740292417859 0.064703221589215376 0 -0.18051660755046151 0.049914261515807259 0 -0.19803765617450109 0.060300476042091433 0 -0.1977866825790292 0.05007637869738242 0 -0.18051660755046151 0.049914261515807259 0 -0.1853153676200878 0.058850167416455039 0 -0.19803765617450109 0.060300476042091433 0 -0.18051660755046151 0.049914261515807259 0 -0.19803765617450109 0.060300476042091433 0 -0.19803765617450109 0.060300476042091433 0 -0.1977866825790292 0.05007637869738242 0 -0.2066297839190599 0.054855205218219752 0 -0.18051660755046151 0.049914261515807259 0 -0.1977866825790292 0.05007637869738242 0 -0.19572946351785711 0.039272048382664133 0 -0.18051660755046151 0.049914261515807259 0 -0.19572946351785711 0.039272048382664133 0 -0.19572946351785711 0.039272048382664133 0 -0.2098237389609823 0.029412342647955388 0 -0.1977866825790292 0.05007637869738242 0 -0.19572946351785711 0.039272048382664133 0 -0.2073344650466164 0.045256152092875389 0 -0.19572946351785711 0.039272048382664133 0 -0.2073344650466164 0.045256152092875389 0 -0.2073344650466164 0.045256152092875389 0 -0.21702036639386221 0.038769314305699548 0 -0.2098237389609823 0.029412342647955388 0 -0.19572946351785711 0.039272048382664133 0 -0.2073344650466164 0.045256152092875389 0 -0.2098237389609823 0.029412342647955388 0 -0.21702036639386221 0.038769314305699548 0 -0.2098237389609823 0.029412342647955388 0 -0.2284051488343061 0.035137669629428533 0 -0.2073344650466164 0.045256152092875389 0 -0.21702036639386221 0.038769314305699548 0 -0.22251811273354419 0.045271092852538893 0 -0.2073344650466164 0.045256152092875389 0 -0.21769334509658461 0.055951218203848879 0 -0.22251811273354419 0.045271092852538893 0 -0.21769334509658461 0.055951218203848879 0 -0.20947987249717179 0.060448397508133619 0 -0.2066297839190599 0.054855205218219752 0 -0.21769334509658461 0.055951218203848879 0 -0.20947987249717179 0.060448397508133619 0 -0.2155587047985415 0.070686690568374386 0 -0.19803765617450109 0.060300476042091433 0 -0.20947987249717179 0.060448397508133619 0 -0.2066297839190599 0.054855205218219752 0 -0.1977866825790292 0.05007637869738242 0 -0.2073344650466164 0.045256152092875389 0 -0.2066297839190599 0.054855205218219752 0 -0.2073344650466164 0.045256152092875389 0 -0.21769334509658461 0.055951218203848879 0 -0.2066297839190599 0.054855205218219752 0 -0.1989264366345522 -0.0080023544535597537 0 -0.1965234412062255 0.0098537758749781944 0 -0.20713549204565579 6.5395444916274768e-05 0 -0.19066530249761049 -0.0041303576494283751 0 -0.18717715497560061 0.0062623078557712403 0 -0.1965234412062255 0.0098537758749781944 0 -0.1852069371874478 0.015311100034367831 0 -0.18717715497560061 0.0062623078557712403 0 -0.1965234412062255 0.0098537758749781944 0 -0.1965234412062255 0.0098537758749781944 0 -0.20113962024173071 0.02227838771243261 0 -0.2107847094499361 0.011405203725301251 0 -0.19572946351785711 0.039272048382664133 0 -0.20113962024173071 0.02227838771243261 0 -0.2098237389609823 0.029412342647955388 0 -0.19572946351785711 0.039272048382664133 0 -0.20113962024173071 0.02227838771243261 0 -0.19029700863621521 0.024089069561314659 0 -0.1965234412062255 0.0098537758749781944 0 -0.20113962024173071 0.02227838771243261 0 -0.19029700863621521 0.024089069561314659 0 -0.1852069371874478 0.015311100034367831 0 -0.1965234412062255 0.0098537758749781944 0 -0.19029700863621521 0.024089069561314659 0 -0.2098237389609823 0.029412342647955388 0 -0.2107847094499361 0.011405203725301251 0 -0.22391801440410891 0.019552636913248388 0 -0.20113962024173071 0.02227838771243261 0 -0.2098237389609823 0.029412342647955388 0 -0.2107847094499361 0.011405203725301251 0 -0.2098237389609823 0.029412342647955388 0 -0.22391801440410891 0.019552636913248388 0 -0.21702438745170211 -0.0043907958627755336 0 -0.2107847094499361 0.011405203725301251 0 -0.20713549204565579 6.5395444916274768e-05 0 -0.21702438745170211 -0.0043907958627755336 0 -0.2107847094499361 0.011405203725301251 0 -0.22391801440410891 0.019552636913248388 0 -0.1965234412062255 0.0098537758749781944 0 -0.2107847094499361 0.011405203725301251 0 -0.20713549204565579 6.5395444916274768e-05 0 -0.22867745033346079 0.0038692188645070222 0 -0.22391801440410891 0.019552636913248388 0 -0.2344599051246074 0.012178015861532989 0 -0.21702438745170211 -0.0043907958627755336 0 -0.22391801440410891 0.019552636913248388 0 -0.21702438745170211 -0.0043907958627755336 0 -0.22867745033346079 0.0038692188645070222 0 -0.22391801440410891 0.019552636913248388 0 -0.22391801440410891 0.019552636913248388 0 -0.2403792472176362 0.02548084658656756 0 -0.2344599051246074 0.012178015861532989 0 -0.2098237389609823 0.029412342647955388 0 -0.22391801440410891 0.019552636913248388 0 -0.2284051488343061 0.035137669629428533 0 -0.22391801440410891 0.019552636913248388 0 -0.2403792472176362 0.02548084658656756 0 -0.2284051488343061 0.035137669629428533 0 -0.22391801440410891 0.019552636913248388 0 -0.2344599051246074 0.012178015861532989 0 -0.22391801440410891 0.019552636913248388 0 -0.2284051488343061 0.035137669629428533 0 -0.2522816967992324 0.037264740289820159 0 -0.25157722050270093 0.012682655753942951 0 -0.2403792472176362 0.02548084658656756 0 -0.25157722050270093 0.012682655753942951 0 -0.2403792472176362 0.02548084658656756 0 -0.2344599051246074 0.012178015861532989 0 -0.25267499080189931 -0.0034516002120552492 0 -0.25157722050270093 0.012682655753942951 0 -0.2401015516947359 0.00075261550232862703 0 -0.25157722050270093 0.012682655753942951 0 -0.2344599051246074 0.012178015861532989 0 -0.2401015516947359 0.00075261550232862703 0 -0.22867745033346079 0.0038692188645070222 0 -0.2344599051246074 0.012178015861532989 0 -0.2401015516947359 0.00075261550232862703 0 -0.21769334509658461 0.055951218203848879 0 -0.23255980098598539 0.056775429521547523 0 -0.2155587047985415 0.070686690568374386 0 -0.23289228326450309 0.050722702345608793 0 -0.22641588552015429 0.052180110730886013 0 -0.22251811273354419 0.045271092852538893 0 -0.23289228326450309 0.050722702345608793 0 -0.23255980098598539 0.056775429521547523 0 -0.22641588552015429 0.052180110730886013 0 -0.21769334509658461 0.055951218203848879 0 -0.23255980098598539 0.056775429521547523 0 -0.22641588552015429 0.052180110730886013 0 -0.21769334509658461 0.055951218203848879 0 -0.22641588552015429 0.052180110730886013 0 -0.22251811273354419 0.045271092852538893 0 -0.21702036639386221 0.038769314305699548 0 -0.22251811273354419 0.045271092852538893 0 -0.2284051488343061 0.035137669629428533 0 -0.23289228326450309 0.050722702345608793 0 -0.22251811273354419 0.045271092852538893 0 -0.2284051488343061 0.035137669629428533 0 -0.23289228326450309 0.050722702345608793 0 -0.2284051488343061 0.035137669629428533 0 -0.2522816967992324 0.037264740289820159 0 -0.2403792472176362 0.02548084658656756 0 -0.2284051488343061 0.035137669629428533 0 -0.2522816967992324 0.037264740289820159 0 -0.23289228326450309 0.050722702345608793 0 -0.2284051488343061 0.035137669629428533 0 -0.2522816967992324 0.037264740289820159 0 -0.23289228326450309 0.050722702345608793 0 -0.23255980098598539 0.056775429521547523 0 -0.2522816967992324 0.037264740289820159 0 -0.23255980098598539 0.056775429521547523 0 -0.2522816967992324 0.037264740289820159 0 -0.23255980098598539 0.056775429521547523 0 -0.24906194248509719 0.058488871325365822 0 -0.23255980098598539 0.056775429521547523 0 -0.24906194248509719 0.058488871325365822 0 -0.23770452364983391 0.071010308971772351 0 -0.26257114212692878 0.06573449919026883 0 -0.24906194248509719 0.058488871325365822 0 -0.23770452364983391 0.071010308971772351 0 -0.25261226255175379 0.080423606239198905 0 -0.23770452364983391 0.071010308971772351 0 -0.23158356521460469 0.085326977986282804 0 -0.25261226255175379 0.080423606239198905 0 -0.23158356521460469 0.085326977986282804 0 -0.24377998071086901 0.096378574065869249 0 -0.23158356521460469 0.085326977986282804 0 -0.21283790517273879 0.076286118753275345 0 -0.22135706029896429 0.097751395037259853 0 -0.23158356521460469 0.085326977986282804 0 -0.22135706029896429 0.097751395037259853 0 -0.24377998071086901 0.096378574065869249 0 -0.23255980098598539 0.056775429521547523 0 -0.21283790517273879 0.076286118753275345 0 -0.23770452364983391 0.071010308971772351 0 -0.23158356521460469 0.085326977986282804 0 -0.21283790517273879 0.076286118753275345 0 -0.23255980098598539 0.056775429521547523 0 -0.23770452364983391 0.071010308971772351 0 -0.21283790517273879 0.076286118753275345 0 -0.23255980098598539 0.056775429521547523 0 -0.21283790517273879 0.076286118753275345 0 -0.2155587047985415 0.070686690568374386 0 -0.23770452364983391 0.071010308971772351 0 -0.21283790517273879 0.076286118753275345 0 -0.19803765617450109 0.060300476042091433 0 -0.20947987249717179 0.060448397508133619 0 -0.2155587047985415 0.070686690568374386 0 -0.19803765617450109 0.060300476042091433 0 -0.20333782300263301 0.070680183335342567 0 -0.2155587047985415 0.070686690568374386 0 -0.19803765617450109 0.060300476042091433 0 -0.2155587047985415 0.070686690568374386 0 -0.21283790517273879 0.076286118753275345 0 -0.19766176801088831 0.079505953929404904 0 -0.20333782300263301 0.070680183335342567 0 -0.21283790517273879 0.076286118753275345 0 -0.19766176801088831 0.079505953929404904 0 -0.20333782300263301 0.070680183335342567 0 -0.21283790517273879 0.076286118753275345 0 -0.2155587047985415 0.070686690568374386 0 -0.21283790517273879 0.076286118753275345 0 -0.1951643137470572 0.093770439387570487 0 -0.22135706029896429 0.097751395037259853 0 -0.21283790517273879 0.076286118753275345 0 -0.1951643137470572 0.093770439387570487 0 -0.21283790517273879 0.076286118753275345 0 -0.19766176801088831 0.079505953929404904 0 -0.1951643137470572 0.093770439387570487 0 -0.18248563084903771 0.082725789105533951 0 -0.19766176801088831 0.079505953929404904 0 -0.1951643137470572 0.093770439387570487 0 -0.1867192510276118 0.077748512173410014 0 -0.18248563084903771 0.082725789105533951 0 -0.19766176801088831 0.079505953929404904 0 -0.18248563084903771 0.082725789105533951 0 -0.19766176801088831 0.079505953929404904 0 -0.1867192510276118 0.077748512173410014 0 -0.19766176801088831 0.079505953929404904 0 -0.19050021368002351 0.072419239531055349 0 -0.19803765617450109 0.060300476042091433 0 -0.19050021368002351 0.072419239531055349 0 -0.18892740292417859 0.064703221589215376 0 -0.19803765617450109 0.060300476042091433 0 -0.20333782300263301 0.070680183335342567 0 -0.19050021368002351 0.072419239531055349 0 -0.20333782300263301 0.070680183335342567 0 -0.19766176801088831 0.079505953929404904 0 -0.19050021368002351 0.072419239531055349 0 -0.17749072232138041 0.1112547600218704 0 -0.19150979458678249 0.1243728737611647 0 -0.1951643137470572 0.093770439387570487 0 -0.19150979458678249 0.1243728737611647 0 -0.1951643137470572 0.093770439387570487 0 -0.20994497012605751 0.11823125198409511 0 -0.1951643137470572 0.093770439387570487 0 -0.20994497012605751 0.11823125198409511 0 -0.22135706029896429 0.097751395037259853 0 -0.20994497012605751 0.11823125198409511 0 -0.2348316268224595 0.11651500804646669 0 -0.2235388627286797 0.12965651036182041 0 -0.20994497012605751 0.11823125198409511 0 -0.22135706029896429 0.097751395037259853 0 -0.2348316268224595 0.11651500804646669 0 -0.22135706029896429 0.097751395037259853 0 -0.24377998071086901 0.096378574065869249 0 -0.2348316268224595 0.11651500804646669 0 -0.25136603029008331 0.1103208693098497 0 -0.24377998071086901 0.096378574065869249 0 -0.2348316268224595 0.11651500804646669 0 -0.25922316449870308 0.12628093809151891 0 -0.25136603029008331 0.1103208693098497 0 -0.2348316268224595 0.11651500804646669 0 -0.25922316449870308 0.12628093809151891 0 -0.2348316268224595 0.11651500804646669 0 -0.2369615480924761 0.1404602413506009 0 -0.2369615480924761 0.1404602413506009 0 -0.2235388627286797 0.12965651036182041 0 -0.2124173058737257 0.14341954006611901 0 -0.2348316268224595 0.11651500804646669 0 -0.2369615480924761 0.1404602413506009 0 -0.2235388627286797 0.12965651036182041 0 -0.2369615480924761 0.1404602413506009 0 -0.22679867445049531 0.16064067306310431 0 -0.2124173058737257 0.14341954006611901 0 -0.2369615480924761 0.1404602413506009 0 -0.247018622616726 0.15992587597476091 0 -0.22679867445049531 0.16064067306310431 0 -0.25846103874104392 0.14702121199507179 0 -0.2369615480924761 0.1404602413506009 0 -0.247018622616726 0.15992587597476091 0 -0.247018622616726 0.15992587597476091 0 -0.23359887481107691 0.1809086922627815 0 -0.247018622616726 0.15992587597476091 0 -0.23359887481107691 0.1809086922627815 0 -0.22679867445049531 0.16064067306310431 0 -0.26439180367967152 0.18225540552070321 0 -0.247018622616726 0.15992587597476091 0 -0.23359887481107691 0.1809086922627815 0 -0.23359887481107691 0.1809086922627815 0 -0.20517995294037331 0.17379218369948349 0 -0.2201791270054278 0.2018915085508021 0 -0.23359887481107691 0.1809086922627815 0 -0.22679867445049531 0.16064067306310431 0 -0.20517995294037331 0.17379218369948349 0 -0.22679867445049531 0.16064067306310431 0 -0.20517995294037331 0.17379218369948349 0 -0.2124173058737257 0.14341954006611901 0 -0.20517995294037331 0.17379218369948349 0 -0.19274338499996449 0.14807478539393409 0 -0.17830044274374979 0.16244982581953471 0 -0.19150979458678249 0.1243728737611647 0 -0.19274338499996449 0.14807478539393409 0 -0.2124173058737257 0.14341954006611901 0 -0.20994497012605751 0.11823125198409511 0 -0.2235388627286797 0.12965651036182041 0 -0.2124173058737257 0.14341954006611901 0 -0.19150979458678249 0.1243728737611647 0 -0.20994497012605751 0.11823125198409511 0 -0.2124173058737257 0.14341954006611901 0 -0.20517995294037331 0.17379218369948349 0 -0.19274338499996449 0.14807478539393409 0 -0.2124173058737257 0.14341954006611901 0 -0.22371849106378741 0.2462845034026982 0 -0.23019370483249479 0.22382880503591951 0 -0.2066863838603582 0.24242880758937649 0 -0.22371849106378741 0.2462845034026982 0 -0.23951274761537589 0.2474853768326048 0 -0.23019370483249479 0.22382880503591951 0 -0.25272375818517617 0.22994970808158929 0 -0.25621817608628389 0.2460965770837312 0 -0.23951274761537589 0.2474853768326048 0 -0.25370102580463139 0.2052288024824625 0 -0.25272375818517617 0.22994970808158929 0 -0.23019370483249479 0.22382880503591951 0 -0.25272375818517617 0.22994970808158929 0 -0.23951274761537589 0.2474853768326048 0 -0.23019370483249479 0.22382880503591951 0 -0.25370102580463139 0.2052288024824625 0 -0.23359887481107691 0.1809086922627815 0 -0.2201791270054278 0.2018915085508021 0 -0.25370102580463139 0.2052288024824625 0 -0.23019370483249479 0.22382880503591951 0 -0.2201791270054278 0.2018915085508021 0 -0.23019370483249479 0.22382880503591951 0 -0.2201791270054278 0.2018915085508021 0 -0.20675937919977869 0.22287432483882261 0 -0.25370102580463139 0.2052288024824625 0 -0.23019370483249479 0.22382880503591951 0 -0.23359887481107691 0.1809086922627815 0 -0.2201791270054278 0.2018915085508021 0 -0.20517995294037331 0.17379218369948349 0 -0.2201791270054278 0.2018915085508021 0 -0.19686056424972551 0.20437535499954981 0 -0.20517995294037331 0.17379218369948349 0 -0.19686056424972551 0.20437535499954981 0 -0.17870530295493239 0.18804735871836689 0 -0.19686056424972551 0.20437535499954981 0 -0.20675937919977869 0.22287432483882261 0 -0.19122946023172571 0.22600186257262461 0 -0.19686056424972551 0.20437535499954981 0 -0.19122946023172571 0.22600186257262461 0 -0.179110163166115 0.21364489161719899 0 -0.2201791270054278 0.2018915085508021 0 -0.19686056424972551 0.20437535499954981 0 -0.20675937919977869 0.22287432483882261 0 -0.2201791270054278 0.2018915085508021 0 -0.20675937919977869 0.22287432483882261 0 -0.23019370483249479 0.22382880503591951 0 -0.2066863838603582 0.24242880758937649 0 -0.23019370483249479 0.22382880503591951 0 -0.20675937919977869 0.22287432483882261 0 -0.2066863838603582 0.24242880758937649 0 -0.20675937919977869 0.22287432483882261 0 -0.19333963139412971 0.24385714112684301 0 -0.20675937919977869 0.22287432483882261 0 -0.19122946023172571 0.22600186257262461 0 -0.19333963139412971 0.24385714112684301 0 -0.19122946023172571 0.22600186257262461 0 -0.19333963139412971 0.24385714112684301 0 -0.17951502337729761 0.2392424245160312 0 -0.20675937919977869 0.22287432483882261 0 -0.19333963139412971 0.24385714112684301 0 -0.2066863838603582 0.24242880758937649 0 -0.18259587964237009 0.2606558300825601 0 -0.19333963139412971 0.24385714112684301 0 -0.2066863838603582 0.24242880758937649 0 -0.21408768962570049 0.25938306782852782 0 -0.22371849106378741 0.2462845034026982 0 -0.2066863838603582 0.24242880758937649 0 -0.1532221513837192 0.25419418888983192 0 -0.17951502337729761 0.2392424245160312 0 -0.15110003921584569 0.22881829817408891 0 -0.18259587964237009 0.2606558300825601 0 -0.19333963139412971 0.24385714112684301 0 -0.17951502337729761 0.2392424245160312 0 -0.17951502337729761 0.2392424245160312 0 -0.1619547442009632 0.2162214427956837 0 -0.179110163166115 0.21364489161719899 0 -0.19122946023172571 0.22600186257262461 0 -0.17951502337729761 0.2392424245160312 0 -0.179110163166115 0.21364489161719899 0 -0.17951502337729761 0.2392424245160312 0 -0.179110163166115 0.21364489161719899 0 -0.17951502337729761 0.2392424245160312 0 -0.1619547442009632 0.2162214427956837 0 -0.15110003921584569 0.22881829817408891 0 -0.1619547442009632 0.2162214427956837 0 -0.179110163166115 0.21364489161719899 0 -0.17870530295493239 0.18804735871836689 0 -0.19686056424972551 0.20437535499954981 0 -0.179110163166115 0.21364489161719899 0 -0.17870530295493239 0.18804735871836689 0 -0.179110163166115 0.21364489161719899 0 -0.17870530295493239 0.18804735871836689 0 -0.1619547442009632 0.2162214427956837 0 -0.17870530295493239 0.18804735871836689 0 -0.15775407484820861 0.18727827749961631 0 -0.14804225966403101 0.20585853828705919 0 -0.15775407484820861 0.18727827749961631 0 -0.13876353146598761 0.18223131465273959 0 -0.1619547442009632 0.2162214427956837 0 -0.14804225966403101 0.20585853828705919 0 -0.15775407484820861 0.18727827749961631 0 -0.13876353146598761 0.18223131465273959 0 -0.1245765098090509 0.17966052017845999 0 -0.1190175871807343 0.20067046473278771 0 -0.14804225966403101 0.20585853828705919 0 -0.13876353146598761 0.18223131465273959 0 -0.1190175871807343 0.20067046473278771 0 -0.14804225966403101 0.20585853828705919 0 -0.13479108425045189 0.2189379304695287 0 -0.1190175871807343 0.20067046473278771 0 -0.13479108425045189 0.2189379304695287 0 -0.12594818007053379 0.2253828658525201 0 -0.1190175871807343 0.20067046473278771 0 -0.1619547442009632 0.2162214427956837 0 -0.14804225966403101 0.20585853828705919 0 -0.15110003921584569 0.22881829817408891 0 -0.14804225966403101 0.20585853828705919 0 -0.15110003921584569 0.22881829817408891 0 -0.13479108425045189 0.2189379304695287 0 -0.15110003921584569 0.22881829817408891 0 -0.13479108425045189 0.2189379304695287 0 -0.1378537507735782 0.22769286600650679 0 -0.15110003921584569 0.22881829817408891 0 -0.1378537507735782 0.22769286600650679 0 -0.13827307027013019 0.2362506378269415 0 -0.13479108425045189 0.2189379304695287 0 -0.12594818007053379 0.2253828658525201 0 -0.1378537507735782 0.22769286600650679 0 -0.12594818007053379 0.2253828658525201 0 -0.1378537507735782 0.22769286600650679 0 -0.13827307027013019 0.2362506378269415 0 -0.12594818007053379 0.2253828658525201 0 -0.13827307027013019 0.2362506378269415 0 -0.1327712538659816 0.24971188635390451 0 -0.12594818007053379 0.2253828658525201 0 -0.1327712538659816 0.24971188635390451 0 -0.1532221513837192 0.25419418888983192 0 -0.15110003921584569 0.22881829817408891 0 -0.13827307027013019 0.2362506378269415 0 -0.1532221513837192 0.25419418888983192 0 -0.13827307027013019 0.2362506378269415 0 -0.1327712538659816 0.24971188635390451 0 -0.16317411874061041 0.14897554401654969 0 -0.16113979031376621 0.12743058591966341 0 -0.1447888583061562 0.1436064118174607 0 -0.16317411874061041 0.14897554401654969 0 -0.16113979031376621 0.12743058591966341 0 -0.17789558253256721 0.1368522929207025 0 -0.17749072232138041 0.1112547600218704 0 -0.16113979031376621 0.12743058591966341 0 -0.17789558253256721 0.1368522929207025 0 -0.19150979458678249 0.1243728737611647 0 -0.19274338499996449 0.14807478539393409 0 -0.17789558253256721 0.1368522929207025 0 -0.16317411874061041 0.14897554401654969 0 -0.17789558253256721 0.1368522929207025 0 -0.17830044274374979 0.16244982581953471 0 -0.17789558253256721 0.1368522929207025 0 -0.17830044274374979 0.16244982581953471 0 -0.19274338499996449 0.14807478539393409 0 -0.17789558253256721 0.1368522929207025 0 -0.17830044274374979 0.16244982581953471 0 -0.20517995294037331 0.17379218369948349 0 -0.17870530295493239 0.18804735871836689 0 -0.17830044274374979 0.16244982581953471 0 -0.17870530295493239 0.18804735871836689 0 -0.17830044274374979 0.16244982581953471 0 -0.17870530295493239 0.18804735871836689 0 -0.17830044274374979 0.16244982581953471 0 -0.15775407484820861 0.18727827749961631 0 -0.17830044274374979 0.16244982581953471 0 -0.15775407484820861 0.18727827749961631 0 -0.15245232938168229 0.1648839185887534 0 -0.16317411874061041 0.14897554401654969 0 -0.17830044274374979 0.16244982581953471 0 -0.15245232938168229 0.1648839185887534 0 -0.15775407484820861 0.18727827749961631 0 -0.15245232938168229 0.1648839185887534 0 -0.13876353146598761 0.18223131465273959 0 -0.13876353146598761 0.18223131465273959 0 -0.12843792629854631 0.15978223771525801 0 -0.1245765098090509 0.17966052017845999 0 -0.15245232938168229 0.1648839185887534 0 -0.13876353146598761 0.18223131465273959 0 -0.12843792629854631 0.15978223771525801 0 -0.12843792629854631 0.15978223771525801 0 -0.1447888583061562 0.1436064118174607 0 -0.12843792629854631 0.15978223771525801 0 -0.1447888583061562 0.1436064118174607 0 -0.1204435081575875 0.14623213693654391 0 -0.16317411874061041 0.14897554401654969 0 -0.15245232938168229 0.1648839185887534 0 -0.1447888583061562 0.1436064118174607 0 -0.15245232938168229 0.1648839185887534 0 -0.12843792629854631 0.15978223771525801 0 -0.1447888583061562 0.1436064118174607 0 -0.16113979031376621 0.12743058591966341 0 -0.1447888583061562 0.1436064118174607 0 -0.14300315410871919 0.1253406317882016 0 -0.16113979031376621 0.12743058591966341 0 -0.1447888583061562 0.1436064118174607 0 -0.1447888583061562 0.1436064118174607 0 -0.12687331202938101 0.13192737382428379 0 -0.1204435081575875 0.14623213693654391 0 -0.1447888583061562 0.1436064118174607 0 -0.14300315410871919 0.1253406317882016 0 -0.12687331202938101 0.13192737382428379 0 -0.12687331202938101 0.13192737382428379 0 -0.1130049083687871 0.13722853083192951 0 -0.10667563132183119 0.1260080396076822 0 -0.12687331202938101 0.13192737382428379 0 -0.1130049083687871 0.13722853083192951 0 -0.1204435081575875 0.14623213693654391 0 -0.10667563132183119 0.1260080396076822 0 -0.081978849477511453 0.1384377215961772 0 -0.096577670607123245 0.1239972751083621 0 -0.10667563132183119 0.1260080396076822 0 -0.1008242758955458 0.1385116675773613 0 -0.081978849477511453 0.1384377215961772 0 -0.10667563132183119 0.1260080396076822 0 -0.081978849477511453 0.1384377215961772 0 -0.1130049083687871 0.13722853083192951 0 -0.10667563132183119 0.1260080396076822 0 -0.1008242758955458 0.1385116675773613 0 -0.1130049083687871 0.13722853083192951 0 -0.1008242758955458 0.1385116675773613 0 -0.1078791741402548 0.14587794917826699 0 -0.094422293866394627 0.1556947047027778 0 -0.094582816169344081 0.14500609667275041 0 -0.1078791741402548 0.14587794917826699 0 -0.1008242758955458 0.1385116675773613 0 -0.094582816169344081 0.14500609667275041 0 -0.1078791741402548 0.14587794917826699 0 -0.12843792629854631 0.15978223771525801 0 -0.1204435081575875 0.14623213693654391 0 -0.1073217141416921 0.15896651377475199 0 -0.1078791741402548 0.14587794917826699 0 -0.1204435081575875 0.14623213693654391 0 -0.1073217141416921 0.15896651377475199 0 -0.1130049083687871 0.13722853083192951 0 -0.1078791741402548 0.14587794917826699 0 -0.1204435081575875 0.14623213693654391 0 -0.12843792629854631 0.15978223771525801 0 -0.1245765098090509 0.17966052017845999 0 -0.1120869942909358 0.17595806361305491 0 -0.1120869942909358 0.17595806361305491 0 -0.1073217141416921 0.15896651377475199 0 -0.12843792629854631 0.15978223771525801 0 -0.1120869942909358 0.17595806361305491 0 -0.12843792629854631 0.15978223771525801 0 -0.1120869942909358 0.17595806361305491 0 -0.1073217141416921 0.15896651377475199 0 -0.1245765098090509 0.17966052017845999 0 -0.1120869942909358 0.17595806361305491 0 -0.1190175871807343 0.20067046473278771 0 -0.1120869942909358 0.17595806361305491 0 -0.1020860412129876 0.1687304780430319 0 -0.095149617161195271 0.19271405424946009 0 -0.1020860412129876 0.1687304780430319 0 -0.095149617161195271 0.19271405424946009 0 -0.1120869942909358 0.17595806361305491 0 -0.095149617161195271 0.19271405424946009 0 -0.1020860412129876 0.1687304780430319 0 -0.093279947424905002 0.17994671451597891 0 -0.095149617161195271 0.19271405424946009 0 -0.1020860412129876 0.1687304780430319 0 -0.089956478385260899 0.16811851343374709 0 -0.093279947424905002 0.17994671451597891 0 -0.094422293866394627 0.1556947047027778 0 -0.1078791741402548 0.14587794917826699 0 -0.1020860412129876 0.1687304780430319 0 -0.1078791741402548 0.14587794917826699 0 -0.1073217141416921 0.15896651377475199 0 -0.1020860412129876 0.1687304780430319 0 -0.1120869942909358 0.17595806361305491 0 -0.1073217141416921 0.15896651377475199 0 -0.1020860412129876 0.1687304780430319 0 -0.1078791741402548 0.14587794917826699 0 -0.1020860412129876 0.1687304780430319 0 -0.094422293866394627 0.1556947047027778 0 -0.1020860412129876 0.1687304780430319 0 -0.089956478385260899 0.16811851343374709 0 -0.094422293866394627 0.1556947047027778 0 -0.089956478385260899 0.16811851343374709 0 -0.084742563178951485 0.15922574422532609 0 -0.089956478385260899 0.16811851343374709 0 -0.080023232193096983 0.1657260639694961 0 -0.084742563178951485 0.15922574422532609 0 -0.089956478385260899 0.16811851343374709 0 -0.080023232193096983 0.1657260639694961 0 -0.081293191825158789 0.17801619480298669 0 -0.080023232193096983 0.1657260639694961 0 -0.084742563178951485 0.15922574422532609 0 -0.074930767296401246 0.15918989644816289 0 -0.081293191825158789 0.17801619480298669 0 -0.095149617161195271 0.19271405424946009 0 -0.073474196407973841 0.19079473501472519 0 -0.081293191825158789 0.17801619480298669 0 -0.095149617161195271 0.19271405424946009 0 -0.093279947424905002 0.17994671451597891 0 -0.081293191825158789 0.17801619480298669 0 -0.095149617161195271 0.19271405424946009 0 -0.089956478385260899 0.16811851343374709 0 -0.093279947424905002 0.17994671451597891 0 -0.081293191825158789 0.17801619480298669 0 -0.064604308801312821 0.18244611143699499 0 -0.069549912031587807 0.17131438064227461 0 -0.073474196407973841 0.19079473501472519 0 -0.081293191825158789 0.17801619480298669 0 -0.069549912031587807 0.17131438064227461 0 -0.073474196407973841 0.19079473501472519 0 -0.069549912031587807 0.17131438064227461 0 -0.073474196407973841 0.19079473501472519 0 -0.064604308801312821 0.18244611143699499 0 -0.069549912031587807 0.17131438064227461 0 -0.062041409668937363 0.1723934095439342 0 -0.084742563178951485 0.15922574422532609 0 -0.074930767296401246 0.15918989644816289 0 -0.074588176879671189 0.15080810715310269 0 -0.080023232193096983 0.1657260639694961 0 -0.074930767296401246 0.15918989644816289 0 -0.06743676648912228 0.16331833535651319 0 -0.081293191825158789 0.17801619480298669 0 -0.069549912031587807 0.17131438064227461 0 -0.06743676648912228 0.16331833535651319 0 -0.080023232193096983 0.1657260639694961 0 -0.081293191825158789 0.17801619480298669 0 -0.06743676648912228 0.16331833535651319 0 -0.081293191825158789 0.17801619480298669 0 -0.06743676648912228 0.16331833535651319 0 -0.069549912031587807 0.17131438064227461 0 -0.062031688412593149 0.16441565219234799 0 -0.062041409668937363 0.1723934095439342 0 -0.069549912031587807 0.17131438064227461 0 -0.06743676648912228 0.16331833535651319 0 -0.062031688412593149 0.16441565219234799 0 -0.06743676648912228 0.16331833535651319 0 -0.06725389334219653 0.15771987894696021 0 -0.062031688412593149 0.16441565219234799 0 -0.074930767296401246 0.15918989644816289 0 -0.06743676648912228 0.16331833535651319 0 -0.06725389334219653 0.15771987894696021 0 -0.081978849477511453 0.1384377215961772 0 -0.05728206763319247 0.1508674035846734 0 -0.06725389334219653 0.15771987894696021 0 -0.074588176879671189 0.15080810715310269 0 -0.05728206763319247 0.1508674035846734 0 -0.074588176879671189 0.15080810715310269 0 -0.081978849477511453 0.1384377215961772 0 -0.05728206763319247 0.1508674035846734 0 -0.081978849477511453 0.1384377215961772 0 -0.06070043620975589 0.134524720015781 0 -0.05728206763319247 0.1508674035846734 0 -0.074930767296401246 0.15918989644816289 0 -0.06725389334219653 0.15771987894696021 0 -0.074588176879671189 0.15080810715310269 0 -0.071786582042575819 0.1280585334591178 0 -0.081978849477511453 0.1384377215961772 0 -0.08034823769671974 0.121089655777625 0 -0.071786582042575819 0.1280585334591178 0 -0.081978849477511453 0.1384377215961772 0 -0.06070043620975589 0.134524720015781 0 -0.071786582042575819 0.1280585334591178 0 -0.06070043620975589 0.134524720015781 0 -0.06411880478631618 0.11818203644688791 0 -0.081978849477511453 0.1384377215961772 0 -0.08034823769671974 0.121089655777625 0 -0.096577670607123245 0.1239972751083621 0 -0.1008242758955458 0.1385116675773613 0 -0.094582816169344081 0.14500609667275041 0 -0.081978849477511453 0.1384377215961772 0 -0.094582816169344081 0.14500609667275041 0 -0.081978849477511453 0.1384377215961772 0 -0.0854808471676783 0.14892295327365951 0 -0.094422293866394627 0.1556947047027778 0 -0.084742563178951485 0.15922574422532609 0 -0.0854808471676783 0.14892295327365951 0 -0.094422293866394627 0.1556947047027778 0 -0.094582816169344081 0.14500609667275041 0 -0.0854808471676783 0.14892295327365951 0 -0.084742563178951485 0.15922574422532609 0 -0.074588176879671189 0.15080810715310269 0 -0.0854808471676783 0.14892295327365951 0 -0.074588176879671189 0.15080810715310269 0 -0.081978849477511453 0.1384377215961772 0 -0.0854808471676783 0.14892295327365951 0 -0.1045487088169635 0.24438495162540061 0 -0.11455994162881621 0.23631135170566109 0 -0.098826177075254387 0.23394696074010041 0 -0.10005120432924321 0.25626016583208688 0 -0.094679029848152713 0.24609146959404629 0 -0.1045487088169635 0.24438495162540061 0 -0.094679029848152713 0.24609146959404629 0 -0.1045487088169635 0.24438495162540061 0 -0.098826177075254387 0.23394696074010041 0 -0.116744543106582 0.25728181003509248 0 -0.1045487088169635 0.24438495162540061 0 -0.11455994162881621 0.23631135170566109 0 -0.116744543106582 0.25728181003509248 0 -0.1327712538659816 0.24971188635390451 0 -0.11455994162881621 0.23631135170566109 0 -0.12594818007053379 0.2253828658525201 0 -0.1327712538659816 0.24971188635390451 0 -0.11455994162881621 0.23631135170566109 0 -0.11455994162881621 0.23631135170566109 0 -0.1144435087069731 0.2232582902708152 0 -0.1063794885369051 0.22193246116811141 0 -0.12594818007053379 0.2253828658525201 0 -0.1144435087069731 0.2232582902708152 0 -0.1108864245916369 0.20940648235696879 0 -0.12594818007053379 0.2253828658525201 0 -0.11455994162881621 0.23631135170566109 0 -0.1144435087069731 0.2232582902708152 0 -0.11455994162881621 0.23631135170566109 0 -0.1063794885369051 0.22193246116811141 0 -0.098826177075254387 0.23394696074010041 0 -0.1063794885369051 0.22193246116811141 0 -0.098826177075254387 0.23394696074010041 0 -0.089950704149474564 0.21660149084549701 0 -0.1063794885369051 0.22193246116811141 0 -0.089950704149474564 0.21660149084549701 0 -0.10053720550511509 0.21148400771379949 0 -0.095149617161195271 0.19271405424946009 0 -0.089950704149474564 0.21660149084549701 0 -0.1063794885369051 0.22193246116811141 0 -0.10053720550511509 0.21148400771379949 0 -0.089950704149474564 0.21660149084549701 0 -0.10053720550511509 0.21148400771379949 0 -0.1108864245916369 0.20940648235696879 0 -0.095149617161195271 0.19271405424946009 0 -0.1063794885369051 0.22193246116811141 0 -0.10053720550511509 0.21148400771379949 0 -0.1108864245916369 0.20940648235696879 0 -0.12594818007053379 0.2253828658525201 0 -0.1190175871807343 0.20067046473278771 0 -0.12594818007053379 0.2253828658525201 0 -0.1108864245916369 0.20940648235696879 0 -0.1190175871807343 0.20067046473278771 0 -0.12594818007053379 0.2253828658525201 0 -0.1108864245916369 0.20940648235696879 0 -0.1144435087069731 0.2232582902708152 0 -0.1063794885369051 0.22193246116811141 0 -0.1108864245916369 0.20940648235696879 0 -0.1120869942909358 0.17595806361305491 0 -0.1190175871807343 0.20067046473278771 0 -0.1108864245916369 0.20940648235696879 0 -0.1190175871807343 0.20067046473278771 0 -0.10682171669235439 0.1942096232944058 0 -0.1120869942909358 0.17595806361305491 0 -0.1190175871807343 0.20067046473278771 0 -0.10682171669235439 0.1942096232944058 0 -0.1108864245916369 0.20940648235696879 0 -0.095149617161195271 0.19271405424946009 0 -0.1108864245916369 0.20940648235696879 0 -0.10682171669235439 0.1942096232944058 0 -0.095149617161195271 0.19271405424946009 0 -0.1120869942909358 0.17595806361305491 0 -0.10682171669235439 0.1942096232944058 0 -0.095149617161195271 0.19271405424946009 0 -0.095149617161195271 0.19271405424946009 0 -0.077398480784349299 0.2102750893871779 0 -0.095149617161195271 0.19271405424946009 0 -0.073474196407973841 0.19079473501472519 0 -0.077398480784349299 0.2102750893871779 0 -0.095149617161195271 0.19271405424946009 0 -0.077398480784349299 0.2102750893871779 0 -0.087241526055590657 0.20514135106535239 0 -0.073474196407973841 0.19079473501472519 0 -0.077398480784349299 0.2102750893871779 0 -0.073474196407973841 0.19079473501472519 0 -0.077398480784349299 0.2102750893871779 0 -0.068984895145132993 0.20348567813270921 0 -0.064604308801312821 0.18244611143699499 0 -0.073474196407973841 0.19079473501472519 0 -0.062951628171730722 0.19451437844324071 0 -0.073474196407973841 0.19079473501472519 0 -0.062951628171730722 0.19451437844324071 0 -0.068984895145132993 0.20348567813270921 0 -0.062951628171730722 0.19451437844324071 0 -0.068984895145132993 0.20348567813270921 0 -0.057478398324341332 0.20606456403591589 0 -0.068984895145132993 0.20348567813270921 0 -0.075683327299925024 0.21197187487555791 0 -0.057478398324341332 0.20606456403591589 0 -0.075683327299925024 0.21197187487555791 0 -0.060700713784132942 0.2267940359372384 0 -0.057478398324341332 0.20606456403591589 0 -0.075683327299925024 0.21197187487555791 0 -0.057478398324341332 0.20606456403591589 0 -0.077398480784349299 0.2102750893871779 0 -0.068984895145132993 0.20348567813270921 0 -0.075683327299925024 0.21197187487555791 0 -0.075683327299925024 0.21197187487555791 0 -0.077884159070199604 0.2126860219832131 0 -0.060700713784132942 0.2267940359372384 0 -0.075683327299925024 0.21197187487555791 0 -0.077884159070199604 0.2126860219832131 0 -0.077398480784349299 0.2102750893871779 0 -0.075683327299925024 0.21197187487555791 0 -0.077884159070199604 0.2126860219832131 0 -0.077398480784349299 0.2102750893871779 0 -0.077884159070199604 0.2126860219832131 0 -0.077398480784349299 0.2102750893871779 0 -0.075683327299925024 0.21197187487555791 0 -0.077884159070199604 0.2126860219832131 0 -0.089950704149474564 0.21660149084549701 0 -0.077884159070199604 0.2126860219832131 0 -0.087241526055590657 0.20514135106535239 0 -0.089950704149474564 0.21660149084549701 0 -0.095149617161195271 0.19271405424946009 0 -0.087241526055590657 0.20514135106535239 0 -0.089950704149474564 0.21660149084549701 0 -0.095149617161195271 0.19271405424946009 0 -0.089950704149474564 0.21660149084549701 0 -0.077398480784349299 0.2102750893871779 0 -0.077884159070199604 0.2126860219832131 0 -0.087241526055590657 0.20514135106535239 0 -0.077884159070199604 0.2126860219832131 0 -0.083666647235009842 0.24139059785004849 0 -0.089950704149474564 0.21660149084549701 0 -0.083666647235009842 0.24139059785004849 0 -0.077884159070199604 0.2126860219832131 0 -0.089950704149474564 0.21660149084549701 0 -0.083666647235009842 0.24139059785004849 0 -0.098826177075254387 0.23394696074010041 0 -0.089950704149474564 0.21660149084549701 0 -0.083666647235009842 0.24139059785004849 0 -0.077884159070199604 0.2126860219832131 0 -0.083666647235009842 0.24139059785004849 0 -0.060700713784132942 0.2267940359372384 0 -0.075683327299925024 0.21197187487555791 0 -0.060700713784132942 0.2267940359372384 0 -0.064077212627390134 0.24851538469076631 0 -0.083666647235009842 0.24139059785004849 0 -0.060700713784132942 0.2267940359372384 0 -0.086302411784292182 0.25447467192259482 0 -0.083666647235009842 0.24139059785004849 0 -0.094679029848152713 0.24609146959404629 0 -0.098826177075254387 0.23394696074010041 0 -0.083666647235009842 0.24139059785004849 0 -0.086302411784292182 0.25447467192259482 0 -0.094679029848152713 0.24609146959404629 0 -0.083666647235009842 0.24139059785004849 0 -0.03068766995985707 0.25286978792993342 0 -0.034335222642673788 0.23481172099035691 0 -0.046578861792199937 0.24361118962503389 0 -0.034335222642673788 0.23481172099035691 0 -0.046578861792199937 0.24361118962503389 0 -0.045510089746351297 0.2289623102588538 0 -0.064077212627390134 0.24851538469076631 0 -0.046578861792199937 0.24361118962503389 0 -0.055802081643016588 0.23164020743468811 0 -0.064077212627390134 0.24851538469076631 0 -0.055802081643016588 0.23164020743468811 0 -0.060700713784132942 0.2267940359372384 0 -0.064077212627390134 0.24851538469076631 0 -0.060700713784132942 0.2267940359372384 0 -0.046578861792199937 0.24361118962503389 0 -0.055802081643016588 0.23164020743468811 0 -0.045510089746351297 0.2289623102588538 0 -0.055802081643016588 0.23164020743468811 0 -0.053252725762674542 0.2222055350902031 0 -0.045510089746351297 0.2289623102588538 0 -0.055802081643016588 0.23164020743468811 0 -0.060700713784132942 0.2267940359372384 0 -0.053252725762674542 0.2222055350902031 0 -0.055802081643016588 0.23164020743468811 0 -0.060700713784132942 0.2267940359372384 0 -0.053252725762674542 0.2222055350902031 0 -0.045510089746351297 0.2289623102588538 0 -0.046772345315528908 0.21756655778431969 0 -0.045510089746351297 0.2289623102588538 0 -0.036443083940353373 0.22210497005765251 0 -0.046772345315528908 0.21756655778431969 0 -0.034335222642673788 0.23481172099035691 0 -0.045510089746351297 0.2289623102588538 0 -0.036443083940353373 0.22210497005765251 0 -0.034335222642673788 0.23481172099035691 0 -0.036443083940353373 0.22210497005765251 0 -0.024866254401544021 0.22078734426404351 0 -0.036443083940353373 0.22210497005765251 0 -0.046772345315528908 0.21756655778431969 0 -0.031637039445344017 0.19767931081015269 0 -0.046772345315528908 0.21756655778431969 0 -0.057478398324341332 0.20606456403591589 0 -0.031637039445344017 0.19767931081015269 0 -0.060700713784132942 0.2267940359372384 0 -0.053252725762674542 0.2222055350902031 0 -0.057478398324341332 0.20606456403591589 0 -0.060700713784132942 0.2267940359372384 0 -0.057478398324341332 0.20606456403591589 0 -0.053252725762674542 0.2222055350902031 0 -0.046772345315528908 0.21756655778431969 0 -0.057478398324341332 0.20606456403591589 0 -0.062951628171730722 0.19451437844324071 0 -0.057478398324341332 0.20606456403591589 0 -0.054948738746262903 0.1897910154656581 0 -0.057478398324341332 0.20606456403591589 0 -0.054948738746262903 0.1897910154656581 0 -0.031637039445344017 0.19767931081015269 0 -0.057478398324341332 0.20606456403591589 0 -0.054948738746262903 0.1897910154656581 0 -0.054948738746262903 0.1897910154656581 0 -0.031637039445344017 0.19767931081015269 0 -0.039999697082172873 0.18418677263352329 0 -0.057478398324341332 0.20606456403591589 0 -0.031637039445344017 0.19767931081015269 0 -0.031637039445344017 0.19767931081015269 0 -0.0057956805663459468 0.1892940575843915 0 -0.031637039445344017 0.19767931081015269 0 -0.0057956805663459468 0.1892940575843915 0 -0.024775833668462071 0.17590936267321361 0 -0.031637039445344017 0.19767931081015269 0 -0.0057956805663459468 0.1892940575843915 0 -0.01019634689217482 0.20814994011246479 0 -0.0057956805663459468 0.1892940575843915 0 -0.01019634689217482 0.20814994011246479 0 0.0090806704795409685 0.20996839310177981 0 -0.01019634689217482 0.20814994011246479 0 0.00014186162909880781 0.2338185852574263 0 0.0090806704795409685 0.20996839310177981 0 -0.036443083940353373 0.22210497005765251 0 -0.031637039445344017 0.19767931081015269 0 -0.024866254401544021 0.22078734426404351 0 -0.031637039445344017 0.19767931081015269 0 -0.01019634689217482 0.20814994011246479 0 -0.024866254401544021 0.22078734426404351 0 -0.034335222642673788 0.23481172099035691 0 -0.024866254401544021 0.22078734426404351 0 -0.01991034591062427 0.239405390953495 0 -0.024866254401544021 0.22078734426404351 0 0.00014186162909880781 0.2338185852574263 0 -0.024866254401544021 0.22078734426404351 0 -0.01991034591062427 0.239405390953495 0 0.00014186162909880781 0.2338185852574263 0 -0.01019634689217482 0.20814994011246479 0 -0.024866254401544021 0.22078734426404351 0 0.00014186162909880781 0.2338185852574263 0 -0.0098044441781452579 0.25473951632571468 0 0.00014186162909880781 0.2338185852574263 0 0.0073806355134042019 0.25529449578482938 0 -0.0098044441781452579 0.25473951632571468 0 -0.01991034591062427 0.239405390953495 0 0.00014186162909880781 0.2338185852574263 0 -0.03068766995985707 0.25286978792993342 0 -0.034335222642673788 0.23481172099035691 0 -0.01991034591062427 0.239405390953495 0 -0.03068766995985707 0.25286978792993342 0 -0.0098044441781452579 0.25473951632571468 0 -0.01991034591062427 0.239405390953495 0 -0.045513089216113363 0.1481501368583191 0 -0.039963318838929777 0.1583549670989208 0 -0.028048700007850699 0.14601834090005769 0 -0.045513089216113363 0.1481501368583191 0 -0.037584816749385713 0.12707105787504261 0 -0.028048700007850699 0.14601834090005769 0 -0.037584816749385713 0.12707105787504261 0 -0.028048700007850699 0.14601834090005769 0 -0.045513089216113363 0.1481501368583191 0 -0.037584816749385713 0.12707105787504261 0 -0.045513089216113363 0.1481501368583191 0 -0.037584816749385713 0.12707105787504261 0 -0.049753839012929922 0.13582205838018921 0 -0.037584816749385713 0.12707105787504261 0 -0.049753839012929922 0.13582205838018921 0 -0.051208231868337763 0.1260313133231428 0 -0.049753839012929922 0.13582205838018921 0 -0.06070043620975589 0.134524720015781 0 -0.052276118599972977 0.1457036522838337 0 -0.051208231868337763 0.1260313133231428 0 -0.06070043620975589 0.134524720015781 0 -0.06411880478631618 0.11818203644688791 0 -0.06070043620975589 0.134524720015781 0 -0.06411880478631618 0.11818203644688791 0 -0.049753839012929922 0.13582205838018921 0 -0.051208231868337763 0.1260313133231428 0 -0.06070043620975589 0.134524720015781 0 -0.06070043620975589 0.134524720015781 0 -0.052276118599972977 0.1457036522838337 0 -0.05728206763319247 0.1508674035846734 0 -0.06070043620975589 0.134524720015781 0 -0.05728206763319247 0.1508674035846734 0 -0.045513089216113363 0.1481501368583191 0 -0.049753839012929922 0.13582205838018921 0 -0.052276118599972977 0.1457036522838337 0 -0.045513089216113363 0.1481501368583191 0 -0.052276118599972977 0.1457036522838337 0 -0.053440893212920608 0.15280063427064891 0 -0.052276118599972977 0.1457036522838337 0 -0.053440893212920608 0.15280063427064891 0 -0.05728206763319247 0.1508674035846734 0 -0.053440893212920608 0.15280063427064891 0 -0.05728206763319247 0.1508674035846734 0 -0.05728206763319247 0.1508674035846734 0 -0.062031688412593149 0.16441565219234799 0 -0.053441361682841117 0.16922921584159559 0 -0.053440893212920608 0.15280063427064891 0 -0.05728206763319247 0.1508674035846734 0 -0.053441361682841117 0.16922921584159559 0 -0.045513089216113363 0.1481501368583191 0 -0.053440893212920608 0.15280063427064891 0 -0.053441361682841117 0.16922921584159559 0 -0.045513089216113363 0.1481501368583191 0 -0.053441361682841117 0.16922921584159559 0 -0.05728206763319247 0.1508674035846734 0 -0.053441361682841117 0.16922921584159559 0 -0.06725389334219653 0.15771987894696021 0 -0.05728206763319247 0.1508674035846734 0 -0.062031688412593149 0.16441565219234799 0 -0.062031688412593149 0.16441565219234799 0 -0.053441361682841117 0.16922921584159559 0 -0.062041409668937363 0.1723934095439342 0 -0.053441361682841117 0.16922921584159559 0 -0.047633738945979477 0.17108968717192211 0 -0.039963318838929777 0.1583549670989208 0 -0.052991971448818453 0.17137768000779441 0 -0.053441361682841117 0.16922921584159559 0 -0.047633738945979477 0.17108968717192211 0 -0.052991971448818453 0.17137768000779441 0 -0.053441361682841117 0.16922921584159559 0 -0.054948738746262903 0.1897910154656581 0 -0.052419079168185397 0.17351746689540021 0 -0.046888846475854867 0.17837904804597579 0 -0.062951628171730722 0.19451437844324071 0 -0.054948738746262903 0.1897910154656581 0 -0.052419079168185397 0.17351746689540021 0 -0.062951628171730722 0.19451437844324071 0 -0.052991971448818453 0.17137768000779441 0 -0.052419079168185397 0.17351746689540021 0 -0.064604308801312821 0.18244611143699499 0 -0.062951628171730722 0.19451437844324071 0 -0.053441361682841117 0.16922921584159559 0 -0.062951628171730722 0.19451437844324071 0 -0.052991971448818453 0.17137768000779441 0 -0.053441361682841117 0.16922921584159559 0 -0.054948738746262903 0.1897910154656581 0 -0.052419079168185397 0.17351746689540021 0 -0.062951628171730722 0.19451437844324071 0 -0.053441361682841117 0.16922921584159559 0 -0.064604308801312821 0.18244611143699499 0 -0.053441361682841117 0.16922921584159559 0 -0.062041409668937363 0.1723934095439342 0 -0.052991971448818453 0.17137768000779441 0 -0.047633738945979477 0.17108968717192211 0 -0.052419079168185397 0.17351746689540021 0 -0.047633738945979477 0.17108968717192211 0 -0.052419079168185397 0.17351746689540021 0 -0.046888846475854867 0.17837904804597579 0 -0.054948738746262903 0.1897910154656581 0 -0.046888846475854867 0.17837904804597579 0 -0.039999697082172873 0.18418677263352329 0 -0.031637039445344017 0.19767931081015269 0 -0.039999697082172873 0.18418677263352329 0 -0.024775833668462071 0.17590936267321361 0 -0.046888846475854867 0.17837904804597579 0 -0.039999697082172873 0.18418677263352329 0 -0.039442978436673673 0.17331029806337539 0 -0.047633738945979477 0.17108968717192211 0 -0.046888846475854867 0.17837904804597579 0 -0.039442978436673673 0.17331029806337539 0 -0.039442978436673673 0.17331029806337539 0 -0.032139483942643897 0.16694135859911591 0 -0.024775833668462071 0.17590936267321361 0 -0.039999697082172873 0.18418677263352329 0 -0.039442978436673673 0.17331029806337539 0 -0.024775833668462071 0.17590936267321361 0 -0.045513089216113363 0.1481501368583191 0 -0.053441361682841117 0.16922921584159559 0 -0.039963318838929777 0.1583549670989208 0 -0.039963318838929777 0.1583549670989208 0 -0.032139483942643897 0.16694135859911591 0 -0.02343924065842673 0.15869802647678349 0 -0.047633738945979477 0.17108968717192211 0 -0.039442978436673673 0.17331029806337539 0 -0.039963318838929777 0.1583549670989208 0 -0.039442978436673673 0.17331029806337539 0 -0.039963318838929777 0.1583549670989208 0 -0.032139483942643897 0.16694135859911591 0 -0.032139483942643897 0.16694135859911591 0 -0.02343924065842673 0.15869802647678349 0 -0.024775833668462071 0.17590936267321361 0 -0.02343924065842673 0.15869802647678349 0 -0.024775833668462071 0.17590936267321361 0 -0.0048034666842798916 0.1614245706846468 0 -0.0057956805663459468 0.1892940575843915 0 -0.024775833668462071 0.17590936267321361 0 -0.0048034666842798916 0.1614245706846468 0 -0.0048034666842798916 0.1614245706846468 0 -0.01090464080839405 0.14353955890474629 0 0.011098566836083609 0.13484946890849181 0 -0.02343924065842673 0.15869802647678349 0 -0.0048034666842798916 0.1614245706846468 0 -0.01090464080839405 0.14353955890474629 0 -0.039963318838929777 0.1583549670989208 0 -0.02343924065842673 0.15869802647678349 0 -0.028048700007850699 0.14601834090005769 0 -0.02343924065842673 0.15869802647678349 0 -0.01090464080839405 0.14353955890474629 0 -0.028048700007850699 0.14601834090005769 0 -0.037584816749385713 0.12707105787504261 0 -0.0187932077553963 0.1304023687453105 0 -0.02482114599867602 0.1199028763409456 0 -0.01090464080839405 0.14353955890474629 0 -0.028048700007850699 0.14601834090005769 0 -0.0187932077553963 0.1304023687453105 0 -0.037584816749385713 0.12707105787504261 0 -0.028048700007850699 0.14601834090005769 0 -0.0187932077553963 0.1304023687453105 0 -0.0064436606074630637 0.13109611639504981 0 -0.007175360702145514 0.1155930690216506 0 0.011098566836083609 0.13484946890849181 0 -0.01090464080839405 0.14353955890474629 0 -0.0064436606074630637 0.13109611639504981 0 0.011098566836083609 0.13484946890849181 0 -0.0187932077553963 0.1304023687453105 0 -0.0064436606074630637 0.13109611639504981 0 -0.007175360702145514 0.1155930690216506 0 -0.01090464080839405 0.14353955890474629 0 -0.0187932077553963 0.1304023687453105 0 -0.0064436606074630637 0.13109611639504981 0 -0.007175360702145514 0.1155930690216506 0 -0.0040088977147468936 0.097024336429998151 0 -0.013655752966245171 0.094180689311720855 0 -0.007175360702145514 0.1155930690216506 0 -0.0040088977147468936 0.097024336429998151 0 0.0025937760044158291 0.1064596481343341 0 -0.007175360702145514 0.1155930690216506 0 -0.013655752966245171 0.094180689311720855 0 -0.02544928824037461 0.096336669134809427 0 -0.029459919491476121 0.1011230655410132 0 -0.021580178673492881 0.1105609364200745 0 -0.037915498494119543 0.10215930426450601 0 -0.007175360702145514 0.1155930690216506 0 -0.02544928824037461 0.096336669134809427 0 -0.007175360702145514 0.1155930690216506 0 -0.02544928824037461 0.096336669134809427 0 -0.0241566231860777 0.1021061234229471 0 -0.02544928824037461 0.096336669134809427 0 -0.029459919491476121 0.1011230655410132 0 -0.035034026511796899 0.0954599165668297 0 -0.02544928824037461 0.096336669134809427 0 -0.029459919491476121 0.1011230655410132 0 -0.0241566231860777 0.1021061234229471 0 -0.02544928824037461 0.096336669134809427 0 -0.0241566231860777 0.1021061234229471 0 -0.029459919491476121 0.1011230655410132 0 -0.0241566231860777 0.1021061234229471 0 -0.021580178673492881 0.1105609364200745 0 -0.02482114599867602 0.1199028763409456 0 -0.021580178673492881 0.1105609364200745 0 -0.032585978911933711 0.11378053360982859 0 -0.007175360702145514 0.1155930690216506 0 -0.0241566231860777 0.1021061234229471 0 -0.021580178673492881 0.1105609364200745 0 -0.0187932077553963 0.1304023687453105 0 -0.007175360702145514 0.1155930690216506 0 -0.02482114599867602 0.1199028763409456 0 -0.007175360702145514 0.1155930690216506 0 -0.02482114599867602 0.1199028763409456 0 -0.021580178673492881 0.1105609364200745 0 -0.01109578586274463 0.07592966442077155 0 -0.01963881101933795 0.057650575484614511 0 -0.0089029190745683329 0.062319161291970238 0 -0.0031702267477386531 0.067180855403790804 0 -0.01109578586274463 0.07592966442077155 0 0.0065236609159091173 0.071671444604676282 0 -0.0031702267477386531 0.067180855403790804 0 -0.0089029190745683329 0.062319161291970238 0 0.00079413703044923156 0.058803151297745167 0 -0.0031702267477386531 0.067180855403790804 0 -0.01109578586274463 0.07592966442077155 0 -0.0089029190745683329 0.062319161291970238 0 -0.0040088977147468936 0.097024336429998151 0 -0.01109578586274463 0.07592966442077155 0 0.011643404763696401 0.092949868607662828 0 -0.0040088977147468936 0.097024336429998151 0 -0.013655752966245171 0.094180689311720855 0 -0.01109578586274463 0.07592966442077155 0 -0.013655752966245171 0.094180689311720855 0 -0.01109578586274463 0.07592966442077155 0 -0.02054943231121421 0.086019707551374502 0 -0.02544928824037461 0.096336669134809427 0 -0.02054943231121421 0.086019707551374502 0 -0.029642132364781061 0.077623064684345475 0 -0.02544928824037461 0.096336669134809427 0 -0.029642132364781061 0.077623064684345475 0 -0.036673455980692451 0.084509049595857907 0 -0.01109578586274463 0.07592966442077155 0 -0.02054943231121421 0.086019707551374502 0 -0.029642132364781061 0.077623064684345475 0 -0.02544928824037461 0.096336669134809427 0 -0.029642132364781061 0.077623064684345475 0 -0.013655752966245171 0.094180689311720855 0 -0.02544928824037461 0.096336669134809427 0 -0.02054943231121421 0.086019707551374502 0 -0.02544928824037461 0.096336669134809427 0 -0.036673455980692451 0.084509049595857907 0 -0.01109578586274463 0.07592966442077155 0 -0.033834976489186493 0.058909460233881362 0 -0.01109578586274463 0.07592966442077155 0 -0.029642132364781061 0.077623064684345475 0 -0.033834976489186493 0.058909460233881362 0 -0.01109578586274463 0.07592966442077155 0 -0.033834976489186493 0.058909460233881362 0 -0.01963881101933795 0.057650575484614511 0 -0.029642132364781061 0.077623064684345475 0 -0.033834976489186493 0.058909460233881362 0 -0.029642132364781061 0.077623064684345475 0 -0.036732086871232597 0.066761861307427367 0 -0.033834976489186493 0.058909460233881362 0 -0.042969512877196837 0.063698159366550891 0 -0.036732086871232597 0.066761861307427367 0 -0.038306240480512441 0.072768089837317376 0 -0.042969512877196837 0.063698159366550891 0 -0.038306240480512441 0.072768089837317376 0 -0.046136221960229658 0.070392563092827029 0 -0.042969512877196837 0.063698159366550891 0 -0.036732086871232597 0.066761861307427367 0 -0.038907572144486188 0.060810532415041758 0 -0.029642132364781061 0.077623064684345475 0 -0.036732086871232597 0.066761861307427367 0 -0.038306240480512441 0.072768089837317376 0 -0.038306240480512441 0.072768089837317376 0 -0.046136221960229658 0.070392563092827029 0 -0.043586306971417507 0.077534071189344175 0 -0.038306240480512441 0.072768089837317376 0 -0.043586306971417507 0.077534071189344175 0 -0.036673455980692451 0.084509049595857907 0 -0.043586306971417507 0.077534071189344175 0 -0.036673455980692451 0.084509049595857907 0 -0.046978765451358998 0.084182386091036676 0 -0.029642132364781061 0.077623064684345475 0 -0.038306240480512441 0.072768089837317376 0 -0.036673455980692451 0.084509049595857907 0 -0.02544928824037461 0.096336669134809427 0 -0.036673455980692451 0.084509049595857907 0 -0.035034026511796899 0.0954599165668297 0 -0.036673455980692451 0.084509049595857907 0 -0.044089979176562301 0.093675305350012283 0 -0.035034026511796899 0.0954599165668297 0 -0.036673455980692451 0.084509049595857907 0 -0.044089979176562301 0.093675305350012283 0 -0.046978765451358998 0.084182386091036676 0 -0.044089979176562301 0.093675305350012283 0 -0.057144835734191893 0.088207312209507505 0 -0.046978765451358998 0.084182386091036676 0 -0.057144835734191893 0.088207312209507505 0 -0.046978765451358998 0.084182386091036676 0 -0.053399249393930842 0.076986192110461482 0 -0.043586306971417507 0.077534071189344175 0 -0.046978765451358998 0.084182386091036676 0 -0.053399249393930842 0.076986192110461482 0 -0.053399249393930842 0.076986192110461482 0 -0.070406408885084593 0.061857930521202607 0 -0.059815066152941319 0.061788281472960463 0 -0.057144835734191893 0.088207312209507505 0 -0.053399249393930842 0.076986192110461482 0 -0.070406408885084593 0.061857930521202607 0 -0.046136221960229658 0.070392563092827029 0 -0.043586306971417507 0.077534071189344175 0 -0.053399249393930842 0.076986192110461482 0 -0.046136221960229658 0.070392563092827029 0 -0.053399249393930842 0.076986192110461482 0 -0.05257832837313995 0.068950164376806455 0 -0.053399249393930842 0.076986192110461482 0 -0.05257832837313995 0.068950164376806455 0 -0.059815066152941319 0.061788281472960463 0 -0.05257832837313995 0.068950164376806455 0 -0.052166049838275927 0.062310195238599278 0 -0.059815066152941319 0.061788281472960463 0 -0.046136221960229658 0.070392563092827029 0 -0.05257832837313995 0.068950164376806455 0 -0.052166049838275927 0.062310195238599278 0 -0.042969512877196837 0.063698159366550891 0 -0.046136221960229658 0.070392563092827029 0 -0.052166049838275927 0.062310195238599278 0 -0.021580178673492881 0.1105609364200745 0 -0.043883262583300407 0.11455669389781301 0 -0.021580178673492881 0.1105609364200745 0 -0.043883262583300407 0.11455669389781301 0 -0.032585978911933711 0.11378053360982859 0 -0.037584816749385713 0.12707105787504261 0 -0.051208231868337763 0.1260313133231428 0 -0.043883262583300407 0.11455669389781301 0 -0.037584816749385713 0.12707105787504261 0 -0.043883262583300407 0.11455669389781301 0 -0.037584816749385713 0.12707105787504261 0 -0.032585978911933711 0.11378053360982859 0 -0.037584816749385713 0.12707105787504261 0 -0.043883262583300407 0.11455669389781301 0 -0.032585978911933711 0.11378053360982859 0 -0.037584816749385713 0.12707105787504261 0 -0.02482114599867602 0.1199028763409456 0 -0.032585978911933711 0.11378053360982859 0 -0.021580178673492881 0.1105609364200745 0 -0.043883262583300407 0.11455669389781301 0 -0.037915498494119543 0.10215930426450601 0 -0.044089979176562301 0.093675305350012283 0 -0.043883262583300407 0.11455669389781301 0 -0.037915498494119543 0.10215930426450601 0 -0.044089979176562301 0.093675305350012283 0 -0.037915498494119543 0.10215930426450601 0 -0.035034026511796899 0.0954599165668297 0 -0.029459919491476121 0.1011230655410132 0 -0.037915498494119543 0.10215930426450601 0 -0.035034026511796899 0.0954599165668297 0 -0.044089979176562301 0.093675305350012283 0 -0.057144835734191893 0.088207312209507505 0 -0.043883262583300407 0.11455669389781301 0 -0.057144835734191893 0.088207312209507505 0 -0.043883262583300407 0.11455669389781301 0 -0.057144835734191893 0.088207312209507505 0 -0.043883262583300407 0.11455669389781301 0 -0.056175626513735713 0.104231459755559 0 -0.056175626513735713 0.104231459755559 0 -0.061770267295803899 0.1005995653590098 0 -0.06411880478631618 0.11818203644688791 0 -0.057144835734191893 0.088207312209507505 0 -0.056175626513735713 0.104231459755559 0 -0.061770267295803899 0.1005995653590098 0 -0.043883262583300407 0.11455669389781301 0 -0.06411880478631618 0.11818203644688791 0 -0.051208231868337763 0.1260313133231428 0 -0.043883262583300407 0.11455669389781301 0 -0.06411880478631618 0.11818203644688791 0 -0.043883262583300407 0.11455669389781301 0 -0.056175626513735713 0.104231459755559 0 -0.06411880478631618 0.11818203644688791 0 -0.071786582042575819 0.1280585334591178 0 -0.06411880478631618 0.11818203644688791 0 -0.08034823769671974 0.121089655777625 0 -0.06411880478631618 0.11818203644688791 0 -0.08034823769671974 0.121089655777625 0 -0.075381325115152609 0.106019298300689 0 -0.06411880478631618 0.11818203644688791 0 -0.08034823769671974 0.121089655777625 0 -0.08034823769671974 0.121089655777625 0 -0.096577670607123245 0.1239972751083621 0 -0.08034823769671974 0.121089655777625 0 -0.092569001324263961 0.1124699312803344 0 -0.096577670607123245 0.1239972751083621 0 -0.08034823769671974 0.121089655777625 0 -0.083967771981719092 0.1102844810624737 0 -0.092569001324263961 0.1124699312803344 0 -0.08034823769671974 0.121089655777625 0 -0.083967771981719092 0.1102844810624737 0 -0.075381325115152609 0.106019298300689 0 -0.087572523790740042 0.10155903889124659 0 -0.082071947835387321 0.094412947715560025 0 -0.09233625647768956 0.091651488650119919 0 -0.083967771981719092 0.1102844810624737 0 -0.092569001324263961 0.1124699312803344 0 -0.087572523790740042 0.10155903889124659 0 -0.083967771981719092 0.1102844810624737 0 -0.087572523790740042 0.10155903889124659 0 -0.075381325115152609 0.106019298300689 0 -0.087572523790740042 0.10155903889124659 0 -0.082071947835387321 0.094412947715560025 0 -0.075381325115152609 0.106019298300689 0 -0.06411880478631618 0.11818203644688791 0 -0.06964180214897181 0.091777453024084701 0 -0.082071947835387321 0.094412947715560025 0 -0.075381325115152609 0.106019298300689 0 -0.06964180214897181 0.091777453024084701 0 -0.06411880478631618 0.11818203644688791 0 -0.075381325115152609 0.106019298300689 0 -0.06964180214897181 0.091777453024084701 0 -0.061770267295803899 0.1005995653590098 0 -0.06411880478631618 0.11818203644688791 0 -0.06964180214897181 0.091777453024084701 0 -0.057144835734191893 0.088207312209507505 0 -0.061770267295803899 0.1005995653590098 0 -0.06964180214897181 0.091777453024084701 0 -0.06964180214897181 0.091777453024084701 0 -0.075164799511626648 0.065372869601281192 0 -0.057144835734191893 0.088207312209507505 0 -0.06964180214897181 0.091777453024084701 0 -0.068089461569968729 0.076803891339018993 0 -0.06964180214897181 0.091777453024084701 0 -0.068089461569968729 0.076803891339018993 0 -0.075164799511626648 0.065372869601281192 0 -0.057144835734191893 0.088207312209507505 0 -0.068089461569968729 0.076803891339018993 0 -0.070406408885084593 0.061857930521202607 0 -0.06964180214897181 0.091777453024084701 0 -0.075164799511626648 0.065372869601281192 0 -0.08073347634316104 0.073575546631144614 0 -0.057144835734191893 0.088207312209507505 0 -0.070406408885084593 0.061857930521202607 0 -0.068089461569968729 0.076803891339018993 0 -0.075164799511626648 0.065372869601281192 0 -0.070406408885084593 0.061857930521202607 0 -0.089923560922876636 0.068178037636278263 0 -0.08578586832533959 0.082170087930996366 0 -0.103675070998617 0.083967309240415983 0 -0.08073347634316104 0.073575546631144614 0 -0.089923560922876636 0.068178037636278263 0 -0.083186879645449088 0.059889597987781727 0 -0.075164799511626648 0.065372869601281192 0 -0.08073347634316104 0.073575546631144614 0 -0.083186879645449088 0.059889597987781727 0 -0.08073347634316104 0.073575546631144614 0 -0.089923560922876636 0.068178037636278263 0 -0.08578586832533959 0.082170087930996366 0 -0.06964180214897181 0.091777453024084701 0 -0.08073347634316104 0.073575546631144614 0 -0.08578586832533959 0.082170087930996366 0 -0.082071947835387321 0.094412947715560025 0 -0.06964180214897181 0.091777453024084701 0 -0.08578586832533959 0.082170087930996366 0 -0.082071947835387321 0.094412947715560025 0 -0.08578586832533959 0.082170087930996366 0 -0.09233625647768956 0.091651488650119919 0 -0.09233625647768956 0.091651488650119919 0 -0.103675070998617 0.083967309240415983 0 -0.10429444750695741 0.1014886749251958 0 -0.08578586832533959 0.082170087930996366 0 -0.09233625647768956 0.091651488650119919 0 -0.103675070998617 0.083967309240415983 0 -0.103675070998617 0.083967309240415983 0 -0.1198812247159142 0.095002477965890675 0 -0.10429444750695741 0.1014886749251958 0 -0.089923560922876636 0.068178037636278263 0 -0.103675070998617 0.083967309240415983 0 -0.10785209906359081 0.065371441260914459 0 -0.12533951967512769 0.078274991835817334 0 -0.103675070998617 0.083967309240415983 0 -0.10785209906359081 0.065371441260914459 0 -0.12533951967512769 0.078274991835817334 0 -0.10785209906359081 0.065371441260914459 0 -0.1248745965026067 0.059896082918310993 0 -0.12533951967512769 0.078274991835817334 0 -0.103675070998617 0.083967309240415983 0 -0.1198812247159142 0.095002477965890675 0 -0.13137241316615089 0.11357835761918721 0 -0.1198812247159142 0.095002477965890675 0 -0.10429444750695741 0.1014886749251958 0 -0.13137241316615089 0.11357835761918721 0 -0.12687331202938101 0.13192737382428379 0 -0.10667563132183119 0.1260080396076822 0 -0.13137241316615089 0.11357835761918721 0 -0.10667563132183119 0.1260080396076822 0 -0.1062978327852654 0.11550845570815239 0 -0.13137241316615089 0.11357835761918721 0 -0.1062978327852654 0.11550845570815239 0 -0.10429444750695741 0.1014886749251958 0 -0.13137241316615089 0.11357835761918721 0 -0.10667563132183119 0.1260080396076822 0 -0.10667563132183119 0.1260080396076822 0 -0.1062978327852654 0.11550845570815239 0 -0.096577670607123245 0.1239972751083621 0 -0.092569001324263961 0.1124699312803344 0 -0.1062978327852654 0.11550845570815239 0 -0.096577670607123245 0.1239972751083621 0 -0.092569001324263961 0.1124699312803344 0 -0.1062978327852654 0.11550845570815239 0 -0.10429444750695741 0.1014886749251958 0 -0.092569001324263961 0.1124699312803344 0 -0.087572523790740042 0.10155903889124659 0 -0.10429444750695741 0.1014886749251958 0 -0.087572523790740042 0.10155903889124659 0 -0.09233625647768956 0.091651488650119919 0 -0.10429444750695741 0.1014886749251958 0 -0.10370969952600501 0.019997694726909911 0 -0.098524362227562057 0.035744340183224317 0 -0.08645931971955316 0.02325136753113614 0 -0.10370969952600501 0.019997694726909911 0 -0.08645931971955316 0.02325136753113614 0 -0.091682611010439896 0.0063963380850077774 0 -0.10370969952600501 0.019997694726909911 0 -0.1180188049733784 0.030804183747700629 0 -0.098524362227562057 0.035744340183224317 0 -0.10370969952600501 0.019997694726909911 0 -0.10877227824827949 0.0075748546359299482 0 -0.091682611010439896 0.0063963380850077774 0 -0.1029392013539359 -0.0085751277431150782 0 -0.10877227824827949 0.0075748546359299482 0 -0.091682611010439896 0.0063963380850077774 0 -0.10370969952600501 0.019997694726909911 0 -0.10877227824827949 0.0075748546359299482 0 -0.11835839359799651 0.016938700943610479 0 -0.1029392013539359 -0.0085751277431150782 0 -0.12735709500343681 0.004015926865657337 0 -0.10877227824827949 0.0075748546359299482 0 -0.12735709500343681 0.004015926865657337 0 -0.10877227824827949 0.0075748546359299482 0 -0.11835839359799651 0.016938700943610479 0 -0.1339340902388827 0.022300844741854581 0 -0.11835839359799651 0.016938700943610479 0 -0.1180188049733784 0.030804183747700629 0 -0.10370969952600501 0.019997694726909911 0 -0.11835839359799651 0.016938700943610479 0 -0.1180188049733784 0.030804183747700629 0 -0.1180188049733784 0.030804183747700629 0 -0.1128457876968547 0.048091259023394652 0 -0.098524362227562057 0.035744340183224317 0 -0.13626681081840961 0.042829268155062397 0 -0.1128457876968547 0.048091259023394652 0 -0.13626681081840961 0.042829268155062397 0 -0.1180188049733784 0.030804183747700629 0 -0.1128457876968547 0.048091259023394652 0 -0.13626681081840961 0.042829268155062397 0 -0.1128457876968547 0.048091259023394652 0 -0.1248745965026067 0.059896082918310993 0 -0.10785209906359081 0.065371441260914459 0 -0.1128457876968547 0.048091259023394652 0 -0.1248745965026067 0.059896082918310993 0 -0.1128457876968547 0.048091259023394652 0 -0.089424764575299687 0.053353249891726941 0 -0.089923560922876636 0.068178037636278263 0 -0.10785209906359081 0.065371441260914459 0 -0.089424764575299687 0.053353249891726941 0 -0.10785209906359081 0.065371441260914459 0 -0.1128457876968547 0.048091259023394652 0 -0.089424764575299687 0.053353249891726941 0 -0.1128457876968547 0.048091259023394652 0 -0.098524362227562057 0.035744340183224317 0 -0.089424764575299687 0.053353249891726941 0 -0.098524362227562057 0.035744340183224317 0 -0.080687796874281473 0.038968286178477703 0 -0.08645931971955316 0.02325136753113614 0 -0.098524362227562057 0.035744340183224317 0 -0.080687796874281473 0.038968286178477703 0 -0.089424764575299687 0.053353249891726941 0 -0.080687796874281473 0.038968286178477703 0 -0.089424764575299687 0.053353249891726941 0 -0.083186879645449088 0.059889597987781727 0 -0.075164799511626648 0.065372869601281192 0 -0.080687796874281473 0.038968286178477703 0 -0.083186879645449088 0.059889597987781727 0 -0.089923560922876636 0.068178037636278263 0 -0.089424764575299687 0.053353249891726941 0 -0.083186879645449088 0.059889597987781727 0 -0.075164799511626648 0.065372869601281192 0 -0.080687796874281473 0.038968286178477703 0 -0.071303082845968715 0.053347503409362687 0 -0.075164799511626648 0.065372869601281192 0 -0.080687796874281473 0.038968286178477703 0 -0.075164799511626648 0.065372869601281192 0 -0.070406408885084593 0.061857930521202607 0 -0.071303082845968715 0.053347503409362687 0 -0.071303082845968715 0.053347503409362687 0 -0.064856269609628314 0.055117702274744398 0 -0.065400139349222536 0.045420728471107522 0 -0.070406408885084593 0.061857930521202607 0 -0.071303082845968715 0.053347503409362687 0 -0.064856269609628314 0.055117702274744398 0 -0.070406408885084593 0.061857930521202607 0 -0.064856269609628314 0.055117702274744398 0 -0.059815066152941319 0.061788281472960463 0 -0.080687796874281473 0.038968286178477703 0 -0.065400139349222536 0.045420728471107522 0 -0.063264057366842208 0.031259222641012697 0 -0.080687796874281473 0.038968286178477703 0 -0.063264057366842208 0.031259222641012697 0 -0.073460039823911166 0.024685388153665749 0 -0.080687796874281473 0.038968286178477703 0 -0.071303082845968715 0.053347503409362687 0 -0.065400139349222536 0.045420728471107522 0 -0.063264057366842208 0.031259222641012697 0 -0.073460039823911166 0.024685388153665749 0 -0.061440697951084179 0.017621877449499421 0 -0.073460039823911166 0.024685388153665749 0 -0.076769634387976737 0.01135693610240161 0 -0.061440697951084179 0.017621877449499421 0 -0.080687796874281473 0.038968286178477703 0 -0.073460039823911166 0.024685388153665749 0 -0.08645931971955316 0.02325136753113614 0 -0.073460039823911166 0.024685388153665749 0 -0.08645931971955316 0.02325136753113614 0 -0.076769634387976737 0.01135693610240161 0 -0.08645931971955316 0.02325136753113614 0 -0.091682611010439896 0.0063963380850077774 0 -0.076769634387976737 0.01135693610240161 0 -0.091682611010439896 0.0063963380850077774 0 -0.078933949510919491 0.00072378658541613432 0 -0.076769634387976737 0.01135693610240161 0 -0.086097875964997059 -0.0058870606910941042 0 -0.091682611010439896 0.0063963380850077774 0 -0.078933949510919491 0.00072378658541613432 0 -0.078933949510919491 0.00072378658541613432 0 -0.076769634387976737 0.01135693610240161 0 -0.068462160169621672 0.0025537029525893409 0 -0.068462160169621672 0.0025537029525893409 0 -0.057836245250817257 0.0062936453779614283 0 -0.061440697951084179 0.017621877449499421 0 -0.076769634387976737 0.01135693610240161 0 -0.068462160169621672 0.0025537029525893409 0 -0.061440697951084179 0.017621877449499421 0 -0.057836245250817257 0.0062936453779614283 0 -0.061440697951084179 0.017621877449499421 0 -0.042678209040760022 0.019440128409622049 0 -0.057836245250817257 0.0062936453779614283 0 -0.042678209040760022 0.019440128409622049 0 -0.044352522143416888 0.0050416822031405977 0 -0.063264057366842208 0.031259222641012697 0 -0.042678209040760022 0.019440128409622049 0 -0.05195897498334151 0.039592758420259042 0 -0.063264057366842208 0.031259222641012697 0 -0.061440697951084179 0.017621877449499421 0 -0.042678209040760022 0.019440128409622049 0 -0.042678209040760022 0.019440128409622049 0 -0.038256592764973757 0.039174794321751791 0 -0.042678209040760022 0.019440128409622049 0 -0.038256592764973757 0.039174794321751791 0 -0.027511467414372541 0.03001296694831072 0 -0.042678209040760022 0.019440128409622049 0 -0.028180513839983729 0.018098474401369 0 -0.027511467414372541 0.03001296694831072 0 -0.042678209040760022 0.019440128409622049 0 -0.032770024037711037 0.0084985419153508525 0 -0.028180513839983729 0.018098474401369 0 -0.032770024037711037 0.0084985419153508525 0 -0.03614709390981162 0.0015378833132510439 0 -0.044352522143416888 0.0050416822031405977 0 -0.029539197120254941 -0.00051038393964639519 0 -0.032770024037711037 0.0084985419153508525 0 -0.03614709390981162 0.0015378833132510439 0 -0.042678209040760022 0.019440128409622049 0 -0.032770024037711037 0.0084985419153508525 0 -0.044352522143416888 0.0050416822031405977 0 -0.042969512877196837 0.063698159366550891 0 -0.047980875447113908 0.056604040506729722 0 -0.052166049838275927 0.062310195238599278 0 -0.047980875447113908 0.056604040506729722 0 -0.052166049838275927 0.062310195238599278 0 -0.055804220694704088 0.051985500715961808 0 -0.064856269609628314 0.055117702274744398 0 -0.059815066152941319 0.061788281472960463 0 -0.055804220694704088 0.051985500715961808 0 -0.052166049838275927 0.062310195238599278 0 -0.059815066152941319 0.061788281472960463 0 -0.055804220694704088 0.051985500715961808 0 -0.064856269609628314 0.055117702274744398 0 -0.065400139349222536 0.045420728471107522 0 -0.055804220694704088 0.051985500715961808 0 -0.047980875447113908 0.056604040506729722 0 -0.055804220694704088 0.051985500715961808 0 -0.046350630683546529 0.050276175962098407 0 -0.055804220694704088 0.051985500715961808 0 -0.05195897498334151 0.039592758420259042 0 -0.046350630683546529 0.050276175962098407 0 -0.065400139349222536 0.045420728471107522 0 -0.055804220694704088 0.051985500715961808 0 -0.05195897498334151 0.039592758420259042 0 -0.065400139349222536 0.045420728471107522 0 -0.063264057366842208 0.031259222641012697 0 -0.05195897498334151 0.039592758420259042 0 -0.042678209040760022 0.019440128409622049 0 -0.05195897498334151 0.039592758420259042 0 -0.038256592764973757 0.039174794321751791 0 -0.05195897498334151 0.039592758420259042 0 -0.038256592764973757 0.039174794321751791 0 -0.046350630683546529 0.050276175962098407 0 -0.038256592764973757 0.039174794321751791 0 -0.033834976489186493 0.058909460233881362 0 -0.038256592764973757 0.039174794321751791 0 -0.038513274033404883 0.055407770980391423 0 -0.033834976489186493 0.058909460233881362 0 -0.038256592764973757 0.039174794321751791 0 -0.046350630683546529 0.050276175962098407 0 -0.038513274033404883 0.055407770980391423 0 -0.038256592764973757 0.039174794321751791 0 -0.033834976489186493 0.058909460233881362 0 -0.02879531395286377 0.050132256585483953 0 -0.046350630683546529 0.050276175962098407 0 -0.038513274033404883 0.055407770980391423 0 -0.042914570065583427 0.057802329486214707 0 -0.036732086871232597 0.066761861307427367 0 -0.033834976489186493 0.058909460233881362 0 -0.038907572144486188 0.060810532415041758 0 -0.038513274033404883 0.055407770980391423 0 -0.033834976489186493 0.058909460233881362 0 -0.038513274033404883 0.055407770980391423 0 -0.033834976489186493 0.058909460233881362 0 -0.038907572144486188 0.060810532415041758 0 -0.042969512877196837 0.063698159366550891 0 -0.038907572144486188 0.060810532415041758 0 -0.042914570065583427 0.057802329486214707 0 -0.038513274033404883 0.055407770980391423 0 -0.038907572144486188 0.060810532415041758 0 -0.042914570065583427 0.057802329486214707 0 -0.047980875447113908 0.056604040506729722 0 -0.046350630683546529 0.050276175962098407 0 -0.042914570065583427 0.057802329486214707 0 -0.042969512877196837 0.063698159366550891 0 -0.047980875447113908 0.056604040506729722 0 -0.042914570065583427 0.057802329486214707 0 -0.033834976489186493 0.058909460233881362 0 -0.01963881101933795 0.057650575484614511 0 -0.02879531395286377 0.050132256585483953 0 -0.01963881101933795 0.057650575484614511 0 -0.02879531395286377 0.050132256585483953 0 -0.02345087553795689 0.044794196301688183 0 -0.01963881101933795 0.057650575484614511 0 -0.02345087553795689 0.044794196301688183 0 -0.012175026131353321 0.050402421608982242 0 -0.02345087553795689 0.044794196301688183 0 -0.014695186475719159 0.0359408453649432 0 -0.012175026131353321 0.050402421608982242 0 -0.038256592764973757 0.039174794321751791 0 -0.02879531395286377 0.050132256585483953 0 -0.02345087553795689 0.044794196301688183 0 -0.038256592764973757 0.039174794321751791 0 -0.02345087553795689 0.044794196301688183 0 -0.027511467414372541 0.03001296694831072 0 -0.02345087553795689 0.044794196301688183 0 -0.014695186475719159 0.0359408453649432 0 -0.027511467414372541 0.03001296694831072 0 -0.014695186475719159 0.0359408453649432 0 -0.0023331541944977092 0.045311556235899067 0 0.00074240361007229996 0.028778475488121531 0 -0.014695186475719159 0.0359408453649432 0 -0.0023331541944977092 0.045311556235899067 0 -0.012175026131353321 0.050402421608982242 0 -0.0023331541944977092 0.045311556235899067 0 -0.012175026131353321 0.050402421608982242 0 0.00079413703044923156 0.058803151297745167 0 -0.012175026131353321 0.050402421608982242 0 -0.0089029190745683329 0.062319161291970238 0 0.00079413703044923156 0.058803151297745167 0 -0.01963881101933795 0.057650575484614511 0 -0.012175026131353321 0.050402421608982242 0 -0.0089029190745683329 0.062319161291970238 0 -0.021996997598287969 0.010981086364913869 0 -0.02112675760807068 0.0030512678310729521 0 -0.0083058662928979787 0.012079608812324741 0 -0.021996997598287969 0.010981086364913869 0 -0.01661374249992489 0.02103319015209278 0 -0.0083058662928979787 0.012079608812324741 0 -0.021996997598287969 0.010981086364913869 0 -0.02112675760807068 0.0030512678310729521 0 -0.02631380729169577 0.0053104208567875946 0 -0.029539197120254941 -0.00051038393964639519 0 -0.02112675760807068 0.0030512678310729521 0 -0.02631380729169577 0.0053104208567875946 0 -0.029539197120254941 -0.00051038393964639519 0 -0.032770024037711037 0.0084985419153508525 0 -0.02631380729169577 0.0053104208567875946 0 -0.032770024037711037 0.0084985419153508525 0 -0.021996997598287969 0.010981086364913869 0 -0.02631380729169577 0.0053104208567875946 0 -0.032770024037711037 0.0084985419153508525 0 -0.021996997598287969 0.010981086364913869 0 -0.028180513839983729 0.018098474401369 0 -0.028180513839983729 0.018098474401369 0 -0.027511467414372541 0.03001296694831072 0 -0.01661374249992489 0.02103319015209278 0 -0.014695186475719159 0.0359408453649432 0 -0.027511467414372541 0.03001296694831072 0 -0.01661374249992489 0.02103319015209278 0 -0.021996997598287969 0.010981086364913869 0 -0.028180513839983729 0.018098474401369 0 -0.01661374249992489 0.02103319015209278 0 -0.01661374249992489 0.02103319015209278 0 0.00074240361007229996 0.028778475488121531 0 -0.0083058662928979787 0.012079608812324741 0 0.0060294939382754481 0.01286563290641534 0 0.00074240361007229996 0.028778475488121531 0 -0.014695186475719159 0.0359408453649432 0 -0.01661374249992489 0.02103319015209278 0 0.00074240361007229996 0.028778475488121531 0 -0.0083058662928979787 0.012079608812324741 0 0.00074240361007229996 0.028778475488121531 0 -0.01661374249992489 0.02103319015209278 0 -0.0083058662928979787 0.012079608812324741 0 0.00074240361007229996 0.028778475488121531 0 -0.0072764121498596901 -0.0036325873431357339 0 -0.0083058662928979787 0.012079608812324741 0 0.0012074066645448821 -0.00065723147797176382 0 -0.0072764121498596901 -0.0036325873431357339 0 -0.013607688627124061 -0.00178224205395049 0 -0.0083058662928979787 0.012079608812324741 0 -0.017354136195868258 -0.0046192578634720229 0 -0.0083058662928979787 0.012079608812324741 0 -0.017354136195868258 -0.0046192578634720229 0 -0.013607688627124061 -0.00178224205395049 0 -0.0083058662928979787 0.012079608812324741 0 -0.0083058662928979787 0.012079608812324741 0 0.0060294939382754481 0.01286563290641534 0 0.0012074066645448821 -0.00065723147797176382 0 -0.017354136195868258 -0.0046192578634720229 0 -0.02112675760807068 0.0030512678310729521 0 -0.0083058662928979787 0.012079608812324741 0 0.0060294939382754481 0.01286563290641534 0 0.0012074066645448821 -0.00065723147797176382 0 0.01265631079038235 -0.01012693536007268 0 0.0060294939382754481 0.01286563290641534 0 0.020311547060899309 0.014329649790385431 0 0.01265631079038235 -0.01012693536007268 0 0.00074240361007229996 0.028778475488121531 0 0.015746539320639769 0.024046632949657649 0 0.022626785018342459 0.038544513255683338 0 0.0060294939382754481 0.01286563290641534 0 0.00074240361007229996 0.028778475488121531 0 0.015746539320639769 0.024046632949657649 0 0.0060294939382754481 0.01286563290641534 0 0.015746539320639769 0.024046632949657649 0 0.020311547060899309 0.014329649790385431 0 0.015746539320639769 0.024046632949657649 0 0.029022466975609298 0.02571489330768258 0 0.020311547060899309 0.014329649790385431 0 0.015746539320639769 0.024046632949657649 0 0.029022466975609298 0.02571489330768258 0 0.022626785018342459 0.038544513255683338 0 0.020311547060899309 0.014329649790385431 0 0.034885408484197772 0.0062912350017927032 0 0.01265631079038235 -0.01012693536007268 0 0.029022466975609298 0.02571489330768258 0 0.020311547060899309 0.014329649790385431 0 0.034885408484197772 0.0062912350017927032 0 0.00079413703044923156 0.058803151297745167 0 0.01366790099406239 0.052632887419703241 0 0.0065236609159091173 0.071671444604676282 0 -0.0023331541944977092 0.045311556235899067 0 0.00079413703044923156 0.058803151297745167 0 0.01366790099406239 0.052632887419703241 0 0.00074240361007229996 0.028778475488121531 0 0.01366790099406239 0.052632887419703241 0 0.022626785018342459 0.038544513255683338 0 0.00074240361007229996 0.028778475488121531 0 0.022626785018342459 0.038544513255683338 0 -0.0023331541944977092 0.045311556235899067 0 0.00074240361007229996 0.028778475488121531 0 0.01366790099406239 0.052632887419703241 0 0.00074240361007229996 0.028778475488121531 0 0.01366790099406239 0.052632887419703241 0 0.029022466975609298 0.02571489330768258 0 0.022626785018342459 0.038544513255683338 0 0.037630953216902623 0.033668105561091018 0 0.01366790099406239 0.052632887419703241 0 0.022626785018342459 0.038544513255683338 0 0.025434983742737761 0.055249644843112657 0 0.022626785018342459 0.038544513255683338 0 0.025434983742737761 0.055249644843112657 0 0.034616451435572633 0.051242168749322393 0 0.025434983742737761 0.055249644843112657 0 0.034062632092931817 0.061255223706808547 0 0.02703491536905472 0.067401080742933134 0 0.01366790099406239 0.052632887419703241 0 0.025434983742737761 0.055249644843112657 0 0.02703491536905472 0.067401080742933134 0 0.034616451435572633 0.051242168749322393 0 0.044511166426612833 0.04831055102324476 0 0.060132464308973767 0.062986029428160187 0 0.034616451435572633 0.051242168749322393 0 0.060132464308973767 0.062986029428160187 0 0.044258496001147778 0.063884183083345675 0 0.034062632092931817 0.061255223706808547 0 0.034616451435572633 0.051242168749322393 0 0.044258496001147778 0.063884183083345675 0 0.025434983742737761 0.055249644843112657 0 0.034062632092931817 0.061255223706808547 0 0.034616451435572633 0.051242168749322393 0 0.022626785018342459 0.038544513255683338 0 0.044511166426612833 0.04831055102324476 0 0.022626785018342459 0.038544513255683338 0 0.034616451435572633 0.051242168749322393 0 0.044511166426612833 0.04831055102324476 0 0.022626785018342459 0.038544513255683338 0 0.044511166426612833 0.04831055102324476 0 0.037630953216902623 0.033668105561091018 0 0.044511166426612833 0.04831055102324476 0 0.037630953216902623 0.033668105561091018 0 0.0484135161167236 0.034205204957136963 0 0.0484135161167236 0.034205204957136963 0 0.060669767880595721 0.038134724015348051 0 0.0518117103670514 0.042737821036878322 0 0.0484135161167236 0.034205204957136963 0 0.060669767880595721 0.038134724015348051 0 0.057623658326613529 0.02352368721002385 0 0.060669767880595721 0.038134724015348051 0 0.0518117103670514 0.042737821036878322 0 0.059559274975242667 0.047504887075434543 0 0.044511166426612833 0.04831055102324476 0 0.0518117103670514 0.042737821036878322 0 0.059559274975242667 0.047504887075434543 0 0.044511166426612833 0.04831055102324476 0 0.0484135161167236 0.034205204957136963 0 0.0518117103670514 0.042737821036878322 0 0.044511166426612833 0.04831055102324476 0 0.066395547834883203 0.05807658879080619 0 0.060132464308973767 0.062986029428160187 0 0.034616451435572633 0.051242168749322393 0 0.060132464308973767 0.062986029428160187 0 0.044511166426612833 0.04831055102324476 0 0.066395547834883203 0.05807658879080619 0 0.044511166426612833 0.04831055102324476 0 0.059559274975242667 0.047504887075434543 0 0.066395547834883203 0.05807658879080619 0 0.034885408484197772 0.0062912350017927032 0 0.052968053050369737 0.0090809173488315582 0 0.042517259973231587 -0.011683923625132649 0 0.034885408484197772 0.0062912350017927032 0 0.043580831547224863 0.021565365261707499 0 0.052968053050369737 0.0090809173488315582 0 0.029022466975609298 0.02571489330768258 0 0.034885408484197772 0.0062912350017927032 0 0.043580831547224863 0.021565365261707499 0 0.029022466975609298 0.02571489330768258 0 0.037630953216902623 0.033668105561091018 0 0.043580831547224863 0.021565365261707499 0 0.037630953216902623 0.033668105561091018 0 0.0484135161167236 0.034205204957136963 0 0.043580831547224863 0.021565365261707499 0 0.057623658326613529 0.02352368721002385 0 0.052968053050369737 0.0090809173488315582 0 0.071708216805815503 0.016768608491387289 0 0.043580831547224863 0.021565365261707499 0 0.057623658326613529 0.02352368721002385 0 0.052968053050369737 0.0090809173488315582 0 0.0484135161167236 0.034205204957136963 0 0.043580831547224863 0.021565365261707499 0 0.057623658326613529 0.02352368721002385 0 0.052968053050369737 0.0090809173488315582 0 0.071708216805815503 0.016768608491387289 0 0.067492943165135169 -0.0019794682467893379 0 0.083930998993742512 0.0059737405228527038 0 0.071708216805815503 0.016768608491387289 0 0.067492943165135169 -0.0019794682467893379 0 0.083930998993742512 0.0059737405228527038 0 0.098495163759696414 0.0029673617968291321 0 0.094917995650245529 0.021722354499223519 0 0.083930998993742512 0.0059737405228527038 0 0.071708216805815503 0.016768608491387289 0 0.094917995650245529 0.021722354499223519 0 0.071708216805815503 0.016768608491387289 0 0.07449934060461412 0.03258063005354956 0 0.094917995650245529 0.021722354499223519 0 0.07449934060461412 0.03258063005354956 0 0.087237150257314613 0.037926204838731957 0 0.094917995650245529 0.021722354499223519 0 0.057623658326613529 0.02352368721002385 0 0.071708216805815503 0.016768608491387289 0 0.07449934060461412 0.03258063005354956 0 0.060669767880595721 0.038134724015348051 0 0.057623658326613529 0.02352368721002385 0 0.07449934060461412 0.03258063005354956 0 0.060669767880595721 0.038134724015348051 0 0.069155187538762042 0.045022305850501279 0 0.07449934060461412 0.03258063005354956 0 0.060669767880595721 0.038134724015348051 0 0.059559274975242667 0.047504887075434543 0 0.069155187538762042 0.045022305850501279 0 0.069155187538762042 0.045022305850501279 0 0.07449934060461412 0.03258063005354956 0 0.079692196512252927 0.044953406994506007 0 0.059559274975242667 0.047504887075434543 0 0.069155187538762042 0.045022305850501279 0 0.067326156772233525 0.050603546620565112 0 0.059559274975242667 0.047504887075434543 0 0.066395547834883203 0.05807658879080619 0 0.067326156772233525 0.050603546620565112 0 0.066395547834883203 0.05807658879080619 0 0.067326156772233525 0.050603546620565112 0 0.074194616740046182 0.051810404765518438 0 0.069155187538762042 0.045022305850501279 0 0.067326156772233525 0.050603546620565112 0 0.074194616740046182 0.051810404765518438 0 0.069155187538762042 0.045022305850501279 0 0.074194616740046182 0.051810404765518438 0 0.079692196512252927 0.044953406994506007 0 0.066395547834883203 0.05807658879080619 0 0.074194616740046182 0.051810404765518438 0 0.080343143758095259 0.058335218209008277 0 0.066395547834883203 0.05807658879080619 0 0.080343143758095259 0.058335218209008277 0 0.08827992924315356 0.067842626558367619 0 0.080343143758095259 0.058335218209008277 0 0.083306510346727383 0.05351440315152866 0 0.090416084875221875 0.058235299142909973 0 0.074194616740046182 0.051810404765518438 0 0.083306510346727383 0.05351440315152866 0 0.079692196512252927 0.044953406994506007 0 0.083306510346727383 0.05351440315152866 0 0.089760373586053266 0.048866493307206167 0 0.079692196512252927 0.044953406994506007 0 0.074194616740046182 0.051810404765518438 0 0.080343143758095259 0.058335218209008277 0 0.083306510346727383 0.05351440315152866 0 0.083306510346727383 0.05351440315152866 0 0.089760373586053266 0.048866493307206167 0 0.090416084875221875 0.058235299142909973 0 0.089760373586053266 0.048866493307206167 0 0.090416084875221875 0.058235299142909973 0 0.099395501669828634 0.055681054702382278 0 0.080343143758095259 0.058335218209008277 0 0.090416084875221875 0.058235299142909973 0 0.08827992924315356 0.067842626558367619 0 0.087237150257314613 0.037926204838731957 0 0.098930039005792711 0.04227996871225087 0 0.094917995650245529 0.021722354499223519 0 0.07449934060461412 0.03258063005354956 0 0.079692196512252927 0.044953406994506007 0 0.087237150257314613 0.037926204838731957 0 0.089760373586053266 0.048866493307206167 0 0.079692196512252927 0.044953406994506007 0 0.087237150257314613 0.037926204838731957 0 0.089760373586053266 0.048866493307206167 0 0.087237150257314613 0.037926204838731957 0 0.098930039005792711 0.04227996871225087 0 0.10894092886672049 0.033503019923715648 0 0.098930039005792711 0.04227996871225087 0 0.11550376979223601 0.054551475820320147 0 0.10894092886672049 0.033503019923715648 0 0.098930039005792711 0.04227996871225087 0 0.094917995650245529 0.021722354499223519 0 0.098930039005792711 0.04227996871225087 0 0.099395501669828634 0.055681054702382278 0 0.11550376979223601 0.054551475820320147 0 0.099395501669828634 0.055681054702382278 0 0.11550376979223601 0.054551475820320147 0 0.10561354398445311 0.069921878226714862 0 0.090416084875221875 0.058235299142909973 0 0.099395501669828634 0.055681054702382278 0 0.095618088847860577 0.065038419849084594 0 0.089760373586053266 0.048866493307206167 0 0.098930039005792711 0.04227996871225087 0 0.099395501669828634 0.055681054702382278 0 0.10894092886672049 0.033503019923715648 0 0.11961069471150609 0.02296590295220987 0 0.12977361784467401 0.039215218793308727 0 0.10894092886672049 0.033503019923715648 0 0.11550376979223601 0.054551475820320147 0 0.12977361784467401 0.039215218793308727 0 0.11961069471150609 0.02296590295220987 0 0.1158546052028349 0.0064685721448778594 0 0.094917995650245529 0.021722354499223519 0 0.11961069471150609 0.02296590295220987 0 0.1158546052028349 0.0064685721448778594 0 0.13894824890776639 0.02136224913872127 0 0.1158546052028349 0.0064685721448778594 0 0.098495163759696414 0.0029673617968291321 0 0.094917995650245529 0.021722354499223519 0 0.10894092886672049 0.033503019923715648 0 0.11961069471150609 0.02296590295220987 0 0.094917995650245529 0.021722354499223519 0 0.097728221435088053 0.099184528615223033 0 0.110275064223293 0.10236359857942121 0 0.11116449005577619 0.086473750785835857 0 0.099894961061174667 0.1104201015940532 0 0.11150799601301251 0.1117412241471519 0 0.110275064223293 0.10236359857942121 0 0.097728221435088053 0.099184528615223033 0 0.099894961061174667 0.1104201015940532 0 0.110275064223293 0.10236359857942121 0 0.097728221435088053 0.099184528615223033 0 0.099894961061174667 0.1104201015940532 0 0.084925795867796111 0.1103515185161017 0 0.099894961061174667 0.1104201015940532 0 0.096984900528893664 0.1212489081817222 0 0.084925795867796111 0.1103515185161017 0 0.099894961061174667 0.1104201015940532 0 0.096984900528893664 0.1212489081817222 0 0.10712684862241641 0.1210429748963526 0 0.096984900528893664 0.1212489081817222 0 0.10712684862241641 0.1210429748963526 0 0.10589272808503949 0.13156516273042271 0 0.099894961061174667 0.1104201015940532 0 0.10712684862241641 0.1210429748963526 0 0.11150799601301251 0.1117412241471519 0 0.10712684862241641 0.1210429748963526 0 0.11150799601301251 0.1117412241471519 0 0.1187293914863337 0.1182846474287873 0 0.11150799601301251 0.1117412241471519 0 0.1187293914863337 0.1182846474287873 0 0.1197878353292403 0.1092484053650479 0 0.10712684862241641 0.1210429748963526 0 0.1187293914863337 0.1182846474287873 0 0.114987521205969 0.1268010028982309 0 0.1187293914863337 0.1182846474287873 0 0.12813823657366311 0.12049833089676459 0 0.12624189261331301 0.1140678077034443 0 0.1187293914863337 0.1182846474287873 0 0.12212988809696081 0.1249307776834532 0 0.12813823657366311 0.12049833089676459 0 0.1187293914863337 0.1182846474287873 0 0.12212988809696081 0.1249307776834532 0 0.114987521205969 0.1268010028982309 0 0.1187293914863337 0.1182846474287873 0 0.1197878353292403 0.1092484053650479 0 0.12624189261331301 0.1140678077034443 0 0.1216961693062274 0.1020981758197984 0 0.110275064223293 0.10236359857942121 0 0.11116449005577619 0.086473750785835857 0 0.1197878353292403 0.1092484053650479 0 0.1216961693062274 0.1020981758197984 0 0.1302764983332621 0.10693497851168419 0 0.1216961693062274 0.1020981758197984 0 0.11116449005577619 0.086473750785835857 0 0.13668050292917741 0.098217611464673699 0 0.1197878353292403 0.1092484053650479 0 0.1216961693062274 0.1020981758197984 0 0.110275064223293 0.10236359857942121 0 0.11150799601301251 0.1117412241471519 0 0.1197878353292403 0.1092484053650479 0 0.110275064223293 0.10236359857942121 0 0.11116449005577619 0.086473750785835857 0 0.1207366242219714 0.074251990558816788 0 0.1300820653953097 0.084166932106396392 0 0.11116449005577619 0.086473750785835857 0 0.13668050292917741 0.098217611464673699 0 0.11116449005577619 0.086473750785835857 0 0.1207366242219714 0.074251990558816788 0 0.10561354398445311 0.069921878226714862 0 0.11550376979223601 0.054551475820320147 0 0.1207366242219714 0.074251990558816788 0 0.13255022158949201 0.068763676371196639 0 0.11550376979223601 0.054551475820320147 0 0.1207366242219714 0.074251990558816788 0 0.10561354398445311 0.069921878226714862 0 0.11116449005577619 0.086473750785835857 0 0.10561354398445311 0.069921878226714862 0 0.085648477182374977 0.074729890106998029 0 0.10561354398445311 0.069921878226714862 0 0.095618088847860577 0.065038419849084594 0 0.085648477182374977 0.074729890106998029 0 0.099395501669828634 0.055681054702382278 0 0.10561354398445311 0.069921878226714862 0 0.095618088847860577 0.065038419849084594 0 0.11116449005577619 0.086473750785835857 0 0.085648477182374977 0.074729890106998029 0 0.11116449005577619 0.086473750785835857 0 0.090808031879269946 0.087622927320568048 0 0.085648477182374977 0.074729890106998029 0 0.097728221435088053 0.099184528615223033 0 0.11116449005577619 0.086473750785835857 0 0.090808031879269946 0.087622927320568048 0 0.097728221435088053 0.099184528615223033 0 0.090808031879269946 0.087622927320568048 0 0.080235742217082393 0.093435287859391092 0 0.090808031879269946 0.087622927320568048 0 0.078675001300488379 0.083882301042573534 0 0.085648477182374977 0.074729890106998029 0 0.090808031879269946 0.087622927320568048 0 0.078675001300488379 0.083882301042573534 0 0.080235742217082393 0.093435287859391092 0 0.066395547834883203 0.05807658879080619 0 0.08827992924315356 0.067842626558367619 0 0.085648477182374977 0.074729890106998029 0 0.095618088847860577 0.065038419849084594 0 0.08827992924315356 0.067842626558367619 0 0.085648477182374977 0.074729890106998029 0 0.090416084875221875 0.058235299142909973 0 0.095618088847860577 0.065038419849084594 0 0.08827992924315356 0.067842626558367619 0 0.066395547834883203 0.05807658879080619 0 0.085648477182374977 0.074729890106998029 0 0.060132464308973767 0.062986029428160187 0 0.066395547834883203 0.05807658879080619 0 0.08827992924315356 0.067842626558367619 0 0.085648477182374977 0.074729890106998029 0 0.068637102026180674 0.07792917868559901 0 0.060132464308973767 0.062986029428160187 0 0.085648477182374977 0.074729890106998029 0 0.060132464308973767 0.062986029428160187 0 0.078675001300488379 0.083882301042573534 0 0.085648477182374977 0.074729890106998029 0 0.068637102026180674 0.07792917868559901 0 0.080235742217082393 0.093435287859391092 0 0.069503799956795384 0.087722797055870286 0 0.068523875558259784 0.095111972458496966 0 0.078675001300488379 0.083882301042573534 0 0.080235742217082393 0.093435287859391092 0 0.069503799956795384 0.087722797055870286 0 0.078675001300488379 0.083882301042573534 0 0.068637102026180674 0.07792917868559901 0 0.069503799956795384 0.087722797055870286 0 0.068637102026180674 0.07792917868559901 0 0.069503799956795384 0.087722797055870286 0 0.060111091978902922 0.083782113849914977 0 0.069503799956795384 0.087722797055870286 0 0.06135777996986308 0.093915161513068182 0 0.060111091978902922 0.083782113849914977 0 0.069503799956795384 0.087722797055870286 0 0.068523875558259784 0.095111972458496966 0 0.06135777996986308 0.093915161513068182 0 0.068523875558259784 0.095111972458496966 0 0.071520258741129425 0.10189571548122769 0 0.062413973273008162 0.1018934272394761 0 0.068523875558259784 0.095111972458496966 0 0.062413973273008162 0.1018934272394761 0 0.06135777996986308 0.093915161513068182 0 0.071520258741129425 0.10189571548122769 0 0.072821304814728441 0.1108529925529516 0 0.063718101814298073 0.11016590081819259 0 0.071520258741129425 0.10189571548122769 0 0.063718101814298073 0.11016590081819259 0 0.062413973273008162 0.1018934272394761 0 0.071520258741129425 0.10189571548122769 0 0.084925795867796111 0.1103515185161017 0 0.072821304814728441 0.1108529925529516 0 0.080235742217082393 0.093435287859391092 0 0.068523875558259784 0.095111972458496966 0 0.071520258741129425 0.10189571548122769 0 0.097728221435088053 0.099184528615223033 0 0.080235742217082393 0.093435287859391092 0 0.084925795867796111 0.1103515185161017 0 0.080235742217082393 0.093435287859391092 0 0.071520258741129425 0.10189571548122769 0 0.084925795867796111 0.1103515185161017 0 0.084925795867796111 0.1103515185161017 0 0.074154959480044275 0.1204842858357125 0 0.087075880893963842 0.12621803440601359 0 0.096984900528893664 0.1212489081817222 0 0.084925795867796111 0.1103515185161017 0 0.087075880893963842 0.12621803440601359 0 0.084925795867796111 0.1103515185161017 0 0.074154959480044275 0.1204842858357125 0 0.072821304814728441 0.1108529925529516 0 0.074154959480044275 0.1204842858357125 0 0.072821304814728441 0.1108529925529516 0 0.063718101814298073 0.11016590081819259 0 0.074154959480044275 0.1204842858357125 0 0.063718101814298073 0.11016590081819259 0 0.060124536552058239 0.11864948812996751 0 0.074154959480044275 0.1204842858357125 0 0.060124536552058239 0.11864948812996751 0 0.061109117960118017 0.12720913792676911 0 0.060124536552058239 0.11864948812996751 0 0.052595679859244633 0.1236025024456274 0 0.054913207086597561 0.11271600588853189 0 0.060124536552058239 0.11864948812996751 0 0.052595679859244633 0.1236025024456274 0 0.061109117960118017 0.12720913792676911 0 0.052595679859244633 0.1236025024456274 0 0.054913207086597561 0.11271600588853189 0 0.046771683079868627 0.1089772416004138 0 0.063718101814298073 0.11016590081819259 0 0.060124536552058239 0.11864948812996751 0 0.054913207086597561 0.11271600588853189 0 0.063718101814298073 0.11016590081819259 0 0.062413973273008162 0.1018934272394761 0 0.053620768430252298 0.1031656988462608 0 0.063718101814298073 0.11016590081819259 0 0.054913207086597561 0.11271600588853189 0 0.053620768430252298 0.1031656988462608 0 0.06135777996986308 0.093915161513068182 0 0.053620768430252298 0.1031656988462608 0 0.051535176025136201 0.090416251810209708 0 0.062413973273008162 0.1018934272394761 0 0.06135777996986308 0.093915161513068182 0 0.053620768430252298 0.1031656988462608 0 0.053620768430252298 0.1031656988462608 0 0.042875633238578528 0.09739353282270094 0 0.051535176025136201 0.090416251810209708 0 0.053620768430252298 0.1031656988462608 0 0.046771683079868627 0.1089772416004138 0 0.042875633238578528 0.09739353282270094 0 0.054913207086597561 0.11271600588853189 0 0.053620768430252298 0.1031656988462608 0 0.046771683079868627 0.1089772416004138 0 0.046771683079868627 0.1089772416004138 0 0.042875633238578528 0.09739353282270094 0 0.034382595390138257 0.1099700727945534 0 0.042875633238578528 0.09739353282270094 0 0.034382595390138257 0.1099700727945534 0 0.030708755379597181 0.088685576768743155 0 0.034382595390138257 0.1099700727945534 0 0.030708755379597181 0.088685576768743155 0 0.052595679859244633 0.1236025024456274 0 0.046771683079868627 0.1089772416004138 0 0.034382595390138257 0.1099700727945534 0 0.034382595390138257 0.1099700727945534 0 0.02520709702204247 0.1232263280856261 0 0.037354296692750887 0.12718670835402709 0 0.052595679859244633 0.1236025024456274 0 0.034382595390138257 0.1099700727945534 0 0.037354296692750887 0.12718670835402709 0 0.034382595390138257 0.1099700727945534 0 0.037354296692750887 0.12718670835402709 0 0.052595679859244633 0.1236025024456274 0 0.034382595390138257 0.1099700727945534 0 0.060132464308973767 0.062986029428160187 0 0.051537231586459821 0.0703604747810012 0 0.044258496001147778 0.063884183083345675 0 0.051537231586459821 0.0703604747810012 0 0.045053238281461433 0.071665999821029613 0 0.044258496001147778 0.063884183083345675 0 0.060132464308973767 0.062986029428160187 0 0.058160070023191839 0.074213970699792686 0 0.051537231586459821 0.0703604747810012 0 0.068637102026180674 0.07792917868559901 0 0.060132464308973767 0.062986029428160187 0 0.058160070023191839 0.074213970699792686 0 0.051537231586459821 0.0703604747810012 0 0.049495561811348857 0.078896267932753172 0 0.045053238281461433 0.071665999821029613 0 0.058160070023191839 0.074213970699792686 0 0.051537231586459821 0.0703604747810012 0 0.049495561811348857 0.078896267932753172 0 0.049495561811348857 0.078896267932753172 0 0.051535176025136201 0.090416251810209708 0 0.041750220721871581 0.085344735896560275 0 0.049495561811348857 0.078896267932753172 0 0.060111091978902922 0.083782113849914977 0 0.051535176025136201 0.090416251810209708 0 0.068637102026180674 0.07792917868559901 0 0.058160070023191839 0.074213970699792686 0 0.060111091978902922 0.083782113849914977 0 0.058160070023191839 0.074213970699792686 0 0.049495561811348857 0.078896267932753172 0 0.060111091978902922 0.083782113849914977 0 0.06135777996986308 0.093915161513068182 0 0.060111091978902922 0.083782113849914977 0 0.051535176025136201 0.090416251810209708 0 0.042875633238578528 0.09739353282270094 0 0.051535176025136201 0.090416251810209708 0 0.041750220721871581 0.085344735896560275 0 0.042875633238578528 0.09739353282270094 0 0.041750220721871581 0.085344735896560275 0 0.030708755379597181 0.088685576768743155 0 0.041750220721871581 0.085344735896560275 0 0.037489048909448763 0.07466528487264068 0 0.030708755379597181 0.088685576768743155 0 0.049495561811348857 0.078896267932753172 0 0.041750220721871581 0.085344735896560275 0 0.037489048909448763 0.07466528487264068 0 0.037489048909448763 0.07466528487264068 0 0.02703491536905472 0.067401080742933134 0 0.030708755379597181 0.088685576768743155 0 0.049495561811348857 0.078896267932753172 0 0.045053238281461433 0.071665999821029613 0 0.037489048909448763 0.07466528487264068 0 0.045053238281461433 0.071665999821029613 0 0.037489048909448763 0.07466528487264068 0 0.037579666130808903 0.067774354445351542 0 0.034062632092931817 0.061255223706808547 0 0.037579666130808903 0.067774354445351542 0 0.02703491536905472 0.067401080742933134 0 0.037489048909448763 0.07466528487264068 0 0.037579666130808903 0.067774354445351542 0 0.02703491536905472 0.067401080742933134 0 0.034062632092931817 0.061255223706808547 0 0.037579666130808903 0.067774354445351542 0 0.044258496001147778 0.063884183083345675 0 0.045053238281461433 0.071665999821029613 0 0.037579666130808903 0.067774354445351542 0 0.044258496001147778 0.063884183083345675 0 0.02703491536905472 0.067401080742933134 0 0.030708755379597181 0.088685576768743155 0 0.01366790099406239 0.052632887419703241 0 0.026593398378051959 0.076487299351285121 0 0.01366790099406239 0.052632887419703241 0 0.02703491536905472 0.067401080742933134 0 0.026593398378051959 0.076487299351285121 0 0.02703491536905472 0.067401080742933134 0 0.026593398378051959 0.076487299351285121 0 0.030708755379597181 0.088685576768743155 0 0.01366790099406239 0.052632887419703241 0 0.026593398378051959 0.076487299351285121 0 0.01611389888654503 0.070322973248010373 0 0.026593398378051959 0.076487299351285121 0 0.01611389888654503 0.070322973248010373 0 0.01767063525815666 0.080500261616376856 0 0.01767063525815666 0.080500261616376856 0 0.030708755379597181 0.088685576768743155 0 0.011643404763696401 0.092949868607662828 0 0.026593398378051959 0.076487299351285121 0 0.01767063525815666 0.080500261616376856 0 0.030708755379597181 0.088685576768743155 0 0.01767063525815666 0.080500261616376856 0 0.011643404763696401 0.092949868607662828 0 0.0065236609159091173 0.071671444604676282 0 -0.01109578586274463 0.07592966442077155 0 0.011643404763696401 0.092949868607662828 0 0.0065236609159091173 0.071671444604676282 0 -0.01109578586274463 0.07592966442077155 0 0.011643404763696401 0.092949868607662828 0 0.01366790099406239 0.052632887419703241 0 0.01611389888654503 0.070322973248010373 0 0.0065236609159091173 0.071671444604676282 0 0.01611389888654503 0.070322973248010373 0 0.01767063525815666 0.080500261616376856 0 0.0065236609159091173 0.071671444604676282 0 -0.0031702267477386531 0.067180855403790804 0 0.00079413703044923156 0.058803151297745167 0 0.0065236609159091173 0.071671444604676282 0 0.034382595390138257 0.1099700727945534 0 0.02520709702204247 0.1232263280856261 0 0.01356063639681436 0.11371506303709419 0 0.02520709702204247 0.1232263280856261 0 0.01356063639681436 0.11371506303709419 0 0.011098566836083609 0.13484946890849181 0 0.034382595390138257 0.1099700727945534 0 0.011643404763696401 0.092949868607662828 0 0.01356063639681436 0.11371506303709419 0 0.034382595390138257 0.1099700727945534 0 0.011643404763696401 0.092949868607662828 0 0.034382595390138257 0.1099700727945534 0 0.030708755379597181 0.088685576768743155 0 0.011643404763696401 0.092949868607662828 0 -0.0040088977147468936 0.097024336429998151 0 0.011643404763696401 0.092949868607662828 0 0.0025937760044158291 0.1064596481343341 0 0.011643404763696401 0.092949868607662828 0 0.0025937760044158291 0.1064596481343341 0 0.01356063639681436 0.11371506303709419 0 -0.007175360702145514 0.1155930690216506 0 0.0025937760044158291 0.1064596481343341 0 0.01356063639681436 0.11371506303709419 0 -0.007175360702145514 0.1155930690216506 0 0.01356063639681436 0.11371506303709419 0 0.011098566836083609 0.13484946890849181 0 -0.007175360702145514 0.1155930690216506 0 0.011098566836083609 0.13484946890849181 0 0.02520709702204247 0.1232263280856261 0 0.011098566836083609 0.13484946890849181 0 0.028759663239593541 0.13617761485890201 0 0.02520709702204247 0.1232263280856261 0 0.028759663239593541 0.13617761485890201 0 0.037354296692750887 0.12718670835402709 0 0.011098566836083609 0.13484946890849181 0 0.029372494374312729 0.15410586879533311 0 0.013538337341477229 0.1636201682865295 0 0.011098566836083609 0.13484946890849181 0 0.028759663239593541 0.13617761485890201 0 0.029372494374312729 0.15410586879533311 0 0.011098566836083609 0.13484946890849181 0 0.029372494374312729 0.15410586879533311 0 -0.0048034666842798916 0.1614245706846468 0 0.011098566836083609 0.13484946890849181 0 0.013538337341477229 0.1636201682865295 0 -0.0057956805663459468 0.1892940575843915 0 -0.0048034666842798916 0.1614245706846468 0 0.013538337341477229 0.1636201682865295 0 -0.0057956805663459468 0.1892940575843915 0 0.013538337341477229 0.1636201682865295 0 0.020045678312652242 0.18090880435863019 0 -0.0057956805663459468 0.1892940575843915 0 0.020045678312652242 0.18090880435863019 0 0.029372494374312729 0.15410586879533311 0 0.013538337341477229 0.1636201682865295 0 0.020045678312652242 0.18090880435863019 0 0.029372494374312729 0.15410586879533311 0 0.045887037191650451 0.17252355113286891 0 0.04813315871709322 0.1541455757588851 0 0.029372494374312729 0.15410586879533311 0 0.020045678312652242 0.18090880435863019 0 0.045887037191650451 0.17252355113286891 0 0.020045678312652242 0.18090880435863019 0 0.045887037191650451 0.17252355113286891 0 0.020045678312652242 0.18090880435863019 0 0.045887037191650451 0.17252355113286891 0 0.041991232206495782 0.1919910870650737 0 0.045887037191650451 0.17252355113286891 0 0.060802696405823108 0.1787365445376432 0 0.041991232206495782 0.1919910870650737 0 0.045887037191650451 0.17252355113286891 0 0.071728396070648653 0.1641382979071076 0 0.045887037191650451 0.17252355113286891 0 0.060802696405823108 0.1787365445376432 0 0.071728396070648653 0.1641382979071076 0 0.045887037191650451 0.17252355113286891 0 0.059657673584757237 0.15824269734654939 0 0.04813315871709322 0.1541455757588851 0 0.045887037191650451 0.17252355113286891 0 0.059657673584757237 0.15824269734654939 0 0.071728396070648653 0.1641382979071076 0 0.059657673584757237 0.15824269734654939 0 0.04813315871709322 0.1541455757588851 0 0.060329678829100349 0.1474246815113264 0 0.04813315871709322 0.1541455757588851 0 0.050215372913412007 0.1458935282758238 0 0.060329678829100349 0.1474246815113264 0 0.050215372913412007 0.1458935282758238 0 0.060329678829100349 0.1474246815113264 0 0.052072656112092337 0.13760051191958289 0 0.050215372913412007 0.1458935282758238 0 0.052072656112092337 0.13760051191958289 0 0.040325997995362128 0.14440334391350099 0 0.060329678829100349 0.1474246815113264 0 0.062159468211553673 0.13737243366585769 0 0.052072656112092337 0.13760051191958289 0 0.062159468211553673 0.13737243366585769 0 0.054733357378362921 0.13083888414419281 0 0.052072656112092337 0.13760051191958289 0 0.052595679859244633 0.1236025024456274 0 0.054733357378362921 0.13083888414419281 0 0.061109117960118017 0.12720913792676911 0 0.062159468211553673 0.13737243366585769 0 0.054733357378362921 0.13083888414419281 0 0.061109117960118017 0.12720913792676911 0 0.052595679859244633 0.1236025024456274 0 0.054733357378362921 0.13083888414419281 0 0.046346625143134958 0.1312929959830558 0 0.054733357378362921 0.13083888414419281 0 0.052072656112092337 0.13760051191958289 0 0.046346625143134958 0.1312929959830558 0 0.037354296692750887 0.12718670835402709 0 0.040325997995362128 0.14440334391350099 0 0.046346625143134958 0.1312929959830558 0 0.037354296692750887 0.12718670835402709 0 0.040325997995362128 0.14440334391350099 0 0.028759663239593541 0.13617761485890201 0 0.037354296692750887 0.12718670835402709 0 0.040325997995362128 0.14440334391350099 0 0.052072656112092337 0.13760051191958289 0 0.046346625143134958 0.1312929959830558 0 0.040325997995362128 0.14440334391350099 0 0.052595679859244633 0.1236025024456274 0 0.046346625143134958 0.1312929959830558 0 0.037354296692750887 0.12718670835402709 0 0.028759663239593541 0.13617761485890201 0 0.029372494374312729 0.15410586879533311 0 0.040325997995362128 0.14440334391350099 0 0.029372494374312729 0.15410586879533311 0 0.04813315871709322 0.1541455757588851 0 0.040325997995362128 0.14440334391350099 0 0.04813315871709322 0.1541455757588851 0 0.050215372913412007 0.1458935282758238 0 0.040325997995362128 0.14440334391350099 0 0.025149977659741599 0.24684982625080901 0 0.00014186162909880781 0.2338185852574263 0 0.02177620002751179 0.22559840920251981 0 0.025149977659741599 0.24684982625080901 0 0.00014186162909880781 0.2338185852574263 0 0.025149977659741599 0.24684982625080901 0 0.00014186162909880781 0.2338185852574263 0 0.0073806355134042019 0.25529449578482938 0 0.00014186162909880781 0.2338185852574263 0 0.02177620002751179 0.22559840920251981 0 0.0090806704795409685 0.20996839310177981 0 0.025149977659741599 0.24684982625080901 0 0.02177620002751179 0.22559840920251981 0 0.039960986899899173 0.22780444499479169 0 0.02177620002751179 0.22559840920251981 0 0.0090806704795409685 0.20996839310177981 0 0.034547503469278373 0.20955079640779209 0 0.0090806704795409685 0.20996839310177981 0 0.02162293693503077 0.1981024475624624 0 0.034547503469278373 0.20955079640779209 0 -0.0057956805663459468 0.1892940575843915 0 0.0090806704795409685 0.20996839310177981 0 0.02162293693503077 0.1981024475624624 0 -0.0057956805663459468 0.1892940575843915 0 0.020045678312652242 0.18090880435863019 0 0.02162293693503077 0.1981024475624624 0 0.020045678312652242 0.18090880435863019 0 0.02162293693503077 0.1981024475624624 0 0.041991232206495782 0.1919910870650737 0 0.02162293693503077 0.1981024475624624 0 0.041991232206495782 0.1919910870650737 0 0.034547503469278373 0.20955079640779209 0 0.041991232206495782 0.1919910870650737 0 0.05849467095877426 0.1965416733816682 0 0.050764695011206777 0.20916964222725651 0 0.060802696405823108 0.1787365445376432 0 0.041991232206495782 0.1919910870650737 0 0.05849467095877426 0.1965416733816682 0 0.050764695011206777 0.20916964222725651 0 0.066981886553135278 0.20878848804672309 0 0.05849467095877426 0.1965416733816682 0 0.050764695011206777 0.20916964222725651 0 0.066981886553135278 0.20878848804672309 0 0.050764695011206777 0.20916964222725651 0 0.061514006406540499 0.23071042489022231 0 0.066981886553135278 0.20878848804672309 0 0.050764695011206777 0.20916964222725651 0 0.034547503469278373 0.20955079640779209 0 0.039960986899899173 0.22780444499479169 0 0.050764695011206777 0.20916964222725651 0 0.034547503469278373 0.20955079640779209 0 0.041991232206495782 0.1919910870650737 0 0.050764695011206777 0.20916964222725651 0 0.034547503469278373 0.20955079640779209 0 0.02177620002751179 0.22559840920251981 0 0.034547503469278373 0.20955079640779209 0 0.039960986899899173 0.22780444499479169 0 0.039960986899899173 0.22780444499479169 0 0.061514006406540499 0.23071042489022231 0 0.045472231705318063 0.24424317023843681 0 0.050764695011206777 0.20916964222725651 0 0.039960986899899173 0.22780444499479169 0 0.061514006406540499 0.23071042489022231 0 0.061514006406540499 0.23071042489022231 0 0.056046126259945157 0.25263236173372139 0 0.061514006406540499 0.23071042489022231 0 0.056046126259945157 0.25263236173372139 0 0.067905867336300579 0.25358800162702 0 0.061514006406540499 0.23071042489022231 0 0.045472231705318063 0.24424317023843681 0 0.056046126259945157 0.25263236173372139 0 0.025149977659741599 0.24684982625080901 0 0.039960986899899173 0.22780444499479169 0 0.045472231705318063 0.24424317023843681 0 0.092857250133516089 0.24175825718487831 0 0.078525547080241467 0.2465942846531784 0 0.093798877441032588 0.2579700649065903 0 0.092857250133516089 0.24175825718487831 0 0.078525547080241467 0.2465942846531784 0 0.081986142109724491 0.22560265144644431 0 0.061514006406540499 0.23071042489022231 0 0.078525547080241467 0.2465942846531784 0 0.067905867336300579 0.25358800162702 0 0.061514006406540499 0.23071042489022231 0 0.078525547080241467 0.2465942846531784 0 0.081986142109724491 0.22560265144644431 0 0.061514006406540499 0.23071042489022231 0 0.081986142109724491 0.22560265144644431 0 0.066981886553135278 0.20878848804672309 0 0.061514006406540499 0.23071042489022231 0 0.066981886553135278 0.20878848804672309 0 0.081986142109724491 0.22560265144644431 0 0.09236794217301933 0.20819183719001669 0 0.066981886553135278 0.20878848804672309 0 0.09236794217301933 0.20819183719001669 0 0.066981886553135278 0.20878848804672309 0 0.09236794217301933 0.20819183719001669 0 0.066981886553135278 0.20878848804672309 0 0.071445073857882777 0.19089458628000441 0 0.060802696405823108 0.1787365445376432 0 0.05849467095877426 0.1965416733816682 0 0.071445073857882777 0.19089458628000441 0 0.066981886553135278 0.20878848804672309 0 0.071445073857882777 0.19089458628000441 0 0.05849467095877426 0.1965416733816682 0 0.066981886553135278 0.20878848804672309 0 0.071445073857882777 0.19089458628000441 0 0.09236794217301933 0.20819183719001669 0 0.071445073857882777 0.19089458628000441 0 0.086464584236575506 0.1862285865309723 0 0.09236794217301933 0.20819183719001669 0 0.086464584236575506 0.1862285865309723 0 0.1023855527362314 0.18749689463882899 0 0.09236794217301933 0.20819183719001669 0 0.11775399779290339 0.20759518633331239 0 0.1023855527362314 0.18749689463882899 0 0.11775399779290339 0.20759518633331239 0 0.1023855527362314 0.18749689463882899 0 0.12550986450034471 0.186594373040398 0 0.09236794217301933 0.20819183719001669 0 0.11775399779290339 0.20759518633331239 0 0.09236794217301933 0.20819183719001669 0 0.11775399779290339 0.20759518633331239 0 0.10906069526472741 0.22998953009969161 0 0.092857250133516089 0.24175825718487831 0 0.081986142109724491 0.22560265144644431 0 0.10906069526472741 0.22998953009969161 0 0.081986142109724491 0.22560265144644431 0 0.09236794217301933 0.20819183719001669 0 0.10906069526472741 0.22998953009969161 0 0.11775399779290339 0.20759518633331239 0 0.10906069526472741 0.22998953009969161 0 0.1382648444377183 0.22719855966067881 0 0.10906069526472741 0.22998953009969161 0 0.12787711237058769 0.24521089126939841 0 0.1100607559553454 0.25396994184181759 0 0.092857250133516089 0.24175825718487831 0 0.10906069526472741 0.22998953009969161 0 0.1100607559553454 0.25396994184181759 0 0.081151633673542972 0.15313158297098389 0 0.083920606388658545 0.14050817004821939 0 0.0975697549496468 0.15575304468134629 0 0.081151633673542972 0.15313158297098389 0 0.083920606388658545 0.14050817004821939 0 0.071387777285217918 0.15212681924726251 0 0.074154959480044275 0.1204842858357125 0 0.087075880893963842 0.12621803440601359 0 0.083920606388658545 0.14050817004821939 0 0.087075880893963842 0.12621803440601359 0 0.083920606388658545 0.14050817004821939 0 0.097906888154765004 0.1362305538396491 0 0.062159468211553673 0.13737243366585769 0 0.061109117960118017 0.12720913792676911 0 0.083920606388658545 0.14050817004821939 0 0.074154959480044275 0.1204842858357125 0 0.061109117960118017 0.12720913792676911 0 0.083920606388658545 0.14050817004821939 0 0.061109117960118017 0.12720913792676911 0 0.083920606388658545 0.14050817004821939 0 0.062159468211553673 0.13737243366585769 0 0.083920606388658545 0.14050817004821939 0 0.069449382678632612 0.1443580261181665 0 0.060329678829100349 0.1474246815113264 0 0.062159468211553673 0.13737243366585769 0 0.069449382678632612 0.1443580261181665 0 0.060329678829100349 0.1474246815113264 0 0.069449382678632612 0.1443580261181665 0 0.071387777285217918 0.15212681924726251 0 0.083920606388658545 0.14050817004821939 0 0.069449382678632612 0.1443580261181665 0 0.071387777285217918 0.15212681924726251 0 0.059657673584757237 0.15824269734654939 0 0.060329678829100349 0.1474246815113264 0 0.071387777285217918 0.15212681924726251 0 0.059657673584757237 0.15824269734654939 0 0.071387777285217918 0.15212681924726251 0 0.071728396070648653 0.1641382979071076 0 0.081151633673542972 0.15313158297098389 0 0.071387777285217918 0.15212681924726251 0 0.071728396070648653 0.1641382979071076 0 0.071445073857882777 0.19089458628000441 0 0.075908261162629706 0.17300068451328551 0 0.086464584236575506 0.1862285865309723 0 0.060802696405823108 0.1787365445376432 0 0.071445073857882777 0.19089458628000441 0 0.075908261162629706 0.17300068451328551 0 0.071445073857882777 0.19089458628000441 0 0.075908261162629706 0.17300068451328551 0 0.060802696405823108 0.1787365445376432 0 0.071728396070648653 0.1641382979071076 0 0.075908261162629706 0.17300068451328551 0 0.086464584236575506 0.1862285865309723 0 0.090216091253114361 0.17155893003272579 0 0.1023855527362314 0.18749689463882899 0 0.075908261162629706 0.17300068451328551 0 0.086464584236575506 0.1862285865309723 0 0.090216091253114361 0.17155893003272579 0 0.081151633673542972 0.15313158297098389 0 0.071728396070648653 0.1641382979071076 0 0.0975697549496468 0.15575304468134629 0 0.071728396070648653 0.1641382979071076 0 0.090216091253114361 0.17155893003272579 0 0.0975697549496468 0.15575304468134629 0 0.071728396070648653 0.1641382979071076 0 0.075908261162629706 0.17300068451328551 0 0.090216091253114361 0.17155893003272579 0 0.071728396070648653 0.1641382979071076 0 0.0975697549496468 0.15575304468134629 0 0.090216091253114361 0.17155893003272579 0 0.1064810698159025 0.16893633516972181 0 0.0975697549496468 0.15575304468134629 0 0.1064810698159025 0.16893633516972181 0 0.1067320948171991 0.1538072021696697 0 0.0975697549496468 0.15575304468134629 0 0.090216091253114361 0.17155893003272579 0 0.1064810698159025 0.16893633516972181 0 0.1023855527362314 0.18749689463882899 0 0.1064810698159025 0.16893633516972181 0 0.12954358324573961 0.16710623429112001 0 0.12550986450034471 0.186594373040398 0 0.1064810698159025 0.16893633516972181 0 0.1023855527362314 0.18749689463882899 0 0.12550986450034471 0.186594373040398 0 0.1064810698159025 0.16893633516972181 0 0.1067320948171991 0.1538072021696697 0 0.12954358324573961 0.16710623429112001 0 0.1067320948171991 0.1538072021696697 0 0.1262856736452258 0.1537478882528979 0 0.12954358324573961 0.16710623429112001 0 0.1067320948171991 0.1538072021696697 0 0.12954358324573961 0.16710623429112001 0 0.1148569119608701 0.14824987142416859 0 0.1067320948171991 0.1538072021696697 0 0.1262856736452258 0.1537478882528979 0 0.118317888191051 0.14254191757659121 0 0.1148569119608701 0.14824987142416859 0 0.1262856736452258 0.1537478882528979 0 0.118317888191051 0.14254191757659121 0 0.12756241452120801 0.13893694775055651 0 0.1262856736452258 0.1537478882528979 0 0.1148569119608701 0.14824987142416859 0 0.1067320948171991 0.1538072021696697 0 0.1080919911900045 0.14290247769751591 0 0.118317888191051 0.14254191757659121 0 0.1148569119608701 0.14824987142416859 0 0.1080919911900045 0.14290247769751591 0 0.083920606388658545 0.14050817004821939 0 0.1067320948171991 0.1538072021696697 0 0.1067320948171991 0.1538072021696697 0 0.1080919911900045 0.14290247769751591 0 0.097906888154765004 0.1362305538396491 0 0.083920606388658545 0.14050817004821939 0 0.1067320948171991 0.1538072021696697 0 0.097906888154765004 0.1362305538396491 0 0.083920606388658545 0.14050817004821939 0 0.1067320948171991 0.1538072021696697 0 0.0975697549496468 0.15575304468134629 0 0.096984900528893664 0.1212489081817222 0 0.097906888154765004 0.1362305538396491 0 0.10589272808503949 0.13156516273042271 0 0.096984900528893664 0.1212489081817222 0 0.087075880893963842 0.12621803440601359 0 0.097906888154765004 0.1362305538396491 0 0.1080919911900045 0.14290247769751591 0 0.097906888154765004 0.1362305538396491 0 0.10589272808503949 0.13156516273042271 0 0.1080919911900045 0.14290247769751591 0 0.10589272808503949 0.13156516273042271 0 0.11327312463209829 0.13597294690712769 0 0.10712684862241641 0.1210429748963526 0 0.10589272808503949 0.13156516273042271 0 0.114987521205969 0.1268010028982309 0 0.10589272808503949 0.13156516273042271 0 0.114987521205969 0.1268010028982309 0 0.11327312463209829 0.13597294690712769 0 0.114987521205969 0.1268010028982309 0 0.11327312463209829 0.13597294690712769 0 0.1203000125167645 0.13336293759413789 0 0.118317888191051 0.14254191757659121 0 0.1080919911900045 0.14290247769751591 0 0.11327312463209829 0.13597294690712769 0 0.118317888191051 0.14254191757659121 0 0.1203000125167645 0.13336293759413789 0 0.12756241452120801 0.13893694775055651 0 0.118317888191051 0.14254191757659121 0 0.11327312463209829 0.13597294690712769 0 0.1203000125167645 0.13336293759413789 0 0.12212988809696081 0.1249307776834532 0 0.114987521205969 0.1268010028982309 0 0.1203000125167645 0.13336293759413789 0 0.12212988809696081 0.1249307776834532 0 0.1203000125167645 0.13336293759413789 0 0.12788127083107459 0.1291064789800366 0 0.12788127083107459 0.1291064789800366 0 0.13409394305489639 0.1257339851238449 0 0.12813823657366311 0.12049833089676459 0 0.12788127083107459 0.1291064789800366 0 0.13410827310584911 0.13282331674432049 0 0.13409394305489639 0.1257339851238449 0 0.12788127083107459 0.1291064789800366 0 0.12756241452120801 0.13893694775055651 0 0.13410827310584911 0.13282331674432049 0 0.1203000125167645 0.13336293759413789 0 0.12788127083107459 0.1291064789800366 0 0.12756241452120801 0.13893694775055651 0 0.13410827310584911 0.13282331674432049 0 0.14295710802469111 0.12768772724150559 0 0.13848136883728299 0.14203914735535511 0 0.12756241452120801 0.13893694775055651 0 0.13410827310584911 0.13282331674432049 0 0.13848136883728299 0.14203914735535511 0 0.13410827310584911 0.13282331674432049 0 0.13409394305489639 0.1257339851238449 0 0.14295710802469111 0.12768772724150559 0 0.14295710802469111 0.12768772724150559 0 0.15698787762036359 0.14007723406829989 0 0.15364605026385231 0.1227496740475859 0 0.14295710802469111 0.12768772724150559 0 0.13848136883728299 0.14203914735535511 0 0.15698787762036359 0.14007723406829989 0 0.13848136883728299 0.14203914735535511 0 0.1441447949138806 0.1573716891147208 0 0.15698787762036359 0.14007723406829989 0 0.1441447949138806 0.1573716891147208 0 0.1598153361361678 0.15982657838785511 0 0.15698787762036359 0.14007723406829989 0 0.13848136883728299 0.14203914735535511 0 0.1262856736452258 0.1537478882528979 0 0.1441447949138806 0.1573716891147208 0 0.12756241452120801 0.13893694775055651 0 0.13848136883728299 0.14203914735535511 0 0.1262856736452258 0.1537478882528979 0 0.1262856736452258 0.1537478882528979 0 0.12954358324573961 0.16710623429112001 0 0.1441447949138806 0.1573716891147208 0 0.12954358324573961 0.16710623429112001 0 0.12550986450034471 0.186594373040398 0 0.15375492999850379 0.1814330523327968 0 0.12954358324573961 0.16710623429112001 0 0.15375492999850379 0.1814330523327968 0 0.1441447949138806 0.1573716891147208 0 0.15375492999850379 0.1814330523327968 0 0.1441447949138806 0.1573716891147208 0 0.1598153361361678 0.15982657838785511 0 0.1598153361361678 0.15982657838785511 0 0.17205847002769489 0.1711246398383999 0 0.17247097746626519 0.1464629757798975 0 0.15375492999850379 0.1814330523327968 0 0.1598153361361678 0.15982657838785511 0 0.17205847002769489 0.1711246398383999 0 0.15375492999850379 0.1814330523327968 0 0.17205847002769489 0.1711246398383999 0 0.18411838942066619 0.18828130780555291 0 0.17205847002769489 0.1711246398383999 0 0.18411838942066619 0.18828130780555291 0 0.19050902449260759 0.164433536692701 0 0.17205847002769489 0.1711246398383999 0 0.17247097746626519 0.1464629757798975 0 0.19050902449260759 0.164433536692701 0 0.17247097746626519 0.1464629757798975 0 0.1903693880120208 0.14015559280000461 0 0.19050902449260759 0.164433536692701 0 0.17247097746626519 0.1464629757798975 0 0.18002451345814399 0.12716596121819479 0 0.1903693880120208 0.14015559280000461 0 0.17247097746626519 0.1464629757798975 0 0.18002451345814399 0.12716596121819479 0 0.16417220099380411 0.12505127510387981 0 0.15698787762036359 0.14007723406829989 0 0.16417220099380411 0.12505127510387981 0 0.15364605026385231 0.1227496740475859 0 0.17247097746626519 0.1464629757798975 0 0.15698787762036359 0.14007723406829989 0 0.16417220099380411 0.12505127510387981 0 0.1598153361361678 0.15982657838785511 0 0.17247097746626519 0.1464629757798975 0 0.15698787762036359 0.14007723406829989 0 0.14702044576598061 0.2478904659134552 0 0.1382648444377183 0.22719855966067881 0 0.15828943790025421 0.22969507774947781 0 0.14702044576598061 0.2478904659134552 0 0.12787711237058769 0.24521089126939841 0 0.1382648444377183 0.22719855966067881 0 0.10906069526472741 0.22998953009969161 0 0.12787711237058769 0.24521089126939841 0 0.1382648444377183 0.22719855966067881 0 0.1382648444377183 0.22719855966067881 0 0.14314005341278749 0.20699853547660821 0 0.15828943790025421 0.22969507774947781 0 0.14314005341278749 0.20699853547660821 0 0.16852610903267151 0.206401884619904 0 0.11775399779290339 0.20759518633331239 0 0.1382648444377183 0.22719855966067881 0 0.14314005341278749 0.20699853547660821 0 0.11775399779290339 0.20759518633331239 0 0.14314005341278749 0.20699853547660821 0 0.11775399779290339 0.20759518633331239 0 0.12550986450034471 0.186594373040398 0 0.14314005341278749 0.20699853547660821 0 0.15375492999850379 0.1814330523327968 0 0.14314005341278749 0.20699853547660821 0 0.16852610903267151 0.206401884619904 0 0.12550986450034471 0.186594373040398 0 0.15375492999850379 0.1814330523327968 0 0.14314005341278749 0.20699853547660821 0 0.15375492999850379 0.1814330523327968 0 0.18411838942066619 0.18828130780555291 0 0.16852610903267151 0.206401884619904 0 0.18411838942066619 0.18828130780555291 0 0.16852610903267151 0.206401884619904 0 0.1878214256448299 0.20672411698152671 0 0.16852610903267151 0.206401884619904 0 0.17766068788986381 0.23020170431202469 0 0.1878214256448299 0.20672411698152671 0 0.14314005341278749 0.20699853547660821 0 0.16852610903267151 0.206401884619904 0 0.15828943790025421 0.22969507774947781 0 0.16852610903267151 0.206401884619904 0 0.15828943790025421 0.22969507774947781 0 0.17766068788986381 0.23020170431202469 0 0.17766068788986381 0.23020170431202469 0 0.19353513124668931 0.22246748781277501 0 0.1878214256448299 0.20672411698152671 0 0.17766068788986381 0.23020170431202469 0 0.18692125413578081 0.24552837502103991 0 0.19379669244916639 0.23440003217329089 0 0.17766068788986381 0.23020170431202469 0 0.18692125413578081 0.24552837502103991 0 0.16774616909827719 0.2460930353984315 0 0.15828943790025421 0.22969507774947781 0 0.17766068788986381 0.23020170431202469 0 0.16774616909827719 0.2460930353984315 0 0.14702044576598061 0.2478904659134552 0 0.15828943790025421 0.22969507774947781 0 0.16774616909827719 0.2460930353984315 0 0.21557305570370441 0.24515722135805329 0 0.2029257889591993 0.24295866219667439 0 0.23007231546290949 0.2334513308517342 0 0.2029257889591993 0.24295866219667439 0 0.23007231546290949 0.2334513308517342 0 0.21557305570370441 0.24515722135805329 0 0.2029257889591993 0.24295866219667439 0 0.20107379594449931 0.25686311186437227 0 0.18692125413578081 0.24552837502103991 0 0.2029257889591993 0.24295866219667439 0 0.20107379594449931 0.25686311186437227 0 0.18692125413578081 0.24552837502103991 0 0.19379669244916639 0.23440003217329089 0 0.2029257889591993 0.24295866219667439 0 0.17766068788986381 0.23020170431202469 0 0.19379669244916639 0.23440003217329089 0 0.19353513124668931 0.22246748781277501 0 0.19379669244916639 0.23440003217329089 0 0.2029257889591993 0.24295866219667439 0 0.20920449219815451 0.22515354045629349 0 0.19379669244916639 0.23440003217329089 0 0.19353513124668931 0.22246748781277501 0 0.20920449219815451 0.22515354045629349 0 0.2029257889591993 0.24295866219667439 0 0.20920449219815451 0.22515354045629349 0 0.23007231546290949 0.2334513308517342 0 0.19353513124668931 0.22246748781277501 0 0.20920449219815451 0.22515354045629349 0 0.20732414099141369 0.20672295990195361 0 0.20920449219815451 0.22515354045629349 0 0.20732414099141369 0.20672295990195361 0 0.22783619495118521 0.20973527166224001 0 0.19353513124668931 0.22246748781277501 0 0.20732414099141369 0.20672295990195361 0 0.1878214256448299 0.20672411698152671 0 0.18411838942066619 0.18828130780555291 0 0.1878214256448299 0.20672411698152671 0 0.20343121377691101 0.18825927067945539 0 0.20732414099141369 0.20672295990195361 0 0.1878214256448299 0.20672411698152671 0 0.20343121377691101 0.18825927067945539 0 0.20732414099141369 0.20672295990195361 0 0.20343121377691101 0.18825927067945539 0 0.2219787971027708 0.18678942035429349 0 0.20732414099141369 0.20672295990195361 0 0.22783619495118521 0.20973527166224001 0 0.2219787971027708 0.18678942035429349 0 0.24528107816237801 0.1907036486386274 0 0.22783619495118521 0.20973527166224001 0 0.2219787971027708 0.18678942035429349 0 0.24528107816237801 0.1907036486386274 0 0.25242827713160498 0.21540237912569379 0 0.24528107816237801 0.1907036486386274 0 0.22783619495118521 0.20973527166224001 0 0.25242827713160498 0.21540237912569379 0 0.20920449219815451 0.22515354045629349 0 0.22783619495118521 0.20973527166224001 0 0.23007231546290949 0.2334513308517342 0 0.23007231546290949 0.2334513308517342 0 0.25242827713160498 0.21540237912569379 0 0.23007231546290949 0.2334513308517342 0 0.25511338863332461 0.22468137717712711 0 0.25242827713160498 0.21540237912569379 0 0.23007231546290949 0.2334513308517342 0 0.25511338863332461 0.22468137717712711 0 0.23007231546290949 0.2334513308517342 0 0.2457442494512444 0.24022391879071339 0 0.25511338863332461 0.22468137717712711 0 0.22783619495118521 0.20973527166224001 0 0.23007231546290949 0.2334513308517342 0 0.25242827713160498 0.21540237912569379 0 0.2457442494512444 0.24022391879071339 0 0.23628031136540401 0.25597328662156199 0 0.26221447651104962 0.2479993693513689 0 0.23007231546290949 0.2334513308517342 0 0.2457442494512444 0.24022391879071339 0 0.23628031136540401 0.25597328662156199 0 0.21557305570370441 0.24515722135805329 0 0.23007231546290949 0.2334513308517342 0 0.23628031136540401 0.25597328662156199 0 0.21557305570370441 0.24515722135805329 0 0.23007231546290949 0.2334513308517342 0 0.21023583046185859 0.14706018503428281 0 0.22521494488481819 0.12557893006429149 0 0.2001236667938262 0.1180422718546187 0 0.18002451345814399 0.12716596121819479 0 0.1903693880120208 0.14015559280000461 0 0.2001236667938262 0.1180422718546187 0 0.21023583046185859 0.14706018503428281 0 0.1903693880120208 0.14015559280000461 0 0.2001236667938262 0.1180422718546187 0 0.21023583046185859 0.14706018503428281 0 0.1903693880120208 0.14015559280000461 0 0.19050902449260759 0.164433536692701 0 0.18411838942066619 0.18828130780555291 0 0.20343121377691101 0.18825927067945539 0 0.19050902449260759 0.164433536692701 0 0.20343121377691101 0.18825927067945539 0 0.19050902449260759 0.164433536692701 0 0.20962662881846919 0.1707346457134423 0 0.20343121377691101 0.18825927067945539 0 0.20962662881846919 0.1707346457134423 0 0.2219787971027708 0.18678942035429349 0 0.21023583046185859 0.14706018503428281 0 0.20962662881846919 0.1707346457134423 0 0.2254160648188453 0.164078398330023 0 0.21023583046185859 0.14706018503428281 0 0.19050902449260759 0.164433536692701 0 0.20962662881846919 0.1707346457134423 0 0.20962662881846919 0.1707346457134423 0 0.2254160648188453 0.164078398330023 0 0.2219787971027708 0.18678942035429349 0 0.2254160648188453 0.164078398330023 0 0.2219787971027708 0.18678942035429349 0 0.23714843650665229 0.1758398884969993 0 0.24528107816237801 0.1907036486386274 0 0.2219787971027708 0.18678942035429349 0 0.23714843650665229 0.1758398884969993 0 0.24528107816237801 0.1907036486386274 0 0.23714843650665229 0.1758398884969993 0 0.25292738168467233 0.17649485219682931 0 0.2254160648188453 0.164078398330023 0 0.24653130607993951 0.16237692388552691 0 0.23688534306575301 0.1458043597726891 0 0.23714843650665229 0.1758398884969993 0 0.24653130607993951 0.16237692388552691 0 0.25292738168467233 0.17649485219682931 0 0.2254160648188453 0.164078398330023 0 0.23714843650665229 0.1758398884969993 0 0.24653130607993951 0.16237692388552691 0 0.24653130607993951 0.16237692388552691 0 0.2496536413094039 0.15044712256699261 0 0.23688534306575301 0.1458043597726891 0 0.2496536413094039 0.15044712256699261 0 0.23688534306575301 0.1458043597726891 0 0.25004344172447263 0.14019424959050239 0 0.21023583046185859 0.14706018503428281 0 0.2254160648188453 0.164078398330023 0 0.23688534306575301 0.1458043597726891 0 0.21023583046185859 0.14706018503428281 0 0.23688534306575301 0.1458043597726891 0 0.22521494488481819 0.12557893006429149 0 0.22521494488481819 0.12557893006429149 0 0.25030622297580962 0.13311558827396619 0 0.23688534306575301 0.1458043597726891 0 0.22521494488481819 0.12557893006429149 0 0.25030622297580962 0.13311558827396619 0 0.23688534306575301 0.1458043597726891 0 0.25004344172447263 0.14019424959050239 0 0.25030622297580962 0.13311558827396619 0 0.22521494488481819 0.12557893006429149 0 0.2369469616243938 0.1144798656387125 0 0.25030622297580962 0.13311558827396619 0 0.2369469616243938 0.1144798656387125 0 0.25094552198087999 0.11589449234768209 0 0.25030622297580962 0.13311558827396619 0 0.2369469616243938 0.1144798656387125 0 0.25158482098595109 0.098673396421397969 0 0.25094552198087999 0.11589449234768209 0 0.2369469616243938 0.1144798656387125 0 0.2308580048349978 0.09939168424622695 0 0.25158482098595109 0.098673396421397969 0 0.2308580048349978 0.09939168424622695 0 0.2177667053289645 0.10879872465146249 0 0.21723881235993189 0.092441087960636145 0 0.2369469616243938 0.1144798656387125 0 0.2308580048349978 0.09939168424622695 0 0.2177667053289645 0.10879872465146249 0 0.22521494488481819 0.12557893006429149 0 0.2369469616243938 0.1144798656387125 0 0.2177667053289645 0.10879872465146249 0 0.2177667053289645 0.10879872465146249 0 0.1970849337058638 0.1019164286603922 0 0.2001236667938262 0.1180422718546187 0 0.22521494488481819 0.12557893006429149 0 0.2177667053289645 0.10879872465146249 0 0.2001236667938262 0.1180422718546187 0 0.22521494488481819 0.12557893006429149 0 0.2001236667938262 0.1180422718546187 0 0.1970849337058638 0.1019164286603922 0 0.20420713705815571 0.090978010823124941 0 0.21723881235993189 0.092441087960636145 0 0.1970849337058638 0.1019164286603922 0 0.21723881235993189 0.092441087960636145 0 0.2177667053289645 0.10879872465146249 0 0.1970849337058638 0.1019164286603922 0 0.21723881235993189 0.092441087960636145 0 0.1970849337058638 0.1019164286603922 0 0.1916307843626972 0.08827444688259839 0 0.17503238870283441 0.11050561364494491 0 0.2001236667938262 0.1180422718546187 0 0.17503238870283441 0.11050561364494491 0 0.1970849337058638 0.1019164286603922 0 0.2001236667938262 0.1180422718546187 0 0.17503238870283441 0.11050561364494491 0 0.1916307843626972 0.08827444688259839 0 0.2082291800225603 0.066043280120252124 0 0.19067723801237901 0.065525043857756982 0 0.1916307843626972 0.08827444688259839 0 0.2082291800225603 0.066043280120252124 0 0.1916307843626972 0.08827444688259839 0 0.21087401780412959 0.081280079788873041 0 0.20420713705815571 0.090978010823124941 0 0.1970849337058638 0.1019164286603922 0 0.1916307843626972 0.08827444688259839 0 0.20420713705815571 0.090978010823124941 0 0.1916307843626972 0.08827444688259839 0 0.21087401780412959 0.081280079788873041 0 0.2082291800225603 0.066043280120252124 0 0.21087401780412959 0.081280079788873041 0 0.20420713705815571 0.090978010823124941 0 0.21723881235993189 0.092441087960636145 0 0.21087401780412959 0.081280079788873041 0 0.21723881235993189 0.092441087960636145 0 0.22613356481757629 0.0775902723280468 0 0.21087401780412959 0.081280079788873041 0 0.2082291800225603 0.066043280120252124 0 0.22613356481757629 0.0775902723280468 0 0.2082291800225603 0.066043280120252124 0 0.22613356481757629 0.0775902723280468 0 0.2082291800225603 0.066043280120252124 0 0.2259496113806885 0.070300708218039992 0 0.21450653174737461 0.057635669175196122 0 0.2259496113806885 0.070300708218039992 0 0.21450653174737461 0.057635669175196122 0 0.2082291800225603 0.066043280120252124 0 0.2259496113806885 0.070300708218039992 0 0.22613356481757629 0.0775902723280468 0 0.2259496113806885 0.070300708218039992 0 0.2248665156508784 0.061611733455129589 0 0.21450653174737461 0.057635669175196122 0 0.2259496113806885 0.070300708218039992 0 0.22613356481757629 0.0775902723280468 0 0.23739269101400209 0.082965747260884265 0 0.2259496113806885 0.070300708218039992 0 0.23739269101400209 0.082965747260884265 0 0.237967452106535 0.070105640596903412 0 0.2259496113806885 0.070300708218039992 0 0.23739269101400209 0.082965747260884265 0 0.2259496113806885 0.070300708218039992 0 0.2330718446673557 0.064441819436705627 0 0.2248665156508784 0.061611733455129589 0 0.2259496113806885 0.070300708218039992 0 0.2330718446673557 0.064441819436705627 0 0.237967452106535 0.070105640596903412 0 0.2308580048349978 0.09939168424622695 0 0.21723881235993189 0.092441087960636145 0 0.23739269101400209 0.082965747260884265 0 0.21723881235993189 0.092441087960636145 0 0.22613356481757629 0.0775902723280468 0 0.23739269101400209 0.082965747260884265 0 0.21723881235993189 0.092441087960636145 0 0.23739269101400209 0.082965747260884265 0 0.23739269101400209 0.082965747260884265 0 0.25158482098595109 0.098673396421397969 0 0.23739269101400209 0.082965747260884265 0 0.25243039498113262 0.075895774732197205 0 0.25158482098595109 0.098673396421397969 0 0.2308580048349978 0.09939168424622695 0 0.23739269101400209 0.082965747260884265 0 0.25158482098595109 0.098673396421397969 0 0.23739269101400209 0.082965747260884265 0 0.25243039498113262 0.075895774732197205 0 0.23934469018649959 0.064583282500140851 0 0.237967452106535 0.070105640596903412 0 0.24496427956833819 0.066036472520138348 0 0.2330718446673557 0.064441819436705627 0 0.23934469018649959 0.064583282500140851 0 0.2376257901407148 0.059976102198904507 0 0.2330718446673557 0.064441819436705627 0 0.23934469018649959 0.064583282500140851 0 0.237967452106535 0.070105640596903412 0 0.23739269101400209 0.082965747260884265 0 0.237967452106535 0.070105640596903412 0 0.24429048066179679 0.072622021298478806 0 0.24429048066179679 0.072622021298478806 0 0.24842415088314279 0.069033451464499671 0 0.25243039498113262 0.075895774732197205 0 0.23739269101400209 0.082965747260884265 0 0.24429048066179679 0.072622021298478806 0 0.25243039498113262 0.075895774732197205 0 0.24842415088314279 0.069033451464499671 0 0.24853219730195361 0.063845178725116872 0 0.25274476311700622 0.067427493409812952 0 0.237967452106535 0.070105640596903412 0 0.24429048066179679 0.072622021298478806 0 0.24496427956833819 0.066036472520138348 0 0.24429048066179679 0.072622021298478806 0 0.24842415088314279 0.069033451464499671 0 0.24496427956833819 0.066036472520138348 0 0.23934469018649959 0.064583282500140851 0 0.24496427956833819 0.066036472520138348 0 0.24309408444955441 0.062356377748052388 0 0.24496427956833819 0.066036472520138348 0 0.24602681454492631 0.062964227281045088 0 0.24309408444955441 0.062356377748052388 0 0.24496427956833819 0.066036472520138348 0 0.24602681454492631 0.062964227281045088 0 0.24853219730195361 0.063845178725116872 0 0.24842415088314279 0.069033451464499671 0 0.24496427956833819 0.066036472520138348 0 0.24853219730195361 0.063845178725116872 0 0.24751669685985911 0.059618880130872708 0 0.24309408444955441 0.062356377748052388 0 0.2376257901407148 0.059976102198904507 0 0.24751669685985911 0.059618880130872708 0 0.24426241142214139 0.049994713685017962 0 0.2310385276818335 0.053106641608170198 0 0.24751669685985911 0.059618880130872708 0 0.2376257901407148 0.059976102198904507 0 0.2310385276818335 0.053106641608170198 0 0.24751669685985911 0.059618880130872708 0 0.2310385276818335 0.053106641608170198 0 0.24853219730195361 0.063845178725116872 0 0.24751669685985911 0.059618880130872708 0 0.2530174900015254 0.0600809219264858 0 0.24602681454492631 0.062964227281045088 0 0.24853219730195361 0.063845178725116872 0 0.24751669685985911 0.059618880130872708 0 0.24602681454492631 0.062964227281045088 0 0.24751669685985911 0.059618880130872708 0 0.24309408444955441 0.062356377748052388 0 0.23934469018649959 0.064583282500140851 0 0.24309408444955441 0.062356377748052388 0 0.2376257901407148 0.059976102198904507 0 0.24426241142214139 0.049994713685017962 0 0.23928634064401511 0.040096757013566242 0 0.2310385276818335 0.053106641608170198 0 0.24751669685985911 0.059618880130872708 0 0.24426241142214139 0.049994713685017962 0 0.25102243244437311 0.053297338652025752 0 0.24426241142214139 0.049994713685017962 0 0.25174039047255609 0.044464402284776217 0 0.25102243244437311 0.053297338652025752 0 0.23928634064401511 0.040096757013566242 0 0.2320502206633881 0.021165953515508481 0 0.25044211127373811 0.032849993626191502 0 0.23928634064401511 0.040096757013566242 0 0.25044211127373811 0.032849993626191502 0 0.25174039047255609 0.044464402284776217 0 0.24426241142214139 0.049994713685017962 0 0.23928634064401511 0.040096757013566242 0 0.25174039047255609 0.044464402284776217 0 0.22618438235043381 0.038998837361733103 0 0.2320502206633881 0.021165953515508481 0 0.20963369093729961 0.03941564640516447 0 0.23928634064401511 0.040096757013566242 0 0.22618438235043381 0.038998837361733103 0 0.2320502206633881 0.021165953515508481 0 0.22618438235043381 0.038998837361733103 0 0.2310385276818335 0.053106641608170198 0 0.21456035850380811 0.046594403085467223 0 0.23928634064401511 0.040096757013566242 0 0.22618438235043381 0.038998837361733103 0 0.2310385276818335 0.053106641608170198 0 0.2310385276818335 0.053106641608170198 0 0.21456035850380811 0.046594403085467223 0 0.2248665156508784 0.061611733455129589 0 0.2310385276818335 0.053106641608170198 0 0.21456035850380811 0.046594403085467223 0 0.2248665156508784 0.061611733455129589 0 0.21456035850380811 0.046594403085467223 0 0.2330718446673557 0.064441819436705627 0 0.2248665156508784 0.061611733455129589 0 0.23150027442910881 0.059501590197602497 0 0.2248665156508784 0.061611733455129589 0 0.23150027442910881 0.059501590197602497 0 0.2310385276818335 0.053106641608170198 0 0.2330718446673557 0.064441819436705627 0 0.2376257901407148 0.059976102198904507 0 0.23150027442910881 0.059501590197602497 0 0.2376257901407148 0.059976102198904507 0 0.23150027442910881 0.059501590197602497 0 0.2310385276818335 0.053106641608170198 0 0.2320502206633881 0.021165953515508481 0 0.22999165343287109 0.0038227322559807589 0 0.25446675038947358 0.0029162606258486688 0 0.2320502206633881 0.021165953515508481 0 0.2600935707136679 0.019574361616358959 0 0.25446675038947358 0.0029162606258486688 0 0.22999165343287109 0.0038227322559807589 0 0.25446675038947358 0.0029162606258486688 0 0.24138147174972829 -0.0061427828714447699 0 0.2320502206633881 0.021165953515508481 0 0.25446675038947358 0.0029162606258486688 0 0.2320502206633881 0.021165953515508481 0 0.2600935707136679 0.019574361616358959 0 0.25044211127373811 0.032849993626191502 0 0.2320502206633881 0.021165953515508481 0 0.20963369093729961 0.03941564640516447 0 0.22999165343287109 0.0038227322559807589 0 0.21340461703840111 0.0096506044731711187 0 0.21351355446813719 -0.0021103410187178909 0 0.2320502206633881 0.021165953515508481 0 0.22999165343287109 0.0038227322559807589 0 0.21340461703840111 0.0096506044731711187 0 0.21340461703840111 0.0096506044731711187 0 0.1998105265397013 0.00335350757378736 0 0.21351355446813719 -0.0021103410187178909 0 0.21340461703840111 0.0096506044731711187 0 0.20371525389429951 0.01279949030761077 0 0.2082588668535221 0.02245160931237615 0 0.21340461703840111 0.0096506044731711187 0 0.20371525389429951 0.01279949030761077 0 0.1998105265397013 0.00335350757378736 0 0.2320502206633881 0.021165953515508481 0 0.2082588668535221 0.02245160931237615 0 0.20963369093729961 0.03941564640516447 0 0.2320502206633881 0.021165953515508481 0 0.21340461703840111 0.0096506044731711187 0 0.2082588668535221 0.02245160931237615 0 0.2082588668535221 0.02245160931237615 0 0.19338700514557339 0.015742239871108451 0 0.20963369093729961 0.03941564640516447 0 0.19338700514557339 0.015742239871108451 0 0.1989601287501698 0.040429129743079398 0 0.18048502430789731 0.01998114488410483 0 0.1989601287501698 0.040429129743079398 0 0.18048502430789731 0.01998114488410483 0 0.19338700514557339 0.015742239871108451 0 0.20963369093729961 0.03941564640516447 0 0.20371525389429951 0.01279949030761077 0 0.2082588668535221 0.02245160931237615 0 0.19338700514557339 0.015742239871108451 0 0.19338700514557339 0.015742239871108451 0 0.1998105265397013 0.00335350757378736 0 0.17714031935384769 -0.0079311666629475405 0 0.20371525389429951 0.01279949030761077 0 0.19338700514557339 0.015742239871108451 0 0.1998105265397013 0.00335350757378736 0 0.21450653174737461 0.057635669175196122 0 0.2029561920580818 0.044851916216142339 0 0.21450653174737461 0.057635669175196122 0 0.2029561920580818 0.044851916216142339 0 0.2021088015620611 0.053433964061651712 0 0.21450653174737461 0.057635669175196122 0 0.21456035850380811 0.046594403085467223 0 0.2029561920580818 0.044851916216142339 0 0.2082291800225603 0.066043280120252124 0 0.21450653174737461 0.057635669175196122 0 0.2021088015620611 0.053433964061651712 0 0.2248665156508784 0.061611733455129589 0 0.21450653174737461 0.057635669175196122 0 0.21456035850380811 0.046594403085467223 0 0.2082291800225603 0.066043280120252124 0 0.21450653174737461 0.057635669175196122 0 0.22618438235043381 0.038998837361733103 0 0.21456035850380811 0.046594403085467223 0 0.20963369093729961 0.03941564640516447 0 0.21456035850380811 0.046594403085467223 0 0.20963369093729961 0.03941564640516447 0 0.21456035850380811 0.046594403085467223 0 0.20530753189452691 0.042937648913457381 0 0.2029561920580818 0.044851916216142339 0 0.20963369093729961 0.03941564640516447 0 0.20530753189452691 0.042937648913457381 0 0.1989601287501698 0.040429129743079398 0 0.21456035850380811 0.046594403085467223 0 0.20530753189452691 0.042937648913457381 0 0.21456035850380811 0.046594403085467223 0 0.20963369093729961 0.03941564640516447 0 0.20530753189452691 0.042937648913457381 0 0.20963369093729961 0.03941564640516447 0 0.20530753189452691 0.042937648913457381 0 0.20530753189452691 0.042937648913457381 0 0.2029561920580818 0.044851916216142339 0 0.1989601287501698 0.040429129743079398 0 0.1774654858828027 0.031934360706524292 0 0.2029561920580818 0.044851916216142339 0 0.1989601287501698 0.040429129743079398 0 0.19971656766465989 0.047489351670260083 0 0.1989601287501698 0.040429129743079398 0 0.19133087755196571 0.045131483978966998 0 0.19971656766465989 0.047489351670260083 0 0.2029561920580818 0.044851916216142339 0 0.19971656766465989 0.047489351670260083 0 0.19338700514557339 0.015742239871108451 0 0.20963369093729961 0.03941564640516447 0 0.1989601287501698 0.040429129743079398 0 0.1989601287501698 0.040429129743079398 0 0.19133087755196571 0.045131483978966998 0 0.18298678422305309 0.040980100737508622 0 0.20530753189452691 0.042937648913457381 0 0.2029561920580818 0.044851916216142339 0 0.1989601287501698 0.040429129743079398 0 0.20530753189452691 0.042937648913457381 0 0.1989601287501698 0.040429129743079398 0 0.2029561920580818 0.044851916216142339 0 0.1989601287501698 0.040429129743079398 0 0.2082291800225603 0.066043280120252124 0 0.18513553631762919 0.051149603126408108 0 0.2021088015620611 0.053433964061651712 0 0.19971656766465989 0.047489351670260083 0 0.18513553631762919 0.051149603126408108 0 0.2082291800225603 0.066043280120252124 0 0.2021088015620611 0.053433964061651712 0 0.18513553631762919 0.051149603126408108 0 0.19067723801237901 0.065525043857756982 0 0.2082291800225603 0.066043280120252124 0 0.18513553631762919 0.051149603126408108 0 0.19133087755196571 0.045131483978966998 0 0.19971656766465989 0.047489351670260083 0 0.18513553631762919 0.051149603126408108 0 0.2029561920580818 0.044851916216142339 0 0.2021088015620611 0.053433964061651712 0 0.19971656766465989 0.047489351670260083 0 0.17734631865053521 0.060730067185729229 0 0.18513553631762919 0.051149603126408108 0 0.16725106424272049 0.052894846580172288 0 0.19067723801237901 0.065525043857756982 0 0.17734631865053521 0.060730067185729229 0 0.18513553631762919 0.051149603126408108 0 0.18298678422305309 0.040980100737508622 0 0.1774654858828027 0.031934360706524292 0 0.1620418926126978 0.036255926132564682 0 0.19133087755196571 0.045131483978966998 0 0.18513553631762919 0.051149603126408108 0 0.18298678422305309 0.040980100737508622 0 0.18513553631762919 0.051149603126408108 0 0.18298678422305309 0.040980100737508622 0 0.1620418926126978 0.036255926132564682 0 0.1989601287501698 0.040429129743079398 0 0.18298678422305309 0.040980100737508622 0 0.1774654858828027 0.031934360706524292 0 0.18513553631762919 0.051149603126408108 0 0.1620418926126978 0.036255926132564682 0 0.1620418926126978 0.036255926132564682 0 0.16725106424272049 0.052894846580172288 0 0.15541952745182569 0.04677658384696623 0 0.18513553631762919 0.051149603126408108 0 0.1620418926126978 0.036255926132564682 0 0.16725106424272049 0.052894846580172288 0 0.16725106424272049 0.052894846580172288 0 0.15507694825043991 0.057889849327421902 0 0.15541952745182569 0.04677658384696623 0 0.16725106424272049 0.052894846580172288 0 0.15507694825043991 0.057889849327421902 0 0.1653937448538241 0.067538194789913991 0 0.17734631865053521 0.060730067185729229 0 0.16725106424272049 0.052894846580172288 0 0.1653937448538241 0.067538194789913991 0 0.18048502430789731 0.01998114488410483 0 0.1657030786406338 0.0084270166623369204 0 0.17714031935384769 -0.0079311666629475405 0 0.19338700514557339 0.015742239871108451 0 0.17714031935384769 -0.0079311666629475405 0 0.19338700514557339 0.015742239871108451 0 0.18048502430789731 0.01998114488410483 0 0.17714031935384769 -0.0079311666629475405 0 0.1989601287501698 0.040429129743079398 0 0.1774654858828027 0.031934360706524292 0 0.18048502430789731 0.01998114488410483 0 0.1774654858828027 0.031934360706524292 0 0.18048502430789731 0.01998114488410483 0 0.16935520337559401 0.020657770454092759 0 0.1774654858828027 0.031934360706524292 0 0.15597084301543529 0.02343959166996953 0 0.1774654858828027 0.031934360706524292 0 0.1620418926126978 0.036255926132564682 0 0.15597084301543529 0.02343959166996953 0 0.1774654858828027 0.031934360706524292 0 0.16935520337559401 0.020657770454092759 0 0.15597084301543529 0.02343959166996953 0 0.16935520337559401 0.020657770454092759 0 0.1657030786406338 0.0084270166623369204 0 0.15597084301543529 0.02343959166996953 0 0.18048502430789731 0.01998114488410483 0 0.16935520337559401 0.020657770454092759 0 0.1657030786406338 0.0084270166623369204 0 0.1657030786406338 0.0084270166623369204 0 0.14883794818754281 0.01110572894874149 0 0.15480995508657039 -0.001084596553268768 0 0.1657030786406338 0.0084270166623369204 0 0.14883794818754281 0.01110572894874149 0 0.15597084301543529 0.02343959166996953 0 0.14883794818754281 0.01110572894874149 0 0.13464870039648349 0.00080453217212592717 0 0.15480995508657039 -0.001084596553268768 0 0.14883794818754281 0.01110572894874149 0 0.13894824890776639 0.02136224913872127 0 0.13464870039648349 0.00080453217212592717 0 0.1620418926126978 0.036255926132564682 0 0.13894824890776639 0.02136224913872127 0 0.14883794818754281 0.01110572894874149 0 0.15597084301543529 0.02343959166996953 0 0.13894824890776639 0.02136224913872127 0 0.1620418926126978 0.036255926132564682 0 0.15597084301543529 0.02343959166996953 0 0.13894824890776639 0.02136224913872127 0 0.11961069471150609 0.02296590295220987 0 0.13894824890776639 0.02136224913872127 0 0.12977361784467401 0.039215218793308727 0 0.1158546052028349 0.0064685721448778594 0 0.13894824890776639 0.02136224913872127 0 0.1158546052028349 0.0064685721448778594 0 0.13894824890776639 0.02136224913872127 0 0.13464870039648349 0.00080453217212592717 0 0.14278372382386809 0.048416123664777412 0 0.1428601767931531 0.062084067640591357 0 0.15507694825043991 0.057889849327421902 0 0.14278372382386809 0.048416123664777412 0 0.15507694825043991 0.057889849327421902 0 0.15541952745182569 0.04677658384696623 0 0.1620418926126978 0.036255926132564682 0 0.13894824890776639 0.02136224913872127 0 0.14579340212816641 0.038405220315267663 0 0.1620418926126978 0.036255926132564682 0 0.15541952745182569 0.04677658384696623 0 0.14579340212816641 0.038405220315267663 0 0.14278372382386809 0.048416123664777412 0 0.15541952745182569 0.04677658384696623 0 0.14579340212816641 0.038405220315267663 0 0.14278372382386809 0.048416123664777412 0 0.14579340212816641 0.038405220315267663 0 0.12977361784467401 0.039215218793308727 0 0.13894824890776639 0.02136224913872127 0 0.14579340212816641 0.038405220315267663 0 0.12977361784467401 0.039215218793308727 0 0.11550376979223601 0.054551475820320147 0 0.12977361784467401 0.039215218793308727 0 0.1326943019686847 0.054606112458038862 0 0.11550376979223601 0.054551475820320147 0 0.1326943019686847 0.054606112458038862 0 0.13255022158949201 0.068763676371196639 0 0.14278372382386809 0.048416123664777412 0 0.12977361784467401 0.039215218793308727 0 0.1326943019686847 0.054606112458038862 0 0.14278372382386809 0.048416123664777412 0 0.1428601767931531 0.062084067640591357 0 0.1326943019686847 0.054606112458038862 0 0.1428601767931531 0.062084067640591357 0 0.1326943019686847 0.054606112458038862 0 0.13255022158949201 0.068763676371196639 0 0.1207366242219714 0.074251990558816788 0 0.13255022158949201 0.068763676371196639 0 0.13578085374332971 0.077614708003019631 0 0.13255022158949201 0.068763676371196639 0 0.13578085374332971 0.077614708003019631 0 0.1430759120552613 0.073085192731263071 0 0.1428601767931531 0.062084067640591357 0 0.13255022158949201 0.068763676371196639 0 0.1430759120552613 0.073085192731263071 0 0.1428601767931531 0.062084067640591357 0 0.1430759120552613 0.073085192731263071 0 0.15260580868734391 0.069203578475014266 0 0.1430759120552613 0.073085192731263071 0 0.14969883640752091 0.076610515579137797 0 0.14563192422462459 0.083183778073064013 0 0.13578085374332971 0.077614708003019631 0 0.1430759120552613 0.073085192731263071 0 0.14563192422462459 0.083183778073064013 0 0.1430759120552613 0.073085192731263071 0 0.14969883640752091 0.076610515579137797 0 0.15260580868734391 0.069203578475014266 0 0.14969883640752091 0.076610515579137797 0 0.15260580868734391 0.069203578475014266 0 0.15677919641446331 0.080277826610221981 0 0.1428601767931531 0.062084067640591357 0 0.15507694825043991 0.057889849327421902 0 0.15260580868734391 0.069203578475014266 0 0.1506819444987289 0.088437751930635633 0 0.14868901735932749 0.09586058707093438 0 0.157853861938485 0.092527754269896317 0 0.1506819444987289 0.088437751930635633 0 0.15677919641446331 0.080277826610221981 0 0.157853861938485 0.092527754269896317 0 0.14969883640752091 0.076610515579137797 0 0.14563192422462459 0.083183778073064013 0 0.15677919641446331 0.080277826610221981 0 0.1506819444987289 0.088437751930635633 0 0.14563192422462459 0.083183778073064013 0 0.15677919641446331 0.080277826610221981 0 0.14563192422462459 0.083183778073064013 0 0.1444557225567443 0.090338813629061501 0 0.13888671887288589 0.088270852986767859 0 0.1506819444987289 0.088437751930635633 0 0.14563192422462459 0.083183778073064013 0 0.1444557225567443 0.090338813629061501 0 0.1444557225567443 0.090338813629061501 0 0.14209274384079601 0.094639397504520467 0 0.14868901735932749 0.09586058707093438 0 0.1506819444987289 0.088437751930635633 0 0.1444557225567443 0.090338813629061501 0 0.14868901735932749 0.09586058707093438 0 0.1444557225567443 0.090338813629061501 0 0.13888671887288589 0.088270852986767859 0 0.14209274384079601 0.094639397504520467 0 0.13888671887288589 0.088270852986767859 0 0.13668050292917741 0.098217611464673699 0 0.14209274384079601 0.094639397504520467 0 0.13888671887288589 0.088270852986767859 0 0.1300820653953097 0.084166932106396392 0 0.13668050292917741 0.098217611464673699 0 0.11116449005577619 0.086473750785835857 0 0.1300820653953097 0.084166932106396392 0 0.13668050292917741 0.098217611464673699 0 0.13578085374332971 0.077614708003019631 0 0.13888671887288589 0.088270852986767859 0 0.1300820653953097 0.084166932106396392 0 0.13578085374332971 0.077614708003019631 0 0.14563192422462459 0.083183778073064013 0 0.13888671887288589 0.088270852986767859 0 0.1207366242219714 0.074251990558816788 0 0.13578085374332971 0.077614708003019631 0 0.1300820653953097 0.084166932106396392 0 0.1216961693062274 0.1020981758197984 0 0.1302764983332621 0.10693497851168419 0 0.13668050292917741 0.098217611464673699 0 0.1302764983332621 0.10693497851168419 0 0.13758713408363871 0.1043360441680015 0 0.13668050292917741 0.098217611464673699 0 0.1302764983332621 0.10693497851168419 0 0.1360833458267342 0.1084620534226548 0 0.13758713408363871 0.1043360441680015 0 0.1360833458267342 0.1084620534226548 0 0.13758713408363871 0.1043360441680015 0 0.14314356584317489 0.10755645506983 0 0.13758713408363871 0.1043360441680015 0 0.13668050292917741 0.098217611464673699 0 0.14175175748584509 0.1005091223711649 0 0.13668050292917741 0.098217611464673699 0 0.14209274384079601 0.094639397504520467 0 0.14175175748584509 0.1005091223711649 0 0.12813823657366311 0.12049833089676459 0 0.13246275659848361 0.1130811342378658 0 0.13708322035591489 0.118794437000363 0 0.12212988809696081 0.1249307776834532 0 0.12788127083107459 0.1291064789800366 0 0.12813823657366311 0.12049833089676459 0 0.1197878353292403 0.1092484053650479 0 0.1302764983332621 0.10693497851168419 0 0.12624189261331301 0.1140678077034443 0 0.12813823657366311 0.12049833089676459 0 0.12624189261331301 0.1140678077034443 0 0.13246275659848361 0.1130811342378658 0 0.1302764983332621 0.10693497851168419 0 0.12624189261331301 0.1140678077034443 0 0.13246275659848361 0.1130811342378658 0 0.138866780176991 0.11235807520418389 0 0.13708322035591489 0.118794437000363 0 0.14572099158606311 0.1154247658161887 0 0.1360833458267342 0.1084620534226548 0 0.13246275659848361 0.1130811342378658 0 0.138866780176991 0.11235807520418389 0 0.1302764983332621 0.10693497851168419 0 0.1360833458267342 0.1084620534226548 0 0.13246275659848361 0.1130811342378658 0 0.1360833458267342 0.1084620534226548 0 0.138866780176991 0.11235807520418389 0 0.14314356584317489 0.10755645506983 0 0.13246275659848361 0.1130811342378658 0 0.138866780176991 0.11235807520418389 0 0.13708322035591489 0.118794437000363 0 0.13409394305489639 0.1257339851238449 0 0.14295710802469111 0.12768772724150559 0 0.13708322035591489 0.118794437000363 0 0.13409394305489639 0.1257339851238449 0 0.12813823657366311 0.12049833089676459 0 0.13708322035591489 0.118794437000363 0 0.14572099158606311 0.1154247658161887 0 0.15364605026385231 0.1227496740475859 0 0.15839207309433961 0.10550736800805539 0 0.14295710802469111 0.12768772724150559 0 0.13708322035591489 0.118794437000363 0 0.14572099158606311 0.1154247658161887 0 0.14295710802469111 0.12768772724150559 0 0.14572099158606311 0.1154247658161887 0 0.15364605026385231 0.1227496740475859 0 0.138866780176991 0.11235807520418389 0 0.14572099158606311 0.1154247658161887 0 0.14314356584317489 0.10755645506983 0 0.14572099158606311 0.1154247658161887 0 0.14314356584317489 0.10755645506983 0 0.15839207309433961 0.10550736800805539 0 0.14175175748584509 0.1005091223711649 0 0.15839207309433961 0.10550736800805539 0 0.14175175748584509 0.1005091223711649 0 0.14314356584317489 0.10755645506983 0 0.15839207309433961 0.10550736800805539 0 0.14175175748584509 0.1005091223711649 0 0.14868901735932749 0.09586058707093438 0 0.15839207309433961 0.10550736800805539 0 0.14209274384079601 0.094639397504520467 0 0.14175175748584509 0.1005091223711649 0 0.14868901735932749 0.09586058707093438 0 0.13758713408363871 0.1043360441680015 0 0.14175175748584509 0.1005091223711649 0 0.14314356584317489 0.10755645506983 0 0.14868901735932749 0.09586058707093438 0 0.15839207309433961 0.10550736800805539 0 0.157853861938485 0.092527754269896317 0 0.15839207309433961 0.10550736800805539 0 0.17503238870283441 0.11050561364494491 0 0.15839207309433961 0.10550736800805539 0 0.1705578526620479 0.095927182961129481 0 0.157853861938485 0.092527754269896317 0 0.15839207309433961 0.10550736800805539 0 0.1705578526620479 0.095927182961129481 0 0.17503238870283441 0.11050561364494491 0 0.16417220099380411 0.12505127510387981 0 0.15839207309433961 0.10550736800805539 0 0.17503238870283441 0.11050561364494491 0 0.16417220099380411 0.12505127510387981 0 0.15364605026385231 0.1227496740475859 0 0.15839207309433961 0.10550736800805539 0 0.16417220099380411 0.12505127510387981 0 0.17503238870283441 0.11050561364494491 0 0.18002451345814399 0.12716596121819479 0 0.16417220099380411 0.12505127510387981 0 0.17503238870283441 0.11050561364494491 0 0.18002451345814399 0.12716596121819479 0 0.2001236667938262 0.1180422718546187 0 0.17503238870283441 0.11050561364494491 0 0.1916307843626972 0.08827444688259839 0 0.1705578526620479 0.095927182961129481 0 0.17503238870283441 0.11050561364494491 0 0.1916307843626972 0.08827444688259839 0 0.17503238870283441 0.11050561364494491 0 0.1916307843626972 0.08827444688259839 0 0.17935943521264269 0.07135827912697662 0 0.16988015521188329 0.08282073200015258 0 0.1916307843626972 0.08827444688259839 0 0.1705578526620479 0.095927182961129481 0 0.16988015521188329 0.08282073200015258 0 0.19067723801237901 0.065525043857756982 0 0.1916307843626972 0.08827444688259839 0 0.17935943521264269 0.07135827912697662 0 0.19067723801237901 0.065525043857756982 0 0.17734631865053521 0.060730067185729229 0 0.17935943521264269 0.07135827912697662 0 0.17734631865053521 0.060730067185729229 0 0.17935943521264269 0.07135827912697662 0 0.1653937448538241 0.067538194789913991 0 0.17935943521264269 0.07135827912697662 0 0.1653937448538241 0.067538194789913991 0 0.16988015521188329 0.08282073200015258 0 0.15507694825043991 0.057889849327421902 0 0.15260580868734391 0.069203578475014266 0 0.1653937448538241 0.067538194789913991 0 0.15260580868734391 0.069203578475014266 0 0.1653937448538241 0.067538194789913991 0 0.15677919641446331 0.080277826610221981 0 0.1653937448538241 0.067538194789913991 0 0.15677919641446331 0.080277826610221981 0 0.16988015521188329 0.08282073200015258 0 0.15677919641446331 0.080277826610221981 0 0.157853861938485 0.092527754269896317 0 0.16988015521188329 0.08282073200015258 0 0.1705578526620479 0.095927182961129481 0 0.157853861938485 0.092527754269896317 0 0.16988015521188329 0.08282073200015258 0 0.099456207782380623 0.4822659283708195 0 0.1141892196830592 0.48396198267476093 0 0.11304725129434449 0.46767028325629811 0 0.099456207782380623 0.4822659283708195 0 0.11304725129434449 0.46767028325629811 0 0.096803680563272876 0.46646214520586099 0 0.099456207782380623 0.4822659283708195 0 0.10782601469385079 0.5 0 0.078267650747156567 0.50000000000000133 0 0.099456207782380623 0.4822659283708195 0 0.10782601469385079 0.5 0 0.1141892196830592 0.48396198267476093 0 0.10782601469385079 0.5 0 0.1249193769550877 0.49369376296818718 0 0.1141892196830592 0.48396198267476093 0 0.1249193769550877 0.49369376296818718 0 0.1141892196830592 0.48396198267476093 0 0.12569724768963239 0.47617993877849962 0 0.10782601469385079 0.5 0 0.1249193769550877 0.49369376296818718 0 0.13738437864054501 0.5 0 0.1141892196830592 0.48396198267476093 0 0.11304725129434449 0.46767028325629811 0 0.12569724768963239 0.47617993877849962 0 0.11304725129434449 0.46767028325629811 0 0.1267882431275838 0.46370707134437261 0 0.12569724768963239 0.47617993877849962 0 0.11304725129434449 0.46767028325629811 0 0.1221607865463437 0.4507156547582637 0 0.1004821270038239 0.44949914822431608 0 0.11304725129434449 0.46767028325629811 0 0.1221607865463437 0.4507156547582637 0 0.1267882431275838 0.46370707134437261 0 0.1221607865463437 0.4507156547582637 0 0.1004821270038239 0.44949914822431608 0 0.12259086230274099 0.42947812748907283 0 0.1004821270038239 0.44949914822431608 0 0.096803680563272876 0.46646214520586099 0 0.084307548883437972 0.45862843933572522 0 0.11304725129434449 0.46767028325629811 0 0.1004821270038239 0.44949914822431608 0 0.096803680563272876 0.46646214520586099 0 0.084307548883437972 0.45862843933572522 0 0.070120974899159305 0.46867166915081548 0 0.08254081050968877 0.47642281665818748 0 0.096803680563272876 0.46646214520586099 0 0.084307548883437972 0.45862843933572522 0 0.08254081050968877 0.47642281665818748 0 0.084307548883437972 0.45862843933572522 0 0.083205653112744402 0.44008551456546158 0 0.070599818540594342 0.45171728711773013 0 0.1004821270038239 0.44949914822431608 0 0.084307548883437972 0.45862843933572522 0 0.083205653112744402 0.44008551456546158 0 0.1004821270038239 0.44949914822431608 0 0.083205653112744402 0.44008551456546158 0 0.095892719888732866 0.42453745382262881 0 0.070599818540594342 0.45171728711773013 0 0.057347956450285731 0.44480695268810438 0 0.068330088192809502 0.43602814955066621 0 0.083205653112744402 0.44008551456546158 0 0.070599818540594342 0.45171728711773013 0 0.068330088192809502 0.43602814955066621 0 0.070599818540594342 0.45171728711773013 0 0.070120974899159305 0.46867166915081548 0 0.05832870883015126 0.45973880463956351 0 0.084307548883437972 0.45862843933572522 0 0.070599818540594342 0.45171728711773013 0 0.070120974899159305 0.46867166915081548 0 0.070120974899159305 0.46867166915081548 0 0.08254081050968877 0.47642281665818748 0 0.061557047466102868 0.48310025102256282 0 0.070120974899159305 0.46867166915081548 0 0.061557047466102868 0.48310025102256282 0 0.05832870883015126 0.45973880463956351 0 0.099456207782380623 0.4822659283708195 0 0.096803680563272876 0.46646214520586099 0 0.08254081050968877 0.47642281665818748 0 0.099456207782380623 0.4822659283708195 0 0.08254081050968877 0.47642281665818748 0 0.078267650747156567 0.50000000000000133 0 0.078267650747156567 0.50000000000000133 0 0.049166882519808157 0.5 0 0.061557047466102868 0.48310025102256282 0 0.08254081050968877 0.47642281665818748 0 0.078267650747156567 0.50000000000000133 0 0.061557047466102868 0.48310025102256282 0 0.078267650747156567 0.50000000000000133 0 0.061557047466102868 0.48310025102256282 0 0.049166882519808157 0.5 0 0.061557047466102868 0.48310025102256282 0 0.038208171894904559 0.48286056860770488 0 0.061557047466102868 0.48310025102256282 0 0.044846444185049857 0.46620050204512359 0 0.05832870883015126 0.45973880463956351 0 0.061557047466102868 0.48310025102256282 0 0.044846444185049857 0.46620050204512359 0 0.061557047466102868 0.48310025102256282 0 0.038208171894904559 0.48286056860770488 0 0.044846444185049857 0.46620050204512359 0 0.038208171894904559 0.48286056860770488 0 0.029572045059576241 0.469060477695939 0 0.044846444185049857 0.46620050204512359 0 0.049166882519808157 0.5 0 0.038208171894904559 0.48286056860770488 0 0.020066114292459799 0.5 0 0.038208171894904559 0.48286056860770488 0 0.020066114292459799 0.5 0 0.021055159894441029 0.48095839664786189 0 0.038208171894904559 0.48286056860770488 0 0.029572045059576241 0.469060477695939 0 0.021055159894441029 0.48095839664786189 0 0.029572045059576241 0.469060477695939 0 0.021055159894441029 0.48095839664786189 0 0.01561460841948897 0.46598216811131982 0 0.021055159894441029 0.48095839664786189 0 0.0030933759349822849 0.48266358315495572 0 0.01561460841948897 0.46598216811131982 0 0.0030933759349822849 0.48266358315495572 0 0.01561460841948897 0.46598216811131982 0 0.0036787250480955699 0.47408322248379448 0 0.0030933759349822849 0.48266358315495572 0 0.01561460841948897 0.46598216811131982 0 -0.0016340076521478781 0.48633642657919801 0 0.0036787250480955699 0.47408322248379448 0 0.0030933759349822849 0.48266358315495572 0 0.020066114292459799 0.5 0 0.021055159894441029 0.48095839664786189 0 0.0030933759349822849 0.48266358315495572 0 -0.0090346539348886701 0.5 0 -0.0016340076521478781 0.48633642657919801 0 0.020066114292459799 0.5 0 -0.0016340076521478781 0.48633642657919801 0 0.020066114292459799 0.5 0 0.0030933759349822849 0.48266358315495572 0 -0.0030841453677343121 0.43636499760021141 0 -0.002359076509941094 0.46135071208970457 0 0.010470448459028871 0.45111158928184719 0 -0.0030841453677343121 0.43636499760021141 0 0.010470448459028871 0.45111158928184719 0 0.017893296784651399 0.43894227458572882 0 -0.002359076509941094 0.46135071208970457 0 0.010470448459028871 0.45111158928184719 0 0.01561460841948897 0.46598216811131982 0 -0.002359076509941094 0.46135071208970457 0 0.0036787250480955699 0.47408322248379448 0 0.01561460841948897 0.46598216811131982 0 0.010470448459028871 0.45111158928184719 0 0.01561460841948897 0.46598216811131982 0 0.0281358409039968 0.44930075306768458 0 0.029572045059576241 0.469060477695939 0 0.01561460841948897 0.46598216811131982 0 0.0281358409039968 0.44930075306768458 0 0.01561460841948897 0.46598216811131982 0 0.0281358409039968 0.44930075306768458 0 0.010470448459028871 0.45111158928184719 0 0.0281358409039968 0.44930075306768458 0 0.017893296784651399 0.43894227458572882 0 0.0281358409039968 0.44930075306768458 0 0.017893296784651399 0.43894227458572882 0 0.03800042812263172 0.43615865433005307 0 0.0281358409039968 0.44930075306768458 0 0.017893296784651399 0.43894227458572882 0 0.0281358409039968 0.44930075306768458 0 0.04587361322417214 0.448769157871174 0 0.03800042812263172 0.43615865433005307 0 0.0281358409039968 0.44930075306768458 0 0.03800042812263172 0.43615865433005307 0 0.04587361322417214 0.448769157871174 0 0.049411209704934803 0.43621283219101809 0 0.03800042812263172 0.43615865433005307 0 0.029572045059576241 0.469060477695939 0 0.0281358409039968 0.44930075306768458 0 0.044846444185049857 0.46620050204512359 0 0.0281358409039968 0.44930075306768458 0 0.04587361322417214 0.448769157871174 0 0.044846444185049857 0.46620050204512359 0 0.0281358409039968 0.44930075306768458 0 0.044846444185049857 0.46620050204512359 0 0.04587361322417214 0.448769157871174 0 0.044846444185049857 0.46620050204512359 0 0.05832870883015126 0.45973880463956351 0 0.04587361322417214 0.448769157871174 0 0.057347956450285731 0.44480695268810438 0 0.049411209704934803 0.43621283219101809 0 0.04587361322417214 0.448769157871174 0 0.05832870883015126 0.45973880463956351 0 0.057347956450285731 0.44480695268810438 0 0.070599818540594342 0.45171728711773013 0 0.05832870883015126 0.45973880463956351 0 0.057347956450285731 0.44480695268810438 0 0.057347956450285731 0.44480695268810438 0 0.058238482531349368 0.43512174465279091 0 0.068330088192809502 0.43602814955066621 0 0.057347956450285731 0.44480695268810438 0 0.058238482531349368 0.43512174465279091 0 0.049411209704934803 0.43621283219101809 0 0.058238482531349368 0.43512174465279091 0 0.05412352915042095 0.42739076434297479 0 0.063786863135573219 0.4234822836218442 0 0.05412352915042095 0.42739076434297479 0 0.047865015341267358 0.42301655559242213 0 0.049411209704934803 0.43621283219101809 0 0.05412352915042095 0.42739076434297479 0 0.047865015341267358 0.42301655559242213 0 0.058238482531349368 0.43512174465279091 0 0.05412352915042095 0.42739076434297479 0 0.049411209704934803 0.43621283219101809 0 0.047865015341267358 0.42301655559242213 0 0.055388731832649349 0.41299308245440008 0 0.044385004541519633 0.40583709082877739 0 0.055388731832649349 0.41299308245440008 0 0.057103340742871267 0.4006394318358022 0 0.0691327228978319 0.40699071288372829 0 0.05412352915042095 0.42739076434297479 0 0.055388731832649349 0.41299308245440008 0 0.063786863135573219 0.4234822836218442 0 0.047865015341267358 0.42301655559242213 0 0.055388731832649349 0.41299308245440008 0 0.05412352915042095 0.42739076434297479 0 0.047865015341267358 0.42301655559242213 0 0.055388731832649349 0.41299308245440008 0 0.055388731832649349 0.41299308245440008 0 0.044385004541519633 0.40583709082877739 0 0.057103340742871267 0.4006394318358022 0 0.047865015341267358 0.42301655559242213 0 0.030398582533070099 0.41080889326869052 0 0.044385004541519633 0.40583709082877739 0 0.047865015341267358 0.42301655559242213 0 0.035686717363660143 0.42423985257235269 0 0.030398582533070099 0.41080889326869052 0 0.047865015341267358 0.42301655559242213 0 0.030398582533070099 0.41080889326869052 0 0.047865015341267358 0.42301655559242213 0 0.049411209704934803 0.43621283219101809 0 0.03800042812263172 0.43615865433005307 0 0.047865015341267358 0.42301655559242213 0 0.03800042812263172 0.43615865433005307 0 0.047865015341267358 0.42301655559242213 0 0.035686717363660143 0.42423985257235269 0 0.03800042812263172 0.43615865433005307 0 0.035686717363660143 0.42423985257235269 0 0.03800042812263172 0.43615865433005307 0 0.0264828434576714 0.42697530709824522 0 0.017893296784651399 0.43894227458572882 0 0.0264828434576714 0.42697530709824522 0 0.013451351612083251 0.42022136891186163 0 0.017893296784651399 0.43894227458572882 0 0.03800042812263172 0.43615865433005307 0 0.0264828434576714 0.42697530709824522 0 0.030398582533070099 0.41080889326869052 0 0.013451351612083251 0.42022136891186163 0 0.012932149724872831 0.39860123094495892 0 0.0264828434576714 0.42697530709824522 0 0.030398582533070099 0.41080889326869052 0 0.013451351612083251 0.42022136891186163 0 0.035686717363660143 0.42423985257235269 0 0.0264828434576714 0.42697530709824522 0 0.030398582533070099 0.41080889326869052 0 -0.0038092142255275289 0.41137928311071797 0 0.013451351612083251 0.42022136891186163 0 0.012932149724872831 0.39860123094495892 0 -0.0030841453677343121 0.43636499760021141 0 0.017893296784651399 0.43894227458572882 0 0.013451351612083251 0.42022136891186163 0 -0.0030841453677343121 0.43636499760021141 0 -0.0038092142255275289 0.41137928311071797 0 0.013451351612083251 0.42022136891186163 0 -0.0045342830833226501 0.3863935686212247 0 0.012932149724872831 0.39860123094495892 0 0.0079023355216259559 0.37348921158265391 0 0.012932149724872831 0.39860123094495892 0 0.025375843575522711 0.38021681034322929 0 0.0079023355216259559 0.37348921158265391 0 -0.0045342830833226501 0.3863935686212247 0 0.012932149724872831 0.39860123094495892 0 -0.0045342830833226501 0.3863935686212247 0 -0.0038092142255275289 0.41137928311071797 0 0.012932149724872831 0.39860123094495892 0 0.030398582533070099 0.41080889326869052 0 0.012932149724872831 0.39860123094495892 0 0.030398582533070099 0.41080889326869052 0 0.012932149724872831 0.39860123094495892 0 0.030218872497922818 0.39559608178221078 0 0.012932149724872831 0.39860123094495892 0 0.030218872497922818 0.39559608178221078 0 0.025375843575522711 0.38021681034322929 0 0.025375843575522711 0.38021681034322929 0 0.045236422390978262 0.39339421550307069 0 0.045418656597819553 0.37354288132317159 0 0.030218872497922818 0.39559608178221078 0 0.025375843575522711 0.38021681034322929 0 0.045236422390978262 0.39339421550307069 0 0.030398582533070099 0.41080889326869052 0 0.030218872497922818 0.39559608178221078 0 0.044385004541519633 0.40583709082877739 0 0.030218872497922818 0.39559608178221078 0 0.045236422390978262 0.39339421550307069 0 0.044385004541519633 0.40583709082877739 0 0.045236422390978262 0.39339421550307069 0 0.057103340742871267 0.4006394318358022 0 0.06607043693335328 0.38973814947632979 0 0.045236422390978262 0.39339421550307069 0 0.044385004541519633 0.40583709082877739 0 0.057103340742871267 0.4006394318358022 0 0.045236422390978262 0.39339421550307069 0 0.06607043693335328 0.38973814947632979 0 0.045418656597819553 0.37354288132317159 0 0.06607043693335328 0.38973814947632979 0 0.066778362586220691 0.36264744131756171 0 0.045418656597819553 0.37354288132317159 0 0.06607043693335328 0.38973814947632979 0 0.086713905658550791 0.37461406501925459 0 0.066778362586220691 0.36264744131756171 0 0.091303312773641829 0.3995757594209417 0 0.1025776524751303 0.38486691706586951 0 0.086713905658550791 0.37461406501925459 0 0.06607043693335328 0.38973814947632979 0 0.091303312773641829 0.3995757594209417 0 0.086713905658550791 0.37461406501925459 0 0.091303312773641829 0.3995757594209417 0 0.086713905658550791 0.37461406501925459 0 0.06607043693335328 0.38973814947632979 0 0.091303312773641829 0.3995757594209417 0 0.0691327228978319 0.40699071288372829 0 0.057103340742871267 0.4006394318358022 0 0.06607043693335328 0.38973814947632979 0 0.0691327228978319 0.40699071288372829 0 0.055388731832649349 0.41299308245440008 0 0.0691327228978319 0.40699071288372829 0 0.063786863135573219 0.4234822836218442 0 0.0691327228978319 0.40699071288372829 0 0.077714875811277062 0.4214876261871765 0 0.063786863135573219 0.4234822836218442 0 0.083205653112744402 0.44008551456546158 0 0.077714875811277062 0.4214876261871765 0 0.068330088192809502 0.43602814955066621 0 0.058238482531349368 0.43512174465279091 0 0.068330088192809502 0.43602814955066621 0 0.063786863135573219 0.4234822836218442 0 0.077714875811277062 0.4214876261871765 0 0.068330088192809502 0.43602814955066621 0 0.063786863135573219 0.4234822836218442 0 0.083205653112744402 0.44008551456546158 0 0.077714875811277062 0.4214876261871765 0 0.095892719888732866 0.42453745382262881 0 0.091303312773641829 0.3995757594209417 0 0.0691327228978319 0.40699071288372829 0 0.077714875811277062 0.4214876261871765 0 0.091303312773641829 0.3995757594209417 0 0.095892719888732866 0.42453745382262881 0 0.091303312773641829 0.3995757594209417 0 0.077714875811277062 0.4214876261871765 0 0.095892719888732866 0.42453745382262881 0 0.091303312773641829 0.3995757594209417 0 0.095892719888732866 0.42453745382262881 0 0.115428724103706 0.40267530492779557 0 0.1004821270038239 0.44949914822431608 0 0.095892719888732866 0.42453745382262881 0 0.12259086230274099 0.42947812748907283 0 0.1004821270038239 0.44949914822431608 0 0.095892719888732866 0.42453745382262881 0 0.095892719888732866 0.42453745382262881 0 0.12259086230274099 0.42947812748907283 0 0.115428724103706 0.40267530492779557 0 0.115428724103706 0.40267530492779557 0 0.119448870245615 0.38256434187866972 0 0.13692284990477191 0.38930777957628943 0 0.119448870245615 0.38256434187866972 0 0.1025776524751303 0.38486691706586951 0 0.1087205780393706 0.3656269003386084 0 0.115428724103706 0.40267530492779557 0 0.119448870245615 0.38256434187866972 0 0.1025776524751303 0.38486691706586951 0 0.1025776524751303 0.38486691706586951 0 0.1087205780393706 0.3656269003386084 0 0.086713905658550791 0.37461406501925459 0 0.091303312773641829 0.3995757594209417 0 0.115428724103706 0.40267530492779557 0 0.1025776524751303 0.38486691706586951 0 0.1087205780393706 0.3656269003386084 0 0.1202868522871179 0.34060046584014031 0 0.0915497208986496 0.34709204532757532 0 0.1087205780393706 0.3656269003386084 0 0.0915497208986496 0.34709204532757532 0 0.086713905658550791 0.37461406501925459 0 0.119448870245615 0.38256434187866972 0 0.1087205780393706 0.3656269003386084 0 0.13274728415341139 0.36410634055334368 0 0.1087205780393706 0.3656269003386084 0 0.1202868522871179 0.34060046584014031 0 0.13274728415341139 0.36410634055334368 0 0.1202868522871179 0.34060046584014031 0 0.1104734498024164 0.31171603628350752 0 0.14183880654046921 0.32250528078568202 0 0.1202868522871179 0.34060046584014031 0 0.1016552612267161 0.33013161519950079 0 0.1104734498024164 0.31171603628350752 0 0.1016552612267161 0.33013161519950079 0 0.081254576285268804 0.3210829637434266 0 0.1104734498024164 0.31171603628350752 0 0.1202868522871179 0.34060046584014031 0 0.1016552612267161 0.33013161519950079 0 0.0915497208986496 0.34709204532757532 0 0.081254576285268804 0.3210829637434266 0 0.072654821413094289 0.33942743407960763 0 0.0915497208986496 0.34709204532757532 0 0.1016552612267161 0.33013161519950079 0 0.081254576285268804 0.3210829637434266 0 0.0915497208986496 0.34709204532757532 0 0.081254576285268804 0.3210829637434266 0 0.06358813508901956 0.32234581427363851 0 0.071244474661197085 0.3036312559279935 0 0.081254576285268804 0.3210829637434266 0 0.06358813508901956 0.32234581427363851 0 0.072654821413094289 0.33942743407960763 0 0.06358813508901956 0.32234581427363851 0 0.072654821413094289 0.33942743407960763 0 0.055199983679349987 0.34246375673151652 0 0.072654821413094289 0.33942743407960763 0 0.066778362586220691 0.36264744131756171 0 0.055199983679349987 0.34246375673151652 0 0.072654821413094289 0.33942743407960763 0 0.0915497208986496 0.34709204532757532 0 0.066778362586220691 0.36264744131756171 0 0.0915497208986496 0.34709204532757532 0 0.086713905658550791 0.37461406501925459 0 0.066778362586220691 0.36264744131756171 0 0.066778362586220691 0.36264744131756171 0 0.044951457965310811 0.3555124197003488 0 0.045418656597819553 0.37354288132317159 0 0.066778362586220691 0.36264744131756171 0 0.044951457965310811 0.3555124197003488 0 0.055199983679349987 0.34246375673151652 0 0.044951457965310811 0.3555124197003488 0 0.021903196078839001 0.35746348141110651 0 0.035457090884324839 0.34144453771838768 0 0.044951457965310811 0.3555124197003488 0 0.035457090884324839 0.34144453771838768 0 0.055199983679349987 0.34246375673151652 0 0.044951457965310811 0.3555124197003488 0 0.045418656597819553 0.37354288132317159 0 0.021903196078839001 0.35746348141110651 0 0.025375843575522711 0.38021681034322929 0 0.021903196078839001 0.35746348141110651 0 0.0079023355216259559 0.37348921158265391 0 0.025375843575522711 0.38021681034322929 0 0.045418656597819553 0.37354288132317159 0 0.021903196078839001 0.35746348141110651 0 0.021903196078839001 0.35746348141110651 0 0.017151683724365509 0.3376665205351736 0 0.035457090884324839 0.34144453771838768 0 0.021903196078839001 0.35746348141110651 0 0.0095650341834115256 0.34490192427506011 0 0.017151683724365509 0.3376665205351736 0 0.021903196078839001 0.35746348141110651 0 0.0095650341834115256 0.34490192427506011 0 0.0061318462344260851 0.35417601161121459 0 -0.0050552824635438226 0.34569829691311771 0 0.0095650341834115256 0.34490192427506011 0 0.0061318462344260851 0.35417601161121459 0 0.021903196078839001 0.35746348141110651 0 0.0061318462344260851 0.35417601161121459 0 0.0079023355216259559 0.37348921158265391 0 -0.0052616759920083916 0.36132776784546622 0 0.0061318462344260851 0.35417601161121459 0 0.0079023355216259559 0.37348921158265391 0 0.0087281755863181168 0.33049580891976171 0 0.020410497070949891 0.30832150289807031 0 0.0056044744337335906 0.31412092038659428 0 0.0087281755863181168 0.33049580891976171 0 0.020410497070949891 0.30832150289807031 0 -0.003280447873963227 0.32161399115684158 0 0.0056044744337335906 0.31412092038659428 0 0.0087281755863181168 0.33049580891976171 0 0.0064742168078369342 0.3347740657525386 0 0.0087281755863181168 0.33049580891976171 0 -0.0050552824635438226 0.34569829691311771 0 0.0095650341834115256 0.34490192427506011 0 0.0064742168078369342 0.3347740657525386 0 0.0095650341834115256 0.34490192427506011 0 0.0064742168078369342 0.3347740657525386 0 0.017151683724365509 0.3376665205351736 0 0.0064742168078369342 0.3347740657525386 0 0.0087281755863181168 0.33049580891976171 0 0.017151683724365509 0.3376665205351736 0 0.0087281755863181168 0.33049580891976171 0 0.025353163704189718 0.33024288796319817 0 0.017151683724365509 0.3376665205351736 0 0.0087281755863181168 0.33049580891976171 0 0.025353163704189718 0.33024288796319817 0 0.025353163704189718 0.33024288796319817 0 0.017151683724365509 0.3376665205351736 0 0.035457090884324839 0.34144453771838768 0 0.0087281755863181168 0.33049580891976171 0 0.025353163704189718 0.33024288796319817 0 0.020410497070949891 0.30832150289807031 0 0.025353163704189718 0.33024288796319817 0 0.038017806832533571 0.30672300381527179 0 0.020410497070949891 0.30832150289807031 0 0.025353163704189718 0.33024288796319817 0 0.045812945845809312 0.32351293560108041 0 0.038017806832533571 0.30672300381527179 0 0.025353163704189718 0.33024288796319817 0 0.045812945845809312 0.32351293560108041 0 0.035457090884324839 0.34144453771838768 0 0.045812945845809312 0.32351293560108041 0 0.035457090884324839 0.34144453771838768 0 0.055199983679349987 0.34246375673151652 0 0.06358813508901956 0.32234581427363851 0 0.045812945845809312 0.32351293560108041 0 0.055199983679349987 0.34246375673151652 0 0.06358813508901956 0.32234581427363851 0 0.045812945845809312 0.32351293560108041 0 0.055148108477292443 0.3057593846019967 0 0.055148108477292443 0.3057593846019967 0 0.047586914097201803 0.29032131063477928 0 0.038017806832533571 0.30672300381527179 0 0.055148108477292443 0.3057593846019967 0 0.047586914097201803 0.29032131063477928 0 0.066935962560195753 0.28615893812798288 0 0.047586914097201803 0.29032131063477928 0 0.050578246113349837 0.27455429857722041 0 0.066935962560195753 0.28615893812798288 0 0.047586914097201803 0.29032131063477928 0 0.032092818555581597 0.28614719687637868 0 0.038017806832533571 0.30672300381527179 0 0.047586914097201803 0.29032131063477928 0 0.032092818555581597 0.28614719687637868 0 0.050578246113349837 0.27455429857722041 0 0.045812945845809312 0.32351293560108041 0 0.055148108477292443 0.3057593846019967 0 0.038017806832533571 0.30672300381527179 0 0.032092818555581597 0.28614719687637868 0 0.038017806832533571 0.30672300381527179 0 0.020410497070949891 0.30832150289807031 0 0.032092818555581597 0.28614719687637868 0 0.020410497070949891 0.30832150289807031 0 0.032092818555581597 0.28614719687637868 0 0.020410497070949891 0.30832150289807031 0 0.0083336089875100904 0.29343585490586271 0 0.032092818555581597 0.28614719687637868 0 0.0083336089875100904 0.29343585490586271 0 0.021382191810826279 0.2686960609189637 0 -0.0088759444352828343 0.31092800175718183 0 0.0056044744337335906 0.31412092038659428 0 0.0083336089875100904 0.29343585490586271 0 0.0056044744337335906 0.31412092038659428 0 0.020410497070949891 0.30832150289807031 0 0.0083336089875100904 0.29343585490586271 0 0.0073806355134042019 0.25529449578482938 0 3.3590645499582607e-05 0.27236849017123349 0 0.021382191810826279 0.2686960609189637 0 0.0083336089875100904 0.29343585490586271 0 3.3590645499582607e-05 0.27236849017123349 0 0.021382191810826279 0.2686960609189637 0 0.025149977659741599 0.24684982625080901 0 0.0073806355134042019 0.25529449578482938 0 0.021382191810826279 0.2686960609189637 0 0.025149977659741599 0.24684982625080901 0 0.021382191810826279 0.2686960609189637 0 0.043775140040213267 0.26397289085468728 0 0.025149977659741599 0.24684982625080901 0 0.045472231705318063 0.24424317023843681 0 0.050158093690384618 0.2598810672441918 0 0.025149977659741599 0.24684982625080901 0 0.050158093690384618 0.2598810672441918 0 0.025149977659741599 0.24684982625080901 0 0.043775140040213267 0.26397289085468728 0 0.050158093690384618 0.2598810672441918 0 0.032092818555581597 0.28614719687637868 0 0.043775140040213267 0.26397289085468728 0 0.032092818555581597 0.28614719687637868 0 0.021382191810826279 0.2686960609189637 0 0.043775140040213267 0.26397289085468728 0 0.032092818555581597 0.28614719687637868 0 0.043775140040213267 0.26397289085468728 0 0.050578246113349837 0.27455429857722041 0 0.050578246113349837 0.27455429857722041 0 0.063875668081316214 0.2678607518654692 0 0.066935962560195753 0.28615893812798288 0 0.043775140040213267 0.26397289085468728 0 0.050578246113349837 0.27455429857722041 0 0.050158093690384618 0.2598810672441918 0 0.050578246113349837 0.27455429857722041 0 0.056046126259945157 0.25263236173372139 0 0.063875668081316214 0.2678607518654692 0 0.050578246113349837 0.27455429857722041 0 0.050158093690384618 0.2598810672441918 0 0.056046126259945157 0.25263236173372139 0 0.045472231705318063 0.24424317023843681 0 0.050158093690384618 0.2598810672441918 0 0.056046126259945157 0.25263236173372139 0 0.050578246113349837 0.27455429857722041 0 0.056046126259945157 0.25263236173372139 0 0.078525547080241467 0.2465942846531784 0 0.067905867336300579 0.25358800162702 0 0.079567988853459573 0.27014218499250892 0 0.067905867336300579 0.25358800162702 0 0.079567988853459573 0.27014218499250892 0 0.063875668081316214 0.2678607518654692 0 0.056046126259945157 0.25263236173372139 0 0.067905867336300579 0.25358800162702 0 0.063875668081316214 0.2678607518654692 0 0.078525547080241467 0.2465942846531784 0 0.079567988853459573 0.27014218499250892 0 0.093798877441032588 0.2579700649065903 0 0.079567988853459573 0.27014218499250892 0 0.063875668081316214 0.2678607518654692 0 0.066935962560195753 0.28615893812798288 0 0.079567988853459573 0.27014218499250892 0 0.066935962560195753 0.28615893812798288 0 0.087430381393448858 0.29852998767476718 0 0.066935962560195753 0.28615893812798288 0 0.071244474661197085 0.3036312559279935 0 0.087430381393448858 0.29852998767476718 0 0.055148108477292443 0.3057593846019967 0 0.066935962560195753 0.28615893812798288 0 0.071244474661197085 0.3036312559279935 0 0.06358813508901956 0.32234581427363851 0 0.055148108477292443 0.3057593846019967 0 0.071244474661197085 0.3036312559279935 0 0.081254576285268804 0.3210829637434266 0 0.087430381393448858 0.29852998767476718 0 0.1104734498024164 0.31171603628350752 0 0.081254576285268804 0.3210829637434266 0 0.071244474661197085 0.3036312559279935 0 0.087430381393448858 0.29852998767476718 0 0.079567988853459573 0.27014218499250892 0 0.087430381393448858 0.29852998767476718 0 0.1079828451826004 0.27738565586056829 0 0.087430381393448858 0.29852998767476718 0 0.1104734498024164 0.31171603628350752 0 0.1079828451826004 0.27738565586056829 0 0.1104734498024164 0.31171603628350752 0 0.1079828451826004 0.27738565586056829 0 0.13401849175413849 0.29214957311260448 0 0.1079828451826004 0.27738565586056829 0 0.13401849175413849 0.29214957311260448 0 0.1100607559553454 0.25396994184181759 0 0.1079828451826004 0.27738565586056829 0 0.13366986361514199 0.26692500362740812 0 0.12787711237058769 0.24521089126939841 0 0.1100607559553454 0.25396994184181759 0 0.13366986361514199 0.26692500362740812 0 0.092857250133516089 0.24175825718487831 0 0.1100607559553454 0.25396994184181759 0 0.093798877441032588 0.2579700649065903 0 0.1100607559553454 0.25396994184181759 0 0.093798877441032588 0.2579700649065903 0 0.1079828451826004 0.27738565586056829 0 0.079567988853459573 0.27014218499250892 0 0.093798877441032588 0.2579700649065903 0 0.1079828451826004 0.27738565586056829 0 0.13366986361514199 0.26692500362740812 0 0.1558685034792309 0.28595093384994291 0 0.15959452244756481 0.26367036214955358 0 0.14702044576598061 0.2478904659134552 0 0.13366986361514199 0.26692500362740812 0 0.15959452244756481 0.26367036214955358 0 0.14702044576598061 0.2478904659134552 0 0.12787711237058769 0.24521089126939841 0 0.13366986361514199 0.26692500362740812 0 0.1079828451826004 0.27738565586056829 0 0.13366986361514199 0.26692500362740812 0 0.13401849175413849 0.29214957311260448 0 0.1104734498024164 0.31171603628350752 0 0.13401849175413849 0.29214957311260448 0 0.14183880654046921 0.32250528078568202 0 0.13401849175413849 0.29214957311260448 0 0.16005413832567669 0.30691349036464077 0 0.14183880654046921 0.32250528078568202 0 0.13401849175413849 0.29214957311260448 0 0.16005413832567669 0.30691349036464077 0 0.13401849175413849 0.29214957311260448 0 0.1558685034792309 0.28595093384994291 0 0.16005413832567669 0.30691349036464077 0 0.13366986361514199 0.26692500362740812 0 0.13401849175413849 0.29214957311260448 0 0.1558685034792309 0.28595093384994291 0 0.1558685034792309 0.28595093384994291 0 0.1700220001876428 0.28782965529906401 0 0.16005413832567669 0.30691349036464077 0 0.1558685034792309 0.28595093384994291 0 0.1700220001876428 0.28782965529906401 0 0.17370236977615991 0.27502287964280692 0 0.1700220001876428 0.28782965529906401 0 0.16005413832567669 0.30691349036464077 0 0.1764196225356903 0.29880027385689728 0 0.16005413832567669 0.30691349036464077 0 0.1764196225356903 0.29880027385689728 0 0.18686192329242929 0.31378732528256248 0 0.1764196225356903 0.29880027385689728 0 0.18674031124236579 0.30201460306836742 0 0.19086383386244751 0.2907864273273883 0 0.1764196225356903 0.29880027385689728 0 0.18674031124236579 0.30201460306836742 0 0.18686192329242929 0.31378732528256248 0 0.1700220001876428 0.28782965529906401 0 0.18013512871176271 0.28566990799825959 0 0.17370236977615991 0.27502287964280692 0 0.1700220001876428 0.28782965529906401 0 0.1764196225356903 0.29880027385689728 0 0.18013512871176271 0.28566990799825959 0 0.1764196225356903 0.29880027385689728 0 0.18013512871176271 0.28566990799825959 0 0.19086383386244751 0.2907864273273883 0 0.18013512871176271 0.28566990799825959 0 0.1896678171968729 0.27591030386514148 0 0.19086383386244751 0.2907864273273883 0 0.18251379545819379 0.26835647973838378 0 0.17370236977615991 0.27502287964280692 0 0.1896678171968729 0.27591030386514148 0 0.18013512871176271 0.28566990799825959 0 0.17370236977615991 0.27502287964280692 0 0.1896678171968729 0.27591030386514148 0 0.18251379545819379 0.26835647973838378 0 0.17370236977615991 0.27502287964280692 0 0.17699066645021869 0.2595722272450377 0 0.17370236977615991 0.27502287964280692 0 0.15959452244756481 0.26367036214955358 0 0.17699066645021869 0.2595722272450377 0 0.1558685034792309 0.28595093384994291 0 0.17370236977615991 0.27502287964280692 0 0.15959452244756481 0.26367036214955358 0 0.16774616909827719 0.2460930353984315 0 0.15959452244756481 0.26367036214955358 0 0.17699066645021869 0.2595722272450377 0 0.14702044576598061 0.2478904659134552 0 0.16774616909827719 0.2460930353984315 0 0.15959452244756481 0.26367036214955358 0 0.18692125413578081 0.24552837502103991 0 0.16774616909827719 0.2460930353984315 0 0.17699066645021869 0.2595722272450377 0 0.18692125413578081 0.24552837502103991 0 0.17699066645021869 0.2595722272450377 0 0.19242781921148469 0.26384338938458129 0 0.18251379545819379 0.26835647973838378 0 0.17699066645021869 0.2595722272450377 0 0.19242781921148469 0.26384338938458129 0 0.18692125413578081 0.24552837502103991 0 0.19242781921148469 0.26384338938458129 0 0.20107379594449931 0.25686311186437227 0 0.18692125413578081 0.24552837502103991 0 0.20107379594449931 0.25686311186437227 0 0.19242781921148469 0.26384338938458129 0 0.20107379594449931 0.25686311186437227 0 0.2008998280478862 0.26959186196165702 0 0.19242781921148469 0.26384338938458129 0 0.20107379594449931 0.25686311186437227 0 0.19242781921148469 0.26384338938458129 0 0.1896678171968729 0.27591030386514148 0 0.2008998280478862 0.26959186196165702 0 0.18251379545819379 0.26835647973838378 0 0.19242781921148469 0.26384338938458129 0 0.1896678171968729 0.27591030386514148 0 0.1896678171968729 0.27591030386514148 0 0.2008998280478862 0.26959186196165702 0 0.20354188417430641 0.281093168015905 0 0.2008998280478862 0.26959186196165702 0 0.2177878237122676 0.27024933667828532 0 0.20354188417430641 0.281093168015905 0 0.2177878237122676 0.27024933667828532 0 0.20354188417430641 0.281093168015905 0 0.2166033006779626 0.28924568688104418 0 0.21557305570370441 0.24515722135805329 0 0.20107379594449931 0.25686311186437227 0 0.2177878237122676 0.27024933667828532 0 0.20107379594449931 0.25686311186437227 0 0.2177878237122676 0.27024933667828532 0 0.20107379594449931 0.25686311186437227 0 0.2008998280478862 0.26959186196165702 0 0.2177878237122676 0.27024933667828532 0 0.21557305570370441 0.24515722135805329 0 0.20107379594449931 0.25686311186437227 0 0.21557305570370441 0.24515722135805329 0 0.2177878237122676 0.27024933667828532 0 0.23628031136540401 0.25597328662156199 0 0.2177878237122676 0.27024933667828532 0 0.23628031136540401 0.25597328662156199 0 0.23450185148003599 0.28363556149219821 0 0.2177878237122676 0.27024933667828532 0 0.23450185148003599 0.28363556149219821 0 0.2166033006779626 0.28924568688104418 0 0.2177878237122676 0.27024933667828532 0 0.23450185148003599 0.28363556149219821 0 0.23628031136540401 0.25597328662156199 0 0.23450185148003599 0.28363556149219821 0 0.25102838231212438 0.26850893423506528 0 0.23450185148003599 0.28363556149219821 0 0.25953152444998728 0.28294166139542631 0 0.25102838231212438 0.26850893423506528 0 0.23628031136540401 0.25597328662156199 0 0.25102838231212438 0.26850893423506528 0 0.26221447651104962 0.2479993693513689 0 0.2297645605960125 0.30261029929826411 0 0.25121587924780342 0.29702178630611242 0 0.2484846271056145 0.31037308609574782 0 0.2297645605960125 0.30261029929826411 0 0.23798581837376781 0.31938142953188831 0 0.2484846271056145 0.31037308609574782 0 0.2297645605960125 0.30261029929826411 0 0.25121587924780342 0.29702178630611242 0 0.23450185148003599 0.28363556149219821 0 0.2297645605960125 0.30261029929826411 0 0.25121587924780342 0.29702178630611242 0 0.23450185148003599 0.28363556149219821 0 0.25121587924780342 0.29702178630611242 0 0.23450185148003599 0.28363556149219821 0 0.25953152444998728 0.28294166139542631 0 0.25121587924780342 0.29702178630611242 0 0.23450185148003599 0.28363556149219821 0 0.2297645605960125 0.30261029929826411 0 0.2166033006779626 0.28924568688104418 0 0.2297645605960125 0.30261029929826411 0 0.20831324194422091 0.30819881229041318 0 0.2297645605960125 0.30261029929826411 0 0.20831324194422091 0.30819881229041318 0 0.21977364325038071 0.31928170538083578 0 0.20831324194422091 0.30819881229041318 0 0.2166033006779626 0.28924568688104418 0 0.20288664267638859 0.29424953150154581 0 0.2297645605960125 0.30261029929826411 0 0.20831324194422091 0.30819881229041318 0 0.2166033006779626 0.28924568688104418 0 0.20354188417430641 0.281093168015905 0 0.2166033006779626 0.28924568688104418 0 0.20288664267638859 0.29424953150154581 0 0.20354188417430641 0.281093168015905 0 0.20288664267638859 0.29424953150154581 0 0.19086383386244751 0.2907864273273883 0 0.20288664267638859 0.29424953150154581 0 0.19086383386244751 0.2907864273273883 0 0.19511095272300569 0.3019235629929784 0 0.1896678171968729 0.27591030386514148 0 0.20354188417430641 0.281093168015905 0 0.19086383386244751 0.2907864273273883 0 0.20831324194422091 0.30819881229041318 0 0.18686192329242929 0.31378732528256248 0 0.20831324194422091 0.30819881229041318 0 0.19511095272300569 0.3019235629929784 0 0.18686192329242929 0.31378732528256248 0 0.20831324194422091 0.30819881229041318 0 0.20288664267638859 0.29424953150154581 0 0.19511095272300569 0.3019235629929784 0 0.18674031124236579 0.30201460306836742 0 0.19086383386244751 0.2907864273273883 0 0.19511095272300569 0.3019235629929784 0 0.18674031124236579 0.30201460306836742 0 0.19511095272300569 0.3019235629929784 0 0.18686192329242929 0.31378732528256248 0 0.20141288137377081 0.31920030670374799 0 0.18686192329242929 0.31378732528256248 0 0.18608978489721489 0.32167740761667712 0 0.20831324194422091 0.30819881229041318 0 0.20141288137377081 0.31920030670374799 0 0.18686192329242929 0.31378732528256248 0 0.20141288137377081 0.31920030670374799 0 0.21212543146875301 0.33644132486871342 0 0.18608978489721489 0.32167740761667712 0 0.21212543146875301 0.33644132486871342 0 0.18608978489721489 0.32167740761667712 0 0.19231113454718349 0.34165597013868199 0 0.21212543146875301 0.33644132486871342 0 0.18608978489721489 0.32167740761667712 0 0.20831324194422091 0.30819881229041318 0 0.20141288137377081 0.31920030670374799 0 0.21977364325038071 0.31928170538083578 0 0.20141288137377081 0.31920030670374799 0 0.21212543146875301 0.33644132486871342 0 0.21977364325038071 0.31928170538083578 0 0.21977364325038071 0.31928170538083578 0 0.2290399257457596 0.32985805959198788 0 0.23798581837376781 0.31938142953188831 0 0.2297645605960125 0.30261029929826411 0 0.21977364325038071 0.31928170538083578 0 0.23798581837376781 0.31938142953188831 0 0.21212543146875301 0.33644132486871342 0 0.21977364325038071 0.31928170538083578 0 0.2290399257457596 0.32985805959198788 0 0.21212543146875301 0.33644132486871342 0 0.23060518033342339 0.33807106122714048 0 0.2290399257457596 0.32985805959198788 0 0.21212543146875301 0.33644132486871342 0 0.23060518033342339 0.33807106122714048 0 0.23816107804029091 0.35120524212074949 0 0.23060518033342339 0.33807106122714048 0 0.2290399257457596 0.32985805959198788 0 0.2430942860788903 0.33477961832711151 0 0.23060518033342339 0.33807106122714048 0 0.2430942860788903 0.33477961832711151 0 0.23816107804029091 0.35120524212074949 0 0.2484846271056145 0.31037308609574782 0 0.23798581837376781 0.31938142953188831 0 0.25508783524565293 0.32209220201309929 0 0.2430942860788903 0.33477961832711151 0 0.23798581837376781 0.31938142953188831 0 0.25508783524565293 0.32209220201309929 0 0.2290399257457596 0.32985805959198788 0 0.2430942860788903 0.33477961832711151 0 0.23798581837376781 0.31938142953188831 0 0.23439037865920059 0.35560025357312369 0 0.2386764282036242 0.37725286527910618 0 0.24311907173897271 0.36013203008567057 0 0.23439037865920059 0.35560025357312369 0 0.2386764282036242 0.37725286527910618 0 0.2492643002430574 0.365916522193315 0 0.24311907173897271 0.36013203008567057 0 0.2386764282036242 0.37725286527910618 0 0.2492643002430574 0.365916522193315 0 0.2386764282036242 0.37725286527910618 0 0.25383912625151372 0.37755129754335942 0 0.24311907173897271 0.36013203008567057 0 0.23816107804029091 0.35120524212074949 0 0.2641967246118288 0.36596915937278562 0 0.2430942860788903 0.33477961832711151 0 0.23816107804029091 0.35120524212074949 0 0.26173146881309822 0.35734024057335978 0 0.24311907173897271 0.36013203008567057 0 0.23816107804029091 0.35120524212074949 0 0.23439037865920059 0.35560025357312369 0 0.21212543146875301 0.33644132486871342 0 0.23816107804029091 0.35120524212074949 0 0.21848510057545151 0.35453686872473111 0 0.23816107804029091 0.35120524212074949 0 0.23439037865920059 0.35560025357312369 0 0.21848510057545151 0.35453686872473111 0 0.21212543146875301 0.33644132486871342 0 0.23816107804029091 0.35120524212074949 0 0.23439037865920059 0.35560025357312369 0 0.22513916990612379 0.36868200325308897 0 0.2386764282036242 0.37725286527910618 0 0.23439037865920059 0.35560025357312369 0 0.22513916990612379 0.36868200325308897 0 0.21848510057545151 0.35453686872473111 0 0.22513916990612379 0.36868200325308897 0 0.20931495008602691 0.36890180222237801 0 0.21961872799640589 0.38146559318592133 0 0.22513916990612379 0.36868200325308897 0 0.20931495008602691 0.36890180222237801 0 0.21848510057545151 0.35453686872473111 0 0.20931495008602691 0.36890180222237801 0 0.21848510057545151 0.35453686872473111 0 0.2018014651714847 0.35413555731190122 0 0.21212543146875301 0.33644132486871342 0 0.21848510057545151 0.35453686872473111 0 0.2018014651714847 0.35413555731190122 0 0.19231113454718349 0.34165597013868199 0 0.2018014651714847 0.35413555731190122 0 0.1832131523033072 0.3569188224833833 0 0.19231113454718349 0.34165597013868199 0 0.21212543146875301 0.33644132486871342 0 0.2018014651714847 0.35413555731190122 0 0.20931495008602691 0.36890180222237801 0 0.2018014651714847 0.35413555731190122 0 0.19217836357317111 0.36996972767433872 0 0.20931495008602691 0.36890180222237801 0 0.19217836357317111 0.36996972767433872 0 0.20289108470775991 0.38370682355227331 0 0.2018014651714847 0.35413555731190122 0 0.19217836357317111 0.36996972767433872 0 0.1832131523033072 0.3569188224833833 0 0.19217836357317111 0.36996972767433872 0 0.17197644233242751 0.37002706837148541 0 0.1832131523033072 0.3569188224833833 0 0.17197644233242751 0.37002706837148541 0 0.16866852787741549 0.35230522619665788 0 0.1832131523033072 0.3569188224833833 0 0.17197644233242751 0.37002706837148541 0 0.16866852787741549 0.35230522619665788 0 0.15186920095361911 0.35620033980905319 0 0.17197644233242751 0.37002706837148541 0 0.15186920095361911 0.35620033980905319 0 0.15185568245476189 0.37707061606136422 0 0.16866852787741549 0.35230522619665788 0 0.1579580049025659 0.33927316190663209 0 0.15186920095361911 0.35620033980905319 0 0.16866852787741549 0.35230522619665788 0 0.1832131523033072 0.3569188224833833 0 0.17832583889515771 0.33910673841273542 0 0.19231113454718349 0.34165597013868199 0 0.1832131523033072 0.3569188224833833 0 0.17832583889515771 0.33910673841273542 0 0.17832583889515771 0.33910673841273542 0 0.18608978489721489 0.32167740761667712 0 0.16647560889869609 0.32578562508456149 0 0.19231113454718349 0.34165597013868199 0 0.17832583889515771 0.33910673841273542 0 0.18608978489721489 0.32167740761667712 0 0.16005413832567669 0.30691349036464077 0 0.18608978489721489 0.32167740761667712 0 0.16005413832567669 0.30691349036464077 0 0.18686192329242929 0.31378732528256248 0 0.18608978489721489 0.32167740761667712 0 0.16005413832567669 0.30691349036464077 0 0.18608978489721489 0.32167740761667712 0 0.16647560889869609 0.32578562508456149 0 0.17832583889515771 0.33910673841273542 0 0.16647560889869609 0.32578562508456149 0 0.1579580049025659 0.33927316190663209 0 0.16866852787741549 0.35230522619665788 0 0.17832583889515771 0.33910673841273542 0 0.1579580049025659 0.33927316190663209 0 0.16647560889869609 0.32578562508456149 0 0.1579580049025659 0.33927316190663209 0 0.14183880654046921 0.32250528078568202 0 0.1579580049025659 0.33927316190663209 0 0.14183880654046921 0.32250528078568202 0 0.14054269679001921 0.34363296691054102 0 0.16005413832567669 0.30691349036464077 0 0.16647560889869609 0.32578562508456149 0 0.14183880654046921 0.32250528078568202 0 0.1202868522871179 0.34060046584014031 0 0.14183880654046921 0.32250528078568202 0 0.14054269679001921 0.34363296691054102 0 0.1202868522871179 0.34060046584014031 0 0.14054269679001921 0.34363296691054102 0 0.13274728415341139 0.36410634055334368 0 0.13274728415341139 0.36410634055334368 0 0.15186920095361911 0.35620033980905319 0 0.15185568245476189 0.37707061606136422 0 0.14054269679001921 0.34363296691054102 0 0.13274728415341139 0.36410634055334368 0 0.15186920095361911 0.35620033980905319 0 0.1579580049025659 0.33927316190663209 0 0.14054269679001921 0.34363296691054102 0 0.15186920095361911 0.35620033980905319 0 0.15352992747694119 0.40026604784697911 0 0.13692284990477191 0.38930777957628943 0 0.1397509022148696 0.40843688002483958 0 0.15352992747694119 0.40026604784697911 0 0.15185568245476189 0.37707061606136422 0 0.13692284990477191 0.38930777957628943 0 0.13274728415341139 0.36410634055334368 0 0.15185568245476189 0.37707061606136422 0 0.13692284990477191 0.38930777957628943 0 0.119448870245615 0.38256434187866972 0 0.13274728415341139 0.36410634055334368 0 0.13692284990477191 0.38930777957628943 0 0.115428724103706 0.40267530492779557 0 0.13692284990477191 0.38930777957628943 0 0.1397509022148696 0.40843688002483958 0 0.12259086230274099 0.42947812748907283 0 0.1397509022148696 0.40843688002483958 0 0.14363603346764281 0.42707530835579988 0 0.12259086230274099 0.42947812748907283 0 0.115428724103706 0.40267530492779557 0 0.1397509022148696 0.40843688002483958 0 0.12259086230274099 0.42947812748907283 0 0.14363603346764281 0.42707530835579988 0 0.13510526379757609 0.44116740875256688 0 0.14363603346764281 0.42707530835579988 0 0.16526304614212209 0.42908608809292892 0 0.1507341445198021 0.44370602134863157 0 0.14363603346764281 0.42707530835579988 0 0.15527295380072001 0.4153931176925994 0 0.16526304614212209 0.42908608809292892 0 0.14363603346764281 0.42707530835579988 0 0.1507341445198021 0.44370602134863157 0 0.13510526379757609 0.44116740875256688 0 0.1397509022148696 0.40843688002483958 0 0.14363603346764281 0.42707530835579988 0 0.15527295380072001 0.4153931176925994 0 0.15352992747694119 0.40026604784697911 0 0.1397509022148696 0.40843688002483958 0 0.15527295380072001 0.4153931176925994 0 0.15527295380072001 0.4153931176925994 0 0.1711416470664554 0.41062619466687539 0 0.16526304614212209 0.42908608809292892 0 0.15352992747694119 0.40026604784697911 0 0.15527295380072001 0.4153931176925994 0 0.1711416470664554 0.41062619466687539 0 0.16526304614212209 0.42908608809292892 0 0.1809560021812836 0.43814832633623357 0 0.16598328874466911 0.44273574664910909 0 0.16526304614212209 0.42908608809292892 0 0.18469425222239219 0.42125941149134333 0 0.1809560021812836 0.43814832633623357 0 0.1711416470664554 0.41062619466687539 0 0.16526304614212209 0.42908608809292892 0 0.18469425222239219 0.42125941149134333 0 0.1711416470664554 0.41062619466687539 0 0.18469425222239219 0.42125941149134333 0 0.1843100454414533 0.40126956181167389 0 0.1711416470664554 0.41062619466687539 0 0.1843100454414533 0.40126956181167389 0 0.16952276405911931 0.3912061138884545 0 0.1843100454414533 0.40126956181167389 0 0.16952276405911931 0.3912061138884545 0 0.18589276442329861 0.38606835492789338 0 0.15352992747694119 0.40026604784697911 0 0.1711416470664554 0.41062619466687539 0 0.16952276405911931 0.3912061138884545 0 0.15352992747694119 0.40026604784697911 0 0.15185568245476189 0.37707061606136422 0 0.16952276405911931 0.3912061138884545 0 0.17197644233242751 0.37002706837148541 0 0.15185568245476189 0.37707061606136422 0 0.16952276405911931 0.3912061138884545 0 0.17197644233242751 0.37002706837148541 0 0.16952276405911931 0.3912061138884545 0 0.18589276442329861 0.38606835492789338 0 0.19217836357317111 0.36996972767433872 0 0.17197644233242751 0.37002706837148541 0 0.18589276442329861 0.38606835492789338 0 0.18589276442329861 0.38606835492789338 0 0.20289108470775991 0.38370682355227331 0 0.19700705340585539 0.39579078134538831 0 0.19217836357317111 0.36996972767433872 0 0.18589276442329861 0.38606835492789338 0 0.20289108470775991 0.38370682355227331 0 0.19700705340585539 0.39579078134538831 0 0.21316338490038089 0.39704202397260657 0 0.19877798755638451 0.41086714246249401 0 0.1843100454414533 0.40126956181167389 0 0.19700705340585539 0.39579078134538831 0 0.19877798755638451 0.41086714246249401 0 0.1843100454414533 0.40126956181167389 0 0.18589276442329861 0.38606835492789338 0 0.19700705340585539 0.39579078134538831 0 0.20289108470775991 0.38370682355227331 0 0.19700705340585539 0.39579078134538831 0 0.21316338490038089 0.39704202397260657 0 0.20931495008602691 0.36890180222237801 0 0.20289108470775991 0.38370682355227331 0 0.21961872799640589 0.38146559318592133 0 0.20289108470775991 0.38370682355227331 0 0.21316338490038089 0.39704202397260657 0 0.21961872799640589 0.38146559318592133 0 0.22513916990612379 0.36868200325308897 0 0.21961872799640589 0.38146559318592133 0 0.2386764282036242 0.37725286527910618 0 0.21961872799640589 0.38146559318592133 0 0.22852735017452019 0.39320804083607441 0 0.2386764282036242 0.37725286527910618 0 0.21316338490038089 0.39704202397260657 0 0.21961872799640589 0.38146559318592133 0 0.22852735017452019 0.39320804083607441 0 0.21316338490038089 0.39704202397260657 0 0.22852735017452019 0.39320804083607441 0 0.22983145469658259 0.40925978250573319 0 0.21316338490038089 0.39704202397260657 0 0.22983145469658259 0.40925978250573319 0 0.22852735017452019 0.39320804083607441 0 0.2429624777480478 0.39890547698508871 0 0.22983145469658259 0.40925978250573319 0 0.2429624777480478 0.39890547698508871 0 0.2386764282036242 0.37725286527910618 0 0.22852735017452019 0.39320804083607441 0 0.2429624777480478 0.39890547698508871 0 0.2386764282036242 0.37725286527910618 0 0.2429624777480478 0.39890547698508871 0 0.2386764282036242 0.37725286527910618 0 0.25341304662754638 0.38974012394171498 0 0.2386764282036242 0.37725286527910618 0 0.25383912625151372 0.37755129754335942 0 0.25341304662754638 0.38974012394171498 0 0.24649952449278431 0.42147754103885982 0 0.22996656543308741 0.44177288309861867 0 0.24946733303660301 0.43176723098649622 0 0.24649952449278431 0.42147754103885982 0 0.22996656543308741 0.44177288309861867 0 0.24649952449278431 0.42147754103885982 0 0.22738899126970491 0.42458926785457718 0 0.22996656543308741 0.44177288309861867 0 0.24946733303660301 0.43176723098649622 0 0.24649952449278431 0.42147754103885982 0 0.2429624777480478 0.39890547698508871 0 0.24649952449278431 0.42147754103885982 0 0.24649952449278431 0.42147754103885982 0 0.22983145469658259 0.40925978250573319 0 0.22738899126970491 0.42458926785457718 0 0.24649952449278431 0.42147754103885982 0 0.22983145469658259 0.40925978250573319 0 0.2429624777480478 0.39890547698508871 0 0.24649952449278431 0.42147754103885982 0 0.22983145469658259 0.40925978250573319 0 0.21316338490038089 0.39704202397260657 0 0.22983145469658259 0.40925978250573319 0 0.21370806227123909 0.41789950377956148 0 0.22983145469658259 0.40925978250573319 0 0.22738899126970491 0.42458926785457718 0 0.21370806227123909 0.41789950377956148 0 0.22738899126970491 0.42458926785457718 0 0.21739304288862979 0.43200563017257382 0 0.22996656543308741 0.44177288309861867 0 0.22738899126970491 0.42458926785457718 0 0.21739304288862979 0.43200563017257382 0 0.21370806227123909 0.41789950377956148 0 0.21739304288862979 0.43200563017257382 0 0.1999317510848099 0.43097584272053618 0 0.2111195299095035 0.44359306409302351 0 0.21739304288862979 0.43200563017257382 0 0.21370806227123909 0.41789950377956148 0 0.1999317510848099 0.43097584272053618 0 0.21370806227123909 0.41789950377956148 0 0.19877798755638451 0.41086714246249401 0 0.1999317510848099 0.43097584272053618 0 0.21316338490038089 0.39704202397260657 0 0.21370806227123909 0.41789950377956148 0 0.19877798755638451 0.41086714246249401 0 0.18469425222239219 0.42125941149134333 0 0.19877798755638451 0.41086714246249401 0 0.1999317510848099 0.43097584272053618 0 0.18469425222239219 0.42125941149134333 0 0.1843100454414533 0.40126956181167389 0 0.19877798755638451 0.41086714246249401 0 0.18469425222239219 0.42125941149134333 0 0.1999317510848099 0.43097584272053618 0 0.1809560021812836 0.43814832633623357 0 0.1999317510848099 0.43097584272053618 0 0.19479511809318301 0.4526549487178691 0 0.2111195299095035 0.44359306409302351 0 0.1999317510848099 0.43097584272053618 0 0.19479511809318301 0.4526549487178691 0 0.1809560021812836 0.43814832633623357 0 0.19479511809318301 0.4526549487178691 0 0.213169792932182 0.46047172596691099 0 0.19211155850092579 0.47790980627879082 0 0.19479511809318301 0.4526549487178691 0 0.19211155850092579 0.47790980627879082 0 0.18348770279874721 0.46143911161818069 0 0.213169792932182 0.46047172596691099 0 0.2111195299095035 0.44359306409302351 0 0.22996656543308741 0.44177288309861867 0 0.19479511809318301 0.4526549487178691 0 0.213169792932182 0.46047172596691099 0 0.2111195299095035 0.44359306409302351 0 0.21739304288862979 0.43200563017257382 0 0.2111195299095035 0.44359306409302351 0 0.22996656543308741 0.44177288309861867 0 0.22996656543308741 0.44177288309861867 0 0.22854105436186559 0.46372788353366717 0 0.24141841662185301 0.45603819576859073 0 0.213169792932182 0.46047172596691099 0 0.22854105436186559 0.46372788353366717 0 0.221321310837439 0.47674074212904899 0 0.213169792932182 0.46047172596691099 0 0.22996656543308741 0.44177288309861867 0 0.22854105436186559 0.46372788353366717 0 0.24141841662185301 0.45603819576859073 0 0.23645949407781469 0.47608243786178739 0 0.25047151807745072 0.47036873115219768 0 0.22854105436186559 0.46372788353366717 0 0.24141841662185301 0.45603819576859073 0 0.23645949407781469 0.47608243786178739 0 0.24141841662185301 0.45603819576859073 0 0.25047151807745072 0.47036873115219768 0 0.25477099823403621 0.45804476415031298 0 0.24141841662185301 0.45603819576859073 0 0.25282491994113748 0.44831200937164878 0 0.25477099823403621 0.45804476415031298 0 0.22996656543308741 0.44177288309861867 0 0.24141841662185301 0.45603819576859073 0 0.24583280085865111 0.44361242472787987 0 0.24946733303660301 0.43176723098649622 0 0.22996656543308741 0.44177288309861867 0 0.24583280085865111 0.44361242472787987 0 0.24141841662185301 0.45603819576859073 0 0.24583280085865111 0.44361242472787987 0 0.25282491994113748 0.44831200937164878 0 0.24904418528453851 0.48634810883828161 0 0.23645949407781469 0.47608243786178739 0 0.23352830384551029 0.49999999999999978 0 0.24904418528453851 0.48634810883828161 0 0.23352830384551029 0.49999999999999978 0 0.25181722630913472 0.5 0 0.24904418528453851 0.48634810883828161 0 0.23645949407781469 0.47608243786178739 0 0.25047151807745072 0.47036873115219768 0 0.23645949407781469 0.47608243786178739 0 0.221321310837439 0.47674074212904899 0 0.23352830384551029 0.49999999999999978 0 0.22854105436186559 0.46372788353366717 0 0.23645949407781469 0.47608243786178739 0 0.221321310837439 0.47674074212904899 0 0.23352830384551029 0.49999999999999978 0 0.2128199311732181 0.48895490313939532 0 0.21702906166474581 0.5 0 0.23352830384551029 0.49999999999999978 0 0.2128199311732181 0.48895490313939532 0 0.221321310837439 0.47674074212904899 0 0.23352830384551029 0.49999999999999978 0 0.2128199311732181 0.48895490313939532 0 0.2128199311732181 0.48895490313939532 0 0.21702906166474581 0.5 0 0.20052981948398141 0.49999999999999989 0 0.213169792932182 0.46047172596691099 0 0.221321310837439 0.47674074212904899 0 0.19211155850092579 0.47790980627879082 0 0.221321310837439 0.47674074212904899 0 0.2128199311732181 0.48895490313939532 0 0.19211155850092579 0.47790980627879082 0 0.2128199311732181 0.48895490313939532 0 0.19211155850092579 0.47790980627879082 0 0.2128199311732181 0.48895490313939532 0 0.20052981948398141 0.49999999999999989 0 0.19295831529489699 0.4905304616351287 0 0.2128199311732181 0.48895490313939532 0 0.19211155850092579 0.47790980627879082 0 0.19295831529489699 0.4905304616351287 0 0.20052981948398141 0.49999999999999989 0 0.1839227339461352 0.49861489743603538 0 0.20052981948398141 0.49999999999999989 0 0.19295831529489699 0.4905304616351287 0 0.1839227339461352 0.49861489743603538 0 0.19211155850092579 0.47790980627879082 0 0.19295831529489699 0.4905304616351287 0 0.1809625144841838 0.48570342190566712 0 0.1839227339461352 0.49861489743603538 0 0.1809625144841838 0.48570342190566712 0 0.16731564840828889 0.49722979487207219 0 0.1839227339461352 0.49861489743603538 0 0.16731564840828889 0.49722979487207219 0 0.1839227339461352 0.49861489743603538 0 0.1669427425872391 0.49999999999999922 0 0.16731564840828889 0.49722979487207219 0 0.19295831529489699 0.4905304616351287 0 0.1839227339461352 0.49861489743603538 0 0.1809625144841838 0.48570342190566712 0 0.1809625144841838 0.48570342190566712 0 0.16731564840828889 0.49722979487207219 0 0.16935941711846161 0.48204725214512889 0 0.16731564840828889 0.49722979487207219 0 0.157708884996551 0.48584061526662409 0 0.14611751268168829 0.49546177892012921 0 0.16731564840828889 0.49722979487207219 0 0.14611751268168829 0.49546177892012921 0 0.1669427425872391 0.49999999999999922 0 0.16731564840828889 0.49722979487207219 0 0.14611751268168829 0.49546177892012921 0 0.1669427425872391 0.49999999999999922 0 0.16731564840828889 0.49722979487207219 0 0.16731564840828889 0.49722979487207219 0 0.16935941711846161 0.48204725214512889 0 0.16731564840828889 0.49722979487207219 0 0.157708884996551 0.48584061526662409 0 0.16935941711846161 0.48204725214512889 0 0.16382575626869561 0.4735735187060508 0 0.15802571703479451 0.46684670821381258 0 0.1531189490294651 0.47544631339495541 0 0.157708884996551 0.48584061526662409 0 0.16382575626869561 0.4735735187060508 0 0.1531189490294651 0.47544631339495541 0 0.157708884996551 0.48584061526662409 0 0.16382575626869561 0.4735735187060508 0 0.16935941711846161 0.48204725214512889 0 0.16935941711846161 0.48204725214512889 0 0.17140318582863401 0.46686470941818559 0 0.16382575626869561 0.4735735187060508 0 0.16935941711846161 0.48204725214512889 0 0.17140318582863401 0.46686470941818559 0 0.1809625144841838 0.48570342190566712 0 0.16935941711846161 0.48204725214512889 0 0.17140318582863401 0.46686470941818559 0 0.19211155850092579 0.47790980627879082 0 0.1809625144841838 0.48570342190566712 0 0.17140318582863401 0.46686470941818559 0 0.19211155850092579 0.47790980627879082 0 0.17140318582863401 0.46686470941818559 0 0.19479511809318301 0.4526549487178691 0 0.18348770279874721 0.46143911161818069 0 0.17341546959919829 0.45191605883299152 0 0.19211155850092579 0.47790980627879082 0 0.18348770279874721 0.46143911161818069 0 0.17140318582863401 0.46686470941818559 0 0.18348770279874721 0.46143911161818069 0 0.17341546959919829 0.45191605883299152 0 0.17140318582863401 0.46686470941818559 0 0.17341546959919829 0.45191605883299152 0 0.17140318582863401 0.46686470941818559 0 0.19479511809318301 0.4526549487178691 0 0.1809560021812836 0.43814832633623357 0 0.17341546959919829 0.45191605883299152 0 0.1809560021812836 0.43814832633623357 0 0.17341546959919829 0.45191605883299152 0 0.16598328874466911 0.44273574664910909 0 0.17341546959919829 0.45191605883299152 0 0.16598328874466911 0.44273574664910909 0 0.15954778128093949 0.4508222386347599 0 0.16598328874466911 0.44273574664910909 0 0.15954778128093949 0.4508222386347599 0 0.1507341445198021 0.44370602134863157 0 0.16526304614212209 0.42908608809292892 0 0.16598328874466911 0.44273574664910909 0 0.1507341445198021 0.44370602134863157 0 0.16382575626869561 0.4735735187060508 0 0.1651762257979181 0.46354347419730452 0 0.17140318582863401 0.46686470941818559 0 0.1651762257979181 0.46354347419730452 0 0.17140318582863401 0.46686470941818559 0 0.17341546959919829 0.45191605883299152 0 0.1651762257979181 0.46354347419730452 0 0.17140318582863401 0.46686470941818559 0 0.17341546959919829 0.45191605883299152 0 0.15954778128093949 0.4508222386347599 0 0.1651762257979181 0.46354347419730452 0 0.15954778128093949 0.4508222386347599 0 0.1651762257979181 0.46354347419730452 0 0.1582471669695637 0.45974252444074731 0 0.16382575626869561 0.4735735187060508 0 0.1651762257979181 0.46354347419730452 0 0.15802571703479451 0.46684670821381258 0 0.1651762257979181 0.46354347419730452 0 0.1582471669695637 0.45974252444074731 0 0.15802571703479451 0.46684670821381258 0 0.14976048710833001 0.46192771033000529 0 0.1507341445198021 0.44370602134863157 0 0.136404492151351 0.45486193181106682 0 0.1582471669695637 0.45974252444074731 0 0.15802571703479451 0.46684670821381258 0 0.14976048710833001 0.46192771033000529 0 0.15802571703479451 0.46684670821381258 0 0.14976048710833001 0.46192771033000529 0 0.1531189490294651 0.47544631339495541 0 0.15954778128093949 0.4508222386347599 0 0.1582471669695637 0.45974252444074731 0 0.14976048710833001 0.46192771033000529 0 0.14976048710833001 0.46192771033000529 0 0.136404492151351 0.45486193181106682 0 0.13663143795624749 0.46910754811773492 0 0.15954778128093949 0.4508222386347599 0 0.14976048710833001 0.46192771033000529 0 0.1507341445198021 0.44370602134863157 0 0.1507341445198021 0.44370602134863157 0 0.13510526379757609 0.44116740875256688 0 0.136404492151351 0.45486193181106682 0 0.1221607865463437 0.4507156547582637 0 0.12259086230274099 0.42947812748907283 0 0.13510526379757609 0.44116740875256688 0 0.1221607865463437 0.4507156547582637 0 0.13510526379757609 0.44116740875256688 0 0.136404492151351 0.45486193181106682 0 0.136404492151351 0.45486193181106682 0 0.1267882431275838 0.46370707134437261 0 0.13663143795624749 0.46910754811773492 0 0.1221607865463437 0.4507156547582637 0 0.136404492151351 0.45486193181106682 0 0.1267882431275838 0.46370707134437261 0 0.1267882431275838 0.46370707134437261 0 0.12569724768963239 0.47617993877849962 0 0.13663143795624749 0.46910754811773492 0 0.12569724768963239 0.47617993877849962 0 0.13663143795624749 0.46910754811773492 0 0.1364132019148096 0.48384982340983701 0 0.13663143795624749 0.46910754811773492 0 0.1364132019148096 0.48384982340983701 0 0.14361111091913481 0.47574478002545789 0 0.1249193769550877 0.49369376296818718 0 0.1364132019148096 0.48384982340983701 0 0.14611751268168829 0.49546177892012921 0 0.1249193769550877 0.49369376296818718 0 0.14611751268168829 0.49546177892012921 0 0.1249193769550877 0.49369376296818718 0 0.12569724768963239 0.47617993877849962 0 0.1364132019148096 0.48384982340983701 0 0.1249193769550877 0.49369376296818718 0 0.13738437864054501 0.5 0 0.14611751268168829 0.49546177892012921 0 0.1364132019148096 0.48384982340983701 0 0.14611751268168829 0.49546177892012921 0 0.14718343377546941 0.48347361591025501 0 0.1669427425872391 0.49999999999999922 0 0.13738437864054501 0.5 0 0.14611751268168829 0.49546177892012921 0 0.157708884996551 0.48584061526662409 0 0.14611751268168829 0.49546177892012921 0 0.14718343377546941 0.48347361591025501 0 0.157708884996551 0.48584061526662409 0 0.1531189490294651 0.47544631339495541 0 0.14718343377546941 0.48347361591025501 0 0.14976048710833001 0.46192771033000529 0 0.1531189490294651 0.47544631339495541 0 0.14361111091913481 0.47574478002545789 0 0.14976048710833001 0.46192771033000529 0 0.13663143795624749 0.46910754811773492 0 0.14361111091913481 0.47574478002545789 0 0.1364132019148096 0.48384982340983701 0 0.14361111091913481 0.47574478002545789 0 0.14718343377546941 0.48347361591025501 0 0.1531189490294651 0.47544631339495541 0 0.14361111091913481 0.47574478002545789 0 0.14718343377546941 0.48347361591025501 0 0.35832214194920592 0.47929915408112939 0 0.34611268429232461 0.46591887339206078 0 0.3375369348076922 0.4829399206954248 0 0.35832214194920592 0.47929915408112939 0 0.35850557312216419 0.5 0 0.3375369348076922 0.4829399206954248 0 0.35850557312216419 0.5 0 0.37801407526051067 0.48065415083330842 0 0.38797204790529932 0.5 0 0.35832214194920592 0.47929915408112939 0 0.35850557312216419 0.5 0 0.37801407526051067 0.48065415083330842 0 0.35832214194920592 0.47929915408112939 0 0.36980735363827261 0.46050290225189661 0 0.37801407526051067 0.48065415083330842 0 0.36980735363827261 0.46050290225189661 0 0.34502769605759259 0.44546544446971242 0 0.36959298495063608 0.43610817863788948 0 0.35832214194920592 0.47929915408112939 0 0.36980735363827261 0.46050290225189661 0 0.34611268429232461 0.46591887339206078 0 0.36980735363827261 0.46050290225189661 0 0.34502769605759259 0.44546544446971242 0 0.34611268429232461 0.46591887339206078 0 0.36980735363827261 0.46050290225189661 0 0.34611268429232461 0.46591887339206078 0 0.34611268429232461 0.46591887339206078 0 0.3317687487832644 0.45597005559148451 0 0.32241801494637662 0.47133484453222518 0 0.34502769605759259 0.44546544446971242 0 0.34611268429232461 0.46591887339206078 0 0.3317687487832644 0.45597005559148451 0 0.34611268429232461 0.46591887339206078 0 0.32241801494637662 0.47133484453222518 0 0.34502769605759259 0.44546544446971242 0 0.3317687487832644 0.45597005559148451 0 0.32480939915707069 0.44218818576869201 0 0.34502769605759259 0.44546544446971242 0 0.32480939915707069 0.44218818576869201 0 0.33523501366627878 0.43221560569608392 0 0.3107318966111981 0.4514989769174147 0 0.3227404476219688 0.42624713816244092 0 0.3317687487832644 0.45597005559148451 0 0.32480939915707069 0.44218818576869201 0 0.3107318966111981 0.4514989769174147 0 0.32480939915707069 0.44218818576869201 0 0.3107318966111981 0.4514989769174147 0 0.3227404476219688 0.42624713816244092 0 0.3317687487832644 0.45597005559148451 0 0.32241801494637662 0.47133484453222518 0 0.3107318966111981 0.4514989769174147 0 0.32241801494637662 0.47133484453222518 0 0.3375369348076922 0.4829399206954248 0 0.31372501333874958 0.48784291822244708 0 0.34611268429232461 0.46591887339206078 0 0.32241801494637662 0.47133484453222518 0 0.3375369348076922 0.4829399206954248 0 0.35850557312216419 0.5 0 0.3375369348076922 0.4829399206954248 0 0.32903909833902928 0.5 0 0.32903909833902928 0.5 0 0.31372501333874958 0.48784291822244708 0 0.29957262355589431 0.5 0 0.3375369348076922 0.4829399206954248 0 0.32903909833902928 0.5 0 0.31372501333874958 0.48784291822244708 0 0.31372501333874958 0.48784291822244708 0 0.30130976803097798 0.48891801032572652 0 0.29957262355589431 0.5 0 0.31372501333874958 0.48784291822244708 0 0.30130976803097798 0.48891801032572652 0 0.29872334560042851 0.47675081567238892 0 0.30130976803097798 0.48891801032572652 0 0.29957262355589431 0.5 0 0.28978827390519868 0.49553967616935518 0 0.32241801494637662 0.47133484453222518 0 0.29872334560042851 0.47675081567238892 0 0.32241801494637662 0.47133484453222518 0 0.31372501333874958 0.48784291822244708 0 0.29872334560042851 0.47675081567238892 0 0.29872334560042851 0.47675081567238892 0 0.28397488520641462 0.48012192141307769 0 0.28978827390519868 0.49553967616935518 0 0.29872334560042851 0.47675081567238892 0 0.28929399795500932 0.47058792179259418 0 0.29703527816799058 0.46117092995693892 0 0.29872334560042851 0.47675081567238892 0 0.28929399795500932 0.47058792179259418 0 0.28397488520641462 0.48012192141307769 0 0.29872334560042851 0.47675081567238892 0 0.28397488520641462 0.48012192141307769 0 0.28929399795500932 0.47058792179259418 0 0.28397488520641462 0.48012192141307769 0 0.27920072977811172 0.47805830749059319 0 0.28397488520641462 0.48012192141307769 0 0.28978827390519868 0.49553967616935518 0 0.27010614877275918 0.50000000000000067 0 0.29957262355589431 0.5 0 0.28978827390519868 0.49553967616935518 0 0.27010614877275918 0.50000000000000067 0 0.30130976803097798 0.48891801032572652 0 0.29872334560042851 0.47675081567238892 0 0.28978827390519868 0.49553967616935518 0 0.29872334560042851 0.47675081567238892 0 0.28978827390519868 0.49553967616935518 0 0.28397488520641462 0.48012192141307769 0 0.27010614877275918 0.50000000000000067 0 0.27920072977811172 0.47805830749059319 0 0.27010614877275918 0.50000000000000067 0 0.26909437115437917 0.48384867389528768 0 0.26130641782501518 0.49139676135406141 0 0.27010614877275918 0.50000000000000067 0 0.27920072977811172 0.47805830749059319 0 0.26909437115437917 0.48384867389528768 0 0.27010614877275918 0.50000000000000067 0 0.27920072977811172 0.47805830749059319 0 0.27920072977811172 0.47805830749059319 0 0.27306774476234302 0.47644699960251641 0 0.26909437115437917 0.48384867389528768 0 0.27920072977811172 0.47805830749059319 0 0.27306774476234302 0.47644699960251641 0 0.27643472525740193 0.46726539210963169 0 0.26824582816420722 0.47348896141386071 0 0.27306774476234302 0.47644699960251641 0 0.27643472525740193 0.46726539210963169 0 0.26824582816420722 0.47348896141386071 0 0.26909437115437917 0.48384867389528768 0 0.25993240985832161 0.47939275616227872 0 0.26824582816420722 0.47348896141386071 0 0.27306774476234302 0.47644699960251641 0 0.26909437115437917 0.48384867389528768 0 0.24904418528453851 0.48634810883828161 0 0.25993240985832161 0.47939275616227872 0 0.25047151807745072 0.47036873115219768 0 0.26824582816420722 0.47348896141386071 0 0.25993240985832161 0.47939275616227872 0 0.26165523792153211 0.46576309323832682 0 0.25993240985832161 0.47939275616227872 0 0.25047151807745072 0.47036873115219768 0 0.26165523792153211 0.46576309323832682 0 0.27010614877275918 0.50000000000000067 0 0.25181722630913472 0.5 0 0.26130641782501518 0.49139676135406141 0 0.24904418528453851 0.48634810883828161 0 0.25993240985832161 0.47939275616227872 0 0.26130641782501518 0.49139676135406141 0 0.24904418528453851 0.48634810883828161 0 0.25181722630913472 0.5 0 0.26130641782501518 0.49139676135406141 0 0.26909437115437917 0.48384867389528768 0 0.25993240985832161 0.47939275616227872 0 0.26130641782501518 0.49139676135406141 0 0.26490489917960358 0.45079530358348557 0 0.25548676926057468 0.44017180441404491 0 0.26331147225899149 0.43380076267102891 0 0.24946733303660301 0.43176723098649622 0 0.24583280085865111 0.44361242472787987 0 0.25548676926057468 0.44017180441404491 0 0.24583280085865111 0.44361242472787987 0 0.25548676926057468 0.44017180441404491 0 0.25282491994113748 0.44831200937164878 0 0.26490489917960358 0.45079530358348557 0 0.25548676926057468 0.44017180441404491 0 0.25282491994113748 0.44831200937164878 0 0.26490489917960358 0.45079530358348557 0 0.25282491994113748 0.44831200937164878 0 0.25477099823403621 0.45804476415031298 0 0.25047151807745072 0.47036873115219768 0 0.25477099823403621 0.45804476415031298 0 0.26165523792153211 0.46576309323832682 0 0.26490489917960358 0.45079530358348557 0 0.25477099823403621 0.45804476415031298 0 0.26165523792153211 0.46576309323832682 0 0.26490489917960358 0.45079530358348557 0 0.27160577401557351 0.46248804296782559 0 0.27679169795675967 0.45600994403837303 0 0.26490489917960358 0.45079530358348557 0 0.26165523792153211 0.46576309323832682 0 0.27160577401557351 0.46248804296782559 0 0.26824582816420722 0.47348896141386071 0 0.27160577401557351 0.46248804296782559 0 0.27643472525740193 0.46726539210963169 0 0.26824582816420722 0.47348896141386071 0 0.26165523792153211 0.46576309323832682 0 0.27160577401557351 0.46248804296782559 0 0.27160577401557351 0.46248804296782559 0 0.27643472525740193 0.46726539210963169 0 0.27679169795675967 0.45600994403837303 0 0.27643472525740193 0.46726539210963169 0 0.27679169795675967 0.45600994403837303 0 0.28829531078346382 0.45611661498118572 0 0.27903440424894049 0.4453257315987294 0 0.26331147225899149 0.43380076267102891 0 0.26490489917960358 0.45079530358348557 0 0.27903440424894049 0.4453257315987294 0 0.26331147225899149 0.43380076267102891 0 0.26490489917960358 0.45079530358348557 0 0.27679169795675967 0.45600994403837303 0 0.27903440424894049 0.4453257315987294 0 0.27903440424894049 0.4453257315987294 0 0.2917470315179379 0.44281751567604499 0 0.28179675760275558 0.42932557237874241 0 0.27679169795675967 0.45600994403837303 0 0.27903440424894049 0.4453257315987294 0 0.28829531078346382 0.45611661498118572 0 0.27903440424894049 0.4453257315987294 0 0.2917470315179379 0.44281751567604499 0 0.28829531078346382 0.45611661498118572 0 0.2917470315179379 0.44281751567604499 0 0.28829531078346382 0.45611661498118572 0 0.29813183988985342 0.45090032042111128 0 0.27920072977811172 0.47805830749059319 0 0.27643472525740193 0.46726539210963169 0 0.28829531078346382 0.45611661498118572 0 0.28929399795500932 0.47058792179259418 0 0.27920072977811172 0.47805830749059319 0 0.28829531078346382 0.45611661498118572 0 0.27920072977811172 0.47805830749059319 0 0.28829531078346382 0.45611661498118572 0 0.28829531078346382 0.45611661498118572 0 0.29703527816799058 0.46117092995693892 0 0.29813183988985342 0.45090032042111128 0 0.28929399795500932 0.47058792179259418 0 0.28829531078346382 0.45611661498118572 0 0.29703527816799058 0.46117092995693892 0 0.29872334560042851 0.47675081567238892 0 0.29703527816799058 0.46117092995693892 0 0.3107318966111981 0.4514989769174147 0 0.29872334560042851 0.47675081567238892 0 0.3107318966111981 0.4514989769174147 0 0.32241801494637662 0.47133484453222518 0 0.29872334560042851 0.47675081567238892 0 0.3107318966111981 0.4514989769174147 0 0.29703527816799058 0.46117092995693892 0 0.29813183988985342 0.45090032042111128 0 0.3107318966111981 0.4514989769174147 0 0.30159082278473881 0.44219288247638061 0 0.3107318966111981 0.4514989769174147 0 0.30884109342504262 0.43428586920116352 0 0.2917470315179379 0.44281751567604499 0 0.30159082278473881 0.44219288247638061 0 0.29850225247966211 0.43146173016616862 0 0.2917470315179379 0.44281751567604499 0 0.30159082278473881 0.44219288247638061 0 0.29813183988985342 0.45090032042111128 0 0.30159082278473881 0.44219288247638061 0 0.29813183988985342 0.45090032042111128 0 0.3107318966111981 0.4514989769174147 0 0.30884109342504262 0.43428586920116352 0 0.29850225247966211 0.43146173016616862 0 0.30862162828234507 0.42004495563460759 0 0.29850225247966211 0.43146173016616862 0 0.30862162828234507 0.42004495563460759 0 0.29547148538100448 0.41817397575591742 0 0.30159082278473881 0.44219288247638061 0 0.30884109342504262 0.43428586920116352 0 0.29850225247966211 0.43146173016616862 0 0.30862162828234507 0.42004495563460759 0 0.30304430461131138 0.40735012112542651 0 0.3196782615082488 0.40265332564926309 0 0.30862162828234507 0.42004495563460759 0 0.30304430461131138 0.40735012112542651 0 0.29547148538100448 0.41817397575591742 0 0.30304430461131138 0.40735012112542651 0 0.29062365375375682 0.40708788978866228 0 0.29547148538100448 0.41817397575591742 0 0.29062365375375682 0.40708788978866228 0 0.29547148538100448 0.41817397575591742 0 0.28288479604298378 0.41446876034122271 0 0.29547148538100448 0.41817397575591742 0 0.28288479604298378 0.41446876034122271 0 0.28179675760275558 0.42932557237874241 0 0.29062365375375682 0.40708788978866228 0 0.28288479604298378 0.41446876034122271 0 0.28001120465417539 0.40182109974822727 0 0.29850225247966211 0.43146173016616862 0 0.29547148538100448 0.41817397575591742 0 0.28179675760275558 0.42932557237874241 0 0.2917470315179379 0.44281751567604499 0 0.29850225247966211 0.43146173016616862 0 0.28179675760275558 0.42932557237874241 0 0.28179675760275558 0.42932557237874241 0 0.27042562322166658 0.41684269204638819 0 0.26331147225899149 0.43380076267102891 0 0.27903440424894049 0.4453257315987294 0 0.28179675760275558 0.42932557237874241 0 0.26331147225899149 0.43380076267102891 0 0.27042562322166658 0.41684269204638819 0 0.26380858941988822 0.4002294757553399 0 0.28001120465417539 0.40182109974822727 0 0.28288479604298378 0.41446876034122271 0 0.28179675760275558 0.42932557237874241 0 0.27042562322166658 0.41684269204638819 0 0.28288479604298378 0.41446876034122271 0 0.27042562322166658 0.41684269204638819 0 0.28001120465417539 0.40182109974822727 0 0.24649952449278431 0.42147754103885982 0 0.25492995388566009 0.41993008507457552 0 0.26380858941988822 0.4002294757553399 0 0.27042562322166658 0.41684269204638819 0 0.25492995388566009 0.41993008507457552 0 0.26380858941988822 0.4002294757553399 0 0.24649952449278431 0.42147754103885982 0 0.26380858941988822 0.4002294757553399 0 0.2429624777480478 0.39890547698508871 0 0.24649952449278431 0.42147754103885982 0 0.26380858941988822 0.4002294757553399 0 0.24946733303660301 0.43176723098649622 0 0.24649952449278431 0.42147754103885982 0 0.26331147225899149 0.43380076267102891 0 0.24649952449278431 0.42147754103885982 0 0.25492995388566009 0.41993008507457552 0 0.26331147225899149 0.43380076267102891 0 0.24649952449278431 0.42147754103885982 0 0.26331147225899149 0.43380076267102891 0 0.27042562322166658 0.41684269204638819 0 0.25492995388566009 0.41993008507457552 0 0.26331147225899149 0.43380076267102891 0 0.24946733303660301 0.43176723098649622 0 0.25548676926057468 0.44017180441404491 0 0.26331147225899149 0.43380076267102891 0 0.26350653962281989 0.38010735630523079 0 0.25341304662754638 0.38974012394171498 0 0.26380858941988822 0.4002294757553399 0 0.26350653962281989 0.38010735630523079 0 0.25383912625151372 0.37755129754335942 0 0.25710864090743918 0.37145542319719338 0 0.26350653962281989 0.38010735630523079 0 0.25383912625151372 0.37755129754335942 0 0.25341304662754638 0.38974012394171498 0 0.2429624777480478 0.39890547698508871 0 0.25341304662754638 0.38974012394171498 0 0.26380858941988822 0.4002294757553399 0 0.26380858941988822 0.4002294757553399 0 0.28001120465417539 0.40182109974822727 0 0.28036865154730628 0.37990086281960789 0 0.26350653962281989 0.38010735630523079 0 0.28036865154730628 0.37990086281960789 0 0.2641967246118288 0.36596915937278562 0 0.26380858941988822 0.4002294757553399 0 0.28036865154730628 0.37990086281960789 0 0.26350653962281989 0.38010735630523079 0 0.26380858941988822 0.4002294757553399 0 0.28036865154730628 0.37990086281960789 0 0.28036865154730628 0.37990086281960789 0 0.29170647807930872 0.39362549197251728 0 0.2987730087010142 0.37934426936791982 0 0.28036865154730628 0.37990086281960789 0 0.29170647807930872 0.39362549197251728 0 0.28001120465417539 0.40182109974822727 0 0.28036865154730628 0.37990086281960789 0 0.29170647807930872 0.39362549197251728 0 0.29062365375375682 0.40708788978866228 0 0.28001120465417539 0.40182109974822727 0 0.29170647807930872 0.39362549197251728 0 0.30304430461131138 0.40735012112542651 0 0.29062365375375682 0.40708788978866228 0 0.29170647807930872 0.39362549197251728 0 0.30304430461131138 0.40735012112542651 0 0.30637452063024528 0.39219955594670219 0 0.3196782615082488 0.40265332564926309 0 0.30304430461131138 0.40735012112542651 0 0.29170647807930872 0.39362549197251728 0 0.30304430461131138 0.40735012112542651 0 0.29170647807930872 0.39362549197251728 0 0.30637452063024528 0.39219955594670219 0 0.30637452063024528 0.39219955594670219 0 0.2987730087010142 0.37934426936791982 0 0.31661607539452802 0.37905951313608538 0 0.29170647807930872 0.39362549197251728 0 0.30637452063024528 0.39219955594670219 0 0.2987730087010142 0.37934426936791982 0 0.31661607539452802 0.37905951313608538 0 0.32905198958534931 0.38831461949406398 0 0.3196782615082488 0.40265332564926309 0 0.31661607539452802 0.37905951313608538 0 0.32905198958534931 0.38831461949406398 0 0.33389487655237682 0.3658352592629312 0 0.32905198958534931 0.38831461949406398 0 0.34270248502322931 0.38427053755298168 0 0.33389487655237682 0.3658352592629312 0 0.32905198958534931 0.38831461949406398 0 0.34270248502322931 0.38427053755298168 0 0.33272146632259869 0.40525883785771122 0 0.34270248502322931 0.38427053755298168 0 0.33272146632259869 0.40525883785771122 0 0.34270248502322931 0.38427053755298168 0 0.33272146632259869 0.40525883785771122 0 0.34670895149724801 0.40816004440777182 0 0.31661607539452802 0.37905951313608538 0 0.3196782615082488 0.40265332564926309 0 0.32905198958534931 0.38831461949406398 0 0.33272146632259869 0.40525883785771122 0 0.3196782615082488 0.40265332564926309 0 0.30637452063024528 0.39219955594670219 0 0.31661607539452802 0.37905951313608538 0 0.3196782615082488 0.40265332564926309 0 0.3196782615082488 0.40265332564926309 0 0.3227404476219688 0.42624713816244092 0 0.30862162828234507 0.42004495563460759 0 0.3196782615082488 0.40265332564926309 0 0.3227404476219688 0.42624713816244092 0 0.33272146632259869 0.40525883785771122 0 0.3196782615082488 0.40265332564926309 0 0.3227404476219688 0.42624713816244092 0 0.33272146632259869 0.40525883785771122 0 0.3227404476219688 0.42624713816244092 0 0.32480939915707069 0.44218818576869201 0 0.3227404476219688 0.42624713816244092 0 0.3107318966111981 0.4514989769174147 0 0.30884109342504262 0.43428586920116352 0 0.3227404476219688 0.42624713816244092 0 0.32480939915707069 0.44218818576869201 0 0.3227404476219688 0.42624713816244092 0 0.33523501366627878 0.43221560569608392 0 0.30884109342504262 0.43428586920116352 0 0.30862162828234507 0.42004495563460759 0 0.3227404476219688 0.42624713816244092 0 0.34502769605759259 0.44546544446971242 0 0.33523501366627878 0.43221560569608392 0 0.34795858503051302 0.425881111768525 0 0.3227404476219688 0.42624713816244092 0 0.33523501366627878 0.43221560569608392 0 0.33659904832278342 0.4201421825902541 0 0.33523501366627878 0.43221560569608392 0 0.33659904832278342 0.4201421825902541 0 0.34795858503051302 0.425881111768525 0 0.33272146632259869 0.40525883785771122 0 0.3227404476219688 0.42624713816244092 0 0.33659904832278342 0.4201421825902541 0 0.33272146632259869 0.40525883785771122 0 0.33659904832278342 0.4201421825902541 0 0.34670895149724801 0.40816004440777182 0 0.33659904832278342 0.4201421825902541 0 0.34670895149724801 0.40816004440777182 0 0.34795858503051302 0.425881111768525 0 0.34670895149724801 0.40816004440777182 0 0.34795858503051302 0.425881111768525 0 0.36336601300371613 0.41450991002864218 0 0.34670895149724801 0.40816004440777182 0 0.36336601300371613 0.41450991002864218 0 0.35690611128064731 0.3988976866485166 0 0.34502769605759259 0.44546544446971242 0 0.34795858503051302 0.425881111768525 0 0.36959298495063608 0.43610817863788948 0 0.34795858503051302 0.425881111768525 0 0.36959298495063608 0.43610817863788948 0 0.36336601300371613 0.41450991002864218 0 0.36959298495063608 0.43610817863788948 0 0.36336601300371613 0.41450991002864218 0 0.38530342098431941 0.41064856824057122 0 0.36336601300371613 0.41450991002864218 0 0.3736470799201031 0.39378130610698531 0 0.38530342098431941 0.41064856824057122 0 0.3736470799201031 0.39378130610698531 0 0.3601059063978746 0.38125551426405008 0 0.35690611128064731 0.3988976866485166 0 0.36336601300371613 0.41450991002864218 0 0.3736470799201031 0.39378130610698531 0 0.35690611128064731 0.3988976866485166 0 0.3736470799201031 0.39378130610698531 0 0.3601059063978746 0.38125551426405008 0 0.37414389550204002 0.36898578533419818 0 0.34270248502322931 0.38427053755298168 0 0.3601059063978746 0.38125551426405008 0 0.35690611128064731 0.3988976866485166 0 0.34270248502322931 0.38427053755298168 0 0.3601059063978746 0.38125551426405008 0 0.35268350372385993 0.36328223724825232 0 0.34270248502322931 0.38427053755298168 0 0.34670895149724801 0.40816004440777182 0 0.35690611128064731 0.3988976866485166 0 0.35268350372385993 0.36328223724825232 0 0.36266452242448938 0.34229393694352239 0 0.35030182712711511 0.35130594720886232 0 0.35268350372385993 0.36328223724825232 0 0.36266452242448938 0.34229393694352239 0 0.35030182712711511 0.35130594720886232 0 0.35146565257524442 0.34420791440797271 0 0.36266452242448938 0.34229393694352239 0 0.35030182712711511 0.35130594720886232 0 0.35146565257524442 0.34420791440797271 0 0.34269927497721508 0.34493512072036142 0 0.35030182712711511 0.35130594720886232 0 0.35268350372385993 0.36328223724825232 0 0.33389487655237682 0.3658352592629312 0 0.34270248502322931 0.38427053755298168 0 0.35268350372385993 0.36328223724825232 0 0.3601059063978746 0.38125551426405008 0 0.35268350372385993 0.36328223724825232 0 0.37414389550204002 0.36898578533419818 0 0.35268350372385993 0.36328223724825232 0 0.37414389550204002 0.36898578533419818 0 0.36300645299402812 0.35604351837507042 0 0.37414389550204002 0.36898578533419818 0 0.37228166628853332 0.35471301169251829 0 0.36300645299402812 0.35604351837507042 0 0.35268350372385993 0.36328223724825232 0 0.36300645299402812 0.35604351837507042 0 0.36266452242448938 0.34229393694352239 0 0.37228166628853332 0.35471301169251829 0 0.36300645299402812 0.35604351837507042 0 0.36840829020790361 0.34668560051738673 0 0.36300645299402812 0.35604351837507042 0 0.36840829020790361 0.34668560051738673 0 0.36266452242448938 0.34229393694352239 0 0.36840829020790361 0.34668560051738673 0 0.36266452242448938 0.34229393694352239 0 0.36587418437400321 0.34278907974668538 0 0.37228166628853332 0.35471301169251829 0 0.36840829020790361 0.34668560051738673 0 0.37486749369974542 0.34694596905823039 0 0.37486749369974542 0.34694596905823039 0 0.37256750073976291 0.34304532959464751 0 0.37670219357667811 0.34177383067972761 0 0.36840829020790361 0.34668560051738673 0 0.37486749369974542 0.34694596905823039 0 0.37256750073976291 0.34304532959464751 0 0.36124897776362869 0.33531944770056321 0 0.36266452242448938 0.34229393694352239 0 0.36411885078159001 0.32644375487552563 0 0.37256750073976291 0.34304532959464751 0 0.36916640720496519 0.34145859007673351 0 0.37369311900952262 0.33836265764115908 0 0.37256750073976291 0.34304532959464751 0 0.37369311900952262 0.33836265764115908 0 0.37670219357667811 0.34177383067972761 0 0.36266452242448938 0.34229393694352239 0 0.37014896644917339 0.316543878568457 0 0.36770298492566261 0.33637877995368609 0 0.36266452242448938 0.34229393694352239 0 0.37368960646642962 0.31911015363466272 0 0.36770298492566261 0.33637877995368609 0 0.36985494237623989 0.33311962493185521 0 0.37368960646642962 0.31911015363466272 0 0.36266452242448938 0.34229393694352239 0 0.37368960646642962 0.31911015363466272 0 0.36266452242448938 0.34229393694352239 0 0.37014896644917339 0.316543878568457 0 0.36411885078159001 0.32644375487552563 0 0.36840829020790361 0.34668560051738673 0 0.36916640720496519 0.34145859007673351 0 0.36587418437400321 0.34278907974668538 0 0.36840829020790361 0.34668560051738673 0 0.37256750073976291 0.34304532959464751 0 0.36916640720496519 0.34145859007673351 0 0.36916640720496519 0.34145859007673351 0 0.36587418437400321 0.34278907974668538 0 0.36708394454210669 0.33994961910346172 0 0.36916640720496519 0.34145859007673351 0 0.37010024416019238 0.33739894816112592 0 0.36708394454210669 0.33994961910346172 0 0.36916640720496519 0.34145859007673351 0 0.37010024416019238 0.33739894816112592 0 0.37369311900952262 0.33836265764115908 0 0.36770298492566261 0.33637877995368609 0 0.37010024416019238 0.33739894816112592 0 0.36708394454210669 0.33994961910346172 0 0.37010024416019238 0.33739894816112592 0 0.37369311900952262 0.33836265764115908 0 0.3722735272100694 0.33425106354392481 0 0.3722735272100694 0.33425106354392481 0 0.37245621682226088 0.32924087979990557 0 0.375263113682131 0.33313320718557798 0 0.37369311900952262 0.33836265764115908 0 0.3722735272100694 0.33425106354392481 0 0.375263113682131 0.33313320718557798 0 0.3722735272100694 0.33425106354392481 0 0.37245621682226088 0.32924087979990557 0 0.36985494237623989 0.33311962493185521 0 0.37245621682226088 0.32924087979990557 0 0.37577016905582622 0.32787937856968757 0 0.375263113682131 0.33313320718557798 0 0.37010024416019238 0.33739894816112592 0 0.3722735272100694 0.33425106354392481 0 0.36985494237623989 0.33311962493185521 0 0.36770298492566261 0.33637877995368609 0 0.37010024416019238 0.33739894816112592 0 0.36985494237623989 0.33311962493185521 0 0.36128237795215928 0.33126347269122047 0 0.36124897776362869 0.33531944770056321 0 0.36411885078159001 0.32644375487552563 0 0.36150631125237548 0.32912422255951068 0 0.36128237795215928 0.33126347269122047 0 0.36411885078159001 0.32644375487552563 0 0.36150631125237548 0.32912422255951068 0 0.35994194411877378 0.32646204206530971 0 0.35835984371964152 0.33045614064968309 0 0.36128237795215928 0.33126347269122047 0 0.35899626180536931 0.33430086833413269 0 0.35835984371964152 0.33045614064968309 0 0.36150631125237548 0.32912422255951068 0 0.36128237795215928 0.33126347269122047 0 0.35835984371964152 0.33045614064968309 0 0.36128237795215928 0.33126347269122047 0 0.36124897776362869 0.33531944770056321 0 0.35899626180536931 0.33430086833413269 0 0.36124897776362869 0.33531944770056321 0 0.36001134864139028 0.33778823672905661 0 0.35899626180536931 0.33430086833413269 0 0.36124897776362869 0.33531944770056321 0 0.36001134864139028 0.33778823672905661 0 0.36266452242448938 0.34229393694352239 0 0.36001134864139028 0.33778823672905661 0 0.36266452242448938 0.34229393694352239 0 0.3582225103283424 0.33883319475427592 0 0.36266452242448938 0.34229393694352239 0 0.36587418437400321 0.34278907974668538 0 0.36708394454210669 0.33994961910346172 0 0.36770298492566261 0.33637877995368609 0 0.36266452242448938 0.34229393694352239 0 0.36708394454210669 0.33994961910346172 0 0.36266452242448938 0.34229393694352239 0 0.37368960646642962 0.31911015363466272 0 0.37014896644917339 0.316543878568457 0 0.37014896644917339 0.316543878568457 0 0.36604953812300478 0.31497278055865852 0 0.36630954626425261 0.31087512405144152 0 0.37499251130121058 0.31593455150060828 0 0.37014896644917339 0.316543878568457 0 0.37695808612291098 0.31120865645681561 0 0.37499251130121058 0.31593455150060828 0 0.37368960646642962 0.31911015363466272 0 0.37014896644917339 0.316543878568457 0 0.37014896644917339 0.316543878568457 0 0.36646072203027302 0.32009490443849897 0 0.3659238024377004 0.31770243144255911 0 0.37014896644917339 0.316543878568457 0 0.3659238024377004 0.31770243144255911 0 0.36604953812300478 0.31497278055865852 0 0.37245621682226088 0.32924087979990557 0 0.36985494237623989 0.33311962493185521 0 0.37368960646642962 0.31911015363466272 0 0.37245621682226088 0.32924087979990557 0 0.37368960646642962 0.31911015363466272 0 0.37506056064123422 0.32471797871916308 0 0.37245621682226088 0.32924087979990557 0 0.37577016905582622 0.32787937856968757 0 0.37506056064123422 0.32471797871916308 0 0.37014896644917339 0.316543878568457 0 0.36411885078159001 0.32644375487552563 0 0.36646072203027302 0.32009490443849897 0 0.36411885078159001 0.32644375487552563 0 0.35994194411877378 0.32646204206530971 0 0.36132202517978662 0.32303080634539388 0 0.36150631125237548 0.32912422255951068 0 0.36411885078159001 0.32644375487552563 0 0.35994194411877378 0.32646204206530971 0 0.36132202517978662 0.32303080634539388 0 0.36348301458407639 0.32047903077872458 0 0.35962675317161102 0.31893041505789499 0 0.36411885078159001 0.32644375487552563 0 0.36132202517978662 0.32303080634539388 0 0.36348301458407639 0.32047903077872458 0 0.36411885078159001 0.32644375487552563 0 0.36348301458407639 0.32047903077872458 0 0.36646072203027302 0.32009490443849897 0 0.36348301458407639 0.32047903077872458 0 0.36646072203027302 0.32009490443849897 0 0.3659238024377004 0.31770243144255911 0 0.3659238024377004 0.31770243144255911 0 0.36344593390349789 0.31667187251247519 0 0.36604953812300478 0.31497278055865852 0 0.36348301458407639 0.32047903077872458 0 0.3659238024377004 0.31770243144255911 0 0.36344593390349789 0.31667187251247519 0 0.36348301458407639 0.32047903077872458 0 0.36344593390349789 0.31667187251247519 0 0.35962675317161102 0.31893041505789499 0 0.36344593390349789 0.31667187251247519 0 0.35962675317161102 0.31893041505789499 0 0.35878641637012221 0.31305233625990619 0 0.36344593390349789 0.31667187251247519 0 0.36331333565659901 0.31283202127524651 0 0.35878641637012221 0.31305233625990619 0 0.36331333565659901 0.31283202127524651 0 0.36604953812300478 0.31497278055865852 0 0.36630954626425261 0.31087512405144152 0 0.36344593390349789 0.31667187251247519 0 0.36331333565659901 0.31283202127524651 0 0.36604953812300478 0.31497278055865852 0 0.35878641637012221 0.31305233625990619 0 0.35512602374864599 0.31718053618965047 0 0.35090510471213721 0.31152713165908658 0 0.35512602374864599 0.31718053618965047 0 0.34983435518440159 0.31943204998396652 0 0.35090510471213721 0.31152713165908658 0 0.35962675317161102 0.31893041505789499 0 0.35878641637012221 0.31305233625990619 0 0.35512602374864599 0.31718053618965047 0 0.35962675317161102 0.31893041505789499 0 0.35512602374864599 0.31718053618965047 0 0.35673455485560862 0.32229528426682241 0 0.35512602374864599 0.31718053618965047 0 0.35673455485560862 0.32229528426682241 0 0.34983435518440159 0.31943204998396652 0 0.35673455485560862 0.32229528426682241 0 0.35060422568955008 0.32587015674736058 0 0.34983435518440159 0.31943204998396652 0 0.35994194411877378 0.32646204206530971 0 0.36132202517978662 0.32303080634539388 0 0.35673455485560862 0.32229528426682241 0 0.36132202517978662 0.32303080634539388 0 0.35962675317161102 0.31893041505789499 0 0.35673455485560862 0.32229528426682241 0 0.35994194411877378 0.32646204206530971 0 0.35673455485560862 0.32229528426682241 0 0.35627338036128769 0.32705738058013539 0 0.35994194411877378 0.32646204206530971 0 0.35627338036128769 0.32705738058013539 0 0.35835984371964152 0.33045614064968309 0 0.35627338036128769 0.32705738058013539 0 0.35060422568955008 0.32587015674736058 0 0.35398721241228231 0.33095327650953749 0 0.35673455485560862 0.32229528426682241 0 0.35627338036128769 0.32705738058013539 0 0.35060422568955008 0.32587015674736058 0 0.35060422568955008 0.32587015674736058 0 0.34514221143703899 0.32919058107390442 0 0.34284551192874652 0.32364904383841531 0 0.35060422568955008 0.32587015674736058 0 0.34983435518440159 0.31943204998396652 0 0.34284551192874652 0.32364904383841531 0 0.34983435518440159 0.31943204998396652 0 0.34480088275632298 0.31606258733578418 0 0.35090510471213721 0.31152713165908658 0 0.34983435518440159 0.31943204998396652 0 0.34480088275632298 0.31606258733578418 0 0.34284551192874652 0.32364904383841531 0 0.35146565257524442 0.34420791440797271 0 0.36266452242448938 0.34229393694352239 0 0.35562031764263757 0.34031424282986023 0 0.35302683950207769 0.33602013814058929 0 0.35562031764263757 0.34031424282986023 0 0.35672120529774148 0.33684362974708199 0 0.35202203774268331 0.33965573310897551 0 0.35302683950207769 0.33602013814058929 0 0.35562031764263757 0.34031424282986023 0 0.35146565257524442 0.34420791440797271 0 0.35202203774268331 0.33965573310897551 0 0.35562031764263757 0.34031424282986023 0 0.36266452242448938 0.34229393694352239 0 0.35562031764263757 0.34031424282986023 0 0.3582225103283424 0.33883319475427592 0 0.35562031764263757 0.34031424282986023 0 0.3582225103283424 0.33883319475427592 0 0.35672120529774148 0.33684362974708199 0 0.36001134864139028 0.33778823672905661 0 0.3582225103283424 0.33883319475427592 0 0.35672120529774148 0.33684362974708199 0 0.36001134864139028 0.33778823672905661 0 0.35672120529774148 0.33684362974708199 0 0.35899626180536931 0.33430086833413269 0 0.35899626180536931 0.33430086833413269 0 0.35641212776078268 0.33381706902087938 0 0.35835984371964152 0.33045614064968309 0 0.35672120529774148 0.33684362974708199 0 0.35899626180536931 0.33430086833413269 0 0.35641212776078268 0.33381706902087938 0 0.35627338036128769 0.32705738058013539 0 0.35835984371964152 0.33045614064968309 0 0.35398721241228231 0.33095327650953749 0 0.35641212776078268 0.33381706902087938 0 0.35835984371964152 0.33045614064968309 0 0.35398721241228231 0.33095327650953749 0 0.35302683950207769 0.33602013814058929 0 0.35641212776078268 0.33381706902087938 0 0.35398721241228231 0.33095327650953749 0 0.35302683950207769 0.33602013814058929 0 0.35398721241228231 0.33095327650953749 0 0.34924685744035389 0.33249877391857741 0 0.35302683950207769 0.33602013814058929 0 0.35672120529774148 0.33684362974708199 0 0.35641212776078268 0.33381706902087938 0 0.35302683950207769 0.33602013814058929 0 0.34924685744035389 0.33249877391857741 0 0.34788509595764172 0.33882226599831611 0 0.35060422568955008 0.32587015674736058 0 0.34924685744035389 0.33249877391857741 0 0.34514221143703899 0.32919058107390442 0 0.35060422568955008 0.32587015674736058 0 0.35398721241228231 0.33095327650953749 0 0.34924685744035389 0.33249877391857741 0 0.34924685744035389 0.33249877391857741 0 0.34514221143703899 0.32919058107390442 0 0.34474234507332802 0.33433591834825649 0 0.34924685744035389 0.33249877391857741 0 0.34474234507332802 0.33433591834825649 0 0.34788509595764172 0.33882226599831611 0 0.34474234507332802 0.33433591834825649 0 0.34788509595764172 0.33882226599831611 0 0.34057592936449049 0.33809639891542392 0 0.35146565257524442 0.34420791440797271 0 0.34788509595764172 0.33882226599831611 0 0.34269927497721508 0.34493512072036142 0 0.35202203774268331 0.33965573310897551 0 0.35302683950207769 0.33602013814058929 0 0.34788509595764172 0.33882226599831611 0 0.35146565257524442 0.34420791440797271 0 0.35202203774268331 0.33965573310897551 0 0.34788509595764172 0.33882226599831611 0 0.34057592936449049 0.33809639891542392 0 0.33318390910610529 0.34358855052096038 0 0.34269927497721508 0.34493512072036142 0 0.34788509595764172 0.33882226599831611 0 0.34057592936449049 0.33809639891542392 0 0.34269927497721508 0.34493512072036142 0 0.34474234507332802 0.33433591834825649 0 0.34057592936449049 0.33809639891542392 0 0.33946855119551672 0.33096103471374028 0 0.34514221143703899 0.32919058107390442 0 0.34474234507332802 0.33433591834825649 0 0.33946855119551672 0.33096103471374028 0 0.34057592936449049 0.33809639891542392 0 0.33946855119551672 0.33096103471374028 0 0.33283637980140879 0.33469331179832718 0 0.33946855119551672 0.33096103471374028 0 0.33283637980140879 0.33469331179832718 0 0.33464693517381472 0.32630086361949601 0 0.33283637980140879 0.33469331179832718 0 0.33464693517381472 0.32630086361949601 0 0.3250964778074269 0.32978689602061512 0 0.34057592936449049 0.33809639891542392 0 0.33283637980140879 0.33469331179832718 0 0.33318390910610529 0.34358855052096038 0 0.33283637980140879 0.33469331179832718 0 0.33318390910610529 0.34358855052096038 0 0.32611481079287369 0.33974729713420021 0 0.34480088275632298 0.31606258733578418 0 0.33769186663180051 0.31814262317354819 0 0.34192449374142192 0.30753297203612773 0 0.34480088275632298 0.31606258733578418 0 0.33769186663180051 0.31814262317354819 0 0.34284551192874652 0.32364904383841531 0 0.33946855119551672 0.33096103471374028 0 0.34284551192874652 0.32364904383841531 0 0.33464693517381472 0.32630086361949601 0 0.33769186663180051 0.31814262317354819 0 0.34284551192874652 0.32364904383841531 0 0.33464693517381472 0.32630086361949601 0 0.34514221143703899 0.32919058107390442 0 0.33946855119551672 0.33096103471374028 0 0.34284551192874652 0.32364904383841531 0 0.33769186663180051 0.31814262317354819 0 0.33464693517381472 0.32630086361949601 0 0.32994282367798861 0.32057227217232959 0 0.33464693517381472 0.32630086361949601 0 0.32994282367798861 0.32057227217232959 0 0.3250964778074269 0.32978689602061512 0 0.33769186663180051 0.31814262317354819 0 0.32994282367798861 0.32057227217232959 0 0.32867162081685902 0.31028670060733149 0 0.32176892132522322 0.32006025561378759 0 0.31440941436971798 0.31242774502049953 0 0.32867162081685902 0.31028670060733149 0 0.32994282367798861 0.32057227217232959 0 0.32176892132522322 0.32006025561378759 0 0.32867162081685902 0.31028670060733149 0 0.32176892132522322 0.32006025561378759 0 0.31484893044661 0.32778579360563193 0 0.3250964778074269 0.32978689602061512 0 0.32994282367798861 0.32057227217232959 0 0.32176892132522322 0.32006025561378759 0 0.3250964778074269 0.32978689602061512 0 0.32176892132522322 0.32006025561378759 0 0.31484893044661 0.32778579360563193 0 0.31440941436971798 0.31242774502049953 0 0.32611481079287369 0.33974729713420021 0 0.3250964778074269 0.32978689602061512 0 0.31767498628904178 0.33862919533695518 0 0.32611481079287369 0.33974729713420021 0 0.31767498628904178 0.33862919533695518 0 0.32336406622478242 0.34852958887145069 0 0.33283637980140879 0.33469331179832718 0 0.32611481079287369 0.33974729713420021 0 0.3250964778074269 0.32978689602061512 0 0.31484893044661 0.32778579360563193 0 0.31767498628904178 0.33862919533695518 0 0.30654896287530792 0.34033791233229299 0 0.31484893044661 0.32778579360563193 0 0.3250964778074269 0.32978689602061512 0 0.31767498628904178 0.33862919533695518 0 0.31767498628904178 0.33862919533695518 0 0.31315570067328902 0.3464643712977632 0 0.32336406622478242 0.34852958887145069 0 0.31315570067328902 0.3464643712977632 0 0.31355388928080707 0.35546570062290778 0 0.32336406622478242 0.34852958887145069 0 0.32336406622478242 0.34852958887145069 0 0.33442175170730049 0.35218858713626039 0 0.32437013183195901 0.3602157298059272 0 0.31355388928080707 0.35546570062290778 0 0.32336406622478242 0.34852958887145069 0 0.32437013183195901 0.3602157298059272 0 0.33318390910610529 0.34358855052096038 0 0.32611481079287369 0.33974729713420021 0 0.32336406622478242 0.34852958887145069 0 0.35030182712711511 0.35130594720886232 0 0.33442175170730049 0.35218858713626039 0 0.33389487655237682 0.3658352592629312 0 0.33318390910610529 0.34358855052096038 0 0.32336406622478242 0.34852958887145069 0 0.33442175170730049 0.35218858713626039 0 0.35030182712711511 0.35130594720886232 0 0.33442175170730049 0.35218858713626039 0 0.34269927497721508 0.34493512072036142 0 0.33318390910610529 0.34358855052096038 0 0.33442175170730049 0.35218858713626039 0 0.34269927497721508 0.34493512072036142 0 0.34270248502322931 0.38427053755298168 0 0.35268350372385993 0.36328223724825232 0 0.33389487655237682 0.3658352592629312 0 0.33442175170730049 0.35218858713626039 0 0.33389487655237682 0.3658352592629312 0 0.32437013183195901 0.3602157298059272 0 0.31661607539452802 0.37905951313608538 0 0.33389487655237682 0.3658352592629312 0 0.32437013183195901 0.3602157298059272 0 0.31661607539452802 0.37905951313608538 0 0.31355388928080707 0.35546570062290778 0 0.32437013183195901 0.3602157298059272 0 0.31661607539452802 0.37905951313608538 0 0.31355388928080707 0.35546570062290778 0 0.31661607539452802 0.37905951313608538 0 0.31355388928080707 0.35546570062290778 0 0.30541822204374358 0.36584678197342768 0 0.2987730087010142 0.37934426936791982 0 0.31661607539452802 0.37905951313608538 0 0.30541822204374358 0.36584678197342768 0 0.30541822204374358 0.36584678197342768 0 0.30393955747459928 0.35096595789874813 0 0.29215410451095353 0.36543341035917859 0 0.2987730087010142 0.37934426936791982 0 0.30541822204374358 0.36584678197342768 0 0.29215410451095353 0.36543341035917859 0 0.31315570067328902 0.3464643712977632 0 0.30393955747459928 0.35096595789874813 0 0.30654896287530792 0.34033791233229299 0 0.31315570067328902 0.3464643712977632 0 0.31355388928080707 0.35546570062290778 0 0.30393955747459928 0.35096595789874813 0 0.31355388928080707 0.35546570062290778 0 0.30541822204374358 0.36584678197342768 0 0.30393955747459928 0.35096595789874813 0 0.30393955747459928 0.35096595789874813 0 0.29215410451095353 0.36543341035917859 0 0.30393955747459928 0.35096595789874813 0 0.29720735802849829 0.34424744790442102 0 0.29027641861796738 0.35164951467646482 0 0.30393955747459928 0.35096595789874813 0 0.29720735802849829 0.34424744790442102 0 0.30654896287530792 0.34033791233229299 0 0.29720735802849829 0.34424744790442102 0 0.29027641861796738 0.35164951467646482 0 0.28998304713239348 0.34105976447064218 0 0.30393955747459928 0.35096595789874813 0 0.29027641861796738 0.35164951467646482 0 0.29215410451095353 0.36543341035917859 0 0.29027641861796738 0.35164951467646482 0 0.29215410451095353 0.36543341035917859 0 0.27920137084664282 0.3573603676334649 0 0.29027641861796738 0.35164951467646482 0 0.27920137084664282 0.3573603676334649 0 0.28068773357058369 0.34198453751068081 0 0.29027641861796738 0.35164951467646482 0 0.28068773357058369 0.34198453751068081 0 0.28998304713239348 0.34105976447064218 0 0.28036865154730628 0.37990086281960789 0 0.29215410451095353 0.36543341035917859 0 0.27920137084664282 0.3573603676334649 0 0.28036865154730628 0.37990086281960789 0 0.2987730087010142 0.37934426936791982 0 0.29215410451095353 0.36543341035917859 0 0.28036865154730628 0.37990086281960789 0 0.29215410451095353 0.36543341035917859 0 0.28036865154730628 0.37990086281960789 0 0.27920137084664282 0.3573603676334649 0 0.26173146881309822 0.35734024057335978 0 0.28036865154730628 0.37990086281960789 0 0.26173146881309822 0.35734024057335978 0 0.28036865154730628 0.37990086281960789 0 0.26173146881309822 0.35734024057335978 0 0.2641967246118288 0.36596915937278562 0 0.27920137084664282 0.3573603676334649 0 0.27030047393074008 0.3474963096498429 0 0.26173146881309822 0.35734024057335978 0 0.27920137084664282 0.3573603676334649 0 0.27030047393074008 0.3474963096498429 0 0.28068773357058369 0.34198453751068081 0 0.2430942860788903 0.33477961832711151 0 0.26173146881309822 0.35734024057335978 0 0.27030047393074008 0.3474963096498429 0 0.26173146881309822 0.35734024057335978 0 0.26240083601839698 0.33727672217147331 0 0.23816107804029091 0.35120524212074949 0 0.26173146881309822 0.35734024057335978 0 0.2641967246118288 0.36596915937278562 0 0.23816107804029091 0.35120524212074949 0 0.2641967246118288 0.36596915937278562 0 0.2492643002430574 0.365916522193315 0 0.24311907173897271 0.36013203008567057 0 0.2641967246118288 0.36596915937278562 0 0.2492643002430574 0.365916522193315 0 0.25710864090743918 0.37145542319719338 0 0.2641967246118288 0.36596915937278562 0 0.2492643002430574 0.365916522193315 0 0.25383912625151372 0.37755129754335942 0 0.25710864090743918 0.37145542319719338 0 0.26350653962281989 0.38010735630523079 0 0.25710864090743918 0.37145542319719338 0 0.2641967246118288 0.36596915937278562 0 0.2484846271056145 0.31037308609574782 0 0.25508783524565293 0.32209220201309929 0 0.26836904206483531 0.31075971332937607 0 0.25508783524565293 0.32209220201309929 0 0.26240083601839698 0.33727672217147331 0 0.26677092012209491 0.32204036282613252 0 0.25508783524565293 0.32209220201309929 0 0.26677092012209491 0.32204036282613252 0 0.26836904206483531 0.31075971332937607 0 0.2430942860788903 0.33477961832711151 0 0.25508783524565293 0.32209220201309929 0 0.26240083601839698 0.33727672217147331 0 0.2430942860788903 0.33477961832711151 0 0.26173146881309822 0.35734024057335978 0 0.26240083601839698 0.33727672217147331 0 0.26240083601839698 0.33727672217147331 0 0.27184092000699639 0.33891315949469752 0 0.27388917516664008 0.32964775149744319 0 0.26240083601839698 0.33727672217147331 0 0.27388917516664008 0.32964775149744319 0 0.26677092012209491 0.32204036282613252 0 0.27030047393074008 0.3474963096498429 0 0.26240083601839698 0.33727672217147331 0 0.27184092000699639 0.33891315949469752 0 0.27030047393074008 0.3474963096498429 0 0.27184092000699639 0.33891315949469752 0 0.28068773357058369 0.34198453751068081 0 0.27184092000699639 0.33891315949469752 0 0.28068773357058369 0.34198453751068081 0 0.27388917516664008 0.32964775149744319 0 0.28068773357058369 0.34198453751068081 0 0.27388917516664008 0.32964775149744319 0 0.28570907475377572 0.33188311037056872 0 0.27388917516664008 0.32964775149744319 0 0.26677092012209491 0.32204036282613252 0 0.28178409254690689 0.31684790712797722 0 0.27388917516664008 0.32964775149744319 0 0.28178409254690689 0.31684790712797722 0 0.28570907475377572 0.33188311037056872 0 0.26677092012209491 0.32204036282613252 0 0.28178409254690689 0.31684790712797722 0 0.26836904206483531 0.31075971332937607 0 0.28178409254690689 0.31684790712797722 0 0.29262159606390598 0.32453461147271162 0 0.29660332646403359 0.30785121346786842 0 0.28178409254690689 0.31684790712797722 0 0.29262159606390598 0.32453461147271162 0 0.28570907475377572 0.33188311037056872 0 0.28068773357058369 0.34198453751068081 0 0.28570907475377572 0.33188311037056872 0 0.28998304713239348 0.34105976447064218 0 0.29262159606390598 0.32453461147271162 0 0.28570907475377572 0.33188311037056872 0 0.29603465069114282 0.33553421189107618 0 0.29720735802849829 0.34424744790442102 0 0.29603465069114282 0.33553421189107618 0 0.28998304713239348 0.34105976447064218 0 0.28570907475377572 0.33188311037056872 0 0.29603465069114282 0.33553421189107618 0 0.28998304713239348 0.34105976447064218 0 0.29720735802849829 0.34424744790442102 0 0.29603465069114282 0.33553421189107618 0 0.30654896287530792 0.34033791233229299 0 0.29603465069114282 0.33553421189107618 0 0.30654896287530792 0.34033791233229299 0 0.30445412428221041 0.32558903425911379 0 0.29262159606390598 0.32453461147271162 0 0.29603465069114282 0.33553421189107618 0 0.30445412428221041 0.32558903425911379 0 0.31484893044661 0.32778579360563193 0 0.30654896287530792 0.34033791233229299 0 0.30445412428221041 0.32558903425911379 0 0.31767498628904178 0.33862919533695518 0 0.31315570067328902 0.3464643712977632 0 0.30654896287530792 0.34033791233229299 0 0.30445412428221041 0.32558903425911379 0 0.29660332646403359 0.30785121346786842 0 0.31440941436971798 0.31242774502049953 0 0.29262159606390598 0.32453461147271162 0 0.30445412428221041 0.32558903425911379 0 0.29660332646403359 0.30785121346786842 0 0.31484893044661 0.32778579360563193 0 0.30445412428221041 0.32558903425911379 0 0.31440941436971798 0.31242774502049953 0 0.30822946874662033 0.29998271616579031 0 0.29660332646403359 0.30785121346786842 0 0.31440941436971798 0.31242774502049953 0 0.30822946874662033 0.29998271616579031 0 0.30055108247350393 0.28416894361273021 0 0.29660332646403359 0.30785121346786842 0 0.30822946874662033 0.29998271616579031 0 0.30055108247350393 0.28416894361273021 0 0.32109763140443309 0.29547610107375327 0 0.30055108247350393 0.28416894361273021 0 0.29660332646403359 0.30785121346786842 0 0.27430616976337108 0.29100628718303567 0 0.30055108247350393 0.28416894361273021 0 0.27430616976337108 0.29100628718303567 0 0.28443506245096839 0.27205148705280008 0 0.30055108247350393 0.28416894361273021 0 0.27430616976337108 0.29100628718303567 0 0.28178409254690689 0.31684790712797722 0 0.29660332646403359 0.30785121346786842 0 0.27430616976337108 0.29100628718303567 0 0.28178409254690689 0.31684790712797722 0 0.26836904206483531 0.31075971332937607 0 0.27430616976337108 0.29100628718303567 0 0.28178409254690689 0.31684790712797722 0 0.27430616976337108 0.29100628718303567 0 0.27430616976337108 0.29100628718303567 0 0.25121587924780342 0.29702178630611242 0 0.27430616976337108 0.29100628718303567 0 0.25953152444998728 0.28294166139542631 0 0.25121587924780342 0.29702178630611242 0 0.26836904206483531 0.31075971332937607 0 0.27430616976337108 0.29100628718303567 0 0.25121587924780342 0.29702178630611242 0 0.26836904206483531 0.31075971332937607 0 0.25121587924780342 0.29702178630611242 0 0.2484846271056145 0.31037308609574782 0 0.26836904206483531 0.31075971332937607 0 0.25121587924780342 0.29702178630611242 0 0.25102838231212438 0.26850893423506528 0 0.26790857605335527 0.26889798384773289 0 0.26221447651104962 0.2479993693513689 0 0.26790857605335527 0.26889798384773289 0 0.26221447651104962 0.2479993693513689 0 0.25953152444998728 0.28294166139542631 0 0.25102838231212438 0.26850893423506528 0 0.26790857605335527 0.26889798384773289 0 0.27430616976337108 0.29100628718303567 0 0.26790857605335527 0.26889798384773289 0 0.28443506245096839 0.27205148705280008 0 0.27430616976337108 0.29100628718303567 0 0.25953152444998728 0.28294166139542631 0 0.26790857605335527 0.26889798384773289 0 0.27430616976337108 0.29100628718303567 0 0.26790857605335527 0.26889798384773289 0 0.26790857605335527 0.26889798384773289 0 0.28119448123381058 0.25405304303149878 0 0.26221447651104962 0.2479993693513689 0 0.26790857605335527 0.26889798384773289 0 0.28119448123381058 0.25405304303149878 0 0.28443506245096839 0.27205148705280008 0 0.28119448123381058 0.25405304303149878 0 0.28443506245096839 0.27205148705280008 0 0.2982150027308012 0.26213117758900317 0 0.28119448123381058 0.25405304303149878 0 0.2982150027308012 0.26213117758900317 0 0.30328699804120918 0.24394477185791469 0 0.30055108247350393 0.28416894361273021 0 0.28443506245096839 0.27205148705280008 0 0.2982150027308012 0.26213117758900317 0 0.30055108247350393 0.28416894361273021 0 0.2982150027308012 0.26213117758900317 0 0.31879452400631653 0.25919465198291952 0 0.2982150027308012 0.26213117758900317 0 0.31879452400631653 0.25919465198291952 0 0.30328699804120918 0.24394477185791469 0 0.31879452400631653 0.25919465198291952 0 0.33092809789354199 0.24744869965648561 0 0.31845456220733243 0.24449663650262579 0 0.31879452400631653 0.25919465198291952 0 0.33565265393095528 0.25675142138279861 0 0.33982225619875311 0.26765994074234428 0 0.31879452400631653 0.25919465198291952 0 0.33982225619875311 0.26765994074234428 0 0.31879452400631653 0.25919465198291952 0 0.33565265393095528 0.25675142138279861 0 0.33092809789354199 0.24744869965648561 0 0.33565265393095528 0.25675142138279861 0 0.33982225619875311 0.26765994074234428 0 0.34536281311255052 0.25941060478944128 0 0.33565265393095528 0.25675142138279861 0 0.3433555784436142 0.25004320974280247 0 0.33092809789354199 0.24744869965648561 0 0.33565265393095528 0.25675142138279861 0 0.3433555784436142 0.25004320974280247 0 0.34536281311255052 0.25941060478944128 0 0.31879452400631653 0.25919465198291952 0 0.33982225619875311 0.26765994074234428 0 0.32679599518363661 0.27733160004242491 0 0.33982225619875311 0.26765994074234428 0 0.32679599518363661 0.27733160004242491 0 0.34056182851336592 0.28206143899133118 0 0.30055108247350393 0.28416894361273021 0 0.32679599518363661 0.27733160004242491 0 0.30055108247350393 0.28416894361273021 0 0.31879452400631653 0.25919465198291952 0 0.32679599518363661 0.27733160004242491 0 0.32679599518363661 0.27733160004242491 0 0.32109763140443309 0.29547610107375327 0 0.33248404658197278 0.28876668272462419 0 0.30055108247350393 0.28416894361273021 0 0.32679599518363661 0.27733160004242491 0 0.32109763140443309 0.29547610107375327 0 0.32109763140443309 0.29547610107375327 0 0.31440941436971798 0.31242774502049953 0 0.32867162081685902 0.31028670060733149 0 0.30822946874662033 0.29998271616579031 0 0.32109763140443309 0.29547610107375327 0 0.31440941436971798 0.31242774502049953 0 0.32867162081685902 0.31028670060733149 0 0.33472549883669622 0.29791121211074773 0 0.34192449374142192 0.30753297203612773 0 0.32109763140443309 0.29547610107375327 0 0.32867162081685902 0.31028670060733149 0 0.33472549883669622 0.29791121211074773 0 0.33472549883669622 0.29791121211074773 0 0.34281583705185747 0.29966479619329672 0 0.34192449374142192 0.30753297203612773 0 0.33769186663180051 0.31814262317354819 0 0.32867162081685902 0.31028670060733149 0 0.34192449374142192 0.30753297203612773 0 0.32679599518363661 0.27733160004242491 0 0.33248404658197278 0.28876668272462419 0 0.34056182851336592 0.28206143899133118 0 0.32109763140443309 0.29547610107375327 0 0.33472549883669622 0.29791121211074773 0 0.33248404658197278 0.28876668272462419 0 0.33472549883669622 0.29791121211074773 0 0.33248404658197278 0.28876668272462419 0 0.34417327957572558 0.29277050597204329 0 0.33472549883669622 0.29791121211074773 0 0.34281583705185747 0.29966479619329672 0 0.34417327957572558 0.29277050597204329 0 0.33248404658197278 0.28876668272462419 0 0.34056182851336592 0.28206143899133118 0 0.34417327957572558 0.29277050597204329 0 0.34056182851336592 0.28206143899133118 0 0.34979868535227071 0.28728326233729501 0 0.34417327957572558 0.29277050597204329 0 0.34056182851336592 0.28206143899133118 0 0.34979868535227071 0.28728326233729501 0 0.35183199075491411 0.27966461044832719 0 0.34417327957572558 0.29277050597204329 0 0.35334053836337709 0.29410458558147129 0 0.34972900846361488 0.30172704795696642 0 0.34979868535227071 0.28728326233729501 0 0.34417327957572558 0.29277050597204329 0 0.35334053836337709 0.29410458558147129 0 0.34979868535227071 0.28728326233729501 0 0.35334053836337709 0.29410458558147129 0 0.35722235408413222 0.28831366276426512 0 0.35334053836337709 0.29410458558147129 0 0.35826071325737319 0.3003277240158499 0 0.36091512844171192 0.29433704443458902 0 0.35334053836337709 0.29410458558147129 0 0.35722235408413222 0.28831366276426512 0 0.36091512844171192 0.29433704443458902 0 0.34979868535227071 0.28728326233729501 0 0.35722235408413222 0.28831366276426512 0 0.35183199075491411 0.27966461044832719 0 0.35722235408413222 0.28831366276426512 0 0.36152496379752869 0.28359539021876212 0 0.35183199075491411 0.27966461044832719 0 0.34480088275632298 0.31606258733578418 0 0.34192449374142192 0.30753297203612773 0 0.35090510471213721 0.31152713165908658 0 0.34192449374142192 0.30753297203612773 0 0.35090510471213721 0.31152713165908658 0 0.34972900846361488 0.30172704795696642 0 0.34281583705185747 0.29966479619329672 0 0.34417327957572558 0.29277050597204329 0 0.34972900846361488 0.30172704795696642 0 0.34281583705185747 0.29966479619329672 0 0.34192449374142192 0.30753297203612773 0 0.34972900846361488 0.30172704795696642 0 0.34972900846361488 0.30172704795696642 0 0.35826071325737319 0.3003277240158499 0 0.35721607615581658 0.30656573559573969 0 0.35334053836337709 0.29410458558147129 0 0.34972900846361488 0.30172704795696642 0 0.35826071325737319 0.3003277240158499 0 0.35090510471213721 0.31152713165908658 0 0.34972900846361488 0.30172704795696642 0 0.35721607615581658 0.30656573559573969 0 0.35878641637012221 0.31305233625990619 0 0.35090510471213721 0.31152713165908658 0 0.35721607615581658 0.30656573559573969 0 0.37014896644917339 0.316543878568457 0 0.37763341047385651 0.29079382019339128 0 0.37014896644917339 0.316543878568457 0 0.37108481648816682 0.30013899891886681 0 0.36845835323010317 0.30596496181531441 0 0.37014896644917339 0.316543878568457 0 0.37763341047385651 0.29079382019339128 0 0.37695808612291098 0.31120865645681561 0 0.37014896644917339 0.316543878568457 0 0.37108481648816682 0.30013899891886681 0 0.37763341047385651 0.29079382019339128 0 0.36630954626425261 0.31087512405144152 0 0.36228941999803421 0.30896529616435242 0 0.36543096483439103 0.3064802843427199 0 0.36331333565659901 0.31283202127524651 0 0.36630954626425261 0.31087512405144152 0 0.36228941999803421 0.30896529616435242 0 0.36331333565659901 0.31283202127524651 0 0.35878641637012221 0.31305233625990619 0 0.36228941999803421 0.30896529616435242 0 0.35878641637012221 0.31305233625990619 0 0.35721607615581658 0.30656573559573969 0 0.36228941999803421 0.30896529616435242 0 0.35721607615581658 0.30656573559573969 0 0.36228941999803421 0.30896529616435242 0 0.36268018070702418 0.30398627546106088 0 0.36630954626425261 0.31087512405144152 0 0.36543096483439103 0.3064802843427199 0 0.36845835323010317 0.30596496181531441 0 0.36228941999803421 0.30896529616435242 0 0.36543096483439103 0.3064802843427199 0 0.36268018070702418 0.30398627546106088 0 0.36543096483439103 0.3064802843427199 0 0.36607900901995372 0.30349396637540749 0 0.36845835323010317 0.30596496181531441 0 0.36607900901995372 0.30349396637540749 0 0.36268018070702418 0.30398627546106088 0 0.36558719123160882 0.29969948119116269 0 0.36607900901995372 0.30349396637540749 0 0.36558719123160882 0.29969948119116269 0 0.36823835509664099 0.30133882906677939 0 0.36543096483439103 0.3064802843427199 0 0.36607900901995372 0.30349396637540749 0 0.36268018070702418 0.30398627546106088 0 0.35826071325737319 0.3003277240158499 0 0.35721607615581658 0.30656573559573969 0 0.36268018070702418 0.30398627546106088 0 0.35826071325737319 0.3003277240158499 0 0.36268018070702418 0.30398627546106088 0 0.36558719123160882 0.29969948119116269 0 0.35826071325737319 0.3003277240158499 0 0.36558719123160882 0.29969948119116269 0 0.36091512844171192 0.29433704443458902 0 0.36871223371641282 0.29817542324200702 0 0.37108481648816682 0.30013899891886681 0 0.37014933742706652 0.29575476169949788 0 0.36558719123160882 0.29969948119116269 0 0.36871223371641282 0.29817542324200702 0 0.36734652779664789 0.29411680932906442 0 0.36558719123160882 0.29969948119116269 0 0.36871223371641282 0.29817542324200702 0 0.36823835509664099 0.30133882906677939 0 0.36871223371641282 0.29817542324200702 0 0.37108481648816682 0.30013899891886681 0 0.36823835509664099 0.30133882906677939 0 0.37108481648816682 0.30013899891886681 0 0.36823835509664099 0.30133882906677939 0 0.36845835323010317 0.30596496181531441 0 0.36607900901995372 0.30349396637540749 0 0.36823835509664099 0.30133882906677939 0 0.36845835323010317 0.30596496181531441 0 0.37014896644917339 0.316543878568457 0 0.36630954626425261 0.31087512405144152 0 0.36845835323010317 0.30596496181531441 0 0.36812955944888692 0.28419813691800921 0 0.36084998839118931 0.2761252295017701 0 0.37969218042614078 0.28371066929036243 0 0.36152496379752869 0.28359539021876212 0 0.36812955944888692 0.28419813691800921 0 0.36084998839118931 0.2761252295017701 0 0.36414496955441777 0.28941104037434479 0 0.36911771796651938 0.28986917351547109 0 0.36812955944888692 0.28419813691800921 0 0.36152496379752869 0.28359539021876212 0 0.36414496955441777 0.28941104037434479 0 0.36812955944888692 0.28419813691800921 0 0.35722235408413222 0.28831366276426512 0 0.36152496379752869 0.28359539021876212 0 0.36414496955441777 0.28941104037434479 0 0.35722235408413222 0.28831366276426512 0 0.36091512844171192 0.29433704443458902 0 0.36414496955441777 0.28941104037434479 0 0.36558719123160882 0.29969948119116269 0 0.36091512844171192 0.29433704443458902 0 0.36734652779664789 0.29411680932906442 0 0.36091512844171192 0.29433704443458902 0 0.36414496955441777 0.28941104037434479 0 0.36734652779664789 0.29411680932906442 0 0.36414496955441777 0.28941104037434479 0 0.36911771796651938 0.28986917351547109 0 0.36734652779664789 0.29411680932906442 0 0.36911771796651938 0.28986917351547109 0 0.37026464520563152 0.29279186409727531 0 0.36734652779664789 0.29411680932906442 0 0.37108481648816682 0.30013899891886681 0 0.37306860395079622 0.29341917559567809 0 0.37763341047385651 0.29079382019339128 0 0.36911771796651938 0.28986917351547109 0 0.37026464520563152 0.29279186409727531 0 0.37237913536365119 0.29056320862162688 0 0.36871223371641282 0.29817542324200702 0 0.36734652779664789 0.29411680932906442 0 0.37014933742706652 0.29575476169949788 0 0.37026464520563152 0.29279186409727531 0 0.36734652779664789 0.29411680932906442 0 0.37014933742706652 0.29575476169949788 0 0.37108481648816682 0.30013899891886681 0 0.37014933742706652 0.29575476169949788 0 0.37306860395079622 0.29341917559567809 0 0.37026464520563152 0.29279186409727531 0 0.37014933742706652 0.29575476169949788 0 0.37306860395079622 0.29341917559567809 0 0.36911771796651938 0.28986917351547109 0 0.37237913536365119 0.29056320862162688 0 0.37333201972158658 0.2878654242033048 0 0.37306860395079622 0.29341917559567809 0 0.37237913536365119 0.29056320862162688 0 0.37763341047385651 0.29079382019339128 0 0.37237913536365119 0.29056320862162688 0 0.37333201972158658 0.2878654242033048 0 0.37763341047385651 0.29079382019339128 0 0.37026464520563152 0.29279186409727531 0 0.37306860395079622 0.29341917559567809 0 0.37237913536365119 0.29056320862162688 0 0.37333201972158658 0.2878654242033048 0 0.36812955944888692 0.28419813691800921 0 0.37969218042614078 0.28371066929036243 0 0.36911771796651938 0.28986917351547109 0 0.37333201972158658 0.2878654242033048 0 0.36812955944888692 0.28419813691800921 0 0.36084998839118931 0.2761252295017701 0 0.37969218042614078 0.28371066929036243 0 0.36084998839118931 0.2761252295017701 0 0.37017340450925651 0.266060206293324 0 0.3539366042426153 0.26554047293381039 0 0.36084998839118931 0.2761252295017701 0 0.38460708535355081 0.26680105137204091 0 0.36084998839118931 0.2761252295017701 0 0.37017340450925651 0.266060206293324 0 0.38460708535355081 0.26680105137204091 0 0.3539366042426153 0.26554047293381039 0 0.38129994004966872 0.25577407136566988 0 0.37169426656027921 0.24972740256563611 0 0.37017340450925651 0.266060206293324 0 0.3539366042426153 0.26554047293381039 0 0.38129994004966872 0.25577407136566988 0 0.3539366042426153 0.26554047293381039 0 0.37169426656027921 0.24972740256563611 0 0.36205361842742478 0.24882498742118489 0 0.3539366042426153 0.26554047293381039 0 0.38129994004966872 0.25577407136566988 0 0.3539366042426153 0.26554047293381039 0 0.35175757775775729 0.2532797976346674 0 0.36205361842742478 0.24882498742118489 0 0.3433555784436142 0.25004320974280247 0 0.35175757775775729 0.2532797976346674 0 0.34536281311255052 0.25941060478944128 0 0.33982225619875311 0.26765994074234428 0 0.3539366042426153 0.26554047293381039 0 0.34536281311255052 0.25941060478944128 0 0.3539366042426153 0.26554047293381039 0 0.35175757775775729 0.2532797976346674 0 0.34536281311255052 0.25941060478944128 0 0.33982225619875311 0.26765994074234428 0 0.36084998839118931 0.2761252295017701 0 0.33982225619875311 0.26765994074234428 0 0.36084998839118931 0.2761252295017701 0 0.3539366042426153 0.26554047293381039 0 0.33982225619875311 0.26765994074234428 0 0.36084998839118931 0.2761252295017701 0 0.35183199075491411 0.27966461044832719 0 0.33982225619875311 0.26765994074234428 0 0.34056182851336592 0.28206143899133118 0 0.35183199075491411 0.27966461044832719 0 0.36152496379752869 0.28359539021876212 0 0.36084998839118931 0.2761252295017701 0 0.35183199075491411 0.27966461044832719 0 0.36084998839118931 0.2761252295017701 0 0.35183199075491411 0.27966461044832719 0 0.39945440726228237 0.27350419034528239 0 0.38460708535355081 0.26680105137204091 0 0.40768566828284042 0.25774317622192677 0 0.39945440726228237 0.27350419034528239 0 0.4092682188351508 0.26816031590002881 0 0.40768566828284042 0.25774317622192677 0 0.39945440726228237 0.27350419034528239 0 0.38460708535355081 0.26680105137204091 0 0.3904751567012596 0.27530993325585928 0 0.39945440726228237 0.27350419034528239 0 0.3904751567012596 0.27530993325585928 0 0.39488150240831521 0.28173053148540511 0 0.39945440726228237 0.27350419034528239 0 0.40366985246608472 0.28285995447659418 0 0.40929088926209078 0.279020096056181 0 0.39945440726228237 0.27350419034528239 0 0.4092682188351508 0.26816031590002881 0 0.40929088926209078 0.279020096056181 0 0.39945440726228237 0.27350419034528239 0 0.39488150240831521 0.28173053148540511 0 0.40366985246608472 0.28285995447659418 0 0.38783836144724232 0.2556839199238965 0 0.38129994004966872 0.25577407136566988 0 0.40866327585672191 0.24600766979752939 0 0.38460708535355081 0.26680105137204091 0 0.40768566828284042 0.25774317622192677 0 0.38783836144724232 0.2556839199238965 0 0.40768566828284042 0.25774317622192677 0 0.40866327585672191 0.24600766979752939 0 0.38783836144724232 0.2556839199238965 0 0.38460708535355081 0.26680105137204091 0 0.40768566828284042 0.25774317622192677 0 0.38129994004966872 0.25577407136566988 0 0.40866327585672191 0.24600766979752939 0 0.38783836144724232 0.2556839199238965 0 0.38129994004966872 0.25577407136566988 0 0.38460708535355081 0.26680105137204091 0 0.38783836144724232 0.2556839199238965 0 0.38460708535355081 0.26680105137204091 0 0.38129994004966872 0.25577407136566988 0 0.37169426656027921 0.24972740256563611 0 0.38106847269238292 0.24536179082341181 0 0.37017340450925651 0.266060206293324 0 0.38129994004966872 0.25577407136566988 0 0.38460708535355081 0.26680105137204091 0 0.36084998839118931 0.2761252295017701 0 0.38460708535355081 0.26680105137204091 0 0.37969218042614078 0.28371066929036243 0 0.38460708535355081 0.26680105137204091 0 0.3904751567012596 0.27530993325585928 0 0.37969218042614078 0.28371066929036243 0 0.38460708535355081 0.26680105137204091 0 0.37969218042614078 0.28371066929036243 0 0.3904751567012596 0.27530993325585928 0 0.37969218042614078 0.28371066929036243 0 0.39488150240831521 0.28173053148540511 0 0.37969218042614078 0.28371066929036243 0 0.37763341047385651 0.29079382019339128 0 0.40259214502479168 0.29292967641552992 0 0.37763341047385651 0.29079382019339128 0 0.4027243230010164 0.30147339632314252 0 0.37969218042614078 0.28371066929036243 0 0.37763341047385651 0.29079382019339128 0 0.37333201972158658 0.2878654242033048 0 0.37969218042614078 0.28371066929036243 0 0.37763341047385651 0.29079382019339128 0 0.37763341047385651 0.29079382019339128 0 0.37695808612291098 0.31120865645681561 0 0.38599374742651271 0.30414296713942529 0 0.37763341047385651 0.29079382019339128 0 0.38599374742651271 0.30414296713942529 0 0.4027243230010164 0.30147339632314252 0 0.37695808612291098 0.31120865645681561 0 0.38599374742651271 0.30414296713942529 0 0.38754735899376969 0.31282171123814728 0 0.38599374742651271 0.30414296713942529 0 0.4027243230010164 0.30147339632314252 0 0.38754735899376969 0.31282171123814728 0 0.4027243230010164 0.30147339632314252 0 0.3956366020903157 0.32248231082130752 0 0.38754735899376969 0.31282171123814728 0 0.37969218042614078 0.28371066929036243 0 0.40259214502479168 0.29292967641552992 0 0.37969218042614078 0.28371066929036243 0 0.39488150240831521 0.28173053148540511 0 0.40259214502479168 0.29292967641552992 0 0.37763341047385651 0.29079382019339128 0 0.4027243230010164 0.30147339632314252 0 0.40259214502479168 0.29292967641552992 0 0.4027243230010164 0.30147339632314252 0 0.40259214502479168 0.29292967641552992 0 0.41139710839419091 0.29189735433941028 0 0.40259214502479168 0.29292967641552992 0 0.40366985246608472 0.28285995447659418 0 0.41139710839419091 0.29189735433941028 0 0.39488150240831521 0.28173053148540511 0 0.40259214502479168 0.29292967641552992 0 0.40366985246608472 0.28285995447659418 0 0.40366985246608472 0.28285995447659418 0 0.41139710839419091 0.29189735433941028 0 0.40929088926209078 0.279020096056181 0 0.41139710839419091 0.29189735433941028 0 0.42781523552817591 0.31215297245289481 0 0.42226183937510081 0.28327127115801121 0 0.41139710839419091 0.29189735433941028 0 0.42226183937510081 0.28327127115801121 0 0.40929088926209078 0.279020096056181 0 0.4027243230010164 0.30147339632314252 0 0.41139710839419091 0.29189735433941028 0 0.42781523552817591 0.31215297245289481 0 0.4027243230010164 0.30147339632314252 0 0.42781523552817591 0.31215297245289481 0 0.41357021602424721 0.32279281759874212 0 0.4027243230010164 0.30147339632314252 0 0.42781523552817591 0.31215297245289481 0 0.42781523552817591 0.31215297245289481 0 0.42226183937510081 0.28327127115801121 0 0.42781523552817591 0.31215297245289481 0 0.42226183937510081 0.28327127115801121 0 0.44120727567718632 0.28746005308771089 0 0.42226183937510081 0.28327127115801121 0 0.43023391716603732 0.27040224467912161 0 0.44120727567718632 0.28746005308771089 0 0.42226183937510081 0.28327127115801121 0 0.43023391716603732 0.27040224467912161 0 0.41664462513020523 0.25422696758609492 0 0.43023391716603732 0.27040224467912161 0 0.43692075095235122 0.26433370861442979 0 0.44373838257505849 0.27050131303512348 0 0.42226183937510081 0.28327127115801121 0 0.4092682188351508 0.26816031590002881 0 0.41664462513020523 0.25422696758609492 0 0.42226183937510081 0.28327127115801121 0 0.41664462513020523 0.25422696758609492 0 0.42226183937510081 0.28327127115801121 0 0.4092682188351508 0.26816031590002881 0 0.40929088926209078 0.279020096056181 0 0.40768566828284042 0.25774317622192677 0 0.41664462513020523 0.25422696758609492 0 0.40866327585672191 0.24600766979752939 0 0.40768566828284042 0.25774317622192677 0 0.41664462513020523 0.25422696758609492 0 0.4092682188351508 0.26816031590002881 0 0.40768566828284042 0.25774317622192677 0 0.41664462513020523 0.25422696758609492 0 0.42749544465446981 0.25699566217507153 0 0.45166362976964691 0.25106894999712381 0 0.43076425121212841 0.2486853010718087 0 0.41664462513020523 0.25422696758609492 0 0.42749544465446981 0.25699566217507153 0 0.43076425121212841 0.2486853010718087 0 0.43023391716603732 0.27040224467912161 0 0.41664462513020523 0.25422696758609492 0 0.42749544465446981 0.25699566217507153 0 0.41664462513020523 0.25422696758609492 0 0.43076425121212841 0.2486853010718087 0 0.42749544465446981 0.25699566217507153 0 0.43692075095235122 0.26433370861442979 0 0.44456450099631911 0.26043047377218492 0 0.43023391716603732 0.27040224467912161 0 0.42749544465446981 0.25699566217507153 0 0.43692075095235122 0.26433370861442979 0 0.42749544465446981 0.25699566217507153 0 0.45166362976964691 0.25106894999712381 0 0.42749544465446981 0.25699566217507153 0 0.44456450099631911 0.26043047377218492 0 0.45166362976964691 0.25106894999712381 0 0.43692075095235122 0.26433370861442979 0 0.44456450099631911 0.26043047377218492 0 0.44373838257505849 0.27050131303512348 0 0.44456450099631911 0.26043047377218492 0 0.44373838257505849 0.27050131303512348 0 0.45508065662597141 0.26402805921732958 0 0.44456450099631911 0.26043047377218492 0 0.45166362976964691 0.25106894999712381 0 0.45508065662597141 0.26402805921732958 0 0.44373838257505849 0.27050131303512348 0 0.45472874274978531 0.27586911806656422 0 0.44120727567718632 0.28746005308771089 0 0.43023391716603732 0.27040224467912161 0 0.44373838257505849 0.27050131303512348 0 0.44120727567718632 0.28746005308771089 0 0.44373838257505849 0.27050131303512348 0 0.45472874274978531 0.27586911806656422 0 0.45508065662597141 0.26402805921732958 0 0.45472874274978531 0.27586911806656422 0 0.46665275363318931 0.27127710252775639 0 0.46192346945889701 0.28817835066990299 0 0.45472874274978531 0.27586911806656422 0 0.46665275363318931 0.27127710252775639 0 0.45508065662597141 0.26402805921732958 0 0.45166362976964691 0.25106894999712381 0 0.46652816171208539 0.25830808769848879 0 0.47583181488482379 0.2451422378191761 0 0.45166362976964691 0.25106894999712381 0 0.45508065662597141 0.26402805921732958 0 0.46652816171208539 0.25830808769848879 0 0.46665275363318931 0.27127710252775639 0 0.45508065662597141 0.26402805921732958 0 0.46652816171208539 0.25830808769848879 0 0.46665275363318931 0.27127710252775639 0 0.46652816171208539 0.25830808769848879 0 0.48341195364679568 0.26002408893105827 0 0.46652816171208539 0.25830808769848879 0 0.48341195364679568 0.26002408893105827 0 0.47583181488482379 0.2451422378191761 0 0.46665275363318931 0.27127710252775639 0 0.48341195364679568 0.26002408893105827 0 0.48138518434246891 0.28130646820503019 0 0.46665275363318931 0.27127710252775639 0 0.48138518434246891 0.28130646820503019 0 0.46192346945889701 0.28817835066990299 0 0.5 0.26671351767664991 0 0.5 0.29421150971207138 0 0.48138518434246891 0.28130646820503019 0 0.48341195364679568 0.26002408893105827 0 0.5 0.26671351767664991 0 0.48138518434246891 0.28130646820503019 0 0.48341195364679568 0.26002408893105827 0 0.5 0.26671351767664991 0 0.50000000000000067 0.2392155256412283 0 0.5 0.29421150971207138 0 0.47556093647901088 0.30733800586058863 0 0.5 0.32170950174749302 0 0.5 0.29421150971207138 0 0.48138518434246891 0.28130646820503019 0 0.47556093647901088 0.30733800586058863 0 0.48138518434246891 0.28130646820503019 0 0.47556093647901088 0.30733800586058863 0 0.46192346945889701 0.28817835066990299 0 0.47556093647901088 0.30733800586058863 0 0.45214514511688908 0.30370412902975941 0 0.45421880844117613 0.32339126307769928 0 0.47556093647901088 0.30733800586058863 0 0.46192346945889701 0.28817835066990299 0 0.45214514511688908 0.30370412902975941 0 0.46192346945889701 0.28817835066990299 0 0.44120727567718632 0.28746005308771089 0 0.45214514511688908 0.30370412902975941 0 0.45472874274978531 0.27586911806656422 0 0.46192346945889701 0.28817835066990299 0 0.44120727567718632 0.28746005308771089 0 0.42781523552817591 0.31215297245289481 0 0.44120727567718632 0.28746005308771089 0 0.45214514511688908 0.30370412902975941 0 0.42781523552817591 0.31215297245289481 0 0.45421880844117613 0.32339126307769928 0 0.43298436918619881 0.33903622913929549 0 0.42781523552817591 0.31215297245289481 0 0.45214514511688908 0.30370412902975941 0 0.45421880844117613 0.32339126307769928 0 0.42781523552817591 0.31215297245289481 0 0.45421880844117613 0.32339126307769928 0 0.45421880844117613 0.32339126307769928 0 0.45970761232660212 0.34692044601787542 0 0.43298436918619881 0.33903622913929549 0 0.45421880844117613 0.32339126307769928 0 0.48062238135417568 0.33462955370250519 0 0.45421880844117613 0.32339126307769928 0 0.48062238135417568 0.33462955370250519 0 0.45970761232660212 0.34692044601787542 0 0.47556093647901088 0.30733800586058863 0 0.45421880844117613 0.32339126307769928 0 0.48062238135417568 0.33462955370250519 0 0.48062238135417568 0.33462955370250519 0 0.5 0.32170950174749302 0 0.5 0.34920749378291471 0 0.47556093647901088 0.30733800586058863 0 0.48062238135417568 0.33462955370250519 0 0.5 0.32170950174749302 0 0.5 0.34920749378291471 0 0.48254603458521478 0.3522402998402685 0 0.5 0.37670548581833618 0 0.48062238135417568 0.33462955370250519 0 0.5 0.34920749378291471 0 0.48254603458521478 0.3522402998402685 0 0.48254603458521478 0.3522402998402685 0 0.46972057754862501 0.36630584452178799 0 0.45970761232660212 0.34692044601787542 0 0.48062238135417568 0.33462955370250519 0 0.48254603458521478 0.3522402998402685 0 0.45970761232660212 0.34692044601787542 0 0.48254603458521478 0.3522402998402685 0 0.46972057754862501 0.36630584452178799 0 0.5 0.37670548581833618 0 0.46972057754862501 0.36630584452178799 0 0.43815350284422228 0.36591948582569622 0 0.45848938469160699 0.38276388730883248 0 0.46972057754862501 0.36630584452178799 0 0.45970761232660212 0.34692044601787542 0 0.43815350284422228 0.36591948582569622 0 0.45970761232660212 0.34692044601787542 0 0.43815350284422228 0.36591948582569622 0 0.43298436918619881 0.33903622913929549 0 0.43815350284422228 0.36591948582569622 0 0.4167242930516859 0.35972934744593471 0 0.42344095457037051 0.38268701701273461 0 0.4167242930516859 0.35972934744593471 0 0.40101385701800268 0.38518895784325291 0 0.4167242930516859 0.35972934744593471 0 0.40181680918128981 0.35947395412181382 0 0.40101385701800268 0.38518895784325291 0 0.4167242930516859 0.35972934744593471 0 0.40869055031553031 0.33881917925707022 0 0.40181680918128981 0.35947395412181382 0 0.4167242930516859 0.35972934744593471 0 0.43298436918619881 0.33903622913929549 0 0.40869055031553031 0.33881917925707022 0 0.43815350284422228 0.36591948582569622 0 0.4167242930516859 0.35972934744593471 0 0.43298436918619881 0.33903622913929549 0 0.43815350284422228 0.36591948582569622 0 0.43298436918619881 0.33903622913929549 0 0.42781523552817591 0.31215297245289481 0 0.43298436918619881 0.33903622913929549 0 0.42781523552817591 0.31215297245289481 0 0.43298436918619881 0.33903622913929549 0 0.41357021602424721 0.32279281759874212 0 0.43298436918619881 0.33903622913929549 0 0.41357021602424721 0.32279281759874212 0 0.40869055031553031 0.33881917925707022 0 0.40869055031553031 0.33881917925707022 0 0.39369601167170543 0.33564153172070438 0 0.39209274976778918 0.34814598654190299 0 0.40869055031553031 0.33881917925707022 0 0.39369601167170543 0.33564153172070438 0 0.3956366020903157 0.32248231082130752 0 0.39369601167170543 0.33564153172070438 0 0.3956366020903157 0.32248231082130752 0 0.38362385659697051 0.32926172455430031 0 0.39369601167170543 0.33564153172070438 0 0.38635485741833753 0.33883185827426582 0 0.39209274976778918 0.34814598654190299 0 0.41357021602424721 0.32279281759874212 0 0.40869055031553031 0.33881917925707022 0 0.3956366020903157 0.32248231082130752 0 0.4027243230010164 0.30147339632314252 0 0.41357021602424721 0.32279281759874212 0 0.3956366020903157 0.32248231082130752 0 0.3956366020903157 0.32248231082130752 0 0.38754735899376969 0.31282171123814728 0 0.38479800915553353 0.32074741934569512 0 0.38754735899376969 0.31282171123814728 0 0.38479800915553353 0.32074741934569512 0 0.37917338616632867 0.3168755173424983 0 0.3956366020903157 0.32248231082130752 0 0.38479800915553353 0.32074741934569512 0 0.38362385659697051 0.32926172455430031 0 0.38479800915553353 0.32074741934569512 0 0.37832625022041982 0.32264150287239662 0 0.38362385659697051 0.32926172455430031 0 0.37577016905582622 0.32787937856968757 0 0.37832625022041982 0.32264150287239662 0 0.38362385659697051 0.32926172455430031 0 0.37577016905582622 0.32787937856968757 0 0.37506056064123422 0.32471797871916308 0 0.37832625022041982 0.32264150287239662 0 0.37368960646642962 0.31911015363466272 0 0.37506056064123422 0.32471797871916308 0 0.37832625022041982 0.32264150287239662 0 0.37695808612291098 0.31120865645681561 0 0.38754735899376969 0.31282171123814728 0 0.37917338616632867 0.3168755173424983 0 0.38479800915553353 0.32074741934569512 0 0.37832625022041982 0.32264150287239662 0 0.37917338616632867 0.3168755173424983 0 0.37368960646642962 0.31911015363466272 0 0.37832625022041982 0.32264150287239662 0 0.37917338616632867 0.3168755173424983 0 0.37499251130121058 0.31593455150060828 0 0.37368960646642962 0.31911015363466272 0 0.37917338616632867 0.3168755173424983 0 0.37499251130121058 0.31593455150060828 0 0.37695808612291098 0.31120865645681561 0 0.37917338616632867 0.3168755173424983 0 0.38635485741833753 0.33883185827426582 0 0.3795813787571668 0.3363772241379393 0 0.38278029029805521 0.34473282441648212 0 0.39369601167170543 0.33564153172070438 0 0.38635485741833753 0.33883185827426582 0 0.38362385659697051 0.32926172455430031 0 0.38635485741833753 0.33883185827426582 0 0.38362385659697051 0.32926172455430031 0 0.3795813787571668 0.3363772241379393 0 0.37577016905582622 0.32787937856968757 0 0.38362385659697051 0.32926172455430031 0 0.37868435463470768 0.3315773541462857 0 0.38362385659697051 0.32926172455430031 0 0.37868435463470768 0.3315773541462857 0 0.3795813787571668 0.3363772241379393 0 0.37577016905582622 0.32787937856968757 0 0.37868435463470768 0.3315773541462857 0 0.375263113682131 0.33313320718557798 0 0.37868435463470768 0.3315773541462857 0 0.375263113682131 0.33313320718557798 0 0.3795813787571668 0.3363772241379393 0 0.37369311900952262 0.33836265764115908 0 0.3795813787571668 0.3363772241379393 0 0.37670219357667811 0.34177383067972761 0 0.3795813787571668 0.3363772241379393 0 0.37670219357667811 0.34177383067972761 0 0.38278029029805521 0.34473282441648212 0 0.37369311900952262 0.33836265764115908 0 0.375263113682131 0.33313320718557798 0 0.3795813787571668 0.3363772241379393 0 0.3809821990389497 0.35490418517770578 0 0.39056259575344082 0.36548629952090861 0 0.39209274976778918 0.34814598654190299 0 0.37486749369974542 0.34694596905823039 0 0.37670219357667811 0.34177383067972761 0 0.38278029029805521 0.34473282441648212 0 0.37486749369974542 0.34694596905823039 0 0.38278029029805521 0.34473282441648212 0 0.3809821990389497 0.35490418517770578 0 0.38278029029805521 0.34473282441648212 0 0.3809821990389497 0.35490418517770578 0 0.39209274976778918 0.34814598654190299 0 0.38635485741833753 0.33883185827426582 0 0.38278029029805521 0.34473282441648212 0 0.39209274976778918 0.34814598654190299 0 0.37228166628853332 0.35471301169251829 0 0.37486749369974542 0.34694596905823039 0 0.3809821990389497 0.35490418517770578 0 0.37414389550204002 0.36898578533419818 0 0.3809821990389497 0.35490418517770578 0 0.39056259575344082 0.36548629952090861 0 0.37414389550204002 0.36898578533419818 0 0.39056259575344082 0.36548629952090861 0 0.40101385701800268 0.38518895784325291 0 0.37414389550204002 0.36898578533419818 0 0.37228166628853332 0.35471301169251829 0 0.3809821990389497 0.35490418517770578 0 0.39056259575344082 0.36548629952090861 0 0.40181680918128981 0.35947395412181382 0 0.40101385701800268 0.38518895784325291 0 0.39056259575344082 0.36548629952090861 0 0.40181680918128981 0.35947395412181382 0 0.39209274976778918 0.34814598654190299 0 0.40869055031553031 0.33881917925707022 0 0.40181680918128981 0.35947395412181382 0 0.39209274976778918 0.34814598654190299 0 0.40101385701800268 0.38518895784325291 0 0.38530342098431941 0.41064856824057122 0 0.40101385701800268 0.38518895784325291 0 0.38530342098431941 0.41064856824057122 0 0.41521715527738928 0.40390661881175682 0 0.3736470799201031 0.39378130610698531 0 0.37414389550204002 0.36898578533419818 0 0.40101385701800268 0.38518895784325291 0 0.3736470799201031 0.39378130610698531 0 0.40101385701800268 0.38518895784325291 0 0.38530342098431941 0.41064856824057122 0 0.36959298495063608 0.43610817863788948 0 0.38530342098431941 0.41064856824057122 0 0.36959298495063608 0.43610817863788948 0 0.38530342098431941 0.41064856824057122 0 0.3889231515195431 0.43141286456833011 0 0.3889231515195431 0.43141286456833011 0 0.40362265567455102 0.42304679086704539 0 0.39942544658573009 0.43872588670818857 0 0.40362265567455102 0.42304679086704539 0 0.41248490446316177 0.43293377153942381 0 0.39942544658573009 0.43872588670818857 0 0.38530342098431941 0.41064856824057122 0 0.3889231515195431 0.43141286456833011 0 0.40362265567455102 0.42304679086704539 0 0.38530342098431941 0.41064856824057122 0 0.40362265567455102 0.42304679086704539 0 0.41521715527738928 0.40390661881175682 0 0.40362265567455102 0.42304679086704539 0 0.42233359500988371 0.42307221464191669 0 0.41521715527738928 0.40390661881175682 0 0.40362265567455102 0.42304679086704539 0 0.41248490446316177 0.43293377153942381 0 0.42233359500988371 0.42307221464191669 0 0.41248490446316177 0.43293377153942381 0 0.42233359500988371 0.42307221464191669 0 0.42326813014219627 0.43909650749986368 0 0.42233359500988371 0.42307221464191669 0 0.43681876433844857 0.43497208046478802 0 0.42326813014219627 0.43909650749986368 0 0.42233359500988371 0.42307221464191669 0 0.43681876433844857 0.43497208046478802 0 0.43655617137350622 0.42038510460191503 0 0.42233359500988371 0.42307221464191669 0 0.42830887421762198 0.41018013153495869 0 0.41521715527738928 0.40390661881175682 0 0.42233359500988371 0.42307221464191669 0 0.42830887421762198 0.41018013153495869 0 0.43655617137350622 0.42038510460191503 0 0.42830887421762198 0.41018013153495869 0 0.43655617137350622 0.42038510460191503 0 0.439625884597032 0.40642404903869822 0 0.42978568865087441 0.39901034440009059 0 0.42344095457037051 0.38268701701273461 0 0.4433226365022459 0.39280274251209668 0 0.42978568865087441 0.39901034440009059 0 0.41521715527738928 0.40390661881175682 0 0.42344095457037051 0.38268701701273461 0 0.42830887421762198 0.41018013153495869 0 0.42978568865087441 0.39901034440009059 0 0.439625884597032 0.40642404903869822 0 0.42830887421762198 0.41018013153495869 0 0.42978568865087441 0.39901034440009059 0 0.41521715527738928 0.40390661881175682 0 0.4167242930516859 0.35972934744593471 0 0.40101385701800268 0.38518895784325291 0 0.42344095457037051 0.38268701701273461 0 0.40101385701800268 0.38518895784325291 0 0.41521715527738928 0.40390661881175682 0 0.42344095457037051 0.38268701701273461 0 0.43815350284422228 0.36591948582569622 0 0.42344095457037051 0.38268701701273461 0 0.4433226365022459 0.39280274251209668 0 0.43815350284422228 0.36591948582569622 0 0.4433226365022459 0.39280274251209668 0 0.43815350284422228 0.36591948582569622 0 0.4433226365022459 0.39280274251209668 0 0.45848938469160699 0.38276388730883248 0 0.4433226365022459 0.39280274251209668 0 0.4587292321942566 0.40377894109977869 0 0.44849177016026981 0.41968599919849731 0 0.4433226365022459 0.39280274251209668 0 0.44849177016026981 0.41968599919849731 0 0.42978568865087441 0.39901034440009059 0 0.4433226365022459 0.39280274251209668 0 0.439625884597032 0.40642404903869822 0 0.4433226365022459 0.39280274251209668 0 0.4587292321942566 0.40377894109977869 0 0.45848938469160699 0.38276388730883248 0 0.4587292321942566 0.40377894109977869 0 0.45848938469160699 0.38276388730883248 0 0.47720201034463561 0.39055994944820821 0 0.46972057754862501 0.36630584452178799 0 0.45848938469160699 0.38276388730883248 0 0.47720201034463561 0.39055994944820821 0 0.46972057754862501 0.36630584452178799 0 0.47720201034463561 0.39055994944820821 0 0.5 0.37670548581833618 0 0.47720201034463561 0.39055994944820821 0 0.5 0.40420347785375749 0 0.47329291580914951 0.41490179660840648 0 0.4587292321942566 0.40377894109977869 0 0.47720201034463561 0.39055994944820821 0 0.47329291580914951 0.41490179660840648 0 0.47720201034463561 0.39055994944820821 0 0.5 0.40420347785375749 0 0.5 0.37670548581833618 0 0.48546521128148462 0.42572005307568972 0 0.49999999999999828 0.43170146988917901 0 0.48502495584706629 0.44181750450007778 0 0.49999999999999828 0.43170146988917901 0 0.48502495584706629 0.44181750450007778 0 0.5 0.40420347785375749 0 0.48546521128148462 0.42572005307568972 0 0.47329291580914951 0.41490179660840648 0 0.5 0.40420347785375749 0 0.48546521128148462 0.42572005307568972 0 0.49999999999999828 0.43170146988917901 0 0.48546521128148462 0.42572005307568972 0 0.47462076711180717 0.43403653248997731 0 0.48502495584706629 0.44181750450007778 0 0.47329291580914951 0.41490179660840648 0 0.47462076711180717 0.43403653248997731 0 0.45927084092720188 0.43580976915473651 0 0.48546521128148462 0.42572005307568972 0 0.47329291580914951 0.41490179660840648 0 0.47462076711180717 0.43403653248997731 0 0.45927084092720188 0.43580976915473651 0 0.44849177016026981 0.41968599919849731 0 0.47329291580914951 0.41490179660840648 0 0.45927084092720188 0.43580976915473651 0 0.44849177016026981 0.41968599919849731 0 0.45927084092720188 0.43580976915473651 0 0.44849177016026981 0.41968599919849731 0 0.45165089640657707 0.43611575462809582 0 0.4587292321942566 0.40377894109977869 0 0.47329291580914951 0.41490179660840648 0 0.44849177016026981 0.41968599919849731 0 0.4433226365022459 0.39280274251209668 0 0.44849177016026981 0.41968599919849731 0 0.439625884597032 0.40642404903869822 0 0.43655617137350622 0.42038510460191503 0 0.44849177016026981 0.41968599919849731 0 0.439625884597032 0.40642404903869822 0 0.44849177016026981 0.41968599919849731 0 0.439625884597032 0.40642404903869822 0 0.44849177016026981 0.41968599919849731 0 0.45165089640657707 0.43611575462809582 0 0.44386952542921521 0.4295111469185629 0 0.44849177016026981 0.41968599919849731 0 0.45165089640657707 0.43611575462809582 0 0.45165089640657707 0.43611575462809582 0 0.44386952542921521 0.4295111469185629 0 0.44519082659473158 0.43782150968735878 0 0.43655617137350622 0.42038510460191503 0 0.44849177016026981 0.41968599919849731 0 0.44386952542921521 0.4295111469185629 0 0.43681876433844857 0.43497208046478802 0 0.43655617137350622 0.42038510460191503 0 0.44386952542921521 0.4295111469185629 0 0.43681876433844857 0.43497208046478802 0 0.44386952542921521 0.4295111469185629 0 0.44519082659473158 0.43782150968735878 0 0.43681876433844857 0.43497208046478802 0 0.44519082659473158 0.43782150968735878 0 0.44362096681603608 0.44566090358066651 0 0.43681876433844857 0.43497208046478802 0 0.44362096681603608 0.44566090358066651 0 0.43343701099378978 0.44857281610427868 0 0.44362096681603608 0.44566090358066651 0 0.44110505044236059 0.45564825146568327 0 0.43343701099378978 0.44857281610427868 0 0.44362096681603608 0.44566090358066651 0 0.45255374853073171 0.45216262504332899 0 0.45221828903371142 0.44335246171580328 0 0.44362096681603608 0.44566090358066651 0 0.45255374853073171 0.45216262504332899 0 0.44110505044236059 0.45564825146568327 0 0.44519082659473158 0.43782150968735878 0 0.44362096681603608 0.44566090358066651 0 0.45221828903371142 0.44335246171580328 0 0.45165089640657707 0.43611575462809582 0 0.44519082659473158 0.43782150968735878 0 0.45221828903371142 0.44335246171580328 0 0.45255374853073171 0.45216262504332899 0 0.44518446721829791 0.46873079822848901 0 0.44110505044236059 0.45564825146568327 0 0.44518446721829791 0.46873079822848901 0 0.44110505044236059 0.45564825146568327 0 0.43072905865294731 0.46311411437165317 0 0.47284597636140308 0.45611600571247141 0 0.46302896313844299 0.47272331085799019 0 0.45255374853073171 0.45216262504332899 0 0.44518446721829791 0.46873079822848901 0 0.47004991169413368 0.45193353911097589 0 0.47004991169413368 0.45193353911097589 0 0.47284597636140308 0.45611600571247141 0 0.46302896313844299 0.47272331085799019 0 0.44518446721829791 0.46873079822848901 0 0.47004991169413368 0.45193353911097589 0 0.46302896313844299 0.47272331085799019 0 0.44518446721829791 0.46873079822848901 0 0.47004991169413368 0.45193353911097589 0 0.45927084092720188 0.43580976915473651 0 0.47004991169413368 0.45193353911097589 0 0.45927084092720188 0.43580976915473651 0 0.45930684530103161 0.44617181272829648 0 0.47004991169413368 0.45193353911097589 0 0.47462076711180717 0.43403653248997731 0 0.45927084092720188 0.43580976915473651 0 0.47004991169413368 0.45193353911097589 0 0.45255374853073171 0.45216262504332899 0 0.45930684530103161 0.44617181272829648 0 0.47004991169413368 0.45193353911097589 0 0.45927084092720188 0.43580976915473651 0 0.45221828903371142 0.44335246171580328 0 0.45930684530103161 0.44617181272829648 0 0.45927084092720188 0.43580976915473651 0 0.45165089640657707 0.43611575462809582 0 0.45221828903371142 0.44335246171580328 0 0.45255374853073171 0.45216262504332899 0 0.45221828903371142 0.44335246171580328 0 0.45930684530103161 0.44617181272829648 0 0.47462076711180717 0.43403653248997731 0 0.47004991169413368 0.45193353911097589 0 0.48502495584706629 0.44181750450007778 0 0.48189680466807888 0.45106209462173341 0 0.47450081081676521 0.45331654521044668 0 0.48502495584706629 0.44181750450007778 0 0.47004991169413368 0.45193353911097589 0 0.48502495584706629 0.44181750450007778 0 0.47004991169413368 0.45193353911097589 0 0.47450081081676521 0.45331654521044668 0 0.48502495584706629 0.44181750450007778 0 0.47284597636140308 0.45611600571247141 0 0.48050552008400071 0.46757346096286262 0 0.46302896313844299 0.47272331085799019 0 0.47004991169413368 0.45193353911097589 0 0.47284597636140308 0.45611600571247141 0 0.47004991169413368 0.45193353911097589 0 0.47450081081676521 0.45331654521044668 0 0.47284597636140308 0.45611600571247141 0 0.47450081081676521 0.45331654521044668 0 0.47284597636140308 0.45611600571247141 0 0.47951191807974908 0.45654698881850991 0 0.47450081081676521 0.45331654521044668 0 0.47284597636140308 0.45611600571247141 0 0.47284597636140308 0.45611600571247141 0 0.48050552008400071 0.46757346096286262 0 0.47284597636140308 0.45611600571247141 0 0.48050552008400071 0.46757346096286262 0 0.47951191807974908 0.45654698881850991 0 0.48189680466807888 0.45106209462173341 0 0.47951191807974908 0.45654698881850991 0 0.4878104784684959 0.4546668375850359 0 0.48050552008400071 0.46757346096286262 0 0.47951191807974908 0.45654698881850991 0 0.4878104784684959 0.4546668375850359 0 0.48189680466807888 0.45106209462173341 0 0.47450081081676521 0.45331654521044668 0 0.47951191807974908 0.45654698881850991 0 0.48050552008400071 0.46757346096286262 0 0.4878104784684959 0.4546668375850359 0 0.49999999999999928 0.46182898591187349 0 0.48050552008400071 0.46757346096286262 0 0.49999999999999928 0.46182898591187349 0 0.49999999999999828 0.43170146988917901 0 0.4878104784684959 0.4546668375850359 0 0.49999999999999928 0.46182898591187349 0 0.49999999999999828 0.43170146988917901 0 0.4878104784684959 0.4546668375850359 0 0.48502495584706629 0.44181750450007778 0 0.48189680466807888 0.45106209462173341 0 0.4878104784684959 0.4546668375850359 0 0.48502495584706629 0.44181750450007778 0 0.49999999999999928 0.46182898591187349 0 0.5 0.5 0 0.49753071700976492 0.4930404390193398 0 0.5 0.5 0 0.47501141284236448 0.48698608464618232 0 0.44690499747156931 0.4999999999999995 0 0.5 0.5 0 0.49753071700976492 0.4930404390193398 0 0.47501141284236448 0.48698608464618232 0 0.49753071700976492 0.4930404390193398 0 0.48901811854688337 0.4803069499911008 0 0.47501141284236448 0.48698608464618232 0 0.49753071700976492 0.4930404390193398 0 0.48901811854688337 0.4803069499911008 0 0.48050552008400071 0.46757346096286262 0 0.49999999999999928 0.46182898591187349 0 0.48901811854688337 0.4803069499911008 0 0.49999999999999928 0.46182898591187349 0 0.49753071700976492 0.4930404390193398 0 0.48901811854688337 0.4803069499911008 0 0.48050552008400071 0.46757346096286262 0 0.48901811854688337 0.4803069499911008 0 0.48050552008400071 0.46757346096286262 0 0.46302896313844299 0.47272331085799019 0 0.48901811854688337 0.4803069499911008 0 0.47689100365292297 0.47689745161453417 0 0.47501141284236448 0.48698608464618232 0 0.48050552008400071 0.46757346096286262 0 0.47689100365292297 0.47689745161453417 0 0.46302896313844299 0.47272331085799019 0 0.48050552008400071 0.46757346096286262 0 0.48901811854688337 0.4803069499911008 0 0.47689100365292297 0.47689745161453417 0 0.47689100365292297 0.47689745161453417 0 0.47501141284236448 0.48698608464618232 0 0.46302896313844299 0.47272331085799019 0 0.47501141284236448 0.48698608464618232 0 0.45496698030500621 0.48636165542899479 0 0.44690499747156931 0.4999999999999995 0 0.47501141284236448 0.48698608464618232 0 0.45496698030500621 0.48636165542899479 0 0.46302896313844299 0.47272331085799019 0 0.45496698030500621 0.48636165542899479 0 0.46302896313844299 0.47272331085799019 0 0.46302896313844299 0.47272331085799019 0 0.43620850627812668 0.48062654530969717 0 0.44518446721829791 0.46873079822848901 0 0.46302896313844299 0.47272331085799019 0 0.43620850627812668 0.48062654530969717 0 0.45496698030500621 0.48636165542899479 0 0.46302896313844299 0.47272331085799019 0 0.43620850627812668 0.48062654530969717 0 0.45496698030500621 0.48636165542899479 0 0.44690499747156931 0.4999999999999995 0 0.43620850627812668 0.48062654530969717 0 0.45496698030500621 0.48636165542899479 0 0.44690499747156931 0.4999999999999995 0 0.42031902274246069 0.48552805734600057 0 0.41743852268843429 0.5 0 0.43620850627812668 0.48062654530969717 0 0.44690499747156931 0.4999999999999995 0 0.41743852268843429 0.5 0 0.43620850627812668 0.48062654530969717 0 0.42031902274246069 0.48552805734600057 0 0.41743852268843429 0.5 0 0.40134209412993838 0.48520307466421098 0 0.42031902274246069 0.48552805734600057 0 0.40973563488985532 0.47579104778557152 0 0.40134209412993838 0.48520307466421098 0 0.42031902274246069 0.48552805734600057 0 0.40973563488985532 0.47579104778557152 0 0.41789473538963601 0.46705380048502582 0 0.44518446721829791 0.46873079822848901 0 0.42031902274246069 0.48552805734600057 0 0.43072905865294731 0.46311411437165317 0 0.44518446721829791 0.46873079822848901 0 0.42031902274246069 0.48552805734600057 0 0.43620850627812668 0.48062654530969717 0 0.44518446721829791 0.46873079822848901 0 0.42031902274246069 0.48552805734600057 0 0.42031902274246069 0.48552805734600057 0 0.43072905865294731 0.46311411437165317 0 0.41789473538963601 0.46705380048502582 0 0.44110505044236059 0.45564825146568327 0 0.43072905865294731 0.46311411437165317 0 0.43343701099378978 0.44857281610427868 0 0.43072905865294731 0.46311411437165317 0 0.43343701099378978 0.44857281610427868 0 0.42053980660522761 0.45341513910658388 0 0.43072905865294731 0.46311411437165317 0 0.41789473538963601 0.46705380048502582 0 0.42053980660522761 0.45341513910658388 0 0.43681876433844857 0.43497208046478802 0 0.43343701099378978 0.44857281610427868 0 0.42326813014219627 0.43909650749986368 0 0.43343701099378978 0.44857281610427868 0 0.42326813014219627 0.43909650749986368 0 0.42053980660522761 0.45341513910658388 0 0.41248490446316177 0.43293377153942381 0 0.42326813014219627 0.43909650749986368 0 0.41215324011006321 0.44426916471351768 0 0.42326813014219627 0.43909650749986368 0 0.41215324011006321 0.44426916471351768 0 0.42053980660522761 0.45341513910658388 0 0.41215324011006321 0.44426916471351768 0 0.42053980660522761 0.45341513910658388 0 0.40575666434273311 0.45838443146516472 0 0.41248490446316177 0.43293377153942381 0 0.41215324011006321 0.44426916471351768 0 0.39942544658573009 0.43872588670818857 0 0.40973563488985532 0.47579104778557152 0 0.41789473538963601 0.46705380048502582 0 0.40575666434273311 0.45838443146516472 0 0.41789473538963601 0.46705380048502582 0 0.42053980660522761 0.45341513910658388 0 0.40575666434273311 0.45838443146516472 0 0.40973563488985532 0.47579104778557152 0 0.40575666434273311 0.45838443146516472 0 0.39457326129307041 0.46924519202038539 0 0.40575666434273311 0.45838443146516472 0 0.38748492612950952 0.44892285829301931 0 0.39457326129307041 0.46924519202038539 0 0.40575666434273311 0.45838443146516472 0 0.39942544658573009 0.43872588670818857 0 0.38748492612950952 0.44892285829301931 0 0.3889231515195431 0.43141286456833011 0 0.39942544658573009 0.43872588670818857 0 0.38748492612950952 0.44892285829301931 0 0.41215324011006321 0.44426916471351768 0 0.40575666434273311 0.45838443146516472 0 0.39942544658573009 0.43872588670818857 0 0.36980735363827261 0.46050290225189661 0 0.36959298495063608 0.43610817863788948 0 0.38748492612950952 0.44892285829301931 0 0.36959298495063608 0.43610817863788948 0 0.3889231515195431 0.43141286456833011 0 0.38748492612950952 0.44892285829301931 0 0.36980735363827261 0.46050290225189661 0 0.38748492612950952 0.44892285829301931 0 0.39457326129307041 0.46924519202038539 0 0.36980735363827261 0.46050290225189661 0 0.37801407526051067 0.48065415083330842 0 0.39457326129307041 0.46924519202038539 0 0.37801407526051067 0.48065415083330842 0 0.38797204790529932 0.5 0 0.40134209412993838 0.48520307466421098 0 0.41743852268843429 0.5 0 0.38797204790529932 0.5 0 0.40134209412993838 0.48520307466421098 0 0.40973563488985532 0.47579104778557152 0 0.40134209412993838 0.48520307466421098 0 0.39457326129307041 0.46924519202038539 0 0.37801407526051067 0.48065415083330842 0 0.40134209412993838 0.48520307466421098 0 0.39457326129307041 0.46924519202038539 0 0.33471388977496319 0.083869725553476451 0 0.32003772732572838 0.080925826065863432 0 0.34163206045391592 0.099703108374672819 0 0.32003772732572838 0.080925826065863432 0 0.34163206045391592 0.099703108374672819 0 0.33471388977496319 0.083869725553476451 0 0.34163206045391592 0.099703108374672819 0 0.35085433501378249 0.086695181415402722 0 0.33471388977496319 0.083869725553476451 0 0.34209731100959018 0.06531632876058778 0 0.3490795063897344 0.076610282135673974 0 0.33471388977496319 0.083869725553476451 0 0.34209731100959018 0.06531632876058778 0 0.32721969837032222 0.069259436753723466 0 0.33471388977496319 0.083869725553476451 0 0.32721969837032222 0.069259436753723466 0 0.32003772732572838 0.080925826065863432 0 0.31518448171420999 0.065085558788002928 0 0.32721969837032222 0.069259436753723466 0 0.32003772732572838 0.080925826065863432 0 0.32003772732572838 0.080925826065863432 0 0.31657863646219547 0.093324099257994786 0 0.34163206045391592 0.099703108374672819 0 0.32003772732572838 0.080925826065863432 0 0.31657863646219547 0.093324099257994786 0 0.30227411453462139 0.089652133027170247 0 0.33471388977496319 0.083869725553476451 0 0.32003772732572838 0.080925826065863432 0 0.31657863646219547 0.093324099257994786 0 0.32025759602694659 0.1047776340902011 0 0.34163206045391592 0.099703108374672819 0 0.31657863646219547 0.093324099257994786 0 0.32025759602694659 0.1047776340902011 0 0.30640852481201453 0.1024735992044304 0 0.32025759602694659 0.1047776340902011 0 0.31114536757858358 0.11742006929579971 0 0.30640852481201453 0.1024735992044304 0 0.32606950933900308 0.1158177097477945 0 0.31114536757858358 0.11742006929579971 0 0.3195478300457561 0.1332621056988223 0 0.32025759602694659 0.1047776340902011 0 0.32606950933900308 0.1158177097477945 0 0.31114536757858358 0.11742006929579971 0 0.33761965874988609 0.1186889285033586 0 0.34163206045391592 0.099703108374672819 0 0.34956654336434939 0.1234914401014125 0 0.32606950933900308 0.1158177097477945 0 0.33761965874988609 0.1186889285033586 0 0.34163206045391592 0.099703108374672819 0 0.32606950933900308 0.1158177097477945 0 0.33761965874988609 0.1186889285033586 0 0.33436770153514289 0.13112975471366969 0 0.33761965874988609 0.1186889285033586 0 0.34956654336434939 0.1234914401014125 0 0.33436770153514289 0.13112975471366969 0 0.32025759602694659 0.1047776340902011 0 0.32606950933900308 0.1158177097477945 0 0.34163206045391592 0.099703108374672819 0 0.34163206045391592 0.099703108374672819 0 0.35755874922647762 0.098360434014750309 0 0.36322639358210312 0.11848039068348271 0 0.34163206045391592 0.099703108374672819 0 0.36322639358210312 0.11848039068348271 0 0.34163206045391592 0.099703108374672819 0 0.35755874922647762 0.098360434014750309 0 0.35085433501378249 0.086695181415402722 0 0.34163206045391592 0.099703108374672819 0 0.34956654336434939 0.1234914401014125 0 0.36322639358210312 0.11848039068348271 0 0.36322639358210312 0.11848039068348271 0 0.37045299287494049 0.09679375479102828 0 0.38005682511468147 0.12140739343396729 0 0.35755874922647762 0.098360434014750309 0 0.36322639358210312 0.11848039068348271 0 0.37045299287494049 0.09679375479102828 0 0.35755874922647762 0.098360434014750309 0 0.37045299287494049 0.09679375479102828 0 0.35979627253246887 0.087956112087811941 0 0.37045299287494049 0.09679375479102828 0 0.36986657419494789 0.075759843690150083 0 0.37682589963749002 0.081332762740894418 0 0.37045299287494049 0.09679375479102828 0 0.35979627253246887 0.087956112087811941 0 0.36084916063519962 0.072180116148089279 0 0.37045299287494049 0.09679375479102828 0 0.36084916063519962 0.072180116148089279 0 0.36986657419494789 0.075759843690150083 0 0.37045299287494049 0.09679375479102828 0 0.36084916063519962 0.072180116148089279 0 0.35755874922647762 0.098360434014750309 0 0.35979627253246887 0.087956112087811941 0 0.35085433501378249 0.086695181415402722 0 0.35979627253246887 0.087956112087811941 0 0.35560274156159061 0.081403828627082772 0 0.36084916063519962 0.072180116148089279 0 0.33471388977496319 0.083869725553476451 0 0.35085433501378249 0.086695181415402722 0 0.3490795063897344 0.076610282135673974 0 0.35979627253246887 0.087956112087811941 0 0.35560274156159061 0.081403828627082772 0 0.35085433501378249 0.086695181415402722 0 0.35560274156159061 0.081403828627082772 0 0.35085433501378249 0.086695181415402722 0 0.3490795063897344 0.076610282135673974 0 0.34209731100959018 0.06531632876058778 0 0.3490795063897344 0.076610282135673974 0 0.36084916063519962 0.072180116148089279 0 0.36448270712015302 0.068442951443566186 0 0.36084916063519962 0.072180116148089279 0 0.35124532839545858 0.047566477505150237 0 0.35560274156159061 0.081403828627082772 0 0.3490795063897344 0.076610282135673974 0 0.36084916063519962 0.072180116148089279 0 0.36448270712015302 0.068442951443566186 0 0.36084916063519962 0.072180116148089279 0 0.36986657419494789 0.075759843690150083 0 0.36986657419494789 0.075759843690150083 0 0.37596532967213542 0.069868995675824025 0 0.37682589963749002 0.081332762740894418 0 0.36448270712015302 0.068442951443566186 0 0.36986657419494789 0.075759843690150083 0 0.37084641292541748 0.06878424193773866 0 0.36986657419494789 0.075759843690150083 0 0.37084641292541748 0.06878424193773866 0 0.37596532967213542 0.069868995675824025 0 0.36448270712015302 0.068442951443566186 0 0.37084641292541748 0.06878424193773866 0 0.37307104071443398 0.061065176941414383 0 0.37084641292541748 0.06878424193773866 0 0.37307104071443398 0.061065176941414383 0 0.37596532967213542 0.069868995675824025 0 0.36448270712015302 0.068442951443566186 0 0.37307104071443398 0.061065176941414383 0 0.37146335928247548 0.04052602251159599 0 0.36448270712015302 0.068442951443566186 0 0.37146335928247548 0.04052602251159599 0 0.35124532839545858 0.047566477505150237 0 0.36448270712015302 0.068442951443566186 0 0.37146335928247548 0.04052602251159599 0 0.37146335928247548 0.04052602251159599 0 0.35572529983931911 0.032753521421585163 0 0.36312657459820519 0.022962182453169309 0 0.37146335928247548 0.04052602251159599 0 0.35572529983931911 0.032753521421585163 0 0.35124532839545858 0.047566477505150237 0 0.35572529983931911 0.032753521421585163 0 0.35124532839545858 0.047566477505150237 0 0.3321968515854315 0.028027004478648001 0 0.36084916063519962 0.072180116148089279 0 0.35124532839545858 0.047566477505150237 0 0.34209731100959018 0.06531632876058778 0 0.36084916063519962 0.072180116148089279 0 0.35124532839545858 0.047566477505150237 0 0.36312657459820519 0.022962182453169309 0 0.35936362748920009 0.0091271431172253586 0 0.37844401144479839 0.012609093579625891 0 0.35936362748920009 0.0091271431172253586 0 0.37844401144479839 0.012609093579625891 0 0.36665723294200347 -0.001883505129568449 0 0.35936362748920009 0.0091271431172253586 0 0.36665723294200347 -0.001883505129568449 0 0.35531676971978082 -0.0033532784323768001 0 0.37146335928247548 0.04052602251159599 0 0.36312657459820519 0.022962182453169309 0 0.37844401144479839 0.012609093579625891 0 0.37146335928247548 0.04052602251159599 0 0.37844401144479839 0.012609093579625891 0 0.35572529983931911 0.032753521421585163 0 0.35063657493523293 0.0197951316358141 0 0.3321968515854315 0.028027004478648001 0 0.35572529983931911 0.032753521421585163 0 0.36312657459820519 0.022962182453169309 0 0.35063657493523293 0.0197951316358141 0 0.36312657459820519 0.022962182453169309 0 0.35063657493523293 0.0197951316358141 0 0.35936362748920009 0.0091271431172253586 0 0.35936362748920009 0.0091271431172253586 0 0.33689267375143878 0.0039255003288513873 0 0.35531676971978082 -0.0033532784323768001 0 0.35063657493523293 0.0197951316358141 0 0.35936362748920009 0.0091271431172253586 0 0.33689267375143878 0.0039255003288513873 0 0.33689267375143878 0.0039255003288513873 0 0.3321968515854315 0.028027004478648001 0 0.30352242257352219 0.0039185454548519476 0 0.35063657493523293 0.0197951316358141 0 0.33689267375143878 0.0039255003288513873 0 0.3321968515854315 0.028027004478648001 0 0.3321968515854315 0.028027004478648001 0 0.32406508202711942 0.05109974460068676 0 0.30086563814790429 0.035038583275740692 0 0.34209731100959018 0.06531632876058778 0 0.32721969837032222 0.069259436753723466 0 0.32406508202711942 0.05109974460068676 0 0.34209731100959018 0.06531632876058778 0 0.35124532839545858 0.047566477505150237 0 0.32406508202711942 0.05109974460068676 0 0.35124532839545858 0.047566477505150237 0 0.3321968515854315 0.028027004478648001 0 0.32406508202711942 0.05109974460068676 0 0.31518448171420999 0.065085558788002928 0 0.32721969837032222 0.069259436753723466 0 0.32406508202711942 0.05109974460068676 0 0.31518448171420999 0.065085558788002928 0 0.32406508202711942 0.05109974460068676 0 0.29882370077581188 0.062479238108283437 0 0.32406508202711942 0.05109974460068676 0 0.29882370077581188 0.062479238108283437 0 0.30086563814790429 0.035038583275740692 0 0.32406508202711942 0.05109974460068676 0 0.30086563814790429 0.035038583275740692 0 0.30086563814790429 0.035038583275740692 0 0.28350496565293731 0.043820562147367653 0 0.27766619426868899 0.018977421950794569 0 0.29882370077581188 0.062479238108283437 0 0.30086563814790429 0.035038583275740692 0 0.28350496565293731 0.043820562147367653 0 0.29882370077581188 0.062479238108283437 0 0.28350496565293731 0.043820562147367653 0 0.28339325744793759 0.061338593161917712 0 0.3321968515854315 0.028027004478648001 0 0.30086563814790429 0.035038583275740692 0 0.30352242257352219 0.0039185454548519476 0 0.30086563814790429 0.035038583275740692 0 0.27766619426868899 0.018977421950794569 0 0.30086563814790429 0.035038583275740692 0 0.30352242257352219 0.0039185454548519476 0 0.27766619426868899 0.018977421950794569 0 0.30352242257352219 0.0039185454548519476 0 0.27766619426868899 0.018977421950794569 0 0.27708695819087842 -0.0025378708656911609 0 0.27766619426868899 0.018977421950794569 0 0.25446675038947358 0.0029162606258486688 0 0.27766619426868899 0.018977421950794569 0 0.26047117107291767 -0.0019720443344692288 0 0.27708695819087842 -0.0025378708656911609 0 0.27766619426868899 0.018977421950794569 0 0.2600935707136679 0.019574361616358959 0 0.26464981823601458 0.038183209123269009 0 0.2600935707136679 0.019574361616358959 0 0.26464981823601458 0.038183209123269009 0 0.25044211127373811 0.032849993626191502 0 0.27766619426868899 0.018977421950794569 0 0.2600935707136679 0.019574361616358959 0 0.25446675038947358 0.0029162606258486688 0 0.27766619426868899 0.018977421950794569 0 0.25446675038947358 0.0029162606258486688 0 0.26047117107291767 -0.0019720443344692288 0 0.25446675038947358 0.0029162606258486688 0 0.26047117107291767 -0.0019720443344692288 0 0.28339325744793759 0.061338593161917712 0 0.2699795556074106 0.054659435659755229 0 0.26514968559830832 0.069915803624621298 0 0.28350496565293731 0.043820562147367653 0 0.28339325744793759 0.061338593161917712 0 0.2699795556074106 0.054659435659755229 0 0.28350496565293731 0.043820562147367653 0 0.27766619426868899 0.018977421950794569 0 0.26464981823601458 0.038183209123269009 0 0.28350496565293731 0.043820562147367653 0 0.2699795556074106 0.054659435659755229 0 0.26464981823601458 0.038183209123269009 0 0.26464981823601458 0.038183209123269009 0 0.25174039047255609 0.044464402284776217 0 0.2585751734657834 0.052327775232976027 0 0.26464981823601458 0.038183209123269009 0 0.25044211127373811 0.032849993626191502 0 0.25174039047255609 0.044464402284776217 0 0.25174039047255609 0.044464402284776217 0 0.25102243244437311 0.053297338652025752 0 0.2585751734657834 0.052327775232976027 0 0.2699795556074106 0.054659435659755229 0 0.26464981823601458 0.038183209123269009 0 0.2585751734657834 0.052327775232976027 0 0.2699795556074106 0.054659435659755229 0 0.2585751734657834 0.052327775232976027 0 0.26000268679747079 0.061003988239662958 0 0.2699795556074106 0.054659435659755229 0 0.26000268679747079 0.061003988239662958 0 0.26514968559830832 0.069915803624621298 0 0.2585751734657834 0.052327775232976027 0 0.26000268679747079 0.061003988239662958 0 0.2530174900015254 0.0600809219264858 0 0.25102243244437311 0.053297338652025752 0 0.2585751734657834 0.052327775232976027 0 0.2530174900015254 0.0600809219264858 0 0.24751669685985911 0.059618880130872708 0 0.25102243244437311 0.053297338652025752 0 0.2530174900015254 0.0600809219264858 0 0.24853219730195361 0.063845178725116872 0 0.2530174900015254 0.0600809219264858 0 0.25274476311700622 0.067427493409812952 0 0.2530174900015254 0.0600809219264858 0 0.25274476311700622 0.067427493409812952 0 0.26000268679747079 0.061003988239662958 0 0.2530174900015254 0.0600809219264858 0 0.25274476311700622 0.067427493409812952 0 0.25274476311700622 0.067427493409812952 0 0.25243039498113262 0.075895774732197205 0 0.24842415088314279 0.069033451464499671 0 0.25274476311700622 0.067427493409812952 0 0.25243039498113262 0.075895774732197205 0 0.25274476311700622 0.067427493409812952 0 0.25243039498113262 0.075895774732197205 0 0.26514968559830832 0.069915803624621298 0 0.25243039498113262 0.075895774732197205 0 0.26514968559830832 0.069915803624621298 0 0.26417250328098718 0.085299079350852347 0 0.25243039498113262 0.075895774732197205 0 0.26514968559830832 0.069915803624621298 0 0.26000268679747079 0.061003988239662958 0 0.25274476311700622 0.067427493409812952 0 0.26514968559830832 0.069915803624621298 0 0.25274476311700622 0.067427493409812952 0 0.26514968559830832 0.069915803624621298 0 0.25243039498113262 0.075895774732197205 0 0.26417250328098718 0.085299079350852347 0 0.25158482098595109 0.098673396421397969 0 0.25243039498113262 0.075895774732197205 0 0.25158482098595109 0.098673396421397969 0 0.26417250328098718 0.085299079350852347 0 0.27563544099652842 0.091217529053328833 0 0.26597619666038957 0.098681263799979324 0 0.26417250328098718 0.085299079350852347 0 0.27658940398852799 0.081360569412953818 0 0.27563544099652842 0.091217529053328833 0 0.26514968559830832 0.069915803624621298 0 0.26417250328098718 0.085299079350852347 0 0.27658940398852799 0.081360569412953818 0 0.27658940398852799 0.081360569412953818 0 0.27563544099652842 0.091217529053328833 0 0.28742128170162778 0.087331448045782731 0 0.28339325744793759 0.061338593161917712 0 0.26514968559830832 0.069915803624621298 0 0.29259370646201821 0.075420814845242989 0 0.26514968559830832 0.069915803624621298 0 0.27658940398852799 0.081360569412953818 0 0.29259370646201821 0.075420814845242989 0 0.28339325744793759 0.061338593161917712 0 0.26514968559830832 0.069915803624621298 0 0.26514968559830832 0.069915803624621298 0 0.29259370646201821 0.075420814845242989 0 0.29882370077581188 0.062479238108283437 0 0.28339325744793759 0.061338593161917712 0 0.29259370646201821 0.075420814845242989 0 0.27658940398852799 0.081360569412953818 0 0.29259370646201821 0.075420814845242989 0 0.28742128170162778 0.087331448045782731 0 0.27563544099652842 0.091217529053328833 0 0.28742128170162778 0.087331448045782731 0 0.29001374252644291 0.099006193890217781 0 0.28742128170162778 0.087331448045782731 0 0.30227411453462139 0.089652133027170247 0 0.29001374252644291 0.099006193890217781 0 0.29259370646201821 0.075420814845242989 0 0.28742128170162778 0.087331448045782731 0 0.30227411453462139 0.089652133027170247 0 0.32003772732572838 0.080925826065863432 0 0.29259370646201821 0.075420814845242989 0 0.30227411453462139 0.089652133027170247 0 0.32003772732572838 0.080925826065863432 0 0.29259370646201821 0.075420814845242989 0 0.32003772732572838 0.080925826065863432 0 0.29882370077581188 0.062479238108283437 0 0.29259370646201821 0.075420814845242989 0 0.32003772732572838 0.080925826065863432 0 0.29882370077581188 0.062479238108283437 0 0.31518448171420999 0.065085558788002928 0 0.32003772732572838 0.080925826065863432 0 0.29882370077581188 0.062479238108283437 0 0.29818169174329712 0.11066146566519899 0 0.31114536757858358 0.11742006929579971 0 0.294250496481684 0.12267566802032639 0 0.31114536757858358 0.11742006929579971 0 0.294250496481684 0.12267566802032639 0 0.30313841955192899 0.13260249050964579 0 0.29818169174329712 0.11066146566519899 0 0.31114536757858358 0.11742006929579971 0 0.30640852481201453 0.1024735992044304 0 0.30227411453462139 0.089652133027170247 0 0.30640852481201453 0.1024735992044304 0 0.29001374252644291 0.099006193890217781 0 0.29818169174329712 0.11066146566519899 0 0.30640852481201453 0.1024735992044304 0 0.29001374252644291 0.099006193890217781 0 0.31657863646219547 0.093324099257994786 0 0.30227411453462139 0.089652133027170247 0 0.30640852481201453 0.1024735992044304 0 0.29818169174329712 0.11066146566519899 0 0.29001374252644291 0.099006193890217781 0 0.28729541733308872 0.1128284558108848 0 0.29001374252644291 0.099006193890217781 0 0.28729541733308872 0.1128284558108848 0 0.27577858748266387 0.1072301355245756 0 0.29818169174329712 0.11066146566519899 0 0.28729541733308872 0.1128284558108848 0 0.294250496481684 0.12267566802032639 0 0.28729541733308872 0.1128284558108848 0 0.294250496481684 0.12267566802032639 0 0.28067449336876182 0.1220521091494646 0 0.28067449336876182 0.1220521091494646 0 0.26956705708048567 0.1198361090660386 0 0.27577858748266387 0.1072301355245756 0 0.28729541733308872 0.1128284558108848 0 0.28067449336876182 0.1220521091494646 0 0.27577858748266387 0.1072301355245756 0 0.26956705708048567 0.1198361090660386 0 0.27577858748266387 0.1072301355245756 0 0.26270963055581759 0.11098617864974181 0 0.27563544099652842 0.091217529053328833 0 0.27577858748266387 0.1072301355245756 0 0.26597619666038957 0.098681263799979324 0 0.27563544099652842 0.091217529053328833 0 0.29001374252644291 0.099006193890217781 0 0.27577858748266387 0.1072301355245756 0 0.27577858748266387 0.1072301355245756 0 0.26597619666038957 0.098681263799979324 0 0.26270963055581759 0.11098617864974181 0 0.25158482098595109 0.098673396421397969 0 0.25094552198087999 0.11589449234768209 0 0.25158482098595109 0.098673396421397969 0 0.26270963055581759 0.11098617864974181 0 0.25094552198087999 0.11589449234768209 0 0.26417250328098718 0.085299079350852347 0 0.26597619666038957 0.098681263799979324 0 0.25158482098595109 0.098673396421397969 0 0.26597619666038957 0.098681263799979324 0 0.25158482098595109 0.098673396421397969 0 0.26270963055581759 0.11098617864974181 0 0.25158482098595109 0.098673396421397969 0 0.26270963055581759 0.11098617864974181 0 0.25094552198087999 0.11589449234768209 0 0.25030622297580962 0.13311558827396619 0 0.26022612795132161 0.12333036834530881 0 0.25094552198087999 0.11589449234768209 0 0.25030622297580962 0.13311558827396619 0 0.26956705708048567 0.1198361090660386 0 0.26022612795132161 0.12333036834530881 0 0.26270963055581759 0.11098617864974181 0 0.26022612795132161 0.12333036834530881 0 0.26270963055581759 0.11098617864974181 0 0.25094552198087999 0.11589449234768209 0 0.26956705708048567 0.1198361090660386 0 0.26022612795132161 0.12333036834530881 0 0.26675796828336718 0.1380571931171293 0 0.26022612795132161 0.12333036834530881 0 0.25030622297580962 0.13311558827396619 0 0.26675796828336718 0.1380571931171293 0 0.25030622297580962 0.13311558827396619 0 0.26675796828336718 0.1380571931171293 0 0.25030622297580962 0.13311558827396619 0 0.26675796828336718 0.1380571931171293 0 0.25638724149227848 0.14295410589973731 0 0.25004344172447263 0.14019424959050239 0 0.25030622297580962 0.13311558827396619 0 0.25638724149227848 0.14295410589973731 0 0.25004344172447263 0.14019424959050239 0 0.25030622297580962 0.13311558827396619 0 0.26675796828336718 0.1380571931171293 0 0.28320971359092417 0.1429987979602943 0 0.26675796828336718 0.1380571931171293 0 0.28666270206708028 0.1324408374186071 0 0.28320971359092417 0.1429987979602943 0 0.28067449336876182 0.1220521091494646 0 0.26956705708048567 0.1198361090660386 0 0.26675796828336718 0.1380571931171293 0 0.28067449336876182 0.1220521091494646 0 0.26675796828336718 0.1380571931171293 0 0.28666270206708028 0.1324408374186071 0 0.26675796828336718 0.1380571931171293 0 0.27436529468354132 0.15433220537778311 0 0.26010861073109098 0.15248373785575309 0 0.26675796828336718 0.1380571931171293 0 0.27436529468354132 0.15433220537778311 0 0.28320971359092417 0.1429987979602943 0 0.26675796828336718 0.1380571931171293 0 0.26010861073109098 0.15248373785575309 0 0.25638724149227848 0.14295410589973731 0 0.2496536413094039 0.15044712256699261 0 0.25004344172447263 0.14019424959050239 0 0.25638724149227848 0.14295410589973731 0 0.24653130607993951 0.16237692388552691 0 0.2496536413094039 0.15044712256699261 0 0.26010861073109098 0.15248373785575309 0 0.2496536413094039 0.15044712256699261 0 0.26010861073109098 0.15248373785575309 0 0.25638724149227848 0.14295410589973731 0 0.24653130607993951 0.16237692388552691 0 0.25292738168467233 0.17649485219682931 0 0.26638423851283249 0.16867758561061549 0 0.24653130607993951 0.16237692388552691 0 0.26010861073109098 0.15248373785575309 0 0.26638423851283249 0.16867758561061549 0 0.24528107816237801 0.1907036486386274 0 0.25292738168467233 0.17649485219682931 0 0.26633433714882182 0.18577592949096661 0 0.25292738168467233 0.17649485219682931 0 0.26633433714882182 0.18577592949096661 0 0.26638423851283249 0.16867758561061549 0 0.27723266788850742 0.181048228772968 0 0.26638423851283249 0.16867758561061549 0 0.28391425324491287 0.17071999404263091 0 0.26633433714882182 0.18577592949096661 0 0.27723266788850742 0.181048228772968 0 0.26638423851283249 0.16867758561061549 0 0.27436529468354132 0.15433220537778311 0 0.26010861073109098 0.15248373785575309 0 0.26638423851283249 0.16867758561061549 0 0.27436529468354132 0.15433220537778311 0 0.26638423851283249 0.16867758561061549 0 0.28391425324491287 0.17071999404263091 0 0.27436529468354132 0.15433220537778311 0 0.28391425324491287 0.17071999404263091 0 0.29097703849613438 0.15773848939083679 0 0.28391425324491287 0.17071999404263091 0 0.2931647794093819 0.16879209887591959 0 0.29097703849613438 0.15773848939083679 0 0.2931647794093819 0.16879209887591959 0 0.29097703849613438 0.15773848939083679 0 0.30040947706207388 0.16512632217721829 0 0.28391425324491287 0.17071999404263091 0 0.28743664533084129 0.187357279865842 0 0.29743995151898561 0.17866098634217961 0 0.27723266788850742 0.181048228772968 0 0.28391425324491287 0.17071999404263091 0 0.28743664533084129 0.187357279865842 0 0.28391425324491287 0.17071999404263091 0 0.2931647794093819 0.16879209887591959 0 0.29743995151898561 0.17866098634217961 0 0.28743664533084129 0.187357279865842 0 0.29743995151898561 0.17866098634217961 0 0.29971043857951379 0.19298806906372529 0 0.29743995151898561 0.17866098634217961 0 0.30929675685570829 0.1858318568065235 0 0.29971043857951379 0.19298806906372529 0 0.29743995151898561 0.17866098634217961 0 0.3101655001798202 0.17563615506282959 0 0.30040947706207388 0.16512632217721829 0 0.29743995151898561 0.17866098634217961 0 0.3101655001798202 0.17563615506282959 0 0.30929675685570829 0.1858318568065235 0 0.30040947706207388 0.16512632217721829 0 0.30453528129870422 0.15487579661148021 0 0.32848741365188411 0.1727716232507491 0 0.29097703849613438 0.15773848939083679 0 0.30040947706207388 0.16512632217721829 0 0.30453528129870422 0.15487579661148021 0 0.2931647794093819 0.16879209887591959 0 0.29743995151898561 0.17866098634217961 0 0.30040947706207388 0.16512632217721829 0 0.29097703849613438 0.15773848939083679 0 0.30453528129870422 0.15487579661148021 0 0.29618567382365713 0.14404403195872001 0 0.30453528129870422 0.15487579661148021 0 0.30873747279203018 0.14281046260302349 0 0.29618567382365713 0.14404403195872001 0 0.30453528129870422 0.15487579661148021 0 0.30873747279203018 0.14281046260302349 0 0.32007589174333823 0.14676000458717811 0 0.30873747279203018 0.14281046260302349 0 0.30313841955192899 0.13260249050964579 0 0.3195478300457561 0.1332621056988223 0 0.31114536757858358 0.11742006929579971 0 0.30313841955192899 0.13260249050964579 0 0.3195478300457561 0.1332621056988223 0 0.30873747279203018 0.14281046260302349 0 0.30313841955192899 0.13260249050964579 0 0.29618567382365713 0.14404403195872001 0 0.294250496481684 0.12267566802032639 0 0.30313841955192899 0.13260249050964579 0 0.28666270206708028 0.1324408374186071 0 0.30313841955192899 0.13260249050964579 0 0.28666270206708028 0.1324408374186071 0 0.29618567382365713 0.14404403195872001 0 0.294250496481684 0.12267566802032639 0 0.28067449336876182 0.1220521091494646 0 0.28666270206708028 0.1324408374186071 0 0.28666270206708028 0.1324408374186071 0 0.28320971359092417 0.1429987979602943 0 0.29618567382365713 0.14404403195872001 0 0.27436529468354132 0.15433220537778311 0 0.29097703849613438 0.15773848939083679 0 0.28320971359092417 0.1429987979602943 0 0.29097703849613438 0.15773848939083679 0 0.28320971359092417 0.1429987979602943 0 0.29618567382365713 0.14404403195872001 0 0.28119448123381058 0.25405304303149878 0 0.26221447651104962 0.2479993693513689 0 0.28440499104296979 0.23439140090611099 0 0.26221447651104962 0.2479993693513689 0 0.26853130556434218 0.23400660741274959 0 0.28440499104296979 0.23439140090611099 0 0.26221447651104962 0.2479993693513689 0 0.28440499104296979 0.23439140090611099 0 0.2457442494512444 0.24022391879071339 0 0.26221447651104962 0.2479993693513689 0 0.25511338863332461 0.22468137717712711 0 0.26221447651104962 0.2479993693513689 0 0.25511338863332461 0.22468137717712711 0 0.26853130556434218 0.23400660741274959 0 0.26221447651104962 0.2479993693513689 0 0.25511338863332461 0.22468137717712711 0 0.25511338863332461 0.22468137717712711 0 0.25242827713160498 0.21540237912569379 0 0.25511338863332461 0.22468137717712711 0 0.2794126892910288 0.21617120911671081 0 0.25511338863332461 0.22468137717712711 0 0.26853130556434218 0.23400660741274959 0 0.2794126892910288 0.21617120911671081 0 0.26853130556434218 0.23400660741274959 0 0.2794126892910288 0.21617120911671081 0 0.28440499104296979 0.23439140090611099 0 0.25511338863332461 0.22468137717712711 0 0.2794126892910288 0.21617120911671081 0 0.26644318031571418 0.20408753099865831 0 0.2794126892910288 0.21617120911671081 0 0.26644318031571418 0.20408753099865831 0 0.27722953884408802 0.19656269719262509 0 0.24528107816237801 0.1907036486386274 0 0.26644318031571418 0.20408753099865831 0 0.25242827713160498 0.21540237912569379 0 0.25511338863332461 0.22468137717712711 0 0.26644318031571418 0.20408753099865831 0 0.25242827713160498 0.21540237912569379 0 0.26644318031571418 0.20408753099865831 0 0.25242827713160498 0.21540237912569379 0 0.24528107816237801 0.1907036486386274 0 0.26633433714882182 0.18577592949096661 0 0.26644318031571418 0.20408753099865831 0 0.26633433714882182 0.18577592949096661 0 0.26644318031571418 0.20408753099865831 0 0.27722953884408802 0.19656269719262509 0 0.27723266788850742 0.181048228772968 0 0.28743664533084129 0.187357279865842 0 0.27722953884408802 0.19656269719262509 0 0.26633433714882182 0.18577592949096661 0 0.27723266788850742 0.181048228772968 0 0.27722953884408802 0.19656269719262509 0 0.28743664533084129 0.187357279865842 0 0.27722953884408802 0.19656269719262509 0 0.28939512316467059 0.2005252056429343 0 0.28743664533084129 0.187357279865842 0 0.28939512316467059 0.2005252056429343 0 0.29971043857951379 0.19298806906372529 0 0.30929675685570829 0.1858318568065235 0 0.29971043857951379 0.19298806906372529 0 0.31162694501442678 0.19735313208654229 0 0.29971043857951379 0.19298806906372529 0 0.31162694501442678 0.19735313208654229 0 0.30371198994873311 0.20766104105629449 0 0.28939512316467059 0.2005252056429343 0 0.29971043857951379 0.19298806906372529 0 0.30371198994873311 0.20766104105629449 0 0.2794126892910288 0.21617120911671081 0 0.30371198994873311 0.20766104105629449 0 0.2794126892910288 0.21617120911671081 0 0.30371198994873311 0.20766104105629449 0 0.30659550557489001 0.220783432460853 0 0.2794126892910288 0.21617120911671081 0 0.27722953884408802 0.19656269719262509 0 0.28939512316467059 0.2005252056429343 0 0.2794126892910288 0.21617120911671081 0 0.28939512316467059 0.2005252056429343 0 0.30371198994873311 0.20766104105629449 0 0.30659550557489001 0.220783432460853 0 0.28440499104296979 0.23439140090611099 0 0.2794126892910288 0.21617120911671081 0 0.30659550557489001 0.220783432460853 0 0.28440499104296979 0.23439140090611099 0 0.30659550557489001 0.220783432460853 0 0.30328699804120918 0.24394477185791469 0 0.28440499104296979 0.23439140090611099 0 0.30659550557489001 0.220783432460853 0 0.30328699804120918 0.24394477185791469 0 0.31607427666693672 0.2331905299380852 0 0.28119448123381058 0.25405304303149878 0 0.30328699804120918 0.24394477185791469 0 0.28440499104296979 0.23439140090611099 0 0.3433555784436142 0.25004320974280247 0 0.34183468199228573 0.23727684870966961 0 0.33092809789354199 0.24744869965648561 0 0.34183468199228573 0.23727684870966961 0 0.3288410404878227 0.2348757256337824 0 0.33092809789354199 0.24744869965648561 0 0.3288410404878227 0.2348757256337824 0 0.33092809789354199 0.24744869965648561 0 0.31845456220733243 0.24449663650262579 0 0.31879452400631653 0.25919465198291952 0 0.30328699804120918 0.24394477185791469 0 0.31845456220733243 0.24449663650262579 0 0.30328699804120918 0.24394477185791469 0 0.31845456220733243 0.24449663650262579 0 0.31607427666693672 0.2331905299380852 0 0.3288410404878227 0.2348757256337824 0 0.31845456220733243 0.24449663650262579 0 0.31607427666693672 0.2331905299380852 0 0.3288410404878227 0.2348757256337824 0 0.31607427666693672 0.2331905299380852 0 0.32372534117020862 0.22390137225637691 0 0.30659550557489001 0.220783432460853 0 0.31607427666693672 0.2331905299380852 0 0.32372534117020862 0.22390137225637691 0 0.3288410404878227 0.2348757256337824 0 0.32372534117020862 0.22390137225637691 0 0.33832986301458301 0.22348170923356889 0 0.34183468199228573 0.23727684870966961 0 0.3288410404878227 0.2348757256337824 0 0.33832986301458301 0.22348170923356889 0 0.32372534117020862 0.22390137225637691 0 0.33832986301458301 0.22348170923356889 0 0.32878602010681029 0.20717546401559489 0 0.33832986301458301 0.22348170923356889 0 0.32878602010681029 0.20717546401559489 0 0.35089693608391498 0.21212819010674691 0 0.32878602010681029 0.20717546401559489 0 0.35097653463873058 0.19356749557033681 0 0.35089693608391498 0.21212819010674691 0 0.30659550557489001 0.220783432460853 0 0.32372534117020862 0.22390137225637691 0 0.32878602010681029 0.20717546401559489 0 0.31162694501442678 0.19735313208654229 0 0.30371198994873311 0.20766104105629449 0 0.32878602010681029 0.20717546401559489 0 0.30371198994873311 0.20766104105629449 0 0.30659550557489001 0.220783432460853 0 0.32878602010681029 0.20717546401559489 0 0.30659550557489001 0.220783432460853 0 0.32878602010681029 0.20717546401559489 0 0.32878602010681029 0.20717546401559489 0 0.31972446529152482 0.19052244909679969 0 0.3336272658304279 0.18895925974375941 0 0.31162694501442678 0.19735313208654229 0 0.32878602010681029 0.20717546401559489 0 0.31972446529152482 0.19052244909679969 0 0.30929675685570829 0.1858318568065235 0 0.31162694501442678 0.19735313208654229 0 0.31972446529152482 0.19052244909679969 0 0.32878602010681029 0.20717546401559489 0 0.3336272658304279 0.18895925974375941 0 0.35097653463873058 0.19356749557033681 0 0.32878602010681029 0.20717546401559489 0 0.35097653463873058 0.19356749557033681 0 0.3336272658304279 0.18895925974375941 0 0.35097653463873058 0.19356749557033681 0 0.35656535024169428 0.1804169243242798 0 0.35097653463873058 0.19356749557033681 0 0.35896651107905142 0.20360726904620211 0 0.35089693608391498 0.21212819010674691 0 0.35097653463873058 0.19356749557033681 0 0.36405518175537521 0.19484170215684679 0 0.35896651107905142 0.20360726904620211 0 0.35097653463873058 0.19356749557033681 0 0.36405518175537521 0.19484170215684679 0 0.35656535024169428 0.1804169243242798 0 0.36405518175537521 0.19484170215684679 0 0.35656535024169428 0.1804169243242798 0 0.38464328683150451 0.18806222539781059 0 0.36405518175537521 0.19484170215684679 0 0.36923798170140371 0.20928007436804161 0 0.38464328683150451 0.18806222539781059 0 0.36405518175537521 0.19484170215684679 0 0.36923798170140371 0.20928007436804161 0 0.35896651107905142 0.20360726904620211 0 0.36923798170140371 0.20928007436804161 0 0.36132702422268731 0.21787493872225441 0 0.35896651107905142 0.20360726904620211 0 0.36923798170140371 0.20928007436804161 0 0.36132702422268731 0.21787493872225441 0 0.37292139258550783 0.22672254500020811 0 0.36132702422268731 0.21787493872225441 0 0.35896651107905142 0.20360726904620211 0 0.35089693608391498 0.21212819010674691 0 0.34183468199228573 0.23727684870966961 0 0.33832986301458301 0.22348170923356889 0 0.35524969613090918 0.22837961108452459 0 0.36132702422268731 0.21787493872225441 0 0.35089693608391498 0.21212819010674691 0 0.35524969613090918 0.22837961108452459 0 0.33832986301458301 0.22348170923356889 0 0.35089693608391498 0.21212819010674691 0 0.35524969613090918 0.22837961108452459 0 0.36132702422268731 0.21787493872225441 0 0.35524969613090918 0.22837961108452459 0 0.37292139258550783 0.22672254500020811 0 0.35524969613090918 0.22837961108452459 0 0.37292139258550783 0.22672254500020811 0 0.36587213359177301 0.2378375665458646 0 0.37292139258550783 0.22672254500020811 0 0.36587213359177301 0.2378375665458646 0 0.3757768555661396 0.240133652284411 0 0.36587213359177301 0.2378375665458646 0 0.37169426656027921 0.24972740256563611 0 0.3757768555661396 0.240133652284411 0 0.36587213359177301 0.2378375665458646 0 0.37169426656027921 0.24972740256563611 0 0.36205361842742478 0.24882498742118489 0 0.36587213359177301 0.2378375665458646 0 0.36205361842742478 0.24882498742118489 0 0.35356337405553911 0.24205426642971811 0 0.35175757775775729 0.2532797976346674 0 0.36205361842742478 0.24882498742118489 0 0.35356337405553911 0.24205426642971811 0 0.35524969613090918 0.22837961108452459 0 0.36587213359177301 0.2378375665458646 0 0.35356337405553911 0.24205426642971811 0 0.34183468199228573 0.23727684870966961 0 0.35524969613090918 0.22837961108452459 0 0.35356337405553911 0.24205426642971811 0 0.3433555784436142 0.25004320974280247 0 0.34183468199228573 0.23727684870966961 0 0.35356337405553911 0.24205426642971811 0 0.3433555784436142 0.25004320974280247 0 0.35175757775775729 0.2532797976346674 0 0.35356337405553911 0.24205426642971811 0 0.33379856680907583 0.1437068241164389 0 0.32007589174333823 0.14676000458717811 0 0.33365817402274128 0.15789089208148979 0 0.33379856680907583 0.1437068241164389 0 0.33365817402274128 0.15789089208148979 0 0.34780073530519279 0.14835628742565241 0 0.33379856680907583 0.1437068241164389 0 0.34780073530519279 0.14835628742565241 0 0.34586764947947463 0.1362539899128139 0 0.33379856680907583 0.1437068241164389 0 0.33436770153514289 0.13112975471366969 0 0.34586764947947463 0.1362539899128139 0 0.34956654336434939 0.1234914401014125 0 0.33436770153514289 0.13112975471366969 0 0.34586764947947463 0.1362539899128139 0 0.33379856680907583 0.1437068241164389 0 0.33436770153514289 0.13112975471366969 0 0.3195478300457561 0.1332621056988223 0 0.32606950933900308 0.1158177097477945 0 0.33436770153514289 0.13112975471366969 0 0.3195478300457561 0.1332621056988223 0 0.30873747279203018 0.14281046260302349 0 0.3195478300457561 0.1332621056988223 0 0.32007589174333823 0.14676000458717811 0 0.30453528129870422 0.15487579661148021 0 0.32007589174333823 0.14676000458717811 0 0.33365817402274128 0.15789089208148979 0 0.33379856680907583 0.1437068241164389 0 0.3195478300457561 0.1332621056988223 0 0.32007589174333823 0.14676000458717811 0 0.30453528129870422 0.15487579661148021 0 0.33365817402274128 0.15789089208148979 0 0.30453528129870422 0.15487579661148021 0 0.32848741365188411 0.1727716232507491 0 0.33365817402274128 0.15789089208148979 0 0.30040947706207388 0.16512632217721829 0 0.32848741365188411 0.1727716232507491 0 0.3101655001798202 0.17563615506282959 0 0.30040947706207388 0.16512632217721829 0 0.32848741365188411 0.1727716232507491 0 0.3101655001798202 0.17563615506282959 0 0.31983557186529732 0.18171103000860481 0 0.32848741365188411 0.1727716232507491 0 0.3336272658304279 0.18895925974375941 0 0.31983557186529732 0.18171103000860481 0 0.32848741365188411 0.1727716232507491 0 0.3101655001798202 0.17563615506282959 0 0.30929675685570829 0.1858318568065235 0 0.31983557186529732 0.18171103000860481 0 0.30929675685570829 0.1858318568065235 0 0.31972446529152482 0.19052244909679969 0 0.31983557186529732 0.18171103000860481 0 0.31972446529152482 0.19052244909679969 0 0.3336272658304279 0.18895925974375941 0 0.31983557186529732 0.18171103000860481 0 0.32848741365188411 0.1727716232507491 0 0.34507730906385942 0.16855187839241309 0 0.35656535024169428 0.1804169243242798 0 0.3336272658304279 0.18895925974375941 0 0.32848741365188411 0.1727716232507491 0 0.35656535024169428 0.1804169243242798 0 0.32848741365188411 0.1727716232507491 0 0.35656535024169428 0.1804169243242798 0 0.32848741365188411 0.1727716232507491 0 0.33365817402274128 0.15789089208148979 0 0.34507730906385942 0.16855187839241309 0 0.33365817402274128 0.15789089208148979 0 0.34507730906385942 0.16855187839241309 0 0.36278106674677829 0.1609059875514994 0 0.34507730906385942 0.16855187839241309 0 0.35656535024169428 0.1804169243242798 0 0.36278106674677829 0.1609059875514994 0 0.33365817402274128 0.15789089208148979 0 0.36278106674677829 0.1609059875514994 0 0.35656535024169428 0.1804169243242798 0 0.37356219856206202 0.1741215612114578 0 0.38464328683150451 0.18806222539781059 0 0.35656535024169428 0.1804169243242798 0 0.38464328683150451 0.18806222539781059 0 0.35656535024169428 0.1804169243242798 0 0.37356219856206202 0.1741215612114578 0 0.36278106674677829 0.1609059875514994 0 0.36278106674677829 0.1609059875514994 0 0.36531512046589693 0.1378839500987098 0 0.37680076681991098 0.15092733218095339 0 0.36278106674677829 0.1609059875514994 0 0.34780073530519279 0.14835628742565241 0 0.36531512046589693 0.1378839500987098 0 0.34780073530519279 0.14835628742565241 0 0.34586764947947463 0.1362539899128139 0 0.36531512046589693 0.1378839500987098 0 0.33365817402274128 0.15789089208148979 0 0.36278106674677829 0.1609059875514994 0 0.34780073530519279 0.14835628742565241 0 0.34956654336434939 0.1234914401014125 0 0.34586764947947463 0.1362539899128139 0 0.36531512046589693 0.1378839500987098 0 0.34956654336434939 0.1234914401014125 0 0.36322639358210312 0.11848039068348271 0 0.36531512046589693 0.1378839500987098 0 0.36322639358210312 0.11848039068348271 0 0.36531512046589693 0.1378839500987098 0 0.38482072671029011 0.13725767299229241 0 0.36322639358210312 0.11848039068348271 0 0.38482072671029011 0.13725767299229241 0 0.36322639358210312 0.11848039068348271 0 0.38482072671029011 0.13725767299229241 0 0.38005682511468147 0.12140739343396729 0 0.38482072671029011 0.13725767299229241 0 0.39398634319161102 0.12556361147638159 0 0.38005682511468147 0.12140739343396729 0 0.38482072671029011 0.13725767299229241 0 0.39398634319161102 0.12556361147638159 0 0.40386822996399702 0.1370092008917044 0 0.39398634319161102 0.12556361147638159 0 0.40386822996399702 0.1370092008917044 0 0.40630256149234217 0.12337914253670321 0 0.38482072671029011 0.13725767299229241 0 0.40641505983847698 0.15603495530110209 0 0.38482072671029011 0.13725767299229241 0 0.40386822996399702 0.1370092008917044 0 0.40641505983847698 0.15603495530110209 0 0.38482072671029011 0.13725767299229241 0 0.39190395947081519 0.16392108302150901 0 0.40641505983847698 0.15603495530110209 0 0.36531512046589693 0.1378839500987098 0 0.38482072671029011 0.13725767299229241 0 0.37680076681991098 0.15092733218095339 0 0.38482072671029011 0.13725767299229241 0 0.37680076681991098 0.15092733218095339 0 0.39190395947081519 0.16392108302150901 0 0.36278106674677829 0.1609059875514994 0 0.39190395947081519 0.16392108302150901 0 0.36278106674677829 0.1609059875514994 0 0.37680076681991098 0.15092733218095339 0 0.39190395947081519 0.16392108302150901 0 0.37356219856206202 0.1741215612114578 0 0.36278106674677829 0.1609059875514994 0 0.39190395947081519 0.16392108302150901 0 0.37356219856206202 0.1741215612114578 0 0.39190395947081519 0.16392108302150901 0 0.38464328683150451 0.18806222539781059 0 0.4059128807594603 0.17981630131623391 0 0.39190395947081519 0.16392108302150901 0 0.38464328683150451 0.18806222539781059 0 0.39190395947081519 0.16392108302150901 0 0.42102685219485209 0.16693617849151851 0 0.40641505983847698 0.15603495530110209 0 0.4059128807594603 0.17981630131623391 0 0.39190395947081519 0.16392108302150901 0 0.42102685219485209 0.16693617849151851 0 0.42102685219485209 0.16693617849151851 0 0.40641505983847698 0.15603495530110209 0 0.41490094777653419 0.14712571815411829 0 0.39190395947081519 0.16392108302150901 0 0.42102685219485209 0.16693617849151851 0 0.4059128807594603 0.17981630131623391 0 0.42102685219485209 0.16693617849151851 0 0.42759287120751482 0.1799189573059411 0 0.4059128807594603 0.17981630131623391 0 0.42759287120751482 0.1799189573059411 0 0.42045703890892938 0.19185412915784311 0 0.42102685219485209 0.16693617849151851 0 0.42759287120751482 0.1799189573059411 0 0.45014974491888898 0.16995127396152809 0 0.42759287120751482 0.1799189573059411 0 0.42045703890892938 0.19185412915784311 0 0.43799329450951457 0.1898848624547933 0 0.42102685219485209 0.16693617849151851 0 0.45014974491888898 0.16995127396152809 0 0.42102685219485209 0.16693617849151851 0 0.43641214087317609 0.15776157540708571 0 0.42820809332857229 0.14540676379554701 0 0.42102685219485209 0.16693617849151851 0 0.43641214087317609 0.15776157540708571 0 0.45014974491888898 0.16995127396152809 0 0.43641214087317609 0.15776157540708571 0 0.42820809332857229 0.14540676379554701 0 0.44305345270963392 0.14224085277467549 0 0.42820809332857229 0.14540676379554701 0 0.43267139290449452 0.12562392175117529 0 0.41815906511665779 0.13368892679480551 0 0.42820809332857229 0.14540676379554701 0 0.43267139290449452 0.12562392175117529 0 0.44305345270963392 0.14224085277467549 0 0.43267139290449452 0.12562392175117529 0 0.41815906511665779 0.13368892679480551 0 0.41840244549433692 0.1204435227777134 0 0.41815906511665779 0.13368892679480551 0 0.41840244549433692 0.1204435227777134 0 0.40630256149234217 0.12337914253670321 0 0.40386822996399702 0.1370092008917044 0 0.41815906511665779 0.13368892679480551 0 0.40630256149234217 0.12337914253670321 0 0.40386822996399702 0.1370092008917044 0 0.41815906511665779 0.13368892679480551 0 0.41490094777653419 0.14712571815411829 0 0.42102685219485209 0.16693617849151851 0 0.42820809332857229 0.14540676379554701 0 0.41490094777653419 0.14712571815411829 0 0.40386822996399702 0.1370092008917044 0 0.40641505983847698 0.15603495530110209 0 0.41490094777653419 0.14712571815411829 0 0.42820809332857229 0.14540676379554701 0 0.41815906511665779 0.13368892679480551 0 0.41490094777653419 0.14712571815411829 0 0.39196586341458151 0.242441409442547 0 0.40329821407583749 0.23025496453590971 0 0.40866327585672191 0.24600766979752939 0 0.38129994004966872 0.25577407136566988 0 0.39196586341458151 0.242441409442547 0 0.40866327585672191 0.24600766979752939 0 0.38129994004966872 0.25577407136566988 0 0.39196586341458151 0.242441409442547 0 0.38106847269238292 0.24536179082341181 0 0.37169426656027921 0.24972740256563611 0 0.38106847269238292 0.24536179082341181 0 0.3757768555661396 0.240133652284411 0 0.37292139258550783 0.22672254500020811 0 0.3757768555661396 0.240133652284411 0 0.38460543787124563 0.238732418458795 0 0.38106847269238292 0.24536179082341181 0 0.3757768555661396 0.240133652284411 0 0.38460543787124563 0.238732418458795 0 0.39196586341458151 0.242441409442547 0 0.38106847269238292 0.24536179082341181 0 0.38460543787124563 0.238732418458795 0 0.39196586341458151 0.242441409442547 0 0.38460543787124563 0.238732418458795 0 0.38844350160088592 0.2284985707660753 0 0.37292139258550783 0.22672254500020811 0 0.38460543787124563 0.238732418458795 0 0.38844350160088592 0.2284985707660753 0 0.37292139258550783 0.22672254500020811 0 0.38844350160088592 0.2284985707660753 0 0.38369130631537601 0.21297307403445409 0 0.38844350160088592 0.2284985707660753 0 0.39679964264504158 0.21937630878092959 0 0.38369130631537601 0.21297307403445409 0 0.38844350160088592 0.2284985707660753 0 0.39679964264504158 0.21937630878092959 0 0.40329821407583749 0.23025496453590971 0 0.39196586341458151 0.242441409442547 0 0.38844350160088592 0.2284985707660753 0 0.40329821407583749 0.23025496453590971 0 0.39679964264504158 0.21937630878092959 0 0.40329821407583749 0.23025496453590971 0 0.41066806580544729 0.2160617609406458 0 0.39598296716959969 0.20626700748070109 0 0.40513352984814438 0.19492560706685999 0 0.41066806580544729 0.2160617609406458 0 0.39679964264504158 0.21937630878092959 0 0.39598296716959969 0.20626700748070109 0 0.41066806580544729 0.2160617609406458 0 0.39679964264504158 0.21937630878092959 0 0.39598296716959969 0.20626700748070109 0 0.38369130631537601 0.21297307403445409 0 0.36923798170140371 0.20928007436804161 0 0.37292139258550783 0.22672254500020811 0 0.38369130631537601 0.21297307403445409 0 0.36923798170140371 0.20928007436804161 0 0.38369130631537601 0.21297307403445409 0 0.38464328683150451 0.18806222539781059 0 0.39598296716959969 0.20626700748070109 0 0.38369130631537601 0.21297307403445409 0 0.38464328683150451 0.18806222539781059 0 0.39598296716959969 0.20626700748070109 0 0.38464328683150451 0.18806222539781059 0 0.40513352984814438 0.19492560706685999 0 0.4059128807594603 0.17981630131623391 0 0.38464328683150451 0.18806222539781059 0 0.40513352984814438 0.19492560706685999 0 0.40513352984814438 0.19492560706685999 0 0.42045703890892938 0.19185412915784311 0 0.42444067869502011 0.20693424997503959 0 0.4059128807594603 0.17981630131623391 0 0.40513352984814438 0.19492560706685999 0 0.42045703890892938 0.19185412915784311 0 0.42045703890892938 0.19185412915784311 0 0.42444067869502011 0.20693424997503959 0 0.43799329450951457 0.1898848624547933 0 0.42444067869502011 0.20693424997503959 0 0.44184419378540352 0.2076794424592901 0 0.43799329450951457 0.1898848624547933 0 0.42444067869502011 0.20693424997503959 0 0.4302098735549707 0.2206458244329694 0 0.44184419378540352 0.2076794424592901 0 0.42444067869502011 0.20693424997503959 0 0.41066806580544729 0.2160617609406458 0 0.4302098735549707 0.2206458244329694 0 0.40513352984814438 0.19492560706685999 0 0.42444067869502011 0.20693424997503959 0 0.41066806580544729 0.2160617609406458 0 0.41066806580544729 0.2160617609406458 0 0.41777320819135039 0.22984229758728861 0 0.4302098735549707 0.2206458244329694 0 0.40329821407583749 0.23025496453590971 0 0.41066806580544729 0.2160617609406458 0 0.41777320819135039 0.22984229758728861 0 0.4302098735549707 0.2206458244329694 0 0.43602661166377499 0.2362412682293889 0 0.44584438813649652 0.2203436080528294 0 0.41777320819135039 0.22984229758728861 0 0.4302098735549707 0.2206458244329694 0 0.43602661166377499 0.2362412682293889 0 0.43602661166377499 0.2362412682293889 0 0.43076425121212841 0.2486853010718087 0 0.40866327585672191 0.24600766979752939 0 0.43602661166377499 0.2362412682293889 0 0.40866327585672191 0.24600766979752939 0 0.41777320819135039 0.22984229758728861 0 0.43602661166377499 0.2362412682293889 0 0.40866327585672191 0.24600766979752939 0 0.41664462513020523 0.25422696758609492 0 0.43076425121212841 0.2486853010718087 0 0.40866327585672191 0.24600766979752939 0 0.40329821407583749 0.23025496453590971 0 0.41777320819135039 0.22984229758728861 0 0.40866327585672191 0.24600766979752939 0 0.45166362976964691 0.25106894999712381 0 0.45384283414141641 0.23962742592169059 0 0.47583181488482379 0.2451422378191761 0 0.45166362976964691 0.25106894999712381 0 0.47583181488482379 0.2451422378191761 0 0.45384283414141641 0.23962742592169059 0 0.47692141707070451 0.23056955077157251 0 0.45166362976964691 0.25106894999712381 0 0.43076425121212841 0.2486853010718087 0 0.45384283414141641 0.23962742592169059 0 0.43602661166377499 0.2362412682293889 0 0.43076425121212841 0.2486853010718087 0 0.45384283414141641 0.23962742592169059 0 0.43076425121212841 0.2486853010718087 0 0.45384283414141641 0.23962742592169059 0 0.43602661166377499 0.2362412682293889 0 0.46338994747082818 0.22647486666124839 0 0.43602661166377499 0.2362412682293889 0 0.44584438813649652 0.2203436080528294 0 0.46338994747082818 0.22647486666124839 0 0.43602661166377499 0.2362412682293889 0 0.45384283414141641 0.23962742592169059 0 0.46338994747082818 0.22647486666124839 0 0.44584438813649652 0.2203436080528294 0 0.46338994747082818 0.22647486666124839 0 0.4574246187180494 0.20998202225832771 0 0.45384283414141641 0.23962742592169059 0 0.46338994747082818 0.22647486666124839 0 0.47692141707070451 0.23056955077157251 0 0.46338994747082818 0.22647486666124839 0 0.4574246187180494 0.20998202225832771 0 0.47311107537994651 0.21060674662752529 0 0.4574246187180494 0.20998202225832771 0 0.46861366351278472 0.19789432193598561 0 0.47311107537994651 0.21060674662752529 0 0.44584438813649652 0.2203436080528294 0 0.4574246187180494 0.20998202225832771 0 0.44184419378540352 0.2076794424592901 0 0.4302098735549707 0.2206458244329694 0 0.44584438813649652 0.2203436080528294 0 0.44184419378540352 0.2076794424592901 0 0.4574246187180494 0.20998202225832771 0 0.44184419378540352 0.2076794424592901 0 0.45120510308892831 0.19507838461398491 0 0.44184419378540352 0.2076794424592901 0 0.43799329450951457 0.1898848624547933 0 0.45120510308892831 0.19507838461398491 0 0.4574246187180494 0.20998202225832771 0 0.45120510308892831 0.19507838461398491 0 0.46861366351278472 0.19789432193598561 0 0.45120510308892831 0.19507838461398491 0 0.46861366351278472 0.19789432193598561 0 0.45014974491888898 0.16995127396152809 0 0.46861366351278472 0.19789432193598561 0 0.48377650321145821 0.20030440734603891 0 0.47890777313388699 0.17818810929941131 0 0.46861366351278472 0.19789432193598561 0 0.48377650321145821 0.20030440734603891 0 0.47311107537994651 0.21060674662752529 0 0.48377650321145821 0.20030440734603891 0 0.5 0.19442179120654851 0 0.47890777313388699 0.17818810929941131 0 0.48377650321145821 0.20030440734603891 0 0.5 0.19442179120654851 0 0.49075328327788142 0.2167084650931079 0 0.5 0.19442179120654851 0 0.49075328327788142 0.2167084650931079 0 0.49999999999999339 0.2215116756214566 0 0.48377650321145821 0.20030440734603891 0 0.49075328327788142 0.2167084650931079 0 0.47311107537994651 0.21060674662752529 0 0.46338994747082818 0.22647486666124839 0 0.49075328327788142 0.2167084650931079 0 0.47311107537994651 0.21060674662752529 0 0.46338994747082818 0.22647486666124839 0 0.49075328327788142 0.2167084650931079 0 0.46338994747082818 0.22647486666124839 0 0.49075328327788142 0.2167084650931079 0 0.47692141707070451 0.23056955077157251 0 0.47692141707070451 0.23056955077157251 0 0.49999999999999339 0.2215116756214566 0 0.50000000000000067 0.2392155256412283 0 0.49075328327788142 0.2167084650931079 0 0.47692141707070451 0.23056955077157251 0 0.49999999999999339 0.2215116756214566 0 0.47692141707070451 0.23056955077157251 0 0.49999999999999339 0.2215116756214566 0 0.50000000000000067 0.2392155256412283 0 0.47583181488482379 0.2451422378191761 0 0.48341195364679568 0.26002408893105827 0 0.50000000000000067 0.2392155256412283 0 0.47583181488482379 0.2451422378191761 0 0.47692141707070451 0.23056955077157251 0 0.50000000000000067 0.2392155256412283 0 0.47583181488482379 0.2451422378191761 0 0.45384283414141641 0.23962742592169059 0 0.47692141707070451 0.23056955077157251 0 0.47583181488482379 0.2451422378191761 0 0.46053260521531592 0.14091734283165991 0 0.45014974491888898 0.16995127396152809 0 0.47759274938693741 0.15337993901402261 0 0.46053260521531592 0.14091734283165991 0 0.47596637305353268 0.1236489788231635 0 0.45094723062946279 0.12208098845927939 0 0.46053260521531592 0.14091734283165991 0 0.44305345270963392 0.14224085277467549 0 0.45094723062946279 0.12208098845927939 0 0.43267139290449452 0.12562392175117529 0 0.44305345270963392 0.14224085277467549 0 0.45094723062946279 0.12208098845927939 0 0.46053260521531592 0.14091734283165991 0 0.44305345270963392 0.14224085277467549 0 0.45014974491888898 0.16995127396152809 0 0.43641214087317609 0.15776157540708571 0 0.44305345270963392 0.14224085277467549 0 0.45014974491888898 0.16995127396152809 0 0.42759287120751482 0.1799189573059411 0 0.43799329450951457 0.1898848624547933 0 0.45014974491888898 0.16995127396152809 0 0.43799329450951457 0.1898848624547933 0 0.45120510308892831 0.19507838461398491 0 0.45014974491888898 0.16995127396152809 0 0.46861366351278472 0.19789432193598561 0 0.45014974491888898 0.16995127396152809 0 0.47890777313388699 0.17818810929941131 0 0.45014974491888898 0.16995127396152809 0 0.47890777313388699 0.17818810929941131 0 0.47759274938693741 0.15337993901402261 0 0.5 0.19442179120654851 0 0.47890777313388699 0.17818810929941131 0 0.5 0.16733190679164031 0 0.47890777313388699 0.17818810929941131 0 0.5 0.16733190679164031 0 0.47759274938693741 0.15337993901402261 0 0.5 0.16733190679164031 0 0.47759274938693741 0.15337993901402261 0 0.5 0.14024202237673219 0 0.46053260521531592 0.14091734283165991 0 0.47759274938693741 0.15337993901402261 0 0.47596637305353268 0.1236489788231635 0 0.5 0.14024202237673219 0 0.5 0.11315213796182411 0 0.47596637305353268 0.1236489788231635 0 0.47759274938693741 0.15337993901402261 0 0.5 0.14024202237673219 0 0.47596637305353268 0.1236489788231635 0 0.5 0.11315213796182411 0 0.48146508414057748 0.097867616362435003 0 0.47596637305353268 0.1236489788231635 0 0.5 0.11315213796182411 0 0.48146508414057748 0.097867616362435003 0 0.5 0.08606225354691599 0 0.48146508414057748 0.097867616362435003 0 0.46684480345772023 0.083704774648097419 0 0.46085076100455152 0.1051260388446932 0 0.48146508414057748 0.097867616362435003 0 0.47596637305353268 0.1236489788231635 0 0.46085076100455152 0.1051260388446932 0 0.5 0.08606225354691599 0 0.48297411160829701 0.071419164250366693 0 0.5 0.058972369132007867 0 0.48146508414057748 0.097867616362435003 0 0.5 0.08606225354691599 0 0.48297411160829701 0.071419164250366693 0 0.48146508414057748 0.097867616362435003 0 0.48297411160829701 0.071419164250366693 0 0.46684480345772023 0.083704774648097419 0 0.48297411160829701 0.071419164250366693 0 0.46368779630991369 0.062884433647911922 0 0.46684480345772023 0.083704774648097419 0 0.46368779630991369 0.062884433647911922 0 0.4455316944648699 0.078385408113317706 0 0.46368779630991369 0.062884433647911922 0 0.46684480345772023 0.083704774648097419 0 0.4455316944648699 0.078385408113317706 0 0.46684480345772023 0.083704774648097419 0 0.4455316944648699 0.078385408113317706 0 0.46085076100455152 0.1051260388446932 0 0.4455316944648699 0.078385408113317706 0 0.46085076100455152 0.1051260388446932 0 0.43655847815144871 0.087567909291679069 0 0.4455316944648699 0.078385408113317706 0 0.43655847815144871 0.087567909291679069 0 0.43300293116684879 0.070359854062556224 0 0.4455316944648699 0.078385408113317706 0 0.43300293116684879 0.070359854062556224 0 0.44432728466234178 0.059795406129610977 0 0.46368779630991369 0.062884433647911922 0 0.4455316944648699 0.078385408113317706 0 0.44432728466234178 0.059795406129610977 0 0.47596637305353268 0.1236489788231635 0 0.46085076100455152 0.1051260388446932 0 0.45094723062946279 0.12208098845927939 0 0.46085076100455152 0.1051260388446932 0 0.43655847815144871 0.087567909291679069 0 0.46085076100455152 0.1051260388446932 0 0.43845481143497073 0.110031162788742 0 0.43302597451412722 0.09911942802672713 0 0.46085076100455152 0.1051260388446932 0 0.43302597451412722 0.09911942802672713 0 0.43655847815144871 0.087567909291679069 0 0.43267139290449452 0.12562392175117529 0 0.45094723062946279 0.12208098845927939 0 0.43845481143497073 0.110031162788742 0 0.46085076100455152 0.1051260388446932 0 0.45094723062946279 0.12208098845927939 0 0.43845481143497073 0.110031162788742 0 0.43267139290449452 0.12562392175117529 0 0.43845481143497073 0.110031162788742 0 0.42512360996164289 0.1101942667169049 0 0.43267139290449452 0.12562392175117529 0 0.42512360996164289 0.1101942667169049 0 0.41840244549433692 0.1204435227777134 0 0.42512360996164289 0.1101942667169049 0 0.41840244549433692 0.1204435227777134 0 0.41145911669595331 0.1096997076075869 0 0.41840244549433692 0.1204435227777134 0 0.41145911669595331 0.1096997076075869 0 0.40630256149234217 0.12337914253670321 0 0.41145911669595331 0.1096997076075869 0 0.41782870111656589 0.098086010242617663 0 0.40188519574572068 0.098349840232826835 0 0.41782870111656589 0.098086010242617663 0 0.41132824907511162 0.087668761689670915 0 0.40188519574572068 0.098349840232826835 0 0.42512360996164289 0.1101942667169049 0 0.41145911669595331 0.1096997076075869 0 0.41782870111656589 0.098086010242617663 0 0.41782870111656589 0.098086010242617663 0 0.43302597451412722 0.09911942802672713 0 0.42198136315300161 0.08812274721924529 0 0.42512360996164289 0.1101942667169049 0 0.41782870111656589 0.098086010242617663 0 0.43302597451412722 0.09911942802672713 0 0.43845481143497073 0.110031162788742 0 0.42512360996164289 0.1101942667169049 0 0.43302597451412722 0.09911942802672713 0 0.43655847815144871 0.087567909291679069 0 0.42198136315300161 0.08812274721924529 0 0.41226619529834591 0.070009779738664735 0 0.43655847815144871 0.087567909291679069 0 0.41226619529834591 0.070009779738664735 0 0.43302597451412722 0.09911942802672713 0 0.43655847815144871 0.087567909291679069 0 0.42198136315300161 0.08812274721924529 0 0.43300293116684879 0.070359854062556224 0 0.41226619529834591 0.070009779738664735 0 0.42739758089851382 0.054541393999090262 0 0.43655847815144871 0.087567909291679069 0 0.43300293116684879 0.070359854062556224 0 0.41226619529834591 0.070009779738664735 0 0.42198136315300161 0.08812274721924529 0 0.41226619529834591 0.070009779738664735 0 0.41132824907511162 0.087668761689670915 0 0.41226619529834591 0.070009779738664735 0 0.41132824907511162 0.087668761689670915 0 0.39992923875424519 0.082621500021195282 0 0.41782870111656589 0.098086010242617663 0 0.42198136315300161 0.08812274721924529 0 0.41132824907511162 0.087668761689670915 0 0.41132824907511162 0.087668761689670915 0 0.39992923875424519 0.082621500021195282 0 0.40188519574572068 0.098349840232826835 0 0.39992923875424519 0.082621500021195282 0 0.38759228221014619 0.095233220303727467 0 0.40188519574572068 0.098349840232826835 0 0.39992923875424519 0.082621500021195282 0 0.38759228221014619 0.095233220303727467 0 0.41226619529834591 0.070009779738664735 0 0.39707386889515511 0.070908779594843374 0 0.39683376059791597 0.058855427163935138 0 0.41226619529834591 0.070009779738664735 0 0.39683376059791597 0.058855427163935138 0 0.41226619529834591 0.070009779738664735 0 0.39992923875424519 0.082621500021195282 0 0.41226619529834591 0.070009779738664735 0 0.39992923875424519 0.082621500021195282 0 0.39707386889515511 0.070908779594843374 0 0.39992923875424519 0.082621500021195282 0 0.39707386889515511 0.070908779594843374 0 0.38583977896057609 0.075316135258006081 0 0.39707386889515511 0.070908779594843374 0 0.38282045226763678 0.060547433734587333 0 0.39683376059791597 0.058855427163935138 0 0.39707386889515511 0.070908779594843374 0 0.38583977896057609 0.075316135258006081 0 0.38282045226763678 0.060547433734587333 0 0.38583977896057609 0.075316135258006081 0 0.37596532967213542 0.069868995675824025 0 0.37682589963749002 0.081332762740894418 0 0.37307104071443398 0.061065176941414383 0 0.37596532967213542 0.069868995675824025 0 0.38282045226763678 0.060547433734587333 0 0.38583977896057609 0.075316135258006081 0 0.37596532967213542 0.069868995675824025 0 0.38282045226763678 0.060547433734587333 0 0.39992923875424519 0.082621500021195282 0 0.38412803848747967 0.086259474622970303 0 0.38759228221014619 0.095233220303727467 0 0.39992923875424519 0.082621500021195282 0 0.38583977896057609 0.075316135258006081 0 0.38412803848747967 0.086259474622970303 0 0.37045299287494049 0.09679375479102828 0 0.38412803848747967 0.086259474622970303 0 0.38759228221014619 0.095233220303727467 0 0.38583977896057609 0.075316135258006081 0 0.38412803848747967 0.086259474622970303 0 0.37682589963749002 0.081332762740894418 0 0.37045299287494049 0.09679375479102828 0 0.38412803848747967 0.086259474622970303 0 0.37682589963749002 0.081332762740894418 0 0.37045299287494049 0.09679375479102828 0 0.38005682511468147 0.12140739343396729 0 0.37045299287494049 0.09679375479102828 0 0.38759228221014619 0.095233220303727467 0 0.38890959528695412 0.1083938038889192 0 0.37045299287494049 0.09679375479102828 0 0.38890959528695412 0.1083938038889192 0 0.38005682511468147 0.12140739343396729 0 0.39398634319161102 0.12556361147638159 0 0.38890959528695412 0.1083938038889192 0 0.38005682511468147 0.12140739343396729 0 0.39398634319161102 0.12556361147638159 0 0.38890959528695412 0.1083938038889192 0 0.39948393258462489 0.11301500309558379 0 0.39398634319161102 0.12556361147638159 0 0.40630256149234217 0.12337914253670321 0 0.39948393258462489 0.11301500309558379 0 0.41145911669595331 0.1096997076075869 0 0.40630256149234217 0.12337914253670321 0 0.39948393258462489 0.11301500309558379 0 0.41145911669595331 0.1096997076075869 0 0.39948393258462489 0.11301500309558379 0 0.40188519574572068 0.098349840232826835 0 0.38759228221014619 0.095233220303727467 0 0.38890959528695412 0.1083938038889192 0 0.40188519574572068 0.098349840232826835 0 0.38890959528695412 0.1083938038889192 0 0.39948393258462489 0.11301500309558379 0 0.40188519574572068 0.098349840232826835 0 0.3912475249538237 0.025882868266216091 0 0.40325323122183843 0.024352223252143548 0 0.39536881189699241 0.01378873843063998 0 0.3912475249538237 0.025882868266216091 0 0.40325323122183843 0.024352223252143548 0 0.39805180056669343 0.032772735105760037 0 0.40325323122183843 0.024352223252143548 0 0.39805180056669343 0.032772735105760037 0 0.40655765028286611 0.035582104639029083 0 0.40325323122183843 0.024352223252143548 0 0.39536881189699241 0.01378873843063998 0 0.40720094273855439 0.01372602960598159 0 0.40060323373222451 0.0042547197705496897 0 0.39536881189699241 0.01378873843063998 0 0.40720094273855439 0.01372602960598159 0 0.40060323373222451 0.0042547197705496897 0 0.41081432206005303 0.0037114498956348132 0 0.4046584776842293 -0.0050702490882302163 0 0.40060323373222451 0.0042547197705496897 0 0.41081432206005303 0.0037114498956348132 0 0.40720094273855439 0.01372602960598159 0 0.40060323373222451 0.0042547197705496897 0 0.39025836247721268 0.0036292771787240202 0 0.39531848553630572 -0.0042569273994520467 0 0.40060323373222451 0.0042547197705496897 0 0.39536881189699241 0.01378873843063998 0 0.39025836247721268 0.0036292771787240202 0 0.37844401144479839 0.012609093579625891 0 0.38356146703633898 -0.0078565650350033434 0 0.37844401144479839 0.012609093579625891 0 0.39025836247721268 0.0036292771787240202 0 0.38356146703633898 -0.0078565650350033434 0 0.39536881189699241 0.01378873843063998 0 0.37844401144479839 0.012609093579625891 0 0.39025836247721268 0.0036292771787240202 0 0.3912475249538237 0.025882868266216091 0 0.37844401144479839 0.012609093579625891 0 0.38063223185621792 0.036578263657106522 0 0.37844401144479839 0.012609093579625891 0 0.38063223185621792 0.036578263657106522 0 0.37146335928247548 0.04052602251159599 0 0.37844401144479839 0.012609093579625891 0 0.38063223185621792 0.036578263657106522 0 0.3912475249538237 0.025882868266216091 0 0.39536881189699241 0.01378873843063998 0 0.37844401144479839 0.012609093579625891 0 0.37146335928247548 0.04052602251159599 0 0.38063223185621792 0.036578263657106522 0 0.38282045226763678 0.060547433734587333 0 0.3912475249538237 0.025882868266216091 0 0.38063223185621792 0.036578263657106522 0 0.3908528121234538 0.035995570554822158 0 0.38063223185621792 0.036578263657106522 0 0.38791705742610771 0.044539104287684539 0 0.3908528121234538 0.035995570554822158 0 0.38791705742610771 0.044539104287684539 0 0.38282045226763678 0.060547433734587333 0 0.39079668350586277 0.051215399393808793 0 0.37307104071443398 0.061065176941414383 0 0.37146335928247548 0.04052602251159599 0 0.38282045226763678 0.060547433734587333 0 0.38063223185621792 0.036578263657106522 0 0.38791705742610771 0.044539104287684539 0 0.38282045226763678 0.060547433734587333 0 0.38063223185621792 0.036578263657106522 0 0.38282045226763678 0.060547433734587333 0 0.38282045226763678 0.060547433734587333 0 0.39683376059791597 0.058855427163935138 0 0.39079668350586277 0.051215399393808793 0 0.41226619529834591 0.070009779738664735 0 0.39683376059791597 0.058855427163935138 0 0.40948896714378957 0.05055434744181983 0 0.39683376059791597 0.058855427163935138 0 0.39079668350586277 0.051215399393808793 0 0.39674782008621368 0.04348041067995833 0 0.39683376059791597 0.058855427163935138 0 0.39674782008621368 0.04348041067995833 0 0.40948896714378957 0.05055434744181983 0 0.3908528121234538 0.035995570554822158 0 0.39805180056669343 0.032772735105760037 0 0.39674782008621368 0.04348041067995833 0 0.3912475249538237 0.025882868266216091 0 0.3908528121234538 0.035995570554822158 0 0.39805180056669343 0.032772735105760037 0 0.38791705742610771 0.044539104287684539 0 0.3908528121234538 0.035995570554822158 0 0.39674782008621368 0.04348041067995833 0 0.38791705742610771 0.044539104287684539 0 0.39079668350586277 0.051215399393808793 0 0.39674782008621368 0.04348041067995833 0 0.39674782008621368 0.04348041067995833 0 0.40655765028286611 0.035582104639029083 0 0.40948896714378957 0.05055434744181983 0 0.39805180056669343 0.032772735105760037 0 0.39674782008621368 0.04348041067995833 0 0.40655765028286611 0.035582104639029083 0 0.40655765028286611 0.035582104639029083 0 0.41713079569888262 0.040856968430241461 0 0.41557099838193923 0.024039796491718179 0 0.41713079569888262 0.040856968430241461 0 0.42755741698364552 0.032815777208855347 0 0.41557099838193923 0.024039796491718179 0 0.40655765028286611 0.035582104639029083 0 0.41713079569888262 0.040856968430241461 0 0.40948896714378957 0.05055434744181983 0 0.41226619529834591 0.070009779738664735 0 0.40948896714378957 0.05055434744181983 0 0.42739758089851382 0.054541393999090262 0 0.41713079569888262 0.040856968430241461 0 0.40948896714378957 0.05055434744181983 0 0.42739758089851382 0.054541393999090262 0 0.41226619529834591 0.070009779738664735 0 0.42739758089851382 0.054541393999090262 0 0.43300293116684879 0.070359854062556224 0 0.42739758089851382 0.054541393999090262 0 0.44432728466234178 0.059795406129610977 0 0.41713079569888262 0.040856968430241461 0 0.42739758089851382 0.054541393999090262 0 0.42755741698364552 0.032815777208855347 0 0.42739758089851382 0.054541393999090262 0 0.42755741698364552 0.032815777208855347 0 0.44252896649868317 0.039073008259517338 0 0.42739758089851382 0.054541393999090262 0 0.44252896649868317 0.039073008259517338 0 0.42755741698364552 0.032815777208855347 0 0.4358194844604939 0.024219735287320941 0 0.44252896649868317 0.039073008259517338 0 0.42755741698364552 0.032815777208855347 0 0.41557099838193923 0.024039796491718179 0 0.4265644217351573 0.014684511896395219 0 0.4358194844604939 0.024219735287320941 0 0.4265644217351573 0.014684511896395219 0 0.44548351627008242 0.01642882659412407 0 0.42755741698364552 0.032815777208855347 0 0.4358194844604939 0.024219735287320941 0 0.4265644217351573 0.014684511896395219 0 0.41557099838193923 0.024039796491718179 0 0.4165272652869268 0.01155925859927168 0 0.4265644217351573 0.014684511896395219 0 0.41557099838193923 0.024039796491718179 0 0.40720094273855439 0.01372602960598159 0 0.4165272652869268 0.01155925859927168 0 0.40325323122183843 0.024352223252143548 0 0.41557099838193923 0.024039796491718179 0 0.40720094273855439 0.01372602960598159 0 0.40325323122183843 0.024352223252143548 0 0.40655765028286611 0.035582104639029083 0 0.41557099838193923 0.024039796491718179 0 0.41081432206005303 0.0037114498956348132 0 0.40720094273855439 0.01372602960598159 0 0.4165272652869268 0.01155925859927168 0 0.4165272652869268 0.01155925859927168 0 0.42248564151892998 0.0016345051066286029 0 0.4265644217351573 0.014684511896395219 0 0.41081432206005303 0.0037114498956348132 0 0.4165272652869268 0.01155925859927168 0 0.42248564151892998 0.0016345051066286029 0 0.42248564151892998 0.0016345051066286029 0 0.4265644217351573 0.014684511896395219 0 0.4382820622288856 -0.0014159552958160841 0 0.4265644217351573 0.014684511896395219 0 0.44548351627008242 0.01642882659412407 0 0.4382820622288856 -0.0014159552958160841 0 0.45100246047295739 0.0046664116742636159 0 0.44548351627008242 0.01642882659412407 0 0.4382820622288856 -0.0014159552958160841 0 0.45100246047295739 0.0046664116742636159 0 0.44548351627008242 0.01642882659412407 0 0.4580470330794123 0.0188547641718908 0 0.4358194844604939 0.024219735287320941 0 0.4514029071021442 0.02821869916314456 0 0.44548351627008242 0.01642882659412407 0 0.4358194844604939 0.024219735287320941 0 0.4514029071021442 0.02821869916314456 0 0.44252896649868317 0.039073008259517338 0 0.4514029071021442 0.02821869916314456 0 0.44548351627008242 0.01642882659412407 0 0.4580470330794123 0.0188547641718908 0 0.4514029071021442 0.02821869916314456 0 0.4580470330794123 0.0188547641718908 0 0.46553563141862692 0.027383902935855992 0 0.4580470330794123 0.0188547641718908 0 0.46553563141862692 0.027383902935855992 0 0.471035018561343 0.01684384088441979 0 0.4580470330794123 0.0188547641718908 0 0.4620271672997433 0.0081957990277541914 0 0.471035018561343 0.01684384088441979 0 0.4620271672997433 0.0081957990277541914 0 0.47207727543944228 0.0077163925679632076 0 0.45540766643685782 -0.0078732224449345398 0 0.4620271672997433 0.0081957990277541914 0 0.47207727543944228 0.0077163925679632076 0 0.471035018561343 0.01684384088441979 0 0.45100246047295739 0.0046664116742636159 0 0.4620271672997433 0.0081957990277541914 0 0.45540766643685782 -0.0078732224449345398 0 0.45100246047295739 0.0046664116742636159 0 0.4580470330794123 0.0188547641718908 0 0.4620271672997433 0.0081957990277541914 0 0.42739758089851382 0.054541393999090262 0 0.44432728466234178 0.059795406129610977 0 0.44252896649868317 0.039073008259517338 0 0.44432728466234178 0.059795406129610977 0 0.44252896649868317 0.039073008259517338 0 0.46100281088556699 0.043351957730158222 0 0.4514029071021442 0.02821869916314456 0 0.44252896649868317 0.039073008259517338 0 0.46100281088556699 0.043351957730158222 0 0.4514029071021442 0.02821869916314456 0 0.46553563141862692 0.027383902935855992 0 0.46100281088556699 0.043351957730158222 0 0.46553563141862692 0.027383902935855992 0 0.46100281088556699 0.043351957730158222 0 0.4764725540003833 0.035303178421407518 0 0.46368779630991369 0.062884433647911922 0 0.44432728466234178 0.059795406129610977 0 0.46100281088556699 0.043351957730158222 0 0.48297411160829701 0.071419164250366693 0 0.46368779630991369 0.062884433647911922 0 0.48184389815495748 0.047383459182506117 0 0.46368779630991369 0.062884433647911922 0 0.46100281088556699 0.043351957730158222 0 0.48184389815495748 0.047383459182506117 0 0.46368779630991369 0.062884433647911922 0 0.48184389815495748 0.047383459182506117 0 0.46100281088556699 0.043351957730158222 0 0.48184389815495748 0.047383459182506117 0 0.4764725540003833 0.035303178421407518 0 0.48184389815495748 0.047383459182506117 0 0.50000000000000089 0.031882484717099757 0 0.48184389815495748 0.047383459182506117 0 0.50000000000000089 0.031882484717099757 0 0.5 0.058972369132007867 0 0.48184389815495748 0.047383459182506117 0 0.4764725540003833 0.035303178421407518 0 0.50000000000000089 0.031882484717099757 0 0.48297411160829701 0.071419164250366693 0 0.48184389815495748 0.047383459182506117 0 0.5 0.058972369132007867 0 0.48173822001607031 0.002441982684480838 0 0.47207727543944228 0.0077163925679632076 0 0.45540766643685782 -0.0078732224449345398 0 0.48073089036299149 0.01447516008145705 0 0.48088876464914698 0.0066420825236524483 0 0.47207727543944228 0.0077163925679632076 0 0.48088876464914698 0.0066420825236524483 0 0.48173822001607031 0.002441982684480838 0 0.48944624590280772 0.014576472087587141 0 0.48073089036299149 0.01447516008145705 0 0.48088876464914698 0.0066420825236524483 0 0.48944624590280772 0.014576472087587141 0 0.48088876464914698 0.0066420825236524483 0 0.48173822001607031 0.002441982684480838 0 0.47207727543944228 0.0077163925679632076 0 0.48088876464914698 0.0066420825236524483 0 0.48173822001607031 0.002441982684480838 0 0.48073089036299149 0.01447516008145705 0 0.47207727543944228 0.0077163925679632076 0 0.471035018561343 0.01684384088441979 0 0.46553563141862692 0.027383902935855992 0 0.471035018561343 0.01684384088441979 0 0.48098968552297122 0.023479159592672289 0 0.46553563141862692 0.027383902935855992 0 0.4764725540003833 0.035303178421407518 0 0.48098968552297122 0.023479159592672289 0 0.48073089036299149 0.01447516008145705 0 0.471035018561343 0.01684384088441979 0 0.48098968552297122 0.023479159592672289 0 0.48073089036299149 0.01447516008145705 0 0.48098968552297122 0.023479159592672289 0 0.48944624590280772 0.014576472087587141 0 0.50000000000000089 0.031882484717099757 0 0.50000000000000044 0.0095961811708810997 0 0.48944624590280772 0.014576472087587141 0 0.4764725540003833 0.035303178421407518 0 0.50000000000000089 0.031882484717099757 0 0.48098968552297122 0.023479159592672289 0 0.50000000000000089 0.031882484717099757 0 0.48098968552297122 0.023479159592672289 0 0.48944624590280772 0.014576472087587141 0 0.48173822001607031 0.002441982684480838 0 0.50000000000000044 0.0095961811708810997 0 0.48944624590280772 0.014576472087587141 0 0.48173822001607031 0.002441982684480838 0 0.50000000000000044 0.0095961811708810997 0 0.48173822001607031 0.002441982684480838 0 0.50000000000000044 0.0095961811708810997 0 0.5 -0.01553848795347695 0 0.48173822001607031 0.002441982684480838 0 0.5 -0.01553848795347695 0 0.48723509010938909 -0.024737082977995831 0 0.48173822001607031 0.002441982684480838 0 0.48723509010938909 -0.024737082977995831 0 0.48173822001607031 0.002441982684480838 0 0.46944239540012012 -0.021901386132034111 0 0.45540766643685782 -0.0078732224449345398 0 0.48173822001607031 0.002441982684480838 0 0.46944239540012012 -0.021901386132034111 0 0.48723509010938909 -0.024737082977995831 0 0.46944239540012012 -0.021901386132034111 0 0.48723509010938909 -0.024737082977995831 0 0.47311684284700922 -0.039980301183512167 0 0.5 -0.01553848795347695 0 0.48723509010938909 -0.024737082977995831 0 0.5 -0.040673157077835087 0 0.48723509010938909 -0.024737082977995831 0 0.49273196020270971 -0.051916148640471983 0 0.48034048547664182 -0.050194577481915269 0 0.48723509010938909 -0.024737082977995831 0 0.49273196020270971 -0.051916148640471983 0 0.48723509010938909 -0.024737082977995831 0 0.5 -0.040673157077835087 0 0.49273196020270971 -0.051916148640471983 0 0.5 -0.040673157077835087 0 0.49273196020270971 -0.051916148640471983 0 0.5 -0.065807826202193331 0 0.49273196020270971 -0.051916148640471983 0 0.48384360039889979 -0.062204599920787272 0 0.48034048547664182 -0.050194577481915269 0 0.48034048547664182 -0.050194577481915269 0 0.47035120232490191 -0.060528185902064997 0 0.47311684284700922 -0.039980301183512167 0 0.47035120232490191 -0.060528185902064997 0 0.47311684284700922 -0.039980301183512167 0 0.48384360039889979 -0.062204599920787272 0 0.48034048547664182 -0.050194577481915269 0 0.47035120232490191 -0.060528185902064997 0 0.48723509010938909 -0.024737082977995831 0 0.48034048547664182 -0.050194577481915269 0 0.47311684284700922 -0.039980301183512167 0 0.46944239540012012 -0.021901386132034111 0 0.47311684284700922 -0.039980301183512167 0 0.44971415759127392 -0.039358306738208573 0 0.47035120232490191 -0.060528185902064997 0 0.47311684284700922 -0.039980301183512167 0 0.44971415759127392 -0.039358306738208573 0 0.47035120232490191 -0.060528185902064997 0 0.44971415759127392 -0.039358306738208573 0 0.47035120232490191 -0.060528185902064997 0 0.43963483674523918 -0.055334607978488382 0 0.44971415759127392 -0.039358306738208573 0 0.43963483674523918 -0.055334607978488382 0 0.44971415759127392 -0.039358306738208573 0 0.42419530264354072 -0.042652000491910397 0 0.46944239540012012 -0.021901386132034111 0 0.44971415759127392 -0.039358306738208573 0 0.45540766643685782 -0.0078732224449345398 0 0.44971415759127392 -0.039358306738208573 0 0.42907711285764621 -0.01818842757435184 0 0.44971415759127392 -0.039358306738208573 0 0.45540766643685782 -0.0078732224449345398 0 0.42907711285764621 -0.01818842757435184 0 0.45540766643685782 -0.0078732224449345398 0 0.42907711285764621 -0.01818842757435184 0 0.45100246047295739 0.0046664116742636159 0 0.4382820622288856 -0.0014159552958160841 0 0.45540766643685782 -0.0078732224449345398 0 0.4382820622288856 -0.0014159552958160841 0 0.45540766643685782 -0.0078732224449345398 0 0.42907711285764621 -0.01818842757435184 0 0.48173822001607031 0.002441982684480838 0 0.45540766643685782 -0.0078732224449345398 0 0.47129126618897188 -0.1223351355815797 0 0.47148248434309947 -0.114916285604633 0 0.48087269318342413 -0.1216818802472065 0 0.47148248434309947 -0.114916285604633 0 0.48087269318342413 -0.1216818802472065 0 0.47838814501791832 -0.1066654575105275 0 0.48087269318342413 -0.1216818802472065 0 0.48924328608656842 -0.1141618265083332 0 0.47838814501791832 -0.1066654575105275 0 0.5 -0.1122204549214597 0 0.48924328608656842 -0.1141618265083332 0 0.5 -0.13349841451636779 0 0.48087269318342413 -0.1216818802472065 0 0.48924328608656842 -0.1141618265083332 0 0.5 -0.13349841451636779 0 0.5 -0.1122204549214597 0 0.48924328608656842 -0.1141618265083332 0 0.48827073793524339 -0.097774102912636218 0 0.48924328608656842 -0.1141618265083332 0 0.48827073793524339 -0.097774102912636218 0 0.47838814501791832 -0.1066654575105275 0 0.5 -0.1122204549214597 0 0.48827073793524339 -0.097774102912636218 0 0.50000000000000266 -0.090942495326551576 0 0.47652975213937199 -0.091635549067057065 0 0.46683976751390588 -0.086617099886465918 0 0.46456669494636288 -0.10350535152343909 0 0.48827073793524339 -0.097774102912636218 0 0.47838814501791832 -0.1066654575105275 0 0.47652975213937199 -0.091635549067057065 0 0.47148248434309947 -0.114916285604633 0 0.47838814501791832 -0.1066654575105275 0 0.46456669494636288 -0.10350535152343909 0 0.47838814501791832 -0.1066654575105275 0 0.47652975213937199 -0.091635549067057065 0 0.46456669494636288 -0.10350535152343909 0 0.48827073793524339 -0.097774102912636218 0 0.47652975213937199 -0.091635549067057065 0 0.48517560116245317 -0.075735340614307423 0 0.47652975213937199 -0.091635549067057065 0 0.48517560116245317 -0.075735340614307423 0 0.46683976751390588 -0.086617099886465918 0 0.47652975213937199 -0.091635549067057065 0 0.46683976751390588 -0.086617099886465918 0 0.50000000000000266 -0.090942495326551576 0 0.49822883029603021 -0.079095214302948247 0 0.5 -0.065807826202193331 0 0.48827073793524339 -0.097774102912636218 0 0.50000000000000266 -0.090942495326551576 0 0.48517560116245317 -0.075735340614307423 0 0.50000000000000266 -0.090942495326551576 0 0.48517560116245317 -0.075735340614307423 0 0.50000000000000266 -0.090942495326551576 0 0.49822883029603021 -0.079095214302948247 0 0.48517560116245317 -0.075735340614307423 0 0.49273196020270971 -0.051916148640471983 0 0.49822883029603021 -0.079095214302948247 0 0.48384360039889979 -0.062204599920787272 0 0.49822883029603021 -0.079095214302948247 0 0.48517560116245317 -0.075735340614307423 0 0.49273196020270971 -0.051916148640471983 0 0.48384360039889979 -0.062204599920787272 0 0.49822883029603021 -0.079095214302948247 0 0.49273196020270971 -0.051916148640471983 0 0.49822883029603021 -0.079095214302948247 0 0.5 -0.065807826202193331 0 0.47035120232490191 -0.060528185902064997 0 0.48517560116245317 -0.075735340614307423 0 0.47035120232490191 -0.060528185902064997 0 0.48517560116245317 -0.075735340614307423 0 0.46683976751390588 -0.086617099886465918 0 0.48384360039889979 -0.062204599920787272 0 0.47035120232490191 -0.060528185902064997 0 0.48517560116245317 -0.075735340614307423 0 0.47035120232490191 -0.060528185902064997 0 0.46683976751390588 -0.086617099886465918 0 0.47035120232490191 -0.060528185902064997 0 0.44249197108241189 -0.074007360679063244 0 0.46683976751390588 -0.086617099886465918 0 0.47035120232490191 -0.060528185902064997 0 0.43963483674523918 -0.055334607978488382 0 0.44249197108241189 -0.074007360679063244 0 0.44249197108241189 -0.074007360679063244 0 0.46683976751390588 -0.086617099886465918 0 0.4490662803509099 -0.094083529251462475 0 0.44249197108241189 -0.074007360679063244 0 0.4490662803509099 -0.094083529251462475 0 0.42834270349958448 -0.099226311759436261 0 0.44249197108241189 -0.074007360679063244 0 0.46683976751390588 -0.086617099886465918 0 0.46683976751390588 -0.086617099886465918 0 0.46456669494636288 -0.10350535152343909 0 0.4490662803509099 -0.094083529251462475 0 0.46683976751390588 -0.086617099886465918 0 0.46456669494636288 -0.10350535152343909 0 0.46456669494636288 -0.10350535152343909 0 0.4490662803509099 -0.094083529251462475 0 0.44386094964032902 -0.11054798122052439 0 0.4490662803509099 -0.094083529251462475 0 0.44386094964032902 -0.11054798122052439 0 0.42834270349958448 -0.099226311759436261 0 0.44386094964032902 -0.11054798122052439 0 0.46257396642688631 -0.12529077885077469 0 0.45239247298790419 -0.125419693033265 0 0.44386094964032902 -0.11054798122052439 0 0.42916935431308728 -0.1205456085246996 0 0.4435038969132965 -0.12540022695152131 0 0.44386094964032902 -0.11054798122052439 0 0.45239247298790419 -0.125419693033265 0 0.4435038969132965 -0.12540022695152131 0 0.44386094964032902 -0.11054798122052439 0 0.46229362237882032 -0.1203936031604123 0 0.46257396642688631 -0.12529077885077469 0 0.46456669494636288 -0.10350535152343909 0 0.46229362237882032 -0.1203936031604123 0 0.46456669494636288 -0.10350535152343909 0 0.44386094964032902 -0.11054798122052439 0 0.46229362237882032 -0.1203936031604123 0 0.44386094964032902 -0.11054798122052439 0 0.46257396642688631 -0.12529077885077469 0 0.47148248434309947 -0.114916285604633 0 0.46456669494636288 -0.10350535152343909 0 0.46229362237882032 -0.1203936031604123 0 0.47129126618897188 -0.1223351355815797 0 0.46229362237882032 -0.1203936031604123 0 0.46257396642688631 -0.12529077885077469 0 0.47129126618897188 -0.1223351355815797 0 0.47148248434309947 -0.114916285604633 0 0.46229362237882032 -0.1203936031604123 0 0.44386094964032902 -0.11054798122052439 0 0.42916935431308728 -0.1205456085246996 0 0.42834270349958448 -0.099226311759436261 0 0.41143930547928681 -0.11934523636421419 0 0.42916935431308728 -0.1205456085246996 0 0.42834270349958448 -0.099226311759436261 0 0.41143930547928681 -0.11934523636421419 0 0.40555832972599831 -0.095826118330896617 0 0.41143930547928681 -0.11934523636421419 0 0.42834270349958448 -0.099226311759436261 0 0.40555832972599831 -0.095826118330896617 0 0.42834270349958448 -0.099226311759436261 0 0.41884290658632428 -0.080552882507727325 0 0.40555832972599831 -0.095826118330896617 0 0.41884290658632428 -0.080552882507727325 0 0.39967735397270959 -0.072307000297579083 0 0.40555832972599831 -0.095826118330896617 0 0.44249197108241189 -0.074007360679063244 0 0.42834270349958448 -0.099226311759436261 0 0.41884290658632428 -0.080552882507727325 0 0.44249197108241189 -0.074007360679063244 0 0.41814417465091752 -0.061397621471661459 0 0.43963483674523918 -0.055334607978488382 0 0.44249197108241189 -0.074007360679063244 0 0.41814417465091752 -0.061397621471661459 0 0.44249197108241189 -0.074007360679063244 0 0.41884290658632428 -0.080552882507727325 0 0.41814417465091752 -0.061397621471661459 0 0.41884290658632428 -0.080552882507727325 0 0.39967735397270959 -0.072307000297579083 0 0.41814417465091752 -0.061397621471661459 0 0.39967735397270959 -0.072307000297579083 0 0.38669795957132042 -0.057310603286660967 0 0.37240766699872252 -0.068318548019290964 0 0.39967735397270959 -0.072307000297579083 0 0.37781097748786241 -0.089314889372882261 0 0.37240766699872252 -0.068318548019290964 0 0.39967735397270959 -0.072307000297579083 0 0.37781097748786241 -0.089314889372882261 0 0.40555832972599831 -0.095826118330896617 0 0.39967735397270959 -0.072307000297579083 0 0.40555832972599831 -0.095826118330896617 0 0.40555832972599831 -0.095826118330896617 0 0.38953803654933628 -0.10754997095337659 0 0.39823574772599779 -0.11763079726210079 0 0.37781097748786241 -0.089314889372882261 0 0.40555832972599831 -0.095826118330896617 0 0.38953803654933628 -0.10754997095337659 0 0.37781097748786241 -0.089314889372882261 0 0.38953803654933628 -0.10754997095337659 0 0.37644505785585192 -0.1058120404938334 0 0.38953803654933628 -0.10754997095337659 0 0.37644505785585192 -0.1058120404938334 0 0.37720890243704291 -0.12310924361699779 0 0.38953803654933628 -0.10754997095337659 0 0.37720890243704291 -0.12310924361699779 0 0.38918813321375051 -0.12739880168557821 0 0.38953803654933628 -0.10754997095337659 0 0.39823574772599779 -0.11763079726210079 0 0.38918813321375051 -0.12739880168557821 0 0.41143930547928681 -0.11934523636421419 0 0.39823574772599779 -0.11763079726210079 0 0.40257569972698831 -0.13396225485532559 0 0.41143930547928681 -0.11934523636421419 0 0.40555832972599831 -0.095826118330896617 0 0.39823574772599779 -0.11763079726210079 0 0.42011428296152808 -0.02169968792975261 0 0.41401194260749391 -0.028450411104576211 0 0.41343304557213612 -0.018371446868227208 0 0.42011428296152808 -0.02169968792975261 0 0.41343304557213612 -0.018371446868227208 0 0.41928481904255338 -0.01548900553927589 0 0.42011428296152808 -0.02169968792975261 0 0.41928481904255338 -0.01548900553927589 0 0.42542521438275183 -0.0144422395697206 0 0.42011428296152808 -0.02169968792975261 0 0.41401194260749391 -0.028450411104576211 0 0.42742255973229643 -0.030069766767760062 0 0.41401194260749391 -0.028450411104576211 0 0.40522076275047969 -0.019933987949522329 0 0.40044964155059998 -0.029094842751199331 0 0.41401194260749391 -0.028450411104576211 0 0.41343304557213612 -0.018371446868227208 0 0.40522076275047969 -0.019933987949522329 0 0.41343304557213612 -0.018371446868227208 0 0.40806592415966281 -0.01253819616599721 0 0.40522076275047969 -0.019933987949522329 0 0.40806592415966281 -0.01253819616599721 0 0.4135204533098043 -0.0054466611181140526 0 0.41498054603746559 -0.011947546426581419 0 0.41343304557213612 -0.018371446868227208 0 0.40806592415966281 -0.01253819616599721 0 0.41498054603746559 -0.011947546426581419 0 0.41081432206005303 0.0037114498956348132 0 0.4135204533098043 -0.0054466611181140526 0 0.4046584776842293 -0.0050702490882302163 0 0.40806592415966281 -0.01253819616599721 0 0.4135204533098043 -0.0054466611181140526 0 0.4046584776842293 -0.0050702490882302163 0 0.41081432206005303 0.0037114498956348132 0 0.42248564151892998 0.0016345051066286029 0 0.4135204533098043 -0.0054466611181140526 0 0.42248564151892998 0.0016345051066286029 0 0.4135204533098043 -0.0054466611181140526 0 0.42119781252485211 -0.0083000839364812864 0 0.41343304557213612 -0.018371446868227208 0 0.41498054603746559 -0.011947546426581419 0 0.41928481904255338 -0.01548900553927589 0 0.4135204533098043 -0.0054466611181140526 0 0.41498054603746559 -0.011947546426581419 0 0.42119781252485211 -0.0083000839364812864 0 0.41498054603746559 -0.011947546426581419 0 0.42119781252485211 -0.0083000839364812864 0 0.41928481904255338 -0.01548900553927589 0 0.42542521438275183 -0.0144422395697206 0 0.42820760236351979 -0.0076976995852137747 0 0.42907711285764621 -0.01818842757435184 0 0.4382820622288856 -0.0014159552958160841 0 0.42820760236351979 -0.0076976995852137747 0 0.42907711285764621 -0.01818842757435184 0 0.42119781252485211 -0.0083000839364812864 0 0.41928481904255338 -0.01548900553927589 0 0.42542521438275183 -0.0144422395697206 0 0.42248564151892998 0.0016345051066286029 0 0.4382820622288856 -0.0014159552958160841 0 0.42820760236351979 -0.0076976995852137747 0 0.42119781252485211 -0.0083000839364812864 0 0.42542521438275183 -0.0144422395697206 0 0.42820760236351979 -0.0076976995852137747 0 0.42248564151892998 0.0016345051066286029 0 0.42119781252485211 -0.0083000839364812864 0 0.42820760236351979 -0.0076976995852137747 0 0.44971415759127392 -0.039358306738208573 0 0.42907711285764621 -0.01818842757435184 0 0.42742255973229643 -0.030069766767760062 0 0.42011428296152808 -0.02169968792975261 0 0.42907711285764621 -0.01818842757435184 0 0.42742255973229643 -0.030069766767760062 0 0.42011428296152808 -0.02169968792975261 0 0.42542521438275183 -0.0144422395697206 0 0.42907711285764621 -0.01818842757435184 0 0.42011428296152808 -0.02169968792975261 0 0.42907711285764621 -0.01818842757435184 0 0.42542521438275183 -0.0144422395697206 0 0.42907711285764621 -0.01818842757435184 0 0.44971415759127392 -0.039358306738208573 0 0.42742255973229643 -0.030069766767760062 0 0.42419530264354072 -0.042652000491910397 0 0.41401194260749391 -0.028450411104576211 0 0.42742255973229643 -0.030069766767760062 0 0.42419530264354072 -0.042652000491910397 0 0.43963483674523918 -0.055334607978488382 0 0.42419530264354072 -0.042652000491910397 0 0.41814417465091752 -0.061397621471661459 0 0.41814417465091752 -0.061397621471661459 0 0.41107184061272262 -0.047596707948501772 0 0.39379637821942232 -0.04878788226426127 0 0.42419530264354072 -0.042652000491910397 0 0.41814417465091752 -0.061397621471661459 0 0.41107184061272262 -0.047596707948501772 0 0.41401194260749391 -0.028450411104576211 0 0.42419530264354072 -0.042652000491910397 0 0.40815150693701141 -0.037549327566173699 0 0.42419530264354072 -0.042652000491910397 0 0.41107184061272262 -0.047596707948501772 0 0.40815150693701141 -0.037549327566173699 0 0.41401194260749391 -0.028450411104576211 0 0.40815150693701141 -0.037549327566173699 0 0.40044964155059998 -0.029094842751199331 0 0.41107184061272262 -0.047596707948501772 0 0.40815150693701141 -0.037549327566173699 0 0.39379637821942232 -0.04878788226426127 0 0.40815150693701141 -0.037549327566173699 0 0.39379637821942232 -0.04878788226426127 0 0.40044964155059998 -0.029094842751199331 0 0.39379637821942232 -0.04878788226426127 0 0.38867892262788012 -0.028322223649632432 0 0.39379637821942232 -0.04878788226426127 0 0.38867892262788012 -0.028322223649632432 0 0.40044964155059998 -0.029094842751199331 0 0.39967735397270959 -0.072307000297579083 0 0.39379637821942232 -0.04878788226426127 0 0.38669795957132042 -0.057310603286660967 0 0.41814417465091752 -0.061397621471661459 0 0.39379637821942232 -0.04878788226426127 0 0.39967735397270959 -0.072307000297579083 0 0.39379637821942232 -0.04878788226426127 0 0.39967735397270959 -0.072307000297579083 0 0.41814417465091752 -0.061397621471661459 0 0.39379637821942232 -0.04878788226426127 0 0.39379637821942232 -0.04878788226426127 0 0.38896036142985008 -0.046283306103098283 0 0.38669795957132042 -0.057310603286660967 0 0.37839056082150663 -0.050608978831784571 0 0.37240766699872252 -0.068318548019290964 0 0.38669795957132042 -0.057310603286660967 0 0.37839056082150663 -0.050608978831784571 0 0.38896036142985008 -0.046283306103098283 0 0.39379637821942232 -0.04878788226426127 0 0.38669795957132042 -0.057310603286660967 0 0.38896036142985008 -0.046283306103098283 0 0.39379637821942232 -0.04878788226426127 0 0.38896036142985008 -0.046283306103098283 0 0.38867892262788012 -0.028322223649632432 0 0.3834615598562825 -0.037386722635115492 0 0.38896036142985008 -0.046283306103098283 0 0.38867892262788012 -0.028322223649632432 0 0.37839056082150663 -0.050608978831784571 0 0.3834615598562825 -0.037386722635115492 0 0.38896036142985008 -0.046283306103098283 0 0.37839056082150663 -0.050608978831784571 0 0.3834615598562825 -0.037386722635115492 0 0.37356965880113402 -0.040783236975350308 0 0.38867892262788012 -0.028322223649632432 0 0.38356146703633898 -0.0078565650350033434 0 0.3834615598562825 -0.037386722635115492 0 0.37600683512296651 -0.014087071697862221 0 0.37356965880113402 -0.040783236975350308 0 0.3834615598562825 -0.037386722635115492 0 0.38867892262788012 -0.028322223649632432 0 0.37600683512296651 -0.014087071697862221 0 0.38867892262788012 -0.028322223649632432 0 0.37600683512296651 -0.014087071697862221 0 0.38356146703633898 -0.0078565650350033434 0 0.38867892262788012 -0.028322223649632432 0 0.39658225960386179 -0.014459285545308009 0 0.38356146703633898 -0.0078565650350033434 0 0.38867892262788012 -0.028322223649632432 0 0.40044964155059998 -0.029094842751199331 0 0.39658225960386179 -0.014459285545308009 0 0.40522076275047969 -0.019933987949522329 0 0.40044964155059998 -0.029094842751199331 0 0.39658225960386179 -0.014459285545308009 0 0.40806592415966281 -0.01253819616599721 0 0.40522076275047969 -0.019933987949522329 0 0.39658225960386179 -0.014459285545308009 0 0.40060323373222451 0.0042547197705496897 0 0.4046584776842293 -0.0050702490882302163 0 0.39531848553630572 -0.0042569273994520467 0 0.40806592415966281 -0.01253819616599721 0 0.4046584776842293 -0.0050702490882302163 0 0.39658225960386179 -0.014459285545308009 0 0.4046584776842293 -0.0050702490882302163 0 0.39658225960386179 -0.014459285545308009 0 0.39531848553630572 -0.0042569273994520467 0 0.39658225960386179 -0.014459285545308009 0 0.39531848553630572 -0.0042569273994520467 0 0.38356146703633898 -0.0078565650350033434 0 0.39025836247721268 0.0036292771787240202 0 0.39531848553630572 -0.0042569273994520467 0 0.38356146703633898 -0.0078565650350033434 0 0.37844401144479839 0.012609093579625891 0 0.37600683512296651 -0.014087071697862221 0 0.37844401144479839 0.012609093579625891 0 0.37600683512296651 -0.014087071697862221 0 0.38356146703633898 -0.0078565650350033434 0 0.37600683512296651 -0.014087071697862221 0 0.36665723294200347 -0.001883505129568449 0 0.35850646790810559 -0.01395473468271459 0 0.37844401144479839 0.012609093579625891 0 0.37600683512296651 -0.014087071697862221 0 0.36665723294200347 -0.001883505129568449 0 0.36665723294200347 -0.001883505129568449 0 0.35531676971978082 -0.0033532784323768001 0 0.35850646790810559 -0.01395473468271459 0 0.37600683512296651 -0.014087071697862221 0 0.37356965880113402 -0.040783236975350308 0 0.37600683512296651 -0.014087071697862221 0 0.36404947753274258 -0.026706798856440471 0 0.35850646790810559 -0.01395473468271459 0 0.37600683512296651 -0.014087071697862221 0 0.36404947753274258 -0.026706798856440471 0 0.37356965880113402 -0.040783236975350308 0 0.34748556133762742 -0.02738266599094942 0 0.35850646790810559 -0.01395473468271459 0 0.34370628527030811 -0.0115647124322744 0 0.36404947753274258 -0.026706798856440471 0 0.34748556133762742 -0.02738266599094942 0 0.35850646790810559 -0.01395473468271459 0 0.36404947753274258 -0.026706798856440471 0 0.34748556133762742 -0.02738266599094942 0 0.36012817770438982 -0.039413746555128387 0 0.33689267375143878 0.0039255003288513873 0 0.35531676971978082 -0.0033532784323768001 0 0.34370628527030811 -0.0115647124322744 0 0.35531676971978082 -0.0033532784323768001 0 0.35850646790810559 -0.01395473468271459 0 0.34370628527030811 -0.0115647124322744 0 0.33689267375143878 0.0039255003288513873 0 0.34370628527030811 -0.0115647124322744 0 0.32469666258817742 -0.019557632270551 0 0.33689267375143878 0.0039255003288513873 0 0.30352242257352219 0.0039185454548519476 0 0.32469666258817742 -0.019557632270551 0 0.34748556133762742 -0.02738266599094942 0 0.34370628527030811 -0.0115647124322744 0 0.32469666258817742 -0.019557632270551 0 0.34748556133762742 -0.02738266599094942 0 0.32469666258817742 -0.019557632270551 0 0.33457477032001748 -0.043965109755099818 0 0.31326255248553708 -0.043768501277314603 0 0.32924913997341337 -0.063603686862235317 0 0.31014365419524398 -0.06072536978512106 0 0.31326255248553708 -0.043768501277314603 0 0.32924913997341337 -0.063603686862235317 0 0.31326255248553708 -0.043768501277314603 0 0.33457477032001748 -0.043965109755099818 0 0.32924913997341337 -0.063603686862235317 0 0.32469666258817742 -0.019557632270551 0 0.31326255248553708 -0.043768501277314603 0 0.33457477032001748 -0.043965109755099818 0 0.33457477032001748 -0.043965109755099818 0 0.34313363496153881 -0.061193084728204693 0 0.35029003257871461 -0.048624574981710279 0 0.33457477032001748 -0.043965109755099818 0 0.34313363496153881 -0.061193084728204693 0 0.32924913997341337 -0.063603686862235317 0 0.35029003257871461 -0.048624574981710279 0 0.36524615827173029 -0.053571455971191423 0 0.35631850447425872 -0.066333179594821989 0 0.34313363496153881 -0.061193084728204693 0 0.35029003257871461 -0.048624574981710279 0 0.35631850447425872 -0.066333179594821989 0 0.35029003257871461 -0.048624574981710279 0 0.36012817770438982 -0.039413746555128387 0 0.36524615827173029 -0.053571455971191423 0 0.34748556133762742 -0.02738266599094942 0 0.33457477032001748 -0.043965109755099818 0 0.35029003257871461 -0.048624574981710279 0 0.34748556133762742 -0.02738266599094942 0 0.35029003257871461 -0.048624574981710279 0 0.36012817770438982 -0.039413746555128387 0 0.36404947753274258 -0.026706798856440471 0 0.36012817770438982 -0.039413746555128387 0 0.37356965880113402 -0.040783236975350308 0 0.36012817770438982 -0.039413746555128387 0 0.37356965880113402 -0.040783236975350308 0 0.36524615827173029 -0.053571455971191423 0 0.37839056082150663 -0.050608978831784571 0 0.36524615827173029 -0.053571455971191423 0 0.37240766699872252 -0.068318548019290964 0 0.37839056082150663 -0.050608978831784571 0 0.37356965880113402 -0.040783236975350308 0 0.36524615827173029 -0.053571455971191423 0 0.36524615827173029 -0.053571455971191423 0 0.37240766699872252 -0.068318548019290964 0 0.35631850447425872 -0.066333179594821989 0 0.37240766699872252 -0.068318548019290964 0 0.36259903827425999 -0.08213590949324566 0 0.35631850447425872 -0.066333179594821989 0 0.37781097748786241 -0.089314889372882261 0 0.37240766699872252 -0.068318548019290964 0 0.36259903827425999 -0.08213590949324566 0 0.37781097748786241 -0.089314889372882261 0 0.36259903827425999 -0.08213590949324566 0 0.3612223149491664 -0.1032740580320769 0 0.34523572746128989 -0.083438872447156087 0 0.3612223149491664 -0.1032740580320769 0 0.36259903827425999 -0.08213590949324566 0 0.34523572746128989 -0.083438872447156087 0 0.3612223149491664 -0.1032740580320769 0 0.34313363496153881 -0.061193084728204693 0 0.34523572746128989 -0.083438872447156087 0 0.35631850447425872 -0.066333179594821989 0 0.36259903827425999 -0.08213590949324566 0 0.34523572746128989 -0.083438872447156087 0 0.35631850447425872 -0.066333179594821989 0 0.37720890243704291 -0.12310924361699779 0 0.36253108037134668 -0.1248744885805331 0 0.3612223149491664 -0.1032740580320769 0 0.37644505785585192 -0.1058120404938334 0 0.37720890243704291 -0.12310924361699779 0 0.3612223149491664 -0.1032740580320769 0 0.37720890243704291 -0.12310924361699779 0 0.3612223149491664 -0.1032740580320769 0 0.37781097748786241 -0.089314889372882261 0 0.37644505785585192 -0.1058120404938334 0 0.3612223149491664 -0.1032740580320769 0 0.34523572746128989 -0.083438872447156087 0 0.3612223149491664 -0.1032740580320769 0 0.33932087337301742 -0.1007066993955318 0 0.3612223149491664 -0.1032740580320769 0 0.34941185211170689 -0.1127717253903176 0 0.33932087337301742 -0.1007066993955318 0 0.36253108037134668 -0.1248744885805331 0 0.33587402752894302 -0.122350175475488 0 0.36253108037134668 -0.1248744885805331 0 0.34941185211170689 -0.1127717253903176 0 0.33587402752894302 -0.122350175475488 0 0.36253108037134668 -0.1248744885805331 0 0.3612223149491664 -0.1032740580320769 0 0.34941185211170689 -0.1127717253903176 0 0.34941185211170689 -0.1127717253903176 0 0.33587402752894302 -0.122350175475488 0 0.33932087337301742 -0.1007066993955318 0 0.33587402752894302 -0.122350175475488 0 0.33932087337301742 -0.1007066993955318 0 0.31943204723016899 -0.10139701157958859 0 0.33932087337301742 -0.1007066993955318 0 0.31943204723016899 -0.10139701157958859 0 0.32474927095682959 -0.081008353448563344 0 0.33587402752894302 -0.122350175475488 0 0.31943204723016899 -0.10139701157958859 0 0.3092169746865393 -0.1198258623704429 0 0.33587402752894302 -0.122350175475488 0 0.3092169746865393 -0.1198258623704429 0 0.34523572746128989 -0.083438872447156087 0 0.32924913997341337 -0.063603686862235317 0 0.32474927095682959 -0.081008353448563344 0 0.34523572746128989 -0.083438872447156087 0 0.32924913997341337 -0.063603686862235317 0 0.34313363496153881 -0.061193084728204693 0 0.34523572746128989 -0.083438872447156087 0 0.32924913997341337 -0.063603686862235317 0 0.34523572746128989 -0.083438872447156087 0 0.33932087337301742 -0.1007066993955318 0 0.32474927095682959 -0.081008353448563344 0 0.31943204723016899 -0.10139701157958859 0 0.32474927095682959 -0.081008353448563344 0 0.31117343018006932 -0.08835554327446378 0 0.32474927095682959 -0.081008353448563344 0 0.30201438303726968 -0.075929904193525521 0 0.32474927095682959 -0.081008353448563344 0 0.30201438303726968 -0.075929904193525521 0 0.31117343018006932 -0.08835554327446378 0 0.32924913997341337 -0.063603686862235317 0 0.32474927095682959 -0.081008353448563344 0 0.31014365419524398 -0.06072536978512106 0 0.32474927095682959 -0.081008353448563344 0 0.30201438303726968 -0.075929904193525521 0 0.31014365419524398 -0.06072536978512106 0 0.30201438303726968 -0.075929904193525521 0 0.31014365419524398 -0.06072536978512106 0 0.29222542489931519 -0.060978945333093171 0 0.31117343018006932 -0.08835554327446378 0 0.29442961060618023 -0.089764156713605506 0 0.30306705175182019 -0.101009202806625 0 0.30201438303726968 -0.075929904193525521 0 0.31117343018006932 -0.08835554327446378 0 0.29442961060618023 -0.089764156713605506 0 0.29442961060618023 -0.089764156713605506 0 0.28691460331806928 -0.079185378374353493 0 0.27734124638624891 -0.089737863242296378 0 0.30201438303726968 -0.075929904193525521 0 0.29442961060618023 -0.089764156713605506 0 0.28691460331806928 -0.079185378374353493 0 0.30201438303726968 -0.075929904193525521 0 0.27927949511770961 -0.070851454938488739 0 0.29222542489931519 -0.060978945333093171 0 0.30201438303726968 -0.075929904193525521 0 0.27927949511770961 -0.070851454938488739 0 0.30201438303726968 -0.075929904193525521 0 0.28691460331806928 -0.079185378374353493 0 0.27927949511770961 -0.070851454938488739 0 0.28691460331806928 -0.079185378374353493 0 0.27927949511770961 -0.070851454938488739 0 0.27809334201771629 -0.079209584513290715 0 0.28691460331806928 -0.079185378374353493 0 0.27927949511770961 -0.070851454938488739 0 0.27927949511770961 -0.070851454938488739 0 0.27868582307562201 -0.055886184139343542 0 0.29222542489931519 -0.060978945333093171 0 0.31943204723016899 -0.10139701157958859 0 0.3092169746865393 -0.1198258623704429 0 0.30306705175182019 -0.101009202806625 0 0.3092169746865393 -0.1198258623704429 0 0.30306705175182019 -0.101009202806625 0 0.28879183359809052 -0.10393054527906551 0 0.31943204723016899 -0.10139701157958859 0 0.31117343018006932 -0.08835554327446378 0 0.30306705175182019 -0.101009202806625 0 0.28879183359809052 -0.10393054527906551 0 0.28255992184413548 -0.11730154926539781 0 0.27267591943638608 -0.1048970298088977 0 0.29442961060618023 -0.089764156713605506 0 0.28879183359809052 -0.10393054527906551 0 0.27734124638624891 -0.089737863242296378 0 0.29442961060618023 -0.089764156713605506 0 0.30306705175182019 -0.101009202806625 0 0.28879183359809052 -0.10393054527906551 0 0.3092169746865393 -0.1198258623704429 0 0.28255992184413548 -0.11730154926539781 0 0.3092169746865393 -0.1198258623704429 0 0.28879183359809052 -0.10393054527906551 0 0.28255992184413548 -0.11730154926539781 0 0.3092169746865393 -0.1198258623704429 0 0.28255992184413548 -0.11730154926539781 0 0.28721398294742878 -0.13035474923543569 0 0.28255992184413548 -0.11730154926539781 0 0.26776517015272971 -0.1222840496799191 0 0.28721398294742878 -0.13035474923543569 0 0.28255992184413548 -0.11730154926539781 0 0.26776517015272971 -0.1222840496799191 0 0.27267591943638608 -0.1048970298088977 0 0.26776517015272971 -0.1222840496799191 0 0.27267591943638608 -0.1048970298088977 0 0.26047800574605201 -0.11084537767631369 0 0.28879183359809052 -0.10393054527906551 0 0.27267591943638608 -0.1048970298088977 0 0.27734124638624891 -0.089737863242296378 0 0.27267591943638608 -0.1048970298088977 0 0.27734124638624891 -0.089737863242296378 0 0.26256105175446781 -0.092679464148907056 0 0.25771864553297669 -0.099620140202181948 0 0.26047800574605201 -0.11084537767631369 0 0.24375228786211539 -0.116580291014256 0 0.27267591943638608 -0.1048970298088977 0 0.25771864553297669 -0.099620140202181948 0 0.26256105175446781 -0.092679464148907056 0 0.25771864553297669 -0.099620140202181948 0 0.25304747237378489 -0.090741332181114118 0 0.24292322406264641 -0.096552741650977186 0 0.25771864553297669 -0.099620140202181948 0 0.26256105175446781 -0.092679464148907056 0 0.25304747237378489 -0.090741332181114118 0 0.27267591943638608 -0.1048970298088977 0 0.25771864553297669 -0.099620140202181948 0 0.26047800574605201 -0.11084537767631369 0 0.26776517015272971 -0.1222840496799191 0 0.26153006621115998 -0.13421007507225571 0 0.24375228786211539 -0.116580291014256 0 0.26776517015272971 -0.1222840496799191 0 0.24375228786211539 -0.116580291014256 0 0.26776517015272971 -0.1222840496799191 0 0.26047800574605201 -0.11084537767631369 0 0.24375228786211539 -0.116580291014256 0 0.27927949511770961 -0.070851454938488739 0 0.25811154610651499 -0.066123023671663908 0 0.26329678137076351 -0.053405898285071182 0 0.27927949511770961 -0.070851454938488739 0 0.25811154610651499 -0.066123023671663908 0 0.26883802324883782 -0.077063641498024305 0 0.27927949511770961 -0.070851454938488739 0 0.25811154610651499 -0.066123023671663908 0 0.26883802324883782 -0.077063641498024305 0 0.27927949511770961 -0.070851454938488739 0 0.27809334201771629 -0.079209584513290715 0 0.26883802324883782 -0.077063641498024305 0 0.27809334201771629 -0.079209584513290715 0 0.27734124638624891 -0.089737863242296378 0 0.26883802324883782 -0.077063641498024305 0 0.27734124638624891 -0.089737863242296378 0 0.25202197504294188 -0.078400955310045109 0 0.28691460331806928 -0.079185378374353493 0 0.27809334201771629 -0.079209584513290715 0 0.27734124638624891 -0.089737863242296378 0 0.27734124638624891 -0.089737863242296378 0 0.26256105175446781 -0.092679464148907056 0 0.25202197504294188 -0.078400955310045109 0 0.27734124638624891 -0.089737863242296378 0 0.25202197504294188 -0.078400955310045109 0 0.26256105175446781 -0.092679464148907056 0 0.25304747237378489 -0.090741332181114118 0 0.25202197504294188 -0.078400955310045109 0 0.25304747237378489 -0.090741332181114118 0 0.25202197504294188 -0.078400955310045109 0 0.24624903761231479 -0.086847438891893419 0 0.26883802324883782 -0.077063641498024305 0 0.25202197504294188 -0.078400955310045109 0 0.25811154610651499 -0.066123023671663908 0 0.25811154610651499 -0.066123023671663908 0 0.26329678137076351 -0.053405898285071182 0 0.24870160087168189 -0.052882304334001928 0 0.26329678137076351 -0.053405898285071182 0 0.24870160087168189 -0.052882304334001928 0 0.24731406762381819 -0.035960341631652723 0 0.27927949511770961 -0.070851454938488739 0 0.26329678137076351 -0.053405898285071182 0 0.27868582307562201 -0.055886184139343542 0 0.27927949511770961 -0.070851454938488739 0 0.26329678137076351 -0.053405898285071182 0 0.26329678137076351 -0.053405898285071182 0 0.27868582307562201 -0.055886184139343542 0 0.27337213238318842 -0.044040078526876879 0 0.27868582307562201 -0.055886184139343542 0 0.27337213238318842 -0.044040078526876879 0 0.28525528160713332 -0.050154543613187753 0 0.26329678137076351 -0.053405898285071182 0 0.27337213238318842 -0.044040078526876879 0 0.26311483972878968 -0.036713614733010089 0 0.27337213238318842 -0.044040078526876879 0 0.27217486102646721 -0.027861542379398439 0 0.28494473946257981 -0.034556038004921102 0 0.27337213238318842 -0.044040078526876879 0 0.26311483972878968 -0.036713614733010089 0 0.27217486102646721 -0.027861542379398439 0 0.27337213238318842 -0.044040078526876879 0 0.28525528160713332 -0.050154543613187753 0 0.28494473946257981 -0.034556038004921102 0 0.26311483972878968 -0.036713614733010089 0 0.25941635623971138 -0.02230021284205122 0 0.24731406762381819 -0.035960341631652723 0 0.26329678137076351 -0.053405898285071182 0 0.24731406762381819 -0.035960341631652723 0 0.26329678137076351 -0.053405898285071182 0 0.26311483972878968 -0.036713614733010089 0 0.24731406762381819 -0.035960341631652723 0 0.25941635623971138 -0.02230021284205122 0 0.24731406762381819 -0.035960341631652723 0 0.2482857443068576 -0.021714794414400052 0 0.25941635623971138 -0.02230021284205122 0 0.25508119948702751 -0.010083838205662381 0 0.2482857443068576 -0.021714794414400052 0 0.26311483972878968 -0.036713614733010089 0 0.25941635623971138 -0.02230021284205122 0 0.27217486102646721 -0.027861542379398439 0 0.2541426920980116 -0.0036136263454906951 0 0.25508119948702751 -0.010083838205662381 0 0.24138147174972829 -0.0061427828714447699 0 0.2541426920980116 -0.0036136263454906951 0 0.25508119948702751 -0.010083838205662381 0 0.26047117107291767 -0.0019720443344692288 0 0.25446675038947358 0.0029162606258486688 0 0.2541426920980116 -0.0036136263454906951 0 0.26047117107291767 -0.0019720443344692288 0 0.25941635623971138 -0.02230021284205122 0 0.25508119948702751 -0.010083838205662381 0 0.26474460583379889 -0.01023883548432745 0 0.25941635623971138 -0.02230021284205122 0 0.26474460583379889 -0.01023883548432745 0 0.27166734417845928 -0.01430021117376327 0 0.25508119948702751 -0.010083838205662381 0 0.26474460583379889 -0.01023883548432745 0 0.26047117107291767 -0.0019720443344692288 0 0.26474460583379889 -0.01023883548432745 0 0.26047117107291767 -0.0019720443344692288 0 0.27708695819087842 -0.0025378708656911609 0 0.26474460583379889 -0.01023883548432745 0 0.27166734417845928 -0.01430021117376327 0 0.27708695819087842 -0.0025378708656911609 0 0.27166734417845928 -0.01430021117376327 0 0.27708695819087842 -0.0025378708656911609 0 0.28469269166600031 -0.01545933141113482 0 0.27217486102646721 -0.027861542379398439 0 0.28469269166600031 -0.01545933141113482 0 0.28494473946257981 -0.034556038004921102 0 0.25941635623971138 -0.02230021284205122 0 0.27166734417845928 -0.01430021117376327 0 0.27217486102646721 -0.027861542379398439 0 0.27166734417845928 -0.01430021117376327 0 0.27217486102646721 -0.027861542379398439 0 0.28469269166600031 -0.01545933141113482 0 0.28469269166600031 -0.01545933141113482 0 0.29727596499766062 -0.023933315692393788 0 0.28494473946257981 -0.034556038004921102 0 0.30352242257352219 0.0039185454548519476 0 0.28469269166600031 -0.01545933141113482 0 0.29727596499766062 -0.023933315692393788 0 0.30352242257352219 0.0039185454548519476 0 0.27708695819087842 -0.0025378708656911609 0 0.28469269166600031 -0.01545933141113482 0 0.30352242257352219 0.0039185454548519476 0 0.32469666258817742 -0.019557632270551 0 0.29727596499766062 -0.023933315692393788 0 0.32469666258817742 -0.019557632270551 0 0.31326255248553708 -0.043768501277314603 0 0.29727596499766062 -0.023933315692393788 0 0.31326255248553708 -0.043768501277314603 0 0.29727596499766062 -0.023933315692393788 0 0.2968975050950291 -0.045887416406534938 0 0.31326255248553708 -0.043768501277314603 0 0.29727596499766062 -0.023933315692393788 0 0.31326255248553708 -0.043768501277314603 0 0.2968975050950291 -0.045887416406534938 0 0.31014365419524398 -0.06072536978512106 0 0.2968975050950291 -0.045887416406534938 0 0.31014365419524398 -0.06072536978512106 0 0.29222542489931519 -0.060978945333093171 0 0.2968975050950291 -0.045887416406534938 0 0.29222542489931519 -0.060978945333093171 0 0.28525528160713332 -0.050154543613187753 0 0.27868582307562201 -0.055886184139343542 0 0.29222542489931519 -0.060978945333093171 0 0.28525528160713332 -0.050154543613187753 0 0.2968975050950291 -0.045887416406534938 0 0.28525528160713332 -0.050154543613187753 0 0.28494473946257981 -0.034556038004921102 0 0.29727596499766062 -0.023933315692393788 0 0.2968975050950291 -0.045887416406534938 0 0.28494473946257981 -0.034556038004921102 0 0.29579617193404978 -0.19432558104056491 0 0.30588539897632072 -0.22256652654210629 0 0.2776594049058328 -0.2175861504380624 0 0.29579617193404978 -0.19432558104056491 0 0.2776594049058328 -0.2175861504380624 0 0.2764107852420567 -0.19644220614923899 0 0.29579617193404978 -0.19432558104056491 0 0.2764107852420567 -0.19644220614923899 0 0.2792899687438003 -0.18116405860585089 0 0.29579617193404978 -0.19432558104056491 0 0.31045946319455608 -0.20263901644370941 0 0.31057073564158039 -0.17760626025882659 0 0.29579617193404978 -0.19432558104056491 0 0.30588539897632072 -0.22256652654210629 0 0.31045946319455608 -0.20263901644370941 0 0.30588539897632072 -0.22256652654210629 0 0.32020032842118662 -0.2136972324735969 0 0.29579617193404978 -0.19432558104056491 0 0.31045946319455608 -0.20263901644370941 0 0.30588539897632072 -0.22256652654210629 0 0.29681701546221179 -0.23419681124085551 0 0.31597462601859122 -0.25080747204364812 0 0.30111904597271899 -0.2536098058489899 0 0.30588539897632072 -0.22256652654210629 0 0.29681701546221179 -0.23419681124085551 0 0.31597462601859122 -0.25080747204364812 0 0.30588539897632072 -0.22256652654210629 0 0.31597462601859122 -0.25080747204364812 0 0.29681701546221179 -0.23419681124085551 0 0.31597462601859122 -0.25080747204364812 0 0.29681701546221179 -0.23419681124085551 0 0.30111904597271899 -0.2536098058489899 0 0.28456511698073272 -0.25518130134833977 0 0.29681701546221179 -0.23419681124085551 0 0.27830026498091959 -0.23745462562099759 0 0.28456511698073272 -0.25518130134833977 0 0.30588539897632072 -0.22256652654210629 0 0.29681701546221179 -0.23419681124085551 0 0.2776594049058328 -0.2175861504380624 0 0.29681701546221179 -0.23419681124085551 0 0.27830026498091959 -0.23745462562099759 0 0.2776594049058328 -0.2175861504380624 0 0.29681701546221179 -0.23419681124085551 0 0.2776594049058328 -0.2175861504380624 0 0.26584409390649738 -0.23415831621220631 0 0.27830026498091959 -0.23745462562099759 0 0.2776594049058328 -0.2175861504380624 0 0.26584409390649738 -0.23415831621220631 0 0.25658827463044448 -0.2222138965281123 0 0.2776594049058328 -0.2175861504380624 0 0.27830026498091959 -0.23745462562099759 0 0.28456511698073272 -0.25518130134833977 0 0.26629969424128969 -0.25192769388052821 0 0.26584409390649738 -0.23415831621220631 0 0.27830026498091959 -0.23745462562099759 0 0.26629969424128969 -0.25192769388052821 0 0.26584409390649738 -0.23415831621220631 0 0.25037283077400019 -0.2416092145933311 0 0.26629969424128969 -0.25192769388052821 0 0.25037283077400019 -0.2416092145933311 0 0.25658827463044448 -0.2222138965281123 0 0.2446094219978813 -0.2276121794933563 0 0.26584409390649738 -0.23415831621220631 0 0.25037283077400019 -0.2416092145933311 0 0.25658827463044448 -0.2222138965281123 0 0.25658827463044448 -0.2222138965281123 0 0.2776594049058328 -0.2175861504380624 0 0.25850179434945381 -0.20097548963526929 0 0.25658827463044448 -0.2222138965281123 0 0.25850179434945381 -0.20097548963526929 0 0.23907695871134879 -0.21289681242661959 0 0.2776594049058328 -0.2175861504380624 0 0.25850179434945381 -0.20097548963526929 0 0.2776594049058328 -0.2175861504380624 0 0.2764107852420567 -0.19644220614923899 0 0.25850179434945381 -0.20097548963526929 0 0.2764107852420567 -0.19644220614923899 0 0.25850179434945381 -0.20097548963526929 0 0.26539786460737957 -0.18100391429238191 0 0.25850179434945381 -0.20097548963526929 0 0.26539786460737957 -0.18100391429238191 0 0.23934418379307471 -0.18436482883247621 0 0.26539786460737957 -0.18100391429238191 0 0.25449645062408999 -0.16331052089379791 0 0.23934418379307471 -0.18436482883247621 0 0.26539786460737957 -0.18100391429238191 0 0.25449645062408999 -0.16331052089379791 0 0.27043371620885309 -0.16438603764101259 0 0.25449645062408999 -0.16331052089379791 0 0.27043371620885309 -0.16438603764101259 0 0.2633734196266177 -0.15149826902969399 0 0.27043371620885309 -0.16438603764101259 0 0.2792899687438003 -0.18116405860585089 0 0.28570694489177878 -0.1660846355390232 0 0.27043371620885309 -0.16438603764101259 0 0.27930784456020519 -0.15183985913025491 0 0.28570694489177878 -0.1660846355390232 0 0.26539786460737957 -0.18100391429238191 0 0.27043371620885309 -0.16438603764101259 0 0.2792899687438003 -0.18116405860585089 0 0.2764107852420567 -0.19644220614923899 0 0.26539786460737957 -0.18100391429238191 0 0.2792899687438003 -0.18116405860585089 0 0.26153006621115998 -0.13421007507225571 0 0.24375228786211539 -0.116580291014256 0 0.24955680073527009 -0.143898101237383 0 0.26153006621115998 -0.13421007507225571 0 0.24375228786211539 -0.116580291014256 0 0.25449645062408999 -0.16331052089379791 0 0.2633734196266177 -0.15149826902969399 0 0.24955680073527009 -0.143898101237383 0 0.26153006621115998 -0.13421007507225571 0 0.2633734196266177 -0.15149826902969399 0 0.24955680073527009 -0.143898101237383 0 0.27043371620885309 -0.16438603764101259 0 0.2633734196266177 -0.15149826902969399 0 0.27930784456020519 -0.15183985913025491 0 0.27561771784950778 -0.13784369003748159 0 0.28570694489177878 -0.1660846355390232 0 0.26153006621115998 -0.13421007507225571 0 0.27930784456020519 -0.15183985913025491 0 0.27561771784950778 -0.13784369003748159 0 0.27930784456020519 -0.15183985913025491 0 0.27561771784950778 -0.13784369003748159 0 0.28570694489177878 -0.1660846355390232 0 0.26153006621115998 -0.13421007507225571 0 0.2633734196266177 -0.15149826902969399 0 0.27930784456020519 -0.15183985913025491 0 0.26153006621115998 -0.13421007507225571 0 0.27930784456020519 -0.15183985913025491 0 0.26776517015272971 -0.1222840496799191 0 0.27561771784950778 -0.13784369003748159 0 0.28721398294742878 -0.13035474923543569 0 0.26776517015272971 -0.1222840496799191 0 0.26153006621115998 -0.13421007507225571 0 0.27561771784950778 -0.13784369003748159 0 0.27561771784950778 -0.13784369003748159 0 0.28721398294742878 -0.13035474923543569 0 0.28891568690104508 -0.14625428249578579 0 0.28721398294742878 -0.13035474923543569 0 0.28891568690104508 -0.14625428249578579 0 0.29920842625061578 -0.1386190615635868 0 0.28891568690104508 -0.14625428249578579 0 0.29920842625061578 -0.1386190615635868 0 0.29789574789403661 -0.15876522012859751 0 0.27561771784950778 -0.13784369003748159 0 0.28891568690104508 -0.14625428249578579 0 0.28570694489177878 -0.1660846355390232 0 0.30985117626407932 -0.1486491484402036 0 0.29920842625061578 -0.1386190615635868 0 0.29789574789403661 -0.15876522012859751 0 0.30985117626407932 -0.1486491484402036 0 0.29789574789403661 -0.15876522012859751 0 0.3134799250960158 -0.16133035304856411 0 0.30985117626407932 -0.1486491484402036 0 0.29920842625061578 -0.1386190615635868 0 0.31980994510895661 -0.13408045692276491 0 0.3092169746865393 -0.1198258623704429 0 0.28721398294742878 -0.13035474923543569 0 0.29920842625061578 -0.1386190615635868 0 0.3092169746865393 -0.1198258623704429 0 0.29920842625061578 -0.1386190615635868 0 0.31980994510895661 -0.13408045692276491 0 0.29579617193404978 -0.19432558104056491 0 0.2792899687438003 -0.18116405860585089 0 0.28570694489177878 -0.1660846355390232 0 0.29579617193404978 -0.19432558104056491 0 0.28570694489177878 -0.1660846355390232 0 0.29579617193404978 -0.19432558104056491 0 0.28570694489177878 -0.1660846355390232 0 0.29784246694311001 -0.17248502473641619 0 0.28891568690104508 -0.14625428249578579 0 0.28570694489177878 -0.1660846355390232 0 0.29789574789403661 -0.15876522012859751 0 0.28570694489177878 -0.1660846355390232 0 0.29789574789403661 -0.15876522012859751 0 0.29784246694311001 -0.17248502473641619 0 0.29789574789403661 -0.15876522012859751 0 0.31057073564158039 -0.17760626025882659 0 0.3134799250960158 -0.16133035304856411 0 0.29789574789403661 -0.15876522012859751 0 0.31057073564158039 -0.17760626025882659 0 0.29784246694311001 -0.17248502473641619 0 0.29789574789403661 -0.15876522012859751 0 0.31057073564158039 -0.17760626025882659 0 0.29579617193404978 -0.19432558104056491 0 0.31057073564158039 -0.17760626025882659 0 0.29784246694311001 -0.17248502473641619 0 0.31057073564158039 -0.17760626025882659 0 0.33117051957001492 -0.16690810347740409 0 0.33960500058918919 -0.18923554211963439 0 0.31057073564158039 -0.17760626025882659 0 0.32324572338912438 -0.19644730038905581 0 0.3134799250960158 -0.16133035304856411 0 0.33117051957001492 -0.16690810347740409 0 0.32297156368297691 -0.15191279281852399 0 0.31057073564158039 -0.17760626025882659 0 0.3134799250960158 -0.16133035304856411 0 0.33117051957001492 -0.16690810347740409 0 0.33117051957001492 -0.16690810347740409 0 0.34312821131240068 -0.1490342399984359 0 0.35150112372442083 -0.17432517416681301 0 0.33117051957001492 -0.16690810347740409 0 0.35150112372442083 -0.17432517416681301 0 0.33960500058918919 -0.18923554211963439 0 0.33587402752894302 -0.122350175475488 0 0.3092169746865393 -0.1198258623704429 0 0.31980994510895661 -0.13408045692276491 0 0.30985117626407932 -0.1486491484402036 0 0.31980994510895661 -0.13408045692276491 0 0.32297156368297691 -0.15191279281852399 0 0.30985117626407932 -0.1486491484402036 0 0.3134799250960158 -0.16133035304856411 0 0.32297156368297691 -0.15191279281852399 0 0.33117051957001492 -0.16690810347740409 0 0.32297156368297691 -0.15191279281852399 0 0.34312821131240068 -0.1490342399984359 0 0.31980994510895661 -0.13408045692276491 0 0.32297156368297691 -0.15191279281852399 0 0.34312821131240068 -0.1490342399984359 0 0.33587402752894302 -0.122350175475488 0 0.31980994510895661 -0.13408045692276491 0 0.34312821131240068 -0.1490342399984359 0 0.36253108037134668 -0.1248744885805331 0 0.33587402752894302 -0.122350175475488 0 0.3555623608711499 -0.1359942506039106 0 0.33587402752894302 -0.122350175475488 0 0.34312821131240068 -0.1490342399984359 0 0.3555623608711499 -0.1359942506039106 0 0.34312821131240068 -0.1490342399984359 0 0.3555623608711499 -0.1359942506039106 0 0.36858459771950869 -0.15733985743645959 0 0.3555623608711499 -0.1359942506039106 0 0.36652086356581781 -0.12946943863695781 0 0.36858459771950869 -0.15733985743645959 0 0.36652086356581781 -0.12946943863695781 0 0.36858459771950869 -0.15733985743645959 0 0.36652086356581781 -0.12946943863695781 0 0.36858459771950869 -0.15733985743645959 0 0.3787995421462832 -0.1425544525875144 0 0.36652086356581781 -0.12946943863695781 0 0.37808333446084269 -0.1309391893982525 0 0.3787995421462832 -0.1425544525875144 0 0.36253108037134668 -0.1248744885805331 0 0.36652086356581781 -0.12946943863695781 0 0.37808333446084269 -0.1309391893982525 0 0.36253108037134668 -0.1248744885805331 0 0.3555623608711499 -0.1359942506039106 0 0.36652086356581781 -0.12946943863695781 0 0.35150112372442083 -0.17432517416681301 0 0.37064833187319962 -0.1852102762359614 0 0.35587008128221181 -0.19822302573298239 0 0.35150112372442083 -0.17432517416681301 0 0.35587008128221181 -0.19822302573298239 0 0.33960500058918919 -0.18923554211963439 0 0.34312821131240068 -0.1490342399984359 0 0.35150112372442083 -0.17432517416681301 0 0.36858459771950869 -0.15733985743645959 0 0.36858459771950869 -0.15733985743645959 0 0.37064833187319962 -0.1852102762359614 0 0.35150112372442083 -0.17432517416681301 0 0.36858459771950869 -0.15733985743645959 0 0.37064833187319962 -0.1852102762359614 0 0.36858459771950869 -0.15733985743645959 0 0.37064833187319962 -0.1852102762359614 0 0.3834788620725188 -0.17954848884060079 0 0.37064833187319962 -0.1852102762359614 0 0.37271206602689039 -0.21308069503546309 0 0.38139900114097952 -0.20469292352659629 0 0.37064833187319962 -0.1852102762359614 0 0.37271206602689039 -0.21308069503546309 0 0.37064833187319962 -0.1852102762359614 0 0.37271206602689039 -0.21308069503546309 0 0.35587008128221181 -0.19822302573298239 0 0.37271206602689039 -0.21308069503546309 0 0.35603419272415182 -0.2169366224123114 0 0.35587008128221181 -0.19822302573298239 0 0.35603419272415182 -0.2169366224123114 0 0.35587008128221181 -0.19822302573298239 0 0.33592071113666833 -0.21528834051928489 0 0.35587008128221181 -0.19822302573298239 0 0.33960500058918919 -0.18923554211963439 0 0.33592071113666833 -0.21528834051928489 0 0.33960500058918919 -0.18923554211963439 0 0.33592071113666833 -0.21528834051928489 0 0.32324572338912438 -0.19644730038905581 0 0.33592071113666833 -0.21528834051928489 0 0.32324572338912438 -0.19644730038905581 0 0.33592071113666833 -0.21528834051928489 0 0.32020032842118662 -0.2136972324735969 0 0.32324572338912438 -0.19644730038905581 0 0.31045946319455608 -0.20263901644370941 0 0.32020032842118662 -0.2136972324735969 0 0.32324572338912438 -0.19644730038905581 0 0.31057073564158039 -0.17760626025882659 0 0.33960500058918919 -0.18923554211963439 0 0.32324572338912438 -0.19644730038905581 0 0.31045946319455608 -0.20263901644370941 0 0.31057073564158039 -0.17760626025882659 0 0.32324572338912438 -0.19644730038905581 0 0.32549034540926353 -0.23154497847382799 0 0.33517615116993849 -0.24743488902137309 0 0.31597462601859122 -0.25080747204364812 0 0.30588539897632072 -0.22256652654210629 0 0.32549034540926353 -0.23154497847382799 0 0.31597462601859122 -0.25080747204364812 0 0.30588539897632072 -0.22256652654210629 0 0.32020032842118662 -0.2136972324735969 0 0.32549034540926353 -0.23154497847382799 0 0.33592071113666833 -0.21528834051928489 0 0.32020032842118662 -0.2136972324735969 0 0.32549034540926353 -0.23154497847382799 0 0.33592071113666833 -0.21528834051928489 0 0.32549034540926353 -0.23154497847382799 0 0.34859569888421221 -0.23412938064951411 0 0.33592071113666833 -0.21528834051928489 0 0.34859569888421221 -0.23412938064951411 0 0.32549034540926353 -0.23154497847382799 0 0.33517615116993849 -0.24743488902137309 0 0.34859569888421221 -0.23412938064951411 0 0.33517615116993849 -0.24743488902137309 0 0.34859569888421221 -0.23412938064951411 0 0.35185333732921159 -0.25428502110151557 0 0.34859569888421221 -0.23412938064951411 0 0.36075586336603621 -0.2426037127049111 0 0.35185333732921159 -0.25428502110151557 0 0.34859569888421221 -0.23412938064951411 0 0.36291464790978972 -0.22902601310760301 0 0.36075586336603621 -0.2426037127049111 0 0.35603419272415182 -0.2169366224123114 0 0.34859569888421221 -0.23412938064951411 0 0.36291464790978972 -0.22902601310760301 0 0.35603419272415182 -0.2169366224123114 0 0.33592071113666833 -0.21528834051928489 0 0.34859569888421221 -0.23412938064951411 0 0.37271206602689039 -0.21308069503546309 0 0.35603419272415182 -0.2169366224123114 0 0.36291464790978972 -0.22902601310760301 0 0.37271206602689039 -0.21308069503546309 0 0.37477580018058132 -0.24095111383496479 0 0.37555308153547928 -0.22286467051027881 0 0.37271206602689039 -0.21308069503546309 0 0.37477580018058132 -0.24095111383496479 0 0.37271206602689039 -0.21308069503546309 0 0.36291464790978972 -0.22902601310760301 0 0.37477580018058132 -0.24095111383496479 0 0.36075586336603621 -0.2426037127049111 0 0.37477580018058132 -0.24095111383496479 0 0.36563983252638571 -0.25462703483095822 0 0.36291464790978972 -0.22902601310760301 0 0.36075586336603621 -0.2426037127049111 0 0.37477580018058132 -0.24095111383496479 0 0.37477580018058132 -0.24095111383496479 0 0.39321551516580561 -0.23618023300957031 0 0.38725375881062551 -0.25185160038302579 0 0.39321551516580561 -0.23618023300957031 0 0.41087794879613182 -0.2494957955088617 0 0.40741230325918792 -0.23450562481703699 0 0.39321551516580561 -0.23618023300957031 0 0.41087794879613182 -0.2494957955088617 0 0.39321551516580561 -0.23618023300957031 0 0.38725375881062551 -0.25185160038302579 0 0.39640803358832022 -0.25154779433757402 0 0.39321551516580561 -0.23618023300957031 0 0.41087794879613182 -0.2494957955088617 0 0.39640803358832022 -0.25154779433757402 0 0.4055308246994358 -0.22407667781788709 0 0.39424069285124719 -0.22310079746779379 0 0.40434357831770951 -0.21487406561090469 0 0.4055308246994358 -0.22407667781788709 0 0.39424069285124719 -0.22310079746779379 0 0.40741230325918792 -0.23450562481703699 0 0.39321551516580561 -0.23618023300957031 0 0.39424069285124719 -0.22310079746779379 0 0.40741230325918792 -0.23450562481703699 0 0.37477580018058132 -0.24095111383496479 0 0.39321551516580561 -0.23618023300957031 0 0.37555308153547928 -0.22286467051027881 0 0.39424069285124719 -0.22310079746779379 0 0.37555308153547928 -0.22286467051027881 0 0.38300691860546521 -0.21527996176244341 0 0.39321551516580561 -0.23618023300957031 0 0.37555308153547928 -0.22286467051027881 0 0.39321551516580561 -0.23618023300957031 0 0.39424069285124719 -0.22310079746779379 0 0.37555308153547928 -0.22286467051027881 0 0.37271206602689039 -0.21308069503546309 0 0.37555308153547928 -0.22286467051027881 0 0.38300691860546521 -0.21527996176244341 0 0.37271206602689039 -0.21308069503546309 0 0.38139900114097952 -0.20469292352659629 0 0.38300691860546521 -0.21527996176244341 0 0.38139900114097952 -0.20469292352659629 0 0.39078770323730427 -0.19674260859680251 0 0.39112975147272949 -0.2126607222720846 0 0.38139900114097952 -0.20469292352659629 0 0.38300691860546521 -0.21527996176244341 0 0.39112975147272949 -0.2126607222720846 0 0.39424069285124719 -0.22310079746779379 0 0.38300691860546521 -0.21527996176244341 0 0.39112975147272949 -0.2126607222720846 0 0.37064833187319962 -0.1852102762359614 0 0.38139900114097952 -0.20469292352659629 0 0.39078770323730427 -0.19674260859680251 0 0.39078770323730427 -0.19674260859680251 0 0.40475141021500721 -0.1910589369573561 0 0.39510197637232292 -0.1839605883432579 0 0.39078770323730427 -0.19674260859680251 0 0.40426546228868082 -0.20108352786525729 0 0.397631623829106 -0.20634023108626229 0 0.39078770323730427 -0.19674260859680251 0 0.40426546228868082 -0.20108352786525729 0 0.40475141021500721 -0.1910589369573561 0 0.39078770323730427 -0.19674260859680251 0 0.39112975147272949 -0.2126607222720846 0 0.397631623829106 -0.20634023108626229 0 0.39112975147272949 -0.2126607222720846 0 0.397631623829106 -0.20634023108626229 0 0.40434357831770951 -0.21487406561090469 0 0.39424069285124719 -0.22310079746779379 0 0.39112975147272949 -0.2126607222720846 0 0.40434357831770951 -0.21487406561090469 0 0.40426546228868082 -0.20108352786525729 0 0.397631623829106 -0.20634023108626229 0 0.40434357831770951 -0.21487406561090469 0 0.40434357831770951 -0.21487406561090469 0 0.41713092845542321 -0.20900944133272009 0 0.41612672436959858 -0.22382622337581301 0 0.40426546228868082 -0.20108352786525729 0 0.40434357831770951 -0.21487406561090469 0 0.41713092845542321 -0.20900944133272009 0 0.41713092845542321 -0.20900944133272009 0 0.42330136258736267 -0.2174116668913772 0 0.41612672436959858 -0.22382622337581301 0 0.40475141021500721 -0.1910589369573561 0 0.41487892771890261 -0.19826025474908979 0 0.4146572714410397 -0.186958864794112 0 0.40426546228868082 -0.20108352786525729 0 0.41713092845542321 -0.20900944133272009 0 0.41487892771890261 -0.19826025474908979 0 0.40426546228868082 -0.20108352786525729 0 0.40475141021500721 -0.1910589369573561 0 0.41487892771890261 -0.19826025474908979 0 0.41713092845542321 -0.20900944133272009 0 0.41487892771890261 -0.19826025474908979 0 0.42701217502226602 -0.19751647228806199 0 0.41487892771890261 -0.19826025474908979 0 0.42053294087941678 -0.1923617771039739 0 0.42701217502226602 -0.19751647228806199 0 0.42053294087941678 -0.1923617771039739 0 0.4146572714410397 -0.186958864794112 0 0.42558338933545942 -0.1867115165846317 0 0.41487892771890261 -0.19826025474908979 0 0.42053294087941678 -0.1923617771039739 0 0.4146572714410397 -0.186958864794112 0 0.42701217502226602 -0.19751647228806199 0 0.43844209377108118 -0.18689286854296691 0 0.44355474576021348 -0.2050869029196882 0 0.42053294087941678 -0.1923617771039739 0 0.42701217502226602 -0.19751647228806199 0 0.42558338933545942 -0.1867115165846317 0 0.42701217502226602 -0.19751647228806199 0 0.42558338933545942 -0.1867115165846317 0 0.43844209377108118 -0.18689286854296691 0 0.42701217502226602 -0.19751647228806199 0 0.43006687167525981 -0.21185300334864521 0 0.44355474576021348 -0.2050869029196882 0 0.41713092845542321 -0.20900944133272009 0 0.42330136258736267 -0.2174116668913772 0 0.43006687167525981 -0.21185300334864521 0 0.42330136258736267 -0.2174116668913772 0 0.43006687167525981 -0.21185300334864521 0 0.42988092584916948 -0.2249579995083304 0 0.41713092845542321 -0.20900944133272009 0 0.42701217502226602 -0.19751647228806199 0 0.43006687167525981 -0.21185300334864521 0 0.43006687167525981 -0.21185300334864521 0 0.42988092584916948 -0.2249579995083304 0 0.44009267276725389 -0.2176624614444449 0 0.42330136258736267 -0.2174116668913772 0 0.42988092584916948 -0.2249579995083304 0 0.41612672436959858 -0.22382622337581301 0 0.42988092584916948 -0.2249579995083304 0 0.43458399188612801 -0.2397076170126072 0 0.42159465327244361 -0.23640953485310751 0 0.42988092584916948 -0.2249579995083304 0 0.42159465327244361 -0.23640953485310751 0 0.41612672436959858 -0.22382622337581301 0 0.42988092584916948 -0.2249579995083304 0 0.43458399188612801 -0.2397076170126072 0 0.44416109061426973 -0.22983272991065171 0 0.43458399188612801 -0.2397076170126072 0 0.42656562700980838 -0.24831468624349931 0 0.4372088962240912 -0.25169219704383999 0 0.43458399188612801 -0.2397076170126072 0 0.42656562700980838 -0.24831468624349931 0 0.42159465327244361 -0.23640953485310751 0 0.42656562700980838 -0.24831468624349931 0 0.42159465327244361 -0.23640953485310751 0 0.41087794879613182 -0.2494957955088617 0 0.42159465327244361 -0.23640953485310751 0 0.41087794879613182 -0.2494957955088617 0 0.40741230325918792 -0.23450562481703699 0 0.4055308246994358 -0.22407667781788709 0 0.40741230325918792 -0.23450562481703699 0 0.41612672436959858 -0.22382622337581301 0 0.4055308246994358 -0.22407667781788709 0 0.40434357831770951 -0.21487406561090469 0 0.41612672436959858 -0.22382622337581301 0 0.42159465327244361 -0.23640953485310751 0 0.40741230325918792 -0.23450562481703699 0 0.41612672436959858 -0.22382622337581301 0 0.39823574772599779 -0.11763079726210079 0 0.40257569972698831 -0.13396225485532559 0 0.38918813321375051 -0.12739880168557821 0 0.40257569972698831 -0.13396225485532559 0 0.38918813321375051 -0.12739880168557821 0 0.39017348084279901 -0.13955387731924049 0 0.38918813321375051 -0.12739880168557821 0 0.37808333446084269 -0.1309391893982525 0 0.39017348084279901 -0.13955387731924049 0 0.37720890243704291 -0.12310924361699779 0 0.36253108037134668 -0.1248744885805331 0 0.38918813321375051 -0.12739880168557821 0 0.36253108037134668 -0.1248744885805331 0 0.38918813321375051 -0.12739880168557821 0 0.37808333446084269 -0.1309391893982525 0 0.36253108037134668 -0.1248744885805331 0 0.38918813321375051 -0.12739880168557821 0 0.37808333446084269 -0.1309391893982525 0 0.39017348084279901 -0.13955387731924049 0 0.3787995421462832 -0.1425544525875144 0 0.36858459771950869 -0.15733985743645959 0 0.3787995421462832 -0.1425544525875144 0 0.38535727780346091 -0.1527557998392445 0 0.39017348084279901 -0.13955387731924049 0 0.3787995421462832 -0.1425544525875144 0 0.38535727780346091 -0.1527557998392445 0 0.40257569972698831 -0.13396225485532559 0 0.39822107621443897 -0.1501202070538992 0 0.41732028123257531 -0.14286435439753159 0 0.40257569972698831 -0.13396225485532559 0 0.39017348084279901 -0.13955387731924049 0 0.39822107621443897 -0.1501202070538992 0 0.39017348084279901 -0.13955387731924049 0 0.38535727780346091 -0.1527557998392445 0 0.39822107621443897 -0.1501202070538992 0 0.39822107621443897 -0.1501202070538992 0 0.39107178753907162 -0.16851380255406381 0 0.40713652226246821 -0.16744863749245631 0 0.39107178753907162 -0.16851380255406381 0 0.40713652226246821 -0.16744863749245631 0 0.38535727780346091 -0.1527557998392445 0 0.39822107621443897 -0.1501202070538992 0 0.39107178753907162 -0.16851380255406381 0 0.39107178753907162 -0.16851380255406381 0 0.40460499843718001 -0.17902112385493851 0 0.40713652226246821 -0.16744863749245631 0 0.36858459771950869 -0.15733985743645959 0 0.38535727780346091 -0.1527557998392445 0 0.39107178753907162 -0.16851380255406381 0 0.36858459771950869 -0.15733985743645959 0 0.39107178753907162 -0.16851380255406381 0 0.3834788620725188 -0.17954848884060079 0 0.39107178753907162 -0.16851380255406381 0 0.3834788620725188 -0.17954848884060079 0 0.39510197637232292 -0.1839605883432579 0 0.39078770323730427 -0.19674260859680251 0 0.3834788620725188 -0.17954848884060079 0 0.39510197637232292 -0.1839605883432579 0 0.37064833187319962 -0.1852102762359614 0 0.39078770323730427 -0.19674260859680251 0 0.3834788620725188 -0.17954848884060079 0 0.39107178753907162 -0.16851380255406381 0 0.39510197637232292 -0.1839605883432579 0 0.40460499843718001 -0.17902112385493851 0 0.40475141021500721 -0.1910589369573561 0 0.39510197637232292 -0.1839605883432579 0 0.40460499843718001 -0.17902112385493851 0 0.40475141021500721 -0.1910589369573561 0 0.40460499843718001 -0.17902112385493851 0 0.4146572714410397 -0.186958864794112 0 0.40460499843718001 -0.17902112385493851 0 0.41491102279317088 -0.17618591298838529 0 0.4146572714410397 -0.186958864794112 0 0.40460499843718001 -0.17902112385493851 0 0.41491102279317088 -0.17618591298838529 0 0.40713652226246821 -0.16744863749245631 0 0.41491102279317088 -0.17618591298838529 0 0.42527009306055918 -0.1746571334479238 0 0.4232012569858648 -0.16638347243084889 0 0.41491102279317088 -0.17618591298838529 0 0.42095079563492938 -0.18072636251124541 0 0.42527009306055918 -0.1746571334479238 0 0.41491102279317088 -0.17618591298838529 0 0.42095079563492938 -0.18072636251124541 0 0.4146572714410397 -0.186958864794112 0 0.42095079563492938 -0.18072636251124541 0 0.4146572714410397 -0.186958864794112 0 0.42558338933545942 -0.1867115165846317 0 0.43180268423531071 -0.1802632517690351 0 0.42527009306055918 -0.1746571334479238 0 0.44880083799057491 -0.164686103644653 0 0.42095079563492938 -0.18072636251124541 0 0.42558338933545942 -0.1867115165846317 0 0.43180268423531071 -0.1802632517690351 0 0.42558338933545942 -0.1867115165846317 0 0.43180268423531071 -0.1802632517690351 0 0.43844209377108118 -0.18689286854296691 0 0.42095079563492938 -0.18072636251124541 0 0.43180268423531071 -0.1802632517690351 0 0.42527009306055918 -0.1746571334479238 0 0.42527009306055918 -0.1746571334479238 0 0.4232012569858648 -0.16638347243084889 0 0.44880083799057491 -0.164686103644653 0 0.4232012569858648 -0.16638347243084889 0 0.43334283997313311 -0.15135273030925811 0 0.44880083799057491 -0.164686103644653 0 0.4232012569858648 -0.16638347243084889 0 0.44880083799057491 -0.164686103644653 0 0.42527009306055918 -0.1746571334479238 0 0.4232012569858648 -0.16638347243084889 0 0.4232012569858648 -0.16638347243084889 0 0.40713652226246821 -0.16744863749245631 0 0.41732028123257531 -0.14286435439753159 0 0.41491102279317088 -0.17618591298838529 0 0.4232012569858648 -0.16638347243084889 0 0.40713652226246821 -0.16744863749245631 0 0.4232012569858648 -0.16638347243084889 0 0.40713652226246821 -0.16744863749245631 0 0.4232012569858648 -0.16638347243084889 0 0.41732028123257531 -0.14286435439753159 0 0.39822107621443897 -0.1501202070538992 0 0.40713652226246821 -0.16744863749245631 0 0.41732028123257531 -0.14286435439753159 0 0.41732028123257531 -0.14286435439753159 0 0.43334283997313311 -0.15135273030925811 0 0.43763345530417341 -0.13584027725706749 0 0.4232012569858648 -0.16638347243084889 0 0.41732028123257531 -0.14286435439753159 0 0.43334283997313311 -0.15135273030925811 0 0.42916935431308728 -0.1205456085246996 0 0.41732028123257531 -0.14286435439753159 0 0.43763345530417341 -0.13584027725706749 0 0.42916935431308728 -0.1205456085246996 0 0.4435038969132965 -0.12540022695152131 0 0.43763345530417341 -0.13584027725706749 0 0.41143930547928681 -0.11934523636421419 0 0.42916935431308728 -0.1205456085246996 0 0.41732028123257531 -0.14286435439753159 0 0.41143930547928681 -0.11934523636421419 0 0.40257569972698831 -0.13396225485532559 0 0.41732028123257531 -0.14286435439753159 0 0.41143930547928681 -0.11934523636421419 0 0.41732028123257531 -0.14286435439753159 0 0.46257396642688631 -0.12529077885077469 0 0.46381730130484328 -0.1363472541609663 0 0.4585659370706795 -0.1308283620105129 0 0.46381730130484328 -0.1363472541609663 0 0.4585659370706795 -0.1308283620105129 0 0.45274550479158487 -0.1345999168850856 0 0.46381730130484328 -0.1363472541609663 0 0.45274550479158487 -0.1345999168850856 0 0.46138481906560302 -0.14686228775601681 0 0.46257396642688631 -0.12529077885077469 0 0.4585659370706795 -0.1308283620105129 0 0.45239247298790419 -0.125419693033265 0 0.4585659370706795 -0.1308283620105129 0 0.45239247298790419 -0.125419693033265 0 0.45274550479158487 -0.1345999168850856 0 0.45239247298790419 -0.125419693033265 0 0.4435038969132965 -0.12540022695152131 0 0.45274550479158487 -0.1345999168850856 0 0.4435038969132965 -0.12540022695152131 0 0.43763345530417341 -0.13584027725706749 0 0.45274550479158487 -0.1345999168850856 0 0.43763345530417341 -0.13584027725706749 0 0.45274550479158487 -0.1345999168850856 0 0.44678149142501389 -0.1466682631704162 0 0.43334283997313311 -0.15135273030925811 0 0.44678149142501389 -0.1466682631704162 0 0.44880083799057491 -0.164686103644653 0 0.44678149142501389 -0.1466682631704162 0 0.46138481906560302 -0.14686228775601681 0 0.44880083799057491 -0.164686103644653 0 0.43334283997313311 -0.15135273030925811 0 0.43763345530417341 -0.13584027725706749 0 0.44678149142501389 -0.1466682631704162 0 0.45274550479158487 -0.1345999168850856 0 0.44678149142501389 -0.1466682631704162 0 0.46138481906560302 -0.14686228775601681 0 0.46138481906560302 -0.14686228775601681 0 0.44880083799057491 -0.164686103644653 0 0.47440041899528501 -0.16298873485845719 0 0.44880083799057491 -0.164686103644653 0 0.46834799031954211 -0.17915452781490099 0 0.47440041899528501 -0.16298873485845719 0 0.44880083799057491 -0.164686103644653 0 0.47440041899528501 -0.16298873485845719 0 0.43180268423531071 -0.1802632517690351 0 0.44880083799057491 -0.164686103644653 0 0.43844209377108118 -0.18689286854296691 0 0.44880083799057491 -0.164686103644653 0 0.43844209377108118 -0.18689286854296691 0 0.45508032593701309 -0.1914137801830845 0 0.44880083799057491 -0.164686103644653 0 0.46834799031954211 -0.17915452781490099 0 0.45508032593701309 -0.1914137801830845 0 0.46834799031954211 -0.17915452781490099 0 0.48419704391512092 -0.17843144908975531 0 0.47440041899528501 -0.16298873485845719 0 0.46834799031954211 -0.17915452781490099 0 0.48419704391512092 -0.17843144908975531 0 0.47823681026078202 -0.19812675643970101 0 0.48419704391512092 -0.17843144908975531 0 0.49999999999999523 -0.16129136607226169 0 0.5 -0.1905958602634561 0 0.49999999999999523 -0.16129136607226169 0 0.47440041899528501 -0.16298873485845719 0 0.50000000000000067 -0.1547763741112759 0 0.48419704391512092 -0.17843144908975531 0 0.49999999999999523 -0.16129136607226169 0 0.47440041899528501 -0.16298873485845719 0 0.49999999999999523 -0.16129136607226169 0 0.47440041899528501 -0.16298873485845719 0 0.46138481906560302 -0.14686228775601681 0 0.47440041899528501 -0.16298873485845719 0 0.48128698321344371 -0.14003357648102521 0 0.46381730130484328 -0.1363472541609663 0 0.46138481906560302 -0.14686228775601681 0 0.48128698321344371 -0.14003357648102521 0 0.50000000000000067 -0.1547763741112759 0 0.48128698321344371 -0.14003357648102521 0 0.50000000000000067 -0.1547763741112759 0 0.5 -0.13349841451636779 0 0.48128698321344371 -0.14003357648102521 0 0.47440041899528501 -0.16298873485845719 0 0.50000000000000067 -0.1547763741112759 0 0.48128698321344371 -0.14003357648102521 0 0.48087269318342413 -0.1216818802472065 0 0.5 -0.13349841451636779 0 0.48128698321344371 -0.14003357648102521 0 0.46257396642688631 -0.12529077885077469 0 0.48128698321344371 -0.14003357648102521 0 0.46257396642688631 -0.12529077885077469 0 0.46381730130484328 -0.1363472541609663 0 0.48128698321344371 -0.14003357648102521 0 0.47129126618897188 -0.1223351355815797 0 0.48087269318342413 -0.1216818802472065 0 0.48128698321344371 -0.14003357648102521 0 0.47129126618897188 -0.1223351355815797 0 0.46257396642688631 -0.12529077885077469 0 0.48128698321344371 -0.14003357648102521 0 0.46029750420545162 -0.23134667767863379 0 0.45079963313025367 -0.219495204315066 0 0.46126535540865482 -0.21094244298034759 0 0.46029750420545162 -0.23134667767863379 0 0.46126535540865482 -0.21094244298034759 0 0.47937109712497578 -0.22608105856418539 0 0.46029750420545162 -0.23134667767863379 0 0.44856132313442931 -0.24393079079591279 0 0.47387431588802909 -0.25499376211151131 0 0.46029750420545162 -0.23134667767863379 0 0.44856132313442931 -0.24393079079591279 0 0.44416109061426973 -0.22983272991065171 0 0.43458399188612801 -0.2397076170126072 0 0.44856132313442931 -0.24393079079591279 0 0.4372088962240912 -0.25169219704383999 0 0.43458399188612801 -0.2397076170126072 0 0.44856132313442931 -0.24393079079591279 0 0.44416109061426973 -0.22983272991065171 0 0.46029750420545162 -0.23134667767863379 0 0.44416109061426973 -0.22983272991065171 0 0.45079963313025367 -0.219495204315066 0 0.44416109061426973 -0.22983272991065171 0 0.45079963313025367 -0.219495204315066 0 0.44009267276725389 -0.2176624614444449 0 0.42988092584916948 -0.2249579995083304 0 0.44416109061426973 -0.22983272991065171 0 0.44009267276725389 -0.2176624614444449 0 0.45079963313025367 -0.219495204315066 0 0.44355474576021348 -0.2050869029196882 0 0.46126535540865482 -0.21094244298034759 0 0.43006687167525981 -0.21185300334864521 0 0.44009267276725389 -0.2176624614444449 0 0.44355474576021348 -0.2050869029196882 0 0.45079963313025367 -0.219495204315066 0 0.44009267276725389 -0.2176624614444449 0 0.44355474576021348 -0.2050869029196882 0 0.43844209377108118 -0.18689286854296691 0 0.44355474576021348 -0.2050869029196882 0 0.45508032593701309 -0.1914137801830845 0 0.46834799031954211 -0.17915452781490099 0 0.45508032593701309 -0.1914137801830845 0 0.47823681026078202 -0.19812675643970101 0 0.44355474576021348 -0.2050869029196882 0 0.45508032593701309 -0.1914137801830845 0 0.46126535540865482 -0.21094244298034759 0 0.45508032593701309 -0.1914137801830845 0 0.46126535540865482 -0.21094244298034759 0 0.47823681026078202 -0.19812675643970101 0 0.46126535540865482 -0.21094244298034759 0 0.47823681026078202 -0.19812675643970101 0 0.47937109712497578 -0.22608105856418539 0 0.48419704391512092 -0.17843144908975531 0 0.47823681026078202 -0.19812675643970101 0 0.5 -0.1905958602634561 0 0.47823681026078202 -0.19812675643970101 0 0.5 -0.1905958602634561 0 0.5 -0.21990035445465039 0 0.47823681026078202 -0.19812675643970101 0 0.5 -0.21990035445465039 0 0.47937109712497578 -0.22608105856418539 0 0.5 -0.21990035445465039 0 0.47937109712497578 -0.22608105856418539 0 0.50000000000000444 -0.24920484864584491 0 0.46029750420545162 -0.23134667767863379 0 0.47937109712497578 -0.22608105856418539 0 0.47387431588802909 -0.25499376211151131 0 0.47937109712497578 -0.22608105856418539 0 0.50000000000000444 -0.24920484864584491 0 0.47387431588802909 -0.25499376211151131 0 0.50000000000000444 -0.24920484864584491 0 0.4915669900217115 -0.25615479242606781 0 0.5 -0.27170772691138367 0 0.50000000000000444 -0.24920484864584491 0 0.4915669900217115 -0.25615479242606781 0 0.47387431588802909 -0.25499376211151131 0 0.50000000000000444 -0.24920484864584491 0 0.47387431588802909 -0.25499376211151131 0 0.4915669900217115 -0.25615479242606781 0 0.48280749151585822 -0.27129304150170008 0 0.47954864786353962 -0.26301133191085868 0 0.4915669900217115 -0.25615479242606781 0 0.5 -0.27170772691138367 0 0.48280749151585822 -0.27129304150170008 0 0.5 -0.27170772691138367 0 0.48280749151585822 -0.27129304150170008 0 0.48951500520952212 -0.28458010338455908 0 0.48280749151585822 -0.27129304150170008 0 0.47474596181800061 -0.28621450290334632 0 0.48951500520952212 -0.28458010338455908 0 0.48280749151585822 -0.27129304150170008 0 0.47416229901770612 -0.26612875971404459 0 0.47954864786353962 -0.26301133191085868 0 0.48280749151585822 -0.27129304150170008 0 0.47416229901770612 -0.26612875971404459 0 0.47052118473631321 -0.27447720361836658 0 0.47416229901770612 -0.26612875971404459 0 0.47052118473631321 -0.27447720361836658 0 0.46319689217890331 -0.26835660325056299 0 0.48280749151585822 -0.27129304150170008 0 0.47052118473631321 -0.27447720361836658 0 0.47474596181800061 -0.28621450290334632 0 0.4915669900217115 -0.25615479242606781 0 0.46965781089888248 -0.25846873400162218 0 0.4915669900217115 -0.25615479242606781 0 0.47387431588802909 -0.25499376211151131 0 0.46965781089888248 -0.25846873400162218 0 0.4915669900217115 -0.25615479242606781 0 0.47954864786353962 -0.26301133191085868 0 0.46965781089888248 -0.25846873400162218 0 0.47416229901770612 -0.26612875971404459 0 0.47954864786353962 -0.26301133191085868 0 0.46965781089888248 -0.25846873400162218 0 0.47416229901770612 -0.26612875971404459 0 0.46965781089888248 -0.25846873400162218 0 0.46319689217890331 -0.26835660325056299 0 0.46965781089888248 -0.25846873400162218 0 0.46319689217890331 -0.26835660325056299 0 0.4477486317760534 -0.26078267557717671 0 0.44856132313442931 -0.24393079079591279 0 0.47387431588802909 -0.25499376211151131 0 0.4477486317760534 -0.26078267557717671 0 0.47387431588802909 -0.25499376211151131 0 0.4477486317760534 -0.26078267557717671 0 0.46965781089888248 -0.25846873400162218 0 0.4477486317760534 -0.26078267557717671 0 0.47387431588802909 -0.25499376211151131 0 0.46965781089888248 -0.25846873400162218 0 0.4477486317760534 -0.26078267557717671 0 0.47052118473631321 -0.27447720361836658 0 0.45389453446556111 -0.28192564334160541 0 0.47474596181800061 -0.28621450290334632 0 0.47052118473631321 -0.27447720361836658 0 0.46319689217890331 -0.26835660325056299 0 0.45389453446556111 -0.28192564334160541 0 0.46319689217890331 -0.26835660325056299 0 0.4477486317760534 -0.26078267557717671 0 0.45389453446556111 -0.28192564334160541 0 0.45389453446556111 -0.28192564334160541 0 0.430823863629894 -0.26453285558412298 0 0.45389453446556111 -0.28192564334160541 0 0.430823863629894 -0.26453285558412298 0 0.43570592202634773 -0.28205449164250063 0 0.4477486317760534 -0.26078267557717671 0 0.45389453446556111 -0.28192564334160541 0 0.430823863629894 -0.26453285558412298 0 0.4477486317760534 -0.26078267557717671 0 0.42854038242645709 -0.26281135800815408 0 0.44856132313442931 -0.24393079079591279 0 0.4477486317760534 -0.26078267557717671 0 0.4372088962240912 -0.25169219704383999 0 0.4477486317760534 -0.26078267557717671 0 0.42854038242645709 -0.26281135800815408 0 0.4372088962240912 -0.25169219704383999 0 0.4477486317760534 -0.26078267557717671 0 0.430823863629894 -0.26453285558412298 0 0.44815314542162782 -0.30273998798419938 0 0.44271266904340639 -0.31513600928105973 0 0.43092107089682352 -0.30573631325696571 0 0.44815314542162782 -0.30273998798419938 0 0.43874415768382158 -0.29310671547163403 0 0.43092107089682352 -0.30573631325696571 0 0.43874415768382158 -0.29310671547163403 0 0.45389453446556111 -0.28192564334160541 0 0.43570592202634773 -0.28205449164250063 0 0.44815314542162782 -0.30273998798419938 0 0.43874415768382158 -0.29310671547163403 0 0.45389453446556111 -0.28192564334160541 0 0.45389453446556111 -0.28192564334160541 0 0.46668010371271101 -0.29937682325086112 0 0.47474596181800061 -0.28621450290334632 0 0.44815314542162782 -0.30273998798419938 0 0.45389453446556111 -0.28192564334160541 0 0.46668010371271101 -0.29937682325086112 0 0.46668010371271101 -0.29937682325086112 0 0.45907432653114449 -0.32014896664993769 0 0.44815314542162782 -0.30273998798419938 0 0.46668010371271101 -0.29937682325086112 0 0.45907432653114449 -0.32014896664993769 0 0.46668010371271101 -0.29937682325086112 0 0.48375110351916628 -0.30725513966339157 0 0.45907432653114449 -0.32014896664993769 0 0.46668010371271101 -0.29937682325086112 0 0.48375110351916628 -0.30725513966339157 0 0.47474596181800061 -0.28621450290334632 0 0.48375110351916628 -0.30725513966339157 0 0.47474596181800061 -0.28621450290334632 0 0.48951500520952212 -0.28458010338455908 0 0.48375110351916628 -0.30725513966339157 0 0.5 -0.29421060517692271 0 0.48951500520952212 -0.28458010338455908 0 0.5 -0.27170772691138367 0 0.5 -0.29421060517692271 0 0.48951500520952212 -0.28458010338455908 0 0.48375110351916628 -0.30725513966339157 0 0.5 -0.29421060517692271 0 0.49999999999999972 -0.31671348344246159 0 0.48375110351916628 -0.30725513966339157 0 0.49999999999999972 -0.31671348344246159 0 0.48658745812515303 -0.32591538654610069 0 0.49999999999999972 -0.31671348344246159 0 0.49107839048707969 -0.33844651150006611 0 0.49999999999999972 -0.31671348344246159 0 0.48658745812515303 -0.32591538654610069 0 0.49107839048707969 -0.33844651150006611 0 0.49999999999999972 -0.31671348344246159 0 0.5 -0.34354646621870782 0 0.49107839048707969 -0.33844651150006611 0 0.48658745812515303 -0.32591538654610069 0 0.49107839048707969 -0.33844651150006611 0 0.48013111160135669 -0.33592777501669763 0 0.48658745812515303 -0.32591538654610069 0 0.48013111160135669 -0.33592777501669763 0 0.47588582758327369 -0.32632043512378739 0 0.48013111160135669 -0.33592777501669763 0 0.46883970942210401 -0.33989811375075968 0 0.47588582758327369 -0.32632043512378739 0 0.48375110351916628 -0.30725513966339157 0 0.48658745812515303 -0.32591538654610069 0 0.47588582758327369 -0.32632043512378739 0 0.48375110351916628 -0.30725513966339157 0 0.47588582758327369 -0.32632043512378739 0 0.45907432653114449 -0.32014896664993769 0 0.5 -0.37037944899495368 0 0.48466784746851571 -0.3739080713738358 0 0.48215678097416009 -0.36017953955767068 0 0.5 -0.34354646621870782 0 0.49107839048707969 -0.33844651150006611 0 0.48215678097416009 -0.36017953955767068 0 0.49107839048707969 -0.33844651150006611 0 0.48013111160135669 -0.33592777501669763 0 0.48215678097416009 -0.36017953955767068 0 0.5 -0.34354646621870782 0 0.5 -0.37037944899495368 0 0.48215678097416009 -0.36017953955767068 0 0.49107839048707969 -0.33844651150006611 0 0.48215678097416009 -0.36017953955767068 0 0.48013111160135669 -0.33592777501669763 0 0.46883970942210401 -0.33989811375075968 0 0.48215678097416009 -0.36017953955767068 0 0.46883970942210401 -0.33989811375075968 0 0.48215678097416009 -0.36017953955767068 0 0.46166172922915721 -0.35810144835948332 0 0.48215678097416009 -0.36017953955767068 0 0.47323517146124039 -0.38191256761527542 0 0.48215678097416009 -0.36017953955767068 0 0.4671179630262795 -0.37324494563770522 0 0.47323517146124039 -0.38191256761527542 0 0.48466784746851571 -0.3739080713738358 0 0.48215678097416009 -0.36017953955767068 0 0.47323517146124039 -0.38191256761527542 0 0.48215678097416009 -0.36017953955767068 0 0.4671179630262795 -0.37324494563770522 0 0.46166172922915721 -0.35810144835948332 0 0.45652460043480969 -0.37267172771365881 0 0.46166172922915721 -0.35810144835948332 0 0.44386277216801179 -0.36169325344809122 0 0.45652460043480969 -0.37267172771365881 0 0.4671179630262795 -0.37324494563770522 0 0.46166172922915721 -0.35810144835948332 0 0.46883970942210401 -0.33989811375075968 0 0.46166172922915721 -0.35810144835948332 0 0.45146854934957792 -0.34092111004901438 0 0.43963091224731599 -0.34751792105314822 0 0.44386277216801179 -0.36169325344809122 0 0.45146854934957792 -0.34092111004901438 0 0.44386277216801179 -0.36169325344809122 0 0.45146854934957792 -0.34092111004901438 0 0.46166172922915721 -0.35810144835948332 0 0.44386277216801179 -0.36169325344809122 0 0.45146854934957792 -0.34092111004901438 0 0.44386277216801179 -0.36169325344809122 0 0.43376943787959182 -0.36708850497004442 0 0.43808065797110041 -0.37748478958974491 0 0.45652460043480969 -0.37267172771365881 0 0.44386277216801179 -0.36169325344809122 0 0.44783900322824399 -0.38008781189722518 0 0.44386277216801179 -0.36169325344809122 0 0.43808065797110041 -0.37748478958974491 0 0.44386277216801179 -0.36169325344809122 0 0.43808065797110041 -0.37748478958974491 0 0.44783900322824399 -0.38008781189722518 0 0.45652460043480969 -0.37267172771365881 0 0.44386277216801179 -0.36169325344809122 0 0.46883970942210401 -0.33989811375075968 0 0.45907432653114449 -0.32014896664993769 0 0.45146854934957792 -0.34092111004901438 0 0.45907432653114449 -0.32014896664993769 0 0.45146854934957792 -0.34092111004901438 0 0.46883970942210401 -0.33989811375075968 0 0.47588582758327369 -0.32632043512378739 0 0.45907432653114449 -0.32014896664993769 0 0.43963091224731599 -0.34751792105314822 0 0.45146854934957792 -0.34092111004901438 0 0.43565299676263758 -0.3352386806192425 0 0.45146854934957792 -0.34092111004901438 0 0.44493724809618768 -0.32603283426431229 0 0.43565299676263758 -0.3352386806192425 0 0.45907432653114449 -0.32014896664993769 0 0.45146854934957792 -0.34092111004901438 0 0.44493724809618768 -0.32603283426431229 0 0.45907432653114449 -0.32014896664993769 0 0.44493724809618768 -0.32603283426431229 0 0.44271266904340639 -0.31513600928105973 0 0.44493724809618768 -0.32603283426431229 0 0.44271266904340639 -0.31513600928105973 0 0.43047755427124879 -0.32102194424988317 0 0.44815314542162782 -0.30273998798419938 0 0.45907432653114449 -0.32014896664993769 0 0.44271266904340639 -0.31513600928105973 0 0.44271266904340639 -0.31513600928105973 0 0.43047755427124879 -0.32102194424988317 0 0.43092107089682352 -0.30573631325696571 0 0.43047755427124879 -0.32102194424988317 0 0.41919911313656122 -0.31385112706466711 0 0.41739686236043672 -0.32199345155319897 0 0.43047755427124879 -0.32102194424988317 0 0.41919911313656122 -0.31385112706466711 0 0.43092107089682352 -0.30573631325696571 0 0.43047755427124879 -0.32102194424988317 0 0.42053718701310799 -0.32957674384091618 0 0.41739686236043672 -0.32199345155319897 0 0.44493724809618768 -0.32603283426431229 0 0.43047755427124879 -0.32102194424988317 0 0.43565299676263758 -0.3352386806192425 0 0.43565299676263758 -0.3352386806192425 0 0.42053718701310799 -0.32957674384091618 0 0.4250793590774925 -0.34540704162396091 0 0.43963091224731599 -0.34751792105314822 0 0.43565299676263758 -0.3352386806192425 0 0.4250793590774925 -0.34540704162396091 0 0.43047755427124879 -0.32102194424988317 0 0.43565299676263758 -0.3352386806192425 0 0.42053718701310799 -0.32957674384091618 0 0.4062959459869725 -0.32912082979983148 0 0.4250793590774925 -0.34540704162396091 0 0.41055923831377589 -0.34398547157316572 0 0.42053718701310799 -0.32957674384091618 0 0.4062959459869725 -0.32912082979983148 0 0.4250793590774925 -0.34540704162396091 0 0.4062959459869725 -0.32912082979983148 0 0.4250793590774925 -0.34540704162396091 0 0.42053718701310799 -0.32957674384091618 0 0.4062959459869725 -0.32912082979983148 0 0.40802480504278882 -0.32457497099322458 0 0.4062959459869725 -0.32912082979983148 0 0.40802480504278882 -0.32457497099322458 0 0.4062959459869725 -0.32912082979983148 0 0.40802480504278882 -0.32457497099322458 0 0.40572459905769331 -0.31910551143285631 0 0.40802480504278882 -0.32457497099322458 0 0.4119015194344513 -0.31818912214386269 0 0.41739686236043672 -0.32199345155319897 0 0.40802480504278882 -0.32457497099322458 0 0.4119015194344513 -0.31818912214386269 0 0.40572459905769331 -0.31910551143285631 0 0.4119015194344513 -0.31818912214386269 0 0.41919911313656122 -0.31385112706466711 0 0.40916221757477672 -0.31142054967536659 0 0.4119015194344513 -0.31818912214386269 0 0.40572459905769331 -0.31910551143285631 0 0.40916221757477672 -0.31142054967536659 0 0.4119015194344513 -0.31818912214386269 0 0.41919911313656122 -0.31385112706466711 0 0.41739686236043672 -0.32199345155319897 0 0.42053718701310799 -0.32957674384091618 0 0.40802480504278882 -0.32457497099322458 0 0.41739686236043672 -0.32199345155319897 0 0.44386277216801179 -0.36169325344809122 0 0.43376943787959182 -0.36708850497004442 0 0.42728564025893462 -0.35958684797927032 0 0.42489657602010461 -0.37065940299189432 0 0.43376943787959182 -0.36708850497004442 0 0.43808065797110041 -0.37748478958974491 0 0.42489657602010461 -0.37065940299189432 0 0.43376943787959182 -0.36708850497004442 0 0.42728564025893462 -0.35958684797927032 0 0.44386277216801179 -0.36169325344809122 0 0.4250793590774925 -0.34540704162396091 0 0.43963091224731599 -0.34751792105314822 0 0.44386277216801179 -0.36169325344809122 0 0.4250793590774925 -0.34540704162396091 0 0.44386277216801179 -0.36169325344809122 0 0.42728564025893462 -0.35958684797927032 0 0.4250793590774925 -0.34540704162396091 0 0.42728564025893462 -0.35958684797927032 0 0.4250793590774925 -0.34540704162396091 0 0.41069622259092692 -0.35617360609135817 0 0.4250793590774925 -0.34540704162396091 0 0.41055923831377589 -0.34398547157316572 0 0.41069622259092692 -0.35617360609135817 0 0.41055923831377589 -0.34398547157316572 0 0.41069622259092692 -0.35617360609135817 0 0.40016542559971202 -0.34524040877751239 0 0.42489657602010461 -0.37065940299189432 0 0.42728564025893462 -0.35958684797927032 0 0.41069622259092692 -0.35617360609135817 0 0.42489657602010461 -0.37065940299189432 0 0.41069622259092692 -0.35617360609135817 0 0.4070765621089808 -0.37107032214525337 0 0.42489657602010461 -0.37065940299189432 0 0.41069622259092692 -0.35617360609135817 0 0.39585190457779329 -0.37201308858561799 0 0.3940349052124521 -0.36135998775519362 0 0.38601585554704992 -0.38244526212700758 0 0.41069622259092692 -0.35617360609135817 0 0.4070765621089808 -0.37107032214525337 0 0.3940349052124521 -0.36135998775519362 0 0.4070765621089808 -0.37107032214525337 0 0.39585190457779329 -0.37201308858561799 0 0.3940349052124521 -0.36135998775519362 0 0.39585190457779329 -0.37201308858561799 0 0.3940349052124521 -0.36135998775519362 0 0.3940349052124521 -0.36135998775519362 0 0.40016542559971202 -0.34524040877751239 0 0.38974443050024338 -0.33620485529262373 0 0.3940349052124521 -0.36135998775519362 0 0.38974443050024338 -0.33620485529262373 0 0.3940349052124521 -0.36135998775519362 0 0.40016542559971202 -0.34524040877751239 0 0.41069622259092692 -0.35617360609135817 0 0.3940349052124521 -0.36135998775519362 0 0.40016542559971202 -0.34524040877751239 0 0.3940349052124521 -0.36135998775519362 0 0.38974443050024338 -0.33620485529262373 0 0.37368731816096312 -0.34897020548070451 0 0.3940349052124521 -0.36135998775519362 0 0.38601585554704992 -0.38244526212700758 0 0.3940349052124521 -0.36135998775519362 0 0.38601585554704992 -0.38244526212700758 0 0.3689120952668708 -0.37284951495870189 0 0.3940349052124521 -0.36135998775519362 0 0.3689120952668708 -0.37284951495870189 0 0.37368731816096312 -0.34897020548070451 0 0.4062959459869725 -0.32912082979983148 0 0.40572459905769331 -0.31910551143285631 0 0.39816778062817881 -0.31191488097197773 0 0.4062959459869725 -0.32912082979983148 0 0.38974443050024338 -0.33620485529262373 0 0.38545395578803499 -0.31104972283005378 0 0.4062959459869725 -0.32912082979983148 0 0.38545395578803499 -0.31104972283005378 0 0.4062959459869725 -0.32912082979983148 0 0.38545395578803499 -0.31104972283005378 0 0.39816778062817881 -0.31191488097197773 0 0.40572459905769331 -0.31910551143285631 0 0.39816778062817881 -0.31191488097197773 0 0.40916221757477672 -0.31142054967536659 0 0.4062959459869725 -0.32912082979983148 0 0.40016542559971202 -0.34524040877751239 0 0.38974443050024338 -0.33620485529262373 0 0.4062959459869725 -0.32912082979983148 0 0.40016542559971202 -0.34524040877751239 0 0.4062959459869725 -0.32912082979983148 0 0.41055923831377589 -0.34398547157316572 0 0.40016542559971202 -0.34524040877751239 0 0.38974443050024338 -0.33620485529262373 0 0.36945761595668469 -0.32738841673247931 0 0.37368731816096312 -0.34897020548070451 0 0.38974443050024338 -0.33620485529262373 0 0.38545395578803499 -0.31104972283005378 0 0.36945761595668469 -0.32738841673247931 0 0.38974443050024338 -0.33620485529262373 0 0.38545395578803499 -0.31104972283005378 0 0.38545395578803499 -0.31104972283005378 0 0.38245755150739558 -0.29348174920317632 0 0.37101427446782781 -0.29852975601036341 0 0.38545395578803499 -0.31104972283005378 0 0.38245755150739558 -0.29348174920317632 0 0.38545395578803499 -0.31104972283005378 0 0.37101427446782781 -0.29852975601036341 0 0.38545395578803499 -0.31104972283005378 0 0.39567659353887108 -0.29306988619604551 0 0.38245755150739558 -0.29348174920317632 0 0.39816778062817881 -0.31191488097197773 0 0.40563314249086863 -0.30155395497769039 0 0.39567659353887108 -0.29306988619604551 0 0.38545395578803499 -0.31104972283005378 0 0.39816778062817881 -0.31191488097197773 0 0.39567659353887108 -0.29306988619604551 0 0.39816778062817881 -0.31191488097197773 0 0.40563314249086863 -0.30155395497769039 0 0.40916221757477672 -0.31142054967536659 0 0.39567659353887108 -0.29306988619604551 0 0.40514250542832608 -0.27022331558021301 0 0.41160024963212011 -0.28933460066763711 0 0.40563314249086863 -0.30155395497769039 0 0.39567659353887108 -0.29306988619604551 0 0.41160024963212011 -0.28933460066763711 0 0.38245755150739558 -0.29348174920317632 0 0.37946114722675722 -0.27591377557629859 0 0.39567659353887108 -0.29306988619604551 0 0.38245755150739558 -0.29348174920317632 0 0.37946114722675722 -0.27591377557629859 0 0.38245755150739558 -0.29348174920317632 0 0.37795999762798671 -0.28395322059410122 0 0.37946114722675722 -0.27591377557629859 0 0.37519981906117678 -0.29055939022370142 0 0.38245755150739558 -0.29348174920317632 0 0.37101427446782781 -0.29852975601036341 0 0.37519981906117678 -0.29055939022370142 0 0.38245755150739558 -0.29348174920317632 0 0.37795999762798671 -0.28395322059410122 0 0.37795999762798671 -0.28395322059410122 0 0.37946114722675722 -0.27591377557629859 0 0.37739853904771847 -0.27637080706343392 0 0.37739853904771847 -0.27637080706343392 0 0.37683953433427181 -0.26882153263446662 0 0.37273728942595791 -0.27740364396778311 0 0.37795999762798671 -0.28395322059410122 0 0.37739853904771847 -0.27637080706343392 0 0.37273728942595791 -0.27740364396778311 0 0.37946114722675722 -0.27591377557629859 0 0.38774772661347989 -0.26664574742688191 0 0.3964002279028962 -0.26984905957103239 0 0.37946114722675722 -0.27591377557629859 0 0.3964002279028962 -0.26984905957103239 0 0.37795999762798671 -0.28395322059410122 0 0.37739853904771847 -0.27637080706343392 0 0.37739853904771847 -0.27637080706343392 0 0.37273728942595791 -0.27740364396778311 0 0.37946114722675722 -0.27591377557629859 0 0.37739853904771847 -0.27637080706343392 0 0.37683953433427181 -0.26882153263446662 0 0.37946114722675722 -0.27591377557629859 0 0.37739853904771847 -0.27637080706343392 0 0.37946114722675722 -0.27591377557629859 0 0.37843581040967561 -0.26746760801825881 0 0.38284686623937531 -0.26497045393317709 0 0.37946114722675722 -0.27591377557629859 0 0.37683953433427181 -0.26882153263446662 0 0.37843581040967561 -0.26746760801825881 0 0.37739853904771847 -0.27637080706343392 0 0.37683953433427181 -0.26882153263446662 0 0.37683953433427181 -0.26882153263446662 0 0.37843581040967561 -0.26746760801825881 0 0.37946114722675722 -0.27591377557629859 0 0.38774772661347989 -0.26664574742688191 0 0.38284686623937531 -0.26497045393317709 0 0.37477580018058132 -0.24095111383496479 0 0.37683953433427181 -0.26882153263446662 0 0.38107906364546162 -0.25934379353391329 0 0.37477580018058132 -0.24095111383496479 0 0.37683953433427181 -0.26882153263446662 0 0.37477580018058132 -0.24095111383496479 0 0.38107906364546162 -0.25934379353391329 0 0.38725375881062551 -0.25185160038302579 0 0.37843581040967561 -0.26746760801825881 0 0.38107906364546162 -0.25934379353391329 0 0.38284686623937531 -0.26497045393317709 0 0.37683953433427181 -0.26882153263446662 0 0.37843581040967561 -0.26746760801825881 0 0.38107906364546162 -0.25934379353391329 0 0.38107906364546162 -0.25934379353391329 0 0.38632261189823958 -0.26200045239958702 0 0.38284686623937531 -0.26497045393317709 0 0.38774772661347989 -0.26664574742688191 0 0.38632261189823958 -0.26200045239958702 0 0.38284686623937531 -0.26497045393317709 0 0.38774772661347989 -0.26664574742688191 0 0.38955528694719099 -0.2630172622662057 0 0.39295554709344072 -0.26445586107842978 0 0.38774772661347989 -0.26664574742688191 0 0.38632261189823958 -0.26200045239958702 0 0.38955528694719099 -0.2630172622662057 0 0.38632261189823958 -0.26200045239958702 0 0.38955528694719099 -0.2630172622662057 0 0.39119526218360401 -0.25896698815992442 0 0.38632261189823958 -0.26200045239958702 0 0.38725375881062551 -0.25185160038302579 0 0.39119526218360401 -0.25896698815992442 0 0.38107906364546162 -0.25934379353391329 0 0.38632261189823958 -0.26200045239958702 0 0.38725375881062551 -0.25185160038302579 0 0.40314688718896508 -0.2619981766022052 0 0.39707581272688741 -0.26613449373937459 0 0.41345304600685079 -0.26440480953867462 0 0.39707581272688741 -0.26613449373937459 0 0.41345304600685079 -0.26440480953867462 0 0.38725375881062551 -0.25185160038302579 0 0.39640803358832022 -0.25154779433757402 0 0.39119526218360401 -0.25896698815992442 0 0.39640803358832022 -0.25154779433757402 0 0.39702034872720737 -0.26014738253762237 0 0.39119526218360401 -0.25896698815992442 0 0.39702034872720737 -0.26014738253762237 0 0.39119526218360401 -0.25896698815992442 0 0.39295554709344072 -0.26445586107842978 0 0.38955528694719099 -0.2630172622662057 0 0.39119526218360401 -0.25896698815992442 0 0.39295554709344072 -0.26445586107842978 0 0.39702034872720737 -0.26014738253762237 0 0.39295554709344072 -0.26445586107842978 0 0.39707581272688741 -0.26613449373937459 0 0.39702034872720737 -0.26014738253762237 0 0.40314688718896508 -0.2619981766022052 0 0.39707581272688741 -0.26613449373937459 0 0.40314688718896508 -0.2619981766022052 0 0.40257909468765629 -0.25704117102420471 0 0.40998094690083942 -0.2590606397541646 0 0.39702034872720737 -0.26014738253762237 0 0.40314688718896508 -0.2619981766022052 0 0.40257909468765629 -0.25704117102420471 0 0.39640803358832022 -0.25154779433757402 0 0.39702034872720737 -0.26014738253762237 0 0.40257909468765629 -0.25704117102420471 0 0.41087794879613182 -0.2494957955088617 0 0.39640803358832022 -0.25154779433757402 0 0.40257909468765629 -0.25704117102420471 0 0.40514250542832608 -0.27022331558021301 0 0.3964002279028962 -0.26984905957103239 0 0.41345304600685079 -0.26440480953867462 0 0.37946114722675722 -0.27591377557629859 0 0.40514250542832608 -0.27022331558021301 0 0.3964002279028962 -0.26984905957103239 0 0.39707581272688741 -0.26613449373937459 0 0.3964002279028962 -0.26984905957103239 0 0.41345304600685079 -0.26440480953867462 0 0.37946114722675722 -0.27591377557629859 0 0.40514250542832608 -0.27022331558021301 0 0.3964002279028962 -0.26984905957103239 0 0.41345304600685079 -0.26440480953867462 0 0.39567659353887108 -0.29306988619604551 0 0.37946114722675722 -0.27591377557629859 0 0.40514250542832608 -0.27022331558021301 0 0.38774772661347989 -0.26664574742688191 0 0.39295554709344072 -0.26445586107842978 0 0.3964002279028962 -0.26984905957103239 0 0.39295554709344072 -0.26445586107842978 0 0.39707581272688741 -0.26613449373937459 0 0.3964002279028962 -0.26984905957103239 0 0.40514250542832608 -0.27022331558021301 0 0.41345304600685079 -0.26440480953867462 0 0.430823863629894 -0.26453285558412298 0 0.40514250542832608 -0.27022331558021301 0 0.430823863629894 -0.26453285558412298 0 0.40514250542832608 -0.27022331558021301 0 0.42166373126508722 -0.27984448092147479 0 0.41160024963212011 -0.28933460066763711 0 0.40514250542832608 -0.27022331558021301 0 0.42166373126508722 -0.27984448092147479 0 0.430823863629894 -0.26453285558412298 0 0.41087794879613182 -0.2494957955088617 0 0.41984775782459283 -0.2623632460968765 0 0.42854038242645709 -0.26281135800815408 0 0.41087794879613182 -0.2494957955088617 0 0.42854038242645709 -0.26281135800815408 0 0.41087794879613182 -0.2494957955088617 0 0.40257909468765629 -0.25704117102420471 0 0.40998094690083942 -0.2590606397541646 0 0.41087794879613182 -0.2494957955088617 0 0.40998094690083942 -0.2590606397541646 0 0.41984775782459283 -0.2623632460968765 0 0.40314688718896508 -0.2619981766022052 0 0.40998094690083942 -0.2590606397541646 0 0.41345304600685079 -0.26440480953867462 0 0.41345304600685079 -0.26440480953867462 0 0.41984775782459283 -0.2623632460968765 0 0.42854038242645709 -0.26281135800815408 0 0.40998094690083942 -0.2590606397541646 0 0.41345304600685079 -0.26440480953867462 0 0.41984775782459283 -0.2623632460968765 0 0.41345304600685079 -0.26440480953867462 0 0.42854038242645709 -0.26281135800815408 0 0.41345304600685079 -0.26440480953867462 0 0.41984775782459283 -0.2623632460968765 0 0.42656562700980838 -0.24831468624349931 0 0.41087794879613182 -0.2494957955088617 0 0.42854038242645709 -0.26281135800815408 0 0.4477486317760534 -0.26078267557717671 0 0.42854038242645709 -0.26281135800815408 0 0.430823863629894 -0.26453285558412298 0 0.41345304600685079 -0.26440480953867462 0 0.42854038242645709 -0.26281135800815408 0 0.430823863629894 -0.26453285558412298 0 0.42854038242645709 -0.26281135800815408 0 0.430823863629894 -0.26453285558412298 0 0.42656562700980838 -0.24831468624349931 0 0.42854038242645709 -0.26281135800815408 0 0.4372088962240912 -0.25169219704383999 0 0.42166373126508722 -0.27984448092147479 0 0.430823863629894 -0.26453285558412298 0 0.43570592202634773 -0.28205449164250063 0 0.42166373126508722 -0.27984448092147479 0 0.43570592202634773 -0.28205449164250063 0 0.42504611560874761 -0.29307714113289868 0 0.43874415768382158 -0.29310671547163403 0 0.43570592202634773 -0.28205449164250063 0 0.42504611560874761 -0.29307714113289868 0 0.43874415768382158 -0.29310671547163403 0 0.42504611560874761 -0.29307714113289868 0 0.43092107089682352 -0.30573631325696571 0 0.41919911313656122 -0.31385112706466711 0 0.43092107089682352 -0.30573631325696571 0 0.41692698488998292 -0.30249561446253759 0 0.42504611560874761 -0.29307714113289868 0 0.43092107089682352 -0.30573631325696571 0 0.41692698488998292 -0.30249561446253759 0 0.41919911313656122 -0.31385112706466711 0 0.41692698488998292 -0.30249561446253759 0 0.40916221757477672 -0.31142054967536659 0 0.40563314249086863 -0.30155395497769039 0 0.41692698488998292 -0.30249561446253759 0 0.40916221757477672 -0.31142054967536659 0 0.40563314249086863 -0.30155395497769039 0 0.41692698488998292 -0.30249561446253759 0 0.41160024963212011 -0.28933460066763711 0 0.42166373126508722 -0.27984448092147479 0 0.42504611560874761 -0.29307714113289868 0 0.41160024963212011 -0.28933460066763711 0 0.42504611560874761 -0.29307714113289868 0 0.41692698488998292 -0.30249561446253759 0 0.41160024963212011 -0.28933460066763711 0 0.5 -0.5 0 0.47532784176218862 -0.47257481327436679 0 0.43264288253940292 -0.48275234633568048 0 0.5 -0.5 0 0.41749257905485199 -0.50000000000000033 0 0.43264288253940292 -0.48275234633568048 0 0.47532784176218862 -0.47257481327436679 0 0.44779318602395363 -0.46550469267136052 0 0.43264288253940292 -0.48275234633568048 0 0.44779318602395363 -0.46550469267136052 0 0.43264288253940292 -0.48275234633568048 0 0.5 -0.5 0 0.47532784176218862 -0.47257481327436679 0 0.49999999999999828 -0.44642064777577001 0 0.47532784176218862 -0.47257481327436679 0 0.47918453573141367 -0.4495963838019249 0 0.46294348950850428 -0.44825703900704061 0 0.47532784176218862 -0.47257481327436679 0 0.49999999999999828 -0.44642064777577001 0 0.47918453573141367 -0.4495963838019249 0 0.49999999999999828 -0.44642064777577001 0 0.47846681165496419 -0.4311330351505217 0 0.49999999999999828 -0.44642064777577001 0 0.47918453573141367 -0.4495963838019249 0 0.47846681165496419 -0.4311330351505217 0 0.47918453573141367 -0.4495963838019249 0 0.46294348950850428 -0.44825703900704061 0 0.47846681165496419 -0.4311330351505217 0 0.46294348950850428 -0.44825703900704061 0 0.44442683605218691 -0.44583817528272968 0 0.45721208074107311 -0.43281318479414382 0 0.46294348950850428 -0.44825703900704061 0 0.44779318602395363 -0.46550469267136052 0 0.47532784176218862 -0.47257481327436679 0 0.46294348950850428 -0.44825703900704061 0 0.44779318602395363 -0.46550469267136052 0 0.44779318602395363 -0.46550469267136052 0 0.44442683605218691 -0.44583817528272968 0 0.43057418754349119 -0.46211781715143319 0 0.46294348950850428 -0.44825703900704061 0 0.44779318602395363 -0.46550469267136052 0 0.44442683605218691 -0.44583817528272968 0 0.44442683605218691 -0.44583817528272968 0 0.44324354583686831 -0.42153379012121539 0 0.45721208074107311 -0.43281318479414382 0 0.44442683605218691 -0.44583817528272968 0 0.44324354583686831 -0.42153379012121539 0 0.42653452723640378 -0.44279137365393179 0 0.44324354583686831 -0.42153379012121539 0 0.45693362330993059 -0.41584542252527262 0 0.45721208074107311 -0.43281318479414382 0 0.45693362330993059 -0.41584542252527262 0 0.4354004349648965 -0.40055780990002432 0 0.44324354583686831 -0.42153379012121539 0 0.45693362330993059 -0.41584542252527262 0 0.4354004349648965 -0.40055780990002432 0 0.45693362330993059 -0.41584542252527262 0 0.46461049463358839 -0.41117161714406408 0 0.47846681165496419 -0.4311330351505217 0 0.45693362330993059 -0.41584542252527262 0 0.46461049463358839 -0.41117161714406408 0 0.45329728287846061 -0.39963099679296588 0 0.46294348950850428 -0.44825703900704061 0 0.45721208074107311 -0.43281318479414382 0 0.47846681165496419 -0.4311330351505217 0 0.45693362330993059 -0.41584542252527262 0 0.45721208074107311 -0.43281318479414382 0 0.47846681165496419 -0.4311330351505217 0 0.45693362330993059 -0.41584542252527262 0 0.47846681165496419 -0.4311330351505217 0 0.49999999999999828 -0.44642064777577001 0 0.47846681165496419 -0.4311330351505217 0 0.5 -0.42181653977348488 0 0.5 -0.42181653977348488 0 0.48394518954555588 -0.41195106762427058 0 0.49999999999999789 -0.3972124317711998 0 0.47846681165496419 -0.4311330351505217 0 0.5 -0.42181653977348488 0 0.48394518954555588 -0.41195106762427058 0 0.46461049463358839 -0.41117161714406408 0 0.47846681165496419 -0.4311330351505217 0 0.48394518954555588 -0.41195106762427058 0 0.46461049463358839 -0.41117161714406408 0 0.48394518954555588 -0.41195106762427058 0 0.47664864143922919 -0.39842171428208217 0 0.47664864143922919 -0.39842171428208217 0 0.47975395238035062 -0.3854291032725421 0 0.46812846895096999 -0.38912968091376021 0 0.47664864143922919 -0.39842171428208217 0 0.49999999999999789 -0.3972124317711998 0 0.48779058149940679 -0.38751051868815611 0 0.48394518954555588 -0.41195106762427058 0 0.47664864143922919 -0.39842171428208217 0 0.49999999999999789 -0.3972124317711998 0 0.47664864143922919 -0.39842171428208217 0 0.49999999999999789 -0.3972124317711998 0 0.5 -0.37037944899495368 0 0.49999999999999789 -0.3972124317711998 0 0.48779058149940679 -0.38751051868815611 0 0.5 -0.37037944899495368 0 0.48466784746851571 -0.3739080713738358 0 0.48779058149940679 -0.38751051868815611 0 0.48466784746851571 -0.3739080713738358 0 0.47975395238035062 -0.3854291032725421 0 0.47323517146124039 -0.38191256761527542 0 0.48466784746851571 -0.3739080713738358 0 0.48779058149940679 -0.38751051868815611 0 0.47975395238035062 -0.3854291032725421 0 0.47664864143922919 -0.39842171428208217 0 0.48779058149940679 -0.38751051868815611 0 0.47975395238035062 -0.3854291032725421 0 0.47975395238035062 -0.3854291032725421 0 0.47323517146124039 -0.38191256761527542 0 0.46812846895096999 -0.38912968091376021 0 0.46918642870160698 -0.38365020197922722 0 0.47323517146124039 -0.38191256761527542 0 0.46812846895096999 -0.38912968091376021 0 0.4671179630262795 -0.37324494563770522 0 0.46918642870160698 -0.38365020197922722 0 0.47323517146124039 -0.38191256761527542 0 0.45652460043480969 -0.37267172771365881 0 0.4671179630262795 -0.37324494563770522 0 0.46918642870160698 -0.38365020197922722 0 0.45652460043480969 -0.37267172771365881 0 0.46918642870160698 -0.38365020197922722 0 0.45652460043480969 -0.37267172771365881 0 0.45606522570456098 -0.38599652494351028 0 0.44783900322824399 -0.38008781189722518 0 0.45652460043480969 -0.37267172771365881 0 0.46918642870160698 -0.38365020197922722 0 0.45606522570456098 -0.38599652494351028 0 0.46918642870160698 -0.38365020197922722 0 0.45606522570456098 -0.38599652494351028 0 0.46812846895096999 -0.38912968091376021 0 0.46461049463358839 -0.41117161714406408 0 0.47664864143922919 -0.39842171428208217 0 0.45329728287846061 -0.39963099679296588 0 0.47664864143922919 -0.39842171428208217 0 0.45329728287846061 -0.39963099679296588 0 0.47664864143922919 -0.39842171428208217 0 0.46812846895096999 -0.38912968091376021 0 0.45329728287846061 -0.39963099679296588 0 0.46461049463358839 -0.41117161714406408 0 0.45329728287846061 -0.39963099679296588 0 0.45606522570456098 -0.38599652494351028 0 0.46812846895096999 -0.38912968091376021 0 0.45329728287846061 -0.39963099679296588 0 0.45693362330993059 -0.41584542252527262 0 0.45329728287846061 -0.39963099679296588 0 0.4354004349648965 -0.40055780990002432 0 0.45329728287846061 -0.39963099679296588 0 0.4354004349648965 -0.40055780990002432 0 0.45329728287846061 -0.39963099679296588 0 0.4390969294492823 -0.3851451998924304 0 0.4354004349648965 -0.40055780990002432 0 0.45329728287846061 -0.39963099679296588 0 0.4390969294492823 -0.3851451998924304 0 0.45606522570456098 -0.38599652494351028 0 0.4390969294492823 -0.3851451998924304 0 0.44783900322824399 -0.38008781189722518 0 0.45606522570456098 -0.38599652494351028 0 0.45329728287846061 -0.39963099679296588 0 0.4390969294492823 -0.3851451998924304 0 0.4390969294492823 -0.3851451998924304 0 0.43808065797110041 -0.37748478958974491 0 0.44783900322824399 -0.38008781189722518 0 0.42782015831496062 -0.38505662608606978 0 0.4354004349648965 -0.40055780990002432 0 0.41188669282555868 -0.38386409155992901 0 0.42489657602010461 -0.37065940299189432 0 0.4390969294492823 -0.3851451998924304 0 0.42782015831496062 -0.38505662608606978 0 0.42489657602010461 -0.37065940299189432 0 0.4390969294492823 -0.3851451998924304 0 0.43808065797110041 -0.37748478958974491 0 0.42489657602010461 -0.37065940299189432 0 0.4390969294492823 -0.3851451998924304 0 0.4390969294492823 -0.3851451998924304 0 0.42782015831496062 -0.38505662608606978 0 0.4354004349648965 -0.40055780990002432 0 0.4354004349648965 -0.40055780990002432 0 0.41188669282555868 -0.38386409155992901 0 0.4354004349648965 -0.40055780990002432 0 0.40669862042327182 -0.40204417319942209 0 0.4354004349648965 -0.40055780990002432 0 0.40669862042327182 -0.40204417319942209 0 0.41188669282555868 -0.38386409155992901 0 0.42489657602010461 -0.37065940299189432 0 0.42782015831496062 -0.38505662608606978 0 0.41188669282555868 -0.38386409155992901 0 0.42489657602010461 -0.37065940299189432 0 0.4070765621089808 -0.37107032214525337 0 0.41188669282555868 -0.38386409155992901 0 0.4070765621089808 -0.37107032214525337 0 0.39585190457779329 -0.37201308858561799 0 0.39886607975096749 -0.38470810625682389 0 0.40669862042327182 -0.40204417319942209 0 0.41188669282555868 -0.38386409155992901 0 0.39886607975096749 -0.38470810625682389 0 0.4070765621089808 -0.37107032214525337 0 0.41188669282555868 -0.38386409155992901 0 0.39886607975096749 -0.38470810625682389 0 0.39585190457779329 -0.37201308858561799 0 0.39886607975096749 -0.38470810625682389 0 0.38601585554704992 -0.38244526212700758 0 0.39886607975096749 -0.38470810625682389 0 0.38601585554704992 -0.38244526212700758 0 0.37799680588164719 -0.40353053649882148 0 0.38601585554704992 -0.38244526212700758 0 0.37799680588164719 -0.40353053649882148 0 0.38601585554704992 -0.38244526212700758 0 0.37799680588164719 -0.40353053649882148 0 0.36816388811638329 -0.39545065246060412 0 0.37799680588164719 -0.40353053649882148 0 0.37635446215448021 -0.40784891206015261 0 0.37799680588164719 -0.40353053649882148 0 0.37505152225636262 -0.40368306209891941 0 0.37635446215448021 -0.40784891206015261 0 0.37799680588164719 -0.40353053649882148 0 0.37505152225636262 -0.40368306209891941 0 0.40669862042327182 -0.40204417319942209 0 0.39886607975096749 -0.38470810625682389 0 0.37799680588164719 -0.40353053649882148 0 0.40669862042327182 -0.40204417319942209 0 0.37799680588164719 -0.40353053649882148 0 0.40669862042327182 -0.40204417319942209 0 0.38553791301154328 -0.41840677215457472 0 0.40567792500840172 -0.4277251834563135 0 0.40669862042327182 -0.40204417319942209 0 0.37799680588164719 -0.40353053649882148 0 0.38553791301154328 -0.41840677215457472 0 0.38553791301154328 -0.41840677215457472 0 0.36905142820508552 -0.42917232846767789 0 0.37241381966677689 -0.417360225696081 0 0.38553791301154328 -0.41840677215457472 0 0.37635446215448021 -0.40784891206015261 0 0.37241381966677689 -0.417360225696081 0 0.37799680588164719 -0.40353053649882148 0 0.38553791301154328 -0.41840677215457472 0 0.37635446215448021 -0.40784891206015261 0 0.38553791301154328 -0.41840677215457472 0 0.38807715457860831 -0.4388905332329941 0 0.36905142820508552 -0.42917232846767789 0 0.38553791301154328 -0.41840677215457472 0 0.40567792500840172 -0.4277251834563135 0 0.38807715457860831 -0.4388905332329941 0 0.40567792500840172 -0.4277251834563135 0 0.42351101069396863 -0.41893046606618117 0 0.42653452723640378 -0.44279137365393179 0 0.4354004349648965 -0.40055780990002432 0 0.40669862042327182 -0.40204417319942209 0 0.42351101069396863 -0.41893046606618117 0 0.40669862042327182 -0.40204417319942209 0 0.40567792500840172 -0.4277251834563135 0 0.42351101069396863 -0.41893046606618117 0 0.44324354583686831 -0.42153379012121539 0 0.4354004349648965 -0.40055780990002432 0 0.42351101069396863 -0.41893046606618117 0 0.44324354583686831 -0.42153379012121539 0 0.42653452723640378 -0.44279137365393179 0 0.44324354583686831 -0.42153379012121539 0 0.42351101069396863 -0.41893046606618117 0 0.42653452723640378 -0.44279137365393179 0 0.44442683605218691 -0.44583817528272968 0 0.42653452723640378 -0.44279137365393179 0 0.43057418754349119 -0.46211781715143319 0 0.42653452723640378 -0.44279137365393179 0 0.43057418754349119 -0.46211781715143319 0 0.40982550863593931 -0.46404895718664829 0 0.42653452723640378 -0.44279137365393179 0 0.40982550863593931 -0.46404895718664829 0 0.42653452723640378 -0.44279137365393179 0 0.40982550863593931 -0.46404895718664829 0 0.4036378289262339 -0.44671034290208689 0 0.40567792500840172 -0.4277251834563135 0 0.42653452723640378 -0.44279137365393179 0 0.4036378289262339 -0.44671034290208689 0 0.40567792500840172 -0.4277251834563135 0 0.4036378289262339 -0.44671034290208689 0 0.38807715457860831 -0.4388905332329941 0 0.4036378289262339 -0.44671034290208689 0 0.38807715457860831 -0.4388905332329941 0 0.38807402917181633 -0.46009566698054732 0 0.38807715457860831 -0.4388905332329941 0 0.3733961412993268 -0.45022493016754961 0 0.36905142820508552 -0.42917232846767789 0 0.38807715457860831 -0.4388905332329941 0 0.38807402917181633 -0.46009566698054732 0 0.3733961412993268 -0.45022493016754961 0 0.38807402917181633 -0.46009566698054732 0 0.36593927904035028 -0.47432204071884282 0 0.3733961412993268 -0.45022493016754961 0 0.40982550863593931 -0.46404895718664829 0 0.4036378289262339 -0.44671034290208689 0 0.38807402917181633 -0.46009566698054732 0 0.40982550863593931 -0.46404895718664829 0 0.39311649003547477 -0.48530654071936469 0 0.40982550863593931 -0.46404895718664829 0 0.38807402917181633 -0.46009566698054732 0 0.39311649003547477 -0.48530654071936469 0 0.38807402917181633 -0.46009566698054732 0 0.39311649003547477 -0.48530654071936469 0 0.36593927904035028 -0.47432204071884282 0 0.37603974257992701 -0.49999999999999978 0 0.39311649003547477 -0.48530654071936469 0 0.36593927904035028 -0.47432204071884282 0 0.37603974257992701 -0.49999999999999978 0 0.39676616081738958 -0.5 0 0.39311649003547477 -0.48530654071936469 0 0.39676616081738958 -0.5 0 0.39311649003547477 -0.48530654071936469 0 0.41749257905485199 -0.50000000000000033 0 0.40982550863593931 -0.46404895718664829 0 0.41749257905485199 -0.50000000000000033 0 0.43264288253940292 -0.48275234633568048 0 0.40982550863593931 -0.46404895718664829 0 0.39311649003547477 -0.48530654071936469 0 0.41749257905485199 -0.50000000000000033 0 0.43057418754349119 -0.46211781715143319 0 0.40982550863593931 -0.46404895718664829 0 0.43264288253940292 -0.48275234633568048 0 0.44779318602395363 -0.46550469267136052 0 0.43057418754349119 -0.46211781715143319 0 0.43264288253940292 -0.48275234633568048 0 0.41749257905485199 -0.50000000000000033 0 0.43264288253940292 -0.48275234633568048 0 0.32215468257820618 -0.5 0 0.33760568703239408 -0.47417818032706111 0 0.31005432530219129 -0.48106067464861729 0 0.33760568703239408 -0.47417818032706111 0 0.3189449745883719 -0.46117016543644002 0 0.31005432530219129 -0.48106067464861729 0 0.32215468257820618 -0.5 0 0.33760568703239408 -0.47417818032706111 0 0.34909721257906662 -0.5 0 0.37603974257992701 -0.49999999999999978 0 0.34909721257906662 -0.5 0 0.36593927904035028 -0.47432204071884282 0 0.37603974257992701 -0.49999999999999978 0 0.36593927904035028 -0.47432204071884282 0 0.33760568703239408 -0.47417818032706111 0 0.34909721257906662 -0.5 0 0.36593927904035028 -0.47432204071884282 0 0.33760568703239408 -0.47417818032706111 0 0.36593927904035028 -0.47432204071884282 0 0.35583881550077368 -0.44864408143768569 0 0.36593927904035028 -0.47432204071884282 0 0.35583881550077368 -0.44864408143768569 0 0.36593927904035028 -0.47432204071884282 0 0.3733961412993268 -0.45022493016754961 0 0.35583881550077368 -0.44864408143768569 0 0.3733961412993268 -0.45022493016754961 0 0.35583881550077368 -0.44864408143768569 0 0.36905142820508552 -0.42917232846767789 0 0.35583881550077368 -0.44864408143768569 0 0.33540415989768779 -0.44905252560006492 0 0.34573835196119679 -0.42296612215652868 0 0.33760568703239408 -0.47417818032706111 0 0.35583881550077368 -0.44864408143768569 0 0.33540415989768779 -0.44905252560006492 0 0.33760568703239408 -0.47417818032706111 0 0.33540415989768779 -0.44905252560006492 0 0.3189449745883719 -0.46117016543644002 0 0.33540415989768779 -0.44905252560006492 0 0.3189449745883719 -0.46117016543644002 0 0.32126124445813709 -0.43429719032362252 0 0.3189449745883719 -0.46117016543644002 0 0.32126124445813709 -0.43429719032362252 0 0.30480654487456732 -0.44641521679941309 0 0.32126124445813709 -0.43429719032362252 0 0.3193156137706864 -0.40941365839269389 0 0.29937418247959258 -0.41817563384508599 0 0.3193156137706864 -0.40941365839269389 0 0.34573835196119679 -0.42296612215652868 0 0.33563788842162012 -0.39728816287537172 0 0.34573835196119679 -0.42296612215652868 0 0.33563788842162012 -0.39728816287537172 0 0.33540415989768779 -0.44905252560006492 0 0.32126124445813709 -0.43429719032362252 0 0.34573835196119679 -0.42296612215652868 0 0.32126124445813709 -0.43429719032362252 0 0.3193156137706864 -0.40941365839269389 0 0.34573835196119679 -0.42296612215652868 0 0.35583881550077368 -0.44864408143768569 0 0.34573835196119679 -0.42296612215652868 0 0.36905142820508552 -0.42917232846767789 0 0.35583881550077368 -0.44864408143768569 0 0.34573835196119679 -0.42296612215652868 0 0.36905142820508552 -0.42917232846767789 0 0.37241381966677689 -0.417360225696081 0 0.36195200988480669 -0.41065981681110758 0 0.36990343230398692 -0.40830781576793279 0 0.37241381966677689 -0.417360225696081 0 0.36195200988480669 -0.41065981681110758 0 0.37635446215448021 -0.40784891206015261 0 0.36990343230398692 -0.40830781576793279 0 0.37241381966677689 -0.417360225696081 0 0.37505152225636262 -0.40368306209891941 0 0.37635446215448021 -0.40784891206015261 0 0.36990343230398692 -0.40830781576793279 0 0.36990343230398692 -0.40830781576793279 0 0.36195200988480669 -0.41065981681110758 0 0.36876771314038492 -0.40452533678464098 0 0.34573835196119679 -0.42296612215652868 0 0.36195200988480669 -0.41065981681110758 0 0.35211107663302149 -0.40015425695529971 0 0.34573835196119679 -0.42296612215652868 0 0.36905142820508552 -0.42917232846767789 0 0.36195200988480669 -0.41065981681110758 0 0.34573835196119679 -0.42296612215652868 0 0.35211107663302149 -0.40015425695529971 0 0.33563788842162012 -0.39728816287537172 0 0.35211107663302149 -0.40015425695529971 0 0.35352794608594401 -0.38791341326287138 0 0.33563788842162012 -0.39728816287537172 0 0.35211107663302149 -0.40015425695529971 0 0.36816388811638329 -0.39545065246060412 0 0.35352794608594401 -0.38791341326287138 0 0.36195200988480669 -0.41065981681110758 0 0.36816388811638329 -0.39545065246060412 0 0.36876771314038492 -0.40452533678464098 0 0.36195200988480669 -0.41065981681110758 0 0.35211107663302149 -0.40015425695529971 0 0.36816388811638329 -0.39545065246060412 0 0.37505152225636262 -0.40368306209891941 0 0.36816388811638329 -0.39545065246060412 0 0.36876771314038492 -0.40452533678464098 0 0.37799680588164719 -0.40353053649882148 0 0.37505152225636262 -0.40368306209891941 0 0.36816388811638329 -0.39545065246060412 0 0.37505152225636262 -0.40368306209891941 0 0.36990343230398692 -0.40830781576793279 0 0.36876771314038492 -0.40452533678464098 0 0.38601585554704992 -0.38244526212700758 0 0.36816388811638329 -0.39545065246060412 0 0.3689120952668708 -0.37284951495870189 0 0.36816388811638329 -0.39545065246060412 0 0.35352794608594401 -0.38791341326287138 0 0.3689120952668708 -0.37284951495870189 0 0.35352794608594401 -0.38791341326287138 0 0.33563788842162012 -0.39728816287537172 0 0.34467783115022588 -0.37252705130409253 0 0.35352794608594401 -0.38791341326287138 0 0.3689120952668708 -0.37284951495870189 0 0.34467783115022588 -0.37252705130409253 0 0.33563788842162012 -0.39728816287537172 0 0.3255374248820434 -0.37161020359421471 0 0.33563788842162012 -0.39728816287537172 0 0.34467783115022588 -0.37252705130409253 0 0.3255374248820434 -0.37161020359421471 0 0.3193156137706864 -0.40941365839269389 0 0.33563788842162012 -0.39728816287537172 0 0.30534853388527528 -0.38930881101125692 0 0.33563788842162012 -0.39728816287537172 0 0.30534853388527528 -0.38930881101125692 0 0.3255374248820434 -0.37161020359421471 0 0.30534853388527528 -0.38930881101125692 0 0.3255374248820434 -0.37161020359421471 0 0.30525369772634148 -0.37164386163485291 0 0.30534853388527528 -0.38930881101125692 0 0.28783989868818821 -0.37644057584389279 0 0.30525369772634148 -0.37164386163485291 0 0.3193156137706864 -0.40941365839269389 0 0.30534853388527528 -0.38930881101125692 0 0.29937418247959258 -0.41817563384508599 0 0.30534853388527528 -0.38930881101125692 0 0.28922044672054198 -0.39637746652331562 0 0.29937418247959258 -0.41817563384508599 0 0.28922044672054198 -0.39637746652331562 0 0.27510086349567708 -0.39798721671617321 0 0.28320928432356041 -0.41012407252970262 0 0.28922044672054198 -0.39637746652331562 0 0.28783989868818821 -0.37644057584389279 0 0.27924907625512951 -0.38731579260330862 0 0.30534853388527528 -0.38930881101125692 0 0.28922044672054198 -0.39637746652331562 0 0.28783989868818821 -0.37644057584389279 0 0.30534853388527528 -0.38930881101125692 0 0.28783989868818821 -0.37644057584389279 0 0.28783989868818821 -0.37644057584389279 0 0.27447250226623809 -0.37821124143188289 0 0.27924907625512951 -0.38731579260330862 0 0.27447250226623809 -0.37821124143188289 0 0.27924907625512951 -0.38731579260330862 0 0.26961167010500181 -0.38756246250127813 0 0.27447250226623809 -0.37821124143188289 0 0.26961167010500181 -0.38756246250127813 0 0.26423397132697279 -0.37890457124200982 0 0.26961167010500181 -0.38756246250127813 0 0.26423397132697279 -0.37890457124200982 0 0.25687819372407023 -0.38903915957053298 0 0.26423397132697279 -0.37890457124200982 0 0.25687819372407023 -0.38903915957053298 0 0.24987622704845311 -0.37613765202982719 0 0.25108303853213881 -0.40002667887407228 0 0.26390234922262928 -0.39930308446362528 0 0.256136481120742 -0.41447562176841068 0 0.25687819372407023 -0.38903915957053298 0 0.25108303853213881 -0.40002667887407228 0 0.24309899287842279 -0.39271330151873202 0 0.25687819372407023 -0.38903915957053298 0 0.25108303853213881 -0.40002667887407228 0 0.26390234922262928 -0.39930308446362528 0 0.26961167010500181 -0.38756246250127813 0 0.25687819372407023 -0.38903915957053298 0 0.26390234922262928 -0.39930308446362528 0 0.26390234922262928 -0.39930308446362528 0 0.27510086349567708 -0.39798721671617321 0 0.2708804648698091 -0.41009655218672442 0 0.26961167010500181 -0.38756246250127813 0 0.26390234922262928 -0.39930308446362528 0 0.27510086349567708 -0.39798721671617321 0 0.28922044672054198 -0.39637746652331562 0 0.27924907625512951 -0.38731579260330862 0 0.27510086349567708 -0.39798721671617321 0 0.27924907625512951 -0.38731579260330862 0 0.26961167010500181 -0.38756246250127813 0 0.27510086349567708 -0.39798721671617321 0 0.27510086349567708 -0.39798721671617321 0 0.2708804648698091 -0.41009655218672442 0 0.28320928432356041 -0.41012407252970262 0 0.2708804648698091 -0.41009655218672442 0 0.256136481120742 -0.41447562176841068 0 0.27433621812851161 -0.42550461519375637 0 0.2708804648698091 -0.41009655218672442 0 0.27433621812851161 -0.42550461519375637 0 0.28320928432356041 -0.41012407252970262 0 0.26390234922262928 -0.39930308446362528 0 0.2708804648698091 -0.41009655218672442 0 0.256136481120742 -0.41447562176841068 0 0.25108303853213881 -0.40002667887407228 0 0.256136481120742 -0.41447562176841068 0 0.24629253832767661 -0.41022035877505542 0 0.256136481120742 -0.41447562176841068 0 0.25513396950241118 -0.43290986753561628 0 0.2453827316299185 -0.42192330194190181 0 0.256136481120742 -0.41447562176841068 0 0.25513396950241118 -0.43290986753561628 0 0.27433621812851161 -0.42550461519375637 0 0.25513396950241118 -0.43290986753561628 0 0.27433621812851161 -0.42550461519375637 0 0.26752346795397081 -0.44788636482661331 0 0.27433621812851161 -0.42550461519375637 0 0.29937418247959258 -0.41817563384508599 0 0.28546596250580908 -0.44246723239800262 0 0.29937418247959258 -0.41817563384508599 0 0.30480654487456732 -0.44641521679941309 0 0.28546596250580908 -0.44246723239800262 0 0.28922044672054198 -0.39637746652331562 0 0.28320928432356041 -0.41012407252970262 0 0.29937418247959258 -0.41817563384508599 0 0.27433621812851161 -0.42550461519375637 0 0.28320928432356041 -0.41012407252970262 0 0.29937418247959258 -0.41817563384508599 0 0.32126124445813709 -0.43429719032362252 0 0.29937418247959258 -0.41817563384508599 0 0.30480654487456732 -0.44641521679941309 0 0.3189449745883719 -0.46117016543644002 0 0.30480654487456732 -0.44641521679941309 0 0.28880919487484108 -0.4658549053918814 0 0.30480654487456732 -0.44641521679941309 0 0.28880919487484108 -0.4658549053918814 0 0.28546596250580908 -0.44246723239800262 0 0.27433621812851161 -0.42550461519375637 0 0.28546596250580908 -0.44246723239800262 0 0.26752346795397081 -0.44788636482661331 0 0.28880919487484108 -0.4658549053918814 0 0.28546596250580908 -0.44246723239800262 0 0.26752346795397081 -0.44788636482661331 0 0.25513396950241118 -0.43290986753561628 0 0.26752346795397081 -0.44788636482661331 0 0.24480843210435321 -0.45079661158300749 0 0.26752346795397081 -0.44788636482661331 0 0.2588368117714554 -0.46700690363883102 0 0.24480843210435321 -0.45079661158300749 0 0.28880919487484108 -0.4658549053918814 0 0.26752346795397081 -0.44788636482661331 0 0.2588368117714554 -0.46700690363883102 0 0.28880919487484108 -0.4658549053918814 0 0.2588368117714554 -0.46700690363883102 0 0.27227655507569209 -0.48076744006000099 0 0.2588368117714554 -0.46700690363883102 0 0.27227655507569209 -0.48076744006000099 0 0.25270961841775552 -0.48460016746525392 0 0.2588368117714554 -0.46700690363883102 0 0.25270961841775552 -0.48460016746525392 0 0.23949561189523169 -0.47426551941090739 0 0.25270961841775552 -0.48460016746525392 0 0.26826962257648529 -0.5 0 0.2413270925756249 -0.5 0 0.27227655507569209 -0.48076744006000099 0 0.25270961841775552 -0.48460016746525392 0 0.26826962257648529 -0.5 0 0.27227655507569209 -0.48076744006000099 0 0.26826962257648529 -0.5 0 0.29521215257734579 -0.5 0 0.28880919487484108 -0.4658549053918814 0 0.27227655507569209 -0.48076744006000099 0 0.29521215257734579 -0.5 0 0.28880919487484108 -0.4658549053918814 0 0.29521215257734579 -0.5 0 0.31005432530219129 -0.48106067464861729 0 0.3189449745883719 -0.46117016543644002 0 0.28880919487484108 -0.4658549053918814 0 0.31005432530219129 -0.48106067464861729 0 0.32215468257820618 -0.5 0 0.29521215257734579 -0.5 0 0.31005432530219129 -0.48106067464861729 0 0.33463237856908817 -0.28956894479377399 0 0.33485830675890288 -0.30442904333306592 0 0.35657459314761941 -0.2860097891906741 0 0.33463237856908817 -0.28956894479377399 0 0.32894302133540282 -0.28710755170783531 0 0.35195887039823659 -0.28200771363307098 0 0.32894302133540282 -0.28710755170783531 0 0.35195887039823659 -0.28200771363307098 0 0.32894302133540282 -0.28710755170783531 0 0.33255663915089151 -0.29722249741805129 0 0.33463237856908817 -0.28956894479377399 0 0.32894302133540282 -0.28710755170783531 0 0.33255663915089151 -0.29722249741805129 0 0.32894302133540282 -0.28710755170783531 0 0.33255663915089151 -0.29722249741805129 0 0.32301709761150521 -0.2972128627914089 0 0.33485830675890288 -0.30442904333306592 0 0.34824447571033601 -0.30253517369681238 0 0.34533870308018377 -0.31598934501886372 0 0.33485830675890288 -0.30442904333306592 0 0.33255663915089151 -0.29722249741805129 0 0.32434770264142349 -0.30499280498860082 0 0.33463237856908817 -0.28956894479377399 0 0.33485830675890288 -0.30442904333306592 0 0.33255663915089151 -0.29722249741805129 0 0.32301709761150521 -0.2972128627914089 0 0.32434770264142349 -0.30499280498860082 0 0.3171485971304504 -0.30589952111326829 0 0.32434770264142349 -0.30499280498860082 0 0.3171485971304504 -0.30589952111326829 0 0.31314202037018413 -0.32284829747545468 0 0.33485830675890288 -0.30442904333306592 0 0.32434770264142349 -0.30499280498860082 0 0.31314202037018413 -0.32284829747545468 0 0.33255663915089151 -0.29722249741805129 0 0.32301709761150521 -0.2972128627914089 0 0.32434770264142349 -0.30499280498860082 0 0.3171485971304504 -0.30589952111326829 0 0.31208952779935789 -0.2908419387292881 0 0.30833746379913463 -0.30503745501229762 0 0.32301709761150521 -0.2972128627914089 0 0.3171485971304504 -0.30589952111326829 0 0.31208952779935789 -0.2908419387292881 0 0.32894302133540282 -0.28710755170783531 0 0.31611371382327402 -0.28007222207304999 0 0.31208952779935789 -0.2908419387292881 0 0.32894302133540282 -0.28710755170783531 0 0.32301709761150521 -0.2972128627914089 0 0.31208952779935789 -0.2908419387292881 0 0.32894302133540282 -0.28710755170783531 0 0.31208952779935789 -0.2908419387292881 0 0.32894302133540282 -0.28710755170783531 0 0.32245882367699719 -0.26895751187574157 0 0.32894302133540282 -0.28710755170783531 0 0.31611371382327402 -0.28007222207304999 0 0.32245882367699719 -0.26895751187574157 0 0.31611371382327402 -0.28007222207304999 0 0.32245882367699719 -0.26895751187574157 0 0.30706455279928557 -0.27339796693147528 0 0.32245882367699719 -0.26895751187574157 0 0.30981211567343969 -0.26250129009931661 0 0.30706455279928557 -0.27339796693147528 0 0.32245882367699719 -0.26895751187574157 0 0.31597462601859122 -0.25080747204364812 0 0.32245882367699719 -0.26895751187574157 0 0.31597462601859122 -0.25080747204364812 0 0.30981211567343969 -0.26250129009931661 0 0.32245882367699719 -0.26895751187574157 0 0.31597462601859122 -0.25080747204364812 0 0.33396674820841349 -0.26640759283836002 0 0.31597462601859122 -0.25080747204364812 0 0.33396674820841349 -0.26640759283836002 0 0.33517615116993849 -0.24743488902137309 0 0.33396674820841349 -0.26640759283836002 0 0.35185333732921159 -0.25428502110151557 0 0.33517615116993849 -0.24743488902137309 0 0.31597462601859122 -0.25080747204364812 0 0.33396674820841349 -0.26640759283836002 0 0.32894302133540282 -0.28710755170783531 0 0.32245882367699719 -0.26895751187574157 0 0.33396674820841349 -0.26640759283836002 0 0.33396674820841349 -0.26640759283836002 0 0.35195887039823659 -0.28200771363307098 0 0.32894302133540282 -0.28710755170783531 0 0.33396674820841349 -0.26640759283836002 0 0.35195887039823659 -0.28200771363307098 0 0.33396674820841349 -0.26640759283836002 0 0.35159414215374007 -0.26901089914998932 0 0.35195887039823659 -0.28200771363307098 0 0.35159414215374007 -0.26901089914998932 0 0.36459381448795669 -0.2792080702757721 0 0.35195887039823659 -0.28200771363307098 0 0.36459381448795669 -0.2792080702757721 0 0.35195887039823659 -0.28200771363307098 0 0.33396674820841349 -0.26640759283836002 0 0.35159414215374007 -0.26901089914998932 0 0.35185333732921159 -0.25428502110151557 0 0.35159414215374007 -0.26901089914998932 0 0.35185333732921159 -0.25428502110151557 0 0.36435388824524378 -0.26651308148643732 0 0.37477580018058132 -0.24095111383496479 0 0.37683953433427181 -0.26882153263446662 0 0.36563983252638571 -0.25462703483095822 0 0.36075586336603621 -0.2426037127049111 0 0.35185333732921159 -0.25428502110151557 0 0.36563983252638571 -0.25462703483095822 0 0.35185333732921159 -0.25428502110151557 0 0.36563983252638571 -0.25462703483095822 0 0.36435388824524378 -0.26651308148643732 0 0.37683953433427181 -0.26882153263446662 0 0.36563983252638571 -0.25462703483095822 0 0.36435388824524378 -0.26651308148643732 0 0.36459381448795669 -0.2792080702757721 0 0.36308990924476459 -0.28048364807874221 0 0.35195887039823659 -0.28200771363307098 0 0.36459381448795669 -0.2792080702757721 0 0.36308990924476459 -0.28048364807874221 0 0.37273728942595791 -0.27740364396778311 0 0.36459381448795669 -0.2792080702757721 0 0.36308990924476459 -0.28048364807874221 0 0.35159414215374007 -0.26901089914998932 0 0.36459381448795669 -0.2792080702757721 0 0.36435388824524378 -0.26651308148643732 0 0.37683953433427181 -0.26882153263446662 0 0.36459381448795669 -0.2792080702757721 0 0.36435388824524378 -0.26651308148643732 0 0.36459381448795669 -0.2792080702757721 0 0.37273728942595791 -0.27740364396778311 0 0.37683953433427181 -0.26882153263446662 0 0.36459381448795669 -0.2792080702757721 0 0.37273728942595791 -0.27740364396778311 0 0.37683953433427181 -0.26882153263446662 0 0.36459381448795669 -0.2792080702757721 0 0.36308990924476459 -0.28048364807874221 0 0.37273728942595791 -0.27740364396778311 0 0.37795999762798671 -0.28395322059410122 0 0.37273728942595791 -0.27740364396778311 0 0.36936745264149701 -0.28627283508716472 0 0.35657459314761941 -0.2860097891906741 0 0.35620629985463748 -0.30371251724464648 0 0.37101427446782781 -0.29852975601036341 0 0.36308990924476459 -0.28048364807874221 0 0.37273728942595791 -0.27740364396778311 0 0.36936745264149701 -0.28627283508716472 0 0.37519981906117678 -0.29055939022370142 0 0.37795999762798671 -0.28395322059410122 0 0.36936745264149701 -0.28627283508716472 0 0.37519981906117678 -0.29055939022370142 0 0.36936745264149701 -0.28627283508716472 0 0.37101427446782781 -0.29852975601036341 0 0.36936745264149701 -0.28627283508716472 0 0.35657459314761941 -0.2860097891906741 0 0.37101427446782781 -0.29852975601036341 0 0.35657459314761941 -0.2860097891906741 0 0.37101427446782781 -0.29852975601036341 0 0.36308990924476459 -0.28048364807874221 0 0.36936745264149701 -0.28627283508716472 0 0.35657459314761941 -0.2860097891906741 0 0.36308990924476459 -0.28048364807874221 0 0.35657459314761941 -0.2860097891906741 0 0.36308990924476459 -0.28048364807874221 0 0.35366972758071469 -0.28349111722646431 0 0.33463237856908817 -0.28956894479377399 0 0.35366972758071469 -0.28349111722646431 0 0.33463237856908817 -0.28956894479377399 0 0.35366972758071469 -0.28349111722646431 0 0.35195887039823659 -0.28200771363307098 0 0.36308990924476459 -0.28048364807874221 0 0.35366972758071469 -0.28349111722646431 0 0.35195887039823659 -0.28200771363307098 0 0.33485830675890288 -0.30442904333306592 0 0.35657459314761941 -0.2860097891906741 0 0.36308990924476459 -0.28048364807874221 0 0.35366972758071469 -0.28349111722646431 0 0.35657459314761941 -0.2860097891906741 0 0.33463237856908817 -0.28956894479377399 0 0.35366972758071469 -0.28349111722646431 0 0.35657459314761941 -0.2860097891906741 0 0.35366972758071469 -0.28349111722646431 0 0.35657459314761941 -0.2860097891906741 0 0.35366972758071469 -0.28349111722646431 0 0.35195887039823659 -0.28200771363307098 0 0.35620629985463748 -0.30371251724464648 0 0.36380134767337091 -0.31365371592763602 0 0.34533870308018377 -0.31598934501886372 0 0.35657459314761941 -0.2860097891906741 0 0.34824447571033601 -0.30253517369681238 0 0.35620629985463748 -0.30371251724464648 0 0.33485830675890288 -0.30442904333306592 0 0.35657459314761941 -0.2860097891906741 0 0.34824447571033601 -0.30253517369681238 0 0.34824447571033601 -0.30253517369681238 0 0.35620629985463748 -0.30371251724464648 0 0.34533870308018377 -0.31598934501886372 0 0.38545395578803499 -0.31104972283005378 0 0.37101427446782781 -0.29852975601036341 0 0.36380134767337091 -0.31365371592763602 0 0.35620629985463748 -0.30371251724464648 0 0.37101427446782781 -0.29852975601036341 0 0.36380134767337091 -0.31365371592763602 0 0.38545395578803499 -0.31104972283005378 0 0.36380134767337091 -0.31365371592763602 0 0.36945761595668469 -0.32738841673247931 0 0.36380134767337091 -0.31365371592763602 0 0.36945761595668469 -0.32738841673247931 0 0.35533723689285712 -0.32525253772940937 0 0.36945761595668469 -0.32738841673247931 0 0.35618710249729552 -0.34088690244721892 0 0.35533723689285712 -0.32525253772940937 0 0.36945761595668469 -0.32738841673247931 0 0.35618710249729552 -0.34088690244721892 0 0.37368731816096312 -0.34897020548070451 0 0.35618710249729552 -0.34088690244721892 0 0.33810128782584858 -0.35072533414536311 0 0.34064131712366241 -0.33181983138849169 0 0.35618710249729552 -0.34088690244721892 0 0.35533723689285712 -0.32525253772940937 0 0.34064131712366241 -0.33181983138849169 0 0.34533870308018377 -0.31598934501886372 0 0.35533723689285712 -0.32525253772940937 0 0.34064131712366241 -0.33181983138849169 0 0.36380134767337091 -0.31365371592763602 0 0.34533870308018377 -0.31598934501886372 0 0.35533723689285712 -0.32525253772940937 0 0.3689120952668708 -0.37284951495870189 0 0.37368731816096312 -0.34897020548070451 0 0.35738528973841999 -0.35772904562383351 0 0.35618710249729552 -0.34088690244721892 0 0.37368731816096312 -0.34897020548070451 0 0.35738528973841999 -0.35772904562383351 0 0.35618710249729552 -0.34088690244721892 0 0.35738528973841999 -0.35772904562383351 0 0.33810128782584858 -0.35072533414536311 0 0.35738528973841999 -0.35772904562383351 0 0.34467783115022588 -0.37252705130409253 0 0.33810128782584858 -0.35072533414536311 0 0.3689120952668708 -0.37284951495870189 0 0.35738528973841999 -0.35772904562383351 0 0.34467783115022588 -0.37252705130409253 0 0.34467783115022588 -0.37252705130409253 0 0.33810128782584858 -0.35072533414536311 0 0.3255374248820434 -0.37161020359421471 0 0.31543696134246668 -0.34593224431305769 0 0.3255374248820434 -0.37161020359421471 0 0.30900602422585888 -0.35865430802761772 0 0.31543696134246668 -0.34593224431305769 0 0.3255374248820434 -0.37161020359421471 0 0.33810128782584858 -0.35072533414536311 0 0.31543696134246668 -0.34593224431305769 0 0.3255374248820434 -0.37161020359421471 0 0.3255374248820434 -0.37161020359421471 0 0.30525369772634148 -0.37164386163485291 0 0.30900602422585888 -0.35865430802761772 0 0.34533870308018377 -0.31598934501886372 0 0.33130220335757699 -0.32186248444176119 0 0.34064131712366241 -0.33181983138849169 0 0.33485830675890288 -0.30442904333306592 0 0.34533870308018377 -0.31598934501886372 0 0.33130220335757699 -0.32186248444176119 0 0.33810128782584858 -0.35072533414536311 0 0.34064131712366241 -0.33181983138849169 0 0.3268430880468266 -0.33457206034663262 0 0.33130220335757699 -0.32186248444176119 0 0.34064131712366241 -0.33181983138849169 0 0.3268430880468266 -0.33457206034663262 0 0.31543696134246668 -0.34593224431305769 0 0.3268430880468266 -0.33457206034663262 0 0.31314202037018413 -0.32284829747545468 0 0.33810128782584858 -0.35072533414536311 0 0.31543696134246668 -0.34593224431305769 0 0.3268430880468266 -0.33457206034663262 0 0.33130220335757699 -0.32186248444176119 0 0.3268430880468266 -0.33457206034663262 0 0.31314202037018413 -0.32284829747545468 0 0.33485830675890288 -0.30442904333306592 0 0.31314202037018413 -0.32284829747545468 0 0.3171485971304504 -0.30589952111326829 0 0.31314202037018413 -0.32284829747545468 0 0.3109911447756647 -0.31350988965823029 0 0.33485830675890288 -0.30442904333306592 0 0.33130220335757699 -0.32186248444176119 0 0.31314202037018413 -0.32284829747545468 0 0.31314202037018413 -0.32284829747545468 0 0.30533649780288991 -0.32025428503190068 0 0.3109911447756647 -0.31350988965823029 0 0.30533649780288991 -0.32025428503190068 0 0.3109911447756647 -0.31350988965823029 0 0.30833746379913463 -0.30503745501229762 0 0.31543696134246668 -0.34593224431305769 0 0.30533649780288991 -0.32025428503190068 0 0.30314188851555429 -0.3464145030398364 0 0.30533649780288991 -0.32025428503190068 0 0.29792146783109758 -0.32077626486014349 0 0.30314188851555429 -0.3464145030398364 0 0.31543696134246668 -0.34593224431305769 0 0.31314202037018413 -0.32284829747545468 0 0.30533649780288991 -0.32025428503190068 0 0.29792146783109758 -0.32077626486014349 0 0.30314188851555429 -0.3464145030398364 0 0.31543696134246668 -0.34593224431305769 0 0.30533649780288991 -0.32025428503190068 0 0.29792146783109758 -0.32077626486014349 0 0.29422135484035322 -0.33366994296298719 0 0.30314188851555429 -0.3464145030398364 0 0.29422135484035322 -0.33366994296298719 0 0.29546103181119637 -0.34185893253319311 0 0.30314188851555429 -0.3464145030398364 0 0.29422135484035322 -0.33366994296298719 0 0.29546103181119637 -0.34185893253319311 0 0.28827175492889229 -0.34275780055790278 0 0.29546103181119637 -0.34185893253319311 0 0.28827175492889229 -0.34275780055790278 0 0.29811044553331972 -0.34650788457159087 0 0.29422135484035322 -0.33366994296298719 0 0.28827175492889229 -0.34275780055790278 0 0.27955848846152698 -0.33666113426449551 0 0.29422135484035322 -0.33366994296298719 0 0.28744860979629389 -0.32474860906702402 0 0.27955848846152698 -0.33666113426449551 0 0.28744860979629389 -0.32474860906702402 0 0.29019889155513462 -0.31620785207956748 0 0.28097437988070417 -0.31138482246715898 0 0.29792146783109758 -0.32077626486014349 0 0.29019889155513462 -0.31620785207956748 0 0.29244758100571983 -0.32385066724243061 0 0.29422135484035322 -0.33366994296298719 0 0.28744860979629389 -0.32474860906702402 0 0.29244758100571983 -0.32385066724243061 0 0.29792146783109758 -0.32077626486014349 0 0.29422135484035322 -0.33366994296298719 0 0.29244758100571983 -0.32385066724243061 0 0.28744860979629389 -0.32474860906702402 0 0.29019889155513462 -0.31620785207956748 0 0.29244758100571983 -0.32385066724243061 0 0.30525369772634148 -0.37164386163485291 0 0.30031449930387721 -0.36082981960256849 0 0.30900602422585888 -0.35865430802761772 0 0.30525369772634148 -0.37164386163485291 0 0.30031449930387721 -0.36082981960256849 0 0.29483415024835152 -0.36747827247447862 0 0.30080593951138668 -0.35381036279877531 0 0.30900602422585888 -0.35865430802761772 0 0.30314188851555429 -0.3464145030398364 0 0.30080593951138668 -0.35381036279877531 0 0.29811044553331972 -0.34650788457159087 0 0.29345683997832372 -0.35664529875226292 0 0.30031449930387721 -0.36082981960256849 0 0.30080593951138668 -0.35381036279877531 0 0.30900602422585888 -0.35865430802761772 0 0.30031449930387721 -0.36082981960256849 0 0.30080593951138668 -0.35381036279877531 0 0.29345683997832372 -0.35664529875226292 0 0.31543696134246668 -0.34593224431305769 0 0.30900602422585888 -0.35865430802761772 0 0.30314188851555429 -0.3464145030398364 0 0.30080593951138668 -0.35381036279877531 0 0.30314188851555429 -0.3464145030398364 0 0.29811044553331972 -0.34650788457159087 0 0.29546103181119637 -0.34185893253319311 0 0.30314188851555429 -0.3464145030398364 0 0.29811044553331972 -0.34650788457159087 0 0.29811044553331972 -0.34650788457159087 0 0.29345683997832372 -0.35664529875226292 0 0.28122462644821988 -0.35688066365974619 0 0.28827175492889229 -0.34275780055790278 0 0.29811044553331972 -0.34650788457159087 0 0.28122462644821988 -0.35688066365974619 0 0.28827175492889229 -0.34275780055790278 0 0.28122462644821988 -0.35688066365974619 0 0.27955848846152698 -0.33666113426449551 0 0.29811044553331972 -0.34650788457159087 0 0.28122462644821988 -0.35688066365974619 0 0.29345683997832372 -0.35664529875226292 0 0.28676543400443838 -0.36101512068260139 0 0.28122462644821988 -0.35688066365974619 0 0.28676543400443838 -0.36101512068260139 0 0.28122462644821988 -0.35688066365974619 0 0.28783989868818821 -0.37644057584389279 0 0.30525369772634148 -0.37164386163485291 0 0.29483415024835152 -0.36747827247447862 0 0.28783989868818821 -0.37644057584389279 0 0.28676543400443838 -0.36101512068260139 0 0.27033126349110148 -0.36357234067652822 0 0.29357505063040601 -0.36145191270551408 0 0.28676543400443838 -0.36101512068260139 0 0.29483415024835152 -0.36747827247447862 0 0.30031449930387721 -0.36082981960256849 0 0.29357505063040601 -0.36145191270551408 0 0.29483415024835152 -0.36747827247447862 0 0.30031449930387721 -0.36082981960256849 0 0.29345683997832372 -0.35664529875226292 0 0.29357505063040601 -0.36145191270551408 0 0.29345683997832372 -0.35664529875226292 0 0.29357505063040601 -0.36145191270551408 0 0.28676543400443838 -0.36101512068260139 0 0.28783989868818821 -0.37644057584389279 0 0.28676543400443838 -0.36101512068260139 0 0.29483415024835152 -0.36747827247447862 0 0.28783989868818821 -0.37644057584389279 0 0.27033126349110148 -0.36357234067652822 0 0.28783989868818821 -0.37644057584389279 0 0.27447250226623809 -0.37821124143188289 0 0.27033126349110148 -0.36357234067652822 0 0.28676543400443838 -0.36101512068260139 0 0.27033126349110148 -0.36357234067652822 0 0.28122462644821988 -0.35688066365974619 0 0.27447250226623809 -0.37821124143188289 0 0.26423397132697279 -0.37890457124200982 0 0.27033126349110148 -0.36357234067652822 0 0.27033126349110148 -0.36357234067652822 0 0.28122462644821988 -0.35688066365974619 0 0.28122462644821988 -0.35688066365974619 0 0.26082083375001269 -0.34165569813656432 0 0.27033126349110148 -0.36357234067652822 0 0.28122462644821988 -0.35688066365974619 0 0.26082083375001269 -0.34165569813656432 0 0.28122462644821988 -0.35688066365974619 0 0.27955848846152698 -0.33666113426449551 0 0.26082083375001269 -0.34165569813656432 0 0.27033126349110148 -0.36357234067652822 0 0.25099839141978419 -0.34936335514031408 0 0.27033126349110148 -0.36357234067652822 0 0.25099839141978419 -0.34936335514031408 0 0.26082083375001269 -0.34165569813656432 0 0.27033126349110148 -0.36357234067652822 0 0.25099839141978419 -0.34936335514031408 0 0.24534349961555019 -0.36253701182870851 0 0.26423397132697279 -0.37890457124200982 0 0.27033126349110148 -0.36357234067652822 0 0.24987622704845311 -0.37613765202982719 0 0.27033126349110148 -0.36357234067652822 0 0.24534349961555019 -0.36253701182870851 0 0.24987622704845311 -0.37613765202982719 0 0.27033126349110148 -0.36357234067652822 0 0.24987622704845311 -0.37613765202982719 0 0.28744860979629389 -0.32474860906702402 0 0.26598899428458778 -0.32103793389256657 0 0.27955848846152698 -0.33666113426449551 0 0.28744860979629389 -0.32474860906702402 0 0.26598899428458778 -0.32103793389256657 0 0.28097437988070417 -0.31138482246715898 0 0.26598899428458778 -0.32103793389256657 0 0.27955848846152698 -0.33666113426449551 0 0.26082083375001269 -0.34165569813656432 0 0.26082083375001269 -0.34165569813656432 0 0.2404170410518052 -0.32643073261338312 0 0.26598899428458778 -0.32103793389256657 0 0.26082083375001269 -0.34165569813656432 0 0.2404170410518052 -0.32643073261338312 0 0.25099839141978419 -0.34936335514031408 0 0.26082083375001269 -0.34165569813656432 0 0.2404170410518052 -0.32643073261338312 0 0.26598899428458778 -0.32103793389256657 0 0.24423538898563429 -0.30587701823941071 0 0.2404170410518052 -0.32643073261338312 0 0.26846821806613752 -0.30050752245993012 0 0.24423538898563429 -0.30587701823941071 0 0.25301376652256202 -0.2892367573709661 0 0.26846821806613752 -0.30050752245993012 0 0.24423538898563429 -0.30587701823941071 0 0.26598899428458778 -0.32103793389256657 0 0.26846821806613752 -0.30050752245993012 0 0.24423538898563429 -0.30587701823941071 0 0.25301376652256202 -0.2892367573709661 0 0.26500420865911251 -0.28331687632378699 0 0.26846821806613752 -0.30050752245993012 0 0.25301376652256202 -0.2892367573709661 0 0.26500420865911251 -0.28331687632378699 0 0.2507153324002197 -0.27704953531328702 0 0.26500420865911251 -0.28331687632378699 0 0.27805302037335089 -0.28584974436810762 0 0.26846821806613752 -0.30050752245993012 0 0.27805302037335089 -0.28584974436810762 0 0.26846821806613752 -0.30050752245993012 0 0.29270104714664102 -0.29513802668045069 0 0.26500420865911251 -0.28331687632378699 0 0.27805302037335089 -0.28584974436810762 0 0.27342558025451552 -0.27498979272208851 0 0.26598899428458778 -0.32103793389256657 0 0.26846821806613752 -0.30050752245993012 0 0.28097437988070417 -0.31138482246715898 0 0.26846821806613752 -0.30050752245993012 0 0.28097437988070417 -0.31138482246715898 0 0.29270104714664102 -0.29513802668045069 0 0.26846821806613752 -0.30050752245993012 0 0.29270104714664102 -0.29513802668045069 0 0.29792146783109758 -0.32077626486014349 0 0.29270104714664102 -0.29513802668045069 0 0.29019889155513462 -0.31620785207956748 0 0.28097437988070417 -0.31138482246715898 0 0.29270104714664102 -0.29513802668045069 0 0.29792146783109758 -0.32077626486014349 0 0.29019889155513462 -0.31620785207956748 0 0.29270104714664102 -0.29513802668045069 0 0.29792146783109758 -0.32077626486014349 0 0.29270104714664102 -0.29513802668045069 0 0.29523603426331357 -0.29457632575074338 0 0.27805302037335089 -0.28584974436810762 0 0.29026987947112831 -0.28319821192468808 0 0.29270104714664102 -0.29513802668045069 0 0.27805302037335089 -0.28584974436810762 0 0.29026987947112831 -0.28319821192468808 0 0.28863308206368682 -0.27515966401439529 0 0.29026987947112831 -0.28319821192468808 0 0.29523603426331357 -0.29457632575074338 0 0.29026987947112831 -0.28319821192468808 0 0.29523603426331357 -0.29457632575074338 0 0.30320790951940702 -0.28313078900162059 0 0.29026987947112831 -0.28319821192468808 0 0.29270104714664102 -0.29513802668045069 0 0.29523603426331357 -0.29457632575074338 0 0.29026987947112831 -0.28319821192468808 0 0.29270104714664102 -0.29513802668045069 0 0.29270104714664102 -0.29513802668045069 0 0.29523603426331357 -0.29457632575074338 0 0.29523603426331357 -0.29457632575074338 0 0.31208952779935789 -0.2908419387292881 0 0.29523603426331357 -0.29457632575074338 0 0.30320790951940702 -0.28313078900162059 0 0.31208952779935789 -0.2908419387292881 0 0.29523603426331357 -0.29457632575074338 0 0.31208952779935789 -0.2908419387292881 0 0.30833746379913463 -0.30503745501229762 0 0.31611371382327402 -0.28007222207304999 0 0.30320790951940702 -0.28313078900162059 0 0.31208952779935789 -0.2908419387292881 0 0.30533649780288991 -0.32025428503190068 0 0.29523603426331357 -0.29457632575074338 0 0.30833746379913463 -0.30503745501229762 0 0.30533649780288991 -0.32025428503190068 0 0.29792146783109758 -0.32077626486014349 0 0.29523603426331357 -0.29457632575074338 0 0.30533649780288991 -0.32025428503190068 0 0.29523603426331357 -0.29457632575074338 0 0.3171485971304504 -0.30589952111326829 0 0.3109911447756647 -0.31350988965823029 0 0.30833746379913463 -0.30503745501229762 0 0.29812220868357159 -0.26533402464574418 0 0.30111904597271899 -0.2536098058489899 0 0.30981211567343969 -0.26250129009931661 0 0.31597462601859122 -0.25080747204364812 0 0.30111904597271899 -0.2536098058489899 0 0.30981211567343969 -0.26250129009931661 0 0.29812220868357159 -0.26533402464574418 0 0.30981211567343969 -0.26250129009931661 0 0.30706455279928557 -0.27339796693147528 0 0.31611371382327402 -0.28007222207304999 0 0.30320790951940702 -0.28313078900162059 0 0.30706455279928557 -0.27339796693147528 0 0.29026987947112831 -0.28319821192468808 0 0.30320790951940702 -0.28313078900162059 0 0.29755036247591721 -0.27602563541609298 0 0.30320790951940702 -0.28313078900162059 0 0.30706455279928557 -0.27339796693147528 0 0.29755036247591721 -0.27602563541609298 0 0.29812220868357159 -0.26533402464574418 0 0.30706455279928557 -0.27339796693147528 0 0.29755036247591721 -0.27602563541609298 0 0.29812220868357159 -0.26533402464574418 0 0.29755036247591721 -0.27602563541609298 0 0.28863308206368682 -0.27515966401439529 0 0.29026987947112831 -0.28319821192468808 0 0.28863308206368682 -0.27515966401439529 0 0.29026987947112831 -0.28319821192468808 0 0.29755036247591721 -0.27602563541609298 0 0.28863308206368682 -0.27515966401439529 0 0.28863308206368682 -0.27515966401439529 0 0.28456511698073272 -0.25518130134833977 0 0.29812220868357159 -0.26533402464574418 0 0.28863308206368682 -0.27515966401439529 0 0.28456511698073272 -0.25518130134833977 0 0.29812220868357159 -0.26533402464574418 0 0.30111904597271899 -0.2536098058489899 0 0.28456511698073272 -0.25518130134833977 0 0.28863308206368682 -0.27515966401439529 0 0.28456511698073272 -0.25518130134833977 0 0.27223885194073971 -0.26265851400849172 0 0.28456511698073272 -0.25518130134833977 0 0.27223885194073971 -0.26265851400849172 0 0.26629969424128969 -0.25192769388052821 0 0.27223885194073971 -0.26265851400849172 0 0.26629969424128969 -0.25192769388052821 0 0.2629172406837702 -0.26740365320709081 0 0.26500420865911251 -0.28331687632378699 0 0.27342558025451552 -0.27498979272208851 0 0.2629172406837702 -0.26740365320709081 0 0.28863308206368682 -0.27515966401439529 0 0.27223885194073971 -0.26265851400849172 0 0.27342558025451552 -0.27498979272208851 0 0.27805302037335089 -0.28584974436810762 0 0.28863308206368682 -0.27515966401439529 0 0.27342558025451552 -0.27498979272208851 0 0.27223885194073971 -0.26265851400849172 0 0.27342558025451552 -0.27498979272208851 0 0.2629172406837702 -0.26740365320709081 0 0.26500420865911251 -0.28331687632378699 0 0.2629172406837702 -0.26740365320709081 0 0.2507153324002197 -0.27704953531328702 0 0.2629172406837702 -0.26740365320709081 0 0.2507153324002197 -0.27704953531328702 0 0.2466218950091964 -0.26012473444713258 0 0.25037283077400019 -0.2416092145933311 0 0.26629969424128969 -0.25192769388052821 0 0.2466218950091964 -0.26012473444713258 0 0.26629969424128969 -0.25192769388052821 0 0.2629172406837702 -0.26740365320709081 0 0.2466218950091964 -0.26012473444713258 0 0.25037283077400019 -0.2416092145933311 0 0.2466218950091964 -0.26012473444713258 0 0.2339549802858914 -0.24933471903745599 0 0.2466218950091964 -0.26012473444713258 0 0.22717476572977791 -0.26325637954660608 0 0.2339549802858914 -0.24933471903745599 0 0.2466218950091964 -0.26012473444713258 0 0.23628574795648369 -0.27498419313581679 0 0.22717476572977791 -0.26325637954660608 0 0.2507153324002197 -0.27704953531328702 0 0.2466218950091964 -0.26012473444713258 0 0.23628574795648369 -0.27498419313581679 0 0.2507153324002197 -0.27704953531328702 0 0.23628574795648369 -0.27498419313581679 0 0.24044913557019401 -0.28723099739492908 0 0.2247339410531527 -0.27667652802353632 0 0.21554844428562811 -0.26491471108287651 0 0.21653111649902579 -0.28712771180040292 0 0.23628574795648369 -0.27498419313581679 0 0.2247339410531527 -0.27667652802353632 0 0.22717476572977791 -0.26325637954660608 0 0.2247339410531527 -0.27667652802353632 0 0.22717476572977791 -0.26325637954660608 0 0.21554844428562811 -0.26491471108287651 0 0.22717476572977791 -0.26325637954660608 0 0.22331750647786899 -0.25281133177650322 0 0.2339549802858914 -0.24933471903745599 0 0.22717476572977791 -0.26325637954660608 0 0.22331750647786899 -0.25281133177650322 0 0.21554844428562811 -0.26491471108287651 0 0.2084475354763706 -0.25511513831035743 0 0.21554844428562811 -0.26491471108287651 0 0.1982966667633215 -0.26354120971092698 0 0.21554844428562811 -0.26491471108287651 0 0.21456577207223029 -0.24270171036535029 0 0.22331750647786899 -0.25281133177650322 0 0.21554844428562811 -0.26491471108287651 0 0.21456577207223029 -0.24270171036535029 0 0.2084475354763706 -0.25511513831035743 0 0.21554844428562811 -0.26491471108287651 0 0.21336353465090491 -0.24693864317134839 0 0.21554844428562811 -0.26491471108287651 0 0.21336353465090491 -0.24693864317134839 0 0.21456577207223029 -0.24270171036535029 0 0.2084475354763706 -0.25511513831035743 0 0.1982966667633215 -0.26354120971092698 0 0.2080714594183444 -0.2424179483002232 0 0.1982966667633215 -0.26354120971092698 0 0.2080714594183444 -0.2424179483002232 0 0.21554844428562811 -0.26491471108287651 0 0.21653111649902579 -0.28712771180040292 0 0.21554844428562811 -0.26491471108287651 0 0.20859607852913339 -0.28093905456482821 0 0.21653111649902579 -0.28712771180040292 0 0.21554844428562811 -0.26491471108287651 0 0.20859607852913339 -0.28093905456482821 0 0.2011380539128553 -0.27767933622792518 0 0.21554844428562811 -0.26491471108287651 0 0.2011380539128553 -0.27767933622792518 0 0.1982966667633215 -0.26354120971092698 0 0.1982966667633215 -0.26354120971092698 0 0.18852187410829821 -0.28466447112163068 0 0.1982966667633215 -0.26354120971092698 0 0.18852187410829821 -0.28466447112163068 0 0.1845366839674035 -0.26640487959885623 0 0.2011380539128553 -0.27767933622792518 0 0.1982966667633215 -0.26354120971092698 0 0.18852187410829821 -0.28466447112163068 0 0.1982966667633215 -0.26354120971092698 0 0.2080714594183444 -0.2424179483002232 0 0.19254414318066221 -0.24961624770678509 0 0.1982966667633215 -0.26354120971092698 0 0.18706352147094041 -0.25756661524031438 0 0.1845366839674035 -0.26640487959885623 0 0.1982966667633215 -0.26354120971092698 0 0.18706352147094041 -0.25756661524031438 0 0.19254414318066221 -0.24961624770678509 0 0.18706352147094041 -0.25756661524031438 0 0.19254414318066221 -0.24961624770678509 0 0.18399505531774341 -0.24981832115951039 0 0.20249447748908611 -0.29813355613580778 0 0.1976485991634879 -0.30796138879627621 0 0.19462594870140809 -0.30164723750547567 0 0.20249447748908611 -0.29813355613580778 0 0.19462594870140809 -0.30164723750547567 0 0.19392418081794471 -0.29575522021664652 0 0.20249447748908611 -0.29813355613580778 0 0.1976485991634879 -0.30796138879627621 0 0.20782414549410869 -0.30817847155873718 0 0.1976485991634879 -0.30796138879627621 0 0.20782414549410869 -0.30817847155873718 0 0.20282381327660201 -0.31505297042611552 0 0.1976485991634879 -0.30796138879627621 0 0.19009702279388629 -0.3064242775921906 0 0.18802618722583669 -0.31833181955932999 0 0.1976485991634879 -0.30796138879627621 0 0.19009702279388629 -0.3064242775921906 0 0.19462594870140809 -0.30164723750547567 0 0.19009702279388629 -0.3064242775921906 0 0.19462594870140809 -0.30164723750547567 0 0.1880606218677118 -0.30022154946313712 0 0.19462594870140809 -0.30164723750547567 0 0.19110113081553529 -0.29631368747161629 0 0.19392418081794471 -0.29575522021664652 0 0.1880606218677118 -0.30022154946313712 0 0.19110113081553529 -0.29631368747161629 0 0.18734834214976739 -0.29514628785519947 0 0.19462594870140809 -0.30164723750547567 0 0.1880606218677118 -0.30022154946313712 0 0.19110113081553529 -0.29631368747161629 0 0.20249447748908611 -0.29813355613580778 0 0.18747516626574931 -0.28692639975368628 0 0.20249447748908611 -0.29813355613580778 0 0.19392418081794471 -0.29575522021664652 0 0.18747516626574931 -0.28692639975368628 0 0.19110113081553529 -0.29631368747161629 0 0.19392418081794471 -0.29575522021664652 0 0.18747516626574931 -0.28692639975368628 0 0.19110113081553529 -0.29631368747161629 0 0.18747516626574931 -0.28692639975368628 0 0.18734834214976739 -0.29514628785519947 0 0.18852187410829821 -0.28466447112163068 0 0.19787122383615691 -0.29172525818392958 0 0.18852187410829821 -0.28466447112163068 0 0.19731262536099689 -0.28481999283041842 0 0.19787122383615691 -0.29172525818392958 0 0.18852187410829821 -0.28466447112163068 0 0.19787122383615691 -0.29172525818392958 0 0.18747516626574931 -0.28692639975368628 0 0.18852187410829821 -0.28466447112163068 0 0.18747516626574931 -0.28692639975368628 0 0.2011380539128553 -0.27767933622792518 0 0.18852187410829821 -0.28466447112163068 0 0.19731262536099689 -0.28481999283041842 0 0.201719349586677 -0.2852109057881882 0 0.19787122383615691 -0.29172525818392958 0 0.206049533411369 -0.28982701925762389 0 0.19731262536099689 -0.28481999283041842 0 0.201719349586677 -0.2852109057881882 0 0.19787122383615691 -0.29172525818392958 0 0.2011380539128553 -0.27767933622792518 0 0.19731262536099689 -0.28481999283041842 0 0.201719349586677 -0.2852109057881882 0 0.20249447748908611 -0.29813355613580778 0 0.19787122383615691 -0.29172525818392958 0 0.18747516626574931 -0.28692639975368628 0 0.20249447748908611 -0.29813355613580778 0 0.19787122383615691 -0.29172525818392958 0 0.206049533411369 -0.28982701925762389 0 0.20249447748908611 -0.29813355613580778 0 0.206049533411369 -0.28982701925762389 0 0.20903552332543929 -0.29406903275804652 0 0.206049533411369 -0.28982701925762389 0 0.20903552332543929 -0.29406903275804652 0 0.21653111649902579 -0.28712771180040292 0 0.20249447748908611 -0.29813355613580778 0 0.20903552332543929 -0.29406903275804652 0 0.2123558614978226 -0.29827812898856709 0 0.20859607852913339 -0.28093905456482821 0 0.206049533411369 -0.28982701925762389 0 0.21653111649902579 -0.28712771180040292 0 0.20859607852913339 -0.28093905456482821 0 0.201719349586677 -0.2852109057881882 0 0.206049533411369 -0.28982701925762389 0 0.20859607852913339 -0.28093905456482821 0 0.2011380539128553 -0.27767933622792518 0 0.201719349586677 -0.2852109057881882 0 0.20903552332543929 -0.29406903275804652 0 0.21653111649902579 -0.28712771180040292 0 0.2123558614978226 -0.29827812898856709 0 0.21653111649902579 -0.28712771180040292 0 0.2175137887124228 -0.30934071251792922 0 0.21653111649902579 -0.28712771180040292 0 0.2123558614978226 -0.29827812898856709 0 0.2175137887124228 -0.30934071251792922 0 0.20249447748908611 -0.29813355613580778 0 0.2123558614978226 -0.29827812898856709 0 0.2175137887124228 -0.30934071251792922 0 0.20249447748908611 -0.29813355613580778 0 0.2175137887124228 -0.30934071251792922 0 0.20782414549410869 -0.30817847155873718 0 0.2176214393273678 -0.31177412129290383 0 0.20282381327660201 -0.31505297042611552 0 0.20249447748908611 -0.29813355613580778 0 0.20782414549410869 -0.30817847155873718 0 0.2175137887124228 -0.30934071251792922 0 0.20782414549410869 -0.30817847155873718 0 0.2175137887124228 -0.30934071251792922 0 0.2176214393273678 -0.31177412129290383 0 0.2175137887124228 -0.30934071251792922 0 0.2176214393273678 -0.31177412129290383 0 0.2175137887124228 -0.30934071251792922 0 0.2176214393273678 -0.31177412129290383 0 0.21999804566891551 -0.31122614102315033 0 0.21999804566891551 -0.31122614102315033 0 0.24423538898563429 -0.30587701823941071 0 0.2175137887124228 -0.30934071251792922 0 0.21999804566891551 -0.31122614102315033 0 0.22812963079484819 -0.29309964455197901 0 0.21999804566891551 -0.31122614102315033 0 0.22812963079484819 -0.29309964455197901 0 0.21999804566891551 -0.31122614102315033 0 0.22812963079484819 -0.29309964455197901 0 0.24423538898563429 -0.30587701823941071 0 0.2176214393273678 -0.31177412129290383 0 0.21999804566891551 -0.31122614102315033 0 0.2175137887124228 -0.30934071251792922 0 0.21999804566891551 -0.31122614102315033 0 0.23628574795648369 -0.27498419313581679 0 0.22812963079484819 -0.29309964455197901 0 0.2247339410531527 -0.27667652802353632 0 0.21653111649902579 -0.28712771180040292 0 0.22812963079484819 -0.29309964455197901 0 0.23628574795648369 -0.27498419313581679 0 0.2247339410531527 -0.27667652802353632 0 0.22812963079484819 -0.29309964455197901 0 0.21653111649902579 -0.28712771180040292 0 0.2175137887124228 -0.30934071251792922 0 0.22812963079484819 -0.29309964455197901 0 0.23628574795648369 -0.27498419313581679 0 0.22812963079484819 -0.29309964455197901 0 0.24044913557019401 -0.28723099739492908 0 0.25301376652256202 -0.2892367573709661 0 0.24044913557019401 -0.28723099739492908 0 0.24423538898563429 -0.30587701823941071 0 0.22812963079484819 -0.29309964455197901 0 0.24044913557019401 -0.28723099739492908 0 0.24423538898563429 -0.30587701823941071 0 0.25301376652256202 -0.2892367573709661 0 0.2507153324002197 -0.27704953531328702 0 0.24044913557019401 -0.28723099739492908 0 0.21999804566891551 -0.31122614102315033 0 0.24423538898563429 -0.30587701823941071 0 0.2404170410518052 -0.32643073261338312 0 0.25099839141978419 -0.34936335514031408 0 0.2316655193484673 -0.33515436960409939 0 0.25099839141978419 -0.34936335514031408 0 0.2404170410518052 -0.32643073261338312 0 0.2316655193484673 -0.33515436960409939 0 0.2404170410518052 -0.32643073261338312 0 0.2316655193484673 -0.33515436960409939 0 0.2247705650129608 -0.32491873692320528 0 0.2316655193484673 -0.33515436960409939 0 0.22208049410379579 -0.34309390150507102 0 0.22867514261462599 -0.34782526071452929 0 0.2316655193484673 -0.33515436960409939 0 0.22208049410379579 -0.34309390150507102 0 0.220555537226792 -0.33578323097752499 0 0.22208049410379579 -0.34309390150507102 0 0.220555537226792 -0.33578323097752499 0 0.21451162402718699 -0.34512658597487872 0 0.220555537226792 -0.33578323097752499 0 0.2247705650129608 -0.32491873692320528 0 0.21820242441149371 -0.32490710899175251 0 0.2316655193484673 -0.33515436960409939 0 0.220555537226792 -0.33578323097752499 0 0.2247705650129608 -0.32491873692320528 0 0.21999804566891551 -0.31122614102315033 0 0.2404170410518052 -0.32643073261338312 0 0.2247705650129608 -0.32491873692320528 0 0.21999804566891551 -0.31122614102315033 0 0.2404170410518052 -0.32643073261338312 0 0.2247705650129608 -0.32491873692320528 0 0.21780935440599439 -0.31602188338433101 0 0.21820242441149371 -0.32490710899175251 0 0.21999804566891551 -0.31122614102315033 0 0.2247705650129608 -0.32491873692320528 0 0.21780935440599439 -0.31602188338433101 0 0.21999804566891551 -0.31122614102315033 0 0.21780935440599439 -0.31602188338433101 0 0.23679608458568241 -0.3713456781615978 0 0.24534349961555019 -0.36253701182870851 0 0.24987622704845311 -0.37613765202982719 0 0.23679608458568241 -0.3713456781615978 0 0.24534349961555019 -0.36253701182870851 0 0.23133102347449649 -0.35950822589080189 0 0.25099839141978419 -0.34936335514031408 0 0.2316655193484673 -0.33515436960409939 0 0.23760271529458479 -0.35087764463569071 0 0.24534349961555019 -0.36253701182870851 0 0.23760271529458479 -0.35087764463569071 0 0.23133102347449649 -0.35950822589080189 0 0.25099839141978419 -0.34936335514031408 0 0.24534349961555019 -0.36253701182870851 0 0.23760271529458479 -0.35087764463569071 0 0.2316655193484673 -0.33515436960409939 0 0.23760271529458479 -0.35087764463569071 0 0.22867514261462599 -0.34782526071452929 0 0.22208049410379579 -0.34309390150507102 0 0.22076837523631451 -0.35267920974236072 0 0.21451162402718699 -0.34512658597487872 0 0.22208049410379579 -0.34309390150507102 0 0.22867514261462599 -0.34782526071452929 0 0.22076837523631451 -0.35267920974236072 0 0.22076837523631451 -0.35267920974236072 0 0.22341137818785181 -0.36337688942730773 0 0.21609027172906259 -0.36087537471117581 0 0.22076837523631451 -0.35267920974236072 0 0.23133102347449649 -0.35950822589080189 0 0.22341137818785181 -0.36337688942730773 0 0.22867514261462599 -0.34782526071452929 0 0.22076837523631451 -0.35267920974236072 0 0.23133102347449649 -0.35950822589080189 0 0.23760271529458479 -0.35087764463569071 0 0.22867514261462599 -0.34782526071452929 0 0.23133102347449649 -0.35950822589080189 0 0.23133102347449649 -0.35950822589080189 0 0.22341137818785181 -0.36337688942730773 0 0.22699371624108439 -0.37103399677892651 0 0.22341137818785181 -0.36337688942730773 0 0.22699371624108439 -0.37103399677892651 0 0.21663927632257499 -0.37152038636996992 0 0.22699371624108439 -0.37103399677892651 0 0.21663927632257499 -0.37152038636996992 0 0.22189277223980711 -0.38054577212349588 0 0.23679608458568241 -0.3713456781615978 0 0.22699371624108439 -0.37103399677892651 0 0.23010576568282681 -0.37607478874810818 0 0.23679608458568241 -0.3713456781615978 0 0.23133102347449649 -0.35950822589080189 0 0.22699371624108439 -0.37103399677892651 0 0.21663927632257499 -0.37152038636996992 0 0.20683644217058031 -0.36558797855932218 0 0.20576161095015591 -0.37595213443190167 0 0.22341137818785181 -0.36337688942730773 0 0.21663927632257499 -0.37152038636996992 0 0.21609027172906259 -0.36087537471117581 0 0.21609027172906259 -0.36087537471117581 0 0.20683644217058031 -0.36558797855932218 0 0.21089823393406021 -0.35324530101306001 0 0.21663927632257499 -0.37152038636996992 0 0.21609027172906259 -0.36087537471117581 0 0.20683644217058031 -0.36558797855932218 0 0.19940837682496099 -0.35689206815154528 0 0.20777431361625601 -0.33831058893907762 0 0.21089823393406021 -0.35324530101306001 0 0.19940837682496099 -0.35689206815154528 0 0.20777431361625601 -0.33831058893907762 0 0.20683644217058031 -0.36558797855932218 0 0.21089823393406021 -0.35324530101306001 0 0.19940837682496099 -0.35689206815154528 0 0.22076837523631451 -0.35267920974236072 0 0.21609027172906259 -0.36087537471117581 0 0.21089823393406021 -0.35324530101306001 0 0.21089823393406021 -0.35324530101306001 0 0.21451162402718699 -0.34512658597487872 0 0.20777431361625601 -0.33831058893907762 0 0.22076837523631451 -0.35267920974236072 0 0.21089823393406021 -0.35324530101306001 0 0.21451162402718699 -0.34512658597487872 0 0.1971616983813648 -0.34495631128618592 0 0.19940837682496099 -0.35689206815154528 0 0.20777431361625601 -0.33831058893907762 0 0.1971616983813648 -0.34495631128618592 0 0.18787137947787569 -0.35180034780069419 0 0.18864170350563411 -0.33720407153827198 0 0.1971616983813648 -0.34495631128618592 0 0.18787137947787569 -0.35180034780069419 0 0.19940837682496099 -0.35689206815154528 0 0.20683644217058031 -0.36558797855932218 0 0.20576161095015591 -0.37595213443190167 0 0.1910424400336663 -0.37547354736401328 0 0.18787137947787569 -0.35180034780069419 0 0.19940837682496099 -0.35689206815154528 0 0.1910424400336663 -0.37547354736401328 0 0.19940837682496099 -0.35689206815154528 0 0.1910424400336663 -0.37547354736401328 0 0.20683644217058031 -0.36558797855932218 0 0.19940837682496099 -0.35689206815154528 0 0.1910424400336663 -0.37547354736401328 0 0.21780935440599439 -0.31602188338433101 0 0.20777431361625601 -0.33831058893907762 0 0.21780935440599439 -0.31602188338433101 0 0.20777431361625601 -0.33831058893907762 0 0.20282381327660201 -0.31505297042611552 0 0.21780935440599439 -0.31602188338433101 0 0.21820242441149371 -0.32490710899175251 0 0.20777431361625601 -0.33831058893907762 0 0.2176214393273678 -0.31177412129290383 0 0.20282381327660201 -0.31505297042611552 0 0.2176214393273678 -0.31177412129290383 0 0.21780935440599439 -0.31602188338433101 0 0.20282381327660201 -0.31505297042611552 0 0.2176214393273678 -0.31177412129290383 0 0.21780935440599439 -0.31602188338433101 0 0.2176214393273678 -0.31177412129290383 0 0.21999804566891551 -0.31122614102315033 0 0.21780935440599439 -0.31602188338433101 0 0.21780935440599439 -0.31602188338433101 0 0.21820242441149371 -0.32490710899175251 0 0.220555537226792 -0.33578323097752499 0 0.21820242441149371 -0.32490710899175251 0 0.20777431361625601 -0.33831058893907762 0 0.220555537226792 -0.33578323097752499 0 0.21451162402718699 -0.34512658597487872 0 0.20777431361625601 -0.33831058893907762 0 0.21451162402718699 -0.34512658597487872 0 0.20777431361625601 -0.33831058893907762 0 0.1971616983813648 -0.34495631128618592 0 0.20777431361625601 -0.33831058893907762 0 0.18864170350563411 -0.33720407153827198 0 0.20777431361625601 -0.33831058893907762 0 0.18802618722583669 -0.31833181955932999 0 0.20777431361625601 -0.33831058893907762 0 0.18864170350563411 -0.33720407153827198 0 0.18802618722583669 -0.31833181955932999 0 0.20777431361625601 -0.33831058893907762 0 0.20282381327660201 -0.31505297042611552 0 0.18802618722583669 -0.31833181955932999 0 0.20282381327660201 -0.31505297042611552 0 0.18802618722583669 -0.31833181955932999 0 0.1976485991634879 -0.30796138879627621 0 0.20282381327660201 -0.31505297042611552 0 0.18802618722583669 -0.31833181955932999 0 0.18802618722583669 -0.31833181955932999 0 0.1791507244663583 -0.32983729973660558 0 0.16791254130802971 -0.3227885891963716 0 0.18802618722583669 -0.31833181955932999 0 0.17151825735526699 -0.31325416760549368 0 0.16791254130802971 -0.3227885891963716 0 0.18802618722583669 -0.31833181955932999 0 0.16791254130802971 -0.3227885891963716 0 0.18864170350563411 -0.33720407153827198 0 0.18802618722583669 -0.31833181955932999 0 0.1791507244663583 -0.32983729973660558 0 0.17202246582593331 -0.34102471865244838 0 0.1791507244663583 -0.32983729973660558 0 0.16791254130802971 -0.3227885891963716 0 0.18787137947787569 -0.35180034780069419 0 0.18864170350563411 -0.33720407153827198 0 0.17202246582593331 -0.34102471865244838 0 0.18864170350563411 -0.33720407153827198 0 0.17202246582593331 -0.34102471865244838 0 0.1791507244663583 -0.32983729973660558 0 0.17202246582593331 -0.34102471865244838 0 0.1546435437787094 -0.34381338892778002 0 0.1557586906108582 -0.32786840018592928 0 0.17202246582593331 -0.34102471865244838 0 0.16791254130802971 -0.3227885891963716 0 0.1557586906108582 -0.32786840018592928 0 0.16791254130802971 -0.3227885891963716 0 0.1557586906108582 -0.32786840018592928 0 0.1602411687519314 -0.31190927739118429 0 0.17151825735526699 -0.31325416760549368 0 0.16791254130802971 -0.3227885891963716 0 0.1602411687519314 -0.31190927739118429 0 0.18787137947787569 -0.35180034780069419 0 0.17662324672053431 -0.35795823269279659 0 0.1910424400336663 -0.37547354736401328 0 0.17662324672053431 -0.35795823269279659 0 0.17035242753357599 -0.36877211446365682 0 0.1910424400336663 -0.37547354736401328 0 0.17035242753357599 -0.36877211446365682 0 0.1910424400336663 -0.37547354736401328 0 0.1737051017910701 -0.38004230502140057 0 0.18787137947787569 -0.35180034780069419 0 0.17202246582593331 -0.34102471865244838 0 0.17662324672053431 -0.35795823269279659 0 0.17202246582593331 -0.34102471865244838 0 0.17662324672053431 -0.35795823269279659 0 0.16265844046108829 -0.35526087104265458 0 0.17202246582593331 -0.34102471865244838 0 0.16265844046108829 -0.35526087104265458 0 0.1546435437787094 -0.34381338892778002 0 0.17662324672053431 -0.35795823269279659 0 0.16265844046108829 -0.35526087104265458 0 0.17035242753357599 -0.36877211446365682 0 0.16265844046108829 -0.35526087104265458 0 0.1569593121701936 -0.36832063090657668 0 0.17035242753357599 -0.36877211446365682 0 0.1569593121701936 -0.36832063090657668 0 0.17035242753357599 -0.36877211446365682 0 0.16307541855137739 -0.37743582412871929 0 0.14536400873927011 -0.3681220756701501 0 0.1426630499740982 -0.35652090160864008 0 0.13524945632583441 -0.37311377610700652 0 0.16265844046108829 -0.35526087104265458 0 0.1569593121701936 -0.36832063090657668 0 0.1426630499740982 -0.35652090160864008 0 0.14536400873927011 -0.3681220756701501 0 0.13524945632583441 -0.37311377610700652 0 0.14973869037300869 -0.38096853745143089 0 0.1569593121701936 -0.36832063090657668 0 0.14536400873927011 -0.3681220756701501 0 0.14973869037300869 -0.38096853745143089 0 0.1569593121701936 -0.36832063090657668 0 0.14536400873927011 -0.3681220756701501 0 0.1426630499740982 -0.35652090160864008 0 0.1546435437787094 -0.34381338892778002 0 0.1426630499740982 -0.35652090160864008 0 0.1424354920479888 -0.33775294740649747 0 0.16265844046108829 -0.35526087104265458 0 0.1546435437787094 -0.34381338892778002 0 0.1426630499740982 -0.35652090160864008 0 0.13449730155472761 -0.34743155680512378 0 0.12784456261830821 -0.36308533366748658 0 0.123981461538115 -0.35128285539313481 0 0.1426630499740982 -0.35652090160864008 0 0.13449730155472761 -0.34743155680512378 0 0.1424354920479888 -0.33775294740649747 0 0.1426630499740982 -0.35652090160864008 0 0.13449730155472761 -0.34743155680512378 0 0.12784456261830821 -0.36308533366748658 0 0.13449730155472761 -0.34743155680512378 0 0.13051916655351839 -0.33696304048325831 0 0.123981461538115 -0.35128285539313481 0 0.1426630499740982 -0.35652090160864008 0 0.12784456261830821 -0.36308533366748658 0 0.13524945632583441 -0.37311377610700652 0 0.12784456261830821 -0.36308533366748658 0 0.13524945632583441 -0.37311377610700652 0 0.12609635470998201 -0.38402791619100712 0 0.14855409589738661 -0.31441038212804873 0 0.1557586906108582 -0.32786840018592928 0 0.1602411687519314 -0.31190927739118429 0 0.1445015266660287 -0.32337949759917511 0 0.14855409589738661 -0.31441038212804873 0 0.13871327718005111 -0.31332369293528212 0 0.1445015266660287 -0.32337949759917511 0 0.14855409589738661 -0.31441038212804873 0 0.1557586906108582 -0.32786840018592928 0 0.1546435437787094 -0.34381338892778002 0 0.1557586906108582 -0.32786840018592928 0 0.1424354920479888 -0.33775294740649747 0 0.1445015266660287 -0.32337949759917511 0 0.1557586906108582 -0.32786840018592928 0 0.1424354920479888 -0.33775294740649747 0 0.1445015266660287 -0.32337949759917511 0 0.1424354920479888 -0.33775294740649747 0 0.13219802669416811 -0.32498852212276208 0 0.1424354920479888 -0.33775294740649747 0 0.13051916655351839 -0.33696304048325831 0 0.13219802669416811 -0.32498852212276208 0 0.13449730155472761 -0.34743155680512378 0 0.1424354920479888 -0.33775294740649747 0 0.13051916655351839 -0.33696304048325831 0 0.13051916655351839 -0.33696304048325831 0 0.13219802669416811 -0.32498852212276208 0 0.12260601330919629 -0.33072698382653798 0 0.1445015266660287 -0.32337949759917511 0 0.13219802669416811 -0.32498852212276208 0 0.13871327718005111 -0.31332369293528212 0 0.13219802669416811 -0.32498852212276208 0 0.1265219532001009 -0.3124330460259736 0 0.1192961391526948 -0.32261879728377291 0 0.13219802669416811 -0.32498852212276208 0 0.13871327718005111 -0.31332369293528212 0 0.1265219532001009 -0.3124330460259736 0 0.1265219532001009 -0.3124330460259736 0 0.1332586495603032 -0.30031372317270688 0 0.1198701537204314 -0.30089140532399938 0 0.1332586495603032 -0.30031372317270688 0 0.1242383748246253 -0.29131174999725179 0 0.1198701537204314 -0.30089140532399938 0 0.13871327718005111 -0.31332369293528212 0 0.1265219532001009 -0.3124330460259736 0 0.1332586495603032 -0.30031372317270688 0 0.13871327718005111 -0.31332369293528212 0 0.1332586495603032 -0.30031372317270688 0 0.147245411062319 -0.30441698656302629 0 0.14855409589738661 -0.31441038212804873 0 0.13871327718005111 -0.31332369293528212 0 0.147245411062319 -0.30441698656302629 0 0.147245411062319 -0.30441698656302629 0 0.15432967412725099 -0.29846298066074151 0 0.14327492933615671 -0.29425024746867751 0 0.1332586495603032 -0.30031372317270688 0 0.147245411062319 -0.30441698656302629 0 0.14327492933615671 -0.29425024746867751 0 0.147245411062319 -0.30441698656302629 0 0.15432967412725099 -0.29846298066074151 0 0.1602411687519314 -0.31190927739118429 0 0.14855409589738661 -0.31441038212804873 0 0.147245411062319 -0.30441698656302629 0 0.1602411687519314 -0.31190927739118429 0 0.15432967412725099 -0.29846298066074151 0 0.1517600770447052 -0.28164214899084639 0 0.14327492933615671 -0.29425024746867751 0 0.1517600770447052 -0.28164214899084639 0 0.14327492933615671 -0.29425024746867751 0 0.13646338677899769 -0.28546266283427663 0 0.1332586495603032 -0.30031372317270688 0 0.14327492933615671 -0.29425024746867751 0 0.13646338677899769 -0.28546266283427663 0 0.1332586495603032 -0.30031372317270688 0 0.13646338677899769 -0.28546266283427663 0 0.1242383748246253 -0.29131174999725179 0 0.13646338677899769 -0.28546266283427663 0 0.1233023238440631 -0.28097148456094378 0 0.1242383748246253 -0.29131174999725179 0 0.1517600770447052 -0.28164214899084639 0 0.13646338677899769 -0.28546266283427663 0 0.1311170075682456 -0.27142576198599933 0 0.1517600770447052 -0.28164214899084639 0 0.1311170075682456 -0.27142576198599933 0 0.1364827709165429 -0.26618641562940759 0 0.13646338677899769 -0.28546266283427663 0 0.1311170075682456 -0.27142576198599933 0 0.1233023238440631 -0.28097148456094378 0 0.1311170075682456 -0.27142576198599933 0 0.1364827709165429 -0.26618641562940759 0 0.1212054647883809 -0.25073068226796852 0 0.1364827709165429 -0.26618641562940759 0 0.13217397618885759 -0.25462043987800831 0 0.1212054647883809 -0.25073068226796852 0 0.1364827709165429 -0.26618641562940759 0 0.1212054647883809 -0.25073068226796852 0 0.1364827709165429 -0.26618641562940759 0 0.13217397618885759 -0.25462043987800831 0 0.14275904560399111 -0.25945725309375861 0 0.13217397618885759 -0.25462043987800831 0 0.1429630926125974 -0.2502577086919005 0 0.14275904560399111 -0.25945725309375861 0 0.1429630926125974 -0.2502577086919005 0 0.16574248336044761 -0.26746108990676593 0 0.1429630926125974 -0.2502577086919005 0 0.15128247879849499 -0.26292486595599002 0 0.16574248336044761 -0.26746108990676593 0 0.1429630926125974 -0.2502577086919005 0 0.16574248336044761 -0.26746108990676593 0 0.16001236861667459 -0.2513654190734112 0 0.1429630926125974 -0.2502577086919005 0 0.14275904560399111 -0.25945725309375861 0 0.15128247879849499 -0.26292486595599002 0 0.1364827709165429 -0.26618641562940759 0 0.14275904560399111 -0.25945725309375861 0 0.15128247879849499 -0.26292486595599002 0 0.1517600770447052 -0.28164214899084639 0 0.1364827709165429 -0.26618641562940759 0 0.15128247879849499 -0.26292486595599002 0 0.1517600770447052 -0.28164214899084639 0 0.15128247879849499 -0.26292486595599002 0 0.15776774232478771 -0.26956647822523339 0 0.1517600770447052 -0.28164214899084639 0 0.1311170075682456 -0.27142576198599933 0 0.1517600770447052 -0.28164214899084639 0 0.1364827709165429 -0.26618641562940759 0 0.1517600770447052 -0.28164214899084639 0 0.16209364730358741 -0.27452888323759039 0 0.16594555478614451 -0.28284233368471318 0 0.1517600770447052 -0.28164214899084639 0 0.16209364730358741 -0.27452888323759039 0 0.15776774232478771 -0.26956647822523339 0 0.16209364730358741 -0.27452888323759039 0 0.15776774232478771 -0.26956647822523339 0 0.16574248336044761 -0.26746108990676593 0 0.15128247879849499 -0.26292486595599002 0 0.15776774232478771 -0.26956647822523339 0 0.16574248336044761 -0.26746108990676593 0 0.16209364730358741 -0.27452888323759039 0 0.16574248336044761 -0.26746108990676593 0 0.16920230535812411 -0.27329149954452342 0 0.16209364730358741 -0.27452888323759039 0 0.16920230535812411 -0.27329149954452342 0 0.16594555478614451 -0.28284233368471318 0 0.16920230535812411 -0.27329149954452342 0 0.1710222018321049 -0.28124575318360368 0 0.16594555478614451 -0.28284233368471318 0 0.16574248336044761 -0.26746108990676593 0 0.16001236861667459 -0.2513654190734112 0 0.16988601458932601 -0.2589500224365659 0 0.16574248336044761 -0.26746108990676593 0 0.16988601458932601 -0.2589500224365659 0 0.17628584543496439 -0.26683535894776161 0 0.16001236861667459 -0.2513654190734112 0 0.16988601458932601 -0.2589500224365659 0 0.16978669848249819 -0.25098739912941831 0 0.1767458594742066 -0.25730285456071711 0 0.17619278994504239 -0.24587918172992959 0 0.18399505531774341 -0.24981832115951039 0 0.16978669848249819 -0.25098739912941831 0 0.1767458594742066 -0.25730285456071711 0 0.17619278994504239 -0.24587918172992959 0 0.16988601458932601 -0.2589500224365659 0 0.16978669848249819 -0.25098739912941831 0 0.1767458594742066 -0.25730285456071711 0 0.16988601458932601 -0.2589500224365659 0 0.1767458594742066 -0.25730285456071711 0 0.17628584543496439 -0.26683535894776161 0 0.1767458594742066 -0.25730285456071711 0 0.17628584543496439 -0.26683535894776161 0 0.1845366839674035 -0.26640487959885623 0 0.1767458594742066 -0.25730285456071711 0 0.18706352147094041 -0.25756661524031438 0 0.1845366839674035 -0.26640487959885623 0 0.1767458594742066 -0.25730285456071711 0 0.18706352147094041 -0.25756661524031438 0 0.18399505531774341 -0.24981832115951039 0 0.18852187410829821 -0.28466447112163068 0 0.17628584543496439 -0.26683535894776161 0 0.1845366839674035 -0.26640487959885623 0 0.18852187410829821 -0.28466447112163068 0 0.16574248336044761 -0.26746108990676593 0 0.18852187410829821 -0.28466447112163068 0 0.16574248336044761 -0.26746108990676593 0 0.17628584543496439 -0.26683535894776161 0 0.16920230535812411 -0.27329149954452342 0 0.18747516626574931 -0.28692639975368628 0 0.17602993407772211 -0.2832030986568283 0 0.18852187410829821 -0.28466447112163068 0 0.16574248336044761 -0.26746108990676593 0 0.16920230535812411 -0.27329149954452342 0 0.16920230535812411 -0.27329149954452342 0 0.18747516626574931 -0.28692639975368628 0 0.16920230535812411 -0.27329149954452342 0 0.1710222018321049 -0.28124575318360368 0 0.17602993407772211 -0.2832030986568283 0 0.18747516626574931 -0.28692639975368628 0 0.1806905449634813 -0.28832929748571318 0 0.17602993407772211 -0.2832030986568283 0 0.18852187410829821 -0.28466447112163068 0 0.16920230535812411 -0.27329149954452342 0 0.18747516626574931 -0.28692639975368628 0 0.18747516626574931 -0.28692639975368628 0 0.1806905449634813 -0.28832929748571318 0 0.18301660310609241 -0.29114958545392738 0 0.17291101310642881 -0.28564608084835003 0 0.17864991096044419 -0.29495009963706692 0 0.16594555478614451 -0.28284233368471318 0 0.1806905449634813 -0.28832929748571318 0 0.17602993407772211 -0.2832030986568283 0 0.17673138357400531 -0.28840876668861409 0 0.17602993407772211 -0.2832030986568283 0 0.17673138357400531 -0.28840876668861409 0 0.17291101310642881 -0.28564608084835003 0 0.1710222018321049 -0.28124575318360368 0 0.17602993407772211 -0.2832030986568283 0 0.17291101310642881 -0.28564608084835003 0 0.17673138357400531 -0.28840876668861409 0 0.17291101310642881 -0.28564608084835003 0 0.17864991096044419 -0.29495009963706692 0 0.17673138357400531 -0.28840876668861409 0 0.17909088347012619 -0.29088019083727579 0 0.17864991096044419 -0.29495009963706692 0 0.1806905449634813 -0.28832929748571318 0 0.17673138357400531 -0.28840876668861409 0 0.17909088347012619 -0.29088019083727579 0 0.17909088347012619 -0.29088019083727579 0 0.17864991096044419 -0.29495009963706692 0 0.18114425154506539 -0.29221912984395187 0 0.18747516626574931 -0.28692639975368628 0 0.18734834214976739 -0.29514628785519947 0 0.1827564496500734 -0.29712351473235832 0 0.18747516626574931 -0.28692639975368628 0 0.18301660310609241 -0.29114958545392738 0 0.1827564496500734 -0.29712351473235832 0 0.18114425154506539 -0.29221912984395187 0 0.18301660310609241 -0.29114958545392738 0 0.1827564496500734 -0.29712351473235832 0 0.17864991096044419 -0.29495009963706692 0 0.18114425154506539 -0.29221912984395187 0 0.1827564496500734 -0.29712351473235832 0 0.18747516626574931 -0.28692639975368628 0 0.1827564496500734 -0.29712351473235832 0 0.1806905449634813 -0.28832929748571318 0 0.18114425154506539 -0.29221912984395187 0 0.18301660310609241 -0.29114958545392738 0 0.1806905449634813 -0.28832929748571318 0 0.17909088347012619 -0.29088019083727579 0 0.18114425154506539 -0.29221912984395187 0 0.18802618722583669 -0.31833181955932999 0 0.18221347423979239 -0.30458962683289892 0 0.1698931321352706 -0.29998698427508858 0 0.1880606218677118 -0.30022154946313712 0 0.18734834214976739 -0.29514628785519947 0 0.1827564496500734 -0.29712351473235832 0 0.19009702279388629 -0.3064242775921906 0 0.1880606218677118 -0.30022154946313712 0 0.18221347423979239 -0.30458962683289892 0 0.18802618722583669 -0.31833181955932999 0 0.17151825735526699 -0.31325416760549368 0 0.1698931321352706 -0.29998698427508858 0 0.1880606218677118 -0.30022154946313712 0 0.18221347423979239 -0.30458962683289892 0 0.1827564496500734 -0.29712351473235832 0 0.18802618722583669 -0.31833181955932999 0 0.1698931321352706 -0.29998698427508858 0 0.17864991096044419 -0.29495009963706692 0 0.1827564496500734 -0.29712351473235832 0 0.17837824174639511 -0.29916255636935318 0 0.18221347423979239 -0.30458962683289892 0 0.1827564496500734 -0.29712351473235832 0 0.17837824174639511 -0.29916255636935318 0 0.19009702279388629 -0.3064242775921906 0 0.18802618722583669 -0.31833181955932999 0 0.18221347423979239 -0.30458962683289892 0 0.18221347423979239 -0.30458962683289892 0 0.17837824174639511 -0.29916255636935318 0 0.1698931321352706 -0.29998698427508858 0 0.17864991096044419 -0.29495009963706692 0 0.17837824174639511 -0.29916255636935318 0 0.1698931321352706 -0.29998698427508858 0 0.17151825735526699 -0.31325416760549368 0 0.1698931321352706 -0.29998698427508858 0 0.1602411687519314 -0.31190927739118429 0 0.15432967412725099 -0.29846298066074151 0 0.1698931321352706 -0.29998698427508858 0 0.1602411687519314 -0.31190927739118429 0 0.1517600770447052 -0.28164214899084639 0 0.17864991096044419 -0.29495009963706692 0 0.1698931321352706 -0.29998698427508858 0 0.1517600770447052 -0.28164214899084639 0 0.1698931321352706 -0.29998698427508858 0 0.15432967412725099 -0.29846298066074151 0 0.1517600770447052 -0.28164214899084639 0 0.1698931321352706 -0.29998698427508858 0 0.1517600770447052 -0.28164214899084639 0 0.17864991096044419 -0.29495009963706692 0 0.1517600770447052 -0.28164214899084639 0 0.17864991096044419 -0.29495009963706692 0 0.16594555478614451 -0.28284233368471318 0 0.1710222018321049 -0.28124575318360368 0 0.17291101310642881 -0.28564608084835003 0 0.16594555478614451 -0.28284233368471318 0 0.21438456257476449 -0.5 0 0.2048745361024723 -0.48472171768082351 0 0.18744203257390391 -0.5 0 0.19122796324104871 -0.48466606029959602 0 0.2048745361024723 -0.48472171768082351 0 0.18744203257390391 -0.5 0 0.19122796324104871 -0.48466606029959602 0 0.20365346230900849 -0.47086657296764728 0 0.1938641377332887 -0.4633108835168005 0 0.19122796324104871 -0.48466606029959602 0 0.20365346230900849 -0.47086657296764728 0 0.2048745361024723 -0.48472171768082351 0 0.21766866328091511 -0.47157360957620892 0 0.2048745361024723 -0.48472171768082351 0 0.22288060450936709 -0.48400008360299168 0 0.20365346230900849 -0.47086657296764728 0 0.21766866328091511 -0.47157360957620892 0 0.2048745361024723 -0.48472171768082351 0 0.21438456257476449 -0.5 0 0.2048745361024723 -0.48472171768082351 0 0.22288060450936709 -0.48400008360299168 0 0.21438456257476449 -0.5 0 0.23633351028628971 -0.48712361601618398 0 0.2413270925756249 -0.5 0 0.21438456257476449 -0.5 0 0.23633351028628971 -0.48712361601618398 0 0.22288060450936709 -0.48400008360299168 0 0.25270961841775552 -0.48460016746525392 0 0.23633351028628971 -0.48712361601618398 0 0.2413270925756249 -0.5 0 0.25270961841775552 -0.48460016746525392 0 0.23633351028628971 -0.48712361601618398 0 0.23949561189523169 -0.47426551941090739 0 0.23949561189523169 -0.47426551941090739 0 0.22288060450936709 -0.48400008360299168 0 0.22545312399173489 -0.46028769725088831 0 0.21766866328091511 -0.47157360957620892 0 0.22288060450936709 -0.48400008360299168 0 0.22545312399173489 -0.46028769725088831 0 0.23633351028628971 -0.48712361601618398 0 0.23949561189523169 -0.47426551941090739 0 0.22288060450936709 -0.48400008360299168 0 0.22288060450936709 -0.48400008360299168 0 0.22545312399173489 -0.46028769725088831 0 0.21766866328091511 -0.47157360957620892 0 0.22545312399173489 -0.46028769725088831 0 0.2186728293425339 -0.44755637628226819 0 0.2588368117714554 -0.46700690363883102 0 0.23949561189523169 -0.47426551941090739 0 0.2409729068143365 -0.46262444708906358 0 0.22545312399173489 -0.46028769725088831 0 0.2409729068143365 -0.46262444708906358 0 0.24480843210435321 -0.45079661158300749 0 0.2588368117714554 -0.46700690363883102 0 0.2409729068143365 -0.46262444708906358 0 0.24480843210435321 -0.45079661158300749 0 0.23949561189523169 -0.47426551941090739 0 0.22545312399173489 -0.46028769725088831 0 0.2409729068143365 -0.46262444708906358 0 0.24480843210435321 -0.45079661158300749 0 0.22802564347410281 -0.43657531089878487 0 0.2418992233321238 -0.43333026798624508 0 0.25513396950241118 -0.43290986753561628 0 0.24480843210435321 -0.45079661158300749 0 0.2418992233321238 -0.43333026798624508 0 0.22545312399173489 -0.46028769725088831 0 0.22802564347410281 -0.43657531089878487 0 0.2186728293425339 -0.44755637628226819 0 0.21246462128442831 -0.43168381348743168 0 0.22802564347410281 -0.43657531089878487 0 0.22545312399173489 -0.46028769725088831 0 0.2186728293425339 -0.44755637628226819 0 0.22802564347410281 -0.43657531089878487 0 0.22545312399173489 -0.46028769725088831 0 0.24480843210435321 -0.45079661158300749 0 0.22802564347410281 -0.43657531089878487 0 0.20442019459899149 -0.44533796874460208 0 0.2186728293425339 -0.44755637628226819 0 0.21246462128442831 -0.43168381348743168 0 0.21766866328091511 -0.47157360957620892 0 0.20442019459899149 -0.44533796874460208 0 0.21766866328091511 -0.47157360957620892 0 0.20442019459899149 -0.44533796874460208 0 0.2186728293425339 -0.44755637628226819 0 0.20365346230900849 -0.47086657296764728 0 0.21766866328091511 -0.47157360957620892 0 0.20442019459899149 -0.44533796874460208 0 0.20365346230900849 -0.47086657296764728 0 0.20442019459899149 -0.44533796874460208 0 0.1938641377332887 -0.4633108835168005 0 0.20442019459899149 -0.44533796874460208 0 0.18484232774876749 -0.43033534366960768 0 0.18590039067086719 -0.44115637567916172 0 0.20442019459899149 -0.44533796874460208 0 0.18923595964957429 -0.45067509688328122 0 0.18590039067086719 -0.44115637567916172 0 0.20442019459899149 -0.44533796874460208 0 0.1938641377332887 -0.4633108835168005 0 0.18923595964957429 -0.45067509688328122 0 0.20442019459899149 -0.44533796874460208 0 0.1911717259170673 -0.41910232791299562 0 0.20473537155931409 -0.42802668409371708 0 0.20442019459899149 -0.44533796874460208 0 0.1911717259170673 -0.41910232791299562 0 0.20442019459899149 -0.44533796874460208 0 0.1911717259170673 -0.41910232791299562 0 0.18484232774876749 -0.43033534366960768 0 0.1911717259170673 -0.41910232791299562 0 0.21088494443676881 -0.41598262622983972 0 0.20473537155931409 -0.42802668409371708 0 0.18851111772050869 -0.41383358608972459 0 0.208966154163157 -0.40126827473642579 0 0.1911717259170673 -0.41910232791299562 0 0.21088494443676881 -0.41598262622983972 0 0.1911717259170673 -0.41910232791299562 0 0.18851111772050869 -0.41383358608972459 0 0.21088494443676881 -0.41598262622983972 0 0.18851111772050869 -0.41383358608972459 0 0.21088494443676881 -0.41598262622983972 0 0.208966154163157 -0.40126827473642579 0 0.1911717259170673 -0.41910232791299562 0 0.18851111772050869 -0.41383358608972459 0 0.21088494443676881 -0.41598262622983972 0 0.22155668588658281 -0.40529615173032069 0 0.208966154163157 -0.40126827473642579 0 0.21088494443676881 -0.41598262622983972 0 0.20473537155931409 -0.42802668409371708 0 0.21246462128442831 -0.43168381348743168 0 0.21088494443676881 -0.41598262622983972 0 0.21246462128442831 -0.43168381348743168 0 0.21959695705502991 -0.42408781639437282 0 0.20442019459899149 -0.44533796874460208 0 0.20473537155931409 -0.42802668409371708 0 0.21246462128442831 -0.43168381348743168 0 0.21246462128442831 -0.43168381348743168 0 0.21959695705502991 -0.42408781639437282 0 0.22802564347410281 -0.43657531089878487 0 0.22802564347410281 -0.43657531089878487 0 0.23614533994983331 -0.4244462479719151 0 0.23059816295646979 -0.4128629245466815 0 0.22802564347410281 -0.43657531089878487 0 0.23059816295646979 -0.4128629245466815 0 0.21959695705502991 -0.42408781639437282 0 0.22802564347410281 -0.43657531089878487 0 0.23059816295646979 -0.4128629245466815 0 0.22802564347410281 -0.43657531089878487 0 0.2418992233321238 -0.43333026798624508 0 0.23614533994983331 -0.4244462479719151 0 0.2418992233321238 -0.43333026798624508 0 0.23614533994983331 -0.4244462479719151 0 0.2453827316299185 -0.42192330194190181 0 0.25513396950241118 -0.43290986753561628 0 0.2418992233321238 -0.43333026798624508 0 0.2453827316299185 -0.42192330194190181 0 0.256136481120742 -0.41447562176841068 0 0.2453827316299185 -0.42192330194190181 0 0.24629253832767661 -0.41022035877505542 0 0.2453827316299185 -0.42192330194190181 0 0.24629253832767661 -0.41022035877505542 0 0.2366098857920339 -0.41191154353144788 0 0.23614533994983331 -0.4244462479719151 0 0.2366098857920339 -0.41191154353144788 0 0.23059816295646979 -0.4128629245466815 0 0.23614533994983331 -0.4244462479719151 0 0.2453827316299185 -0.42192330194190181 0 0.2366098857920339 -0.41191154353144788 0 0.24629253832767661 -0.41022035877505542 0 0.2366098857920339 -0.41191154353144788 0 0.2422505545635501 -0.40276464775944387 0 0.21088494443676881 -0.41598262622983972 0 0.23059816295646979 -0.4128629245466815 0 0.2366098857920339 -0.41191154353144788 0 0.23059816295646979 -0.4128629245466815 0 0.23156745731421779 -0.4039283829592023 0 0.23059816295646979 -0.4128629245466815 0 0.22155668588658281 -0.40529615173032069 0 0.23156745731421779 -0.4039283829592023 0 0.23059816295646979 -0.4128629245466815 0 0.23156745731421779 -0.4039283829592023 0 0.21088494443676881 -0.41598262622983972 0 0.23059816295646979 -0.4128629245466815 0 0.22155668588658281 -0.40529615173032069 0 0.21088494443676881 -0.41598262622983972 0 0.21959695705502991 -0.42408781639437282 0 0.23059816295646979 -0.4128629245466815 0 0.2366098857920339 -0.41191154353144788 0 0.23059816295646979 -0.4128629245466815 0 0.22155668588658281 -0.40529615173032069 0 0.22942119060580499 -0.38870296338312649 0 0.208966154163157 -0.40126827473642579 0 0.22155668588658281 -0.40529615173032069 0 0.23156745731421779 -0.4039283829592023 0 0.22942119060580499 -0.38870296338312649 0 0.22942119060580499 -0.38870296338312649 0 0.208966154163157 -0.40126827473642579 0 0.23156745731421779 -0.4039283829592023 0 0.24309899287842279 -0.39271330151873202 0 0.2422505545635501 -0.40276464775944387 0 0.2366098857920339 -0.41191154353144788 0 0.23156745731421779 -0.4039283829592023 0 0.2422505545635501 -0.40276464775944387 0 0.23156745731421779 -0.4039283829592023 0 0.24309899287842279 -0.39271330151873202 0 0.22942119060580499 -0.38870296338312649 0 0.25108303853213881 -0.40002667887407228 0 0.24629253832767661 -0.41022035877505542 0 0.2422505545635501 -0.40276464775944387 0 0.25108303853213881 -0.40002667887407228 0 0.24309899287842279 -0.39271330151873202 0 0.2422505545635501 -0.40276464775944387 0 0.24987622704845311 -0.37613765202982719 0 0.22942119060580499 -0.38870296338312649 0 0.24309899287842279 -0.39271330151873202 0 0.24987622704845311 -0.37613765202982719 0 0.22942119060580499 -0.38870296338312649 0 0.24987622704845311 -0.37613765202982719 0 0.23474048966473349 -0.38137370792841258 0 0.22942119060580499 -0.38870296338312649 0 0.25687819372407023 -0.38903915957053298 0 0.24309899287842279 -0.39271330151873202 0 0.24987622704845311 -0.37613765202982719 0 0.23679608458568241 -0.3713456781615978 0 0.24987622704845311 -0.37613765202982719 0 0.23474048966473349 -0.38137370792841258 0 0.23474048966473349 -0.38137370792841258 0 0.23010576568282681 -0.37607478874810818 0 0.22189277223980711 -0.38054577212349588 0 0.23474048966473349 -0.38137370792841258 0 0.22189277223980711 -0.38054577212349588 0 0.20961824525516401 -0.3936281247522696 0 0.23474048966473349 -0.38137370792841258 0 0.22942119060580499 -0.38870296338312649 0 0.20961824525516401 -0.3936281247522696 0 0.23679608458568241 -0.3713456781615978 0 0.23474048966473349 -0.38137370792841258 0 0.23010576568282681 -0.37607478874810818 0 0.23474048966473349 -0.38137370792841258 0 0.20961824525516401 -0.3936281247522696 0 0.22699371624108439 -0.37103399677892651 0 0.23010576568282681 -0.37607478874810818 0 0.22189277223980711 -0.38054577212349588 0 0.21663927632257499 -0.37152038636996992 0 0.22189277223980711 -0.38054577212349588 0 0.21119602619295649 -0.38157571206759561 0 0.21663927632257499 -0.37152038636996992 0 0.21119602619295649 -0.38157571206759561 0 0.20576161095015591 -0.37595213443190167 0 0.21119602619295649 -0.38157571206759561 0 0.20576161095015591 -0.37595213443190167 0 0.20229958674085519 -0.38616776423662919 0 0.21119602619295649 -0.38157571206759561 0 0.20961824525516401 -0.3936281247522696 0 0.20229958674085519 -0.38616776423662919 0 0.22189277223980711 -0.38054577212349588 0 0.21119602619295649 -0.38157571206759561 0 0.20961824525516401 -0.3936281247522696 0 0.22942119060580499 -0.38870296338312649 0 0.208966154163157 -0.40126827473642579 0 0.20961824525516401 -0.3936281247522696 0 0.20961824525516401 -0.3936281247522696 0 0.18449600084559339 -0.40588254157612419 0 0.20961824525516401 -0.3936281247522696 0 0.19262774622386039 -0.39991289132556063 0 0.20229958674085519 -0.38616776423662919 0 0.18851111772050869 -0.41383358608972459 0 0.20961824525516401 -0.3936281247522696 0 0.18449600084559339 -0.40588254157612419 0 0.19262774622386039 -0.39991289132556063 0 0.193172237845981 -0.38760648281860499 0 0.20229958674085519 -0.38616776423662919 0 0.20961824525516401 -0.3936281247522696 0 0.19262774622386039 -0.39991289132556063 0 0.18449600084559339 -0.40588254157612419 0 0.18851111772050869 -0.41383358608972459 0 0.208966154163157 -0.40126827473642579 0 0.20961824525516401 -0.3936281247522696 0 0.19262774622386039 -0.39991289132556063 0 0.18963514604776821 -0.39361523539988952 0 0.193172237845981 -0.38760648281860499 0 0.19262774622386039 -0.39991289132556063 0 0.18963514604776821 -0.39361523539988952 0 0.18221634088723479 -0.40136818287387582 0 0.18963514604776821 -0.39361523539988952 0 0.193172237845981 -0.38760648281860499 0 0.18267650324237161 -0.39405502657648112 0 0.193172237845981 -0.38760648281860499 0 0.1910424400336663 -0.37547354736401328 0 0.18267650324237161 -0.39405502657648112 0 0.20576161095015591 -0.37595213443190167 0 0.1910424400336663 -0.37547354736401328 0 0.20229958674085519 -0.38616776423662919 0 0.193172237845981 -0.38760648281860499 0 0.1910424400336663 -0.37547354736401328 0 0.20229958674085519 -0.38616776423662919 0 0.1910424400336663 -0.37547354736401328 0 0.17822948803450961 -0.38676940160015832 0 0.1737051017910701 -0.38004230502140057 0 0.1910424400336663 -0.37547354736401328 0 0.18267650324237161 -0.39405502657648112 0 0.1910424400336663 -0.37547354736401328 0 0.17822948803450961 -0.38676940160015832 0 0.18267650324237161 -0.39405502657648112 0 0.17822948803450961 -0.38676940160015832 0 0.17910183421640119 -0.39520059623836468 0 0.1646215608890387 -0.38907553280053181 0 0.17822948803450961 -0.38676940160015832 0 0.1737051017910701 -0.38004230502140057 0 0.1646215608890387 -0.38907553280053181 0 0.17822948803450961 -0.38676940160015832 0 0.18267650324237161 -0.39405502657648112 0 0.17910183421640119 -0.39520059623836468 0 0.18221634088723479 -0.40136818287387582 0 0.17910183421640119 -0.39520059623836468 0 0.15805845094365739 -0.40474493864538458 0 0.18963514604776821 -0.39361523539988952 0 0.18267650324237161 -0.39405502657648112 0 0.18221634088723479 -0.40136818287387582 0 0.18267650324237161 -0.39405502657648112 0 0.18221634088723479 -0.40136818287387582 0 0.17910183421640119 -0.39520059623836468 0 0.18221634088723479 -0.40136818287387582 0 0.17910183421640119 -0.39520059623836468 0 0.19262774622386039 -0.39991289132556063 0 0.18221634088723479 -0.40136818287387582 0 0.19262774622386039 -0.39991289132556063 0 0.18449600084559339 -0.40588254157612419 0 0.18221634088723479 -0.40136818287387582 0 0.18449600084559339 -0.40588254157612419 0 0.18221634088723479 -0.40136818287387582 0 0.17910183421640119 -0.39520059623836468 0 0.15805845094365739 -0.40474493864538458 0 0.1646215608890387 -0.38907553280053181 0 0.18221634088723479 -0.40136818287387582 0 0.15805845094365739 -0.40474493864538458 0 0.15805845094365739 -0.40474493864538458 0 0.1646215608890387 -0.38907553280053181 0 0.14706277844018539 -0.39464292458295508 0 0.1737051017910701 -0.38004230502140057 0 0.1646215608890387 -0.38907553280053181 0 0.16307541855137739 -0.37743582412871929 0 0.17035242753357599 -0.36877211446365682 0 0.1737051017910701 -0.38004230502140057 0 0.16307541855137739 -0.37743582412871929 0 0.1569593121701936 -0.36832063090657668 0 0.16307541855137739 -0.37743582412871929 0 0.14973869037300869 -0.38096853745143089 0 0.1646215608890387 -0.38907553280053181 0 0.16307541855137739 -0.37743582412871929 0 0.14973869037300869 -0.38096853745143089 0 0.1646215608890387 -0.38907553280053181 0 0.14973869037300869 -0.38096853745143089 0 0.14706277844018539 -0.39464292458295508 0 0.14973869037300869 -0.38096853745143089 0 0.1375772795987745 -0.38493757303029391 0 0.14706277844018539 -0.39464292458295508 0 0.13524945632583441 -0.37311377610700652 0 0.14973869037300869 -0.38096853745143089 0 0.1375772795987745 -0.38493757303029391 0 0.13524945632583441 -0.37311377610700652 0 0.1375772795987745 -0.38493757303029391 0 0.12609635470998201 -0.38402791619100712 0 0.1375772795987745 -0.38493757303029391 0 0.12609635470998201 -0.38402791619100712 0 0.13569313113510631 -0.39589912548093298 0 0.12645644117523869 -0.39722706905544619 0 0.13569313113510631 -0.39589912548093298 0 0.1339005610000801 -0.40812169441689322 0 0.12645644117523869 -0.39722706905544619 0 0.1339005610000801 -0.40812169441689322 0 0.1250254850364893 -0.40936224001308058 0 0.12609635470998201 -0.38402791619100712 0 0.12645644117523869 -0.39722706905544619 0 0.13569313113510631 -0.39589912548093298 0 0.1375772795987745 -0.38493757303029391 0 0.13569313113510631 -0.39589912548093298 0 0.14706277844018539 -0.39464292458295508 0 0.13569313113510631 -0.39589912548093298 0 0.14706277844018539 -0.39464292458295508 0 0.1339005610000801 -0.40812169441689322 0 0.13569313113510631 -0.39589912548093298 0 0.1339005610000801 -0.40812169441689322 0 0.15805845094365739 -0.40474493864538458 0 0.14706277844018539 -0.39464292458295508 0 0.1339005610000801 -0.40812169441689322 0 0.15805845094365739 -0.40474493864538458 0 0.1339005610000801 -0.40812169441689322 0 0.15805845094365739 -0.40474493864538458 0 0.15398562739609989 -0.414436145328195 0 0.14500783119440661 -0.41410657591589572 0 0.15805845094365739 -0.40474493864538458 0 0.14500783119440661 -0.41410657591589572 0 0.1339005610000801 -0.40812169441689322 0 0.15398562739609989 -0.414436145328195 0 0.15088002640467921 -0.42009116626417142 0 0.14500783119440661 -0.41410657591589572 0 0.15088002640467921 -0.42009116626417142 0 0.15979138776423191 -0.42406840149736191 0 0.15636365466176849 -0.41960526040447821 0 0.15398562739609989 -0.414436145328195 0 0.15088002640467921 -0.42009116626417142 0 0.15636365466176849 -0.41960526040447821 0 0.15088002640467921 -0.42009116626417142 0 0.14500783119440661 -0.41410657591589572 0 0.14354831806896931 -0.42663893719234869 0 0.14500783119440661 -0.41410657591589572 0 0.1339005610000801 -0.40812169441689322 0 0.13212255532719441 -0.42024495614079282 0 0.14500783119440661 -0.41410657591589572 0 0.13212255532719441 -0.42024495614079282 0 0.14354831806896931 -0.42663893719234869 0 0.1339005610000801 -0.40812169441689322 0 0.13212255532719441 -0.42024495614079282 0 0.13212255532719441 -0.42024495614079282 0 0.1250254850364893 -0.40936224001308058 0 0.117866085899093 -0.41583132647739651 0 0.13212255532719441 -0.42024495614079282 0 0.1250254850364893 -0.40936224001308058 0 0.1339005610000801 -0.40812169441689322 0 0.13212255532719441 -0.42024495614079282 0 0.1250254850364893 -0.40936224001308058 0 0.1339005610000801 -0.40812169441689322 0 0.1250254850364893 -0.40936224001308058 0 0.13212255532719441 -0.42024495614079282 0 0.14354831806896931 -0.42663893719234869 0 0.1460535583969573 -0.44160689079445481 0 0.13212255532719441 -0.42024495614079282 0 0.128223579302082 -0.44682997076052833 0 0.13212255532719441 -0.42024495614079282 0 0.128223579302082 -0.44682997076052833 0 0.1159996351348133 -0.43474120747525058 0 0.13212255532719441 -0.42024495614079282 0 0.1460535583969573 -0.44160689079445481 0 0.13212255532719441 -0.42024495614079282 0 0.1460535583969573 -0.44160689079445481 0 0.128223579302082 -0.44682997076052833 0 0.15088002640467921 -0.42009116626417142 0 0.14354831806896931 -0.42663893719234869 0 0.15979138776423191 -0.42406840149736191 0 0.14354831806896931 -0.42663893719234869 0 0.15979138776423191 -0.42406840149736191 0 0.14354831806896931 -0.42663893719234869 0 0.15423293294423909 -0.43386412417913311 0 0.1460535583969573 -0.44160689079445481 0 0.14354831806896931 -0.42663893719234869 0 0.15423293294423909 -0.43386412417913311 0 0.15979138776423191 -0.42406840149736191 0 0.15423293294423909 -0.43386412417913311 0 0.16088991666547389 -0.43196094602310392 0 0.16557730454712019 -0.44172028084172121 0 0.1713980071398 -0.42434598792645378 0 0.15979138776423191 -0.42406840149736191 0 0.1760344574594947 -0.42149786580237669 0 0.15423293294423909 -0.43386412417913311 0 0.16088991666547389 -0.43196094602310392 0 0.15979138776423191 -0.42406840149736191 0 0.15979138776423191 -0.42406840149736191 0 0.1760344574594947 -0.42149786580237669 0 0.16626302434537371 -0.43076979168845952 0 0.17509911994716071 -0.43336510097506958 0 0.16557730454712019 -0.44172028084172121 0 0.16088991666547389 -0.43196094602310392 0 0.16626302434537371 -0.43076979168845952 0 0.16557730454712019 -0.44172028084172121 0 0.16626302434537371 -0.43076979168845952 0 0.1713980071398 -0.42434598792645378 0 0.17509911994716071 -0.43336510097506958 0 0.16626302434537371 -0.43076979168845952 0 0.1713980071398 -0.42434598792645378 0 0.15979138776423191 -0.42406840149736191 0 0.16088991666547389 -0.43196094602310392 0 0.16626302434537371 -0.43076979168845952 0 0.15979138776423191 -0.42406840149736191 0 0.15636365466176849 -0.41960526040447821 0 0.16176651730702801 -0.41283252991975622 0 0.17042982775368151 -0.41274390099030239 0 0.18221634088723479 -0.40136818287387582 0 0.15805845094365739 -0.40474493864538458 0 0.17042982775368151 -0.41274390099030239 0 0.15979138776423191 -0.42406840149736191 0 0.15636365466176849 -0.41960526040447821 0 0.17042982775368151 -0.41274390099030239 0 0.15636365466176849 -0.41960526040447821 0 0.17042982775368151 -0.41274390099030239 0 0.15979138776423191 -0.42406840149736191 0 0.17042982775368151 -0.41274390099030239 0 0.1760344574594947 -0.42149786580237669 0 0.15398562739609989 -0.414436145328195 0 0.15636365466176849 -0.41960526040447821 0 0.16176651730702801 -0.41283252991975622 0 0.15805845094365739 -0.40474493864538458 0 0.15398562739609989 -0.414436145328195 0 0.16176651730702801 -0.41283252991975622 0 0.15805845094365739 -0.40474493864538458 0 0.16176651730702801 -0.41283252991975622 0 0.17042982775368151 -0.41274390099030239 0 0.17042982775368151 -0.41274390099030239 0 0.1760344574594947 -0.42149786580237669 0 0.17986785094481991 -0.4134894736146324 0 0.18449600084559339 -0.40588254157612419 0 0.17042982775368151 -0.41274390099030239 0 0.18449600084559339 -0.40588254157612419 0 0.18221634088723479 -0.40136818287387582 0 0.17042982775368151 -0.41274390099030239 0 0.18449600084559339 -0.40588254157612419 0 0.17042982775368151 -0.41274390099030239 0 0.17986785094481991 -0.4134894736146324 0 0.18851111772050869 -0.41383358608972459 0 0.18449600084559339 -0.40588254157612419 0 0.18851111772050869 -0.41383358608972459 0 0.18449600084559339 -0.40588254157612419 0 0.17986785094481991 -0.4134894736146324 0 0.18851111772050869 -0.41383358608972459 0 0.1760344574594947 -0.42149786580237669 0 0.1911717259170673 -0.41910232791299562 0 0.1760344574594947 -0.42149786580237669 0 0.18851111772050869 -0.41383358608972459 0 0.1760344574594947 -0.42149786580237669 0 0.17986785094481991 -0.4134894736146324 0 0.1911717259170673 -0.41910232791299562 0 0.18851111772050869 -0.41383358608972459 0 0.1760344574594947 -0.42149786580237669 0 0.1911717259170673 -0.41910232791299562 0 0.1760344574594947 -0.42149786580237669 0 0.18484232774876749 -0.43033534366960768 0 0.18484232774876749 -0.43033534366960768 0 0.17509911994716071 -0.43336510097506958 0 0.18590039067086719 -0.44115637567916172 0 0.18484232774876749 -0.43033534366960768 0 0.17509911994716071 -0.43336510097506958 0 0.17653319474121221 -0.42750765242104072 0 0.1713980071398 -0.42434598792645378 0 0.17509911994716071 -0.43336510097506958 0 0.17653319474121221 -0.42750765242104072 0 0.1760344574594947 -0.42149786580237669 0 0.18484232774876749 -0.43033534366960768 0 0.17653319474121221 -0.42750765242104072 0 0.1713980071398 -0.42434598792645378 0 0.1760344574594947 -0.42149786580237669 0 0.17653319474121221 -0.42750765242104072 0 0.1713980071398 -0.42434598792645378 0 0.1760344574594947 -0.42149786580237669 0 0.17791556380287959 -0.4455361086535346 0 0.17376504419967539 -0.46076368888843938 0 0.16557730454712019 -0.44172028084172121 0 0.17509911994716071 -0.43336510097506958 0 0.17791556380287959 -0.4455361086535346 0 0.18590039067086719 -0.44115637567916172 0 0.17509911994716071 -0.43336510097506958 0 0.17791556380287959 -0.4455361086535346 0 0.16557730454712019 -0.44172028084172121 0 0.18923595964957429 -0.45067509688328122 0 0.17791556380287959 -0.4455361086535346 0 0.18590039067086719 -0.44115637567916172 0 0.18923595964957429 -0.45067509688328122 0 0.17791556380287959 -0.4455361086535346 0 0.17376504419967539 -0.46076368888843938 0 0.1938641377332887 -0.4633108835168005 0 0.18923595964957429 -0.45067509688328122 0 0.17376504419967539 -0.46076368888843938 0 0.1938641377332887 -0.4633108835168005 0 0.17376504419967539 -0.46076368888843938 0 0.17718182015316611 -0.48165544175840053 0 0.17376504419967539 -0.46076368888843938 0 0.15550290350416551 -0.45157236434768988 0 0.1539044029471725 -0.46809795184702829 0 0.17376504419967539 -0.46076368888843938 0 0.16557730454712019 -0.44172028084172121 0 0.15550290350416551 -0.45157236434768988 0 0.15423293294423909 -0.43386412417913311 0 0.16557730454712019 -0.44172028084172121 0 0.15550290350416551 -0.45157236434768988 0 0.15423293294423909 -0.43386412417913311 0 0.15550290350416551 -0.45157236434768988 0 0.1460535583969573 -0.44160689079445481 0 0.15550290350416551 -0.45157236434768988 0 0.1460535583969573 -0.44160689079445481 0 0.14153074802588431 -0.45654190970348868 0 0.1460535583969573 -0.44160689079445481 0 0.128223579302082 -0.44682997076052833 0 0.14153074802588431 -0.45654190970348868 0 0.128223579302082 -0.44682997076052833 0 0.12432460327697011 -0.47341498538026422 0 0.128223579302082 -0.44682997076052833 0 0.14153074802588431 -0.45654190970348868 0 0.12432460327697011 -0.47341498538026422 0 0.1539044029471725 -0.46809795184702829 0 0.14153074802588431 -0.45654190970348868 0 0.12432460327697011 -0.47341498538026422 0 0.15550290350416551 -0.45157236434768988 0 0.1539044029471725 -0.46809795184702829 0 0.14153074802588431 -0.45654190970348868 0 0.1539044029471725 -0.46809795184702829 0 0.15048103374274721 -0.48484579871078243 0 0.12432460327697011 -0.47341498538026422 0 0.1404625649124509 -0.5 0 0.15048103374274721 -0.48484579871078243 0 0.12432460327697011 -0.47341498538026422 0 0.1404625649124509 -0.5 0 0.12042562725185831 -0.49999999999999989 0 0.12432460327697011 -0.47341498538026422 0 0.1404625649124509 -0.5 0 0.15048103374274721 -0.48484579871078243 0 0.16049950257304349 -0.50000000000000033 0 0.16049950257304349 -0.50000000000000033 0 0.17718182015316611 -0.48165544175840053 0 0.15048103374274721 -0.48484579871078243 0 0.16049950257304349 -0.50000000000000033 0 0.17718182015316611 -0.48165544175840053 0 0.17376504419967539 -0.46076368888843938 0 0.1539044029471725 -0.46809795184702829 0 0.17718182015316611 -0.48165544175840053 0 0.1539044029471725 -0.46809795184702829 0 0.15048103374274721 -0.48484579871078243 0 0.17718182015316611 -0.48165544175840053 0 0.1938641377332887 -0.4633108835168005 0 0.17718182015316611 -0.48165544175840053 0 0.19122796324104871 -0.48466606029959602 0 0.1938641377332887 -0.4633108835168005 0 0.17718182015316611 -0.48165544175840053 0 0.16049950257304349 -0.50000000000000033 0 0.17718182015316611 -0.48165544175840053 0 0.18744203257390391 -0.5 0 0.19122796324104871 -0.48466606029959602 0 0.17718182015316611 -0.48165544175840053 0 0.18744203257390391 -0.5 0 0.072018957471098571 -0.48629524479662273 0 0.069142552082564368 -0.5 0 0.082735946582200875 -0.4892045976485363 0 0.072018957471098571 -0.48629524479662273 0 0.079568506083734697 -0.4785915255016745 0 0.082735946582200875 -0.4892045976485363 0 0.072018957471098571 -0.48629524479662273 0 0.062670741706174135 -0.48944359682069549 0 0.064881374578912687 -0.4815757870058418 0 0.072018957471098571 -0.48629524479662273 0 0.069142552082564368 -0.5 0 0.062670741706174135 -0.48944359682069549 0 0.073180054077148754 -0.46968413697177741 0 0.079568506083734697 -0.4785915255016745 0 0.081395248040860374 -0.46160025678040811 0 0.067447632246636219 -0.45716428258124142 0 0.05849497948899289 -0.47642287528831911 0 0.061758178687080389 -0.47580514524370598 0 0.072018957471098571 -0.48629524479662273 0 0.064881374578912687 -0.4815757870058418 0 0.070673492561877091 -0.4782128222507579 0 0.064881374578912687 -0.4815757870058418 0 0.066280053791524171 -0.47680462027284459 0 0.061758178687080389 -0.47580514524370598 0 0.064881374578912687 -0.4815757870058418 0 0.066280053791524171 -0.47680462027284459 0 0.070673492561877091 -0.4782128222507579 0 0.066280053791524171 -0.47680462027284459 0 0.067807169338226503 -0.47162472659107291 0 0.061758178687080389 -0.47580514524370598 0 0.066280053791524171 -0.47680462027284459 0 0.067807169338226503 -0.47162472659107291 0 0.070673492561877091 -0.4782128222507579 0 0.067807169338226503 -0.47162472659107291 0 0.073180054077148754 -0.46968413697177741 0 0.070673492561877091 -0.4782128222507579 0 0.073180054077148754 -0.46968413697177741 0 0.070673492561877091 -0.4782128222507579 0 0.079568506083734697 -0.4785915255016745 0 0.072018957471098571 -0.48629524479662273 0 0.070673492561877091 -0.4782128222507579 0 0.079568506083734697 -0.4785915255016745 0 0.096876661376123455 -0.48080012839020431 0 0.081395248040860374 -0.46160025678040811 0 0.096876661376123455 -0.48080012839020431 0 0.095349939854524335 -0.46404107218864848 0 0.081395248040860374 -0.46160025678040811 0 0.079568506083734697 -0.4785915255016745 0 0.082735946582200875 -0.4892045976485363 0 0.096876661376123455 -0.48080012839020431 0 0.079568506083734697 -0.4785915255016745 0 0.096876661376123455 -0.48080012839020431 0 0.081395248040860374 -0.46160025678040811 0 0.090750313396975479 -0.5 0 0.082735946582200875 -0.4892045976485363 0 0.096876661376123455 -0.48080012839020431 0 0.069142552082564368 -0.5 0 0.090750313396975479 -0.5 0 0.082735946582200875 -0.4892045976485363 0 0.1123580747113867 -0.50000000000000033 0 0.1124728586670535 -0.48406595427175642 0 0.096876661376123455 -0.48080012839020431 0 0.090750313396975479 -0.5 0 0.1123580747113867 -0.50000000000000033 0 0.096876661376123455 -0.48080012839020431 0 0.1123580747113867 -0.50000000000000033 0 0.096876661376123455 -0.48080012839020431 0 0.1123580747113867 -0.50000000000000033 0 0.12042562725185831 -0.49999999999999989 0 0.1124728586670535 -0.48406595427175642 0 0.12042562725185831 -0.49999999999999989 0 0.1124728586670535 -0.48406595427175642 0 0.12432460327697011 -0.47341498538026422 0 0.12042562725185831 -0.49999999999999989 0 0.12432460327697011 -0.47341498538026422 0 0.1124728586670535 -0.48406595427175642 0 0.12432460327697011 -0.47341498538026422 0 0.1082250197838846 -0.46311527911574241 0 0.096876661376123455 -0.48080012839020431 0 0.095349939854524335 -0.46404107218864848 0 0.1082250197838846 -0.46311527911574241 0 0.1124728586670535 -0.48406595427175642 0 0.096876661376123455 -0.48080012839020431 0 0.1082250197838846 -0.46311527911574241 0 0.095349939854524335 -0.46404107218864848 0 0.1082250197838846 -0.46311527911574241 0 0.094902830217228867 -0.45064862446823939 0 0.128223579302082 -0.44682997076052833 0 0.12432460327697011 -0.47341498538026422 0 0.1082250197838846 -0.46311527911574241 0 0.128223579302082 -0.44682997076052833 0 0.1069391861142964 -0.44299064961396012 0 0.1159996351348133 -0.43474120747525058 0 0.128223579302082 -0.44682997076052833 0 0.1082250197838846 -0.46311527911574241 0 0.1069391861142964 -0.44299064961396012 0 0.1082250197838846 -0.46311527911574241 0 0.1069391861142964 -0.44299064961396012 0 0.094902830217228867 -0.45064862446823939 0 0.1069391861142964 -0.44299064961396012 0 0.091812697424993442 -0.4386357446441016 0 0.098414951810672224 -0.43233268446502993 0 0.1069391861142964 -0.44299064961396012 0 0.094902830217228867 -0.45064862446823939 0 0.091812697424993442 -0.4386357446441016 0 0.094902830217228867 -0.45064862446823939 0 0.091812697424993442 -0.4386357446441016 0 0.082434724511159588 -0.44537142502386151 0 0.094902830217228867 -0.45064862446823939 0 0.082434724511159588 -0.44537142502386151 0 0.081395248040860374 -0.46160025678040811 0 0.091812697424993442 -0.4386357446441016 0 0.082434724511159588 -0.44537142502386151 0 0.078149012167117934 -0.43357211405594609 0 0.095349939854524335 -0.46404107218864848 0 0.094902830217228867 -0.45064862446823939 0 0.081395248040860374 -0.46160025678040811 0 0.067447632246636219 -0.45716428258124142 0 0.065913834705597293 -0.44240038517061198 0 0.057068655694905858 -0.46015288389510001 0 0.067447632246636219 -0.45716428258124142 0 0.05849497948899289 -0.47642287528831911 0 0.067807169338226503 -0.47162472659107291 0 0.067447632246636219 -0.45716428258124142 0 0.061758178687080389 -0.47580514524370598 0 0.081395248040860374 -0.46160025678040811 0 0.067447632246636219 -0.45716428258124142 0 0.065913834705597293 -0.44240038517061198 0 0.073180054077148754 -0.46968413697177741 0 0.081395248040860374 -0.46160025678040811 0 0.067447632246636219 -0.45716428258124142 0 0.067807169338226503 -0.47162472659107291 0 0.073180054077148754 -0.46968413697177741 0 0.067447632246636219 -0.45716428258124142 0 0.081395248040860374 -0.46160025678040811 0 0.065913834705597293 -0.44240038517061198 0 0.082434724511159588 -0.44537142502386151 0 0.081395248040860374 -0.46160025678040811 0 0.065913834705597293 -0.44240038517061198 0 0.082434724511159588 -0.44537142502386151 0 0.065913834705597293 -0.44240038517061198 0 0.078149012167117934 -0.43357211405594609 0 0.065921365320016911 -0.4273577277455588 0 0.073982485551444349 -0.42005290588181732 0 0.078149012167117934 -0.43357211405594609 0 0.065913834705597293 -0.44240038517061198 0 0.065921365320016911 -0.4273577277455588 0 0.078149012167117934 -0.43357211405594609 0 0.073982485551444349 -0.42005290588181732 0 0.069775570718114244 -0.40426700169235308 0 0.060774245729122177 -0.41691050055794487 0 0.065921365320016911 -0.4273577277455588 0 0.073982485551444349 -0.42005290588181732 0 0.060774245729122177 -0.41691050055794487 0 0.073982485551444349 -0.42005290588181732 0 0.086447448161059384 -0.41120764722282821 0 0.069775570718114244 -0.40426700169235308 0 0.073982485551444349 -0.42005290588181732 0 0.086447448161059384 -0.41120764722282821 0 0.088692331433278357 -0.42535053834926723 0 0.086447448161059384 -0.41120764722282821 0 0.093827427438274241 -0.41775801958915132 0 0.099702730965631758 -0.41290181884877419 0 0.086447448161059384 -0.41120764722282821 0 0.088692331433278357 -0.42535053834926723 0 0.093827427438274241 -0.41775801958915132 0 0.088692331433278357 -0.42535053834926723 0 0.097645949564215143 -0.42435504664253748 0 0.093827427438274241 -0.41775801958915132 0 0.073982485551444349 -0.42005290588181732 0 0.088692331433278357 -0.42535053834926723 0 0.078149012167117934 -0.43357211405594609 0 0.091812697424993442 -0.4386357446441016 0 0.088692331433278357 -0.42535053834926723 0 0.078149012167117934 -0.43357211405594609 0 0.091812697424993442 -0.4386357446441016 0 0.088692331433278357 -0.42535053834926723 0 0.098414951810672224 -0.43233268446502993 0 0.098414951810672224 -0.43233268446502993 0 0.097645949564215143 -0.42435504664253748 0 0.1061961683754654 -0.43004895598907111 0 0.088692331433278357 -0.42535053834926723 0 0.098414951810672224 -0.43233268446502993 0 0.097645949564215143 -0.42435504664253748 0 0.1061961683754654 -0.43004895598907111 0 0.11152958735588871 -0.42539382439527612 0 0.1045809803654715 -0.42051706085107571 0 0.097645949564215143 -0.42435504664253748 0 0.1061961683754654 -0.43004895598907111 0 0.1045809803654715 -0.42051706085107571 0 0.1069391861142964 -0.44299064961396012 0 0.098414951810672224 -0.43233268446502993 0 0.1061961683754654 -0.43004895598907111 0 0.1061961683754654 -0.43004895598907111 0 0.1159996351348133 -0.43474120747525058 0 0.11152958735588871 -0.42539382439527612 0 0.13212255532719441 -0.42024495614079282 0 0.1159996351348133 -0.43474120747525058 0 0.11851153239627241 -0.42275952171654291 0 0.1069391861142964 -0.44299064961396012 0 0.1061961683754654 -0.43004895598907111 0 0.1159996351348133 -0.43474120747525058 0 0.1159996351348133 -0.43474120747525058 0 0.11152958735588871 -0.42539382439527612 0 0.11851153239627241 -0.42275952171654291 0 0.11152958735588871 -0.42539382439527612 0 0.11851153239627241 -0.42275952171654291 0 0.1123596205074209 -0.41890237594444008 0 0.1250254850364893 -0.40936224001308058 0 0.117866085899093 -0.41583132647739651 0 0.1096180349996463 -0.41151587164058129 0 0.1250254850364893 -0.40936224001308058 0 0.1096180349996463 -0.41151587164058129 0 0.13212255532719441 -0.42024495614079282 0 0.11851153239627241 -0.42275952171654291 0 0.117866085899093 -0.41583132647739651 0 0.117866085899093 -0.41583132647739651 0 0.1123596205074209 -0.41890237594444008 0 0.1096180349996463 -0.41151587164058129 0 0.11851153239627241 -0.42275952171654291 0 0.117866085899093 -0.41583132647739651 0 0.1123596205074209 -0.41890237594444008 0 0.11152958735588871 -0.42539382439527612 0 0.1123596205074209 -0.41890237594444008 0 0.1045809803654715 -0.42051706085107571 0 0.1123596205074209 -0.41890237594444008 0 0.1096180349996463 -0.41151587164058129 0 0.1065506547415149 -0.41613106226330793 0 0.1096180349996463 -0.41151587164058129 0 0.1065506547415149 -0.41613106226330793 0 0.099702730965631758 -0.41290181884877419 0 0.1096180349996463 -0.41151587164058129 0 0.099702730965631758 -0.41290181884877419 0 0.1096180349996463 -0.41151587164058129 0 0.099702730965631758 -0.41290181884877419 0 0.1041447551606165 -0.40305668800175581 0 0.1123596205074209 -0.41890237594444008 0 0.1065506547415149 -0.41613106226330793 0 0.1045809803654715 -0.42051706085107571 0 0.1065506547415149 -0.41613106226330793 0 0.1045809803654715 -0.42051706085107571 0 0.099702730965631758 -0.41290181884877419 0 0.1045809803654715 -0.42051706085107571 0 0.093827427438274241 -0.41775801958915132 0 0.099702730965631758 -0.41290181884877419 0 0.097645949564215143 -0.42435504664253748 0 0.1045809803654715 -0.42051706085107571 0 0.093827427438274241 -0.41775801958915132 0 0.086447448161059384 -0.41120764722282821 0 0.099702730965631758 -0.41290181884877419 0 0.095691580682652475 -0.39908469234235189 0 0.095691580682652475 -0.39908469234235189 0 0.1041447551606165 -0.40305668800175581 0 0.1115666739945345 -0.38872436917531578 0 0.099702730965631758 -0.41290181884877419 0 0.095691580682652475 -0.39908469234235189 0 0.1041447551606165 -0.40305668800175581 0 0.1096180349996463 -0.41151587164058129 0 0.1041447551606165 -0.40305668800175581 0 0.1115666739945345 -0.38872436917531578 0 0.1250254850364893 -0.40936224001308058 0 0.1115666739945345 -0.38872436917531578 0 0.1096180349996463 -0.41151587164058129 0 0.1115666739945345 -0.38872436917531578 0 0.1250254850364893 -0.40936224001308058 0 0.1096180349996463 -0.41151587164058129 0 0.1115666739945345 -0.38872436917531578 0 0.12645644117523869 -0.39722706905544619 0 0.1250254850364893 -0.40936224001308058 0 0.1115666739945345 -0.38872436917531578 0 0.12609635470998201 -0.38402791619100712 0 0.1115666739945345 -0.38872436917531578 0 0.113745377556003 -0.36324200547299851 0 0.1115666739945345 -0.38872436917531578 0 0.113745377556003 -0.36324200547299851 0 0.12609635470998201 -0.38402791619100712 0 0.12645644117523869 -0.39722706905544619 0 0.1115666739945345 -0.38872436917531578 0 0.1115666739945345 -0.38872436917531578 0 0.096372132326470572 -0.36542491223168638 0 0.1115666739945345 -0.38872436917531578 0 0.089853218628298884 -0.38394717958202601 0 0.096372132326470572 -0.36542491223168638 0 0.095691580682652475 -0.39908469234235189 0 0.1115666739945345 -0.38872436917531578 0 0.089853218628298884 -0.38394717958202601 0 0.089853218628298884 -0.38394717958202601 0 0.082924844884061683 -0.39714926844771359 0 0.072939106935086151 -0.38728773006234168 0 0.089853218628298884 -0.38394717958202601 0 0.072939106935086151 -0.38728773006234168 0 0.07582030708563034 -0.37256671738353597 0 0.095691580682652475 -0.39908469234235189 0 0.089853218628298884 -0.38394717958202601 0 0.082924844884061683 -0.39714926844771359 0 0.086447448161059384 -0.41120764722282821 0 0.082924844884061683 -0.39714926844771359 0 0.069775570718114244 -0.40426700169235308 0 0.086447448161059384 -0.41120764722282821 0 0.095691580682652475 -0.39908469234235189 0 0.082924844884061683 -0.39714926844771359 0 0.069775570718114244 -0.40426700169235308 0 0.072939106935086151 -0.38728773006234168 0 0.058313699768321348 -0.39007371912844929 0 0.082924844884061683 -0.39714926844771359 0 0.069775570718114244 -0.40426700169235308 0 0.072939106935086151 -0.38728773006234168 0 0.072939106935086151 -0.38728773006234168 0 0.05933500968155693 -0.37671477575793533 0 0.058313699768321348 -0.39007371912844929 0 0.072939106935086151 -0.38728773006234168 0 0.05933500968155693 -0.37671477575793533 0 0.07582030708563034 -0.37256671738353597 0 0.05933500968155693 -0.37671477575793533 0 0.043300396670470892 -0.38581293046691678 0 0.039079294002052851 -0.37065651216905859 0 0.05933500968155693 -0.37671477575793533 0 0.058313699768321348 -0.39007371912844929 0 0.043300396670470892 -0.38581293046691678 0 0.058313699768321348 -0.39007371912844929 0 0.0466875803122518 -0.39705513158652528 0 0.054373060569327003 -0.40663711634463268 0 0.069775570718114244 -0.40426700169235308 0 0.058313699768321348 -0.39007371912844929 0 0.054373060569327003 -0.40663711634463268 0 0.058313699768321348 -0.39007371912844929 0 0.054373060569327003 -0.40663711634463268 0 0.0466875803122518 -0.39705513158652528 0 0.042121557959679479 -0.40689397827368962 0 0.054373060569327003 -0.40663711634463268 0 0.058313699768321348 -0.39007371912844929 0 0.0466875803122518 -0.39705513158652528 0 0.043300396670470892 -0.38581293046691678 0 0.0466875803122518 -0.39705513158652528 0 0.032645317368698572 -0.39721328630736241 0 0.043300396670470892 -0.38581293046691678 0 0.0466875803122518 -0.39705513158652528 0 0.032645317368698572 -0.39721328630736241 0 0.042121557959679479 -0.40689397827368962 0 0.032645317368698572 -0.39721328630736241 0 0.043300396670470892 -0.38581293046691678 0 0.025542853711361019 -0.38384675294920401 0 0.043300396670470892 -0.38581293046691678 0 0.025542853711361019 -0.38384675294920401 0 0.039079294002052851 -0.37065651216905859 0 0.025542853711361019 -0.38384675294920401 0 0.009690974369139977 -0.39295199195252922 0 0.016784443680880379 -0.36713146693108112 0 -0.0064694903547723136 -0.38059021958606692 0 0.009690974369139977 -0.39295199195252922 0 0.016784443680880379 -0.36713146693108112 0 0.032645317368698572 -0.39721328630736241 0 0.009690974369139977 -0.39295199195252922 0 0.030062121183744069 -0.41560348860952728 0 0.032645317368698572 -0.39721328630736241 0 0.025542853711361019 -0.38384675294920401 0 0.009690974369139977 -0.39295199195252922 0 0.009690974369139977 -0.39295199195252922 0 0.030062121183744069 -0.41560348860952728 0 0.01224976062295041 -0.42183763890738629 0 -0.0080625817845775948 -0.40608726553411861 0 0.009690974369139977 -0.39295199195252922 0 0.01224976062295041 -0.42183763890738629 0 0.009690974369139977 -0.39295199195252922 0 0.01224976062295041 -0.42183763890738629 0 0.01224976062295041 -0.42183763890738629 0 0.01480854687676085 -0.45072328586224342 0 0.030062121183744069 -0.41560348860952728 0 0.01224976062295041 -0.42183763890738629 0 0.028535899264767479 -0.43733174884408438 0 0.01224976062295041 -0.42183763890738629 0 0.028535899264767479 -0.43733174884408438 0 0.01480854687676085 -0.45072328586224342 0 0.030062121183744069 -0.41560348860952728 0 0.028535899264767479 -0.43733174884408438 0 0.039909128579099777 -0.42893709763038412 0 0.039909128579099777 -0.42893709763038412 0 0.050432421370333713 -0.42320051356081623 0 0.04400553312424714 -0.45021417746364167 0 0.039909128579099777 -0.42893709763038412 0 0.046509667952406512 -0.41833555967385072 0 0.050432421370333713 -0.42320051356081623 0 0.032645317368698572 -0.39721328630736241 0 0.030062121183744069 -0.41560348860952728 0 0.042121557959679479 -0.40689397827368962 0 0.030062121183744069 -0.41560348860952728 0 0.039909128579099777 -0.42893709763038412 0 0.046509667952406512 -0.41833555967385072 0 0.030062121183744069 -0.41560348860952728 0 0.042121557959679479 -0.40689397827368962 0 0.046509667952406512 -0.41833555967385072 0 0.054373060569327003 -0.40663711634463268 0 0.050432421370333713 -0.42320051356081623 0 0.046509667952406512 -0.41833555967385072 0 0.054373060569327003 -0.40663711634463268 0 0.050432421370333713 -0.42320051356081623 0 0.054373060569327003 -0.40663711634463268 0 0.060774245729122177 -0.41691050055794487 0 0.050432421370333713 -0.42320051356081623 0 0.046509667952406512 -0.41833555967385072 0 0.050432421370333713 -0.42320051356081623 0 0.042121557959679479 -0.40689397827368962 0 0.046509667952406512 -0.41833555967385072 0 0.054373060569327003 -0.40663711634463268 0 0.069775570718114244 -0.40426700169235308 0 0.054373060569327003 -0.40663711634463268 0 0.060774245729122177 -0.41691050055794487 0 0.050432421370333713 -0.42320051356081623 0 0.04400553312424714 -0.45021417746364167 0 0.065913834705597293 -0.44240038517061198 0 0.050432421370333713 -0.42320051356081623 0 0.065913834705597293 -0.44240038517061198 0 0.065921365320016911 -0.4273577277455588 0 0.050432421370333713 -0.42320051356081623 0 0.065921365320016911 -0.4273577277455588 0 0.060774245729122177 -0.41691050055794487 0 0.050432421370333713 -0.42320051356081623 0 0.065913834705597293 -0.44240038517061198 0 0.050432421370333713 -0.42320051356081623 0 0.04400553312424714 -0.45021417746364167 0 0.065913834705597293 -0.44240038517061198 0 0.057068655694905858 -0.46015288389510001 0 0.04400553312424714 -0.45021417746364167 0 0.057068655694905858 -0.46015288389510001 0 0.048043393468649283 -0.46676160836513853 0 0.04400553312424714 -0.45021417746364167 0 0.067447632246636219 -0.45716428258124142 0 0.057068655694905858 -0.46015288389510001 0 0.05849497948899289 -0.47642287528831911 0 0.057068655694905858 -0.46015288389510001 0 0.048043393468649283 -0.46676160836513853 0 0.052635520687858477 -0.47072247146996382 0 0.04400553312424714 -0.45021417746364167 0 0.037578644878161642 -0.47722784136646751 0 0.048043393468649283 -0.46676160836513853 0 0.04400553312424714 -0.45021417746364167 0 0.037578644878161642 -0.47722784136646751 0 0.04400553312424714 -0.45021417746364167 0 0.030366658319331299 -0.45781827645911538 0 0.037578644878161642 -0.47722784136646751 0 0.028535899264767479 -0.43733174884408438 0 0.039909128579099777 -0.42893709763038412 0 0.04400553312424714 -0.45021417746364167 0 0.028535899264767479 -0.43733174884408438 0 0.04400553312424714 -0.45021417746364167 0 0.030366658319331299 -0.45781827645911538 0 0.028535899264767479 -0.43733174884408438 0 0.01480854687676085 -0.45072328586224342 0 0.030366658319331299 -0.45781827645911538 0 -0.008216644178786571 -0.4466179140804285 0 0.01224976062295041 -0.42183763890738629 0 0.01480854687676085 -0.45072328586224342 0 0.01480854687676085 -0.45072328586224342 0 0.017367333130571299 -0.47960893281710049 0 0.0084119176919832291 -0.471974008478943 0 -0.0021957942935651631 -0.46571035637089769 0 0.01480854687676085 -0.45072328586224342 0 0.0084119176919832291 -0.471974008478943 0 -0.008216644178786571 -0.4466179140804285 0 -0.0021957942935651631 -0.46571035637089769 0 0.01480854687676085 -0.45072328586224342 0 0.01480854687676085 -0.45072328586224342 0 0.017367333130571299 -0.47960893281710049 0 0.01480854687676085 -0.45072328586224342 0 0.030366658319331299 -0.45781827645911538 0 0.0269046674527194 -0.47359432875914009 0 0.01480854687676085 -0.45072328586224342 0 0.0269046674527194 -0.47359432875914009 0 0.017367333130571299 -0.47960893281710049 0 0.017367333130571299 -0.47960893281710049 0 0.012735562036971701 -0.48508522326900949 0 0.035615270762982369 -0.48075404927866472 0 0.012735562036971701 -0.48508522326900949 0 0.035615270762982369 -0.48075404927866472 0 0.0269046674527194 -0.47359432875914009 0 0.017367333130571299 -0.47960893281710049 0 0.035615270762982369 -0.48075404927866472 0 0.017367333130571299 -0.47960893281710049 0 0.0084119176919832291 -0.471974008478943 0 0.012735562036971701 -0.48508522326900949 0 -0.00065605929082254884 -0.47874224407546379 0 0.0084119176919832291 -0.471974008478943 0 0.012735562036971701 -0.48508522326900949 0 -0.0021957942935651631 -0.46571035637089769 0 -0.00065605929082254884 -0.47874224407546379 0 0.0084119176919832291 -0.471974008478943 0 -0.010144146689038991 -0.48941639725935437 0 -0.00065605929082254884 -0.47874224407546379 0 0.012735562036971701 -0.48508522326900949 0 -0.010144146689038991 -0.48941639725935437 0 0.012735562036971701 -0.48508522326900949 0 -0.011489863113854141 -0.5 0 0.012735562036971701 -0.48508522326900949 0 0.01802246382714956 -0.5 0 0.01802246382714956 -0.5 0 0.025329369399590369 -0.48901546815995378 0 0.047534790768153173 -0.50000000000000044 0 0.012735562036971701 -0.48508522326900949 0 0.025329369399590369 -0.48901546815995378 0 0.035615270762982369 -0.48075404927866472 0 0.012735562036971701 -0.48508522326900949 0 0.01802246382714956 -0.5 0 0.025329369399590369 -0.48901546815995378 0 0.025329369399590369 -0.48901546815995378 0 0.035615270762982369 -0.48075404927866472 0 0.047534790768153173 -0.50000000000000044 0 0.030366658319331299 -0.45781827645911538 0 0.0269046674527194 -0.47359432875914009 0 0.037578644878161642 -0.47722784136646751 0 0.0269046674527194 -0.47359432875914009 0 0.037578644878161642 -0.47722784136646751 0 0.035615270762982369 -0.48075404927866472 0 0.048043393468649283 -0.46676160836513853 0 0.037578644878161642 -0.47722784136646751 0 0.046296380844488463 -0.47463440362945558 0 0.035615270762982369 -0.48075404927866472 0 0.046296380844488463 -0.47463440362945558 0 0.049693011087844949 -0.4756354888466594 0 0.037578644878161642 -0.47722784136646751 0 0.035615270762982369 -0.48075404927866472 0 0.046296380844488463 -0.47463440362945558 0 0.057068655694905858 -0.46015288389510001 0 0.052635520687858477 -0.47072247146996382 0 0.05849497948899289 -0.47642287528831911 0 0.035615270762982369 -0.48075404927866472 0 0.049693011087844949 -0.4756354888466594 0 0.05849497948899289 -0.47642287528831911 0 0.035615270762982369 -0.48075404927866472 0 0.05849497948899289 -0.47642287528831911 0 0.048043393468649283 -0.46676160836513853 0 0.046296380844488463 -0.47463440362945558 0 0.052635520687858477 -0.47072247146996382 0 0.049693011087844949 -0.4756354888466594 0 0.052635520687858477 -0.47072247146996382 0 0.05849497948899289 -0.47642287528831911 0 0.046296380844488463 -0.47463440362945558 0 0.049693011087844949 -0.4756354888466594 0 0.052635520687858477 -0.47072247146996382 0 0.05849497948899289 -0.47642287528831911 0 0.061758178687080389 -0.47580514524370598 0 0.062670741706174135 -0.48944359682069549 0 0.064881374578912687 -0.4815757870058418 0 0.05849497948899289 -0.47642287528831911 0 0.064881374578912687 -0.4815757870058418 0 0.05849497948899289 -0.47642287528831911 0 0.061758178687080389 -0.47580514524370598 0 0.069142552082564368 -0.5 0 0.062670741706174135 -0.48944359682069549 0 0.047534790768153173 -0.50000000000000044 0 0.05849497948899289 -0.47642287528831911 0 0.047534790768153173 -0.50000000000000044 0 0.035615270762982369 -0.48075404927866472 0 0.05849497948899289 -0.47642287528831911 0 0.047534790768153173 -0.50000000000000044 0 0.062670741706174135 -0.48944359682069549 0 0.05849497948899289 -0.47642287528831911 0 0.047534790768153173 -0.50000000000000044 0 0.089727975817252392 -0.29646224842349211 0 0.069967983226982527 -0.30495776272600778 0 0.075483032258224086 -0.28815868119130272 0 0.089727975817252392 -0.29646224842349211 0 0.088503230311337153 -0.27716835087377989 0 0.101883582619993 -0.28460947857741209 0 0.089727975817252392 -0.29646224842349211 0 0.075483032258224086 -0.28815868119130272 0 0.088503230311337153 -0.27716835087377989 0 0.089727975817252392 -0.29646224842349211 0 0.086214248119208581 -0.31193359067875348 0 0.069967983226982527 -0.30495776272600778 0 0.089727975817252392 -0.29646224842349211 0 0.086214248119208581 -0.31193359067875348 0 0.10049372866807189 -0.31082656242210721 0 0.069967983226982527 -0.30495776272600778 0 0.075483032258224086 -0.28815868119130272 0 0.059449054433483903 -0.28956707473318272 0 0.075483032258224086 -0.28815868119130272 0 0.0646939085167762 -0.2722383315448984 0 0.059449054433483903 -0.28956707473318272 0 0.0646939085167762 -0.2722383315448984 0 0.077350866508299074 -0.27549126298099152 0 0.080723294946858856 -0.26439968831398508 0 0.075483032258224086 -0.28815868119130272 0 0.0646939085167762 -0.2722383315448984 0 0.077350866508299074 -0.27549126298099152 0 0.0646939085167762 -0.2722383315448984 0 0.070005134957367529 -0.25889031236374099 0 0.080723294946858856 -0.26439968831398508 0 0.070005134957367529 -0.25889031236374099 0 0.061490933840310687 -0.25382890142296882 0 0.070069103552599196 -0.24823964670048029 0 0.0646939085167762 -0.2722383315448984 0 0.070005134957367529 -0.25889031236374099 0 0.060614126731859473 -0.2624009925450973 0 0.070005134957367529 -0.25889031236374099 0 0.061490933840310687 -0.25382890142296882 0 0.060614126731859473 -0.2624009925450973 0 0.070005134957367529 -0.25889031236374099 0 0.080071368274292315 -0.25145738896057979 0 0.080723294946858856 -0.26439968831398508 0 0.070005134957367529 -0.25889031236374099 0 0.080071368274292315 -0.25145738896057979 0 0.070069103552599196 -0.24823964670048029 0 0.080071368274292315 -0.25145738896057979 0 0.080723294946858856 -0.26439968831398508 0 0.090706365013478091 -0.25245448435890872 0 0.080723294946858856 -0.26439968831398508 0 0.090706365013478091 -0.25245448435890872 0 0.095060577752172304 -0.26241188567384149 0 0.075483032258224086 -0.28815868119130272 0 0.077350866508299074 -0.27549126298099152 0 0.088503230311337153 -0.27716835087377989 0 0.077350866508299074 -0.27549126298099152 0 0.080723294946858856 -0.26439968831398508 0 0.088503230311337153 -0.27716835087377989 0 0.080723294946858856 -0.26439968831398508 0 0.088503230311337153 -0.27716835087377989 0 0.095060577752172304 -0.26241188567384149 0 0.088503230311337153 -0.27716835087377989 0 0.1016952336099234 -0.27235330725820578 0 0.101883582619993 -0.28460947857741209 0 0.088503230311337153 -0.27716835087377989 0 0.1016952336099234 -0.27235330725820578 0 0.095060577752172304 -0.26241188567384149 0 0.1016952336099234 -0.27235330725820578 0 0.1104739380917857 -0.2612093749811526 0 0.1125548392743288 -0.27636744618484282 0 0.1016952336099234 -0.27235330725820578 0 0.1125548392743288 -0.27636744618484282 0 0.101883582619993 -0.28460947857741209 0 0.090706365013478091 -0.25245448435890872 0 0.099550463170151926 -0.25262580003909579 0 0.095060577752172304 -0.26241188567384149 0 0.1016952336099234 -0.27235330725820578 0 0.095060577752172304 -0.26241188567384149 0 0.1104739380917857 -0.2612093749811526 0 0.099550463170151926 -0.25262580003909579 0 0.095060577752172304 -0.26241188567384149 0 0.1104739380917857 -0.2612093749811526 0 0.099550463170151926 -0.25262580003909579 0 0.1104739380917857 -0.2612093749811526 0 0.1078238037173969 -0.24832262031645649 0 0.1311170075682456 -0.27142576198599933 0 0.1104739380917857 -0.2612093749811526 0 0.1212054647883809 -0.25073068226796852 0 0.1104739380917857 -0.2612093749811526 0 0.1212054647883809 -0.25073068226796852 0 0.1078238037173969 -0.24832262031645649 0 0.1311170075682456 -0.27142576198599933 0 0.1104739380917857 -0.2612093749811526 0 0.1311170075682456 -0.27142576198599933 0 0.1104739380917857 -0.2612093749811526 0 0.1193620271946058 -0.27249351692823448 0 0.1104739380917857 -0.2612093749811526 0 0.1125548392743288 -0.27636744618484282 0 0.1193620271946058 -0.27249351692823448 0 0.1125548392743288 -0.27636744618484282 0 0.1193620271946058 -0.27249351692823448 0 0.1233023238440631 -0.28097148456094378 0 0.1311170075682456 -0.27142576198599933 0 0.1193620271946058 -0.27249351692823448 0 0.1233023238440631 -0.28097148456094378 0 0.1233023238440631 -0.28097148456094378 0 0.1242383748246253 -0.29131174999725179 0 0.1141297936923768 -0.28878453930630188 0 0.1242383748246253 -0.29131174999725179 0 0.1141297936923768 -0.28878453930630188 0 0.1198701537204314 -0.30089140532399938 0 0.1141297936923768 -0.28878453930630188 0 0.10622170970645189 -0.29895353846799488 0 0.1198701537204314 -0.30089140532399938 0 0.1125548392743288 -0.27636744618484282 0 0.1233023238440631 -0.28097148456094378 0 0.1141297936923768 -0.28878453930630188 0 0.1125548392743288 -0.27636744618484282 0 0.1141297936923768 -0.28878453930630188 0 0.101883582619993 -0.28460947857741209 0 0.089727975817252392 -0.29646224842349211 0 0.101883582619993 -0.28460947857741209 0 0.10622170970645189 -0.29895353846799488 0 0.1141297936923768 -0.28878453930630188 0 0.101883582619993 -0.28460947857741209 0 0.10622170970645189 -0.29895353846799488 0 0.089727975817252392 -0.29646224842349211 0 0.10049372866807189 -0.31082656242210721 0 0.10622170970645189 -0.29895353846799488 0 0.10049372866807189 -0.31082656242210721 0 0.10622170970645189 -0.29895353846799488 0 0.1134387524627216 -0.31086840579325631 0 0.10622170970645189 -0.29895353846799488 0 0.1134387524627216 -0.31086840579325631 0 0.1198701537204314 -0.30089140532399938 0 0.1265219532001009 -0.3124330460259736 0 0.1134387524627216 -0.31086840579325631 0 0.1198701537204314 -0.30089140532399938 0 0.1265219532001009 -0.3124330460259736 0 0.1134387524627216 -0.31086840579325631 0 0.1192961391526948 -0.32261879728377291 0 0.1134387524627216 -0.31086840579325631 0 0.1192961391526948 -0.32261879728377291 0 0.1082288303285789 -0.31948708523568958 0 0.1192961391526948 -0.32261879728377291 0 0.1093748658769356 -0.32997486192450581 0 0.1082288303285789 -0.31948708523568958 0 0.1192961391526948 -0.32261879728377291 0 0.1168506625355451 -0.3296807312869221 0 0.1093748658769356 -0.32997486192450581 0 0.1192961391526948 -0.32261879728377291 0 0.12260601330919629 -0.33072698382653798 0 0.1168506625355451 -0.3296807312869221 0 0.13219802669416811 -0.32498852212276208 0 0.1192961391526948 -0.32261879728377291 0 0.12260601330919629 -0.33072698382653798 0 0.13051916655351839 -0.33696304048325831 0 0.12260601330919629 -0.33072698382653798 0 0.1159240811174677 -0.33775964177068091 0 0.12260601330919629 -0.33072698382653798 0 0.1159240811174677 -0.33775964177068091 0 0.1161256318033537 -0.33540228211287182 0 0.12260601330919629 -0.33072698382653798 0 0.1168506625355451 -0.3296807312869221 0 0.1161256318033537 -0.33540228211287182 0 0.13051916655351839 -0.33696304048325831 0 0.1159240811174677 -0.33775964177068091 0 0.13051916655351839 -0.33696304048325831 0 0.1159240811174677 -0.33775964177068091 0 0.123981461538115 -0.35128285539313481 0 0.1159240811174677 -0.33775964177068091 0 0.1161256318033537 -0.33540228211287182 0 0.1168506625355451 -0.3296807312869221 0 0.1161256318033537 -0.33540228211287182 0 0.1093748658769356 -0.32997486192450581 0 0.1159240811174677 -0.33775964177068091 0 0.1161256318033537 -0.33540228211287182 0 0.1093748658769356 -0.32997486192450581 0 0.1159240811174677 -0.33775964177068091 0 0.092335912071574502 -0.33904708650077298 0 0.1159240811174677 -0.33775964177068091 0 0.1093748658769356 -0.32997486192450581 0 0.092335912071574502 -0.33904708650077298 0 0.1093748658769356 -0.32997486192450581 0 0.096347407600029022 -0.32440529872184809 0 0.092335912071574502 -0.33904708650077298 0 0.1159240811174677 -0.33775964177068091 0 0.10211321446004019 -0.35101158716873732 0 0.092335912071574502 -0.33904708650077298 0 0.086214248119208581 -0.31193359067875348 0 0.10049372866807189 -0.31082656242210721 0 0.096347407600029022 -0.32440529872184809 0 0.10049372866807189 -0.31082656242210721 0 0.1134387524627216 -0.31086840579325631 0 0.1082288303285789 -0.31948708523568958 0 0.10049372866807189 -0.31082656242210721 0 0.096347407600029022 -0.32440529872184809 0 0.1082288303285789 -0.31948708523568958 0 0.1093748658769356 -0.32997486192450581 0 0.096347407600029022 -0.32440529872184809 0 0.1082288303285789 -0.31948708523568958 0 0.12784456261830821 -0.36308533366748658 0 0.12609635470998201 -0.38402791619100712 0 0.113745377556003 -0.36324200547299851 0 0.1159240811174677 -0.33775964177068091 0 0.113745377556003 -0.36324200547299851 0 0.123981461538115 -0.35128285539313481 0 0.1159240811174677 -0.33775964177068091 0 0.113745377556003 -0.36324200547299851 0 0.1159240811174677 -0.33775964177068091 0 0.113745377556003 -0.36324200547299851 0 0.10211321446004019 -0.35101158716873732 0 0.12784456261830821 -0.36308533366748658 0 0.113745377556003 -0.36324200547299851 0 0.123981461538115 -0.35128285539313481 0 0.1115666739945345 -0.38872436917531578 0 0.113745377556003 -0.36324200547299851 0 0.096372132326470572 -0.36542491223168638 0 0.113745377556003 -0.36324200547299851 0 0.10211321446004019 -0.35101158716873732 0 0.096372132326470572 -0.36542491223168638 0 0.089853218628298884 -0.38394717958202601 0 0.096372132326470572 -0.36542491223168638 0 0.07582030708563034 -0.37256671738353597 0 0.096372132326470572 -0.36542491223168638 0 0.082110249222110576 -0.35466523699539548 0 0.07582030708563034 -0.37256671738353597 0 0.10211321446004019 -0.35101158716873732 0 0.096372132326470572 -0.36542491223168638 0 0.082110249222110576 -0.35466523699539548 0 0.082110249222110576 -0.35466523699539548 0 0.092335912071574502 -0.33904708650077298 0 0.068747743025681235 -0.34033453123086538 0 0.10211321446004019 -0.35101158716873732 0 0.082110249222110576 -0.35466523699539548 0 0.092335912071574502 -0.33904708650077298 0 0.082110249222110576 -0.35466523699539548 0 0.068747743025681235 -0.34033453123086538 0 0.057272186363266697 -0.35960658745677498 0 0.082110249222110576 -0.35466523699539548 0 0.07582030708563034 -0.37256671738353597 0 0.057272186363266697 -0.35960658745677498 0 0.05933500968155693 -0.37671477575793533 0 0.07582030708563034 -0.37256671738353597 0 0.057272186363266697 -0.35960658745677498 0 0.086214248119208581 -0.31193359067875348 0 0.096347407600029022 -0.32440529872184809 0 0.078030795921920637 -0.32434601069550512 0 0.092335912071574502 -0.33904708650077298 0 0.068747743025681235 -0.34033453123086538 0 0.078030795921920637 -0.32434601069550512 0 0.092335912071574502 -0.33904708650077298 0 0.068747743025681235 -0.34033453123086538 0 0.096347407600029022 -0.32440529872184809 0 0.092335912071574502 -0.33904708650077298 0 0.078030795921920637 -0.32434601069550512 0 0.068747743025681235 -0.34033453123086538 0 0.078030795921920637 -0.32434601069550512 0 0.053863538987460123 -0.3232816795844588 0 0.069967983226982527 -0.30495776272600778 0 0.078030795921920637 -0.32434601069550512 0 0.053863538987460123 -0.3232816795844588 0 0.086214248119208581 -0.31193359067875348 0 0.069967983226982527 -0.30495776272600778 0 0.078030795921920637 -0.32434601069550512 0 0.068747743025681235 -0.34033453123086538 0 0.045159573979787898 -0.34162197596095778 0 0.068747743025681235 -0.34033453123086538 0 0.053863538987460123 -0.3232816795844588 0 0.045159573979787898 -0.34162197596095778 0 0.053863538987460123 -0.3232816795844588 0 0.034832013842728909 -0.33032259781876938 0 0.045159573979787898 -0.34162197596095778 0 0.034832013842728909 -0.33032259781876938 0 0.045159573979787898 -0.34162197596095778 0 0.02157140493389462 -0.34290942069105018 0 0.045159573979787898 -0.34162197596095778 0 0.02157140493389462 -0.34290942069105018 0 0.053863538987460123 -0.3232816795844588 0 0.034832013842728909 -0.33032259781876938 0 0.03621734991660093 -0.31670946998547028 0 0.053863538987460123 -0.3232816795844588 0 0.03621734991660093 -0.31670946998547028 0 0.048768037075517537 -0.30442990221103089 0 0.05933500968155693 -0.37671477575793533 0 0.057272186363266697 -0.35960658745677498 0 0.039079294002052851 -0.37065651216905859 0 0.068747743025681235 -0.34033453123086538 0 0.045159573979787898 -0.34162197596095778 0 0.057272186363266697 -0.35960658745677498 0 0.045159573979787898 -0.34162197596095778 0 0.034512899630155462 -0.3545258348651717 0 0.02157140493389462 -0.34290942069105018 0 0.045159573979787898 -0.34162197596095778 0 0.057272186363266697 -0.35960658745677498 0 0.034512899630155462 -0.3545258348651717 0 0.057272186363266697 -0.35960658745677498 0 0.034512899630155462 -0.3545258348651717 0 0.039079294002052851 -0.37065651216905859 0 0.025542853711361019 -0.38384675294920401 0 0.039079294002052851 -0.37065651216905859 0 0.016784443680880379 -0.36713146693108112 0 0.034512899630155462 -0.3545258348651717 0 0.039079294002052851 -0.37065651216905859 0 0.016784443680880379 -0.36713146693108112 0 0.034512899630155462 -0.3545258348651717 0 0.016784443680880379 -0.36713146693108112 0 0.02157140493389462 -0.34290942069105018 0 -0.0043130761299947744 -0.35643483176966217 0 0.016784443680880379 -0.36713146693108112 0 0.02157140493389462 -0.34290942069105018 0 -0.0038616663111063101 -0.33241552487502413 0 -0.0043130761299947744 -0.35643483176966217 0 0.02157140493389462 -0.34290942069105018 0 -0.0043130761299947744 -0.35643483176966217 0 -0.0064694903547723136 -0.38059021958606692 0 0.016784443680880379 -0.36713146693108112 0 0.03621734991660093 -0.31670946998547028 0 0.020048637459846991 -0.32439583124448262 0 0.029165048793799431 -0.30349547286963757 0 0.034832013842728909 -0.33032259781876938 0 0.03621734991660093 -0.31670946998547028 0 0.020048637459846991 -0.32439583124448262 0 0.020048637459846991 -0.32439583124448262 0 0.0094652366165251054 -0.31053241408104548 0 0.029165048793799431 -0.30349547286963757 0 0.034832013842728909 -0.33032259781876938 0 0.020048637459846991 -0.32439583124448262 0 0.02157140493389462 -0.34290942069105018 0 -0.0038616663111063101 -0.33241552487502413 0 0.020048637459846991 -0.32439583124448262 0 0.02157140493389462 -0.34290942069105018 0 -0.0038616663111063101 -0.33241552487502413 0 0.020048637459846991 -0.32439583124448262 0 0.0094652366165251054 -0.31053241408104548 0 -0.01007927323019326 -0.3103345258507364 0 0.0094652366165251054 -0.31053241408104548 0 0.0017563221397047381 -0.2997067901486577 0 0.0094652366165251054 -0.31053241408104548 0 0.0017563221397047381 -0.2997067901486577 0 0.017453688627786131 -0.29322190620108468 0 0.0017563221397047381 -0.2997067901486577 0 0.0066437179820165657 -0.2861171845936395 0 0.017453688627786131 -0.29322190620108468 0 -0.0080748459131490501 -0.2914060437848453 0 0.0017563221397047381 -0.2997067901486577 0 0.0066437179820165657 -0.2861171845936395 0 0.0066437179820165657 -0.2861171845936395 0 0.017453688627786131 -0.29322190620108468 0 0.01908241754038794 -0.28073467218482329 0 0.017453688627786131 -0.29322190620108468 0 0.029398966714908509 -0.28692964748338379 0 0.029165048793799431 -0.30349547286963757 0 0.017453688627786131 -0.29322190620108468 0 0.029398966714908509 -0.28692964748338379 0 0.01908241754038794 -0.28073467218482329 0 0.0094652366165251054 -0.31053241408104548 0 0.017453688627786131 -0.29322190620108468 0 0.029165048793799431 -0.30349547286963757 0 0.03621734991660093 -0.31670946998547028 0 0.029165048793799431 -0.30349547286963757 0 0.048768037075517537 -0.30442990221103089 0 0.029165048793799431 -0.30349547286963757 0 0.043029943860180789 -0.28970337243015992 0 0.048768037075517537 -0.30442990221103089 0 0.029398966714908509 -0.28692964748338379 0 0.029165048793799431 -0.30349547286963757 0 0.043029943860180789 -0.28970337243015992 0 0.029398966714908509 -0.28692964748338379 0 0.043029943860180789 -0.28970337243015992 0 0.038396769586432553 -0.27977596087564799 0 0.043029943860180789 -0.28970337243015992 0 0.051749435803858171 -0.27840569125857739 0 0.038396769586432553 -0.27977596087564799 0 0.043029943860180789 -0.28970337243015992 0 0.059449054433483903 -0.28956707473318272 0 0.051749435803858171 -0.27840569125857739 0 0.043029943860180789 -0.28970337243015992 0 0.059449054433483903 -0.28956707473318272 0 0.048768037075517537 -0.30442990221103089 0 0.069967983226982527 -0.30495776272600778 0 0.059449054433483903 -0.28956707473318272 0 0.048768037075517537 -0.30442990221103089 0 0.069967983226982527 -0.30495776272600778 0 0.053863538987460123 -0.3232816795844588 0 0.048768037075517537 -0.30442990221103089 0 0.053380735395516472 -0.25867595766617779 0 0.04428054005230446 -0.26275141268032309 0 0.045372505498807933 -0.25408090721008542 0 0.053380735395516472 -0.25867595766617779 0 0.053158010572478251 -0.26777612517812432 0 0.04428054005230446 -0.26275141268032309 0 0.053380735395516472 -0.25867595766617779 0 0.045372505498807933 -0.25408090721008542 0 0.05268811686830014 -0.24901610311096159 0 0.053380735395516472 -0.25867595766617779 0 0.061490933840310687 -0.25382890142296882 0 0.05268811686830014 -0.24901610311096159 0 0.053380735395516472 -0.25867595766617779 0 0.060614126731859473 -0.2624009925450973 0 0.053158010572478251 -0.26777612517812432 0 0.053380735395516472 -0.25867595766617779 0 0.061490933840310687 -0.25382890142296882 0 0.060614126731859473 -0.2624009925450973 0 0.0646939085167762 -0.2722383315448984 0 0.060614126731859473 -0.2624009925450973 0 0.053158010572478251 -0.26777612517812432 0 0.0646939085167762 -0.2722383315448984 0 0.059449054433483903 -0.28956707473318272 0 0.051749435803858171 -0.27840569125857739 0 0.0646939085167762 -0.2722383315448984 0 0.051749435803858171 -0.27840569125857739 0 0.053158010572478251 -0.26777612517812432 0 0.053158010572478251 -0.26777612517812432 0 0.044229316934554799 -0.27218436537367241 0 0.04428054005230446 -0.26275141268032309 0 0.051749435803858171 -0.27840569125857739 0 0.053158010572478251 -0.26777612517812432 0 0.044229316934554799 -0.27218436537367241 0 0.044229316934554799 -0.27218436537367241 0 0.031885251388666561 -0.26470215361104171 0 0.04428054005230446 -0.26275141268032309 0 0.051749435803858171 -0.27840569125857739 0 0.044229316934554799 -0.27218436537367241 0 0.038396769586432553 -0.27977596087564799 0 0.044229316934554799 -0.27218436537367241 0 0.038396769586432553 -0.27977596087564799 0 0.029696712261103771 -0.27487286106778819 0 0.029398966714908509 -0.28692964748338379 0 0.038396769586432553 -0.27977596087564799 0 0.029696712261103771 -0.27487286106778819 0 0.044229316934554799 -0.27218436537367241 0 0.031885251388666561 -0.26470215361104171 0 0.029696712261103771 -0.27487286106778819 0 0.037315510146954597 -0.25849363249326118 0 0.031885251388666561 -0.26470215361104171 0 0.04428054005230446 -0.26275141268032309 0 0.037315510146954597 -0.25849363249326118 0 0.031885251388666561 -0.26470215361104171 0 0.03069464768829987 -0.25176037071845259 0 0.037315510146954597 -0.25849363249326118 0 0.04428054005230446 -0.26275141268032309 0 0.045372505498807933 -0.25408090721008542 0 0.045372505498807933 -0.25408090721008542 0 0.03069464768829987 -0.25176037071845259 0 0.042588116356466379 -0.2448823624008481 0 0.037315510146954597 -0.25849363249326118 0 0.045372505498807933 -0.25408090721008542 0 0.03069464768829987 -0.25176037071845259 0 0.031885251388666561 -0.26470215361104171 0 0.021199614426200629 -0.26114166245967918 0 0.019908913466960752 -0.27058631964059482 0 0.031885251388666561 -0.26470215361104171 0 0.03069464768829987 -0.25176037071845259 0 0.021199614426200629 -0.26114166245967918 0 0.03069464768829987 -0.25176037071845259 0 0.021199614426200629 -0.26114166245967918 0 0.016145176335298529 -0.25210595968411048 0 0.029398966714908509 -0.28692964748338379 0 0.029696712261103771 -0.27487286106778819 0 0.01908241754038794 -0.28073467218482329 0 0.031885251388666561 -0.26470215361104171 0 0.029696712261103771 -0.27487286106778819 0 0.019908913466960752 -0.27058631964059482 0 0.019908913466960752 -0.27058631964059482 0 0.01908241754038794 -0.28073467218482329 0 0.01128192931255503 -0.27464126756021451 0 0.029696712261103771 -0.27487286106778819 0 0.019908913466960752 -0.27058631964059482 0 0.01908241754038794 -0.28073467218482329 0 -0.01145854626600548 -0.26602311564559261 0 0.01128192931255503 -0.27464126756021451 0 0.0057158633005241696 -0.26337829885565528 0 0.0066437179820165657 -0.2861171845936395 0 0.01908241754038794 -0.28073467218482329 0 0.01128192931255503 -0.27464126756021451 0 0.019908913466960752 -0.27058631964059482 0 0.01128192931255503 -0.27464126756021451 0 0.0057158633005241696 -0.26337829885565528 0 -0.002848760243290064 -0.27761611820401882 0 0.0066437179820165657 -0.2861171845936395 0 0.01128192931255503 -0.27464126756021451 0 0.016145176335298529 -0.25210595968411048 0 0.0057158633005241696 -0.26337829885565528 0 0.0054759062840018038 -0.25064707341720888 0 0.021199614426200629 -0.26114166245967918 0 0.019908913466960752 -0.27058631964059482 0 0.0057158633005241696 -0.26337829885565528 0 0.021199614426200629 -0.26114166245967918 0 0.016145176335298529 -0.25210595968411048 0 0.0057158633005241696 -0.26337829885565528 0 -0.0009620894167222515 -0.25496392916579452 0 0.0057158633005241696 -0.26337829885565528 0 0.0054759062840018038 -0.25064707341720888 0 -0.0009620894167222515 -0.25496392916579452 0 -0.0029313858115674811 -0.24854412401401971 0 0.0054759062840018038 -0.25064707341720888 0 0.0054759062840018038 -0.25064707341720888 0 0.0026199421412959989 -0.2430643023623929 0 0.011589873569895199 -0.24127835128668559 0 -0.0029313858115674811 -0.24854412401401971 0 0.0054759062840018038 -0.25064707341720888 0 0.0026199421412959989 -0.2430643023623929 0 0.016145176335298529 -0.25210595968411048 0 0.0054759062840018038 -0.25064707341720888 0 0.011589873569895199 -0.24127835128668559 0 0.011589873569895199 -0.24127835128668559 0 0.010668172172219499 -0.2272828987723072 0 0.020574075722817331 -0.2351284197632682 0 0.0026199421412959989 -0.2430643023623929 0 0.011589873569895199 -0.24127835128668559 0 0.0017465435191736189 -0.23378549097037141 0 -0.00080535468136348092 -0.21995366459000901 0 0.010668172172219499 -0.2272828987723072 0 0.01016515501406726 -0.20926501301563591 0 -0.00080535468136348092 -0.21995366459000901 0 0.0017465435191736189 -0.23378549097037141 0 0.010668172172219499 -0.2272828987723072 0 0.010668172172219499 -0.2272828987723072 0 0.02170661161633574 -0.22145314359659171 0 0.01016515501406726 -0.20926501301563591 0 0.011589873569895199 -0.24127835128668559 0 0.0017465435191736189 -0.23378549097037141 0 0.010668172172219499 -0.2272828987723072 0 0.010668172172219499 -0.2272828987723072 0 0.02170661161633574 -0.22145314359659171 0 0.020574075722817331 -0.2351284197632682 0 0.02170661161633574 -0.22145314359659171 0 0.02866695829179056 -0.22960637228307629 0 0.036392787169896093 -0.22322562645731159 0 0.02170661161633574 -0.22145314359659171 0 0.02866695829179056 -0.22960637228307629 0 0.020574075722817331 -0.2351284197632682 0 0.02866695829179056 -0.22960637228307629 0 0.020574075722817331 -0.2351284197632682 0 0.032071787069821417 -0.24054619649286721 0 0.022195152742869501 -0.2444300013669817 0 0.020574075722817331 -0.2351284197632682 0 0.032071787069821417 -0.24054619649286721 0 0.03069464768829987 -0.25176037071845259 0 0.022195152742869501 -0.2444300013669817 0 0.032071787069821417 -0.24054619649286721 0 0.03069464768829987 -0.25176037071845259 0 0.016145176335298529 -0.25210595968411048 0 0.022195152742869501 -0.2444300013669817 0 0.016145176335298529 -0.25210595968411048 0 0.011589873569895199 -0.24127835128668559 0 0.022195152742869501 -0.2444300013669817 0 0.011589873569895199 -0.24127835128668559 0 0.022195152742869501 -0.2444300013669817 0 0.020574075722817331 -0.2351284197632682 0 -0.003739977245034012 -0.19168309442994089 0 0.010514116253606281 -0.1925853606064957 0 0.01016515501406726 -0.20926501301563591 0 0.010514116253606281 -0.1925853606064957 0 0.01016515501406726 -0.20926501301563591 0 0.018596641755985681 -0.20049862993462389 0 0.02170661161633574 -0.22145314359659171 0 0.01016515501406726 -0.20926501301563591 0 0.028304225500431591 -0.20785134554231141 0 0.01016515501406726 -0.20926501301563591 0 0.028304225500431591 -0.20785134554231141 0 0.018596641755985681 -0.20049862993462389 0 0.02170661161633574 -0.22145314359659171 0 0.028304225500431591 -0.20785134554231141 0 0.036392787169896093 -0.22322562645731159 0 0.028304225500431591 -0.20785134554231141 0 0.018596641755985681 -0.20049862993462389 0 0.02540307025583758 -0.19229280057405279 0 0.010514116253606281 -0.1925853606064957 0 0.018596641755985681 -0.20049862993462389 0 0.02540307025583758 -0.19229280057405279 0 0.010514116253606281 -0.1925853606064957 0 0.02540307025583758 -0.19229280057405279 0 0.015764016274472759 -0.1812646672695073 0 0.02540307025583758 -0.19229280057405279 0 0.041440672425083092 -0.19607701236864419 0 0.030421272951226121 -0.1778391783376792 0 0.028304225500431591 -0.20785134554231141 0 0.02540307025583758 -0.19229280057405279 0 0.041440672425083092 -0.19607701236864419 0 0.041440672425083092 -0.19607701236864419 0 0.042310424588804782 -0.2140630995529598 0 0.055497750511994078 -0.2086068857692274 0 0.028304225500431591 -0.20785134554231141 0 0.041440672425083092 -0.19607701236864419 0 0.042310424588804782 -0.2140630995529598 0 0.028304225500431591 -0.20785134554231141 0 0.042310424588804782 -0.2140630995529598 0 0.036392787169896093 -0.22322562645731159 0 0.042310424588804782 -0.2140630995529598 0 0.055497750511994078 -0.2086068857692274 0 0.052955454276687589 -0.2198291654371925 0 0.062338921595789062 -0.21792006704763969 0 0.055497750511994078 -0.2086068857692274 0 0.052955454276687589 -0.2198291654371925 0 0.062338921595789062 -0.21792006704763969 0 0.055497750511994078 -0.2086068857692274 0 0.067863046951983474 -0.20503048868511209 0 0.055497750511994078 -0.2086068857692274 0 0.056257937900538298 -0.19577788601322099 0 0.067863046951983474 -0.20503048868511209 0 0.041440672425083092 -0.19607701236864419 0 0.056257937900538298 -0.19577788601322099 0 0.051449240160577621 -0.1762857105508405 0 0.041440672425083092 -0.19607701236864419 0 0.055497750511994078 -0.2086068857692274 0 0.056257937900538298 -0.19577788601322099 0 0.040491861427302538 -0.2355872617630255 0 0.042588116356466379 -0.2448823624008481 0 0.052307832003780613 -0.23884346229351339 0 0.040491861427302538 -0.2355872617630255 0 0.045866106706223042 -0.22907627795895011 0 0.052307832003780613 -0.23884346229351339 0 0.03069464768829987 -0.25176037071845259 0 0.042588116356466379 -0.2448823624008481 0 0.032071787069821417 -0.24054619649286721 0 0.040491861427302538 -0.2355872617630255 0 0.042588116356466379 -0.2448823624008481 0 0.032071787069821417 -0.24054619649286721 0 0.02866695829179056 -0.22960637228307629 0 0.040491861427302538 -0.2355872617630255 0 0.032071787069821417 -0.24054619649286721 0 0.02866695829179056 -0.22960637228307629 0 0.040491861427302538 -0.2355872617630255 0 0.036392787169896093 -0.22322562645731159 0 0.042310424588804782 -0.2140630995529598 0 0.036392787169896093 -0.22322562645731159 0 0.045866106706223042 -0.22907627795895011 0 0.040491861427302538 -0.2355872617630255 0 0.036392787169896093 -0.22322562645731159 0 0.045866106706223042 -0.22907627795895011 0 0.045866106706223042 -0.22907627795895011 0 0.058764067980626958 -0.22947949685718549 0 0.052307832003780613 -0.23884346229351339 0 0.045866106706223042 -0.22907627795895011 0 0.052955454276687589 -0.2198291654371925 0 0.058764067980626958 -0.22947949685718549 0 0.042310424588804782 -0.2140630995529598 0 0.045866106706223042 -0.22907627795895011 0 0.052955454276687589 -0.2198291654371925 0 0.062338921595789062 -0.21792006704763969 0 0.058764067980626958 -0.22947949685718549 0 0.065719467571416057 -0.22489822263154319 0 0.062338921595789062 -0.21792006704763969 0 0.052955454276687589 -0.2198291654371925 0 0.058764067980626958 -0.22947949685718549 0 0.058764067980626958 -0.22947949685718549 0 0.062159259289524899 -0.2368834247622158 0 0.052307832003780613 -0.23884346229351339 0 0.062159259289524899 -0.2368834247622158 0 0.052307832003780613 -0.23884346229351339 0 0.061229972926465738 -0.2445427902389527 0 0.045372505498807933 -0.25408090721008542 0 0.042588116356466379 -0.2448823624008481 0 0.05268811686830014 -0.24901610311096159 0 0.042588116356466379 -0.2448823624008481 0 0.052307832003780613 -0.23884346229351339 0 0.05268811686830014 -0.24901610311096159 0 0.061490933840310687 -0.25382890142296882 0 0.05268811686830014 -0.24901610311096159 0 0.061229972926465738 -0.2445427902389527 0 0.052307832003780613 -0.23884346229351339 0 0.05268811686830014 -0.24901610311096159 0 0.061229972926465738 -0.2445427902389527 0 0.061490933840310687 -0.25382890142296882 0 0.061229972926465738 -0.2445427902389527 0 0.070069103552599196 -0.24823964670048029 0 0.061229972926465738 -0.2445427902389527 0 0.070069103552599196 -0.24823964670048029 0 0.069856411684105391 -0.23913895996007839 0 0.062159259289524899 -0.2368834247622158 0 0.061229972926465738 -0.2445427902389527 0 0.069856411684105391 -0.23913895996007839 0 0.062159259289524899 -0.2368834247622158 0 0.069856411684105391 -0.23913895996007839 0 0.067142239376285745 -0.23139328163069281 0 0.069856411684105391 -0.23913895996007839 0 0.077788170153509889 -0.24196191377257101 0 0.076767606518392539 -0.23187249677345001 0 0.080071368274292315 -0.25145738896057979 0 0.070069103552599196 -0.24823964670048029 0 0.077788170153509889 -0.24196191377257101 0 0.070069103552599196 -0.24823964670048029 0 0.069856411684105391 -0.23913895996007839 0 0.077788170153509889 -0.24196191377257101 0 0.080071368274292315 -0.25145738896057979 0 0.090706365013478091 -0.25245448435890872 0 0.085906732882507178 -0.24385162082211831 0 0.080071368274292315 -0.25145738896057979 0 0.077788170153509889 -0.24196191377257101 0 0.085906732882507178 -0.24385162082211831 0 0.077788170153509889 -0.24196191377257101 0 0.085906732882507178 -0.24385162082211831 0 0.083256636250354649 -0.23616880796388259 0 0.077788170153509889 -0.24196191377257101 0 0.083256636250354649 -0.23616880796388259 0 0.076767606518392539 -0.23187249677345001 0 0.085906732882507178 -0.24385162082211831 0 0.089657973372422345 -0.23730775202069579 0 0.094006026236525903 -0.2441335510050745 0 0.085906732882507178 -0.24385162082211831 0 0.083256636250354649 -0.23616880796388259 0 0.089657973372422345 -0.23730775202069579 0 0.083256636250354649 -0.23616880796388259 0 0.089657973372422345 -0.23730775202069579 0 0.089763789457938253 -0.2306791647953326 0 0.089657973372422345 -0.23730775202069579 0 0.089763789457938253 -0.2306791647953326 0 0.096012267649498176 -0.23702186761809721 0 0.089657973372422345 -0.23730775202069579 0 0.094006026236525903 -0.2441335510050745 0 0.096012267649498176 -0.23702186761809721 0 0.090706365013478091 -0.25245448435890872 0 0.085906732882507178 -0.24385162082211831 0 0.094006026236525903 -0.2441335510050745 0 0.086446736705125371 -0.22420087797706609 0 0.091303359373345411 -0.22339335178318359 0 0.089763789457938253 -0.2306791647953326 0 0.086446736705125371 -0.22420087797706609 0 0.091303359373345411 -0.22339335178318359 0 0.086853981468707001 -0.2185547472363609 0 0.091303359373345411 -0.22339335178318359 0 0.086853981468707001 -0.2185547472363609 0 0.09077468002378962 -0.21857675351640271 0 0.091303359373345411 -0.22339335178318359 0 0.09077468002378962 -0.21857675351640271 0 0.094530837428433365 -0.22086489816084981 0 0.091303359373345411 -0.22339335178318359 0 0.089763789457938253 -0.2306791647953326 0 0.098670227838192195 -0.22970514568366851 0 0.086446736705125371 -0.22420087797706609 0 0.089763789457938253 -0.2306791647953326 0 0.083020570332336119 -0.22791650227557511 0 0.083256636250354649 -0.23616880796388259 0 0.083020570332336119 -0.22791650227557511 0 0.076767606518392539 -0.23187249677345001 0 0.083256636250354649 -0.23616880796388259 0 0.089763789457938253 -0.2306791647953326 0 0.083020570332336119 -0.22791650227557511 0 0.083020570332336119 -0.22791650227557511 0 0.077930889523722374 -0.22519622511208121 0 0.076767606518392539 -0.23187249677345001 0 0.083020570332336119 -0.22791650227557511 0 0.081291982893300085 -0.22046062379487821 0 0.077930889523722374 -0.22519622511208121 0 0.086446736705125371 -0.22420087797706609 0 0.083020570332336119 -0.22791650227557511 0 0.081291982893300085 -0.22046062379487821 0 0.086446736705125371 -0.22420087797706609 0 0.081291982893300085 -0.22046062379487821 0 0.086853981468707001 -0.2185547472363609 0 0.081291982893300085 -0.22046062379487821 0 0.077930889523722374 -0.22519622511208121 0 0.073706539318973169 -0.21796036257100029 0 0.072234091795087663 -0.22574485878751241 0 0.065719467571416057 -0.22489822263154319 0 0.073706539318973169 -0.21796036257100029 0 0.077930889523722374 -0.22519622511208121 0 0.072234091795087663 -0.22574485878751241 0 0.073706539318973169 -0.21796036257100029 0 0.069856411684105391 -0.23913895996007839 0 0.076767606518392539 -0.23187249677345001 0 0.067142239376285745 -0.23139328163069281 0 0.072234091795087663 -0.22574485878751241 0 0.076767606518392539 -0.23187249677345001 0 0.067142239376285745 -0.23139328163069281 0 0.077930889523722374 -0.22519622511208121 0 0.072234091795087663 -0.22574485878751241 0 0.076767606518392539 -0.23187249677345001 0 0.058764067980626958 -0.22947949685718549 0 0.062159259289524899 -0.2368834247622158 0 0.067142239376285745 -0.23139328163069281 0 0.058764067980626958 -0.22947949685718549 0 0.067142239376285745 -0.23139328163069281 0 0.065719467571416057 -0.22489822263154319 0 0.072234091795087663 -0.22574485878751241 0 0.067142239376285745 -0.23139328163069281 0 0.065719467571416057 -0.22489822263154319 0 0.062338921595789062 -0.21792006704763969 0 0.065719467571416057 -0.22489822263154319 0 0.073706539318973169 -0.21796036257100029 0 0.062338921595789062 -0.21792006704763969 0 0.067863046951983474 -0.20503048868511209 0 0.073706539318973169 -0.21796036257100029 0 0.067863046951983474 -0.20503048868511209 0 0.073706539318973169 -0.21796036257100029 0 0.079094442607528917 -0.20913243433380641 0 0.067863046951983474 -0.20503048868511209 0 0.081482512553192915 -0.1953056794767786 0 0.079094442607528917 -0.20913243433380641 0 0.056257937900538298 -0.19577788601322099 0 0.067863046951983474 -0.20503048868511209 0 0.066040058368007956 -0.18964665730407451 0 0.067863046951983474 -0.20503048868511209 0 0.066040058368007956 -0.18964665730407451 0 0.081482512553192915 -0.1953056794767786 0 0.081482512553192915 -0.1953056794767786 0 0.095454742848087734 -0.19451486061966669 0 0.093505174579280592 -0.1731787749771625 0 0.081482512553192915 -0.1953056794767786 0 0.08833530696517819 -0.21036332105093219 0 0.095454742848087734 -0.19451486061966669 0 0.08833530696517819 -0.21036332105093219 0 0.097404311116896569 -0.21585094626217091 0 0.095454742848087734 -0.19451486061966669 0 0.081291982893300085 -0.22046062379487821 0 0.073706539318973169 -0.21796036257100029 0 0.082946926161669862 -0.2149195339015407 0 0.082946926161669862 -0.2149195339015407 0 0.079094442607528917 -0.20913243433380641 0 0.08833530696517819 -0.21036332105093219 0 0.073706539318973169 -0.21796036257100029 0 0.082946926161669862 -0.2149195339015407 0 0.079094442607528917 -0.20913243433380641 0 0.081291982893300085 -0.22046062379487821 0 0.082946926161669862 -0.2149195339015407 0 0.086853981468707001 -0.2185547472363609 0 0.081482512553192915 -0.1953056794767786 0 0.079094442607528917 -0.20913243433380641 0 0.08833530696517819 -0.21036332105093219 0 0.082946926161669862 -0.2149195339015407 0 0.08833530696517819 -0.21036332105093219 0 0.086853981468707001 -0.2185547472363609 0 0.08833530696517819 -0.21036332105093219 0 0.086853981468707001 -0.2185547472363609 0 0.09077468002378962 -0.21857675351640271 0 0.08833530696517819 -0.21036332105093219 0 0.09077468002378962 -0.21857675351640271 0 0.092213447725184278 -0.21529843562297729 0 0.08833530696517819 -0.21036332105093219 0 0.092213447725184278 -0.21529843562297729 0 0.097404311116896569 -0.21585094626217091 0 0.09077468002378962 -0.21857675351640271 0 0.094501608789943028 -0.21679829355882299 0 0.094530837428433365 -0.22086489816084981 0 0.09077468002378962 -0.21857675351640271 0 0.092213447725184278 -0.21529843562297729 0 0.094501608789943028 -0.21679829355882299 0 0.094501608789943028 -0.21679829355882299 0 0.097404311116896569 -0.21585094626217091 0 0.094530837428433365 -0.22086489816084981 0 0.092213447725184278 -0.21529843562297729 0 0.094501608789943028 -0.21679829355882299 0 0.097404311116896569 -0.21585094626217091 0 0.097404311116896569 -0.21585094626217091 0 0.095454742848087734 -0.19451486061966669 0 0.097404311116896569 -0.21585094626217091 0 0.1059898830346106 -0.20430933332548051 0 0.095454742848087734 -0.19451486061966669 0 0.097404311116896569 -0.21585094626217091 0 0.1089347031997706 -0.21297733173581901 0 0.1146171121197104 -0.21980430615730401 0 0.097404311116896569 -0.21585094626217091 0 0.1059898830346106 -0.20430933332548051 0 0.1089347031997706 -0.21297733173581901 0 0.095454742848087734 -0.19451486061966669 0 0.1128143282819509 -0.19216489626002589 0 0.10772522460311169 -0.17968171223372481 0 0.1059898830346106 -0.20430933332548051 0 0.095454742848087734 -0.19451486061966669 0 0.1128143282819509 -0.19216489626002589 0 0.1128143282819509 -0.19216489626002589 0 0.1237689835273371 -0.19605207676116951 0 0.1178461100078927 -0.20838697738218431 0 0.1059898830346106 -0.20430933332548051 0 0.1128143282819509 -0.19216489626002589 0 0.1178461100078927 -0.20838697738218431 0 0.1128143282819509 -0.19216489626002589 0 0.1237689835273371 -0.19605207676116951 0 0.1232013989280239 -0.1819146573535104 0 0.1089347031997706 -0.21297733173581901 0 0.1178461100078927 -0.20838697738218431 0 0.1146171121197104 -0.21980430615730401 0 0.1059898830346106 -0.20430933332548051 0 0.1089347031997706 -0.21297733173581901 0 0.1178461100078927 -0.20838697738218431 0 0.1178461100078927 -0.20838697738218431 0 0.1146171121197104 -0.21980430615730401 0 0.12895394136930069 -0.22163642029703709 0 0.1146171121197104 -0.21980430615730401 0 0.12018370186474731 -0.23305432747703519 0 0.12895394136930069 -0.22163642029703709 0 0.097404311116896569 -0.21585094626217091 0 0.1146171121197104 -0.21980430615730401 0 0.12018370186474731 -0.23305432747703519 0 0.1212054647883809 -0.25073068226796852 0 0.12018370186474731 -0.23305432747703519 0 0.1059281586602189 -0.23527494890652931 0 0.13217397618885759 -0.25462043987800831 0 0.1212054647883809 -0.25073068226796852 0 0.12018370186474731 -0.23305432747703519 0 0.1212054647883809 -0.25073068226796852 0 0.1059281586602189 -0.23527494890652931 0 0.1078238037173969 -0.24832262031645649 0 0.1212054647883809 -0.25073068226796852 0 0.1059281586602189 -0.23527494890652931 0 0.099550463170151926 -0.25262580003909579 0 0.1078238037173969 -0.24832262031645649 0 0.10103467245524091 -0.24298905409433241 0 0.1059281586602189 -0.23527494890652931 0 0.1078238037173969 -0.24832262031645649 0 0.10103467245524091 -0.24298905409433241 0 0.099550463170151926 -0.25262580003909579 0 0.10103467245524091 -0.24298905409433241 0 0.094006026236525903 -0.2441335510050745 0 0.090706365013478091 -0.25245448435890872 0 0.099550463170151926 -0.25262580003909579 0 0.094006026236525903 -0.2441335510050745 0 0.1059281586602189 -0.23527494890652931 0 0.10103467245524091 -0.24298905409433241 0 0.096012267649498176 -0.23702186761809721 0 0.10103467245524091 -0.24298905409433241 0 0.094006026236525903 -0.2441335510050745 0 0.096012267649498176 -0.23702186761809721 0 0.1059281586602189 -0.23527494890652931 0 0.096012267649498176 -0.23702186761809721 0 0.098670227838192195 -0.22970514568366851 0 0.089763789457938253 -0.2306791647953326 0 0.096012267649498176 -0.23702186761809721 0 0.098670227838192195 -0.22970514568366851 0 0.097404311116896569 -0.21585094626217091 0 0.12018370186474731 -0.23305432747703519 0 0.097404311116896569 -0.21585094626217091 0 0.12018370186474731 -0.23305432747703519 0 0.1059281586602189 -0.23527494890652931 0 0.097404311116896569 -0.21585094626217091 0 0.1059281586602189 -0.23527494890652931 0 0.098670227838192195 -0.22970514568366851 0 0.091303359373345411 -0.22339335178318359 0 0.098670227838192195 -0.22970514568366851 0 0.094530837428433365 -0.22086489816084981 0 0.097404311116896569 -0.21585094626217091 0 0.098670227838192195 -0.22970514568366851 0 0.094530837428433365 -0.22086489816084981 0 0.097404311116896569 -0.21585094626217091 0 0.098670227838192195 -0.22970514568366851 0 0.1071373084330472 -0.14482826815459701 0 0.1035248479174861 -0.15311019857333261 0 0.098760878024456711 -0.14050656481393209 0 0.1071373084330472 -0.14482826815459701 0 0.1035248479174861 -0.15311019857333261 0 0.1121477659277255 -0.1503271840913511 0 0.1035248479174861 -0.15311019857333261 0 0.098760878024456711 -0.14050656481393209 0 0.091560400862706559 -0.15189516094014111 0 0.098760878024456711 -0.14050656481393209 0 0.099399694252258627 -0.1328638184600745 0 0.089615627146132512 -0.13061154690311971 0 0.099399694252258627 -0.1328638184600745 0 0.099525338641528904 -0.12611341339503321 0 0.089615627146132512 -0.13061154690311971 0 0.099525338641528904 -0.12611341339503321 0 0.1096969331969164 -0.13422374872821319 0 0.1121708616464093 -0.1216807098986791 0 0.099399694252258627 -0.1328638184600745 0 0.099525338641528904 -0.12611341339503321 0 0.1096969331969164 -0.13422374872821319 0 0.098760878024456711 -0.14050656481393209 0 0.099399694252258627 -0.1328638184600745 0 0.1096969331969164 -0.13422374872821319 0 0.1071373084330472 -0.14482826815459701 0 0.098760878024456711 -0.14050656481393209 0 0.1096969331969164 -0.13422374872821319 0 0.1096969331969164 -0.13422374872821319 0 0.1155243526086871 -0.14484298486410191 0 0.12532898621889721 -0.13663811256420449 0 0.1096969331969164 -0.13422374872821319 0 0.11997683785091839 -0.1276371159963853 0 0.12532898621889721 -0.13663811256420449 0 0.1096969331969164 -0.13422374872821319 0 0.11997683785091839 -0.1276371159963853 0 0.1121708616464093 -0.1216807098986791 0 0.1217036921304827 -0.1482443959076799 0 0.1155243526086871 -0.14484298486410191 0 0.12532898621889721 -0.13663811256420449 0 0.1217036921304827 -0.1482443959076799 0 0.1155243526086871 -0.14484298486410191 0 0.1179114041550178 -0.15136128022523329 0 0.1071373084330472 -0.14482826815459701 0 0.1155243526086871 -0.14484298486410191 0 0.1121477659277255 -0.1503271840913511 0 0.1071373084330472 -0.14482826815459701 0 0.1096969331969164 -0.13422374872821319 0 0.1155243526086871 -0.14484298486410191 0 0.1035248479174861 -0.15311019857333261 0 0.1121477659277255 -0.1503271840913511 0 0.1169082366172023 -0.15609331882735419 0 0.1155243526086871 -0.14484298486410191 0 0.1121477659277255 -0.1503271840913511 0 0.1179114041550178 -0.15136128022523329 0 0.1121477659277255 -0.1503271840913511 0 0.1169082366172023 -0.15609331882735419 0 0.1179114041550178 -0.15136128022523329 0 0.1169082366172023 -0.15609331882735419 0 0.1179114041550178 -0.15136128022523329 0 0.12324902196630889 -0.15465793599018671 0 0.1217036921304827 -0.1482443959076799 0 0.1179114041550178 -0.15136128022523329 0 0.12324902196630889 -0.15465793599018671 0 0.1217036921304827 -0.1482443959076799 0 0.12324902196630889 -0.15465793599018671 0 0.12831016946945831 -0.1492440347933528 0 0.1035248479174861 -0.15311019857333261 0 0.12443417021765769 -0.1709717485187108 0 0.1227471198665283 -0.15880086614903269 0 0.12098675462827781 -0.16200852072179159 0 0.1290045142054978 -0.1612372837293575 0 0.1035248479174861 -0.15311019857333261 0 0.12443417021765769 -0.1709717485187108 0 0.12083528946942131 -0.1711597280255607 0 0.1035248479174861 -0.15311019857333261 0 0.12098675462827781 -0.16200852072179159 0 0.12443417021765769 -0.1709717485187108 0 0.1035248479174861 -0.15311019857333261 0 0.1169082366172023 -0.15609331882735419 0 0.12098675462827781 -0.16200852072179159 0 0.1169082366172023 -0.15609331882735419 0 0.1227471198665283 -0.15880086614903269 0 0.12098675462827781 -0.16200852072179159 0 0.1169082366172023 -0.15609331882735419 0 0.12324902196630889 -0.15465793599018671 0 0.1227471198665283 -0.15880086614903269 0 0.12098675462827781 -0.16200852072179159 0 0.12443417021765769 -0.1709717485187108 0 0.12715697753007521 -0.16591248018761531 0 0.1128143282819509 -0.19216489626002589 0 0.1232013989280239 -0.1819146573535104 0 0.1157139550245927 -0.18029465614444529 0 0.12083528946942131 -0.1711597280255607 0 0.1232013989280239 -0.1819146573535104 0 0.1157139550245927 -0.18029465614444529 0 0.12443417021765769 -0.1709717485187108 0 0.12083528946942131 -0.1711597280255607 0 0.1232013989280239 -0.1819146573535104 0 0.12083528946942131 -0.1711597280255607 0 0.1157139550245927 -0.18029465614444529 0 0.10772522460311169 -0.17968171223372481 0 0.1128143282819509 -0.19216489626002589 0 0.1157139550245927 -0.18029465614444529 0 0.10772522460311169 -0.17968171223372481 0 0.095454742848087734 -0.19451486061966669 0 0.10772522460311169 -0.17968171223372481 0 0.093505174579280592 -0.1731787749771625 0 0.12083528946942131 -0.1711597280255607 0 0.093505174579280592 -0.1731787749771625 0 0.095454742848087734 -0.19451486061966669 0 0.093505174579280592 -0.1731787749771625 0 0.12083528946942131 -0.1711597280255607 0 0.10772522460311169 -0.17968171223372481 0 0.093505174579280592 -0.1731787749771625 0 0.1035248479174861 -0.15311019857333261 0 0.093505174579280592 -0.1731787749771625 0 0.091560400862706559 -0.15189516094014111 0 0.1035248479174861 -0.15311019857333261 0 0.12083528946942131 -0.1711597280255607 0 0.093505174579280592 -0.1731787749771625 0 0.078133883947979807 -0.15717501910519549 0 0.093505174579280592 -0.1731787749771625 0 0.091560400862706559 -0.15189516094014111 0 0.078133883947979807 -0.15717501910519549 0 0.093505174579280592 -0.1731787749771625 0 0.072477207369929117 -0.17473224276400179 0 0.093505174579280592 -0.1731787749771625 0 0.091560400862706559 -0.15189516094014111 0 0.081482512553192915 -0.1953056794767786 0 0.093505174579280592 -0.1731787749771625 0 0.072477207369929117 -0.17473224276400179 0 0.093505174579280592 -0.1731787749771625 0 0.072477207369929117 -0.17473224276400179 0 0.066040058368007956 -0.18964665730407451 0 0.072477207369929117 -0.17473224276400179 0 0.051449240160577621 -0.1762857105508405 0 0.066040058368007956 -0.18964665730407451 0 0.081482512553192915 -0.1953056794767786 0 0.072477207369929117 -0.17473224276400179 0 0.078133883947979807 -0.15717501910519549 0 0.072477207369929117 -0.17473224276400179 0 0.063878974636528515 -0.16401540189567099 0 0.072477207369929117 -0.17473224276400179 0 0.063878974636528515 -0.16401540189567099 0 0.051449240160577621 -0.1762857105508405 0 0.078133883947979807 -0.15717501910519549 0 0.063878974636528515 -0.16401540189567099 0 0.06522271263887458 -0.15305574504012881 0 0.06522271263887458 -0.15305574504012881 0 0.069316279952888193 -0.14186668388360371 0 0.075278834721760557 -0.14616760919767161 0 0.06522271263887458 -0.15305574504012881 0 0.069316279952888193 -0.14186668388360371 0 0.05757515479497001 -0.1486962131740798 0 0.069316279952888193 -0.14186668388360371 0 0.075278834721760557 -0.14616760919767161 0 0.079765110473415279 -0.13788087003968491 0 0.078133883947979807 -0.15717501910519549 0 0.06522271263887458 -0.15305574504012881 0 0.075278834721760557 -0.14616760919767161 0 0.098760878024456711 -0.14050656481393209 0 0.091560400862706559 -0.15189516094014111 0 0.089615627146132512 -0.13061154690311971 0 0.078133883947979807 -0.15717501910519549 0 0.083611330147541921 -0.14459745320402559 0 0.091560400862706559 -0.15189516094014111 0 0.091560400862706559 -0.15189516094014111 0 0.089615627146132512 -0.13061154690311971 0 0.078133883947979807 -0.15717501910519549 0 0.075278834721760557 -0.14616760919767161 0 0.083611330147541921 -0.14459745320402559 0 0.083611330147541921 -0.14459745320402559 0 0.091560400862706559 -0.15189516094014111 0 0.089615627146132512 -0.13061154690311971 0 0.075278834721760557 -0.14616760919767161 0 0.083611330147541921 -0.14459745320402559 0 0.079765110473415279 -0.13788087003968491 0 0.099525338641528904 -0.12611341339503321 0 0.089615627146132512 -0.13061154690311971 0 0.081894058627025895 -0.12584863130967919 0 0.083611330147541921 -0.14459745320402559 0 0.089615627146132512 -0.13061154690311971 0 0.079765110473415279 -0.13788087003968491 0 0.089615627146132512 -0.13061154690311971 0 0.079765110473415279 -0.13788087003968491 0 0.081894058627025895 -0.12584863130967919 0 0.081894058627025895 -0.12584863130967919 0 0.065576399090336079 -0.13067912082877309 0 0.057907204523981459 -0.13951585418161591 0 0.081894058627025895 -0.12584863130967919 0 0.057907204523981459 -0.13951585418161591 0 0.069316279952888193 -0.14186668388360371 0 0.081894058627025895 -0.12584863130967919 0 0.057907204523981459 -0.13951585418161591 0 0.081894058627025895 -0.12584863130967919 0 0.068207364780656948 -0.12563827965844471 0 0.065576399090336079 -0.13067912082877309 0 0.069316279952888193 -0.14186668388360371 0 0.079765110473415279 -0.13788087003968491 0 0.081894058627025895 -0.12584863130967919 0 0.068207364780656948 -0.12563827965844471 0 0.065576399090336079 -0.13067912082877309 0 0.054296968429680029 -0.13171371816535249 0 0.054296968429680029 -0.13171371816535249 0 0.057907204523981459 -0.13951585418161591 0 0.034849001543539322 -0.1503583031021323 0 0.054296968429680029 -0.13171371816535249 0 0.045553716665441668 -0.12681104972785159 0 0.052448498866582129 -0.1166826243517366 0 0.065576399090336079 -0.13067912082877309 0 0.054296968429680029 -0.13171371816535249 0 0.057907204523981459 -0.13951585418161591 0 0.069316279952888193 -0.14186668388360371 0 0.057907204523981459 -0.13951585418161591 0 0.05757515479497001 -0.1486962131740798 0 0.06522271263887458 -0.15305574504012881 0 0.05757515479497001 -0.1486962131740798 0 0.052111829065281459 -0.15882829201818821 0 0.046808539919221563 -0.15014413002933799 0 0.052111829065281459 -0.15882829201818821 0 0.043031393960321331 -0.1571354857308308 0 0.05757515479497001 -0.1486962131740798 0 0.046808539919221563 -0.15014413002933799 0 0.052111829065281459 -0.15882829201818821 0 0.057907204523981459 -0.13951585418161591 0 0.05757515479497001 -0.1486962131740798 0 0.046808539919221563 -0.15014413002933799 0 0.057907204523981459 -0.13951585418161591 0 0.046808539919221563 -0.15014413002933799 0 0.033920350420936912 -0.1531830770535528 0 0.057907204523981459 -0.13951585418161591 0 0.034849001543539322 -0.1503583031021323 0 0.033920350420936912 -0.1531830770535528 0 0.054296968429680029 -0.13171371816535249 0 0.034849001543539322 -0.1503583031021323 0 0.038558521200612962 -0.14006542407622449 0 0.054296968429680029 -0.13171371816535249 0 0.034849001543539322 -0.1503583031021323 0 0.057907204523981459 -0.13951585418161591 0 0.033920350420936912 -0.1531830770535528 0 0.046808539919221563 -0.15014413002933799 0 0.040219483271594643 -0.15466785876887121 0 0.033920350420936912 -0.1531830770535528 0 0.046808539919221563 -0.15014413002933799 0 0.040219483271594643 -0.15466785876887121 0 0.043031393960321331 -0.1571354857308308 0 0.040219483271594643 -0.15466785876887121 0 0.033920350420936912 -0.1531830770535528 0 0.037117648785898759 -0.15820874226176301 0 0.034849001543539322 -0.1503583031021323 0 0.031672068294339203 -0.14528428076340441 0 0.030051573782975471 -0.15027594372919439 0 0.034849001543539322 -0.1503583031021323 0 0.033920350420936912 -0.1531830770535528 0 0.030051573782975471 -0.15027594372919439 0 0.034849001543539322 -0.1503583031021323 0 0.031672068294339203 -0.14528428076340441 0 0.038558521200612962 -0.14006542407622449 0 0.031672068294339203 -0.14528428076340441 0 0.038558521200612962 -0.14006542407622449 0 0.030566093298411881 -0.13865773310914861 0 0.054296968429680029 -0.13171371816535249 0 0.038558521200612962 -0.14006542407622449 0 0.040644455285911409 -0.1338393175667463 0 0.038558521200612962 -0.14006542407622449 0 0.040644455285911409 -0.1338393175667463 0 0.030566093298411881 -0.13865773310914861 0 0.034824944079593127 -0.12500853882757099 0 0.040644455285911409 -0.1338393175667463 0 0.030566093298411881 -0.13865773310914861 0 0.034824944079593127 -0.12500853882757099 0 0.045553716665441668 -0.12681104972785159 0 0.040644455285911409 -0.1338393175667463 0 0.054296968429680029 -0.13171371816535249 0 0.045553716665441668 -0.12681104972785159 0 0.040644455285911409 -0.1338393175667463 0 0.072477207369929117 -0.17473224276400179 0 0.051449240160577621 -0.1762857105508405 0 0.056257937900538298 -0.19577788601322099 0 0.066040058368007956 -0.18964665730407451 0 0.051449240160577621 -0.1762857105508405 0 0.063878974636528515 -0.16401540189567099 0 0.051449240160577621 -0.1762857105508405 0 0.052111829065281459 -0.15882829201818821 0 0.051449240160577621 -0.1762857105508405 0 0.052111829065281459 -0.15882829201818821 0 0.040502396519655252 -0.1663673850483231 0 0.063878974636528515 -0.16401540189567099 0 0.06522271263887458 -0.15305574504012881 0 0.052111829065281459 -0.15882829201818821 0 0.043031393960321331 -0.1571354857308308 0 0.037117648785898759 -0.15820874226176301 0 0.040502396519655252 -0.1663673850483231 0 0.052111829065281459 -0.15882829201818821 0 0.043031393960321331 -0.1571354857308308 0 0.040502396519655252 -0.1663673850483231 0 0.040219483271594643 -0.15466785876887121 0 0.043031393960321331 -0.1571354857308308 0 0.037117648785898759 -0.15820874226176301 0 0.033920350420936912 -0.1531830770535528 0 0.033509818979212957 -0.15868168045615499 0 0.027465449436243041 -0.1628752445715565 0 0.037117648785898759 -0.15820874226176301 0 0.034071859908748191 -0.1623715567021686 0 0.040502396519655252 -0.1663673850483231 0 0.033920350420936912 -0.1531830770535528 0 0.037117648785898759 -0.15820874226176301 0 0.033509818979212957 -0.15868168045615499 0 0.037117648785898759 -0.15820874226176301 0 0.033509818979212957 -0.15868168045615499 0 0.034071859908748191 -0.1623715567021686 0 0.033509818979212957 -0.15868168045615499 0 0.034071859908748191 -0.1623715567021686 0 0.027465449436243041 -0.1628752445715565 0 0.031586668938662611 -0.1691709391612749 0 0.040502396519655252 -0.1663673850483231 0 0.030421272951226121 -0.1778391783376792 0 0.034071859908748191 -0.1623715567021686 0 0.031586668938662611 -0.1691709391612749 0 0.040502396519655252 -0.1663673850483231 0 0.051449240160577621 -0.1762857105508405 0 0.040502396519655252 -0.1663673850483231 0 0.030421272951226121 -0.1778391783376792 0 0.041440672425083092 -0.19607701236864419 0 0.051449240160577621 -0.1762857105508405 0 0.030421272951226121 -0.1778391783376792 0 0.051449240160577621 -0.1762857105508405 0 0.030421272951226121 -0.1778391783376792 0 0.02540307025583758 -0.19229280057405279 0 0.015764016274472759 -0.1812646672695073 0 0.030421272951226121 -0.1778391783376792 0 0.031586668938662611 -0.1691709391612749 0 0.030421272951226121 -0.1778391783376792 0 0.021575687727073561 -0.1734893605992324 0 0.015764016274472759 -0.1812646672695073 0 0.021575687727073561 -0.1734893605992324 0 0.012676990919703311 -0.16924925594887871 0 0.015764016274472759 -0.1812646672695073 0 0.030421272951226121 -0.1778391783376792 0 0.021575687727073561 -0.1734893605992324 0 0.033920350420936912 -0.1531830770535528 0 0.009933496317892726 -0.16685029992549011 0 0.02294500892830088 -0.1542832107784407 0 0.033920350420936912 -0.1531830770535528 0 0.027465449436243041 -0.1628752445715565 0 0.009933496317892726 -0.16685029992549011 0 0.019596439448784399 -0.16744493330375371 0 0.027465449436243041 -0.1628752445715565 0 0.009933496317892726 -0.16685029992549011 0 0.033920350420936912 -0.1531830770535528 0 0.009933496317892726 -0.16685029992549011 0 0.021575687727073561 -0.1734893605992324 0 0.019596439448784399 -0.16744493330375371 0 0.012676990919703311 -0.16924925594887871 0 0.021575687727073561 -0.1734893605992324 0 0.019596439448784399 -0.16744493330375371 0 0.025540403417393751 -0.1677775419388785 0 0.031586668938662611 -0.1691709391612749 0 0.021575687727073561 -0.1734893605992324 0 0.025540403417393751 -0.1677775419388785 0 0.019596439448784399 -0.16744493330375371 0 0.025540403417393751 -0.1677775419388785 0 0.027465449436243041 -0.1628752445715565 0 0.034071859908748191 -0.1623715567021686 0 0.031586668938662611 -0.1691709391612749 0 0.027465449436243041 -0.1628752445715565 0 0.031586668938662611 -0.1691709391612749 0 0.025540403417393751 -0.1677775419388785 0 0.027465449436243041 -0.1628752445715565 0 0.009933496317892726 -0.16685029992549011 0 0.01648447247354291 -0.15404273338364399 0 0.02294500892830088 -0.1542832107784407 0 0.009933496317892726 -0.16685029992549011 0 0.01648447247354291 -0.15404273338364399 0 0.0068311679390763679 -0.1533437069849535 0 0.019596439448784399 -0.16744493330375371 0 0.009933496317892726 -0.16685029992549011 0 0.012676990919703311 -0.16924925594887871 0 0.009933496317892726 -0.16685029992549011 0 0.012676990919703311 -0.16924925594887871 0 0.0034571977838801569 -0.17702496179755631 0 0.009933496317892726 -0.16685029992549011 0 0.012676990919703311 -0.16924925594887871 0 -0.0085976242789068957 -0.177408956520272 0 0.009933496317892726 -0.16685029992549011 0 -0.0085976242789068957 -0.177408956520272 0 0.009933496317892726 -0.16685029992549011 0 0.0034571977838801569 -0.17702496179755631 0 0.015764016274472759 -0.1812646672695073 0 0.012676990919703311 -0.16924925594887871 0 0.0034571977838801569 -0.17702496179755631 0 -0.003739977245034012 -0.19168309442994089 0 0.010514116253606281 -0.1925853606064957 0 0.0034571977838801569 -0.17702496179755631 0 0.010514116253606281 -0.1925853606064957 0 0.015764016274472759 -0.1812646672695073 0 0.0034571977838801569 -0.17702496179755631 0 0.02166725362828328 -0.1398342401410575 0 0.019282665512654749 -0.1297026577714144 0 0.01241268948209219 -0.14437852502616319 0 0.034824944079593127 -0.12500853882757099 0 0.019282665512654749 -0.1297026577714144 0 0.030566093298411881 -0.13865773310914861 0 0.02166725362828328 -0.1398342401410575 0 0.019282665512654749 -0.1297026577714144 0 0.030566093298411881 -0.13865773310914861 0 0.031672068294339203 -0.14528428076340441 0 0.030566093298411881 -0.13865773310914861 0 0.024335151646156381 -0.14706399980032239 0 0.02166725362828328 -0.1398342401410575 0 0.030566093298411881 -0.13865773310914861 0 0.024335151646156381 -0.14706399980032239 0 0.031672068294339203 -0.14528428076340441 0 0.024335151646156381 -0.14706399980032239 0 0.030051573782975471 -0.15027594372919439 0 0.033920350420936912 -0.1531830770535528 0 0.030051573782975471 -0.15027594372919439 0 0.02294500892830088 -0.1542832107784407 0 0.024335151646156381 -0.14706399980032239 0 0.030051573782975471 -0.15027594372919439 0 0.02294500892830088 -0.1542832107784407 0 0.024335151646156381 -0.14706399980032239 0 0.01648447247354291 -0.15404273338364399 0 0.01241268948209219 -0.14437852502616319 0 0.024335151646156381 -0.14706399980032239 0 0.01648447247354291 -0.15404273338364399 0 0.02294500892830088 -0.1542832107784407 0 0.02166725362828328 -0.1398342401410575 0 0.024335151646156381 -0.14706399980032239 0 0.01241268948209219 -0.14437852502616319 0 -0.011505986517222349 -0.14810326960451681 0 0.01241268948209219 -0.14437852502616319 0 0.0068311679390763679 -0.1533437069849535 0 -0.011505986517222349 -0.14810326960451681 0 0.009933496317892726 -0.16685029992549011 0 0.0068311679390763679 -0.1533437069849535 0 -0.011505986517222349 -0.14810326960451681 0 0.01241268948209219 -0.14437852502616319 0 0.0027021066240326768 -0.1317064378292063 0 0.01648447247354291 -0.15404273338364399 0 0.01241268948209219 -0.14437852502616319 0 0.0068311679390763679 -0.1533437069849535 0 0.019282665512654749 -0.1297026577714144 0 0.01241268948209219 -0.14437852502616319 0 0.0027021066240326768 -0.1317064378292063 0 0.019282665512654749 -0.1297026577714144 0 0.0027021066240326768 -0.1317064378292063 0 0.005085065621477718 -0.1151057880332567 0 0.019282665512654749 -0.1297026577714144 0 0.005085065621477718 -0.1151057880332567 0 0.024129304522527751 -0.1089818526354679 0 0.034824944079593127 -0.12500853882757099 0 0.019282665512654749 -0.1297026577714144 0 0.024129304522527751 -0.1089818526354679 0 0.024129304522527751 -0.1089818526354679 0 0.01380815825635252 -0.094132232187142617 0 0.031293966725895003 -0.08518965294817829 0 -0.00044729776891663488 -0.1011528385718463 0 0.005085065621477718 -0.1151057880332567 0 0.01380815825635252 -0.094132232187142617 0 0.005085065621477718 -0.1151057880332567 0 0.024129304522527751 -0.1089818526354679 0 0.01380815825635252 -0.094132232187142617 0 0.01380815825635252 -0.094132232187142617 0 0.0042106568376920582 -0.081118225430045127 0 0.020039989671696231 -0.071989185162356889 0 -0.00044729776891663488 -0.1011528385718463 0 0.01380815825635252 -0.094132232187142617 0 0.0042106568376920582 -0.081118225430045127 0 0.0042106568376920582 -0.081118225430045127 0 0.0052181775422467033 -0.064346337314722044 0 0.020039989671696231 -0.071989185162356889 0 -0.0043762627118289626 -0.071729097412358583 0 0.0042106568376920582 -0.081118225430045127 0 0.0052181775422467033 -0.064346337314722044 0 0.0052181775422467033 -0.064346337314722044 0 0.020039989671696231 -0.071989185162356889 0 0.0052181775422467033 -0.064346337314722044 0 0.020039989671696231 -0.071989185162356889 0 0.017880224012190679 -0.058506375123621113 0 0.020039989671696231 -0.071989185162356889 0 0.017880224012190679 -0.058506375123621113 0 0.035073137211611732 -0.060365082031122411 0 0.020039989671696231 -0.071989185162356889 0 0.031293966725895003 -0.08518965294817829 0 0.035073137211611732 -0.060365082031122411 0 0.01380815825635252 -0.094132232187142617 0 0.020039989671696231 -0.071989185162356889 0 0.031293966725895003 -0.08518965294817829 0 0.031293966725895003 -0.08518965294817829 0 0.050629459546369923 -0.074776417317023003 0 0.042727201812981508 -0.099892478072297022 0 0.050629459546369923 -0.074776417317023003 0 0.042727201812981508 -0.099892478072297022 0 0.031293966725895003 -0.08518965294817829 0 0.050629459546369923 -0.074776417317023003 0 0.035073137211611732 -0.060365082031122411 0 0.050629459546369923 -0.074776417317023003 0 0.058531717279758283 -0.049660356561749108 0 0.072219385832792832 -0.066659644627356851 0 0.050629459546369923 -0.074776417317023003 0 0.042727201812981508 -0.099892478072297022 0 0.069701838591585213 -0.089386546866783212 0 0.059655618646742382 -0.10475769562984739 0 0.052448498866582129 -0.1166826243517366 0 0.042727201812981508 -0.099892478072297022 0 0.059655618646742382 -0.10475769562984739 0 0.042727201812981508 -0.099892478072297022 0 0.069701838591585213 -0.089386546866783212 0 0.054296968429680029 -0.13171371816535249 0 0.052448498866582129 -0.1166826243517366 0 0.073744935315820714 -0.1130691332285727 0 0.059655618646742382 -0.10475769562984739 0 0.052448498866582129 -0.1166826243517366 0 0.073744935315820714 -0.1130691332285727 0 0.034824944079593127 -0.12500853882757099 0 0.045553716665441668 -0.12681104972785159 0 0.052448498866582129 -0.1166826243517366 0 0.034824944079593127 -0.12500853882757099 0 0.052448498866582129 -0.1166826243517366 0 0.042727201812981508 -0.099892478072297022 0 0.034824944079593127 -0.12500853882757099 0 0.024129304522527751 -0.1089818526354679 0 0.042727201812981508 -0.099892478072297022 0 0.034824944079593127 -0.12500853882757099 0 0.042727201812981508 -0.099892478072297022 0 0.024129304522527751 -0.1089818526354679 0 0.031293966725895003 -0.08518965294817829 0 0.042727201812981508 -0.099892478072297022 0 0.034885408484197772 0.0062912350017927032 0 0.01265631079038235 -0.01012693536007268 0 0.042517259973231587 -0.011683923625132649 0 -0.00118246574067416 -0.01324232368796026 0 0.0012074066645448821 -0.00065723147797176382 0 0.01265631079038235 -0.01012693536007268 0 0.01265631079038235 -0.01012693536007268 0 0.02406773205363014 -0.026959444655171291 0 0.0015263381015913891 -0.033415212413580753 0 0.01265631079038235 -0.01012693536007268 0 0.0015263381015913891 -0.033415212413580753 0 -0.00118246574067416 -0.01324232368796026 0 0.01265631079038235 -0.01012693536007268 0 0.0015263381015913891 -0.033415212413580753 0 0.01265631079038235 -0.01012693536007268 0 0.02406773205363014 -0.026959444655171291 0 0.042517259973231587 -0.011683923625132649 0 0.02406773205363014 -0.026959444655171291 0 0.021771409900077709 -0.044354063799483319 0 0.04186734150286768 -0.035217088077587062 0 0.02406773205363014 -0.026959444655171291 0 0.021771409900077709 -0.044354063799483319 0 0.0015263381015913891 -0.033415212413580753 0 0.021771409900077709 -0.044354063799483319 0 0.0015263381015913891 -0.033415212413580753 0 0.007298405735321048 -0.051477207310420908 0 -0.0096036345872028556 -0.056703489467087059 0 0.0052181775422467033 -0.064346337314722044 0 0.007298405735321048 -0.051477207310420908 0 0.0052181775422467033 -0.064346337314722044 0 0.007298405735321048 -0.051477207310420908 0 0.017880224012190679 -0.058506375123621113 0 0.021771409900077709 -0.044354063799483319 0 0.017880224012190679 -0.058506375123621113 0 0.035073137211611732 -0.060365082031122411 0 0.021771409900077709 -0.044354063799483319 0 0.007298405735321048 -0.051477207310420908 0 0.017880224012190679 -0.058506375123621113 0 0.035073137211611732 -0.060365082031122411 0 0.058531717279758283 -0.049660356561749108 0 0.04186734150286768 -0.035217088077587062 0 0.050629459546369923 -0.074776417317023003 0 0.058531717279758283 -0.049660356561749108 0 0.050629459546369923 -0.074776417317023003 0 0.035073137211611732 -0.060365082031122411 0 0.058531717279758283 -0.049660356561749108 0 0.058531717279758283 -0.049660356561749108 0 0.066433975013146629 -0.02454429580647528 0 0.058531717279758283 -0.049660356561749108 0 0.04186734150286768 -0.035217088077587062 0 0.066433975013146629 -0.02454429580647528 0 0.021771409900077709 -0.044354063799483319 0 0.035073137211611732 -0.060365082031122411 0 0.04186734150286768 -0.035217088077587062 0 0.02406773205363014 -0.026959444655171291 0 0.04186734150286768 -0.035217088077587062 0 0.042517259973231587 -0.011683923625132649 0 0.04186734150286768 -0.035217088077587062 0 0.042517259973231587 -0.011683923625132649 0 0.066433975013146629 -0.02454429580647528 0 0.052968053050369737 0.0090809173488315582 0 0.042517259973231587 -0.011683923625132649 0 0.067492943165135169 -0.0019794682467893379 0 0.042517259973231587 -0.011683923625132649 0 0.067492943165135169 -0.0019794682467893379 0 0.066433975013146629 -0.02454429580647528 0 0.087040675587819916 -0.0096101539263870796 0 0.066433975013146629 -0.02454429580647528 0 0.098032226742104309 -0.02831505409649597 0 0.083930998993742512 0.0059737405228527038 0 0.087040675587819916 -0.0096101539263870796 0 0.067492943165135169 -0.0019794682467893379 0 0.083930998993742512 0.0059737405228527038 0 0.098495163759696414 0.0029673617968291321 0 0.087040675587819916 -0.0096101539263870796 0 0.087040675587819916 -0.0096101539263870796 0 0.067492943165135169 -0.0019794682467893379 0 0.066433975013146629 -0.02454429580647528 0 0.066433975013146629 -0.02454429580647528 0 0.080663194565618018 -0.042742664855397232 0 0.098032226742104309 -0.02831505409649597 0 0.080663194565618018 -0.042742664855397232 0 0.099119978598511321 -0.045144617550746849 0 0.098032226742104309 -0.02831505409649597 0 0.058531717279758283 -0.049660356561749108 0 0.066433975013146629 -0.02454429580647528 0 0.080663194565618018 -0.042742664855397232 0 0.058531717279758283 -0.049660356561749108 0 0.080663194565618018 -0.042742664855397232 0 0.072219385832792832 -0.066659644627356851 0 0.080663194565618018 -0.042742664855397232 0 0.091985945990252393 -0.059557823171565508 0 0.072219385832792832 -0.066659644627356851 0 0.080663194565618018 -0.042742664855397232 0 0.091985945990252393 -0.059557823171565508 0 0.099119978598511321 -0.045144617550746849 0 0.091985945990252393 -0.059557823171565508 0 0.109385226414503 -0.056941989317685793 0 0.099119978598511321 -0.045144617550746849 0 0.109385226414503 -0.056941989317685793 0 0.1174221699598199 -0.069046986946925279 0 0.12664898879935529 -0.055605769639440771 0 0.109385226414503 -0.056941989317685793 0 0.1155332992800789 -0.038165556312589707 0 0.12664898879935529 -0.055605769639440771 0 0.1155332992800789 -0.038165556312589707 0 0.12954193793015309 -0.041748568408345607 0 0.12664898879935529 -0.055605769639440771 0 0.1155332992800789 -0.038165556312589707 0 0.1294320674019063 -0.023146095115484211 0 0.12954193793015309 -0.041748568408345607 0 0.109385226414503 -0.056941989317685793 0 0.1155332992800789 -0.038165556312589707 0 0.099119978598511321 -0.045144617550746849 0 0.1155332992800789 -0.038165556312589707 0 0.099119978598511321 -0.045144617550746849 0 0.098032226742104309 -0.02831505409649597 0 0.1155332992800789 -0.038165556312589707 0 0.098032226742104309 -0.02831505409649597 0 0.1112777463759113 -0.012222875866518469 0 0.087040675587819916 -0.0096101539263870796 0 0.098032226742104309 -0.02831505409649597 0 0.1112777463759113 -0.012222875866518469 0 0.1155332992800789 -0.038165556312589707 0 0.1112777463759113 -0.012222875866518469 0 0.1294320674019063 -0.023146095115484211 0 0.1158546052028349 0.0064685721448778594 0 0.13464870039648349 0.00080453217212592717 0 0.1112777463759113 -0.012222875866518469 0 0.098495163759696414 0.0029673617968291321 0 0.087040675587819916 -0.0096101539263870796 0 0.1112777463759113 -0.012222875866518469 0 0.1158546052028349 0.0064685721448778594 0 0.098495163759696414 0.0029673617968291321 0 0.1112777463759113 -0.012222875866518469 0 0.093192902201961414 -0.094424548291792879 0 0.088899626305776192 -0.1113374325741409 0 0.073744935315820714 -0.1130691332285727 0 0.093192902201961414 -0.094424548291792879 0 0.073744935315820714 -0.1130691332285727 0 0.069701838591585213 -0.089386546866783212 0 0.093192902201961414 -0.094424548291792879 0 0.073744935315820714 -0.1130691332285727 0 0.081894058627025895 -0.12584863130967919 0 0.088899626305776192 -0.1113374325741409 0 0.09397493983509804 -0.11322330148444169 0 0.081894058627025895 -0.12584863130967919 0 0.079920122843727764 -0.11786127252462281 0 0.075141871126288284 -0.1211898929860986 0 0.081894058627025895 -0.12584863130967919 0 0.088899626305776192 -0.1113374325741409 0 0.079920122843727764 -0.11786127252462281 0 0.088899626305776192 -0.1113374325741409 0 0.079920122843727764 -0.11786127252462281 0 0.073744935315820714 -0.1130691332285727 0 0.068207364780656948 -0.12563827965844471 0 0.054296968429680029 -0.13171371816535249 0 0.073744935315820714 -0.1130691332285727 0 0.054296968429680029 -0.13171371816535249 0 0.073744935315820714 -0.1130691332285727 0 0.068207364780656948 -0.12563827965844471 0 0.073744935315820714 -0.1130691332285727 0 0.075141871126288284 -0.1211898929860986 0 0.079920122843727764 -0.11786127252462281 0 0.073744935315820714 -0.1130691332285727 0 0.075141871126288284 -0.1211898929860986 0 0.081894058627025895 -0.12584863130967919 0 0.068207364780656948 -0.12563827965844471 0 0.075141871126288284 -0.1211898929860986 0 0.059655618646742382 -0.10475769562984739 0 0.073744935315820714 -0.1130691332285727 0 0.069701838591585213 -0.089386546866783212 0 0.050629459546369923 -0.074776417317023003 0 0.069701838591585213 -0.089386546866783212 0 0.072219385832792832 -0.066659644627356851 0 0.069701838591585213 -0.089386546866783212 0 0.072219385832792832 -0.066659644627356851 0 0.089711563165187497 -0.078251462936863553 0 0.091985945990252393 -0.059557823171565508 0 0.072219385832792832 -0.066659644627356851 0 0.089711563165187497 -0.078251462936863553 0 0.093192902201961414 -0.094424548291792879 0 0.069701838591585213 -0.089386546866783212 0 0.089711563165187497 -0.078251462936863553 0 0.093192902201961414 -0.094424548291792879 0 0.089711563165187497 -0.078251462936863553 0 0.1048667032735431 -0.089595599910983495 0 0.089711563165187497 -0.078251462936863553 0 0.1048667032735431 -0.089595599910983495 0 0.1056935618466131 -0.072691272791708894 0 0.1048667032735431 -0.089595599910983495 0 0.1056935618466131 -0.072691272791708894 0 0.11564058922802831 -0.08068930143821873 0 0.091985945990252393 -0.059557823171565508 0 0.089711563165187497 -0.078251462936863553 0 0.1056935618466131 -0.072691272791708894 0 0.091985945990252393 -0.059557823171565508 0 0.109385226414503 -0.056941989317685793 0 0.1056935618466131 -0.072691272791708894 0 0.1174221699598199 -0.069046986946925279 0 0.12840026197867099 -0.078951386265116219 0 0.12664898879935529 -0.055605769639440771 0 0.109385226414503 -0.056941989317685793 0 0.1056935618466131 -0.072691272791708894 0 0.1174221699598199 -0.069046986946925279 0 0.1056935618466131 -0.072691272791708894 0 0.1174221699598199 -0.069046986946925279 0 0.11564058922802831 -0.08068930143821873 0 0.1174221699598199 -0.069046986946925279 0 0.11564058922802831 -0.08068930143821873 0 0.12840026197867099 -0.078951386265116219 0 0.1048667032735431 -0.089595599910983495 0 0.11564058922802831 -0.08068930143821873 0 0.1191358060176364 -0.092450830711447801 0 0.1191358060176364 -0.092450830711447801 0 0.12840026197867099 -0.078951386265116219 0 0.11564058922802831 -0.08068930143821873 0 0.1191358060176364 -0.092450830711447801 0 0.12840026197867099 -0.078951386265116219 0 0.1058809127300703 -0.11218140843774239 0 0.12023297736745781 -0.1110263554770618 0 0.12986776683311119 -0.098514185565799078 0 0.1058809127300703 -0.11218140843774239 0 0.12986776683311119 -0.098514185565799078 0 0.1048667032735431 -0.089595599910983495 0 0.1191358060176364 -0.092450830711447801 0 0.10987135005660249 -0.1059502751577799 0 0.10987135005660249 -0.1059502751577799 0 0.1058809127300703 -0.11218140843774239 0 0.12986776683311119 -0.098514185565799078 0 0.1191358060176364 -0.092450830711447801 0 0.10987135005660249 -0.1059502751577799 0 0.12986776683311119 -0.098514185565799078 0 0.1191358060176364 -0.092450830711447801 0 0.10987135005660249 -0.1059502751577799 0 0.093192902201961414 -0.094424548291792879 0 0.088899626305776192 -0.1113374325741409 0 0.099225161677519755 -0.1035257336162041 0 0.1048667032735431 -0.089595599910983495 0 0.10987135005660249 -0.1059502751577799 0 0.099225161677519755 -0.1035257336162041 0 0.10987135005660249 -0.1059502751577799 0 0.099225161677519755 -0.1035257336162041 0 0.1058809127300703 -0.11218140843774239 0 0.088899626305776192 -0.1113374325741409 0 0.099225161677519755 -0.1035257336162041 0 0.09397493983509804 -0.11322330148444169 0 0.093192902201961414 -0.094424548291792879 0 0.1048667032735431 -0.089595599910983495 0 0.099225161677519755 -0.1035257336162041 0 0.081894058627025895 -0.12584863130967919 0 0.1058809127300703 -0.11218140843774239 0 0.099525338641528904 -0.12611341339503321 0 0.081894058627025895 -0.12584863130967919 0 0.1058809127300703 -0.11218140843774239 0 0.081894058627025895 -0.12584863130967919 0 0.09397493983509804 -0.11322330148444169 0 0.1058809127300703 -0.11218140843774239 0 0.099225161677519755 -0.1035257336162041 0 0.09397493983509804 -0.11322330148444169 0 0.1058809127300703 -0.11218140843774239 0 0.099525338641528904 -0.12611341339503321 0 0.1058809127300703 -0.11218140843774239 0 0.1121708616464093 -0.1216807098986791 0 0.1058809127300703 -0.11218140843774239 0 0.1121708616464093 -0.1216807098986791 0 0.12023297736745781 -0.1110263554770618 0 0.11997683785091839 -0.1276371159963853 0 0.121067612134044 -0.1214532534018402 0 0.13188977167139071 -0.12546883223523481 0 0.12023297736745781 -0.1110263554770618 0 0.121067612134044 -0.1214532534018402 0 0.13188977167139071 -0.12546883223523481 0 0.11997683785091839 -0.1276371159963853 0 0.1121708616464093 -0.1216807098986791 0 0.121067612134044 -0.1214532534018402 0 0.1121708616464093 -0.1216807098986791 0 0.12023297736745781 -0.1110263554770618 0 0.121067612134044 -0.1214532534018402 0 0.12023297736745781 -0.1110263554770618 0 0.12986776683311119 -0.098514185565799078 0 0.13188977167139071 -0.12546883223523481 0 0.12986776683311119 -0.098514185565799078 0 0.13188977167139071 -0.12546883223523481 0 0.14925441928633251 -0.10969288085116551 0 0.13995942417209239 -0.1034127274713456 0 0.13188977167139071 -0.12546883223523481 0 0.14724036225017881 -0.1245170930860646 0 0.14925441928633251 -0.10969288085116551 0 0.13188977167139071 -0.12546883223523481 0 0.14925441928633251 -0.10969288085116551 0 0.15485465026004211 -0.11932571079310079 0 0.15999890680388329 -0.1096406796162286 0 0.14724036225017881 -0.1245170930860646 0 0.15485465026004211 -0.11932571079310079 0 0.15557261582888751 -0.13003178131142151 0 0.14724036225017881 -0.1245170930860646 0 0.14925441928633251 -0.10969288085116551 0 0.15485465026004211 -0.11932571079310079 0 0.14925441928633251 -0.10969288085116551 0 0.14348993397904131 -0.092765062884646393 0 0.1620153957752187 -0.097165399419701551 0 0.14348993397904131 -0.092765062884646393 0 0.1620153957752187 -0.097165399419701551 0 0.14925441928633251 -0.10969288085116551 0 0.13995942417209239 -0.1034127274713456 0 0.14348993397904131 -0.092765062884646393 0 0.13995942417209239 -0.1034127274713456 0 0.12986776683311119 -0.098514185565799078 0 0.13188977167139071 -0.12546883223523481 0 0.13995942417209239 -0.1034127274713456 0 0.12986776683311119 -0.098514185565799078 0 0.14348993397904131 -0.092765062884646393 0 0.12986776683311119 -0.098514185565799078 0 0.12840026197867099 -0.078951386265116219 0 0.1428482005174804 -0.076716741777837147 0 0.1191358060176364 -0.092450830711447801 0 0.12986776683311119 -0.098514185565799078 0 0.12840026197867099 -0.078951386265116219 0 0.12986776683311119 -0.098514185565799078 0 0.12840026197867099 -0.078951386265116219 0 0.12840026197867099 -0.078951386265116219 0 0.12664898879935529 -0.055605769639440771 0 0.12840026197867099 -0.078951386265116219 0 0.12664898879935529 -0.055605769639440771 0 0.14464694777039611 -0.055277979731059648 0 0.12840026197867099 -0.078951386265116219 0 0.1428482005174804 -0.076716741777837147 0 0.14464694777039611 -0.055277979731059648 0 0.12840026197867099 -0.078951386265116219 0 0.14464694777039611 -0.055277979731059648 0 0.1428482005174804 -0.076716741777837147 0 0.15680899227989839 -0.06637062400294011 0 0.14464694777039611 -0.055277979731059648 0 0.1428482005174804 -0.076716741777837147 0 0.15451703372532541 -0.084469533324270707 0 0.15680899227989839 -0.06637062400294011 0 0.12986776683311119 -0.098514185565799078 0 0.15451703372532541 -0.084469533324270707 0 0.12986776683311119 -0.098514185565799078 0 0.14348993397904131 -0.092765062884646393 0 0.15451703372532541 -0.084469533324270707 0 0.14348993397904131 -0.092765062884646393 0 0.15451703372532541 -0.084469533324270707 0 0.1620153957752187 -0.097165399419701551 0 0.12986776683311119 -0.098514185565799078 0 0.1428482005174804 -0.076716741777837147 0 0.15451703372532541 -0.084469533324270707 0 0.15451703372532541 -0.084469533324270707 0 0.1674193516126988 -0.088794767656503876 0 0.1620153957752187 -0.097165399419701551 0 0.15451703372532541 -0.084469533324270707 0 0.1674193516126988 -0.088794767656503876 0 0.16389165652408541 -0.076485311925560115 0 0.1674193516126988 -0.088794767656503876 0 0.16389165652408541 -0.076485311925560115 0 0.17613181446746839 -0.084287857658230353 0 0.15451703372532541 -0.084469533324270707 0 0.15680899227989839 -0.06637062400294011 0 0.16389165652408541 -0.076485311925560115 0 0.16389165652408541 -0.076485311925560115 0 0.1717227713635387 -0.067009979361705274 0 0.17613181446746839 -0.084287857658230353 0 0.15680899227989839 -0.06637062400294011 0 0.16389165652408541 -0.076485311925560115 0 0.1717227713635387 -0.067009979361705274 0 0.15680899227989839 -0.06637062400294011 0 0.1717227713635387 -0.067009979361705274 0 0.1652446184022294 -0.054500080927008407 0 0.1717227713635387 -0.067009979361705274 0 0.17613181446746839 -0.084287857658230353 0 0.1717227713635387 -0.067009979361705274 0 0.18346211879182289 -0.064955309332027283 0 0.18137547142311691 -0.085525622921553163 0 0.18346211879182289 -0.064955309332027283 0 0.18137547142311691 -0.085525622921553163 0 0.1952329782378138 -0.068464889048657496 0 0.1717227713635387 -0.067009979361705274 0 0.18137547142311691 -0.085525622921553163 0 0.1717227713635387 -0.067009979361705274 0 0.18346211879182289 -0.064955309332027283 0 0.1746283364613696 -0.057560297553190053 0 0.18137547142311691 -0.085525622921553163 0 0.17613181446746839 -0.084287857658230353 0 0.18054085757139629 -0.1015657359547559 0 0.17613181446746839 -0.084287857658230353 0 0.18054085757139629 -0.1015657359547559 0 0.1674193516126988 -0.088794767656503876 0 0.17613181446746839 -0.084287857658230353 0 0.18054085757139629 -0.1015657359547559 0 0.1717227713635387 -0.067009979361705274 0 0.18137547142311691 -0.085525622921553163 0 0.17613181446746839 -0.084287857658230353 0 0.18137547142311691 -0.085525622921553163 0 0.19100769245097829 -0.1040519139747048 0 0.18137547142311691 -0.085525622921553163 0 0.18054085757139629 -0.1015657359547559 0 0.19100769245097829 -0.1040519139747048 0 0.18054085757139629 -0.1015657359547559 0 0.1749190978293893 -0.1165979942053425 0 0.16884250162088479 -0.1080310140379921 0 0.18054085757139629 -0.1015657359547559 0 0.19100769245097829 -0.1040519139747048 0 0.18054085757139629 -0.1015657359547559 0 0.1862357176231304 -0.1238823921021804 0 0.1749190978293893 -0.1165979942053425 0 0.18054085757139629 -0.1015657359547559 0 0.1862357176231304 -0.1238823921021804 0 0.19100769245097829 -0.1040519139747048 0 0.18054085757139629 -0.1015657359547559 0 0.1862357176231304 -0.1238823921021804 0 0.1862357176231304 -0.1238823921021804 0 0.1749190978293893 -0.1165979942053425 0 0.17324983187337631 -0.13165498831909611 0 0.1749190978293893 -0.1165979942053425 0 0.16471491079178111 -0.1205264202314431 0 0.16884250162088479 -0.1080310140379921 0 0.16471491079178111 -0.1205264202314431 0 0.15999890680388329 -0.1096406796162286 0 0.16884250162088479 -0.1080310140379921 0 0.1749190978293893 -0.1165979942053425 0 0.16471491079178111 -0.1205264202314431 0 0.17324983187337631 -0.13165498831909611 0 0.15485465026004211 -0.11932571079310079 0 0.16471491079178111 -0.1205264202314431 0 0.15557261582888751 -0.13003178131142151 0 0.15485465026004211 -0.11932571079310079 0 0.16471491079178111 -0.1205264202314431 0 0.15999890680388329 -0.1096406796162286 0 0.18054085757139629 -0.1015657359547559 0 0.1620153957752187 -0.097165399419701551 0 0.1674193516126988 -0.088794767656503876 0 0.18054085757139629 -0.1015657359547559 0 0.1620153957752187 -0.097165399419701551 0 0.14925441928633251 -0.10969288085116551 0 0.15999890680388329 -0.1096406796162286 0 0.1620153957752187 -0.097165399419701551 0 0.15999890680388329 -0.1096406796162286 0 0.1620153957752187 -0.097165399419701551 0 0.16884250162088479 -0.1080310140379921 0 0.18054085757139629 -0.1015657359547559 0 0.1620153957752187 -0.097165399419701551 0 0.16884250162088479 -0.1080310140379921 0 0.13464870039648349 0.00080453217212592717 0 0.15480995508657039 -0.001084596553268768 0 0.14892696920713289 -0.018041582065753459 0 0.13464870039648349 0.00080453217212592717 0 0.1294320674019063 -0.023146095115484211 0 0.14892696920713289 -0.018041582065753459 0 0.13464870039648349 0.00080453217212592717 0 0.1112777463759113 -0.012222875866518469 0 0.1294320674019063 -0.023146095115484211 0 0.1294320674019063 -0.023146095115484211 0 0.14892696920713289 -0.018041582065753459 0 0.14270131340979469 -0.036531096068384838 0 0.14892696920713289 -0.018041582065753459 0 0.14270131340979469 -0.036531096068384838 0 0.16089363356212191 -0.031604573197003549 0 0.14270131340979469 -0.036531096068384838 0 0.14464694777039611 -0.055277979731059648 0 0.16089363356212191 -0.031604573197003549 0 0.14464694777039611 -0.055277979731059648 0 0.15561449558007559 -0.051164132387281437 0 0.16089363356212191 -0.031604573197003549 0 0.14464694777039611 -0.055277979731059648 0 0.16089363356212191 -0.031604573197003549 0 0.14270131340979469 -0.036531096068384838 0 0.12954193793015309 -0.041748568408345607 0 0.14464694777039611 -0.055277979731059648 0 0.1294320674019063 -0.023146095115484211 0 0.14270131340979469 -0.036531096068384838 0 0.12954193793015309 -0.041748568408345607 0 0.12954193793015309 -0.041748568408345607 0 0.12664898879935529 -0.055605769639440771 0 0.14464694777039611 -0.055277979731059648 0 0.15680899227989839 -0.06637062400294011 0 0.14464694777039611 -0.055277979731059648 0 0.15561449558007559 -0.051164132387281437 0 0.15680899227989839 -0.06637062400294011 0 0.15561449558007559 -0.051164132387281437 0 0.1652446184022294 -0.054500080927008407 0 0.15561449558007559 -0.051164132387281437 0 0.1652446184022294 -0.054500080927008407 0 0.1617942405007988 -0.043199732881276223 0 0.1652446184022294 -0.054500080927008407 0 0.1746283364613696 -0.057560297553190053 0 0.1617942405007988 -0.043199732881276223 0 0.1717227713635387 -0.067009979361705274 0 0.1652446184022294 -0.054500080927008407 0 0.1717227713635387 -0.067009979361705274 0 0.1652446184022294 -0.054500080927008407 0 0.1746283364613696 -0.057560297553190053 0 0.1746283364613696 -0.057560297553190053 0 0.1828119860636557 -0.050363577362968731 0 0.1617942405007988 -0.043199732881276223 0 0.18346211879182289 -0.064955309332027283 0 0.1746283364613696 -0.057560297553190053 0 0.1828119860636557 -0.050363577362968731 0 0.18346211879182289 -0.064955309332027283 0 0.1828119860636557 -0.050363577362968731 0 0.19188844298534441 -0.056659859735039647 0 0.1617942405007988 -0.043199732881276223 0 0.18853740735089011 -0.033706188378118708 0 0.1828119860636557 -0.050363577362968731 0 0.1617942405007988 -0.043199732881276223 0 0.18853740735089011 -0.033706188378118708 0 0.15561449558007559 -0.051164132387281437 0 0.16089363356212191 -0.031604573197003549 0 0.1617942405007988 -0.043199732881276223 0 0.16089363356212191 -0.031604573197003549 0 0.1617942405007988 -0.043199732881276223 0 0.18853740735089011 -0.033706188378118708 0 0.16089363356212191 -0.031604573197003549 0 0.17714031935384769 -0.0079311666629475405 0 0.14892696920713289 -0.018041582065753459 0 0.16089363356212191 -0.031604573197003549 0 0.17714031935384769 -0.0079311666629475405 0 0.16089363356212191 -0.031604573197003549 0 0.17714031935384769 -0.0079311666629475405 0 0.18853740735089011 -0.033706188378118708 0 0.1657030786406338 0.0084270166623369204 0 0.15480995508657039 -0.001084596553268768 0 0.17714031935384769 -0.0079311666629475405 0 0.15480995508657039 -0.001084596553268768 0 0.14892696920713289 -0.018041582065753459 0 0.17714031935384769 -0.0079311666629475405 0 0.21351355446813719 -0.0021103410187178909 0 0.2110126965438916 -0.012672932103663791 0 0.2228246624943325 -0.0092295053444410857 0 0.2110126965438916 -0.012672932103663791 0 0.21911622703360889 -0.015650702578479541 0 0.2228246624943325 -0.0092295053444410857 0 0.21351355446813719 -0.0021103410187178909 0 0.2110126965438916 -0.012672932103663791 0 0.19836939172364151 -0.01016904411482358 0 0.1998105265397013 0.00335350757378736 0 0.21351355446813719 -0.0021103410187178909 0 0.19836939172364151 -0.01016904411482358 0 0.1998105265397013 0.00335350757378736 0 0.17714031935384769 -0.0079311666629475405 0 0.19836939172364151 -0.01016904411482358 0 0.17714031935384769 -0.0079311666629475405 0 0.19836939172364151 -0.01016904411482358 0 0.18853740735089011 -0.033706188378118708 0 0.2110126965438916 -0.012672932103663791 0 0.19836939172364151 -0.01016904411482358 0 0.18853740735089011 -0.033706188378118708 0 0.21528057420098159 -0.024212643874961401 0 0.18853740735089011 -0.033706188378118708 0 0.2110126965438916 -0.012672932103663791 0 0.21528057420098159 -0.024212643874961401 0 0.18853740735089011 -0.033706188378118708 0 0.21528057420098159 -0.024212643874961401 0 0.20886364623554921 -0.031523512657201581 0 0.18853740735089011 -0.033706188378118708 0 0.2110126965438916 -0.012672932103663791 0 0.21528057420098159 -0.024212643874961401 0 0.21911622703360889 -0.015650702578479541 0 0.21528057420098159 -0.024212643874961401 0 0.2158000993154765 -0.027276596113623111 0 0.21360323626451261 -0.02858374534336202 0 0.21528057420098159 -0.024212643874961401 0 0.2158000993154765 -0.027276596113623111 0 0.21995729679401421 -0.029331280632926501 0 0.2158000993154765 -0.027276596113623111 0 0.21503400689837671 -0.030930810510401429 0 0.21995729679401421 -0.029331280632926501 0 0.2158000993154765 -0.027276596113623111 0 0.21503400689837671 -0.030930810510401429 0 0.21360323626451261 -0.02858374534336202 0 0.21528057420098159 -0.024212643874961401 0 0.21360323626451261 -0.02858374534336202 0 0.20886364623554921 -0.031523512657201581 0 0.21503400689837671 -0.030930810510401429 0 0.21360323626451261 -0.02858374534336202 0 0.20886364623554921 -0.031523512657201581 0 0.2128060919330283 -0.035124071741943173 0 0.2180191377477218 -0.035203133534298187 0 0.2167024847658664 -0.043974661413588162 0 0.21503400689837671 -0.030930810510401429 0 0.2128060919330283 -0.035124071741943173 0 0.20886364623554921 -0.031523512657201581 0 0.21503400689837671 -0.030930810510401429 0 0.2128060919330283 -0.035124071741943173 0 0.2180191377477218 -0.035203133534298187 0 0.21503400689837671 -0.030930810510401429 0 0.2180191377477218 -0.035203133534298187 0 0.21995729679401421 -0.029331280632926501 0 0.2167024847658664 -0.043974661413588162 0 0.20890374551960481 -0.040729144831228678 0 0.20897987019450001 -0.050060865146210963 0 0.2128060919330283 -0.035124071741943173 0 0.2167024847658664 -0.043974661413588162 0 0.20890374551960481 -0.040729144831228678 0 0.20890374551960481 -0.040729144831228678 0 0.19655169947710091 -0.043788383486002072 0 0.20897987019450001 -0.050060865146210963 0 0.2128060919330283 -0.035124071741943173 0 0.20890374551960481 -0.040729144831228678 0 0.20886364623554921 -0.031523512657201581 0 0.20890374551960481 -0.040729144831228678 0 0.20886364623554921 -0.031523512657201581 0 0.19655169947710091 -0.043788383486002072 0 0.1828119860636557 -0.050363577362968731 0 0.18853740735089011 -0.033706188378118708 0 0.19655169947710091 -0.043788383486002072 0 0.20886364623554921 -0.031523512657201581 0 0.18853740735089011 -0.033706188378118708 0 0.19655169947710091 -0.043788383486002072 0 0.19655169947710091 -0.043788383486002072 0 0.20138343235632811 -0.055727139445542639 0 0.20897987019450001 -0.050060865146210963 0 0.19655169947710091 -0.043788383486002072 0 0.19188844298534441 -0.056659859735039647 0 0.20138343235632811 -0.055727139445542639 0 0.1828119860636557 -0.050363577362968731 0 0.19655169947710091 -0.043788383486002072 0 0.19188844298534441 -0.056659859735039647 0 0.19188844298534441 -0.056659859735039647 0 0.20138343235632811 -0.055727139445542639 0 0.1952329782378138 -0.068464889048657496 0 0.20138343235632811 -0.055727139445542639 0 0.22670270369963491 -0.067064047377793826 0 0.20138343235632811 -0.055727139445542639 0 0.21577564808412511 -0.056666161138016313 0 0.22670270369963491 -0.067064047377793826 0 0.20138343235632811 -0.055727139445542639 0 0.20897987019450001 -0.050060865146210963 0 0.21577564808412511 -0.056666161138016313 0 0.2167024847658664 -0.043974661413588162 0 0.20897987019450001 -0.050060865146210963 0 0.21577564808412511 -0.056666161138016313 0 0.21577564808412511 -0.056666161138016313 0 0.23694359709532001 -0.061394592404840097 0 0.22670270369963491 -0.067064047377793826 0 0.21577564808412511 -0.056666161138016313 0 0.22648325856373289 -0.049317463857355977 0 0.23694359709532001 -0.061394592404840097 0 0.21577564808412511 -0.056666161138016313 0 0.23694359709532001 -0.061394592404840097 0 0.2167024847658664 -0.043974661413588162 0 0.21577564808412511 -0.056666161138016313 0 0.22648325856373289 -0.049317463857355977 0 0.22648325856373289 -0.049317463857355977 0 0.23694359709532001 -0.061394592404840097 0 0.23716366819637241 -0.046229271507985323 0 0.25811154610651499 -0.066123023671663908 0 0.23694359709532001 -0.061394592404840097 0 0.24870160087168189 -0.052882304334001928 0 0.23694359709532001 -0.061394592404840097 0 0.24870160087168189 -0.052882304334001928 0 0.23716366819637241 -0.046229271507985323 0 0.24870160087168189 -0.052882304334001928 0 0.23716366819637241 -0.046229271507985323 0 0.24731406762381819 -0.035960341631652723 0 0.23716366819637241 -0.046229271507985323 0 0.24731406762381819 -0.035960341631652723 0 0.23342582712955959 -0.033308149953783547 0 0.23342582712955959 -0.033308149953783547 0 0.2258308946769807 -0.038322632822349968 0 0.22548915127375299 -0.027513718828695861 0 0.22648325856373289 -0.049317463857355977 0 0.23716366819637241 -0.046229271507985323 0 0.2258308946769807 -0.038322632822349968 0 0.23716366819637241 -0.046229271507985323 0 0.23342582712955959 -0.033308149953783547 0 0.2258308946769807 -0.038322632822349968 0 0.2180191377477218 -0.035203133534298187 0 0.2167024847658664 -0.043974661413588162 0 0.2258308946769807 -0.038322632822349968 0 0.2167024847658664 -0.043974661413588162 0 0.22648325856373289 -0.049317463857355977 0 0.2258308946769807 -0.038322632822349968 0 0.2180191377477218 -0.035203133534298187 0 0.2258308946769807 -0.038322632822349968 0 0.21995729679401421 -0.029331280632926501 0 0.2258308946769807 -0.038322632822349968 0 0.22548915127375299 -0.027513718828695861 0 0.21995729679401421 -0.029331280632926501 0 0.21528057420098159 -0.024212643874961401 0 0.2313313538768734 -0.018514784978234038 0 0.22829619310998309 -0.01520182636873813 0 0.21528057420098159 -0.024212643874961401 0 0.2313313538768734 -0.018514784978234038 0 0.21528057420098159 -0.024212643874961401 0 0.22548915127375299 -0.027513718828695861 0 0.2313313538768734 -0.018514784978234038 0 0.21528057420098159 -0.024212643874961401 0 0.22548915127375299 -0.027513718828695861 0 0.21995729679401421 -0.029331280632926501 0 0.21528057420098159 -0.024212643874961401 0 0.22829619310998309 -0.01520182636873813 0 0.21528057420098159 -0.024212643874961401 0 0.21911622703360889 -0.015650702578479541 0 0.22829619310998309 -0.01520182636873813 0 0.2313313538768734 -0.018514784978234038 0 0.22829619310998309 -0.01520182636873813 0 0.23342582712955959 -0.033308149953783547 0 0.22548915127375299 -0.027513718828695861 0 0.2313313538768734 -0.018514784978234038 0 0.25508119948702751 -0.010083838205662381 0 0.2313313538768734 -0.018514784978234038 0 0.2482857443068576 -0.021714794414400052 0 0.24731406762381819 -0.035960341631652723 0 0.2313313538768734 -0.018514784978234038 0 0.2482857443068576 -0.021714794414400052 0 0.24731406762381819 -0.035960341631652723 0 0.23342582712955959 -0.033308149953783547 0 0.2313313538768734 -0.018514784978234038 0 0.24731406762381819 -0.035960341631652723 0 0.2313313538768734 -0.018514784978234038 0 0.25508119948702751 -0.010083838205662381 0 0.2313313538768734 -0.018514784978234038 0 0.24138147174972829 -0.0061427828714447699 0 0.25508119948702751 -0.010083838205662381 0 0.2313313538768734 -0.018514784978234038 0 0.24138147174972829 -0.0061427828714447699 0 0.22829619310998309 -0.01520182636873813 0 0.25446675038947358 0.0029162606258486688 0 0.2541426920980116 -0.0036136263454906951 0 0.24138147174972829 -0.0061427828714447699 0 0.25446675038947358 0.0029162606258486688 0 0.24138147174972829 -0.0061427828714447699 0 0.22999165343287109 0.0038227322559807589 0 0.24138147174972829 -0.0061427828714447699 0 0.23189167676904729 -0.0064153040848911828 0 0.22999165343287109 0.0038227322559807589 0 0.23189167676904729 -0.0064153040848911828 0 0.2228246624943325 -0.0092295053444410857 0 0.22999165343287109 0.0038227322559807589 0 0.21351355446813719 -0.0021103410187178909 0 0.2228246624943325 -0.0092295053444410857 0 0.23189167676904729 -0.0064153040848911828 0 0.22829619310998309 -0.01520182636873813 0 0.2228246624943325 -0.0092295053444410857 0 0.2313313538768734 -0.018514784978234038 0 0.24138147174972829 -0.0061427828714447699 0 0.22829619310998309 -0.01520182636873813 0 0.24138147174972829 -0.0061427828714447699 0 0.23189167676904729 -0.0064153040848911828 0 0.22829619310998309 -0.01520182636873813 0 0.21911622703360889 -0.015650702578479541 0 0.22829619310998309 -0.01520182636873813 0 0.2228246624943325 -0.0092295053444410857 0 0.22829619310998309 -0.01520182636873813 0 0.2228246624943325 -0.0092295053444410857 0 0.2084634723971549 -0.097930235578601213 0 0.21737999015654699 -0.1103161024944793 0 0.2275791846540145 -0.10054182369239011 0 0.21737999015654699 -0.1103161024944793 0 0.19100769245097829 -0.1040519139747048 0 0.2084634723971549 -0.097930235578601213 0 0.21140608144591419 -0.084503356370523836 0 0.2275791846540145 -0.10054182369239011 0 0.2084634723971549 -0.097930235578601213 0 0.21737999015654699 -0.1103161024944793 0 0.19100769245097829 -0.1040519139747048 0 0.21737999015654699 -0.1103161024944793 0 0.21277072480774051 -0.1248863227998855 0 0.20025029595199689 -0.1218288277367077 0 0.21737999015654699 -0.1103161024944793 0 0.21277072480774051 -0.1248863227998855 0 0.2239597136694004 -0.1277946194696456 0 0.1862357176231304 -0.1238823921021804 0 0.20025029595199689 -0.1218288277367077 0 0.19100769245097829 -0.1040519139747048 0 0.21737999015654699 -0.1103161024944793 0 0.20025029595199689 -0.1218288277367077 0 0.19100769245097829 -0.1040519139747048 0 0.20025029595199689 -0.1218288277367077 0 0.19100769245097829 -0.1040519139747048 0 0.2084634723971549 -0.097930235578601213 0 0.19100769245097829 -0.1040519139747048 0 0.19624682445825681 -0.08914472739044943 0 0.18137547142311691 -0.085525622921553163 0 0.19100769245097829 -0.1040519139747048 0 0.19624682445825681 -0.08914472739044943 0 0.19624682445825681 -0.08914472739044943 0 0.1952329782378138 -0.068464889048657496 0 0.21140608144591419 -0.084503356370523836 0 0.18137547142311691 -0.085525622921553163 0 0.19624682445825681 -0.08914472739044943 0 0.1952329782378138 -0.068464889048657496 0 0.20138343235632811 -0.055727139445542639 0 0.1952329782378138 -0.068464889048657496 0 0.21149591893834541 -0.070957707586151192 0 0.18346211879182289 -0.064955309332027283 0 0.19188844298534441 -0.056659859735039647 0 0.1952329782378138 -0.068464889048657496 0 0.1952329782378138 -0.068464889048657496 0 0.21140608144591419 -0.084503356370523836 0 0.20138343235632811 -0.055727139445542639 0 0.21149591893834541 -0.070957707586151192 0 0.22670270369963491 -0.067064047377793826 0 0.1952329782378138 -0.068464889048657496 0 0.21149591893834541 -0.070957707586151192 0 0.21140608144591419 -0.084503356370523836 0 0.2084634723971549 -0.097930235578601213 0 0.19624682445825681 -0.08914472739044943 0 0.21140608144591419 -0.084503356370523836 0 0.21149591893834541 -0.070957707586151192 0 0.21140608144591419 -0.084503356370523836 0 0.2227543989520358 -0.079029105688238177 0 0.21140608144591419 -0.084503356370523836 0 0.2275791846540145 -0.10054182369239011 0 0.2227543989520358 -0.079029105688238177 0 0.23449163343577681 -0.083610487294907485 0 0.2275791846540145 -0.10054182369239011 0 0.21140608144591419 -0.084503356370523836 0 0.2227543989520358 -0.079029105688238177 0 0.2275791846540145 -0.10054182369239011 0 0.2227543989520358 -0.079029105688238177 0 0.22670270369963491 -0.067064047377793826 0 0.23449163343577681 -0.083610487294907485 0 0.21149591893834541 -0.070957707586151192 0 0.2227543989520358 -0.079029105688238177 0 0.22670270369963491 -0.067064047377793826 0 0.25202197504294188 -0.078400955310045109 0 0.25811154610651499 -0.066123023671663908 0 0.23694359709532001 -0.061394592404840097 0 0.25202197504294188 -0.078400955310045109 0 0.22670270369963491 -0.067064047377793826 0 0.25202197504294188 -0.078400955310045109 0 0.22670270369963491 -0.067064047377793826 0 0.23449163343577681 -0.083610487294907485 0 0.25202197504294188 -0.078400955310045109 0 0.23694359709532001 -0.061394592404840097 0 0.22670270369963491 -0.067064047377793826 0 0.25811154610651499 -0.066123023671663908 0 0.23694359709532001 -0.061394592404840097 0 0.25202197504294188 -0.078400955310045109 0 0.23449163343577681 -0.083610487294907485 0 0.24624903761231479 -0.086847438891893419 0 0.23449163343577681 -0.083610487294907485 0 0.24292322406264641 -0.096552741650977186 0 0.2275791846540145 -0.10054182369239011 0 0.23449163343577681 -0.083610487294907485 0 0.24624903761231479 -0.086847438891893419 0 0.24292322406264641 -0.096552741650977186 0 0.25304747237378489 -0.090741332181114118 0 0.24624903761231479 -0.086847438891893419 0 0.24292322406264641 -0.096552741650977186 0 0.2275791846540145 -0.10054182369239011 0 0.24375228786211539 -0.116580291014256 0 0.24292322406264641 -0.096552741650977186 0 0.2275791846540145 -0.10054182369239011 0 0.24375228786211539 -0.116580291014256 0 0.25771864553297669 -0.099620140202181948 0 0.24292322406264641 -0.096552741650977186 0 0.24375228786211539 -0.116580291014256 0 0.21737999015654699 -0.1103161024944793 0 0.2275791846540145 -0.10054182369239011 0 0.24375228786211539 -0.116580291014256 0 0.21737999015654699 -0.1103161024944793 0 0.24375228786211539 -0.116580291014256 0 0.2239597136694004 -0.1277946194696456 0 0.21737999015654699 -0.1103161024944793 0 0.24375228786211539 -0.116580291014256 0 0.24375228786211539 -0.116580291014256 0 0.235054631712311 -0.13955626642273861 0 0.24955680073527009 -0.143898101237383 0 0.235054631712311 -0.13955626642273861 0 0.24955680073527009 -0.143898101237383 0 0.23627457688356679 -0.15840319400941011 0 0.25449645062408999 -0.16331052089379791 0 0.24955680073527009 -0.143898101237383 0 0.23627457688356679 -0.15840319400941011 0 0.235054631712311 -0.13955626642273861 0 0.22199130801810529 -0.1478171468904442 0 0.23627457688356679 -0.15840319400941011 0 0.24375228786211539 -0.116580291014256 0 0.235054631712311 -0.13955626642273861 0 0.2239597136694004 -0.1277946194696456 0 0.235054631712311 -0.13955626642273861 0 0.22199130801810529 -0.1478171468904442 0 0.2239597136694004 -0.1277946194696456 0 0.20025029595199689 -0.1218288277367077 0 0.20949289945301761 -0.1396057414987095 0 0.22199130801810529 -0.1478171468904442 0 0.2239597136694004 -0.1277946194696456 0 0.20949289945301761 -0.1396057414987095 0 0.21277072480774051 -0.1248863227998855 0 0.20025029595199689 -0.1218288277367077 0 0.20949289945301761 -0.1396057414987095 0 0.21277072480774051 -0.1248863227998855 0 0.2239597136694004 -0.1277946194696456 0 0.20949289945301761 -0.1396057414987095 0 0.22199130801810529 -0.1478171468904442 0 0.20949289945301761 -0.1396057414987095 0 0.2069794531536403 -0.1537888919124783 0 0.20949289945301761 -0.1396057414987095 0 0.2069794531536403 -0.1537888919124783 0 0.1919305776748628 -0.1461990482496055 0 0.2069794531536403 -0.1537888919124783 0 0.1919305776748628 -0.1461990482496055 0 0.19225769977326759 -0.16432491474026781 0 0.1862357176231304 -0.1238823921021804 0 0.1919305776748628 -0.1461990482496055 0 0.19714487019074359 -0.1333469628700395 0 0.20025029595199689 -0.1218288277367077 0 0.20949289945301761 -0.1396057414987095 0 0.19714487019074359 -0.1333469628700395 0 0.20949289945301761 -0.1396057414987095 0 0.1919305776748628 -0.1461990482496055 0 0.19714487019074359 -0.1333469628700395 0 0.1862357176231304 -0.1238823921021804 0 0.1919305776748628 -0.1461990482496055 0 0.1862357176231304 -0.1238823921021804 0 0.20025029595199689 -0.1218288277367077 0 0.19714487019074359 -0.1333469628700395 0 0.19629081049063871 -0.1815365299480412 0 0.19225769977326759 -0.16432491474026781 0 0.17982600751226671 -0.1762593337595659 0 0.19629081049063871 -0.1815365299480412 0 0.19225769977326759 -0.16432491474026781 0 0.22018657323669569 -0.16775416802968299 0 0.2069794531536403 -0.1537888919124783 0 0.19225769977326759 -0.16432491474026781 0 0.22018657323669569 -0.16775416802968299 0 0.22199130801810529 -0.1478171468904442 0 0.2069794531536403 -0.1537888919124783 0 0.22018657323669569 -0.16775416802968299 0 0.19629081049063871 -0.1815365299480412 0 0.22018657323669569 -0.16775416802968299 0 0.21237941264848451 -0.18810475376770611 0 0.22018657323669569 -0.16775416802968299 0 0.23934418379307471 -0.18436482883247621 0 0.22018657323669569 -0.16775416802968299 0 0.23934418379307471 -0.18436482883247621 0 0.21237941264848451 -0.18810475376770611 0 0.22018657323669569 -0.16775416802968299 0 0.23627457688356679 -0.15840319400941011 0 0.23934418379307471 -0.18436482883247621 0 0.22199130801810529 -0.1478171468904442 0 0.22018657323669569 -0.16775416802968299 0 0.23627457688356679 -0.15840319400941011 0 0.25449645062408999 -0.16331052089379791 0 0.23627457688356679 -0.15840319400941011 0 0.23934418379307471 -0.18436482883247621 0 0.25850179434945381 -0.20097548963526929 0 0.23934418379307471 -0.18436482883247621 0 0.25850179434945381 -0.20097548963526929 0 0.23934418379307471 -0.18436482883247621 0 0.23907695871134879 -0.21289681242661959 0 0.23907695871134879 -0.21289681242661959 0 0.22308479462261119 -0.20217133576560289 0 0.21722062693650279 -0.2226466586169516 0 0.23934418379307471 -0.18436482883247621 0 0.22308479462261119 -0.20217133576560289 0 0.21237941264848451 -0.18810475376770611 0 0.23934418379307471 -0.18436482883247621 0 0.23907695871134879 -0.21289681242661959 0 0.22308479462261119 -0.20217133576560289 0 0.25037283077400019 -0.2416092145933311 0 0.23239962387573149 -0.2337287944253621 0 0.2339549802858914 -0.24933471903745599 0 0.25658827463044448 -0.2222138965281123 0 0.23907695871134879 -0.21289681242661959 0 0.2446094219978813 -0.2276121794933563 0 0.25037283077400019 -0.2416092145933311 0 0.2446094219978813 -0.2276121794933563 0 0.23239962387573149 -0.2337287944253621 0 0.23907695871134879 -0.21289681242661959 0 0.2446094219978813 -0.2276121794933563 0 0.23239962387573149 -0.2337287944253621 0 0.23907695871134879 -0.21289681242661959 0 0.23239962387573149 -0.2337287944253621 0 0.21722062693650279 -0.2226466586169516 0 0.23239962387573149 -0.2337287944253621 0 0.2194561222393229 -0.23682627783696539 0 0.21722062693650279 -0.2226466586169516 0 0.23239962387573149 -0.2337287944253621 0 0.22502312889380549 -0.2426362774769398 0 0.2339549802858914 -0.24933471903745599 0 0.2194561222393229 -0.23682627783696539 0 0.22502312889380549 -0.2426362774769398 0 0.21456577207223029 -0.24270171036535029 0 0.23239962387573149 -0.2337287944253621 0 0.2194561222393229 -0.23682627783696539 0 0.22502312889380549 -0.2426362774769398 0 0.22331750647786899 -0.25281133177650322 0 0.22502312889380549 -0.2426362774769398 0 0.21456577207223029 -0.24270171036535029 0 0.22331750647786899 -0.25281133177650322 0 0.22502312889380549 -0.2426362774769398 0 0.2339549802858914 -0.24933471903745599 0 0.2084475354763706 -0.25511513831035743 0 0.2080714594183444 -0.2424179483002232 0 0.21336353465090491 -0.24693864317134839 0 0.2080714594183444 -0.2424179483002232 0 0.21336353465090491 -0.24693864317134839 0 0.2080714594183444 -0.2424179483002232 0 0.21336353465090491 -0.24693864317134839 0 0.21456577207223029 -0.24270171036535029 0 0.2194561222393229 -0.23682627783696539 0 0.2080714594183444 -0.2424179483002232 0 0.21456577207223029 -0.24270171036535029 0 0.21722062693650279 -0.2226466586169516 0 0.20244123733496699 -0.2260211367091485 0 0.19848523837712481 -0.2136299623964425 0 0.2080714594183444 -0.2424179483002232 0 0.21722062693650279 -0.2226466586169516 0 0.2194561222393229 -0.23682627783696539 0 0.2080714594183444 -0.2424179483002232 0 0.21722062693650279 -0.2226466586169516 0 0.2080714594183444 -0.2424179483002232 0 0.21722062693650279 -0.2226466586169516 0 0.20244123733496699 -0.2260211367091485 0 0.2080714594183444 -0.2424179483002232 0 0.18716213711817259 -0.22455639835484539 0 0.2080714594183444 -0.2424179483002232 0 0.20244123733496699 -0.2260211367091485 0 0.18716213711817259 -0.22455639835484539 0 0.20244123733496699 -0.2260211367091485 0 0.19848523837712481 -0.2136299623964425 0 0.18716213711817259 -0.22455639835484539 0 0.2080714594183444 -0.2424179483002232 0 0.19254414318066221 -0.24961624770678509 0 0.1866817818972302 -0.23981118877977231 0 0.2080714594183444 -0.2424179483002232 0 0.1866817818972302 -0.23981118877977231 0 0.18716213711817259 -0.22455639835484539 0 0.19254414318066221 -0.24961624770678509 0 0.18399505531774341 -0.24981832115951039 0 0.1866817818972302 -0.23981118877977231 0 0.21237941264848451 -0.18810475376770611 0 0.20793523744788639 -0.20366419955677639 0 0.19447652973028121 -0.19759128756789451 0 0.22308479462261119 -0.20217133576560289 0 0.21237941264848451 -0.18810475376770611 0 0.20793523744788639 -0.20366419955677639 0 0.22308479462261119 -0.20217133576560289 0 0.21722062693650279 -0.2226466586169516 0 0.20793523744788639 -0.20366419955677639 0 0.21722062693650279 -0.2226466586169516 0 0.20793523744788639 -0.20366419955677639 0 0.19848523837712481 -0.2136299623964425 0 0.19848523837712481 -0.2136299623964425 0 0.19447652973028121 -0.19759128756789451 0 0.1831457957419608 -0.2071674304332729 0 0.20793523744788639 -0.20366419955677639 0 0.19848523837712481 -0.2136299623964425 0 0.19447652973028121 -0.19759128756789451 0 0.19848523837712481 -0.2136299623964425 0 0.1831457957419608 -0.2071674304332729 0 0.18716213711817259 -0.22455639835484539 0 0.19629081049063871 -0.1815365299480412 0 0.19447652973028121 -0.19759128756789451 0 0.1840061663436266 -0.1900566622106199 0 0.19629081049063871 -0.1815365299480412 0 0.21237941264848451 -0.18810475376770611 0 0.19447652973028121 -0.19759128756789451 0 0.19447652973028121 -0.19759128756789451 0 0.1840061663436266 -0.1900566622106199 0 0.1831457957419608 -0.2071674304332729 0 0.1840061663436266 -0.1900566622106199 0 0.1831457957419608 -0.2071674304332729 0 0.16486725365112659 -0.18785963188663279 0 0.1831457957419608 -0.2071674304332729 0 0.16486725365112659 -0.18785963188663279 0 0.1831457957419608 -0.2071674304332729 0 0.16625281481800089 -0.2066948484094672 0 0.18716213711817259 -0.22455639835484539 0 0.16625281481800089 -0.2066948484094672 0 0.18716213711817259 -0.22455639835484539 0 0.16625281481800089 -0.2066948484094672 0 0.18716213711817259 -0.22455639835484539 0 0.16937657335138201 -0.22198425569814831 0 0.16625281481800089 -0.2066948484094672 0 0.15661990237239229 -0.21733625041789439 0 0.14909823278687431 -0.20687378182447139 0 0.16625281481800089 -0.2066948484094672 0 0.15661990237239229 -0.21733625041789439 0 0.16937657335138201 -0.22198425569814831 0 0.1831457957419608 -0.2071674304332729 0 0.16625281481800089 -0.2066948484094672 0 0.16486725365112659 -0.18785963188663279 0 0.16625281481800089 -0.2066948484094672 0 0.16486725365112659 -0.18785963188663279 0 0.14534349251782941 -0.188833298464089 0 0.17619278994504239 -0.24587918172992959 0 0.18399505531774341 -0.24981832115951039 0 0.1866817818972302 -0.23981118877977231 0 0.17619278994504239 -0.24587918172992959 0 0.17450151464944069 -0.23276490516368609 0 0.16609645978724119 -0.24143951784646769 0 0.17619278994504239 -0.24587918172992959 0 0.1866817818972302 -0.23981118877977231 0 0.17450151464944069 -0.23276490516368609 0 0.17450151464944069 -0.23276490516368609 0 0.18716213711817259 -0.22455639835484539 0 0.16937657335138201 -0.22198425569814831 0 0.1866817818972302 -0.23981118877977231 0 0.17450151464944069 -0.23276490516368609 0 0.18716213711817259 -0.22455639835484539 0 0.15661990237239229 -0.21733625041789439 0 0.1623464977989032 -0.22856887614484861 0 0.15090654410468329 -0.22688320449844629 0 0.15661990237239229 -0.21733625041789439 0 0.16937657335138201 -0.22198425569814831 0 0.1623464977989032 -0.22856887614484861 0 0.17450151464944069 -0.23276490516368609 0 0.1623464977989032 -0.22856887614484861 0 0.16609645978724119 -0.24143951784646769 0 0.17450151464944069 -0.23276490516368609 0 0.16937657335138201 -0.22198425569814831 0 0.1623464977989032 -0.22856887614484861 0 0.1623464977989032 -0.22856887614484861 0 0.16609645978724119 -0.24143951784646769 0 0.1528270009437688 -0.23836283418195289 0 0.16001236861667459 -0.2513654190734112 0 0.16609645978724119 -0.24143951784646769 0 0.1528270009437688 -0.23836283418195289 0 0.16978669848249819 -0.25098739912941831 0 0.17619278994504239 -0.24587918172992959 0 0.16609645978724119 -0.24143951784646769 0 0.16001236861667459 -0.2513654190734112 0 0.16978669848249819 -0.25098739912941831 0 0.16609645978724119 -0.24143951784646769 0 0.1429630926125974 -0.2502577086919005 0 0.16001236861667459 -0.2513654190734112 0 0.1528270009437688 -0.23836283418195289 0 0.1429630926125974 -0.2502577086919005 0 0.1528270009437688 -0.23836283418195289 0 0.13988621804673579 -0.23152362256679451 0 0.1528270009437688 -0.23836283418195289 0 0.15090654410468329 -0.22688320449844629 0 0.13988621804673579 -0.23152362256679451 0 0.1623464977989032 -0.22856887614484861 0 0.1528270009437688 -0.23836283418195289 0 0.15090654410468329 -0.22688320449844629 0 0.15661990237239229 -0.21733625041789439 0 0.15090654410468329 -0.22688320449844629 0 0.1428531013616163 -0.21862443918074129 0 0.15090654410468329 -0.22688320449844629 0 0.13988621804673579 -0.23152362256679451 0 0.1428531013616163 -0.21862443918074129 0 0.12018370186474731 -0.23305432747703519 0 0.12895394136930069 -0.22163642029703709 0 0.13988621804673579 -0.23152362256679451 0 0.12895394136930069 -0.22163642029703709 0 0.13988621804673579 -0.23152362256679451 0 0.1428531013616163 -0.21862443918074129 0 0.1429630926125974 -0.2502577086919005 0 0.12018370186474731 -0.23305432747703519 0 0.1429630926125974 -0.2502577086919005 0 0.12018370186474731 -0.23305432747703519 0 0.13988621804673579 -0.23152362256679451 0 0.13217397618885759 -0.25462043987800831 0 0.1429630926125974 -0.2502577086919005 0 0.12018370186474731 -0.23305432747703519 0 0.16625281481800089 -0.2066948484094672 0 0.14534349251782941 -0.188833298464089 0 0.16625281481800089 -0.2066948484094672 0 0.14534349251782941 -0.188833298464089 0 0.14909823278687431 -0.20687378182447139 0 0.14534349251782941 -0.188833298464089 0 0.14909823278687431 -0.20687378182447139 0 0.1346280568372662 -0.20359450925845249 0 0.15661990237239229 -0.21733625041789439 0 0.14909823278687431 -0.20687378182447139 0 0.1428531013616163 -0.21862443918074129 0 0.14909823278687431 -0.20687378182447139 0 0.1428531013616163 -0.21862443918074129 0 0.1346280568372662 -0.20359450925845249 0 0.1178461100078927 -0.20838697738218431 0 0.12895394136930069 -0.22163642029703709 0 0.1346280568372662 -0.20359450925845249 0 0.12895394136930069 -0.22163642029703709 0 0.1428531013616163 -0.21862443918074129 0 0.1346280568372662 -0.20359450925845249 0 0.14534349251782941 -0.188833298464089 0 0.1346280568372662 -0.20359450925845249 0 0.13128332926409281 -0.18787359724935929 0 0.1237689835273371 -0.19605207676116951 0 0.1178461100078927 -0.20838697738218431 0 0.1346280568372662 -0.20359450925845249 0 0.1237689835273371 -0.19605207676116951 0 0.1346280568372662 -0.20359450925845249 0 0.13128332926409281 -0.18787359724935929 0 0.1237689835273371 -0.19605207676116951 0 0.1232013989280239 -0.1819146573535104 0 0.13128332926409281 -0.18787359724935929 0 0.12443417021765769 -0.1709717485187108 0 0.14534349251782941 -0.188833298464089 0 0.12443417021765769 -0.1709717485187108 0 0.1232013989280239 -0.1819146573535104 0 0.13128332926409281 -0.18787359724935929 0 0.12443417021765769 -0.1709717485187108 0 0.14534349251782941 -0.188833298464089 0 0.13128332926409281 -0.18787359724935929 0 0.12443417021765769 -0.1709717485187108 0 0.14534349251782941 -0.188833298464089 0 0.13540865390058859 -0.1688207667960602 0 0.14534349251782941 -0.188833298464089 0 0.14658871156029241 -0.16855183333999291 0 0.13540865390058859 -0.1688207667960602 0 0.16486725365112659 -0.18785963188663279 0 0.14658871156029241 -0.16855183333999291 0 0.16486725365112659 -0.18785963188663279 0 0.14534349251782941 -0.188833298464089 0 0.14658871156029241 -0.16855183333999291 0 0.14658871156029241 -0.16855183333999291 0 0.13391177650968769 -0.15242347890466901 0 0.14971917460686079 -0.1530450482394467 0 0.14658871156029241 -0.16855183333999291 0 0.14971917460686079 -0.1530450482394467 0 0.16192904395431579 -0.15800089119817939 0 0.14658871156029241 -0.16855183333999291 0 0.13391177650968769 -0.15242347890466901 0 0.12831016946945831 -0.1492440347933528 0 0.14658871156029241 -0.16855183333999291 0 0.12831016946945831 -0.1492440347933528 0 0.14658871156029241 -0.16855183333999291 0 0.13540865390058859 -0.1688207667960602 0 0.1290045142054978 -0.1612372837293575 0 0.14658871156029241 -0.16855183333999291 0 0.1290045142054978 -0.1612372837293575 0 0.12831016946945831 -0.1492440347933528 0 0.13540865390058859 -0.1688207667960602 0 0.12715697753007521 -0.16591248018761531 0 0.1290045142054978 -0.1612372837293575 0 0.12443417021765769 -0.1709717485187108 0 0.13540865390058859 -0.1688207667960602 0 0.12715697753007521 -0.16591248018761531 0 0.12098675462827781 -0.16200852072179159 0 0.12715697753007521 -0.16591248018761531 0 0.1290045142054978 -0.1612372837293575 0 0.12324902196630889 -0.15465793599018671 0 0.1227471198665283 -0.15880086614903269 0 0.1290045142054978 -0.1612372837293575 0 0.13391177650968769 -0.15242347890466901 0 0.12831016946945831 -0.1492440347933528 0 0.12532898621889721 -0.13663811256420449 0 0.12324902196630889 -0.15465793599018671 0 0.1290045142054978 -0.1612372837293575 0 0.12831016946945831 -0.1492440347933528 0 0.1217036921304827 -0.1482443959076799 0 0.12831016946945831 -0.1492440347933528 0 0.12532898621889721 -0.13663811256420449 0 0.13391177650968769 -0.15242347890466901 0 0.13188977167139071 -0.12546883223523481 0 0.13391177650968769 -0.15242347890466901 0 0.13188977167139071 -0.12546883223523481 0 0.1446303542042412 -0.1380662602394005 0 0.13391177650968769 -0.15242347890466901 0 0.13188977167139071 -0.12546883223523481 0 0.12532898621889721 -0.13663811256420449 0 0.11997683785091839 -0.1276371159963853 0 0.13188977167139071 -0.12546883223523481 0 0.12532898621889721 -0.13663811256420449 0 0.1446303542042412 -0.1380662602394005 0 0.15557261582888751 -0.13003178131142151 0 0.1621281360659286 -0.14191921566573409 0 0.14724036225017881 -0.1245170930860646 0 0.13188977167139071 -0.12546883223523481 0 0.1446303542042412 -0.1380662602394005 0 0.14724036225017881 -0.1245170930860646 0 0.1446303542042412 -0.1380662602394005 0 0.15557261582888751 -0.13003178131142151 0 0.13391177650968769 -0.15242347890466901 0 0.1446303542042412 -0.1380662602394005 0 0.14971917460686079 -0.1530450482394467 0 0.1446303542042412 -0.1380662602394005 0 0.14971917460686079 -0.1530450482394467 0 0.1621281360659286 -0.14191921566573409 0 0.1621281360659286 -0.14191921566573409 0 0.17324983187337631 -0.13165498831909611 0 0.17651024624945799 -0.1485415537171802 0 0.14971917460686079 -0.1530450482394467 0 0.1621281360659286 -0.14191921566573409 0 0.16192904395431579 -0.15800089119817939 0 0.1621281360659286 -0.14191921566573409 0 0.17651024624945799 -0.1485415537171802 0 0.16192904395431579 -0.15800089119817939 0 0.16471491079178111 -0.1205264202314431 0 0.15557261582888751 -0.13003178131142151 0 0.1639163736399934 -0.1310331013819237 0 0.15557261582888751 -0.13003178131142151 0 0.1621281360659286 -0.14191921566573409 0 0.1639163736399934 -0.1310331013819237 0 0.1621281360659286 -0.14191921566573409 0 0.1639163736399934 -0.1310331013819237 0 0.17324983187337631 -0.13165498831909611 0 0.16471491079178111 -0.1205264202314431 0 0.1639163736399934 -0.1310331013819237 0 0.17324983187337631 -0.13165498831909611 0 0.1862357176231304 -0.1238823921021804 0 0.1919305776748628 -0.1461990482496055 0 0.17324983187337631 -0.13165498831909611 0 0.1919305776748628 -0.1461990482496055 0 0.17324983187337631 -0.13165498831909611 0 0.17651024624945799 -0.1485415537171802 0 0.1919305776748628 -0.1461990482496055 0 0.19225769977326759 -0.16432491474026781 0 0.17651024624945799 -0.1485415537171802 0 0.19225769977326759 -0.16432491474026781 0 0.17526083145963689 -0.16308053239281189 0 0.17982600751226671 -0.1762593337595659 0 0.19225769977326759 -0.16432491474026781 0 0.17651024624945799 -0.1485415537171802 0 0.17526083145963689 -0.16308053239281189 0 0.17526083145963689 -0.16308053239281189 0 0.17982600751226671 -0.1762593337595659 0 0.16627328335530381 -0.17069773137902189 0 0.1840061663436266 -0.1900566622106199 0 0.16486725365112659 -0.18785963188663279 0 0.17982600751226671 -0.1762593337595659 0 0.19629081049063871 -0.1815365299480412 0 0.1840061663436266 -0.1900566622106199 0 0.17982600751226671 -0.1762593337595659 0 0.16486725365112659 -0.18785963188663279 0 0.14658871156029241 -0.16855183333999291 0 0.16627328335530381 -0.17069773137902189 0 0.16486725365112659 -0.18785963188663279 0 0.17982600751226671 -0.1762593337595659 0 0.16627328335530381 -0.17069773137902189 0 0.14658871156029241 -0.16855183333999291 0 0.16192904395431579 -0.15800089119817939 0 0.16627328335530381 -0.17069773137902189 0 0.17526083145963689 -0.16308053239281189 0 0.16192904395431579 -0.15800089119817939 0 0.16627328335530381 -0.17069773137902189 0 0.17651024624945799 -0.1485415537171802 0 0.17526083145963689 -0.16308053239281189 0 0.16192904395431579 -0.15800089119817939 0 
</DataArray>
</Points>
<Cells>
<DataArray type="UInt32" Name="connectivity" format="ascii">
0 1 2 3 4 5 6 7 8 9 10 11 12 13 14 15 16 17 18 19 20 21 22 23 24 25 26 27 28 29 30 31 32 33 34 35 36 37 38 39 40 41 42 43 44 45 46 47 48 49 50 51 52 53 54 55 56 57 58 59 60 61 62 63 64 65 66 67 68 69 70 71 72 73 74 75 76 77 78 79 80 81 82 83 84 85 86 87 88 89 90 91 92 93 94 95 96 97 98 99 100 101 102 103 104 105 106 107 108 109 110 111 112 113 114 115 116 117 118 119 120 121 122 123 124 125 126 127 128 129 130 131 132 133 134 135 136 137 138 139 140 141 142 143 144 145 146 147 148 149 150 151 152 153 154 155 156 157 158 159 160 161 162 163 164 165 166 167 168 169 170 171 172 173 174 175 176 177 178 179 180 181 182 183 184 185 186 187 188 189 190 191 192 193 194 195 196 197 198 199 200 201 202 203 204 205 206 207 208 209 210 211 212 213 214 215 216 217 218 219 220 221 222 223 224 225 226 227 228 229 230 231 232 233 234 235 236 237 238 239 240 241 242 243 244 245 246 247 248 249 250 251 252 253 254 255 256 257 258 259 260 261 262 263 264 265 266 267 268 269 270 271 272 273 274 275 276 277 278 279 280 281 282 283 284 285 286 287 288 289 290 291 292 293 294 295 296 297 298 299 300 301 302 303 304 305 306 307 308 309 310 311 312 313 314 315 316 317 318 319 320 321 322 323 324 325 326 327 328 329 330 331 332 333 334 335 336 337 338 339 340 341 342 343 344 345 346 347 348 349 350 351 352 353 354 355 356 357 358 359 360 361 362 363 364 365 366 367 368 369 370 371 372 373 374 375 376 377 378 379 380 381 382 383 384 385 386 387 388 389 390 391 392 393 394 395 396 397 398 399 400 401 402 403 404 405 406 407 408 409 410 411 412 413 414 415 416 417 418 419 420 421 422 423 424 425 426 427 428 429 430 431 432 433 434 435 436 437 438 439 440 441 442 443 444 445 446 447 448 449 450 451 452 453 454 455 456 457 458 459 460 461 462 463 464 465 466 467 468 469 470 471 472 473 474 475 476 477 478 479 480 481 482 483 484 485 486 487 488 489 490 491 492 493 494 495 496 497 498 499 500 501 502 503 504 505 506 507 508 509 510 511 512 513 514 515 516 517 518 519 520 521 522 523 524 525 526 527 528 529 530 531 532 533 534 535 536 537 538 539 540 541 542 543 544 545 546 547 548 549 550 551 552 553 554 555 556 557 558 559 560 561 562 563 564 565 566 567 568 569 570 571 572 573 574 575 576 577 578 579 580 581 582 583 584 585 586 587 588 589 590 591 592 593 594 595 596 597 598 599 600 601 602 603 604 605 606 607 608 609 610 611 612 613 614 615 616 617 618 619 620 621 622 623 624 625 626 627 628 629 630 631 632 633 634 635 636 637 638 639 640 641 642 643 644 645 646 647 648 649 650 651 652 653 654 655 656 657 658 659 660 661 662 663 664 665 666 667 668 669 670 671 672 673 674 675 676 677 678 679 680 681 682 683 684 685 686 687 688 689 690 691 692 693 694 695 696 697 698 699 700 701 702 703 704 705 706 707 708 709 710 711 712 713 714 715 716 717 718 719 720 721 722 723 724 725 726 727 728 729 730 731 732 733 734 735 736 737 738 739 740 741 742 743 744 745 746 747 748 749 750 751 752 753 754 755 756 757 758 759 760 761 762 763 764 765 766 767 768 769 770 771 772 773 774 775 776 777 778 779 780 781 782 783 784 785 786 787 788 789 790 791 792 793 794 795 796 797 798 799 800 801 802 803 804 805 806 807 808 809 810 811 812 813 814 815 816 817 818 819 820 821 822 823 824 825 826 827 828 829 830 831 832 833 834 835 836 837 838 839 840 841 842 843 844 845 846 847 848 849 850 851 852 853 854 855 856 857 858 859 860 861 862 863 864 865 866 867 868 869 870 871 872 873 874 875 876 877 878 879 880 881 882 883 884 885 886 887 888 889 890 891 892 893 894 895 896 897 898 899 900 901 902 903 904 905 906 907 908 909 910 911 912 913 914 915 916 917 918 919 920 921 922 923 924 925 926 927 928 929 930 931 932 933 934 935 936 937 938 939 940 941 942 943 944 945 946 947 948 949 950 951 952 953 954 955 956 957 958 959 960 961 962 963 964 965 966 967 968 969 970 971 972 973 974 975 976 977 978 979 980 981 982 983 984 985 986 987 988 989 990 991 992 993 994 995 996 997 998 999 1000 1001 1002 1003 1004 1005 1006 1007 1008 1009 1010 1011 1012 1013 1014 1015 1016 1017 1018 1019 1020 1021 1022 1023 1024 1025 1026 1027 1028 1029 1030 1031 1032 1033 1034 1035 1036 1037 1038 1039 1040 1041 1042 1043 1044 1045 1046 1047 1048 1049 1050 1051 1052 1053 1054 1055 1056 1057 1058 1059 1060 1061 1062 1063 1064 1065 1066 1067 1068 1069 1070 1071 1072 1073 1074 1075 1076 1077 1078 1079 1080 1081 1082 1083 1084 1085 1086 1087 1088 1089 1090 1091 1092 1093 1094 1095 1096 1097 1098 1099 1100 1101 1102 1103 1104 1105 1106 1107 1108 1109 1110 1111 1112 1113 1114 1115 1116 1117 1118 1119 1120 1121 1122 1123 1124 1125 1126 1127 1128 1129 1130 1131 1132 1133 1134 1135 1136 1137 1138 1139 1140 1141 1142 1143 1144 1145 1146 1147 1148 1149 1150 1151 1152 1153 1154 1155 1156 1157 1158 1159 1160 1161 1162 1163 1164 1165 1166 1167 1168 1169 1170 1171 1172 1173 1174 1175 1176 1177 1178 1179 1180 1181 1182 1183 1184 1185 1186 1187 1188 1189 1190 1191 1192 1193 1194 1195 1196 1197 1198 1199 1200 1201 1202 1203 1204 1205 1206 1207 1208 1209 1210 1211 1212 1213 1214 1215 1216 1217 1218 1219 1220 1221 1222 1223 1224 1225 1226 1227 1228 1229 1230 1231 1232 1233 1234 1235 1236 1237 1238 1239 1240 1241 1242 1243 1244 1245 1246 1247 1248 1249 1250 1251 1252 1253 1254 1255 1256 1257 1258 1259 1260 1261 1262 1263 1264 1265 1266 1267 1268 1269 1270 1271 1272 1273 1274 1275 1276 1277 1278 1279 1280 1281 1282 1283 1284 1285 1286 1287 1288 1289 1290 1291 1292 1293 1294 1295 1296 1297 1298 1299 1300 1301 1302 1303 1304 1305 1306 1307 1308 1309 1310 1311 1312 1313 1314 1315 1316 1317 1318 1319 1320 1321 1322 1323 1324 1325 1326 1327 1328 1329 1330 1331 1332 1333 1334 1335 1336 1337 1338 1339 1340 1341 1342 1343 1344 1345 1346 1347 1348 1349 1350 1351 1352 1353 1354 1355 1356 1357 1358 1359 1360 1361 1362 1363 1364 1365 1366 1367 1368 1369 1370 1371 1372 1373 1374 1375 1376 1377 1378 1379 1380 1381 1382 1383 1384 1385 1386 1387 1388 1389 1390 1391 1392 1393 1394 1395 1396 1397 1398 1399 1400 1401 1402 1403 1404 1405 1406 1407 1408 1409 1410 1411 1412 1413 1414 1415 1416 1417 1418 1419 1420 1421 1422 1423 1424 1425 1426 1427 1428 1429 1430 1431 1432 1433 1434 1435 1436 1437 1438 1439 1440 1441 1442 1443 1444 1445 1446 1447 1448 1449 1450 1451 1452 1453 1454 1455 1456 1457 1458 1459 1460 1461 1462 1463 1464 1465 1466 1467 1468 1469 1470 1471 1472 1473 1474 1475 1476 1477 1478 1479 1480 1481 1482 1483 1484 1485 1486 1487 1488 1489 1490 1491 1492 1493 1494 1495 1496 1497 1498 1499 1500 1501 1502 1503 1504 1505 1506 1507 1508 1509 1510 1511 1512 1513 1514 1515 1516 1517 1518 1519 1520 1521 1522 1523 1524 1525 1526 1527 1528 1529 1530 1531 1532 1533 1534 1535 1536 1537 1538 1539 1540 1541 1542 1543 1544 1545 1546 1547 1548 1549 1550 1551 1552 1553 1554 1555 1556 1557 1558 1559 1560 1561 1562 1563 1564 1565 1566 1567 1568 1569 1570 1571 1572 1573 1574 1575 1576 1577 1578 1579 1580 1581 1582 1583 1584 1585 1586 1587 1588 1589 1590 1591 1592 1593 1594 1595 1596 1597 1598 1599 1600 1601 1602 1603 1604 1605 1606 1607 1608 1609 1610 1611 1612 1613 1614 1615 1616 1617 1618 1619 1620 1621 1622 1623 1624 1625 1626 1627 1628 1629 1630 1631 1632 1633 1634 1635 1636 1637 1638 1639 1640 1641 1642 1643 1644 1645 1646 1647 1648 1649 1650 1651 1652 1653 1654 1655 1656 1657 1658 1659 1660 1661 1662 1663 1664 1665 1666 1667 1668 1669 1670 1671 1672 1673 1674 1675 1676 1677 1678 1679 1680 1681 1682 1683 1684 1685 1686 1687 1688 1689 1690 1691 1692 1693 1694 1695 1696 1697 1698 1699 1700 1701 1702 1703 1704 1705 1706 1707 1708 1709 1710 1711 1712 1713 1714 1715 1716 1717 1718 1719 1720 1721 1722 1723 1724 1725 1726 1727 1728 1729 1730 1731 1732 1733 1734 1735 1736 1737 1738 1739 1740 1741 1742 1743 1744 1745 1746 1747 1748 1749 1750 1751 1752 1753 1754 1755 1756 1757 1758 1759 1760 1761 1762 1763 1764 1765 1766 1767 1768 1769 1770 1771 1772 1773 1774 1775 1776 1777 1778 1779 1780 1781 1782 1783 1784 1785 1786 1787 1788 1789 1790 1791 1792 1793 1794 1795 1796 1797 1798 1799 1800 1801 1802 1803 1804 1805 1806 1807 1808 1809 1810 1811 1812 1813 1814 1815 1816 1817 1818 1819 1820 1821 1822 1823 1824 1825 1826 1827 1828 1829 1830 1831 1832 1833 1834 1835 1836 1837 1838 1839 1840 1841 1842 1843 1844 1845 1846 1847 1848 1849 1850 1851 1852 1853 1854 1855 1856 1857 1858 1859 1860 1861 1862 1863 1864 1865 1866 1867 1868 1869 1870 1871 1872 1873 1874 1875 1876 1877 1878 1879 1880 1881 1882 1883 1884 1885 1886 1887 1888 1889 1890 1891 1892 1893 1894 1895 1896 1897 1898 1899 1900 1901 1902 1903 1904 1905 1906 1907 1908 1909 1910 1911 1912 1913 1914 1915 1916 1917 1918 1919 1920 1921 1922 1923 1924 1925 1926 1927 1928 1929 1930 1931 1932 1933 1934 1935 1936 1937 1938 1939 1940 1941 1942 1943 1944 1945 1946 1947 1948 1949 1950 1951 1952 1953 1954 1955 1956 1957 1958 1959 1960 1961 1962 1963 1964 1965 1966 1967 1968 1969 1970 1971 1972 1973 1974 1975 1976 1977 1978 1979 1980 1981 1982 1983 1984 1985 1986 1987 1988 1989 1990 1991 1992 1993 1994 1995 1996 1997 1998 1999 2000 2001 2002 2003 2004 2005 2006 2007 2008 2009 2010 2011 2012 2013 2014 2015 2016 2017 2018 2019 2020 2021 2022 2023 2024 2025 2026 2027 2028 2029 2030 2031 2032 2033 2034 2035 2036 2037 2038 2039 2040 2041 2042 2043 2044 2045 2046 2047 2048 2049 2050 2051 2052 2053 2054 2055 2056 2057 2058 2059 2060 2061 2062 2063 2064 2065 2066 2067 2068 2069 2070 2071 2072 2073 2074 2075 2076 2077 2078 2079 2080 2081 2082 2083 2084 2085 2086 2087 2088 2089 2090 2091 2092 2093 2094 2095 2096 2097 2098 2099 2100 2101 2102 2103 2104 2105 2106 2107 2108 2109 2110 2111 2112 2113 2114 2115 2116 2117 2118 2119 2120 2121 2122 2123 2124 2125 2126 2127 2128 2129 2130 2131 2132 2133 2134 2135 2136 2137 2138 2139 2140 2141 2142 2143 2144 2145 2146 2147 2148 2149 2150 2151 2152 2153 2154 2155 2156 2157 2158 2159 2160 2161 2162 2163 2164 2165 2166 2167 2168 2169 2170 2171 2172 2173 2174 2175 2176 2177 2178 2179 2180 2181 2182 2183 2184 2185 2186 2187 2188 2189 2190 2191 2192 2193 2194 2195 2196 2197 2198 2199 2200 2201 2202 2203 2204 2205 2206 2207 2208 2209 2210 2211 2212 2213 2214 2215 2216 2217 2218 2219 2220 2221 2222 2223 2224 2225 2226 2227 2228 2229 2230 2231 2232 2233 2234 2235 2236 2237 2238 2239 2240 2241 2242 2243 2244 2245 2246 2247 2248 2249 2250 2251 2252 2253 2254 2255 2256 2257 2258 2259 2260 2261 2262 2263 2264 2265 2266 2267 2268 2269 2270 2271 2272 2273 2274 2275 2276 2277 2278 2279 2280 2281 2282 2283 2284 2285 2286 2287 2288 2289 2290 2291 2292 2293 2294 2295 2296 2297 2298 2299 2300 2301 2302 2303 2304 2305 2306 2307 2308 2309 2310 2311 2312 2313 2314 2315 2316 2317 2318 2319 2320 2321 2322 2323 2324 2325 2326 2327 2328 2329 2330 2331 2332 2333 2334 2335 2336 2337 2338 2339 2340 2341 2342 2343 2344 2345 2346 2347 2348 2349 2350 2351 2352 2353 2354 2355 2356 2357 2358 2359 2360 2361 2362 2363 2364 2365 2366 2367 2368 2369 2370 2371 2372 2373 2374 2375 2376 2377 2378 2379 2380 2381 2382 2383 2384 2385 2386 2387 2388 2389 2390 2391 2392 2393 2394 2395 2396 2397 2398 2399 2400 2401 2402 2403 2404 2405 2406 2407 2408 2409 2410 2411 2412 2413 2414 2415 2416 2417 2418 2419 2420 2421 2422 2423 2424 2425 2426 2427 2428 2429 2430 2431 2432 2433 2434 2435 2436 2437 2438 2439 2440 2441 2442 2443 2444 2445 2446 2447 2448 2449 2450 2451 2452 2453 2454 2455 2456 2457 2458 2459 2460 2461 2462 2463 2464 2465 2466 2467 2468 2469 2470 2471 2472 2473 2474 2475 2476 2477 2478 2479 2480 2481 2482 2483 2484 2485 2486 2487 2488 2489 2490 2491 2492 2493 2494 2495 2496 2497 2498 2499 2500 2501 2502 2503 2504 2505 2506 2507 2508 2509 2510 2511 2512 2513 2514 2515 2516 2517 2518 2519 2520 2521 2522 2523 2524 2525 2526 2527 2528 2529 2530 2531 2532 2533 2534 2535 2536 2537 2538 2539 2540 2541 2542 2543 2544 2545 2546 2547 2548 2549 2550 2551 2552 2553 2554 2555 2556 2557 2558 2559 2560 2561 2562 2563 2564 2565 2566 2567 2568 2569 2570 2571 2572 2573 2574 2575 2576 2577 2578 2579 2580 2581 2582 2583 2584 2585 2586 2587 2588 2589 2590 2591 2592 2593 2594 2595 2596 2597 2598 2599 2600 2601 2602 2603 2604 2605 2606 2607 2608 2609 2610 2611 2612 2613 2614 2615 2616 2617 2618 2619 2620 2621 2622 2623 2624 2625 2626 2627 2628 2629 2630 2631 2632 2633 2634 2635 2636 2637 2638 2639 2640 2641 2642 2643 2644 2645 2646 2647 2648 2649 2650 2651 2652 2653 2654 2655 2656 2657 2658 2659 2660 2661 2662 2663 2664 2665 2666 2667 2668 2669 2670 2671 2672 2673 2674 2675 2676 2677 2678 2679 2680 2681 2682 2683 2684 2685 2686 2687 2688 2689 2690 2691 2692 2693 2694 2695 2696 2697 2698 2699 2700 2701 2702 2703 2704 2705 2706 2707 2708 2709 2710 2711 2712 2713 2714 2715 2716 2717 2718 2719 2720 2721 2722 2723 2724 2725 2726 2727 2728 2729 2730 2731 2732 2733 2734 2735 2736 2737 2738 2739 2740 2741 2742 2743 2744 2745 2746 2747 2748 2749 2750 2751 2752 2753 2754 2755 2756 2757 2758 2759 2760 2761 2762 2763 2764 2765 2766 2767 2768 2769 2770 2771 2772 2773 2774 2775 2776 2777 2778 2779 2780 2781 2782 2783 2784 2785 2786 2787 2788 2789 2790 2791 2792 2793 2794 2795 2796 2797 2798 2799 2800 2801 2802 2803 2804 2805 2806 2807 2808 2809 2810 2811 2812 2813 2814 2815 2816 2817 2818 2819 2820 2821 2822 2823 2824 2825 2826 2827 2828 2829 2830 2831 2832 2833 2834 2835 2836 2837 2838 2839 2840 2841 2842 2843 2844 2845 2846 2847 2848 2849 2850 2851 2852 2853 2854 2855 2856 2857 2858 2859 2860 2861 2862 2863 2864 2865 2866 2867 2868 2869 2870 2871 2872 2873 2874 2875 2876 2877 2878 2879 2880 2881 2882 2883 2884 2885 2886 2887 2888 2889 2890 2891 2892 2893 2894 2895 2896 2897 2898 2899 2900 2901 2902 2903 2904 2905 2906 2907 2908 2909 2910 2911 2912 2913 2914 2915 2916 2917 2918 2919 2920 2921 2922 2923 2924 2925 2926 2927 2928 2929 2930 2931 2932 2933 2934 2935 2936 2937 2938 2939 2940 2941 2942 2943 2944 2945 2946 2947 2948 2949 2950 2951 2952 2953 2954 2955 2956 2957 2958 2959 2960 2961 2962 2963 2964 2965 2966 2967 2968 2969 2970 2971 2972 2973 2974 2975 2976 2977 2978 2979 2980 2981 2982 2983 2984 2985 2986 2987 2988 2989 2990 2991 2992 2993 2994 2995 2996 2997 2998 2999 3000 3001 3002 3003 3004 3005 3006 3007 3008 3009 3010 3011 3012 3013 3014 3015 3016 3017 3018 3019 3020 3021 3022 3023 3024 3025 3026 3027 3028 3029 3030 3031 3032 3033 3034 3035 3036 3037 3038 3039 3040 3041 3042 3043 3044 3045 3046 3047 3048 3049 3050 3051 3052 3053 3054 3055 3056 3057 3058 3059 3060 3061 3062 3063 3064 3065 3066 3067 3068 3069 3070 3071 3072 3073 3074 3075 3076 3077 3078 3079 3080 3081 3082 3083 3084 3085 3086 3087 3088 3089 3090 3091 3092 3093 3094 3095 3096 3097 3098 3099 3100 3101 3102 3103 3104 3105 3106 3107 3108 3109 3110 3111 3112 3113 3114 3115 3116 3117 3118 3119 3120 3121 3122 3123 3124 3125 3126 3127 3128 3129 3130 3131 3132 3133 3134 3135 3136 3137 3138 3139 3140 3141 3142 3143 3144 3145 3146 3147 3148 3149 3150 3151 3152 3153 3154 3155 3156 3157 3158 3159 3160 3161 3162 3163 3164 3165 3166 3167 3168 3169 3170 3171 3172 3173 3174 3175 3176 3177 3178 3179 3180 3181 3182 3183 3184 3185 3186 3187 3188 3189 3190 3191 3192 3193 3194 3195 3196 3197 3198 3199 3200 3201 3202 3203 3204 3205 3206 3207 3208 3209 3210 3211 3212 3213 3214 3215 3216 3217 3218 3219 3220 3221 3222 3223 3224 3225 3226 3227 3228 3229 3230 3231 3232 3233 3234 3235 3236 3237 3238 3239 3240 3241 3242 3243 3244 3245 3246 3247 3248 3249 3250 3251 3252 3253 3254 3255 3256 3257 3258 3259 3260 3261 3262 3263 3264 3265 3266 3267 3268 3269 3270 3271 3272 3273 3274 3275 3276 3277 3278 3279 3280 3281 3282 3283 3284 3285 3286 3287 3288 3289 3290 3291 3292 3293 3294 3295 3296 3297 3298 3299 3300 3301 3302 3303 3304 3305 3306 3307 3308 3309 3310 3311 3312 3313 3314 3315 3316 3317 3318 3319 3320 3321 3322 3323 3324 3325 3326 3327 3328 3329 3330 3331 3332 3333 3334 3335 3336 3337 3338 3339 3340 3341 3342 3343 3344 3345 3346 3347 3348 3349 3350 3351 3352 3353 3354 3355 3356 3357 3358 3359 3360 3361 3362 3363 3364 3365 3366 3367 3368 3369 3370 3371 3372 3373 3374 3375 3376 3377 3378 3379 3380 3381 3382 3383 3384 3385 3386 3387 3388 3389 3390 3391 3392 3393 3394 3395 3396 3397 3398 3399 3400 3401 3402 3403 3404 3405 3406 3407 3408 3409 3410 3411 3412 3413 3414 3415 3416 3417 3418 3419 3420 3421 3422 3423 3424 3425 3426 3427 3428 3429 3430 3431 3432 3433 3434 3435 3436 3437 3438 3439 3440 3441 3442 3443 3444 3445 3446 3447 3448 3449 3450 3451 3452 3453 3454 3455 3456 3457 3458 3459 3460 3461 3462 3463 3464 3465 3466 3467 3468 3469 3470 3471 3472 3473 3474 3475 3476 3477 3478 3479 3480 3481 3482 3483 3484 3485 3486 3487 3488 3489 3490 3491 3492 3493 3494 3495 3496 3497 3498 3499 3500 3501 3502 3503 3504 3505 3506 3507 3508 3509 3510 3511 3512 3513 3514 3515 3516 3517 3518 3519 3520 3521 3522 3523 3524 3525 3526 3527 3528 3529 3530 3531 3532 3533 3534 3535 3536 3537 3538 3539 3540 3541 3542 3543 3544 3545 3546 3547 3548 3549 3550 3551 3552 3553 3554 3555 3556 3557 3558 3559 3560 3561 3562 3563 3564 3565 3566 3567 3568 3569 3570 3571 3572 3573 3574 3575 3576 3577 3578 3579 3580 3581 3582 3583 3584 3585 3586 3587 3588 3589 3590 3591 3592 3593 3594 3595 3596 3597 3598 3599 3600 3601 3602 3603 3604 3605 3606 3607 3608 3609 3610 3611 3612 3613 3614 3615 3616 3617 3618 3619 3620 3621 3622 3623 3624 3625 3626 3627 3628 3629 3630 3631 3632 3633 3634 3635 3636 3637 3638 3639 3640 3641 3642 3643 3644 3645 3646 3647 3648 3649 3650 3651 3652 3653 3654 3655 3656 3657 3658 3659 3660 3661 3662 3663 3664 3665 3666 3667 3668 3669 3670 3671 3672 3673 3674 3675 3676 3677 3678 3679 3680 3681 3682 3683 3684 3685 3686 3687 3688 3689 3690 3691 3692 3693 3694 3695 3696 3697 3698 3699 3700 3701 3702 3703 3704 3705 3706 3707 3708 3709 3710 3711 3712 3713 3714 3715 3716 3717 3718 3719 3720 3721 3722 3723 3724 3725 3726 3727 3728 3729 3730 3731 3732 3733 3734 3735 3736 3737 3738 3739 3740 3741 3742 3743 3744 3745 3746 3747 3748 3749 3750 3751 3752 3753 3754 3755 3756 3757 3758 3759 3760 3761 3762 3763 3764 3765 3766 3767 3768 3769 3770 3771 3772 3773 3774 3775 3776 3777 3778 3779 3780 3781 3782 3783 3784 3785 3786 3787 3788 3789 3790 3791 3792 3793 3794 3795 3796 3797 3798 3799 3800 3801 3802 3803 3804 3805 3806 3807 3808 3809 3810 3811 3812 3813 3814 3815 3816 3817 3818 3819 3820 3821 3822 3823 3824 3825 3826 3827 3828 3829 3830 3831 3832 3833 3834 3835 3836 3837 3838 3839 3840 3841 3842 3843 3844 3845 3846 3847 3848 3849 3850 3851 3852 3853 3854 3855 3856 3857 3858 3859 3860 3861 3862 3863 3864 3865 3866 3867 3868 3869 3870 3871 3872 3873 3874 3875 3876 3877 3878 3879 3880 3881 3882 3883 3884 3885 3886 3887 3888 3889 3890 3891 3892 3893 3894 3895 3896 3897 3898 3899 3900 3901 3902 3903 3904 3905 3906 3907 3908 3909 3910 3911 3912 3913 3914 3915 3916 3917 3918 3919 3920 3921 3922 3923 3924 3925 3926 3927 3928 3929 3930 3931 3932 3933 3934 3935 3936 3937 3938 3939 3940 3941 3942 3943 3944 3945 3946 3947 3948 3949 3950 3951 3952 3953 3954 3955 3956 3957 3958 3959 3960 3961 3962 3963 3964 3965 3966 3967 3968 3969 3970 3971 3972 3973 3974 3975 3976 3977 3978 3979 3980 3981 3982 3983 3984 3985 3986 3987 3988 3989 3990 3991 3992 3993 3994 3995 3996 3997 3998 3999 4000 4001 4002 4003 4004 4005 4006 4007 4008 4009 4010 4011 4012 4013 4014 4015 4016 4017 4018 4019 4020 4021 4022 4023 4024 4025 4026 4027 4028 4029 4030 4031 4032 4033 4034 4035 4036 4037 4038 4039 4040 4041 4042 4043 4044 4045 4046 4047 4048 4049 4050 4051 4052 4053 4054 4055 4056 4057 4058 4059 4060 4061 4062 4063 4064 4065 4066 4067 4068 4069 4070 4071 4072 4073 4074 4075 4076 4077 4078 4079 4080 4081 4082 4083 4084 4085 4086 4087 4088 4089 4090 4091 4092 4093 4094 4095 4096 4097 4098 4099 4100 4101 4102 4103 4104 4105 4106 4107 4108 4109 4110 4111 4112 4113 4114 4115 4116 4117 4118 4119 4120 4121 4122 4123 4124 4125 4126 4127 4128 4129 4130 4131 4132 4133 4134 4135 4136 4137 4138 4139 4140 4141 4142 4143 4144 4145 4146 4147 4148 4149 4150 4151 4152 4153 4154 4155 4156 4157 4158 4159 4160 4161 4162 4163 4164 4165 4166 4167 4168 4169 4170 4171 4172 4173 4174 4175 4176 4177 4178 4179 4180 4181 4182 4183 4184 4185 4186 4187 4188 4189 4190 4191 4192 4193 4194 4195 4196 4197 4198 4199 4200 4201 4202 4203 4204 4205 4206 4207 4208 4209 4210 4211 4212 4213 4214 4215 4216 4217 4218 4219 4220 4221 4222 4223 4224 4225 4226 4227 4228 4229 4230 4231 4232 4233 4234 4235 4236 4237 4238 4239 4240 4241 4242 4243 4244 4245 4246 4247 4248 4249 4250 4251 4252 4253 4254 4255 4256 4257 4258 4259 4260 4261 4262 4263 4264 4265 4266 4267 4268 4269 4270 4271 4272 4273 4274 4275 4276 4277 4278 4279 4280 4281 4282 4283 4284 4285 4286 4287 4288 4289 4290 4291 4292 4293 4294 4295 4296 4297 4298 4299 4300 4301 4302 4303 4304 4305 4306 4307 4308 4309 4310 4311 4312 4313 4314 4315 4316 4317 4318 4319 4320 4321 4322 4323 4324 4325 4326 4327 4328 4329 4330 4331 4332 4333 4334 4335 4336 4337 4338 4339 4340 4341 4342 4343 4344 4345 4346 4347 4348 4349 4350 4351 4352 4353 4354 4355 4356 4357 4358 4359 4360 4361 4362 4363 4364 4365 4366 4367 4368 4369 4370 4371 4372 4373 4374 4375 4376 4377 4378 4379 4380 4381 4382 4383 4384 4385 4386 4387 4388 4389 4390 4391 4392 4393 4394 4395 4396 4397 4398 4399 4400 4401 4402 4403 4404 4405 4406 4407 4408 4409 4410 4411 4412 4413 4414 4415 4416 4417 4418 4419 4420 4421 4422 4423 4424 4425 4426 4427 4428 4429 4430 4431 4432 4433 4434 4435 4436 4437 4438 4439 4440 4441 4442 4443 4444 4445 4446 4447 4448 4449 4450 4451 4452 4453 4454 4455 4456 4457 4458 4459 4460 4461 4462 4463 4464 4465 4466 4467 4468 4469 4470 4471 4472 4473 4474 4475 4476 4477 4478 4479 4480 4481 4482 4483 4484 4485 4486 4487 4488 4489 4490 4491 4492 4493 4494 4495 4496 4497 4498 4499 4500 4501 4502 4503 4504 4505 4506 4507 4508 4509 4510 4511 4512 4513 4514 4515 4516 4517 4518 4519 4520 4521 4522 4523 4524 4525 4526 4527 4528 4529 4530 4531 4532 4533 4534 4535 4536 4537 4538 4539 4540 4541 4542 4543 4544 4545 4546 4547 4548 4549 4550 4551 4552 4553 4554 4555 4556 4557 4558 4559 4560 4561 4562 4563 4564 4565 4566 4567 4568 4569 4570 4571 4572 4573 4574 4575 4576 4577 4578 4579 4580 4581 4582 4583 4584 4585 4586 4587 4588 4589 4590 4591 4592 4593 4594 4595 4596 4597 4598 4599 4600 4601 4602 4603 4604 4605 4606 4607 4608 4609 4610 4611 4612 4613 4614 4615 4616 4617 4618 4619 4620 4621 4622 4623 4624 4625 4626 4627 4628 4629 4630 4631 4632 4633 4634 4635 4636 4637 4638 4639 4640 4641 4642 4643 4644 4645 4646 4647 4648 4649 4650 4651 4652 4653 4654 4655 4656 4657 4658 4659 4660 4661 4662 4663 4664 4665 4666 4667 4668 4669 4670 4671 4672 4673 4674 4675 4676 4677 4678 4679 4680 4681 4682 4683 4684 4685 4686 4687 4688 4689 4690 4691 4692 4693 4694 4695 4696 4697 4698 4699 4700 4701 4702 4703 4704 4705 4706 4707 4708 4709 4710 4711 4712 4713 4714 4715 4716 4717 4718 4719 4720 4721 4722 4723 4724 4725 4726 4727 4728 4729 4730 4731 4732 4733 4734 4735 4736 4737 4738 4739 4740 4741 4742 4743 4744 4745 4746 4747 4748 4749 4750 4751 4752 4753 4754 4755 4756 4757 4758 4759 4760 4761 4762 4763 4764 4765 4766 4767 4768 4769 4770 4771 4772 4773 4774 4775 4776 4777 4778 4779 4780 4781 4782 4783 4784 4785 4786 4787 4788 4789 4790 4791 4792 4793 4794 4795 4796 4797 4798 4799 4800 4801 4802 4803 4804 4805 4806 4807 4808 4809 4810 4811 4812 4813 4814 4815 4816 4817 4818 4819 4820 4821 4822 4823 4824 4825 4826 4827 4828 4829 4830 4831 4832 4833 4834 4835 4836 4837 4838 4839 4840 4841 4842 4843 4844 4845 4846 4847 4848 4849 4850 4851 4852 4853 4854 4855 4856 4857 4858 4859 4860 4861 4862 4863 4864 4865 4866 4867 4868 4869 4870 4871 4872 4873 4874 4875 4876 4877 4878 4879 4880 4881 4882 4883 4884 4885 4886 4887 4888 4889 4890 4891 4892 4893 4894 4895 4896 4897 4898 4899 4900 4901 4902 4903 4904 4905 4906 4907 4908 4909 4910 4911 4912 4913 4914 4915 4916 4917 4918 4919 4920 4921 4922 4923 4924 4925 4926 4927 4928 4929 4930 4931 4932 4933 4934 4935 4936 4937 4938 4939 4940 4941 4942 4943 4944 4945 4946 4947 4948 4949 4950 4951 4952 4953 4954 4955 4956 4957 4958 4959 4960 4961 4962 4963 4964 4965 4966 4967 4968 4969 4970 4971 4972 4973 4974 4975 4976 4977 4978 4979 4980 4981 4982 4983 4984 4985 4986 4987 4988 4989 4990 4991 4992 4993 4994 4995 4996 4997 4998 4999 5000 5001 5002 5003 5004 5005 5006 5007 5008 5009 5010 5011 5012 5013 5014 5015 5016 5017 5018 5019 5020 5021 5022 5023 5024 5025 5026 5027 5028 5029 5030 5031 5032 5033 5034 5035 5036 5037 5038 5039 5040 5041 5042 5043 5044 5045 5046 5047 5048 5049 5050 5051 5052 5053 5054 5055 5056 5057 5058 5059 5060 5061 5062 5063 5064 5065 5066 5067 5068 5069 5070 5071 5072 5073 5074 5075 5076 5077 5078 5079 5080 5081 5082 5083 5084 5085 5086 5087 5088 5089 5090 5091 5092 5093 5094 5095 5096 5097 5098 5099 5100 5101 5102 5103 5104 5105 5106 5107 5108 5109 5110 5111 5112 5113 5114 5115 5116 5117 5118 5119 5120 5121 5122 5123 5124 5125 5126 5127 5128 5129 5130 5131 5132 5133 5134 5135 5136 5137 5138 5139 5140 5141 5142 5143 5144 5145 5146 5147 5148 5149 5150 5151 5152 5153 5154 5155 5156 5157 5158 5159 5160 5161 5162 5163 5164 5165 5166 5167 5168 5169 5170 5171 5172 5173 5174 5175 5176 5177 5178 5179 5180 5181 5182 5183 5184 5185 5186 5187 5188 5189 5190 5191 5192 5193 5194 5195 5196 5197 5198 5199 5200 5201 5202 5203 5204 5205 5206 5207 5208 5209 5210 5211 5212 5213 5214 5215 5216 5217 5218 5219 5220 5221 5222 5223 5224 5225 5226 5227 5228 5229 5230 5231 5232 5233 5234 5235 5236 5237 5238 5239 5240 5241 5242 5243 5244 5245 5246 5247 5248 5249 5250 5251 5252 5253 5254 5255 5256 5257 5258 5259 5260 5261 5262 5263 5264 5265 5266 5267 5268 5269 5270 5271 5272 5273 5274 5275 5276 5277 5278 5279 5280 5281 5282 5283 5284 5285 5286 5287 5288 5289 5290 5291 5292 5293 5294 5295 5296 5297 5298 5299 5300 5301 5302 5303 5304 5305 5306 5307 5308 5309 5310 5311 5312 5313 5314 5315 5316 5317 5318 5319 5320 5321 5322 5323 5324 5325 5326 5327 5328 5329 5330 5331 5332 5333 5334 5335 5336 5337 5338 5339 5340 5341 5342 5343 5344 5345 5346 5347 5348 5349 5350 5351 5352 5353 5354 5355 5356 5357 5358 5359 5360 5361 5362 5363 5364 5365 5366 5367 5368 5369 5370 5371 5372 5373 5374 5375 5376 5377 5378 5379 5380 5381 5382 5383 5384 5385 5386 5387 5388 5389 5390 5391 5392 5393 5394 5395 5396 5397 5398 5399 5400 5401 5402 5403 5404 5405 5406 5407 5408 5409 5410 5411 5412 5413 5414 5415 5416 5417 5418 5419 5420 5421 5422 5423 5424 5425 5426 5427 5428 5429 5430 5431 5432 5433 5434 5435 5436 5437 5438 5439 5440 5441 5442 5443 5444 5445 5446 5447 5448 5449 5450 5451 5452 5453 5454 5455 5456 5457 5458 5459 5460 5461 5462 5463 5464 5465 5466 5467 5468 5469 5470 5471 5472 5473 5474 5475 5476 5477 5478 5479 5480 5481 5482 5483 5484 5485 5486 5487 5488 5489 5490 5491 5492 5493 5494 5495 5496 5497 5498 5499 5500 5501 5502 5503 5504 5505 5506 5507 5508 5509 5510 5511 5512 5513 5514 5515 5516 5517 5518 5519 5520 5521 5522 5523 5524 5525 5526 5527 5528 5529 5530 5531 5532 5533 5534 5535 5536 5537 5538 5539 5540 5541 5542 5543 5544 5545 5546 5547 5548 5549 5550 5551 5552 5553 5554 5555 5556 5557 5558 5559 5560 5561 5562 5563 5564 5565 5566 5567 5568 5569 5570 5571 5572 5573 5574 5575 5576 5577 5578 5579 5580 5581 5582 5583 5584 5585 5586 5587 5588 5589 5590 5591 5592 5593 5594 5595 5596 5597 5598 5599 5600 5601 5602 5603 5604 5605 5606 5607 5608 5609 5610 5611 5612 5613 5614 5615 5616 5617 5618 5619 5620 5621 5622 5623 5624 5625 5626 5627 5628 5629 5630 5631 5632 5633 5634 5635 5636 5637 5638 5639 5640 5641 5642 5643 5644 5645 5646 5647 5648 5649 5650 5651 5652 5653 5654 5655 5656 5657 5658 5659 5660 5661 5662 5663 5664 5665 5666 5667 5668 5669 5670 5671 5672 5673 5674 5675 5676 5677 5678 5679 5680 5681 5682 5683 5684 5685 5686 5687 5688 5689 5690 5691 5692 5693 5694 5695 5696 5697 5698 5699 5700 5701 5702 5703 5704 5705 5706 5707 5708 5709 5710 5711 5712 5713 5714 5715 5716 5717 5718 5719 5720 5721 5722 5723 5724 5725 5726 5727 5728 5729 5730 5731 5732 5733 5734 5735 5736 5737 5738 5739 5740 5741 5742 5743 5744 5745 5746 5747 5748 5749 5750 5751 5752 5753 5754 5755 5756 5757 5758 5759 5760 5761 5762 5763 5764 5765 5766 5767 5768 5769 5770 5771 5772 5773 5774 5775 5776 5777 5778 5779 5780 5781 5782 5783 5784 5785 5786 5787 5788 5789 5790 5791 5792 5793 5794 5795 5796 5797 5798 5799 5800 5801 5802 5803 5804 5805 5806 5807 5808 5809 5810 5811 5812 5813 5814 5815 5816 5817 5818 5819 5820 5821 5822 5823 5824 5825 5826 5827 5828 5829 5830 5831 5832 5833 5834 5835 5836 5837 5838 5839 5840 5841 5842 5843 5844 5845 5846 5847 5848 5849 5850 5851 5852 5853 5854 5855 5856 5857 5858 5859 5860 5861 5862 5863 5864 5865 5866 5867 5868 5869 5870 5871 5872 5873 5874 5875 5876 5877 5878 5879 5880 5881 5882 5883 5884 5885 5886 5887 5888 5889 5890 5891 5892 5893 5894 5895 5896 5897 5898 5899 5900 5901 5902 5903 5904 5905 5906 5907 5908 5909 5910 5911 5912 5913 5914 5915 5916 5917 5918 5919 5920 5921 5922 5923 5924 5925 5926 5927 5928 5929 5930 5931 5932 5933 5934 5935 5936 5937 5938 5939 5940 5941 5942 5943 5944 5945 5946 5947 5948 5949 5950 5951 5952 5953 5954 5955 5956 5957 5958 5959 5960 5961 5962 5963 5964 5965 5966 5967 5968 5969 5970 5971 5972 5973 5974 5975 5976 5977 5978 5979 5980 5981 5982 5983 5984 5985 5986 5987 5988 5989 5990 5991 5992 5993 5994 5995 5996 5997 5998 5999 6000 6001 6002 6003 6004 6005 6006 6007 6008 6009 6010 6011 6012 6013 6014 6015 6016 6017 6018 6019 6020 6021 6022 6023 6024 6025 6026 6027 6028 6029 6030 6031 6032 6033 6034 6035 6036 6037 6038 6039 6040 6041 6042 6043 6044 6045 6046 6047 6048 6049 6050 6051 6052 6053 6054 6055 6056 6057 6058 6059 6060 6061 6062 6063 6064 6065 6066 6067 6068 6069 6070 6071 6072 6073 6074 6075 6076 6077 6078 6079 6080 6081 6082 6083 6084 6085 6086 6087 6088 6089 6090 6091 6092 6093 6094 6095 6096 6097 6098 6099 6100 6101 6102 6103 6104 6105 6106 6107 6108 6109 6110 6111 6112 6113 6114 6115 6116 6117 6118 6119 6120 6121 6122 6123 6124 6125 6126 6127 6128 6129 6130 6131 6132 6133 6134 6135 6136 6137 6138 6139 6140 6141 6142 6143 6144 6145 6146 6147 6148 6149 6150 6151 6152 6153 6154 6155 6156 6157 6158 6159 6160 6161 6162 6163 6164 6165 6166 6167 6168 6169 6170 6171 6172 6173 6174 6175 6176 6177 6178 6179 6180 6181 6182 6183 6184 6185 6186 6187 6188 6189 6190 6191 6192 6193 6194 6195 6196 6197 6198 6199 6200 6201 6202 6203 6204 6205 6206 6207 6208 6209 6210 6211 6212 6213 6214 6215 6216 6217 6218 6219 6220 6221 6222 6223 6224 6225 6226 6227 6228 6229 6230 6231 6232 6233 6234 6235 6236 6237 6238 6239 6240 6241 6242 6243 6244 6245 6246 6247 6248 6249 6250 6251 6252 6253 6254 6255 6256 6257 6258 6259 6260 6261 6262 6263 6264 6265 6266 6267 6268 6269 6270 6271 6272 6273 6274 6275 6276 6277 6278 6279 6280 6281 6282 6283 6284 6285 6286 6287 6288 6289 6290 6291 6292 6293 6294 6295 6296 6297 6298 6299 6300 6301 6302 6303 6304 6305 6306 6307 6308 6309 6310 6311 6312 6313 6314 6315 6316 6317 6318 6319 6320 6321 6322 6323 6324 6325 6326 6327 6328 6329 6330 6331 6332 6333 6334 6335 6336 6337 6338 6339 6340 6341 6342 6343 6344 6345 6346 6347 6348 6349 6350 6351 6352 6353 6354 6355 6356 6357 6358 6359 6360 6361 6362 6363 6364 6365 6366 6367 6368 6369 6370 6371 6372 6373 6374 6375 6376 6377 6378 6379 6380 6381 6382 6383 6384 6385 6386 6387 6388 6389 6390 6391 6392 6393 6394 6395 6396 6397 6398 6399 6400 6401 6402 6403 6404 6405 6406 6407 6408 6409 6410 6411 6412 6413 6414 6415 6416 6417 6418 6419 6420 6421 6422 6423 6424 6425 6426 6427 6428 6429 6430 6431 6432 6433 6434 6435 6436 6437 6438 6439 6440 6441 6442 6443 6444 6445 6446 6447 6448 6449 6450 6451 6452 6453 6454 6455 6456 6457 6458 6459 6460 6461 6462 6463 6464 6465 6466 6467 6468 6469 6470 6471 6472 6473 6474 6475 6476 6477 6478 6479 6480 6481 6482 6483 6484 6485 6486 6487 6488 6489 6490 6491 6492 6493 6494 6495 6496 6497 6498 6499 6500 6501 6502 6503 6504 6505 6506 6507 6508 6509 6510 6511 6512 6513 6514 6515 6516 6517 6518 6519 6520 6521 6522 6523 6524 6525 6526 6527 6528 6529 6530 6531 6532 6533 6534 6535 6536 6537 6538 6539 6540 6541 6542 6543 6544 6545 6546 6547 6548 6549 6550 6551 6552 6553 6554 6555 6556 6557 6558 6559 6560 6561 6562 6563 6564 6565 6566 6567 6568 6569 6570 6571 6572 6573 6574 6575 6576 6577 6578 6579 6580 6581 6582 6583 6584 6585 6586 6587 6588 6589 6590 6591 6592 6593 6594 6595 6596 6597 6598 6599 6600 6601 6602 6603 6604 6605 6606 6607 6608 6609 6610 6611 6612 6613 6614 6615 6616 6617 6618 6619 6620 6621 6622 6623 6624 6625 6626 6627 6628 6629 6630 6631 6632 6633 6634 6635 6636 6637 6638 6639 6640 6641 6642 6643 6644 6645 6646 6647 6648 6649 6650 6651 6652 6653 6654 6655 6656 6657 6658 6659 6660 6661 6662 6663 6664 6665 6666 6667 6668 6669 6670 6671 6672 6673 6674 6675 6676 6677 6678 6679 6680 6681 6682 6683 6684 6685 6686 6687 6688 6689 6690 6691 6692 6693 6694 6695 6696 6697 6698 6699 6700 6701 6702 6703 6704 6705 6706 6707 6708 6709 6710 6711 6712 6713 6714 6715 6716 6717 6718 6719 6720 6721 6722 6723 6724 6725 6726 6727 6728 6729 6730 6731 6732 6733 6734 6735 6736 6737 6738 6739 6740 6741 6742 6743 6744 6745 6746 6747 6748 6749 6750 6751 6752 6753 6754 6755 6756 6757 6758 6759 6760 6761 6762 6763 6764 6765 6766 6767 6768 6769 6770 6771 6772 6773 6774 6775 6776 6777 6778 6779 6780 6781 6782 6783 6784 6785 6786 6787 6788 6789 6790 6791 6792 6793 6794 6795 6796 6797 6798 6799 6800 6801 6802 6803 6804 6805 6806 6807 6808 6809 6810 6811 6812 6813 6814 6815 6816 6817 6818 6819 6820 6821 6822 6823 6824 6825 6826 6827 6828 6829 6830 6831 6832 6833 6834 6835 6836 6837 6838 6839 6840 6841 6842 6843 6844 6845 6846 6847 6848 6849 6850 6851 6852 6853 6854 6855 6856 6857 6858 6859 6860 6861 6862 6863 6864 6865 6866 6867 6868 6869 6870 6871 6872 6873 6874 6875 6876 6877 6878 6879 6880 6881 6882 6883 6884 6885 6886 6887 6888 6889 6890 6891 6892 6893 6894 6895 6896 6897 6898 6899 6900 6901 6902 6903 6904 6905 6906 6907 6908 6909 6910 6911 6912 6913 6914 6915 6916 6917 6918 6919 6920 6921 6922 6923 6924 6925 6926 6927 6928 6929 6930 6931 6932 6933 6934 6935 6936 6937 6938 6939 6940 6941 6942 6943 6944 6945 6946 6947 6948 6949 6950 6951 6952 6953 6954 6955 6956 6957 6958 6959 6960 6961 6962 6963 6964 6965 6966 6967 6968 6969 6970 6971 6972 6973 6974 6975 6976 6977 6978 6979 6980 6981 6982 6983 6984 6985 6986 6987 6988 6989 6990 6991 6992 6993 6994 6995 6996 6997 6998 6999 7000 7001 7002 7003 7004 7005 7006 7007 7008 7009 7010 7011 7012 7013 7014 7015 7016 7017 7018 7019 7020 7021 7022 7023 7024 7025 7026 7027 7028 7029 7030 7031 7032 7033 7034 7035 7036 7037 7038 7039 7040 7041 7042 7043 7044 7045 7046 7047 7048 7049 7050 7051 7052 7053 7054 7055 7056 7057 7058 7059 7060 7061 7062 7063 7064 7065 7066 7067 7068 7069 7070 7071 7072 7073 7074 7075 7076 7077 7078 7079 7080 7081 7082 7083 7084 7085 7086 7087 7088 7089 7090 7091 7092 7093 7094 7095 7096 7097 7098 7099 7100 7101 7102 7103 7104 7105 7106 7107 7108 7109 7110 7111 7112 7113 7114 7115 7116 7117 7118 7119 7120 7121 7122 7123 7124 7125 7126 7127 7128 7129 7130 7131 7132 7133 7134 7135 7136 7137 7138 7139 7140 7141 7142 7143 7144 7145 7146 7147 7148 7149 7150 7151 7152 7153 7154 7155 7156 7157 7158 7159 7160 7161 7162 7163 7164 7165 7166 7167 7168 7169 7170 7171 7172 7173 7174 7175 7176 7177 7178 7179 7180 7181 7182 7183 7184 7185 7186 7187 7188 7189 7190 7191 7192 7193 7194 7195 7196 7197 7198 7199 7200 7201 7202 7203 7204 7205 7206 7207 7208 7209 7210 7211 7212 7213 7214 7215 7216 7217 7218 7219 7220 7221 7222 7223 7224 7225 7226 7227 7228 7229 7230 7231 7232 7233 7234 7235 7236 7237 7238 7239 7240 7241 7242 7243 7244 7245 7246 7247 7248 7249 7250 7251 7252 7253 7254 7255 7256 7257 7258 7259 7260 7261 7262 7263 7264 7265 7266 7267 7268 7269 7270 7271 7272 7273 7274 7275 7276 7277 7278 7279 7280 7281 7282 7283 7284 7285 7286 7287 7288 7289 7290 7291 7292 7293 7294 7295 7296 7297 7298 7299 7300 7301 7302 7303 7304 7305 7306 7307 7308 7309 7310 7311 7312 7313 7314 7315 7316 7317 7318 7319 7320 7321 7322 7323 7324 7325 7326 7327 7328 7329 7330 7331 7332 7333 7334 7335 7336 7337 7338 7339 7340 7341 7342 7343 7344 7345 7346 7347 7348 7349 7350 7351 7352 7353 7354 7355 7356 7357 7358 7359 7360 7361 7362 7363 7364 7365 7366 7367 7368 7369 7370 7371 7372 7373 7374 7375 7376 7377 7378 7379 7380 7381 7382 7383 7384 7385 7386 7387 7388 7389 7390 7391 7392 7393 7394 7395 7396 7397 7398 7399 7400 7401 7402 7403 7404 7405 7406 7407 7408 7409 7410 7411 7412 7413 7414 7415 7416 7417 7418 7419 7420 7421 7422 7423 7424 7425 7426 7427 7428 7429 7430 7431 7432 7433 7434 7435 7436 7437 7438 7439 7440 7441 7442 7443 7444 7445 7446 7447 7448 7449 7450 7451 7452 7453 7454 7455 7456 7457 7458 7459 7460 7461 7462 7463 7464 7465 7466 7467 7468 7469 7470 7471 7472 7473 7474 7475 7476 7477 7478 7479 7480 7481 7482 7483 7484 7485 7486 7487 7488 7489 7490 7491 7492 7493 7494 7495 7496 7497 7498 7499 7500 7501 7502 7503 7504 7505 7506 7507 7508 7509 7510 7511 7512 7513 7514 7515 7516 7517 7518 7519 7520 7521 7522 7523 7524 7525 7526 7527 7528 7529 7530 7531 7532 7533 7534 7535 7536 7537 7538 7539 7540 7541 7542 7543 7544 7545 7546 7547 7548 7549 7550 7551 7552 7553 7554 7555 7556 7557 7558 7559 7560 7561 7562 7563 7564 7565 7566 7567 7568 7569 7570 7571 7572 7573 7574 7575 7576 7577 7578 7579 7580 7581 7582 7583 7584 7585 7586 7587 7588 7589 7590 7591 7592 7593 7594 7595 7596 7597 7598 7599 7600 7601 7602 7603 7604 7605 7606 7607 7608 7609 7610 7611 7612 7613 7614 7615 7616 7617 7618 7619 7620 7621 7622 7623 7624 7625 7626 7627 7628 7629 7630 7631 7632 7633 7634 7635 7636 7637 7638 7639 7640 7641 7642 7643 7644 7645 7646 7647 7648 7649 7650 7651 7652 7653 7654 7655 7656 7657 7658 7659 7660 7661 7662 7663 7664 7665 7666 7667 7668 7669 7670 7671 7672 7673 7674 7675 7676 7677 7678 7679 7680 7681 7682 7683 7684 7685 7686 7687 7688 7689 7690 7691 7692 7693 7694 7695 7696 7697 7698 7699 7700 7701 7702 7703 7704 7705 7706 7707 7708 7709 7710 7711 7712 7713 7714 7715 7716 7717 7718 7719 7720 7721 7722 7723 7724 7725 7726 7727 7728 7729 7730 7731 7732 7733 7734 7735 7736 7737 7738 7739 7740 7741 7742 7743 7744 7745 7746 7747 7748 7749 7750 7751 7752 7753 7754 7755 7756 7757 7758 7759 7760 7761 7762 7763 7764 7765 7766 7767 7768 7769 7770 7771 7772 7773 7774 7775 7776 7777 7778 7779 7780 7781 7782 7783 7784 7785 7786 7787 7788 7789 7790 7791 7792 7793 7794 7795 7796 7797 7798 7799 7800 7801 7802 7803 7804 7805 7806 7807 7808 7809 7810 7811 7812 7813 7814 7815 7816 7817 7818 7819 7820 7821 7822 7823 7824 7825 7826 7827 7828 7829 7830 7831 7832 7833 7834 7835 7836 7837 7838 7839 7840 7841 7842 7843 7844 7845 7846 7847 7848 7849 7850 7851 7852 7853 7854 7855 7856 7857 7858 7859 7860 7861 7862 7863 7864 7865 7866 7867 7868 7869 7870 7871 7872 7873 7874 7875 7876 7877 7878 7879 7880 7881 7882 7883 7884 7885 7886 7887 7888 7889 7890 7891 7892 7893 7894 7895 7896 7897 7898 7899 7900 7901 7902 7903 7904 7905 7906 7907 7908 7909 7910 7911 7912 7913 7914 7915 7916 7917 7918 7919 7920 7921 7922 7923 7924 7925 7926 7927 7928 7929 7930 7931 7932 7933 7934 7935 7936 7937 7938 7939 7940 7941 7942 7943 7944 7945 7946 7947 7948 7949 7950 7951 7952 7953 7954 7955 7956 7957 7958 7959 7960 7961 7962 7963 7964 7965 7966 7967 7968 7969 7970 7971 7972 7973 7974 7975 7976 7977 7978 7979 7980 7981 7982 7983 7984 7985 7986 7987 7988 7989 7990 7991 7992 7993 7994 7995 7996 7997 7998 7999 8000 8001 8002 8003 8004 8005 8006 8007 8008 8009 8010 8011 8012 8013 8014 8015 8016 8017 8018 8019 8020 8021 8022 8023 8024 8025 8026 8027 8028 8029 8030 8031 8032 8033 8034 8035 8036 8037 8038 8039 8040 8041 8042 8043 8044 8045 8046 8047 8048 8049 8050 8051 8052 8053 8054 8055 8056 8057 8058 8059 8060 8061 8062 8063 8064 8065 8066 8067 8068 8069 8070 8071 8072 8073 8074 8075 8076 8077 8078 8079 8080 8081 8082 8083 8084 8085 8086 8087 8088 8089 8090 8091 8092 8093 8094 8095 8096 8097 8098 8099 8100 8101 8102 8103 8104 8105 8106 8107 8108 8109 8110 8111 8112 8113 8114 8115 8116 8117 8118 8119 8120 8121 8122 8123 8124 8125 8126 8127 8128 8129 8130 8131 8132 8133 8134 8135 8136 8137 8138 8139 8140 8141 8142 8143 8144 8145 8146 8147 8148 8149 8150 8151 8152 8153 8154 8155 8156 8157 8158 8159 8160 8161 8162 8163 8164 8165 8166 8167 8168 8169 8170 8171 8172 8173 8174 8175 8176 8177 8178 8179 8180 8181 8182 8183 8184 8185 8186 8187 8188 8189 8190 8191 8192 8193 8194 8195 8196 8197 8198 8199 8200 8201 8202 8203 8204 8205 8206 8207 8208 8209 8210 8211 8212 8213 8214 8215 8216 8217 8218 8219 8220 8221 8222 8223 8224 8225 8226 8227 8228 8229 8230 8231 8232 8233 8234 8235 8236 8237 8238 8239 8240 8241 8242 8243 8244 8245 8246 8247 8248 8249 8250 8251 8252 8253 8254 8255 8256 8257 8258 8259 8260 8261 8262 8263 8264 8265 8266 8267 8268 8269 8270 8271 8272 8273 8274 8275 8276 8277 8278 8279 8280 8281 8282 8283 8284 8285 8286 8287 8288 8289 8290 8291 8292 8293 8294 8295 8296 8297 8298 8299 8300 8301 8302 8303 8304 8305 8306 8307 8308 8309 8310 8311 8312 8313 8314 8315 8316 8317 8318 8319 8320 8321 8322 8323 8324 8325 8326 8327 8328 8329 8330 8331 8332 8333 8334 8335 8336 8337 8338 8339 8340 8341 8342 8343 8344 8345 8346 8347 8348 8349 8350 8351 8352 8353 8354 8355 8356 8357 8358 8359 8360 8361 8362 8363 8364 8365 8366 8367 8368 8369 8370 8371 8372 8373 8374 8375 8376 8377 8378 8379 8380 8381 8382 8383 8384 8385 8386 8387 8388 8389 8390 8391 8392 8393 8394 8395 8396 8397 8398 8399 8400 8401 8402 8403 8404 8405 8406 8407 8408 8409 8410 8411 8412 8413 8414 8415 8416 8417 8418 8419 8420 8421 8422 8423 8424 8425 8426 8427 8428 8429 8430 8431 8432 8433 8434 8435 8436 8437 8438 8439 8440 8441 8442 8443 8444 8445 8446 8447 8448 8449 8450 8451 8452 8453 8454 8455 8456 8457 8458 8459 8460 8461 8462 8463 8464 8465 8466 8467 8468 8469 8470 8471 8472 8473 8474 8475 8476 8477 8478 8479 8480 8481 8482 8483 8484 8485 8486 8487 8488 8489 8490 8491 8492 8493 8494 8495 8496 8497 8498 8499 8500 8501 8502 8503 8504 8505 8506 8507 8508 8509 8510 8511 8512 8513 8514 8515 8516 8517 8518 8519 8520 8521 8522 8523 8524 8525 8526 8527 8528 8529 8530 8531 8532 8533 8534 8535 8536 8537 8538 8539 8540 8541 8542 8543 8544 8545 8546 8547 8548 8549 8550 8551 8552 8553 8554 8555 8556 8557 8558 8559 8560 8561 8562 8563 8564 8565 8566 8567 8568 8569 8570 8571 8572 8573 8574 8575 8576 8577 8578 8579 8580 8581 8582 8583 8584 8585 8586 8587 8588 8589 8590 8591 8592 8593 8594 8595 8596 8597 8598 8599 8600 8601 8602 8603 8604 8605 8606 8607 8608 8609 8610 8611 8612 8613 8614 8615 8616 8617 8618 8619 8620 8621 8622 8623 8624 8625 8626 8627 8628 8629 8630 8631 8632 8633 8634 8635 8636 8637 8638 8639 8640 8641 8642 8643 8644 8645 8646 8647 8648 8649 8650 8651 8652 8653 8654 8655 8656 8657 8658 8659 8660 8661 8662 8663 8664 8665 8666 8667 8668 8669 8670 8671 8672 8673 8674 8675 8676 8677 8678 8679 8680 8681 8682 8683 8684 8685 8686 8687 8688 8689 8690 8691 8692 8693 8694 8695 8696 8697 8698 8699 8700 8701 8702 8703 8704 8705 8706 8707 8708 8709 8710 8711 8712 8713 8714 8715 8716 8717 8718 8719 8720 8721 8722 8723 8724 8725 8726 8727 8728 8729 8730 8731 8732 8733 8734 8735 8736 8737 8738 8739 8740 8741 8742 8743 8744 8745 8746 8747 8748 8749 8750 8751 8752 8753 8754 8755 8756 8757 8758 8759 8760 8761 8762 8763 8764 8765 8766 8767 8768 8769 8770 8771 8772 8773 8774 8775 8776 8777 8778 8779 8780 8781 8782 8783 8784 8785 8786 8787 8788 8789 8790 8791 8792 8793 8794 8795 8796 8797 8798 8799 8800 8801 8802 8803 8804 8805 8806 8807 8808 8809 8810 8811 8812 8813 8814 8815 8816 8817 8818 8819 8820 8821 8822 8823 8824 8825 8826 8827 8828 8829 8830 8831 8832 8833 8834 8835 8836 8837 8838 8839 8840 8841 8842 8843 8844 8845 8846 8847 8848 8849 8850 8851 8852 8853 8854 8855 8856 8857 8858 8859 8860 8861 8862 8863 8864 8865 8866 8867 8868 8869 8870 8871 8872 8873 8874 8875 8876 8877 8878 8879 8880 8881 8882 8883 8884 8885 8886 8887 8888 8889 8890 8891 8892 8893 8894 8895 8896 8897 8898 8899 8900 8901 8902 8903 8904 8905 8906 8907 8908 8909 8910 8911 8912 8913 8914 8915 8916 8917 8918 8919 8920 8921 8922 8923 8924 8925 8926 8927 8928 8929 8930 8931 8932 8933 8934 8935 8936 8937 8938 8939 8940 8941 8942 8943 8944 8945 8946 8947 8948 8949 8950 8951 8952 8953 8954 8955 8956 8957 8958 8959 8960 8961 8962 8963 8964 8965 8966 8967 8968 8969 8970 8971 8972 8973 8974 8975 8976 8977 8978 8979 8980 8981 8982 8983 8984 8985 8986 8987 8988 8989 8990 8991 8992 8993 8994 8995 8996 8997 8998 8999 9000 9001 9002 9003 9004 9005 9006 9007 9008 9009 9010 9011 9012 9013 9014 9015 9016 9017 9018 9019 9020 9021 9022 9023 9024 9025 9026 9027 9028 9029 9030 9031 9032 9033 9034 9035 9036 9037 9038 9039 9040 9041 9042 9043 9044 9045 9046 9047 9048 9049 9050 9051 9052 9053 9054 9055 9056 9057 9058 9059 9060 9061 9062 9063 9064 9065 9066 9067 9068 9069 9070 9071 9072 9073 9074 9075 9076 9077 9078 9079 9080 9081 9082 9083 9084 9085 9086 9087 9088 9089 9090 9091 9092 9093 9094 9095 9096 9097 9098 9099 9100 9101 9102 9103 9104 9105 9106 9107 9108 9109 9110 9111 9112 9113 9114 9115 9116 9117 9118 9119 9120 9121 9122 9123 9124 9125 9126 9127 9128 9129 9130 9131 9132 9133 9134 9135 9136 9137 9138 9139 9140 9141 9142 9143 9144 9145 9146 9147 9148 9149 9150 9151 9152 9153 9154 9155 9156 9157 9158 9159 9160 9161 9162 9163 9164 9165 9166 9167 9168 9169 9170 9171 9172 9173 9174 9175 9176 9177 9178 9179 9180 9181 9182 9183 9184 9185 9186 9187 9188 9189 9190 9191 9192 9193 9194 9195 9196 9197 9198 9199 9200 9201 9202 9203 9204 9205 9206 9207 9208 9209 9210 9211 9212 9213 9214 9215 9216 9217 9218 9219 9220 9221 9222 9223 9224 9225 9226 9227 9228 9229 9230 9231 9232 9233 9234 9235 9236 9237 9238 9239 9240 9241 9242 9243 9244 9245 9246 9247 9248 9249 9250 9251 9252 9253 9254 9255 9256 9257 9258 9259 9260 9261 9262 9263 9264 9265 9266 9267 9268 9269 9270 9271 9272 9273 9274 9275 9276 9277 9278 9279 9280 9281 9282 9283 9284 9285 9286 9287 9288 9289 9290 9291 9292 9293 9294 9295 9296 9297 9298 9299 9300 9301 9302 9303 9304 9305 9306 9307 9308 9309 9310 9311 9312 9313 9314 9315 9316 9317 9318 9319 9320 9321 9322 9323 9324 9325 9326 9327 9328 9329 9330 9331 9332 9333 9334 9335 9336 9337 9338 9339 9340 9341 9342 9343 9344 9345 9346 9347 9348 9349 9350 9351 9352 9353 9354 9355 9356 9357 9358 9359 9360 9361 9362 9363 9364 9365 9366 9367 9368 9369 9370 9371 9372 9373 9374 9375 9376 9377 9378 9379 9380 9381 9382 9383 9384 9385 9386 9387 9388 9389 9390 9391 9392 9393 9394 9395 9396 9397 9398 9399 9400 9401 9402 9403 9404 9405 9406 9407 9408 9409 9410 9411 9412 9413 9414 9415 9416 9417 9418 9419 9420 9421 9422 9423 9424 9425 9426 9427 9428 9429 9430 9431 9432 9433 9434 9435 9436 9437 9438 9439 9440 9441 9442 9443 9444 9445 9446 9447 9448 9449 9450 9451 9452 9453 9454 9455 9456 9457 9458 9459 9460 9461 9462 9463 9464 9465 9466 9467 9468 9469 9470 9471 9472 9473 9474 9475 9476 9477 9478 9479 9480 9481 9482 9483 9484 9485 9486 9487 9488 9489 9490 9491 9492 9493 9494 9495 9496 9497 9498 9499 9500 9501 9502 9503 9504 9505 9506 9507 9508 9509 9510 9511 9512 9513 9514 9515 9516 9517 9518 9519 9520 9521 9522 9523 9524 9525 9526 9527 9528 9529 9530 9531 9532 9533 9534 9535 9536 9537 9538 9539 9540 9541 9542 9543 9544 9545 9546 9547 9548 9549 9550 9551 9552 9553 9554 9555 9556 9557 9558 9559 9560 9561 9562 9563 9564 9565 9566 9567 9568 9569 9570 9571 9572 9573 9574 9575 9576 9577 9578 9579 9580 9581 9582 9583 9584 9585 9586 9587 9588 9589 9590 9591 9592 9593 9594 9595 9596 9597 9598 9599 9600 9601 9602 9603 9604 9605 9606 9607 9608 9609 9610 9611 9612 9613 9614 9615 9616 9617 9618 9619 9620 9621 9622 9623 9624 9625 9626 9627 9628 9629 9630 9631 9632 9633 9634 9635 9636 9637 9638 9639 9640 9641 9642 9643 9644 9645 9646 9647 9648 9649 9650 9651 9652 9653 9654 9655 9656 9657 9658 9659 9660 9661 9662 9663 9664 9665 9666 9667 9668 9669 9670 9671 9672 9673 9674 9675 9676 9677 9678 9679 9680 9681 9682 9683 9684 9685 9686 9687 9688 9689 9690 9691 9692 9693 9694 9695 9696 9697 9698 9699 9700 9701 9702 9703 9704 9705 9706 9707 9708 9709 9710 9711 9712 9713 9714 9715 9716 9717 9718 9719 9720 9721 9722 9723 9724 9725 9726 9727 9728 9729 9730 9731 9732 9733 9734 9735 9736 9737 9738 9739 9740 9741 9742 9743 9744 9745 9746 9747 9748 9749 9750 9751 9752 9753 9754 9755 9756 9757 9758 9759 9760 9761 9762 9763 9764 9765 9766 9767 9768 9769 9770 9771 9772 9773 9774 9775 9776 9777 9778 9779 9780 9781 9782 9783 9784 9785 9786 9787 9788 9789 9790 9791 9792 9793 9794 9795 9796 9797 9798 9799 9800 9801 9802 9803 9804 9805 9806 9807 9808 9809 9810 9811 9812 9813 9814 9815 9816 9817 9818 9819 9820 9821 9822 9823 9824 9825 9826 9827 9828 9829 9830 9831 9832 9833 9834 9835 9836 9837 9838 9839 9840 9841 9842 9843 9844 9845 9846 9847 9848 9849 9850 9851 9852 9853 9854 9855 9856 9857 9858 9859 9860 9861 9862 9863 9864 9865 9866 9867 9868 9869 9870 9871 9872 9873 9874 9875 9876 9877 9878 9879 9880 9881 9882 9883 9884 9885 9886 9887 9888 9889 9890 9891 9892 9893 9894 9895 9896 9897 9898 9899 9900 9901 9902 9903 9904 9905 9906 9907 9908 9909 9910 9911 9912 9913 9914 9915 9916 9917 9918 9919 9920 9921 9922 9923 9924 9925 9926 9927 9928 9929 9930 9931 9932 9933 9934 9935 9936 9937 9938 9939 9940 9941 9942 9943 9944 9945 9946 9947 9948 9949 9950 9951 9952 9953 9954 9955 9956 9957 9958 9959 9960 9961 9962 9963 9964 9965 9966 9967 9968 9969 9970 9971 9972 9973 9974 9975 9976 9977 9978 9979 9980 9981 9982 9983 9984 9985 9986 9987 9988 9989 9990 9991 9992 9993 9994 9995 9996 9997 9998 9999 10000 10001 10002 10003 10004 10005 10006 10007 10008 10009 10010 10011 10012 10013 10014 10015 10016 10017 10018 10019 10020 10021 10022 10023 10024 10025 10026 10027 10028 10029 10030 10031 10032 10033 10034 10035 10036 10037 10038 10039 10040 10041 10042 10043 10044 10045 10046 10047 10048 10049 10050 10051 10052 10053 10054 10055 10056 10057 10058 10059 10060 10061 10062 10063 10064 10065 10066 10067 10068 10069 10070 10071 10072 10073 10074 10075 10076 10077 10078 10079 10080 10081 10082 10083 10084 10085 10086 10087 10088 10089 10090 10091 10092 10093 10094 10095 10096 10097 10098 10099 10100 10101 10102 10103 10104 10105 10106 10107 10108 10109 10110 10111 10112 10113 10114 10115 10116 10117 10118 10119 10120 10121 10122 10123 10124 10125 10126 10127 10128 10129 10130 10131 10132 10133 10134 10135 10136 10137 10138 10139 10140 10141 10142 10143 10144 10145 10146 10147 10148 10149 10150 10151 10152 10153 10154 10155 10156 10157 10158 10159 10160 10161 10162 10163 10164 10165 10166 10167 10168 10169 10170 10171 10172 10173 10174 10175 10176 10177 10178 10179 10180 10181 10182 10183 10184 10185 10186 10187 10188 10189 10190 10191 10192 10193 10194 10195 10196 10197 10198 10199 10200 10201 10202 10203 10204 10205 10206 10207 10208 10209 10210 10211 10212 10213 10214 10215 10216 10217 10218 10219 10220 10221 10222 10223 10224 10225 10226 10227 10228 10229 10230 10231 10232 10233 10234 10235 10236 10237 10238 10239 10240 10241 10242 10243 10244 10245 10246 10247 10248 10249 10250 10251 10252 10253 10254 10255 10256 10257 10258 10259 10260 10261 10262 10263 10264 10265 10266 10267 10268 10269 10270 10271 10272 10273 10274 10275 10276 10277 10278 10279 10280 10281 10282 10283 10284 10285 10286 10287 10288 10289 10290 10291 10292 10293 10294 10295 10296 10297 10298 10299 10300 10301 10302 10303 10304 10305 10306 10307 10308 10309 10310 10311 10312 10313 10314 10315 10316 10317 10318 10319 10320 10321 10322 10323 10324 10325 10326 10327 10328 10329 10330 10331 10332 10333 10334 10335 10336 10337 10338 10339 10340 10341 10342 10343 10344 10345 10346 10347 10348 10349 10350 10351 10352 10353 10354 10355 10356 10357 10358 10359 10360 10361 10362 10363 10364 10365 10366 10367 10368 10369 10370 10371 10372 10373 10374 10375 10376 10377 10378 10379 10380 10381 10382 10383 10384 10385 10386 10387 10388 10389 10390 10391 10392 10393 10394 10395 10396 10397 10398 10399 10400 10401 10402 10403 10404 10405 10406 10407 10408 10409 10410 10411 10412 10413 10414 10415 10416 10417 10418 10419 10420 10421 10422 10423 10424 10425 10426 10427 10428 10429 10430 10431 10432 10433 10434 10435 10436 10437 10438 10439 10440 10441 10442 10443 10444 10445 10446 10447 10448 10449 10450 10451 10452 10453 10454 10455 10456 10457 10458 10459 10460 10461 10462 10463 10464 10465 10466 10467 10468 10469 10470 10471 10472 10473 10474 10475 10476 10477 10478 10479 10480 10481 10482 10483 10484 10485 10486 10487 10488 10489 10490 10491 10492 10493 10494 10495 10496 10497 10498 10499 10500 10501 10502 10503 10504 10505 10506 10507 10508 10509 10510 10511 10512 10513 10514 10515 10516 10517 10518 10519 10520 10521 10522 10523 10524 10525 10526 10527 10528 10529 10530 10531 10532 10533 10534 10535 10536 10537 10538 10539 10540 10541 10542 10543 10544 10545 10546 10547 10548 10549 10550 10551 10552 10553 10554 10555 10556 10557 10558 10559 10560 10561 10562 10563 10564 10565 10566 10567 10568 10569 10570 10571 10572 10573 10574 10575 10576 10577 10578 10579 10580 10581 10582 10583 10584 10585 10586 10587 10588 10589 10590 10591 10592 10593 10594 10595 10596 10597 10598 10599 10600 10601 10602 10603 10604 10605 10606 10607 10608 10609 10610 10611 10612 10613 10614 10615 10616 10617 10618 10619 10620 10621 10622 10623 10624 10625 10626 10627 10628 10629 10630 10631 10632 10633 10634 10635 10636 10637 10638 10639 10640 10641 10642 10643 10644 10645 10646 10647 10648 10649 10650 10651 10652 10653 10654 10655 10656 10657 10658 10659 10660 10661 10662 10663 10664 10665 10666 10667 10668 10669 10670 10671 10672 10673 10674 10675 10676 10677 10678 10679 10680 10681 10682 10683 10684 10685 10686 10687 10688 10689 10690 10691 10692 10693 10694 10695 10696 10697 10698 10699 10700 10701 10702 10703 10704 10705 10706 10707 10708 10709 10710 10711 10712 10713 10714 10715 10716 10717 10718 10719 10720 10721 10722 10723 10724 10725 10726 10727 10728 10729 10730 10731 10732 10733 10734 10735 10736 10737 10738 10739 10740 10741 10742 10743 10744 10745 10746 10747 10748 10749 10750 10751 10752 10753 10754 10755 10756 10757 10758 10759 10760 10761 10762 10763 10764 10765 10766 10767 10768 10769 10770 10771 10772 10773 10774 10775 10776 10777 10778 10779 10780 10781 10782 10783 10784 10785 10786 10787 10788 10789 10790 10791 10792 10793 10794 10795 10796 10797 10798 10799 10800 10801 10802 10803 10804 10805 10806 10807 10808 10809 10810 10811 10812 10813 10814 10815 10816 10817 10818 10819 10820 10821 10822 10823 10824 10825 10826 10827 10828 10829 10830 10831 10832 10833 10834 10835 10836 10837 10838 10839 10840 10841 10842 10843 10844 10845 10846 10847 10848 10849 10850 10851 10852 10853 10854 10855 10856 10857 10858 10859 10860 10861 10862 10863 10864 10865 10866 10867 10868 10869 10870 10871 10872 10873 10874 10875 10876 10877 10878 10879 10880 10881 10882 10883 10884 10885 10886 10887 10888 10889 10890 10891 10892 10893 10894 10895 10896 10897 10898 10899 10900 10901 10902 10903 10904 10905 10906 10907 10908 10909 10910 10911 10912 10913 10914 10915 10916 10917 10918 10919 10920 10921 10922 10923 10924 10925 10926 10927 10928 10929 10930 10931 10932 10933 10934 10935 10936 10937 10938 10939 10940 10941 10942 10943 10944 10945 10946 10947 10948 10949 10950 10951 10952 10953 10954 10955 10956 10957 10958 10959 10960 10961 10962 10963 10964 10965 10966 10967 10968 10969 10970 10971 10972 10973 10974 10975 10976 10977 10978 10979 10980 10981 10982 10983 10984 10985 10986 10987 10988 10989 10990 10991 10992 10993 10994 10995 10996 10997 10998 10999 11000 11001 11002 11003 11004 11005 11006 11007 11008 11009 11010 11011 11012 11013 11014 11015 11016 11017 11018 11019 11020 11021 11022 11023 11024 11025 11026 11027 11028 11029 11030 11031 11032 11033 11034 11035 11036 11037 11038 11039 11040 11041 11042 11043 11044 11045 11046 11047 11048 11049 11050 11051 11052 11053 11054 11055 11056 11057 11058 11059 11060 11061 11062 11063 11064 11065 11066 11067 11068 11069 11070 11071 11072 11073 11074 11075 11076 11077 11078 11079 11080 11081 11082 11083 11084 11085 11086 11087 11088 11089 11090 11091 11092 11093 11094 11095 11096 11097 11098 11099 11100 11101 11102 11103 11104 11105 11106 11107 11108 11109 11110 11111 11112 11113 11114 11115 11116 11117 11118 11119 11120 11121 11122 11123 11124 11125 11126 11127 11128 11129 11130 11131 11132 11133 11134 11135 11136 11137 11138 11139 11140 11141 11142 11143 11144 11145 11146 11147 11148 11149 11150 11151 11152 11153 11154 11155 11156 11157 11158 11159 11160 11161 11162 11163 11164 11165 11166 11167 11168 11169 11170 11171 11172 11173 11174 11175 11176 11177 11178 11179 11180 11181 11182 11183 11184 11185 11186 11187 11188 11189 11190 11191 11192 11193 11194 11195 11196 11197 11198 11199 11200 11201 11202 11203 11204 11205 11206 11207 11208 11209 11210 11211 11212 11213 11214 11215 11216 11217 11218 11219 11220 11221 11222 11223 11224 11225 11226 11227 11228 11229 11230 11231 11232 11233 11234 11235 11236 11237 11238 11239 11240 11241 11242 11243 11244 11245 11246 11247 11248 11249 11250 11251 11252 11253 11254 11255 11256 11257 11258 11259 11260 11261 11262 11263 11264 11265 11266 11267 11268 11269 11270 11271 11272 11273 11274 11275 11276 11277 11278 11279 11280 11281 11282 11283 11284 11285 11286 11287 11288 11289 11290 11291 11292 11293 11294 11295 11296 11297 11298 11299 11300 11301 11302 11303 11304 11305 11306 11307 11308 11309 11310 11311 11312 11313 11314 11315 11316 11317 11318 11319 11320 11321 11322 11323 11324 11325 11326 11327 11328 11329 11330 11331 11332 11333 11334 11335 11336 11337 11338 11339 11340 11341 11342 11343 11344 11345 11346 11347 11348 11349 11350 11351 11352 11353 11354 11355 11356 11357 11358 11359 11360 11361 11362 11363 11364 11365 11366 11367 11368 11369 11370 11371 11372 11373 11374 11375 11376 11377 11378 11379 11380 11381 11382 11383 11384 11385 11386 11387 11388 11389 11390 11391 11392 11393 11394 11395 11396 11397 11398 11399 11400 11401 11402 11403 11404 11405 11406 11407 11408 11409 11410 11411 11412 11413 11414 11415 11416 11417 11418 11419 11420 11421 11422 11423 11424 11425 11426 11427 11428 11429 11430 11431 11432 11433 11434 11435 11436 11437 11438 11439 11440 11441 11442 11443 11444 11445 11446 11447 11448 11449 11450 11451 11452 11453 11454 11455 11456 11457 11458 11459 11460 11461 11462 11463 11464 11465 11466 11467 11468 11469 11470 11471 11472 11473 11474 11475 11476 11477 11478 11479 11480 11481 11482 11483 11484 11485 11486 11487 11488 11489 11490 11491 11492 11493 11494 11495 11496 11497 11498 11499 11500 11501 11502 11503 11504 11505 11506 11507 11508 11509 11510 11511 11512 11513 11514 11515 11516 11517 11518 11519 11520 11521 11522 11523 11524 11525 11526 11527 11528 11529 11530 11531 11532 11533 11534 11535 11536 11537 11538 11539 11540 11541 11542 11543 11544 11545 11546 11547 11548 11549 11550 11551 11552 11553 11554 11555 11556 11557 11558 11559 11560 11561 11562 11563 11564 11565 11566 11567 11568 11569 11570 11571 11572 11573 11574 11575 11576 11577 11578 11579 11580 11581 11582 11583 11584 11585 11586 11587 11588 11589 11590 11591 11592 11593 11594 11595 11596 11597 11598 11599 11600 11601 11602 11603 11604 11605 11606 11607 11608 11609 11610 11611 11612 11613 11614 11615 11616 11617 11618 11619 11620 11621 11622 11623 11624 11625 11626 11627 11628 11629 11630 11631 11632 11633 11634 11635 11636 11637 11638 11639 11640 11641 11642 11643 11644 11645 11646 11647 11648 11649 11650 11651 11652 11653 11654 11655 11656 11657 11658 11659 11660 11661 11662 11663 11664 11665 11666 11667 11668 11669 11670 11671 11672 11673 11674 11675 11676 11677 11678 11679 11680 11681 11682 11683 11684 11685 11686 11687 11688 11689 11690 11691 11692 11693 11694 11695 11696 11697 11698 11699 11700 11701 11702 11703 11704 11705 11706 11707 11708 11709 11710 11711 11712 11713 11714 11715 11716 11717 11718 11719 11720 11721 11722 11723 11724 11725 11726 11727 11728 11729 11730 11731 11732 11733 11734 11735 11736 11737 11738 11739 11740 11741 11742 11743 11744 11745 11746 11747 11748 11749 11750 11751 11752 11753 11754 11755 11756 11757 11758 11759 11760 11761 11762 11763 11764 11765 11766 11767 11768 11769 11770 11771 11772 11773 11774 11775 11776 11777 11778 11779 11780 11781 11782 11783 11784 11785 11786 11787 11788 11789 11790 11791 11792 11793 11794 11795 11796 11797 11798 11799 11800 11801 11802 11803 11804 11805 11806 11807 11808 11809 11810 11811 11812 11813 11814 11815 11816 11817 11818 11819 11820 11821 11822 11823 11824 11825 11826 11827 11828 11829 11830 11831 11832 11833 11834 11835 11836 11837 11838 11839 11840 11841 11842 11843 11844 11845 11846 11847 11848 11849 11850 11851 11852 11853 11854 11855 11856 11857 11858 11859 11860 11861 11862 11863 11864 11865 11866 11867 11868 11869 11870 11871 11872 11873 11874 11875 11876 11877 11878 11879 11880 11881 11882 11883 11884 11885 11886 11887 11888 11889 11890 11891 11892 11893 11894 11895 11896 11897 11898 11899 11900 11901 11902 11903 11904 11905 11906 11907 11908 11909 11910 11911 11912 11913 11914 11915 11916 11917 11918 11919 11920 11921 11922 11923 11924 11925 11926 11927 11928 11929 11930 11931 11932 11933 11934 11935 11936 11937 11938 11939 11940 11941 11942 11943 11944 11945 11946 11947 11948 11949 11950 11951 11952 11953 11954 11955 11956 11957 11958 11959 11960 11961 11962 11963 11964 11965 11966 11967 11968 11969 11970 11971 11972 11973 11974 11975 11976 11977 11978 11979 11980 11981 11982 11983 11984 11985 11986 11987 11988 11989 11990 11991 11992 11993 11994 11995 11996 11997 11998 11999 12000 12001 12002 12003 12004 12005 12006 12007 12008 12009 12010 12011 12012 12013 12014 12015 12016 12017 12018 12019 12020 12021 12022 12023 12024 12025 12026 12027 12028 12029 12030 12031 12032 12033 12034 12035 12036 12037 12038 12039 12040 12041 12042 12043 12044 12045 12046 12047 12048 12049 12050 12051 12052 12053 12054 12055 12056 12057 12058 12059 12060 12061 12062 12063 12064 12065 12066 12067 12068 12069 12070 12071 12072 12073 12074 12075 12076 12077 12078 12079 12080 12081 12082 12083 12084 12085 12086 12087 12088 12089 12090 12091 12092 12093 12094 12095 12096 12097 12098 12099 12100 12101 12102 12103 12104 12105 12106 12107 12108 12109 12110 12111 12112 12113 12114 12115 12116 12117 12118 12119 12120 12121 12122 12123 12124 12125 12126 12127 12128 12129 12130 12131 12132 12133 12134 12135 12136 12137 12138 12139 12140 12141 12142 12143 12144 12145 12146 12147 12148 12149 12150 12151 12152 12153 12154 12155 12156 12157 12158 12159 12160 12161 12162 12163 12164 12165 12166 12167 12168 12169 12170 12171 12172 12173 12174 12175 12176 12177 12178 12179 12180 12181 12182 12183 12184 12185 12186 12187 12188 12189 12190 12191 12192 12193 12194 12195 12196 12197 12198 12199 12200 12201 12202 12203 12204 12205 12206 12207 12208 12209 12210 12211 12212 12213 12214 12215 12216 12217 12218 12219 12220 12221 12222 12223 12224 12225 12226 12227 12228 12229 12230 12231 12232 12233 12234 12235 12236 12237 12238 12239 12240 12241 12242 12243 12244 12245 12246 12247 12248 12249 12250 12251 12252 12253 12254 12255 12256 12257 12258 12259 12260 12261 12262 12263 12264 12265 12266 12267 12268 12269 12270 12271 12272 12273 12274 12275 12276 12277 12278 12279 12280 12281 12282 12283 12284 12285 12286 12287 12288 12289 12290 12291 12292 12293 12294 12295 12296 12297 12298 12299 12300 12301 12302 12303 12304 12305 12306 12307 12308 12309 12310 12311 12312 12313 12314 12315 12316 12317 12318 12319 12320 12321 12322 12323 12324 12325 12326 12327 12328 12329 12330 12331 12332 12333 12334 12335 12336 12337 12338 12339 12340 12341 12342 12343 12344 12345 12346 12347 12348 12349 12350 12351 12352 12353 12354 12355 12356 12357 12358 12359 12360 12361 12362 12363 12364 12365 12366 12367 12368 12369 12370 12371 12372 12373 12374 12375 12376 12377 12378 12379 12380 12381 12382 12383 12384 12385 12386 12387 12388 12389 12390 12391 12392 12393 12394 12395 12396 12397 12398 12399 12400 12401 12402 12403 12404 12405 12406 12407 12408 12409 12410 12411 12412 12413 12414 12415 12416 12417 12418 12419 12420 12421 12422 12423 12424 12425 12426 12427 12428 12429 12430 12431 12432 12433 12434 12435 12436 12437 12438 12439 12440 12441 12442 12443 12444 12445 12446 12447 12448 12449 12450 12451 12452 12453 12454 12455 12456 12457 12458 12459 12460 12461 12462 12463 12464 12465 12466 12467 12468 12469 12470 12471 12472 12473 12474 12475 12476 12477 12478 12479 12480 12481 12482 12483 12484 12485 12486 12487 12488 12489 12490 12491 12492 12493 12494 12495 12496 12497 12498 12499 12500 12501 12502 12503 12504 12505 12506 12507 12508 12509 12510 12511 12512 12513 12514 12515 12516 12517 12518 12519 12520 12521 12522 12523 12524 12525 12526 12527 12528 12529 12530 12531 12532 12533 12534 12535 12536 12537 12538 12539 12540 12541 12542 12543 12544 12545 12546 12547 12548 12549 12550 12551 12552 12553 12554 12555 12556 12557 12558 12559 12560 12561 12562 12563 12564 12565 12566 12567 12568 12569 12570 12571 12572 12573 12574 12575 12576 12577 12578 12579 12580 12581 12582 12583 12584 12585 12586 12587 12588 12589 12590 12591 12592 12593 12594 12595 12596 12597 12598 12599 12600 12601 12602 12603 12604 12605 12606 12607 12608 12609 12610 12611 12612 12613 12614 12615 12616 12617 12618 12619 12620 12621 12622 12623 12624 12625 12626 12627 12628 12629 12630 12631 12632 12633 12634 12635 12636 12637 12638 12639 12640 12641 12642 12643 12644 12645 12646 12647 12648 12649 12650 12651 12652 12653 12654 12655 12656 12657 12658 12659 12660 12661 12662 12663 12664 12665 12666 12667 12668 12669 12670 12671 12672 12673 12674 12675 12676 12677 12678 12679 12680 12681 12682 12683 12684 12685 12686 12687 12688 12689 12690 12691 12692 12693 12694 12695 12696 12697 12698 12699 12700 12701 12702 12703 12704 12705 12706 12707 12708 12709 12710 12711 12712 12713 12714 12715 12716 12717 12718 12719 12720 12721 12722 12723 12724 12725 12726 12727 12728 12729 12730 12731 12732 12733 12734 12735 12736 12737 12738 12739 12740 12741 12742 12743 12744 12745 12746 12747 12748 12749 12750 12751 12752 12753 12754 12755 12756 12757 12758 12759 12760 12761 12762 12763 12764 12765 12766 12767 12768 12769 12770 12771 12772 12773 12774 12775 12776 12777 12778 12779 12780 12781 12782 12783 12784 12785 12786 12787 12788 12789 12790 12791 12792 12793 12794 12795 12796 12797 12798 12799 12800 12801 12802 12803 12804 12805 12806 12807 12808 12809 12810 12811 12812 12813 12814 12815 12816 12817 12818 12819 12820 12821 12822 12823 12824 12825 12826 12827 12828 12829 12830 12831 12832 12833 12834 12835 12836 12837 12838 12839 12840 12841 12842 12843 12844 12845 12846 12847 12848 12849 12850 12851 12852 12853 12854 12855 12856 12857 12858 12859 12860 12861 12862 12863 12864 12865 12866 12867 12868 12869 12870 12871 12872 12873 12874 12875 12876 12877 12878 12879 12880 12881 12882 12883 12884 12885 12886 12887 12888 12889 12890 12891 12892 12893 12894 12895 12896 12897 12898 12899 12900 12901 12902 12903 12904 12905 12906 12907 12908 12909 12910 12911 12912 12913 12914 12915 12916 12917 12918 12919 12920 12921 12922 12923 12924 12925 12926 12927 12928 12929 12930 12931 12932 12933 12934 12935 12936 12937 12938 12939 12940 12941 12942 12943 12944 12945 12946 12947 12948 12949 12950 12951 12952 12953 12954 12955 12956 12957 12958 12959 12960 12961 12962 12963 12964 12965 12966 12967 12968 12969 12970 12971 12972 12973 12974 12975 12976 12977 12978 12979 12980 12981 12982 12983 12984 12985 12986 12987 12988 12989 12990 12991 12992 12993 12994 12995 12996 12997 12998 12999 13000 13001 13002 13003 13004 13005 13006 13007 13008 13009 13010 13011 13012 13013 13014 13015 13016 13017 13018 13019 13020 13021 13022 13023 13024 13025 13026 13027 13028 13029 13030 13031 13032 13033 13034 13035 13036 13037 13038 13039 13040 13041 13042 13043 13044 13045 13046 13047 13048 13049 13050 13051 13052 13053 13054 13055 13056 13057 13058 13059 13060 13061 13062 13063 13064 13065 13066 13067 13068 13069 13070 13071 13072 13073 13074 13075 13076 13077 13078 13079 13080 13081 13082 13083 13084 13085 13086 13087 13088 13089 13090 13091 13092 13093 13094 13095 13096 13097 13098 13099 13100 13101 13102 13103 13104 13105 13106 13107 13108 13109 13110 13111 13112 13113 13114 13115 13116 13117 13118 13119 13120 13121 13122 13123 13124 13125 13126 13127 13128 13129 13130 13131 13132 13133 13134 13135 13136 13137 13138 13139 13140 13141 13142 13143 13144 13145 13146 13147 13148 13149 13150 13151 13152 13153 13154 13155 13156 13157 13158 13159 13160 13161 13162 13163 13164 13165 13166 13167 13168 13169 13170 13171 13172 13173 13174 13175 13176 13177 13178 13179 13180 13181 13182 13183 13184 13185 13186 13187 13188 13189 13190 13191 13192 13193 13194 13195 13196 13197 13198 13199 13200 13201 13202 13203 13204 13205 13206 13207 13208 13209 13210 13211 13212 13213 13214 13215 13216 13217 13218 13219 13220 13221 13222 13223 13224 13225 13226 13227 13228 13229 13230 13231 13232 13233 13234 13235 13236 13237 13238 13239 13240 13241 13242 13243 13244 13245 13246 13247 13248 13249 13250 13251 13252 13253 13254 13255 13256 13257 13258 13259 13260 13261 13262 13263 13264 13265 13266 13267 13268 13269 13270 13271 13272 13273 13274 13275 13276 13277 13278 13279 13280 13281 13282 13283 13284 13285 13286 13287 13288 13289 13290 13291 13292 13293 13294 13295 13296 13297 13298 13299 13300 13301 13302 13303 13304 13305 13306 13307 13308 13309 13310 13311 13312 13313 13314 13315 13316 13317 13318 13319 13320 13321 13322 13323 13324 13325 13326 13327 13328 13329 13330 13331 13332 13333 13334 13335 13336 13337 13338 13339 13340 13341 13342 13343 13344 13345 13346 13347 13348 13349 13350 13351 13352 13353 13354 13355 13356 13357 13358 13359 13360 13361 13362 13363 13364 13365 13366 13367 13368 13369 13370 13371 13372 13373 13374 13375 13376 13377 13378 13379 13380 13381 13382 13383 13384 13385 13386 13387 13388 13389 13390 13391 13392 13393 13394 13395 13396 13397 13398 13399 13400 13401 13402 13403 13404 13405 13406 13407 13408 13409 13410 13411 13412 13413 13414 13415 13416 13417 13418 13419 13420 13421 13422 13423 13424 13425 13426 13427 13428 13429 13430 13431 13432 13433 13434 13435 13436 13437 13438 13439 13440 13441 13442 13443 13444 13445 13446 13447 13448 13449 13450 13451 13452 13453 13454 13455 13456 13457 13458 13459 13460 13461 13462 13463 13464 13465 13466 13467 13468 13469 13470 13471 13472 13473 13474 13475 13476 13477 13478 13479 13480 13481 13482 13483 13484 13485 13486 13487 13488 13489 13490 13491 13492 13493 13494 13495 13496 13497 13498 13499 13500 13501 13502 13503 13504 13505 13506 13507 13508 13509 13510 13511 13512 13513 13514 13515 13516 13517 13518 13519 13520 13521 13522 13523 13524 13525 13526 13527 13528 13529 13530 13531 13532 13533 13534 13535 13536 13537 13538 13539 13540 13541 13542 13543 13544 13545 13546 13547 13548 13549 13550 13551 13552 13553 13554 13555 13556 13557 13558 13559 13560 13561 13562 13563 13564 13565 13566 13567 13568 13569 13570 13571 13572 13573 13574 13575 13576 13577 13578 13579 13580 13581 13582 13583 13584 13585 13586 13587 13588 13589 13590 13591 13592 13593 13594 13595 13596 13597 13598 13599 13600 13601 13602 13603 13604 13605 13606 13607 13608 13609 13610 13611 13612 13613 13614 13615 13616 13617 13618 13619 13620 13621 13622 13623 13624 13625 13626 13627 13628 13629 13630 13631 13632 13633 13634 13635 13636 13637 13638 13639 13640 13641 13642 13643 13644 13645 13646 13647 13648 13649 13650 13651 13652 13653 13654 13655 13656 13657 13658 13659 13660 13661 13662 13663 13664 13665 13666 13667 13668 13669 13670 13671 13672 13673 13674 13675 13676 13677 13678 13679 13680 13681 13682 13683 13684 13685 13686 13687 13688 13689 13690 13691 13692 13693 13694 13695 13696 13697 13698 13699 13700 13701 13702 13703 13704 13705 13706 13707 13708 13709 13710 13711 13712 13713 13714 13715 13716 13717 13718 13719 13720 13721 13722 13723 13724 13725 13726 13727 13728 13729 13730 13731 13732 13733 13734 13735 13736 13737 13738 13739 13740 13741 13742 13743 13744 13745 13746 13747 13748 13749 13750 13751 13752 13753 13754 13755 13756 13757 13758 13759 13760 13761 13762 13763 13764 13765 13766 13767 13768 13769 13770 13771 13772 13773 13774 13775 13776 13777 13778 13779 13780 13781 13782 13783 13784 13785 13786 13787 13788 13789 13790 13791 13792 13793 13794 13795 13796 13797 13798 13799 13800 13801 13802 13803 13804 13805 13806 13807 13808 13809 13810 13811 13812 13813 13814 13815 13816 13817 13818 13819 13820 13821 13822 13823 13824 13825 13826 13827 13828 13829 13830 13831 13832 13833 13834 13835 13836 13837 13838 13839 13840 13841 13842 13843 13844 13845 13846 13847 13848 13849 13850 13851 13852 13853 13854 13855 13856 13857 13858 13859 13860 13861 13862 13863 13864 13865 13866 13867 13868 13869 13870 13871 13872 13873 13874 13875 13876 13877 13878 13879 13880 13881 13882 13883 13884 13885 13886 13887 13888 13889 13890 13891 13892 13893 13894 13895 13896 13897 13898 13899 13900 13901 13902 13903 13904 13905 13906 13907 13908 13909 13910 13911 13912 13913 13914 13915 13916 13917 13918 13919 13920 13921 13922 13923 13924 13925 13926 13927 13928 13929 13930 13931 13932 13933 13934 13935 13936 13937 13938 13939 13940 13941 13942 13943 13944 13945 13946 13947 13948 13949 13950 13951 13952 13953 13954 13955 13956 13957 13958 13959 13960 13961 13962 13963 13964 13965 13966 13967 13968 13969 13970 13971 13972 13973 13974 13975 13976 13977 13978 13979 13980 13981 13982 13983 13984 13985 13986 13987 13988 13989 13990 13991 13992 13993 13994 13995 13996 13997 13998 13999 14000 14001 14002 14003 14004 14005 14006 14007 14008 14009 14010 14011 14012 14013 14014 14015 14016 14017 14018 14019 14020 14021 14022 14023 14024 14025 14026 14027 14028 14029 14030 14031 14032 14033 14034 14035 14036 14037 14038 14039 14040 14041 14042 14043 14044 14045 14046 14047 14048 14049 14050 14051 14052 14053 14054 14055 14056 14057 14058 14059 14060 14061 14062 14063 14064 14065 14066 14067 14068 14069 14070 14071 14072 14073 14074 14075 14076 14077 14078 14079 14080 14081 14082 14083 14084 14085 14086 14087 14088 14089 14090 14091 14092 14093 14094 14095 14096 14097 14098 14099 14100 14101 14102 14103 14104 14105 14106 14107 14108 14109 14110 14111 14112 14113 14114 14115 14116 14117 14118 14119 14120 14121 14122 14123 14124 14125 14126 14127 14128 14129 14130 14131 14132 14133 14134 14135 14136 14137 14138 14139 14140 14141 14142 14143 14144 14145 14146 14147 14148 14149 14150 14151 14152 14153 14154 14155 14156 14157 14158 14159 14160 14161 14162 14163 14164 14165 14166 14167 14168 14169 14170 14171 14172 14173 14174 14175 14176 14177 14178 14179 14180 14181 14182 14183 14184 14185 14186 14187 14188 14189 14190 14191 14192 14193 14194 14195 14196 14197 14198 14199 14200 14201 14202 14203 14204 14205 14206 14207 14208 14209 14210 14211 14212 14213 14214 14215 14216 14217 14218 14219 14220 14221 14222 14223 14224 14225 14226 14227 14228 14229 14230 14231 14232 14233 14234 14235 14236 14237 14238 14239 14240 14241 14242 14243 14244 14245 14246 14247 14248 14249 14250 14251 14252 14253 14254 14255 14256 14257 14258 14259 14260 14261 14262 14263 14264 14265 14266 14267 14268 14269 14270 14271 14272 14273 14274 14275 14276 14277 14278 14279 14280 14281 14282 14283 14284 14285 14286 14287 14288 14289 14290 14291 14292 14293 14294 14295 14296 14297 14298 14299 14300 14301 14302 14303 14304 14305 14306 14307 14308 14309 14310 14311 14312 14313 14314 14315 14316 14317 14318 14319 14320 14321 14322 14323 14324 14325 14326 14327 14328 14329 14330 14331 14332 14333 14334 14335 14336 14337 14338 14339 14340 14341 14342 14343 14344 14345 14346 14347 14348 14349 14350 14351 14352 14353 14354 14355 14356 14357 14358 14359 14360 14361 14362 14363 14364 14365 14366 14367 14368 14369 14370 14371 14372 14373 14374 14375 14376 14377 14378 14379 14380 14381 14382 14383 14384 14385 14386 14387 14388 14389 14390 14391 14392 14393 14394 14395 14396 14397 14398 14399 14400 14401 14402 14403 14404 14405 14406 14407 14408 14409 14410 14411 14412 14413 14414 14415 14416 14417 14418 14419 14420 14421 14422 14423 14424 14425 14426 14427 14428 14429 14430 14431 14432 14433 14434 14435 14436 14437 14438 14439 14440 14441 14442 14443 14444 14445 14446 14447 14448 14449 14450 14451 14452 14453 14454 14455 14456 14457 14458 14459 14460 14461 14462 14463 14464 14465 14466 14467 14468 14469 14470 14471 14472 14473 14474 14475 14476 14477 14478 14479 14480 14481 14482 14483 14484 14485 14486 14487 14488 14489 14490 14491 14492 14493 14494 14495 14496 14497 14498 14499 14500 14501 14502 14503 14504 14505 14506 14507 14508 14509 14510 14511 14512 14513 14514 14515 14516 14517 14518 14519 14520 14521 14522 14523 14524 14525 14526 14527 14528 14529 14530 14531 14532 14533 14534 14535 14536 14537 14538 14539 14540 14541 14542 14543 14544 14545 14546 14547 14548 14549 14550 14551 14552 14553 14554 14555 14556 14557 14558 14559 14560 14561 14562 14563 14564 14565 14566 14567 14568 14569 14570 14571 14572 14573 14574 14575 14576 14577 14578 14579 14580 14581 14582 14583 14584 14585 14586 14587 14588 14589 14590 14591 14592 14593 14594 14595 14596 14597 14598 14599 14600 14601 14602 14603 14604 14605 14606 14607 14608 14609 14610 14611 14612 14613 14614 14615 14616 14617 14618 14619 14620 14621 14622 14623 14624 14625 14626 14627 14628 14629 14630 14631 14632 14633 14634 14635 14636 14637 14638 14639 14640 14641 14642 14643 14644 14645 14646 14647 14648 14649 14650 14651 14652 14653 14654 14655 14656 14657 14658 14659 14660 14661 14662 14663 14664 14665 14666 14667 14668 14669 14670 14671 14672 14673 14674 14675 14676 14677 14678 14679 14680 14681 14682 14683 14684 14685 14686 14687 14688 14689 14690 14691 14692 14693 14694 14695 14696 14697 14698 14699 14700 14701 14702 14703 14704 14705 14706 14707 14708 14709 14710 14711 14712 14713 14714 14715 14716 14717 14718 14719 14720 14721 14722 14723 14724 14725 14726 14727 14728 14729 14730 14731 14732 14733 14734 14735 14736 14737 14738 14739 14740 14741 14742 14743 14744 14745 14746 14747 14748 14749 14750 14751 14752 14753 14754 14755 14756 14757 14758 14759 14760 14761 14762 14763 14764 14765 14766 14767 14768 14769 14770 14771 14772 14773 14774 14775 14776 14777 14778 14779 14780 14781 14782 14783 14784 14785 14786 14787 14788 14789 14790 14791 14792 14793 14794 14795 14796 14797 14798 14799 14800 14801 14802 14803 14804 14805 14806 14807 14808 14809 14810 14811 14812 14813 14814 14815 14816 14817 14818 14819 14820 14821 14822 14823 14824 14825 14826 14827 14828 14829 14830 14831 14832 14833 14834 14835 14836 14837 14838 14839 14840 14841 14842 14843 14844 14845 14846 14847 14848 14849 14850 14851 14852 14853 14854 14855 14856 14857 14858 14859 14860 14861 14862 14863 14864 14865 14866 14867 14868 14869 14870 14871 14872 14873 14874 14875 14876 14877 14878 14879 14880 14881 14882 14883 14884 14885 14886 14887 14888 14889 14890 14891 14892 14893 14894 14895 14896 14897 14898 14899 14900 14901 14902 14903 14904 14905 14906 14907 14908 14909 14910 14911 14912 14913 14914 14915 14916 14917 14918 14919 14920 14921 14922 14923 14924 14925 14926 14927 14928 14929 14930 14931 14932 14933 14934 14935 14936 14937 14938 14939 14940 14941 14942 14943 14944 14945 14946 14947 14948 14949 14950 14951 14952 14953 14954 14955 14956 14957 14958 14959 14960 14961 14962 14963 14964 14965 14966 14967 14968 14969 14970 14971 14972 14973 14974 14975 14976 14977 14978 14979 14980 14981 14982 14983 14984 14985 14986 14987 14988 14989 14990 14991 14992 14993 14994 14995 14996 14997 14998 14999 15000 15001 15002 15003 15004 15005 15006 15007 15008 15009 15010 15011 15012 15013 15014 15015 15016 15017 15018 15019 15020 15021 15022 15023 15024 15025 15026 15027 15028 15029 15030 15031 15032 15033 15034 15035 15036 15037 15038 15039 15040 15041 15042 15043 15044 15045 15046 15047 15048 15049 15050 15051 15052 15053 15054 15055 15056 15057 15058 15059 15060 15061 15062 15063 15064 15065 15066 15067 15068 15069 15070 15071 15072 15073 15074 15075 15076 15077 15078 15079 15080 15081 15082 15083 15084 15085 15086 15087 15088 15089 15090 15091 15092 15093 15094 15095 15096 15097 15098 15099 15100 15101 15102 15103 15104 15105 15106 15107 15108 15109 15110 15111 15112 15113 15114 15115 15116 15117 15118 15119 15120 15121 15122 15123 15124 15125 15126 15127 15128 15129 15130 15131 15132 15133 15134 15135 15136 15137 15138 15139 15140 15141 15142 15143 15144 15145 15146 15147 15148 15149 15150 15151 15152 15153 15154 15155 15156 15157 15158 15159 15160 15161 15162 15163 15164 15165 15166 15167 15168 15169 15170 15171 15172 15173 15174 15175 15176 15177 15178 15179 15180 15181 15182 15183 15184 15185 15186 15187 15188 15189 15190 15191 15192 15193 15194 15195 15196 15197 15198 15199 15200 15201 15202 15203 15204 15205 15206 15207 15208 15209 15210 15211 15212 15213 15214 15215 15216 15217 15218 15219 15220 15221 15222 15223 15224 15225 15226 15227 15228 15229 15230 15231 15232 15233 15234 15235 15236 15237 15238 15239 15240 15241 15242 15243 15244 15245 15246 15247 15248 15249 15250 15251 15252 15253 15254 15255 15256 15257 15258 15259 15260 15261 15262 15263 15264 15265 15266 15267 15268 15269 15270 15271 15272 15273 15274 15275 15276 15277 15278 15279 15280 15281 15282 15283 15284 15285 15286 15287 15288 15289 15290 15291 15292 15293 15294 15295 15296 15297 15298 15299 15300 15301 15302 15303 15304 15305 15306 15307 15308 15309 15310 15311 15312 15313 15314 15315 15316 15317 15318 15319 15320 15321 15322 15323 15324 15325 15326 15327 15328 15329 15330 15331 15332 15333 15334 15335 15336 15337 15338 15339 15340 15341 15342 15343 15344 15345 15346 15347 15348 15349 15350 15351 15352 15353 15354 15355 15356 15357 15358 15359 15360 15361 15362 15363 15364 15365 15366 15367 15368 15369 15370 15371 15372 15373 15374 15375 15376 15377 15378 15379 15380 15381 15382 15383 15384 15385 15386 15387 15388 15389 15390 15391 15392 15393 15394 15395 15396 15397 15398 15399 15400 15401 15402 15403 15404 15405 15406 15407 15408 15409 15410 15411 15412 15413 15414 15415 15416 15417 15418 15419 15420 15421 15422 15423 15424 15425 15426 15427 15428 15429 15430 15431 15432 15433 15434 15435 15436 15437 15438 15439 15440 15441 15442 15443 15444 15445 15446 15447 15448 15449 15450 15451 15452 15453 15454 15455 15456 15457 15458 15459 15460 15461 15462 15463 15464 15465 15466 15467 15468 15469 15470 15471 15472 15473 15474 15475 15476 15477 15478 15479 15480 15481 15482 15483 15484 15485 15486 15487 15488 15489 15490 15491 15492 15493 15494 15495 15496 15497 15498 15499 15500 15501 15502 15503 15504 15505 15506 15507 15508 15509 15510 15511 15512 15513 15514 15515 15516 15517 15518 15519 15520 15521 15522 15523 15524 15525 15526 15527 15528 15529 15530 15531 15532 15533 15534 15535 15536 15537 15538 15539 15540 15541 15542 15543 15544 15545 15546 15547 15548 15549 15550 15551 15552 15553 15554 15555 15556 15557 15558 15559 15560 15561 15562 15563 15564 15565 15566 15567 15568 15569 15570 15571 15572 15573 15574 15575 15576 15577 15578 15579 15580 15581 15582 15583 15584 15585 15586 15587 15588 15589 15590 15591 15592 15593 15594 15595 15596 15597 15598 15599 15600 15601 15602 15603 15604 15605 15606 15607 15608 15609 15610 15611 15612 15613 15614 15615 15616 15617 15618 15619 15620 15621 15622 15623 15624 15625 15626 15627 15628 15629 15630 15631 15632 15633 15634 15635 15636 15637 15638 15639 15640 15641 15642 15643 15644 15645 15646 15647 15648 15649 15650 15651 15652 15653 15654 15655 15656 15657 15658 15659 15660 15661 15662 15663 15664 15665 15666 15667 15668 15669 15670 15671 15672 15673 15674 15675 15676 15677 15678 15679 15680 15681 15682 15683 15684 15685 15686 15687 15688 15689 15690 15691 15692 15693 15694 15695 15696 15697 15698 15699 15700 15701 15702 15703 15704 15705 15706 15707 15708 15709 15710 15711 15712 15713 15714 15715 15716 15717 15718 15719 15720 15721 15722 15723 15724 15725 15726 15727 15728 15729 15730 15731 15732 15733 15734 15735 15736 15737 15738 15739 15740 15741 15742 15743 15744 15745 15746 15747 15748 15749 15750 15751 15752 15753 15754 15755 15756 15757 15758 15759 15760 15761 15762 15763 15764 15765 15766 15767 15768 15769 15770 15771 15772 15773 15774 15775 15776 15777 15778 15779 15780 15781 15782 15783 15784 15785 15786 15787 15788 15789 15790 15791 15792 15793 15794 15795 15796 15797 15798 15799 15800 15801 15802 15803 15804 15805 15806 15807 15808 15809 15810 15811 15812 15813 15814 15815 15816 15817 15818 15819 15820 15821 15822 15823 15824 15825 15826 15827 15828 15829 15830 15831 15832 15833 15834 15835 15836 15837 15838 15839 15840 15841 15842 15843 15844 15845 15846 15847 15848 15849 15850 15851 15852 15853 15854 15855 15856 15857 15858 15859 15860 15861 15862 15863 15864 15865 15866 15867 15868 15869 15870 15871 15872 15873 15874 15875 15876 15877 15878 15879 15880 15881 15882 15883 15884 15885 15886 15887 15888 15889 15890 15891 15892 15893 15894 15895 15896 15897 15898 15899 15900 15901 15902 15903 15904 15905 15906 15907 15908 15909 15910 15911 15912 15913 15914 15915 15916 15917 15918 15919 15920 15921 15922 15923 15924 15925 15926 15927 15928 15929 15930 15931 15932 15933 15934 15935 15936 15937 15938 15939 15940 15941 15942 15943 15944 15945 15946 15947 15948 15949 15950 15951 15952 15953 15954 15955 15956 15957 15958 15959 15960 15961 15962 15963 15964 15965 15966 15967 15968 15969 15970 15971 15972 15973 15974 15975 15976 15977 15978 15979 15980 15981 15982 15983 15984 15985 15986 15987 15988 15989 15990 15991 15992 15993 15994 15995 15996 15997 15998 15999 16000 16001 16002 16003 16004 16005 16006 16007 16008 16009 16010 16011 16012 16013 16014 16015 16016 16017 16018 16019 16020 16021 16022 16023 16024 16025 16026 16027 16028 16029 16030 16031 16032 16033 16034 16035 16036 16037 16038 16039 16040 16041 16042 16043 16044 16045 16046 16047 16048 16049 16050 16051 16052 16053 16054 16055 16056 16057 16058 16059 16060 16061 16062 16063 16064 16065 16066 16067 16068 16069 16070 16071 16072 16073 16074 16075 16076 16077 16078 16079 16080 16081 16082 16083 16084 16085 16086 16087 16088 16089 16090 16091 16092 16093 16094 16095 16096 16097 16098 16099 16100 16101 16102 16103 16104 16105 16106 16107 16108 16109 16110 16111 16112 16113 16114 16115 16116 16117 16118 16119 16120 16121 16122 16123 16124 16125 16126 16127 16128 16129 16130 16131 16132 16133 16134 16135 16136 16137 16138 16139 16140 16141 16142 16143 16144 16145 16146 16147 16148 16149 16150 16151 16152 16153 16154 16155 16156 16157 16158 16159 16160 16161 16162 16163 16164 16165 16166 16167 16168 16169 16170 16171 16172 16173 16174 16175 16176 16177 16178 16179 16180 16181 16182 16183 16184 16185 16186 16187 16188 16189 16190 16191 16192 16193 16194 16195 16196 16197 16198 16199 16200 16201 16202 16203 16204 16205 16206 16207 16208 16209 16210 16211 16212 16213 16214 16215 16216 16217 16218 16219 16220 16221 16222 16223 16224 16225 16226 16227 16228 16229 16230 16231 16232 16233 16234 16235 16236 16237 16238 16239 16240 16241 16242 16243 16244 16245 16246 16247 16248 16249 16250 16251 16252 16253 16254 16255 16256 16257 16258 16259 16260 16261 16262 16263 16264 16265 16266 16267 16268 16269 16270 16271 16272 16273 16274 16275 16276 16277 16278 16279 16280 16281 16282 16283 16284 16285 16286 16287 16288 16289 16290 16291 16292 16293 16294 16295 16296 16297 16298 16299 16300 16301 16302 16303 16304 16305 16306 16307 16308 16309 16310 16311 16312 16313 16314 16315 16316 16317 16318 16319 16320 16321 16322 16323 16324 16325 16326 16327 16328 16329 16330 16331 16332 16333 16334 16335 16336 16337 16338 16339 16340 16341 16342 16343 16344 16345 16346 16347 16348 16349 16350 16351 16352 16353 16354 16355 16356 16357 16358 16359 16360 16361 16362 16363 16364 16365 16366 16367 16368 16369 16370 16371 16372 16373 16374 16375 16376 16377 16378 16379 16380 16381 16382 16383 16384 16385 16386 16387 16388 16389 16390 16391 16392 16393 16394 16395 16396 16397 16398 16399 16400 16401 16402 16403 16404 16405 16406 16407 16408 16409 16410 16411 16412 16413 16414 16415 16416 16417 16418 16419 16420 16421 16422 16423 16424 16425 16426 16427 16428 16429 16430 16431 16432 16433 16434 16435 16436 16437 16438 16439 16440 16441 16442 16443 16444 16445 16446 16447 16448 16449 16450 16451 16452 16453 16454 16455 16456 16457 16458 16459 16460 16461 16462 16463 16464 16465 16466 16467 16468 16469 16470 16471 16472 16473 16474 16475 16476 16477 16478 16479 16480 16481 16482 16483 16484 16485 16486 16487 16488 16489 16490 16491 16492 16493 16494 16495 16496 16497 16498 16499 16500 16501 16502 16503 16504 16505 16506 16507 16508 16509 16510 16511 16512 16513 16514 16515 16516 16517 16518 16519 16520 16521 16522 16523 16524 16525 16526 16527 16528 16529 16530 16531 16532 16533 16534 16535 16536 16537 16538 16539 16540 16541 16542 16543 16544 16545 16546 16547 16548 16549 16550 16551 16552 16553 16554 16555 16556 16557 16558 16559 16560 16561 16562 16563 16564 16565 16566 16567 16568 16569 16570 16571 16572 16573 16574 16575 16576 16577 16578 16579 16580 16581 16582 16583 16584 16585 16586 16587 16588 16589 16590 16591 16592 16593 16594 16595 16596 16597 16598 16599 16600 16601 16602 16603 16604 16605 16606 16607 16608 16609 16610 16611 16612 16613 16614 16615 16616 16617 16618 16619 16620 16621 16622 16623 16624 16625 16626 16627 16628 16629 16630 16631 16632 16633 16634 16635 16636 16637 16638 16639 16640 16641 16642 16643 16644 16645 16646 16647 16648 16649 16650 16651 16652 16653 16654 16655 16656 16657 16658 16659 16660 16661 16662 16663 16664 16665 16666 16667 16668 16669 16670 16671 16672 16673 16674 16675 16676 16677 16678 16679 16680 16681 16682 16683 16684 16685 16686 16687 16688 16689 16690 16691 16692 16693 16694 16695 16696 16697 16698 16699 16700 16701 16702 16703 16704 16705 16706 16707 16708 16709 16710 16711 16712 16713 16714 16715 16716 16717 16718 16719 16720 16721 16722 16723 16724 16725 16726 16727 16728 16729 16730 16731 16732 16733 16734 16735 16736 16737 16738 16739 16740 16741 16742 16743 16744 16745 16746 16747 16748 16749 16750 16751 16752 16753 16754 16755 16756 16757 16758 16759 16760 16761 16762 16763 16764 16765 16766 16767 16768 16769 16770 16771 16772 16773 16774 16775 16776 16777 16778 16779 16780 16781 16782 16783 16784 16785 16786 16787 16788 16789 16790 16791 16792 16793 16794 16795 16796 16797 16798 16799 16800 16801 16802 16803 16804 16805 16806 16807 16808 16809 16810 16811 16812 16813 16814 16815 16816 16817 16818 16819 16820 16821 16822 16823 16824 16825 16826 16827 16828 16829 16830 16831 16832 16833 16834 16835 16836 16837 16838 16839 16840 16841 16842 16843 16844 16845 16846 16847 16848 16849 16850 16851 16852 16853 16854 16855 16856 16857 16858 16859 16860 16861 16862 16863 16864 16865 16866 16867 16868 16869 16870 16871 16872 16873 16874 16875 16876 16877 16878 16879 16880 16881 16882 16883 16884 16885 16886 16887 16888 16889 16890 16891 16892 16893 16894 16895 16896 16897 16898 16899 16900 16901 16902 16903 16904 16905 16906 16907 16908 16909 16910 16911 16912 16913 16914 16915 16916 16917 16918 16919 16920 16921 16922 16923 16924 16925 16926 16927 16928 16929 16930 16931 16932 16933 16934 16935 16936 16937 16938 16939 16940 16941 16942 16943 16944 16945 16946 16947 16948 16949 16950 16951 16952 16953 16954 16955 16956 16957 16958 16959 16960 16961 16962 16963 16964 16965 16966 16967 16968 16969 16970 16971 16972 16973 16974 16975 16976 16977 16978 16979 16980 16981 16982 16983 16984 16985 16986 16987 16988 16989 16990 16991 16992 16993 16994 16995 16996 16997 16998 16999 17000 17001 17002 17003 17004 17005 17006 17007 17008 17009 17010 17011 17012 17013 17014 17015 17016 17017 17018 17019 17020 17021 17022 17023 17024 17025 17026 17027 17028 17029 17030 17031 17032 17033 17034 17035 17036 17037 17038 17039 17040 17041 17042 17043 17044 17045 17046 17047 17048 17049 17050 17051 17052 17053 17054 17055 17056 17057 17058 17059 17060 17061 17062 17063 17064 17065 17066 17067 17068 17069 17070 17071 17072 17073 17074 17075 17076 17077 17078 17079 17080 17081 17082 17083 17084 17085 17086 17087 17088 17089 17090 17091 17092 17093 17094 17095 17096 17097 17098 17099 17100 17101 17102 17103 17104 17105 17106 17107 17108 17109 17110 17111 17112 17113 17114 17115 17116 17117 17118 17119 17120 17121 17122 17123 17124 17125 17126 17127 17128 17129 17130 17131 17132 17133 17134 17135 17136 17137 17138 17139 17140 17141 17142 17143 17144 17145 17146 17147 17148 17149 17150 17151 17152 17153 17154 17155 17156 17157 17158 17159 17160 17161 17162 17163 17164 17165 17166 17167 17168 17169 17170 17171 17172 17173 17174 17175 17176 17177 17178 17179 17180 17181 17182 17183 17184 17185 17186 17187 17188 17189 17190 17191 17192 17193 17194 17195 17196 17197 17198 17199 17200 17201 17202 17203 17204 17205 17206 17207 17208 17209 17210 17211 17212 17213 17214 17215 17216 17217 17218 17219 17220 17221 17222 17223 17224 17225 17226 17227 17228 17229 17230 17231 17232 17233 17234 17235 17236 17237 17238 17239 17240 17241 17242 17243 17244 17245 17246 17247 17248 17249 17250 17251 17252 17253 17254 17255 17256 17257 17258 17259 17260 17261 17262 17263 17264 17265 17266 17267 17268 17269 17270 17271 17272 17273 17274 17275 17276 17277 17278 17279 17280 17281 17282 17283 17284 17285 17286 17287 17288 17289 17290 17291 17292 17293 17294 17295 17296 17297 17298 17299 17300 17301 17302 17303 17304 17305 17306 17307 17308 17309 17310 17311 17312 17313 17314 17315 17316 17317 17318 17319 17320 17321 17322 17323 17324 17325 17326 17327 17328 17329 17330 17331 17332 17333 17334 17335 17336 17337 17338 17339 17340 17341 17342 17343 17344 17345 17346 17347 17348 17349 17350 17351 17352 17353 17354 17355 17356 17357 17358 17359 17360 17361 17362 17363 17364 17365 17366 17367 17368 17369 17370 17371 17372 17373 17374 17375 17376 17377 17378 17379 17380 17381 17382 17383 17384 17385 17386 17387 17388 17389 17390 17391 17392 17393 17394 17395 17396 17397 17398 17399 17400 17401 17402 17403 17404 17405 17406 17407 17408 17409 17410 17411 17412 17413 17414 17415 17416 17417 17418 17419 17420 17421 17422 17423 17424 17425 17426 17427 17428 17429 17430 17431 17432 17433 17434 17435 17436 17437 17438 17439 17440 17441 17442 17443 17444 17445 17446 17447 17448 17449 17450 17451 17452 17453 17454 17455 17456 17457 17458 17459 17460 17461 17462 17463 17464 17465 17466 17467 17468 17469 17470 17471 17472 17473 17474 17475 17476 17477 17478 17479 17480 17481 17482 17483 17484 17485 17486 17487 17488 17489 17490 17491 17492 17493 17494 17495 17496 17497 17498 17499 17500 17501 17502 17503 17504 17505 17506 17507 17508 17509 17510 17511 17512 17513 17514 17515 17516 17517 17518 17519 17520 17521 17522 17523 17524 17525 17526 17527 17528 17529 17530 17531 17532 17533 17534 17535 17536 17537 17538 17539 17540 17541 17542 17543 17544 17545 17546 17547 17548 17549 17550 17551 17552 17553 17554 17555 17556 17557 17558 17559 17560 17561 17562 17563 17564 17565 17566 17567 17568 17569 17570 17571 17572 17573 17574 17575 17576 17577 17578 17579 17580 17581 17582 17583 17584 17585 17586 17587 17588 17589 17590 17591 17592 17593 17594 17595 17596 17597 17598 17599 17600 17601 17602 17603 17604 17605 17606 17607 17608 17609 17610 17611 17612 17613 17614 17615 17616 17617 17618 17619 17620 17621 17622 17623 17624 17625 17626 17627 17628 17629 17630 17631 17632 17633 17634 17635 17636 17637 17638 17639 17640 17641 17642 17643 17644 17645 17646 17647 17648 17649 17650 17651 17652 17653 17654 17655 17656 17657 17658 17659 17660 17661 17662 17663 17664 17665 17666 17667 17668 17669 17670 17671 17672 17673 17674 17675 17676 17677 17678 17679 17680 17681 17682 17683 17684 17685 17686 17687 17688 17689 17690 17691 17692 17693 17694 17695 17696 17697 17698 17699 17700 17701 17702 17703 17704 17705 17706 17707 17708 17709 17710 17711 17712 17713 17714 17715 17716 17717 17718 17719 17720 17721 17722 17723 17724 17725 17726 17727 17728 17729 17730 17731 17732 17733 17734 17735 17736 17737 17738 17739 17740 17741 17742 17743 17744 17745 17746 17747 17748 17749 17750 17751 17752 17753 17754 17755 17756 17757 17758 17759 17760 17761 17762 17763 17764 17765 17766 17767 17768 17769 17770 17771 17772 17773 17774 17775 17776 17777 17778 17779 17780 17781 17782 17783 17784 17785 17786 17787 17788 17789 17790 17791 17792 17793 17794 17795 17796 17797 17798 17799 17800 17801 17802 17803 17804 17805 17806 17807 17808 17809 17810 17811 17812 17813 17814 17815 17816 17817 17818 17819 17820 17821 17822 17823 17824 17825 17826 17827 17828 17829 17830 17831 17832 17833 17834 17835 17836 17837 17838 17839 17840 17841 17842 17843 17844 17845 17846 17847 17848 17849 17850 17851 17852 17853 17854 17855 17856 17857 17858 17859 17860 17861 17862 17863 17864 17865 17866 17867 17868 17869 17870 17871 17872 17873 17874 17875 17876 17877 17878 17879 17880 17881 17882 17883 17884 17885 17886 17887 17888 17889 17890 17891 17892 17893 17894 17895 17896 17897 17898 17899 17900 17901 17902 17903 17904 17905 17906 17907 17908 17909 17910 17911 17912 17913 17914 17915 17916 17917 17918 17919 17920 17921 17922 17923 17924 17925 17926 17927 17928 17929 17930 17931 17932 17933 17934 17935 17936 17937 17938 17939 17940 17941 17942 17943 17944 17945 17946 17947 17948 17949 17950 17951 17952 17953 17954 17955 17956 17957 17958 17959 17960 17961 17962 17963 17964 17965 17966 17967 17968 17969 17970 17971 17972 17973 17974 17975 17976 17977 17978 17979 17980 17981 17982 17983 17984 17985 17986 17987 17988 17989 17990 17991 17992 17993 17994 17995 17996 17997 17998 17999 18000 18001 18002 18003 18004 18005 18006 18007 18008 18009 18010 18011 18012 18013 18014 18015 18016 18017 18018 18019 18020 18021 18022 18023 18024 18025 18026 18027 18028 18029 18030 18031 18032 18033 18034 18035 18036 18037 18038 18039 18040 18041 18042 18043 18044 18045 18046 18047 18048 18049 18050 18051 18052 18053 18054 18055 18056 18057 18058 18059 18060 18061 18062 18063 18064 18065 18066 18067 18068 18069 18070 18071 18072 18073 18074 18075 18076 18077 18078 18079 18080 18081 18082 18083 18084 18085 18086 18087 18088 18089 18090 18091 18092 18093 18094 18095 18096 18097 18098 18099 18100 18101 18102 18103 18104 18105 18106 18107 18108 18109 18110 18111 18112 18113 18114 18115 18116 18117 18118 18119 18120 18121 18122 18123 18124 18125 18126 18127 18128 18129 18130 18131 18132 18133 18134 18135 18136 18137 18138 18139 18140 18141 18142 18143 18144 18145 18146 18147 18148 18149 18150 18151 18152 18153 18154 18155 18156 18157 18158 18159 18160 18161 18162 18163 18164 18165 18166 18167 18168 18169 18170 18171 18172 18173 18174 18175 18176 18177 18178 18179 18180 18181 18182 18183 18184 18185 18186 18187 18188 18189 18190 18191 18192 18193 18194 18195 18196 18197 18198 18199 18200 18201 18202 18203 18204 18205 18206 18207 18208 18209 18210 18211 18212 18213 18214 18215 18216 18217 18218 18219 18220 18221 18222 18223 18224 18225 18226 18227 18228 18229 18230 18231 18232 18233 18234 18235 18236 18237 18238 18239 18240 18241 18242 18243 18244 18245 18246 18247 18248 18249 18250 18251 18252 18253 18254 18255 18256 18257 18258 18259 18260 18261 18262 18263 18264 18265 18266 18267 18268 18269 18270 18271 18272 18273 18274 18275 18276 18277 18278 18279 18280 18281 18282 18283 18284 18285 18286 18287 18288 18289 18290 18291 18292 18293 18294 18295 18296 18297 18298 18299 18300 18301 18302 18303 18304 18305 18306 18307 18308 18309 18310 18311 18312 18313 18314 18315 18316 18317 18318 18319 18320 18321 18322 18323 18324 18325 18326 18327 18328 18329 18330 18331 18332 18333 18334 18335 18336 18337 18338 18339 18340 18341 18342 18343 18344 18345 18346 18347 18348 18349 18350 18351 18352 18353 18354 18355 18356 18357 18358 18359 18360 18361 18362 18363 18364 18365 18366 18367 18368 18369 18370 18371 18372 18373 18374 18375 18376 18377 18378 18379 18380 18381 18382 18383 18384 18385 18386 18387 18388 18389 18390 18391 18392 18393 18394 18395 18396 18397 18398 18399 18400 18401 18402 18403 18404 18405 18406 18407 18408 18409 18410 18411 18412 18413 18414 18415 18416 18417 18418 18419 18420 18421 18422 18423 18424 18425 18426 18427 18428 18429 18430 18431 18432 18433 18434 18435 18436 18437 18438 18439 18440 18441 18442 18443 18444 18445 18446 18447 18448 18449 18450 18451 18452 18453 18454 18455 18456 18457 18458 18459 18460 18461 18462 18463 18464 18465 18466 18467 18468 18469 18470 18471 18472 18473 18474 18475 18476 18477 18478 18479 18480 18481 18482 18483 18484 18485 18486 18487 18488 18489 18490 18491 18492 18493 18494 18495 18496 18497 18498 18499 18500 18501 18502 18503 18504 18505 18506 18507 18508 18509 18510 18511 18512 18513 18514 18515 18516 18517 18518 18519 18520 18521 18522 18523 18524 18525 18526 18527 18528 18529 18530 18531 18532 18533 18534 18535 18536 18537 18538 18539 18540 18541 18542 18543 18544 18545 18546 18547 18548 18549 18550 18551 18552 18553 18554 18555 18556 18557 18558 18559 18560 18561 18562 18563 18564 18565 18566 18567 18568 18569 18570 18571 18572 18573 18574 18575 18576 18577 18578 18579 18580 18581 18582 18583 18584 18585 18586 18587 18588 18589 18590 18591 18592 18593 18594 18595 18596 18597 18598 18599 18600 18601 18602 18603 18604 18605 18606 18607 18608 18609 18610 18611 18612 18613 18614 18615 18616 18617 18618 18619 18620 18621 18622 18623 18624 18625 18626 18627 18628 18629 18630 18631 18632 18633 18634 18635 18636 18637 18638 18639 18640 18641 18642 18643 18644 18645 18646 18647 18648 18649 18650 18651 18652 18653 18654 18655 18656 18657 18658 18659 18660 18661 18662 18663 18664 18665 18666 18667 18668 18669 18670 18671 18672 18673 18674 18675 18676 18677 18678 18679 18680 18681 18682 18683 18684 18685 18686 18687 18688 18689 18690 18691 18692 18693 18694 18695 18696 18697 18698 18699 18700 18701 18702 18703 18704 18705 18706 18707 18708 18709 18710 18711 18712 18713 18714 18715 18716 18717 18718 18719 18720 18721 18722 18723 18724 18725 18726 18727 18728 18729 18730 18731 18732 18733 18734 18735 18736 18737 18738 18739 18740 18741 18742 18743 18744 18745 18746 18747 18748 18749 18750 18751 18752 18753 18754 18755 18756 18757 18758 18759 18760 18761 18762 18763 18764 18765 18766 18767 18768 18769 18770 18771 18772 18773 18774 18775 18776 18777 18778 18779 18780 18781 18782 18783 18784 18785 18786 18787 18788 18789 18790 18791 18792 18793 18794 18795 18796 18797 18798 18799 18800 18801 18802 18803 18804 18805 18806 18807 18808 18809 18810 18811 18812 18813 18814 18815 18816 18817 18818 18819 18820 18821 18822 18823 18824 18825 18826 18827 18828 18829 18830 18831 18832 18833 18834 18835 18836 18837 18838 18839 18840 18841 18842 18843 18844 18845 18846 18847 18848 18849 18850 18851 18852 18853 18854 18855 18856 18857 18858 18859 18860 18861 18862 18863 18864 18865 18866 18867 18868 18869 18870 18871 18872 18873 18874 18875 18876 18877 18878 18879 18880 18881 18882 18883 18884 18885 18886 18887 18888 18889 18890 18891 18892 18893 18894 18895 18896 18897 18898 18899 18900 18901 18902 18903 18904 18905 18906 18907 18908 18909 18910 18911 18912 18913 18914 18915 18916 18917 18918 18919 18920 18921 18922 18923 18924 18925 18926 18927 18928 18929 18930 18931 18932 18933 18934 18935 18936 18937 18938 18939 18940 18941 18942 18943 18944 18945 18946 18947 18948 18949 18950 18951 18952 18953 18954 18955 18956 18957 18958 18959 18960 18961 18962 18963 18964 18965 18966 18967 18968 18969 18970 18971 18972 18973 18974 18975 18976 18977 18978 18979 18980 18981 18982 18983 18984 18985 18986 18987 18988 18989 18990 18991 18992 18993 18994 18995 18996 18997 18998 18999 19000 19001 19002 19003 19004 19005 19006 19007 19008 19009 19010 19011 19012 19013 19014 19015 19016 19017 19018 19019 19020 19021 19022 19023 19024 19025 19026 19027 19028 19029 19030 19031 19032 19033 19034 19035 19036 19037 19038 19039 19040 19041 19042 19043 19044 19045 19046 19047 19048 19049 19050 19051 19052 19053 19054 19055 19056 19057 19058 19059 19060 19061 19062 19063 19064 19065 19066 19067 19068 19069 19070 19071 19072 19073 19074 19075 19076 19077 19078 19079 19080 19081 19082 19083 19084 19085 19086 19087 19088 19089 19090 19091 19092 19093 19094 19095 19096 19097 19098 19099 19100 19101 19102 19103 19104 19105 19106 19107 19108 19109 19110 19111 19112 19113 19114 19115 19116 19117 19118 19119 19120 19121 19122 19123 19124 19125 19126 19127 19128 19129 19130 19131 19132 19133 19134 19135 19136 19137 19138 19139 19140 19141 19142 19143 19144 19145 19146 19147 19148 19149 19150 19151 19152 19153 19154 19155 19156 19157 19158 19159 19160 19161 19162 19163 19164 19165 19166 19167 19168 19169 19170 19171 19172 19173 19174 19175 19176 19177 19178 19179 19180 19181 19182 19183 19184 19185 19186 19187 19188 19189 19190 19191 19192 19193 19194 19195 19196 19197 19198 19199 19200 19201 19202 19203 19204 19205 19206 19207 19208 19209 19210 19211 19212 19213 19214 19215 19216 19217 19218 19219 19220 19221 19222 19223 19224 19225 19226 19227 19228 19229 19230 19231 19232 19233 19234 19235 19236 19237 19238 19239 19240 19241 19242 19243 19244 19245 19246 19247 19248 19249 19250 19251 19252 19253 19254 19255 19256 19257 19258 19259 19260 19261 19262 19263 19264 19265 19266 19267 19268 19269 19270 19271 19272 19273 19274 19275 19276 19277 19278 19279 19280 19281 19282 19283 19284 19285 19286 19287 19288 19289 19290 19291 19292 19293 19294 19295 19296 19297 19298 19299 19300 19301 19302 19303 19304 19305 19306 19307 19308 19309 19310 19311 19312 19313 19314 19315 19316 19317 19318 19319 19320 19321 19322 19323 19324 19325 19326 19327 19328 19329 19330 19331 19332 19333 19334 19335 19336 19337 19338 19339 19340 19341 19342 19343 19344 19345 19346 19347 19348 19349 19350 19351 19352 19353 19354 19355 19356 19357 19358 19359 19360 19361 19362 19363 19364 19365 19366 19367 19368 19369 19370 19371 19372 19373 19374 19375 19376 19377 19378 19379 19380 19381 19382 19383 19384 19385 19386 19387 19388 19389 19390 19391 19392 19393 19394 19395 19396 19397 19398 19399 19400 19401 19402 19403 19404 19405 19406 19407 19408 19409 19410 19411 19412 19413 19414 19415 19416 19417 19418 19419 19420 19421 19422 19423 19424 19425 19426 19427 19428 19429 19430 19431 19432 19433 19434 19435 19436 19437 19438 19439 19440 19441 19442 19443 19444 19445 19446 19447 19448 19449 19450 19451 19452 19453 19454 19455 19456 19457 19458 19459 19460 19461 19462 19463 19464 19465 19466 19467 19468 19469 19470 19471 19472 19473 19474 19475 19476 19477 19478 19479 19480 19481 19482 19483 19484 19485 19486 19487 19488 19489 19490 19491 19492 19493 19494 19495 19496 19497 19498 19499 19500 19501 19502 19503 19504 19505 19506 19507 19508 19509 19510 19511 19512 19513 19514 19515 19516 19517 19518 19519 19520 19521 19522 19523 19524 19525 19526 19527 19528 19529 19530 19531 19532 19533 19534 19535 19536 19537 19538 19539 19540 19541 19542 19543 19544 19545 19546 19547 19548 19549 19550 19551 19552 19553 19554 19555 19556 19557 19558 19559 19560 19561 19562 19563 19564 19565 19566 19567 19568 19569 19570 19571 19572 19573 19574 19575 19576 19577 19578 19579 19580 19581 19582 19583 19584 19585 19586 19587 19588 19589 19590 19591 19592 19593 19594 19595 19596 19597 19598 19599 19600 19601 19602 19603 19604 19605 19606 19607 19608 19609 19610 19611 19612 19613 19614 19615 19616 19617 19618 19619 19620 19621 19622 19623 19624 19625 19626 19627 19628 19629 19630 19631 19632 19633 19634 19635 19636 19637 19638 19639 19640 19641 19642 19643 19644 19645 19646 19647 19648 19649 19650 19651 19652 19653 19654 19655 19656 19657 19658 19659 19660 19661 19662 19663 19664 19665 19666 19667 19668 19669 19670 19671 19672 19673 19674 19675 19676 19677 19678 19679 19680 19681 19682 19683 19684 19685 19686 19687 19688 19689 19690 19691 19692 19693 19694 19695 19696 19697 19698 19699 19700 19701 19702 19703 19704 19705 19706 19707 19708 19709 19710 19711 19712 19713 19714 19715 19716 19717 19718 19719 19720 19721 19722 19723 19724 19725 19726 19727 19728 19729 19730 19731 19732 19733 19734 19735 19736 19737 19738 19739 19740 19741 19742 19743 19744 19745 19746 19747 19748 19749 19750 19751 19752 19753 19754 19755 19756 19757 19758 19759 19760 19761 19762 19763 19764 19765 19766 19767 19768 19769 19770 19771 19772 19773 19774 19775 19776 19777 19778 19779 19780 19781 19782 19783 19784 19785 19786 19787 19788 19789 19790 19791 19792 19793 19794 19795 19796 19797 19798 19799 19800 19801 19802 19803 19804 19805 19806 19807 19808 19809 19810 19811 19812 19813 19814 19815 19816 19817 19818 19819 19820 19821 19822 19823 19824 19825 19826 19827 19828 19829 19830 19831 19832 19833 19834 19835 19836 19837 19838 19839 19840 19841 19842 19843 19844 19845 19846 19847 19848 19849 19850 19851 19852 19853 19854 19855 19856 19857 19858 19859 19860 19861 19862 19863 19864 19865 19866 19867 19868 19869 19870 19871 19872 19873 19874 19875 19876 19877 19878 19879 19880 19881 19882 19883 19884 19885 19886 19887 19888 19889 19890 19891 19892 19893 19894 19895 19896 19897 19898 19899 19900 19901 19902 19903 19904 19905 19906 19907 19908 19909 19910 19911 19912 19913 19914 19915 19916 19917 19918 19919 19920 19921 19922 19923 19924 19925 19926 19927 19928 19929 19930 19931 19932 19933 19934 19935 19936 19937 19938 19939 19940 19941 19942 19943 19944 19945 19946 19947 19948 19949 19950 19951 19952 19953 19954 19955 19956 19957 19958 19959 19960 19961 19962 19963 19964 19965 19966 19967 19968 19969 19970 19971 19972 19973 19974 19975 19976 19977 19978 19979 19980 19981 19982 19983 19984 19985 19986 19987 19988 19989 19990 19991 19992 19993 19994 19995 19996 19997 19998 19999 20000 20001 20002 20003 20004 20005 20006 20007 20008 20009 20010 20011 20012 20013 20014 20015 20016 20017 20018 20019 20020 20021 20022 20023 20024 20025 20026 20027 20028 20029 20030 20031 20032 20033 20034 20035 20036 20037 20038 20039 20040 20041 20042 20043 20044 20045 20046 20047 20048 20049 20050 20051 20052 20053 20054 20055 20056 20057 20058 20059 20060 20061 20062 20063 20064 20065 20066 20067 20068 20069 20070 20071 20072 20073 20074 20075 20076 20077 20078 20079 20080 20081 20082 20083 20084 20085 20086 20087 20088 20089 20090 20091 20092 20093 20094 20095 20096 20097 20098 20099 20100 20101 20102 20103 20104 20105 20106 20107 20108 20109 20110 20111 20112 20113 20114 20115 20116 20117 20118 20119 20120 20121 20122 20123 20124 20125 20126 20127 20128 20129 20130 20131 20132 20133 20134 20135 20136 20137 20138 20139 20140 20141 20142 20143 20144 20145 20146 20147 20148 20149 20150 20151 20152 20153 20154 20155 20156 20157 20158 20159 20160 20161 20162 20163 20164 20165 20166 20167 20168 20169 20170 20171 20172 20173 20174 20175 20176 20177 20178 20179 20180 20181 20182 20183 20184 20185 20186 20187 20188 20189 20190 20191 20192 20193 20194 20195 20196 20197 20198 20199 20200 20201 20202 20203 20204 20205 20206 20207 20208 20209 20210 20211 20212 20213 20214 20215 20216 20217 20218 20219 20220 20221 20222 20223 20224 20225 20226 20227 20228 20229 20230 20231 20232 20233 20234 20235 20236 20237 20238 20239 20240 20241 20242 20243 20244 20245 20246 20247 20248 20249 20250 20251 20252 20253 20254 20255 20256 20257 20258 20259 20260 20261 20262 20263 20264 20265 20266 20267 20268 20269 20270 20271 20272 20273 20274 20275 20276 20277 20278 20279 20280 20281 20282 20283 20284 20285 20286 20287 20288 20289 20290 20291 20292 20293 20294 20295 20296 20297 20298 20299 20300 20301 20302 20303 20304 20305 20306 20307 20308 20309 20310 20311 20312 20313 20314 20315 20316 20317 20318 20319 20320 20321 20322 20323 20324 20325 20326 20327 20328 20329 20330 20331 20332 20333 20334 20335 20336 20337 20338 20339 20340 20341 20342 20343 20344 20345 20346 20347 20348 20349 20350 20351 20352 20353 20354 20355 20356 20357 20358 20359 20360 20361 20362 20363 20364 20365 20366 20367 20368 20369 20370 20371 20372 20373 20374 20375 20376 20377 20378 20379 20380 20381 20382 20383 20384 20385 20386 20387 20388 20389 20390 20391 20392 20393 20394 20395 20396 20397 20398 20399 20400 20401 20402 20403 20404 20405 20406 20407 20408 20409 20410 20411 20412 20413 20414 20415 20416 20417 20418 20419 20420 20421 20422 20423 20424 20425 20426 20427 20428 20429 20430 20431 20432 20433 20434 20435 20436 20437 20438 20439 20440 20441 20442 20443 20444 20445 20446 20447 20448 20449 20450 20451 20452 20453 20454 20455 20456 20457 20458 20459 20460 20461 20462 20463 20464 20465 20466 20467 20468 20469 20470 20471 20472 20473 20474 20475 20476 20477 20478 20479 20480 20481 20482 20483 20484 20485 20486 20487 20488 20489 20490 20491 20492 20493 20494 20495 20496 20497 20498 20499 20500 20501 20502 20503 20504 20505 20506 20507 20508 20509 20510 20511 20512 20513 20514 20515 20516 20517 20518 20519 20520 20521 20522 20523 20524 20525 20526 20527 20528 20529 20530 20531 20532 20533 20534 20535 20536 20537 20538 20539 20540 20541 20542 20543 20544 20545 20546 20547 20548 20549 20550 20551 20552 20553 20554 20555 20556 20557 20558 20559 20560 20561 20562 20563 20564 20565 20566 20567 20568 20569 20570 20571 20572 20573 20574 20575 20576 20577 20578 20579 20580 20581 20582 20583 20584 20585 20586 20587 20588 20589 20590 20591 20592 20593 20594 20595 20596 20597 20598 20599 20600 20601 20602 20603 20604 20605 20606 20607 20608 20609 20610 20611 20612 20613 20614 20615 20616 20617 20618 20619 20620 20621 20622 20623 20624 20625 20626 20627 20628 20629 20630 20631 20632 20633 20634 20635 20636 20637 20638 20639 20640 20641 20642 20643 20644 20645 20646 20647 20648 20649 20650 20651 20652 20653 20654 20655 20656 20657 20658 20659 20660 20661 20662 20663 20664 20665 20666 20667 20668 20669 20670 20671 20672 20673 20674 20675 20676 20677 20678 20679 20680 20681 20682 20683 20684 20685 20686 20687 20688 20689 20690 20691 20692 20693 20694 20695 20696 20697 20698 20699 20700 20701 20702 20703 20704 20705 20706 20707 20708 20709 20710 20711 20712 20713 20714 20715 20716 20717 20718 20719 20720 20721 20722 20723 20724 20725 20726 20727 20728 20729 20730 20731 20732 20733 20734 20735 20736 20737 20738 20739 20740 20741 20742 20743 20744 20745 20746 20747 20748 20749 20750 20751 20752 20753 20754 20755 20756 20757 20758 20759 20760 20761 20762 20763 20764 20765 20766 20767 20768 20769 20770 20771 20772 20773 20774 20775 20776 20777 20778 20779 20780 20781 20782 20783 20784 20785 20786 20787 20788 20789 20790 20791 20792 20793 20794 20795 20796 20797 20798 20799 20800 20801 20802 20803 20804 20805 20806 20807 20808 20809 20810 20811 20812 20813 20814 20815 20816 20817 20818 20819 20820 20821 20822 20823 20824 20825 20826 20827 20828 20829 20830 20831 20832 20833 20834 20835 20836 20837 20838 20839 20840 20841 20842 20843 20844 20845 20846 20847 20848 20849 20850 20851 20852 20853 20854 20855 20856 20857 20858 20859 20860 20861 20862 20863 20864 20865 20866 20867 20868 20869 20870 20871 20872 20873 20874 20875 20876 20877 20878 20879 20880 20881 20882 20883 20884 20885 20886 20887 20888 20889 20890 20891 20892 20893 20894 20895 20896 20897 20898 20899 20900 20901 20902 20903 20904 20905 20906 20907 20908 20909 20910 20911 20912 20913 20914 20915 20916 20917 20918 20919 20920 20921 20922 20923 20924 20925 20926 20927 20928 20929 20930 20931 20932 20933 20934 20935 20936 20937 20938 20939 20940 20941 20942 20943 20944 20945 20946 20947 20948 20949 20950 20951 20952 20953 20954 20955 20956 20957 20958 20959 20960 20961 20962 20963 20964 20965 20966 20967 20968 20969 20970 20971 20972 20973 20974 20975 20976 20977 20978 20979 20980 20981 20982 20983 20984 20985 20986 20987 20988 20989 20990 20991 20992 20993 20994 20995 20996 20997 20998 20999 21000 21001 21002 21003 21004 21005 21006 21007 21008 21009 21010 21011 21012 21013 21014 21015 21016 21017 21018 21019 21020 21021 21022 21023 21024 21025 21026 21027 21028 21029 21030 21031 21032 21033 21034 21035 21036 21037 21038 21039 21040 21041 21042 21043 21044 21045 21046 21047 21048 21049 21050 21051 21052 21053 21054 21055 21056 21057 21058 21059 21060 21061 21062 21063 21064 21065 21066 21067 21068 21069 21070 21071 21072 21073 21074 21075 21076 21077 21078 21079 21080 21081 21082 21083 21084 21085 21086 21087 21088 21089 21090 21091 21092 21093 21094 21095 21096 21097 21098 21099 21100 21101 21102 21103 21104 21105 21106 21107 21108 21109 21110 21111 21112 21113 21114 21115 21116 21117 21118 21119 21120 21121 21122 21123 21124 21125 21126 21127 21128 21129 21130 21131 21132 21133 21134 21135 21136 21137 21138 21139 21140 21141 21142 21143 21144 21145 21146 21147 21148 21149 21150 21151 21152 21153 21154 21155 21156 21157 21158 21159 21160 21161 21162 21163 21164 21165 21166 21167 21168 21169 21170 21171 21172 21173 21174 21175 21176 21177 21178 21179 21180 21181 21182 21183 21184 21185 21186 21187 21188 21189 21190 21191 21192 21193 21194 21195 21196 21197 21198 21199 21200 21201 21202 21203 21204 21205 21206 21207 21208 21209 21210 21211 21212 21213 21214 21215 21216 21217 21218 21219 21220 21221 21222 21223 21224 21225 21226 21227 21228 21229 21230 21231 21232 21233 21234 21235 21236 21237 21238 21239 21240 21241 21242 21243 21244 21245 21246 21247 21248 21249 21250 21251 21252 21253 21254 21255 21256 21257 21258 21259 21260 21261 21262 21263 21264 21265 21266 21267 21268 21269 21270 21271 21272 21273 21274 21275 21276 21277 21278 21279 21280 21281 21282 21283 21284 21285 21286 21287 21288 21289 21290 21291 21292 21293 21294 21295 21296 21297 21298 21299 21300 21301 21302 21303 21304 21305 21306 21307 21308 21309 21310 21311 21312 21313 21314 21315 21316 21317 21318 21319 21320 21321 21322 21323 21324 21325 21326 21327 21328 21329 21330 21331 21332 21333 21334 21335 21336 21337 21338 21339 21340 21341 21342 21343 21344 21345 21346 21347 21348 21349 21350 21351 21352 21353 21354 21355 21356 21357 21358 21359 21360 21361 21362 21363 21364 21365 21366 21367 21368 21369 21370 21371 21372 21373 21374 21375 21376 21377 21378 21379 21380 21381 21382 21383 21384 21385 21386 21387 21388 21389 21390 21391 21392 21393 21394 21395 21396 21397 21398 21399 21400 21401 21402 21403 21404 21405 21406 21407 21408 21409 21410 21411 21412 21413 21414 21415 21416 21417 21418 21419 21420 21421 21422 21423 21424 21425 21426 21427 21428 21429 21430 21431 21432 21433 21434 21435 21436 21437 21438 21439 21440 21441 21442 21443 21444 21445 21446 21447 21448 21449 21450 21451 21452 21453 21454 21455 21456 21457 21458 21459 21460 21461 21462 21463 21464 21465 21466 21467 21468 21469 21470 21471 21472 21473 21474 21475 21476 21477 21478 21479 21480 21481 21482 21483 21484 21485 21486 21487 21488 21489 21490 21491 21492 21493 21494 21495 21496 21497 21498 21499 21500 21501 21502 21503 21504 21505 21506 21507 21508 21509 21510 21511 21512 21513 21514 21515 21516 21517 21518 21519 21520 21521 21522 21523 21524 21525 21526 21527 21528 21529 21530 21531 21532 21533 21534 21535 21536 21537 21538 21539 21540 21541 21542 21543 21544 21545 21546 21547 21548 21549 21550 21551 21552 21553 21554 21555 21556 21557 21558 21559 21560 21561 21562 21563 21564 21565 21566 21567 21568 21569 21570 21571 21572 21573 21574 21575 21576 21577 21578 21579 21580 21581 21582 21583 21584 21585 21586 21587 21588 21589 21590 21591 21592 21593 21594 21595 21596 21597 21598 21599 21600 21601 21602 21603 21604 21605 21606 21607 21608 21609 21610 21611 21612 21613 21614 21615 21616 21617 21618 21619 21620 21621 21622 21623 21624 21625 21626 21627 21628 21629 21630 21631 21632 21633 21634 21635 21636 21637 21638 21639 21640 21641 21642 21643 21644 21645 21646 21647 21648 21649 21650 21651 21652 21653 21654 21655 21656 21657 21658 21659 21660 21661 21662 21663 21664 21665 21666 21667 21668 21669 21670 21671 21672 21673 21674 21675 21676 21677 21678 21679 21680 21681 21682 21683 21684 21685 21686 21687 21688 21689 21690 21691 21692 21693 21694 21695 21696 21697 21698 21699 21700 21701 21702 21703 21704 21705 21706 21707 21708 21709 21710 21711 21712 21713 21714 21715 21716 21717 21718 21719 21720 21721 21722 21723 21724 21725 21726 21727 21728 21729 21730 21731 21732 21733 21734 21735 21736 21737 21738 21739 21740 21741 21742 21743 21744 21745 21746 21747 21748 21749 21750 21751 21752 21753 21754 21755 21756 21757 21758 21759 21760 21761 21762 21763 21764 21765 21766 21767 21768 21769 21770 21771 21772 21773 21774 21775 21776 21777 21778 21779 21780 21781 21782 21783 21784 21785 21786 21787 21788 21789 21790 21791 21792 21793 21794 21795 21796 21797 21798 21799 21800 21801 21802 21803 21804 21805 21806 21807 21808 21809 21810 21811 21812 21813 21814 21815 21816 21817 21818 21819 21820 21821 21822 21823 21824 21825 21826 21827 21828 21829 21830 21831 21832 21833 21834 21835 21836 21837 21838 21839 21840 21841 21842 21843 21844 21845 21846 21847 21848 21849 21850 21851 21852 21853 21854 21855 21856 21857 21858 21859 21860 21861 21862 21863 21864 21865 21866 21867 21868 21869 21870 21871 21872 21873 21874 21875 21876 21877 21878 21879 21880 21881 21882 21883 21884 21885 21886 21887 21888 21889 21890 21891 21892 21893 21894 21895 21896 21897 21898 21899 21900 21901 21902 21903 21904 21905 21906 21907 21908 21909 21910 21911 21912 21913 21914 21915 21916 21917 21918 21919 21920 21921 21922 21923 21924 21925 21926 21927 21928 21929 21930 21931 21932 21933 21934 21935 21936 21937 21938 21939 21940 21941 21942 21943 21944 21945 21946 21947 21948 21949 21950 21951 21952 21953 21954 21955 21956 21957 21958 21959 21960 21961 21962 21963 21964 21965 21966 21967 21968 21969 21970 21971 21972 21973 21974 21975 21976 21977 21978 21979 21980 21981 21982 21983 21984 21985 21986 21987 21988 21989 21990 21991 21992 21993 21994 21995 21996 21997 21998 21999 22000 22001 22002 22003 22004 22005 22006 22007 22008 22009 22010 22011 22012 22013 22014 22015 22016 22017 22018 22019 22020 22021 22022 22023 22024 22025 22026 22027 22028 22029 22030 22031 22032 22033 22034 22035 22036 22037 22038 22039 22040 22041 22042 22043 22044 22045 22046 22047 22048 22049 22050 22051 22052 22053 22054 22055 22056 22057 22058 22059 22060 22061 22062 22063 22064 22065 22066 22067 22068 22069 22070 22071 22072 22073 22074 22075 22076 22077 22078 22079 22080 22081 22082 22083 22084 22085 22086 22087 22088 22089 22090 22091 22092 22093 22094 22095 22096 22097 22098 22099 22100 22101 22102 22103 22104 22105 22106 22107 22108 22109 22110 22111 22112 22113 22114 22115 22116 22117 22118 22119 22120 22121 22122 22123 22124 22125 22126 22127 22128 22129 22130 22131 22132 22133 22134 22135 22136 22137 22138 22139 22140 22141 22142 22143 22144 22145 22146 22147 22148 22149 22150 22151 22152 22153 22154 22155 22156 22157 22158 22159 22160 22161 22162 22163 22164 22165 22166 22167 22168 22169 22170 22171 22172 22173 22174 22175 22176 22177 22178 22179 22180 22181 22182 22183 22184 22185 22186 22187 22188 22189 22190 22191 22192 22193 22194 22195 22196 22197 22198 22199 22200 22201 22202 22203 22204 22205 22206 22207 22208 22209 22210 22211 22212 22213 22214 22215 22216 22217 22218 22219 22220 22221 22222 22223 22224 22225 22226 22227 22228 22229 22230 22231 22232 22233 22234 22235 22236 22237 22238 22239 22240 22241 22242 22243 22244 22245 22246 22247 22248 22249 22250 22251 22252 22253 22254 22255 22256 22257 22258 22259 22260 22261 22262 22263 22264 22265 22266 22267 22268 22269 22270 22271 22272 22273 22274 22275 22276 22277 22278 22279 22280 22281 22282 22283 22284 22285 22286 22287 22288 22289 22290 22291 22292 22293 22294 22295 22296 22297 22298 22299 22300 22301 22302 22303 22304 22305 22306 22307 22308 22309 22310 22311 22312 22313 22314 22315 22316 22317 22318 22319 22320 22321 22322 22323 22324 22325 22326 22327 22328 22329 22330 22331 22332 22333 22334 22335 22336 22337 22338 22339 22340 22341 22342 22343 22344 22345 22346 22347 22348 22349 22350 22351 22352 22353 22354 22355 22356 22357 22358 22359 22360 22361 22362 22363 22364 22365 22366 22367 22368 22369 22370 22371 22372 22373 22374 22375 22376 22377 22378 22379 22380 22381 22382 22383 22384 22385 22386 22387 22388 22389 22390 22391 22392 22393 22394 22395 22396 22397 22398 22399 22400 22401 22402 22403 22404 22405 22406 22407 22408 22409 22410 22411 22412 22413 22414 22415 22416 22417 22418 22419 22420 22421 22422 22423 22424 22425 22426 22427 22428 22429 22430 22431 22432 22433 22434 22435 22436 22437 22438 22439 22440 22441 22442 22443 22444 22445 22446 22447 22448 22449 22450 22451 22452 22453 22454 22455 22456 22457 22458 22459 22460 22461 22462 22463 22464 22465 22466 22467 22468 22469 22470 22471 22472 22473 22474 22475 22476 22477 22478 22479 22480 22481 22482 22483 22484 22485 22486 22487 22488 22489 22490 22491 22492 22493 22494 22495 22496 22497 22498 22499 22500 22501 22502 22503 22504 22505 22506 22507 22508 22509 22510 22511 22512 22513 22514 22515 22516 22517 22518 22519 22520 22521 22522 22523 22524 22525 22526 22527 22528 22529 22530 22531 22532 22533 22534 22535 22536 22537 22538 22539 22540 22541 22542 22543 22544 22545 22546 22547 22548 22549 22550 22551 22552 22553 22554 22555 22556 22557 22558 22559 22560 22561 22562 22563 22564 22565 22566 22567 22568 22569 22570 22571 22572 22573 22574 22575 22576 22577 22578 22579 22580 22581 22582 22583 22584 22585 22586 22587 22588 22589 22590 22591 22592 22593 22594 22595 22596 22597 22598 22599 22600 22601 22602 22603 22604 22605 22606 22607 22608 22609 22610 22611 22612 22613 22614 22615 22616 22617 22618 22619 22620 22621 22622 22623 22624 22625 22626 22627 22628 22629 22630 22631 22632 22633 22634 22635 22636 22637 22638 22639 22640 22641 22642 22643 22644 22645 22646 22647 22648 22649 22650 22651 22652 22653 22654 22655 22656 22657 22658 22659 22660 22661 22662 22663 22664 22665 22666 22667 22668 22669 22670 22671 22672 22673 22674 22675 22676 22677 22678 22679 22680 22681 22682 22683 22684 22685 22686 22687 22688 22689 22690 22691 22692 22693 22694 22695 22696 22697 22698 22699 22700 22701 22702 22703 22704 22705 22706 22707 22708 22709 22710 22711 22712 22713 22714 22715 22716 22717 22718 22719 22720 22721 22722 22723 22724 22725 22726 22727 22728 22729 22730 22731 22732 22733 22734 22735 22736 22737 22738 22739 22740 22741 22742 22743 22744 22745 22746 22747 22748 22749 22750 22751 22752 22753 22754 22755 22756 22757 22758 22759 22760 22761 22762 22763 22764 22765 22766 22767 22768 22769 22770 22771 22772 22773 22774 22775 22776 22777 22778 22779 22780 22781 22782 22783 22784 22785 22786 22787 22788 22789 22790 22791 22792 22793 22794 22795 22796 22797 22798 22799 22800 22801 22802 22803 22804 22805 22806 22807 22808 22809 22810 22811 22812 22813 22814 22815 22816 22817 22818 22819 22820 22821 22822 22823 22824 22825 22826 22827 22828 22829 22830 22831 22832 22833 22834 22835 22836 22837 22838 22839 22840 22841 22842 22843 22844 22845 22846 22847 22848 22849 22850 22851 22852 22853 22854 22855 22856 22857 22858 22859 22860 22861 22862 22863 22864 22865 22866 22867 22868 22869 22870 22871 22872 22873 22874 22875 22876 22877 22878 22879 22880 22881 22882 22883 22884 22885 22886 22887 22888 22889 22890 22891 22892 22893 22894 22895 22896 22897 22898 22899 22900 22901 22902 22903 22904 22905 22906 22907 22908 22909 22910 22911 22912 22913 22914 22915 22916 22917 22918 22919 22920 22921 22922 22923 22924 22925 22926 22927 22928 22929 22930 22931 22932 22933 22934 22935 22936 22937 22938 22939 22940 22941 22942 22943 22944 22945 22946 22947 22948 22949 22950 22951 22952 22953 22954 22955 22956 22957 22958 22959 22960 22961 22962 22963 22964 22965 22966 22967 22968 22969 22970 22971 22972 22973 22974 22975 22976 22977 22978 22979 22980 22981 22982 22983 22984 22985 22986 22987 22988 22989 22990 22991 22992 22993 22994 22995 22996 22997 22998 22999 23000 23001 23002 23003 23004 23005 23006 23007 23008 23009 23010 23011 23012 23013 23014 23015 23016 23017 23018 23019 23020 23021 23022 23023 23024 23025 23026 23027 23028 23029 23030 23031 23032 23033 23034 23035 23036 23037 23038 23039 23040 23041 23042 23043 23044 23045 23046 23047 23048 23049 23050 23051 23052 23053 23054 23055 23056 23057 23058 23059 23060 23061 23062 23063 23064 23065 23066 23067 23068 23069 23070 23071 23072 23073 23074 23075 23076 23077 23078 23079 23080 23081 23082 23083 23084 23085 23086 23087 23088 23089 23090 23091 23092 23093 23094 23095 23096 23097 23098 23099 23100 23101 23102 23103 23104 23105 23106 23107 23108 23109 23110 23111 23112 23113 23114 23115 23116 23117 23118 23119 23120 23121 23122 23123 23124 23125 23126 23127 23128 23129 23130 23131 23132 23133 23134 23135 23136 23137 23138 23139 23140 23141 23142 23143 23144 23145 23146 23147 23148 23149 23150 23151 23152 23153 23154 23155 23156 23157 23158 23159 23160 23161 23162 23163 23164 23165 23166 23167 23168 23169 23170 23171 23172 23173 23174 23175 23176 23177 23178 23179 23180 23181 23182 23183 23184 23185 23186 23187 23188 23189 23190 23191 23192 23193 23194 23195 23196 23197 23198 23199 23200 23201 23202 23203 23204 23205 23206 23207 23208 23209 23210 23211 23212 23213 23214 23215 23216 23217 23218 23219 23220 23221 23222 23223 23224 23225 23226 23227 23228 23229 23230 23231 23232 23233 23234 23235 23236 23237 23238 23239 23240 23241 23242 23243 23244 23245 23246 23247 23248 23249 23250 23251 23252 23253 23254 23255 23256 23257 23258 23259 23260 23261 23262 23263 23264 23265 23266 23267 23268 23269 23270 23271 23272 23273 23274 23275 23276 23277 23278 23279 23280 23281 23282 23283 23284 23285 23286 23287 23288 23289 23290 23291 23292 23293 23294 23295 23296 23297 23298 23299 23300 23301 23302 23303 23304 23305 23306 23307 23308 23309 23310 23311 23312 23313 23314 23315 23316 23317 23318 23319 23320 23321 23322 23323 23324 23325 23326 23327 23328 23329 23330 23331 23332 23333 23334 23335 23336 23337 23338 23339 23340 23341 23342 23343 23344 23345 23346 23347 23348 23349 23350 23351 23352 23353 23354 23355 23356 23357 23358 23359 23360 23361 23362 23363 23364 23365 23366 23367 23368 23369 23370 23371 23372 23373 23374 23375 23376 23377 23378 23379 23380 23381 23382 23383 23384 23385 23386 23387 23388 23389 23390 23391 23392 23393 23394 23395 23396 23397 23398 23399 23400 23401 23402 23403 23404 23405 23406 23407 23408 23409 23410 23411 23412 23413 23414 23415 23416 23417 23418 23419 23420 23421 23422 23423 23424 23425 23426 23427 23428 23429 23430 23431 23432 23433 23434 23435 23436 23437 23438 23439 23440 23441 23442 23443 23444 23445 23446 23447 23448 23449 23450 23451 23452 23453 23454 23455 23456 23457 23458 23459 23460 23461 23462 23463 23464 23465 23466 23467 23468 23469 23470 23471 23472 23473 23474 23475 23476 23477 23478 23479 23480 23481 23482 23483 23484 23485 23486 23487 23488 23489 23490 23491 23492 23493 23494 23495 23496 23497 23498 23499 23500 23501 23502 23503 23504 23505 23506 23507 23508 23509 23510 23511 23512 23513 23514 23515 23516 23517 23518 23519 23520 23521 23522 23523 23524 23525 23526 23527 23528 23529 23530 23531 23532 23533 23534 23535 23536 23537 23538 23539 23540 23541 23542 23543 23544 23545 23546 23547 23548 23549 23550 23551 23552 23553 23554 23555 23556 23557 23558 23559 23560 23561 23562 23563 23564 23565 23566 23567 23568 23569 23570 23571 23572 23573 23574 23575 23576 23577 23578 23579 23580 23581 23582 23583 23584 23585 23586 23587 23588 23589 23590 23591 23592 23593 23594 23595 23596 23597 23598 23599 23600 23601 23602 23603 23604 23605 23606 23607 23608 23609 23610 23611 23612 23613 23614 23615 23616 23617 23618 23619 23620 23621 23622 23623 23624 23625 23626 23627 23628 23629 23630 23631 23632 23633 23634 23635 23636 23637 23638 23639 23640 23641 23642 23643 23644 23645 23646 23647 23648 23649 23650 23651 23652 23653 23654 23655 23656 23657 23658 23659 23660 23661 23662 23663 23664 23665 23666 23667 23668 23669 23670 23671 23672 23673 23674 23675 23676 23677 23678 23679 23680 23681 23682 23683 23684 23685 23686 23687 23688 23689 23690 23691 23692 23693 23694 23695 23696 23697 23698 23699 23700 23701 23702 23703 23704 23705 23706 23707 23708 23709 23710 23711 23712 23713 23714 23715 23716 23717 23718 23719 23720 23721 23722 23723 23724 23725 23726 23727 23728 23729 23730 23731 23732 23733 23734 23735 23736 23737 23738 23739 23740 23741 23742 23743 23744 23745 23746 23747 23748 23749 23750 23751 23752 23753 23754 23755 23756 23757 23758 23759 23760 23761 23762 23763 23764 23765 23766 23767 23768 23769 23770 23771 23772 23773 23774 23775 23776 23777 23778 23779 23780 23781 23782 23783 23784 23785 23786 23787 23788 23789 23790 23791 23792 23793 23794 23795 23796 23797 23798 23799 23800 23801 23802 23803 23804 23805 23806 23807 23808 23809 23810 23811 23812 23813 23814 23815 23816 23817 23818 23819 23820 23821 23822 23823 23824 23825 23826 23827 23828 23829 23830 23831 23832 23833 23834 23835 23836 23837 23838 23839 23840 23841 23842 23843 23844 23845 23846 23847 23848 23849 23850 23851 23852 23853 23854 23855 23856 23857 23858 23859 23860 23861 23862 23863 23864 23865 23866 23867 23868 23869 23870 23871 23872 23873 23874 23875 23876 23877 23878 23879 23880 23881 23882 23883 23884 23885 23886 23887 23888 23889 23890 23891 23892 23893 23894 23895 23896 23897 23898 23899 23900 23901 23902 23903 23904 23905 23906 23907 23908 23909 23910 23911 23912 23913 23914 23915 23916 23917 23918 23919 23920 23921 23922 23923 23924 23925 23926 23927 23928 23929 23930 23931 23932 23933 23934 23935 23936 23937 23938 23939 23940 23941 23942 23943 23944 23945 23946 23947 23948 23949 23950 23951 23952 23953 23954 23955 23956 23957 23958 23959 23960 23961 23962 23963 23964 23965 23966 23967 23968 23969 23970 23971 23972 23973 23974 23975 23976 23977 23978 23979 23980 23981 23982 23983 23984 23985 23986 23987 23988 23989 23990 23991 23992 23993 23994 23995 23996 23997 23998 23999 24000 24001 24002 24003 24004 24005 24006 24007 24008 24009 24010 24011 24012 24013 24014 24015 24016 24017 24018 24019 24020 24021 24022 24023 24024 24025 24026 24027 24028 24029 24030 24031 24032 24033 24034 24035 24036 24037 24038 24039 24040 24041 24042 24043 24044 24045 24046 24047 24048 24049 24050 24051 24052 24053 24054 24055 24056 24057 24058 24059 24060 24061 24062 24063 24064 24065 24066 24067 24068 24069 24070 24071 24072 24073 24074 24075 24076 24077 24078 24079 24080 24081 24082 24083 24084 24085 24086 24087 24088 24089 24090 24091 24092 24093 24094 24095 24096 24097 24098 24099 24100 24101 24102 24103 24104 24105 24106 24107 24108 24109 24110 24111 24112 24113 24114 24115 24116 24117 24118 24119 24120 24121 24122 24123 24124 24125 24126 24127 24128 24129 24130 24131 24132 24133 24134 24135 24136 24137 24138 24139 24140 24141 24142 24143 24144 24145 24146 24147 24148 24149 24150 24151 24152 24153 24154 24155 24156 24157 24158 24159 24160 24161 24162 24163 24164 24165 24166 24167 24168 24169 24170 24171 24172 24173 24174 24175 24176 24177 24178 24179 24180 24181 24182 24183 24184 24185 24186 24187 24188 24189 24190 24191 24192 24193 24194 24195 24196 24197 24198 24199 24200 24201 24202 24203 24204 24205 24206 24207 24208 24209 24210 24211 24212 24213 24214 24215 24216 24217 24218 24219 24220 24221 24222 24223 24224 24225 24226 24227 24228 24229 24230 24231 24232 24233 24234 24235 24236 24237 24238 24239 24240 24241 24242 24243 24244 24245 24246 24247 24248 24249 24250 24251 24252 24253 24254 24255 24256 24257 24258 24259 24260 24261 24262 24263 24264 24265 24266 24267 24268 24269 24270 24271 24272 24273 24274 24275 24276 24277 24278 24279 24280 24281 24282 24283 24284 24285 24286 24287 24288 24289 24290 24291 24292 24293 24294 24295 24296 24297 24298 24299 24300 24301 24302 24303 24304 24305 24306 24307 24308 24309 24310 24311 24312 24313 24314 24315 24316 24317 24318 24319 24320 24321 24322 24323 24324 24325 24326 24327 24328 24329 24330 24331 24332 24333 24334 24335 24336 24337 24338 24339 24340 24341 24342 24343 24344 24345 24346 24347 24348 24349 24350 24351 24352 24353 24354 24355 24356 24357 24358 24359 24360 24361 24362 24363 24364 24365 24366 24367 24368 24369 24370 24371 24372 24373 24374 24375 24376 24377 24378 24379 24380 24381 24382 24383 24384 24385 24386 24387 24388 24389 24390 24391 24392 24393 24394 24395 24396 24397 24398 24399 24400 24401 24402 24403 24404 24405 24406 24407 24408 24409 24410 24411 24412 24413 24414 24415 24416 24417 24418 24419 24420 24421 24422 24423 24424 24425 24426 24427 24428 24429 24430 24431 24432 24433 24434 24435 24436 24437 24438 24439 24440 24441 24442 24443 24444 24445 24446 24447 24448 24449 24450 24451 24452 24453 24454 24455 24456 24457 24458 24459 24460 24461 24462 24463 24464 24465 24466 24467 24468 24469 24470 24471 24472 24473 24474 24475 24476 24477 24478 24479 24480 24481 24482 24483 24484 24485 24486 24487 24488 24489 24490 24491 24492 24493 24494 24495 24496 24497 24498 24499 24500 24501 24502 24503 24504 24505 24506 24507 24508 24509 24510 24511 24512 24513 24514 24515 24516 24517 24518 24519 24520 24521 24522 24523 24524 24525 24526 24527 24528 24529 24530 24531 24532 24533 24534 24535 24536 24537 24538 24539 24540 24541 24542 24543 24544 24545 24546 24547 24548 24549 24550 24551 24552 24553 24554 24555 24556 24557 24558 24559 24560 24561 24562 24563 24564 24565 24566 24567 24568 24569 24570 24571 24572 24573 24574 24575 24576 24577 24578 24579 24580 24581 24582 24583 24584 24585 24586 24587 24588 24589 24590 24591 24592 24593 24594 24595 24596 24597 24598 24599 24600 24601 24602 24603 24604 24605 24606 24607 24608 24609 24610 24611 24612 24613 24614 24615 24616 24617 24618 24619 24620 24621 24622 24623 24624 24625 24626 24627 24628 24629 24630 24631 24632 24633 24634 24635 24636 24637 24638 24639 24640 24641 24642 24643 24644 24645 24646 24647 24648 24649 24650 24651 24652 24653 24654 24655 24656 24657 24658 24659 24660 24661 24662 24663 24664 24665 24666 24667 24668 24669 24670 24671 24672 24673 24674 24675 24676 24677 24678 24679 24680 24681 24682 24683 24684 24685 24686 24687 24688 24689 24690 24691 24692 24693 24694 24695 24696 24697 24698 24699 24700 24701 24702 24703 24704 24705 24706 24707 24708 24709 24710 24711 24712 24713 24714 24715 24716 24717 24718 24719 24720 24721 24722 24723 24724 24725 24726 24727 24728 24729 24730 24731 24732 24733 24734 24735 24736 24737 24738 24739 24740 24741 24742 24743 24744 24745 24746 24747 24748 24749 24750 24751 24752 24753 24754 24755 24756 24757 24758 24759 24760 24761 24762 24763 24764 24765 24766 24767 24768 24769 24770 24771 24772 24773 24774 24775 24776 24777 24778 24779 24780 24781 24782 24783 24784 24785 24786 24787 24788 24789 24790 24791 24792 24793 24794 24795 24796 24797 24798 24799 24800 24801 24802 24803 24804 24805 24806 24807 24808 24809 24810 24811 24812 24813 24814 24815 24816 24817 24818 24819 24820 24821 24822 24823 24824 24825 24826 24827 24828 24829 24830 24831 24832 24833 24834 24835 24836 24837 24838 24839 24840 24841 24842 24843 24844 24845 24846 24847 24848 24849 24850 24851 24852 24853 24854 24855 24856 24857 24858 24859 24860 24861 24862 24863 24864 24865 24866 24867 24868 24869 24870 24871 24872 24873 24874 24875 24876 24877 24878 24879 24880 24881 24882 24883 24884 24885 24886 24887 24888 24889 24890 24891 24892 24893 24894 24895 24896 24897 24898 24899 24900 24901 24902 24903 24904 24905 24906 24907 24908 24909 24910 24911 24912 24913 24914 24915 24916 24917 24918 24919 24920 24921 24922 24923 24924 24925 24926 24927 24928 24929 24930 24931 24932 24933 24934 24935 24936 24937 24938 24939 24940 24941 24942 24943 24944 24945 24946 24947 24948 24949 24950 24951 24952 24953 24954 24955 24956 24957 24958 24959 24960 24961 24962 24963 24964 24965 24966 24967 24968 24969 24970 24971 24972 24973 24974 24975 24976 24977 24978 24979 24980 24981 24982 24983 24984 24985 24986 24987 24988 24989 24990 24991 24992 24993 24994 24995 24996 24997 24998 24999 25000 25001 25002 25003 25004 25005 25006 25007 25008 25009 25010 25011 25012 25013 25014 25015 25016 25017 25018 25019 25020 25021 25022 25023 25024 25025 25026 25027 25028 25029 25030 25031 25032 25033 25034 25035 25036 25037 25038 25039 25040 25041 25042 25043 25044 25045 25046 25047 25048 25049 25050 25051 25052 25053 25054 25055 25056 25057 25058 25059 25060 25061 25062 25063 25064 25065 25066 25067 25068 25069 25070 25071 25072 25073 25074 25075 25076 25077 25078 25079 25080 25081 25082 25083 25084 25085 25086 25087 25088 25089 25090 25091 25092 25093 25094 25095 25096 25097 25098 25099 25100 25101 25102 25103 25104 25105 25106 25107 25108 25109 25110 25111 25112 25113 25114 25115 25116 25117 25118 25119 25120 25121 25122 25123 25124 25125 25126 25127 25128 25129 25130 25131 25132 25133 25134 25135 25136 25137 25138 25139 25140 25141 25142 25143 25144 25145 25146 25147 25148 25149 25150 25151 25152 25153 25154 25155 25156 25157 25158 25159 25160 25161 25162 25163 25164 25165 25166 25167 25168 25169 25170 25171 25172 25173 25174 25175 25176 25177 25178 25179 25180 25181 25182 25183 25184 25185 25186 25187 25188 25189 25190 25191 25192 25193 25194 25195 25196 25197 25198 25199 25200 25201 25202 25203 25204 25205 25206 25207 25208 25209 25210 25211 25212 25213 25214 25215 25216 25217 25218 25219 25220 25221 25222 25223 25224 25225 25226 25227 25228 25229 25230 25231 25232 25233 25234 25235 25236 25237 25238 25239 25240 25241 25242 25243 25244 25245 25246 25247 25248 25249 25250 25251 25252 25253 25254 25255 25256 25257 25258 25259 25260 25261 25262 25263 25264 25265 25266 25267 25268 25269 25270 25271 25272 25273 25274 25275 25276 25277 25278 25279 25280 25281 25282 25283 25284 25285 25286 25287 25288 25289 25290 25291 25292 25293 25294 25295 25296 25297 25298 25299 25300 25301 25302 25303 25304 25305 25306 25307 25308 25309 25310 25311 25312 25313 25314 25315 25316 25317 25318 25319 25320 25321 25322 25323 25324 25325 25326 25327 25328 25329 25330 25331 25332 25333 25334 25335 25336 25337 25338 25339 25340 25341 25342 25343 25344 25345 25346 25347 25348 25349 25350 25351 25352 25353 25354 25355 25356 25357 25358 25359 25360 25361 25362 25363 25364 25365 25366 25367 25368 25369 25370 25371 25372 25373 25374 25375 25376 25377 25378 25379 25380 25381 25382 25383 25384 25385 25386 25387 25388 25389 25390 25391 25392 25393 25394 25395 25396 25397 25398 25399 25400 25401 25402 25403 25404 25405 25406 25407 25408 25409 25410 25411 25412 25413 25414 25415 25416 25417 25418 25419 25420 25421 25422 25423 25424 25425 25426 25427 25428 25429 25430 25431 25432 25433 25434 25435 25436 25437 25438 25439 25440 25441 25442 25443 25444 25445 25446 25447 25448 25449 25450 25451 25452 25453 25454 25455 25456 25457 25458 25459 25460 25461 25462 25463 25464 25465 25466 25467 25468 25469 25470 25471 25472 25473 25474 25475 25476 25477 25478 25479 25480 25481 25482 25483 25484 25485 25486 25487 25488 25489 25490 25491 25492 25493 25494 25495 25496 25497 25498 25499 25500 25501 25502 25503 25504 25505 25506 25507 25508 25509 25510 25511 25512 25513 25514 25515 25516 25517 25518 25519 25520 25521 25522 25523 25524 25525 25526 25527 25528 25529 25530 25531 25532 25533 25534 25535 25536 25537 25538 25539 25540 25541 25542 25543 25544 25545 25546 25547 25548 25549 25550 25551 25552 25553 25554 25555 25556 25557 25558 25559 25560 25561 25562 25563 25564 25565 25566 25567 25568 25569 25570 25571 25572 25573 25574 25575 25576 25577 25578 25579 25580 25581 25582 25583 25584 25585 25586 25587 25588 25589 25590 25591 25592 25593 25594 25595 25596 25597 25598 25599 25600 25601 25602 25603 25604 25605 25606 25607 25608 25609 25610 25611 25612 25613 25614 25615 25616 25617 25618 25619 25620 25621 25622 25623 25624 25625 25626 25627 25628 25629 25630 25631 25632 25633 25634 25635 25636 25637 25638 25639 25640 25641 25642 25643 25644 25645 25646 25647 25648 25649 25650 25651 25652 25653 25654 25655 25656 25657 25658 25659 25660 25661 25662 25663 25664 25665 25666 25667 25668 25669 25670 25671 25672 25673 25674 25675 25676 25677 25678 25679 25680 25681 25682 25683 25684 25685 25686 25687 25688 25689 25690 25691 25692 25693 25694 25695 25696 25697 25698 25699 25700 25701 25702 25703 25704 25705 25706 25707 25708 25709 25710 25711 25712 25713 25714 25715 25716 25717 25718 25719 25720 25721 25722 25723 25724 25725 25726 25727 25728 25729 25730 25731 25732 25733 25734 25735 25736 25737 25738 25739 25740 25741 25742 25743 25744 25745 25746 25747 25748 25749 25750 25751 25752 25753 25754 25755 25756 25757 25758 25759 25760 25761 25762 25763 25764 25765 25766 25767 25768 25769 25770 25771 25772 25773 25774 25775 25776 25777 25778 25779 25780 25781 25782 25783 25784 25785 25786 25787 25788 25789 25790 25791 25792 25793 25794 25795 25796 25797 25798 25799 25800 25801 25802 25803 25804 25805 25806 25807 25808 25809 25810 25811 25812 25813 25814 25815 25816 25817 25818 25819 25820 25821 25822 25823 25824 25825 25826 25827 25828 25829 25830 25831 25832 25833 25834 25835 25836 25837 25838 25839 25840 25841 25842 25843 25844 25845 25846 25847 25848 25849 25850 25851 25852 25853 25854 25855 25856 25857 25858 25859 25860 25861 25862 25863 25864 25865 25866 25867 25868 25869 25870 25871 25872 25873 25874 25875 25876 25877 25878 25879 25880 25881 25882 25883 25884 25885 25886 25887 25888 25889 25890 25891 25892 25893 25894 25895 25896 25897 25898 25899 25900 25901 25902 25903 25904 25905 25906 25907 25908 25909 25910 25911 25912 25913 25914 25915 25916 25917 25918 25919 25920 25921 25922 25923 25924 25925 25926 25927 25928 25929 25930 25931 25932 25933 25934 25935 25936 25937 25938 25939 25940 25941 25942 25943 25944 25945 25946 25947 25948 25949 25950 25951 25952 25953 25954 25955 25956 25957 25958 25959 25960 25961 25962 25963 25964 25965 25966 25967 25968 25969 25970 25971 25972 25973 25974 25975 25976 25977 25978 25979 25980 25981 25982 25983 25984 25985 25986 25987 25988 25989 25990 25991 25992 25993 25994 25995 25996 25997 25998 25999 26000 26001 26002 26003 26004 26005 26006 26007 26008 26009 26010 26011 26012 26013 26014 26015 26016 26017 26018 26019 26020 26021 26022 26023 26024 26025 26026 26027 26028 26029 26030 26031 26032 26033 26034 26035 26036 26037 26038 26039 26040 26041 26042 26043 26044 26045 26046 26047 26048 26049 26050 26051 26052 26053 26054 26055 26056 26057 26058 26059 26060 26061 26062 26063 26064 26065 26066 26067 26068 26069 26070 26071 26072 26073 26074 26075 26076 26077 26078 26079 26080 26081 26082 26083 26084 26085 26086 26087 26088 26089 26090 26091 26092 26093 26094 26095 26096 26097 26098 26099 26100 26101 26102 26103 26104 26105 26106 26107 26108 26109 26110 26111 26112 26113 26114 26115 26116 26117 26118 26119 26120 26121 26122 26123 26124 26125 26126 26127 26128 26129 26130 26131 26132 26133 26134 26135 26136 26137 26138 26139 26140 26141 26142 26143 26144 26145 26146 26147 26148 26149 26150 26151 26152 26153 26154 26155 26156 26157 26158 26159 26160 26161 26162 26163 26164 26165 26166 26167 26168 26169 26170 26171 26172 26173 26174 26175 26176 26177 26178 26179 26180 26181 26182 26183 26184 26185 26186 26187 26188 26189 26190 26191 26192 26193 26194 26195 26196 26197 26198 26199 26200 26201 26202 26203 26204 26205 26206 26207 26208 26209 26210 26211 26212 26213 26214 26215 26216 26217 26218 26219 26220 26221 26222 26223 26224 26225 26226 26227 26228 26229 26230 26231 26232 26233 26234 26235 26236 26237 26238 26239 26240 26241 26242 26243 26244 26245 26246 26247 26248 26249 26250 26251 26252 26253 26254 26255 26256 26257 26258 26259 26260 26261 26262 26263 26264 26265 26266 26267 26268 26269 26270 26271 26272 26273 26274 26275 26276 26277 26278 26279 26280 26281 26282 26283 26284 26285 26286 26287 26288 26289 26290 26291 26292 26293 26294 26295 26296 26297 26298 26299 26300 26301 26302 26303 26304 26305 26306 26307 26308 26309 26310 26311 26312 26313 26314 26315 26316 26317 26318 26319 26320 26321 26322 26323 26324 26325 26326 26327 26328 26329 26330 26331 26332 26333 26334 26335 26336 26337 26338 26339 26340 26341 26342 26343 26344 26345 26346 26347 26348 26349 26350 26351 26352 26353 26354 26355 26356 26357 26358 26359 26360 26361 26362 26363 26364 26365 26366 26367 26368 26369 26370 26371 26372 26373 26374 26375 26376 26377 26378 26379 26380 26381 26382 26383 26384 26385 26386 26387 26388 26389 26390 26391 26392 26393 26394 26395 26396 26397 26398 26399 26400 26401 26402 26403 26404 26405 26406 26407 26408 26409 26410 26411 26412 26413 26414 26415 26416 26417 26418 26419 26420 26421 26422 26423 26424 26425 26426 26427 26428 26429 26430 26431 26432 26433 26434 26435 26436 26437 26438 26439 26440 26441 26442 26443 26444 26445 26446 26447 26448 26449 26450 26451 26452 26453 26454 26455 26456 26457 26458 26459 26460 26461 26462 26463 26464 26465 26466 26467 26468 26469 26470 26471 26472 26473 26474 26475 26476 26477 26478 26479 26480 26481 26482 26483 26484 26485 26486 26487 26488 26489 26490 26491 26492 26493 26494 26495 26496 26497 26498 26499 26500 26501 26502 26503 26504 26505 26506 26507 26508 26509 26510 26511 26512 26513 26514 26515 26516 26517 26518 26519 26520 26521 26522 26523 26524 26525 26526 26527 26528 26529 26530 26531 26532 26533 26534 26535 26536 26537 26538 26539 26540 26541 26542 26543 26544 26545 26546 26547 26548 26549 26550 26551 26552 26553 26554 26555 26556 26557 26558 26559 26560 26561 26562 26563 26564 26565 26566 26567 26568 26569 26570 26571 26572 26573 26574 26575 26576 26577 26578 26579 26580 26581 26582 26583 26584 26585 26586 26587 26588 26589 26590 26591 26592 26593 26594 26595 26596 26597 26598 26599 26600 26601 26602 26603 26604 26605 26606 26607 26608 26609 26610 26611 26612 26613 26614 26615 26616 26617 26618 26619 26620 26621 26622 26623 26624 26625 26626 26627 26628 26629 26630 26631 26632 26633 26634 26635 26636 26637 26638 26639 26640 26641 26642 26643 26644 26645 26646 26647 26648 26649 26650 26651 26652 26653 26654 26655 26656 26657 26658 26659 26660 26661 26662 26663 26664 26665 26666 26667 26668 26669 26670 26671 26672 26673 26674 26675 26676 26677 26678 26679 26680 26681 26682 26683 26684 26685 26686 26687 26688 26689 26690 26691 26692 26693 26694 26695 26696 26697 26698 26699 26700 26701 26702 26703 26704 26705 26706 26707 26708 26709 26710 26711 26712 26713 26714 26715 26716 26717 26718 26719 26720 26721 26722 26723 26724 26725 26726 26727 26728 26729 26730 26731 26732 26733 26734 26735 26736 26737 26738 26739 26740 26741 26742 26743 26744 26745 26746 26747 26748 26749 26750 26751 26752 26753 26754 26755 26756 26757 26758 26759 26760 26761 26762 26763 26764 26765 26766 26767 26768 26769 26770 26771 26772 26773 26774 26775 26776 26777 26778 26779 26780 26781 26782 26783 26784 26785 26786 26787 26788 26789 26790 26791 26792 26793 26794 26795 26796 26797 26798 26799 26800 26801 26802 26803 26804 26805 26806 26807 26808 26809 26810 26811 26812 26813 26814 26815 26816 26817 26818 26819 26820 26821 26822 26823 26824 26825 26826 26827 26828 26829 26830 26831 26832 26833 26834 26835 26836 26837 26838 26839 26840 26841 26842 26843 26844 26845 26846 26847 26848 26849 26850 26851 26852 26853 26854 26855 26856 26857 26858 26859 26860 26861 26862 26863 26864 26865 26866 26867 26868 26869 26870 26871 26872 26873 26874 26875 26876 26877 26878 26879 26880 26881 26882 26883 26884 26885 26886 26887 26888 26889 26890 26891 26892 26893 26894 26895 26896 26897 26898 26899 26900 26901 26902 26903 26904 26905 26906 26907 26908 26909 26910 26911 26912 26913 26914 26915 26916 26917 26918 26919 26920 26921 26922 26923 26924 26925 26926 26927 26928 26929 26930 26931 26932 26933 26934 26935 26936 26937 26938 26939 26940 26941 26942 26943 26944 26945 26946 26947 26948 26949 26950 26951 26952 26953 26954 26955 26956 26957 26958 26959 26960 26961 26962 26963 26964 26965 26966 26967 26968 26969 26970 26971 26972 26973 26974 26975 26976 26977 26978 26979 26980 26981 26982 26983 26984 26985 26986 26987 26988 26989 26990 26991 26992 26993 26994 26995 26996 26997 26998 26999 27000 27001 27002 27003 27004 27005 27006 27007 27008 27009 27010 27011 27012 27013 27014 27015 27016 27017 27018 27019 27020 27021 27022 27023 27024 27025 27026 27027 27028 27029 27030 27031 27032 27033 27034 27035 27036 27037 27038 27039 27040 27041 27042 27043 27044 27045 27046 27047 27048 27049 27050 27051 27052 27053 27054 27055 27056 27057 27058 27059 27060 27061 27062 27063 27064 27065 27066 27067 27068 27069 27070 27071 27072 27073 27074 27075 27076 27077 27078 27079 27080 27081 27082 27083 27084 27085 27086 27087 27088 27089 27090 27091 27092 27093 27094 27095 27096 27097 27098 27099 27100 27101 27102 27103 27104 27105 27106 27107 27108 27109 27110 27111 27112 27113 27114 27115 27116 27117 27118 27119 27120 27121 27122 27123 27124 27125 27126 27127 27128 27129 27130 27131 27132 27133 27134 27135 27136 27137 27138 27139 27140 27141 27142 27143 27144 27145 27146 27147 27148 27149 27150 27151 27152 27153 27154 27155 27156 27157 27158 27159 27160 27161 27162 27163 27164 27165 27166 27167 27168 27169 27170 27171 27172 27173 27174 27175 27176 27177 27178 27179 27180 27181 27182 27183 27184 27185 27186 27187 27188 27189 27190 27191 27192 27193 27194 27195 27196 27197 27198 27199 27200 27201 27202 27203 27204 27205 27206 27207 27208 27209 27210 27211 27212 27213 27214 27215 27216 27217 27218 27219 27220 27221 27222 27223 27224 27225 27226 27227 27228 27229 27230 27231 27232 27233 27234 27235 27236 27237 27238 27239 27240 27241 27242 27243 27244 27245 27246 27247 27248 27249 27250 27251 27252 27253 27254 27255 27256 27257 27258 27259 27260 27261 27262 27263 27264 27265 27266 27267 27268 27269 27270 27271 27272 27273 27274 27275 27276 27277 27278 27279 27280 27281 27282 27283 27284 27285 27286 27287 27288 27289 27290 27291 27292 27293 27294 27295 27296 27297 27298 27299 27300 27301 27302 27303 27304 27305 27306 27307 27308 27309 27310 27311 27312 27313 27314 27315 27316 27317 27318 27319 27320 27321 27322 27323 27324 27325 27326 27327 27328 27329 27330 27331 27332 27333 27334 27335 27336 27337 27338 27339 27340 27341 27342 27343 27344 27345 27346 27347 27348 27349 27350 27351 27352 27353 27354 27355 27356 27357 27358 27359 27360 27361 27362 27363 27364 27365 27366 27367 27368 27369 27370 27371 27372 27373 27374 27375 27376 27377 27378 27379 27380 27381 27382 27383 27384 27385 27386 27387 27388 27389 27390 27391 27392 27393 27394 27395 27396 27397 27398 27399 27400 27401 27402 27403 27404 27405 27406 27407 27408 27409 27410 27411 27412 27413 27414 27415 27416 27417 27418 27419 27420 27421 27422 27423 27424 27425 27426 27427 27428 27429 27430 27431 27432 27433 27434 27435 27436 27437 27438 27439 27440 27441 27442 27443 27444 27445 27446 27447 27448 27449 27450 27451 27452 27453 27454 27455 27456 27457 27458 27459 27460 27461 27462 27463 27464 27465 27466 27467 27468 27469 27470 27471 27472 27473 27474 27475 27476 27477 27478 27479 27480 27481 27482 27483 27484 27485 27486 27487 27488 27489 27490 27491 27492 27493 27494 27495 27496 27497 27498 27499 27500 27501 27502 27503 27504 27505 27506 27507 27508 27509 27510 27511 27512 27513 27514 27515 27516 27517 27518 27519 27520 27521 27522 27523 27524 27525 27526 27527 27528 27529 27530 27531 27532 27533 27534 27535 27536 27537 27538 27539 27540 27541 27542 27543 27544 27545 27546 27547 27548 27549 27550 27551 27552 27553 27554 27555 27556 27557 27558 27559 27560 27561 27562 27563 27564 27565 27566 27567 27568 27569 27570 27571 27572 27573 27574 27575 27576 27577 27578 27579 27580 27581 27582 27583 27584 27585 27586 27587 27588 27589 27590 27591 27592 27593 27594 27595 27596 27597 27598 27599 27600 27601 27602 27603 27604 27605 27606 27607 27608 27609 27610 27611 27612 27613 27614 27615 27616 27617 27618 27619 27620 27621 27622 27623 27624 27625 27626 27627 27628 27629 27630 27631 27632 27633 27634 27635 27636 27637 27638 27639 27640 27641 27642 27643 27644 27645 27646 27647 27648 27649 27650 27651 27652 27653 27654 27655 27656 27657 27658 27659 27660 27661 27662 27663 27664 27665 27666 27667 27668 27669 27670 27671 27672 27673 27674 27675 27676 27677 27678 27679 27680 27681 27682 27683 27684 27685 27686 27687 27688 27689 27690 27691 27692 27693 27694 27695 27696 27697 27698 27699 27700 27701 27702 27703 27704 27705 27706 27707 27708 27709 27710 27711 27712 27713 27714 27715 27716 27717 27718 27719 27720 27721 27722 27723 27724 27725 27726 27727 27728 27729 27730 27731 27732 27733 27734 27735 27736 27737 27738 27739 27740 27741 27742 27743 27744 27745 27746 27747 27748 27749 27750 27751 27752 27753 27754 27755 27756 27757 27758 27759 27760 27761 27762 27763 27764 27765 27766 27767 27768 27769 27770 27771 27772 27773 27774 27775 27776 27777 27778 27779 27780 27781 27782 27783 27784 27785 27786 27787 27788 27789 27790 27791 27792 27793 27794 27795 27796 27797 27798 27799 27800 27801 27802 27803 27804 27805 27806 27807 27808 27809 27810 27811 27812 27813 27814 27815 27816 27817 27818 27819 27820 27821 27822 27823 27824 27825 27826 27827 27828 27829 27830 27831 27832 27833 27834 27835 27836 27837 27838 27839 27840 27841 27842 27843 27844 27845 27846 27847 27848 27849 27850 27851 27852 27853 27854 27855 27856 27857 27858 27859 27860 27861 27862 27863 27864 27865 27866 27867 27868 27869 27870 27871 27872 27873 27874 27875 27876 27877 27878 27879 27880 27881 27882 27883 27884 27885 27886 27887 27888 27889 27890 27891 27892 27893 27894 27895 27896 27897 27898 27899 27900 27901 27902 27903 27904 27905 27906 27907 27908 27909 27910 27911 27912 27913 27914 27915 27916 27917 27918 27919 27920 27921 27922 27923 27924 27925 27926 27927 27928 27929 27930 27931 27932 27933 27934 27935 27936 27937 27938 27939 27940 27941 27942 27943 27944 27945 27946 27947 27948 27949 27950 27951 27952 27953 27954 27955 27956 27957 27958 27959 27960 27961 27962 27963 27964 27965 27966 27967 27968 27969 27970 27971 27972 27973 27974 27975 27976 27977 27978 27979 27980 27981 27982 27983 27984 27985 27986 27987 27988 27989 27990 27991 27992 27993 27994 27995 27996 27997 27998 27999 28000 28001 28002 28003 28004 28005 28006 28007 28008 28009 28010 28011 28012 28013 28014 28015 28016 28017 28018 28019 28020 28021 28022 28023 28024 28025 28026 28027 28028 28029 28030 28031 28032 28033 28034 28035 28036 28037 28038 28039 28040 28041 28042 28043 28044 28045 28046 28047 28048 28049 28050 28051 28052 28053 28054 28055 28056 28057 28058 28059 28060 28061 28062 28063 28064 28065 28066 28067 28068 28069 28070 28071 28072 28073 28074 28075 28076 28077 28078 28079 28080 28081 28082 28083 28084 28085 28086 28087 28088 28089 28090 28091 28092 28093 28094 28095 28096 28097 28098 28099 28100 28101 28102 28103 28104 28105 28106 28107 28108 28109 28110 28111 28112 28113 28114 28115 28116 28117 28118 28119 28120 28121 28122 28123 28124 28125 28126 28127 28128 28129 28130 28131 28132 28133 28134 28135 28136 28137 28138 28139 28140 28141 28142 28143 28144 28145 28146 28147 28148 28149 28150 28151 28152 28153 28154 28155 28156 28157 28158 28159 28160 28161 28162 28163 28164 28165 28166 28167 28168 28169 28170 28171 28172 28173 28174 28175 28176 28177 28178 28179 28180 28181 28182 28183 28184 28185 28186 28187 28188 28189 28190 28191 28192 28193 28194 28195 28196 28197 28198 28199 28200 28201 28202 28203 28204 28205 28206 28207 28208 28209 28210 28211 28212 28213 28214 28215 28216 28217 28218 28219 28220 28221 28222 28223 28224 28225 28226 28227 28228 28229 28230 28231 28232 28233 28234 28235 28236 28237 28238 28239 28240 28241 28242 28243 28244 28245 28246 28247 28248 28249 28250 28251 28252 28253 28254 28255 28256 28257 28258 28259 28260 28261 28262 28263 28264 28265 28266 28267 28268 28269 28270 28271 28272 28273 28274 28275 28276 28277 28278 28279 28280 28281 28282 28283 28284 28285 28286 28287 28288 28289 28290 28291 28292 28293 28294 28295 28296 28297 28298 28299 28300 28301 28302 28303 28304 28305 28306 28307 28308 28309 28310 28311 28312 28313 28314 28315 28316 28317 28318 28319 28320 28321 28322 28323 28324 28325 28326 28327 28328 28329 28330 28331 28332 28333 28334 28335 28336 28337 28338 28339 28340 28341 28342 28343 28344 28345 28346 28347 28348 28349 28350 28351 28352 28353 28354 28355 28356 28357 28358 28359 28360 28361 28362 28363 28364 28365 28366 28367 28368 28369 28370 28371 28372 28373 28374 28375 28376 28377 28378 28379 28380 28381 28382 28383 28384 28385 28386 28387 28388 28389 28390 28391 28392 28393 28394 28395 28396 28397 28398 28399 28400 28401 28402 28403 28404 28405 28406 28407 28408 28409 28410 28411 28412 28413 28414 28415 28416 28417 28418 28419 28420 28421 28422 28423 28424 28425 28426 28427 28428 28429 28430 28431 28432 28433 28434 28435 28436 28437 28438 28439 28440 28441 28442 28443 28444 28445 28446 28447 28448 28449 28450 28451 28452 28453 28454 28455 28456 28457 28458 28459 28460 28461 28462 28463 28464 28465 28466 28467 28468 28469 28470 28471 28472 28473 28474 28475 28476 28477 28478 28479 28480 28481 28482 28483 28484 28485 28486 28487 28488 28489 28490 28491 28492 28493 28494 28495 28496 28497 28498 28499 28500 28501 28502 28503 28504 28505 28506 28507 28508 28509 28510 28511 28512 28513 28514 28515 28516 28517 28518 28519 28520 28521 28522 28523 28524 28525 28526 28527 28528 28529 28530 28531 28532 28533 28534 28535 28536 28537 28538 28539 28540 28541 28542 28543 28544 28545 28546 28547 28548 28549 28550 28551 28552 28553 28554 28555 28556 28557 28558 28559 28560 28561 28562 28563 28564 28565 28566 28567 28568 28569 28570 28571 28572 28573 28574 28575 28576 28577 28578 28579 28580 28581 28582 28583 28584 28585 28586 28587 28588 28589 28590 28591 28592 28593 28594 28595 28596 28597 28598 28599 28600 28601 28602 28603 28604 28605 28606 28607 28608 28609 28610 28611 28612 28613 28614 28615 28616 28617 28618 28619 28620 28621 28622 28623 28624 28625 28626 28627 28628 28629 28630 28631 28632 28633 28634 28635 28636 28637 28638 28639 28640 28641 28642 28643 28644 28645 28646 28647 28648 28649 28650 28651 28652 28653 28654 28655 28656 28657 28658 28659 28660 28661 28662 28663 28664 28665 28666 28667 28668 28669 28670 28671 28672 28673 28674 28675 28676 28677 28678 28679 28680 28681 28682 28683 28684 28685 28686 28687 28688 28689 28690 28691 28692 28693 28694 28695 28696 28697 28698 28699 28700 28701 28702 28703 28704 28705 28706 28707 28708 28709 28710 28711 28712 28713 28714 28715 28716 28717 28718 28719 28720 28721 28722 28723 28724 28725 28726 28727 28728 28729 28730 28731 28732 28733 28734 28735 28736 28737 28738 28739 28740 28741 28742 28743 28744 28745 28746 28747 28748 28749 28750 28751 28752 28753 28754 28755 28756 28757 28758 28759 28760 28761 28762 28763 28764 28765 28766 28767 28768 28769 28770 28771 28772 28773 28774 28775 28776 28777 28778 28779 28780 28781 28782 28783 28784 28785 28786 28787 28788 28789 28790 28791 28792 28793 28794 28795 28796 28797 28798 28799 28800 28801 28802 28803 28804 28805 28806 28807 28808 28809 28810 28811 28812 28813 28814 28815 28816 28817 28818 28819 28820 28821 28822 28823 28824 28825 28826 28827 28828 28829 28830 28831 28832 28833 28834 28835 28836 28837 28838 28839 28840 28841 28842 28843 28844 28845 28846 28847 28848 28849 28850 28851 28852 28853 28854 28855 28856 28857 28858 28859 28860 28861 28862 28863 28864 28865 28866 28867 28868 28869 28870 28871 28872 28873 28874 28875 28876 28877 28878 28879 28880 28881 28882 28883 28884 28885 28886 28887 28888 28889 28890 28891 28892 28893 28894 28895 28896 28897 28898 28899 28900 28901 28902 28903 28904 28905 28906 28907 28908 28909 28910 28911 28912 28913 28914 28915 28916 28917 28918 28919 28920 28921 28922 28923 28924 28925 28926 28927 28928 28929 28930 28931 28932 28933 28934 28935 28936 28937 28938 28939 28940 28941 28942 28943 28944 28945 28946 28947 28948 28949 28950 28951 28952 28953 28954 28955 28956 28957 28958 28959 28960 28961 28962 28963 28964 28965 28966 28967 28968 28969 28970 28971 28972 28973 28974 28975 28976 28977 28978 28979 28980 28981 28982 28983 28984 28985 28986 28987 28988 28989 28990 28991 28992 28993 28994 28995 28996 28997 28998 28999 29000 29001 29002 29003 29004 29005 29006 29007 29008 29009 29010 29011 29012 29013 29014 29015 29016 29017 29018 29019 29020 29021 29022 29023 29024 29025 29026 29027 29028 29029 29030 29031 29032 29033 29034 29035 29036 29037 29038 29039 29040 29041 29042 29043 29044 29045 29046 29047 29048 29049 29050 29051 29052 29053 29054 29055 29056 29057 29058 29059 29060 29061 29062 29063 29064 29065 29066 29067 29068 29069 29070 29071 29072 29073 29074 29075 29076 29077 29078 29079 29080 29081 29082 29083 29084 29085 29086 29087 29088 29089 29090 29091 29092 29093 29094 29095 29096 29097 29098 29099 29100 29101 29102 29103 29104 29105 29106 29107 29108 29109 29110 29111 29112 29113 29114 29115 29116 29117 29118 29119 29120 29121 29122 29123 29124 29125 29126 29127 29128 29129 29130 29131 29132 29133 29134 29135 29136 29137 29138 29139 29140 29141 29142 29143 29144 29145 29146 29147 29148 29149 29150 29151 29152 29153 29154 29155 29156 29157 29158 29159 29160 29161 29162 29163 29164 29165 29166 29167 29168 29169 29170 29171 29172 29173 29174 29175 29176 29177 29178 29179 29180 29181 29182 29183 29184 29185 29186 29187 29188 29189 29190 29191 29192 29193 29194 29195 29196 29197 29198 29199 29200 29201 29202 29203 29204 29205 29206 29207 29208 29209 29210 29211 29212 29213 29214 29215 29216 29217 29218 29219 29220 29221 29222 29223 29224 29225 29226 29227 29228 29229 29230 29231 29232 29233 29234 29235 29236 29237 29238 29239 29240 29241 29242 29243 29244 29245 29246 29247 29248 29249 29250 29251 29252 29253 29254 29255 29256 29257 29258 29259 29260 29261 29262 29263 29264 29265 29266 29267 29268 29269 29270 29271 29272 29273 29274 29275 29276 29277 29278 29279 29280 29281 29282 29283 29284 29285 29286 29287 29288 29289 29290 29291 29292 29293 29294 29295 29296 29297 29298 29299 29300 29301 29302 29303 29304 29305 29306 29307 29308 29309 29310 29311 29312 29313 29314 29315 29316 29317 29318 29319 29320 29321 29322 29323 29324 29325 29326 29327 29328 29329 29330 29331 29332 29333 29334 29335 29336 29337 29338 29339 29340 29341 29342 29343 29344 29345 29346 29347 29348 29349 29350 29351 29352 29353 29354 29355 29356 29357 29358 29359 29360 29361 29362 29363 29364 29365 29366 29367 29368 29369 29370 29371 29372 29373 29374 29375 29376 29377 29378 29379 29380 29381 29382 29383 29384 29385 29386 29387 29388 29389 29390 29391 29392 29393 29394 29395 29396 29397 29398 29399 29400 29401 29402 29403 29404 29405 29406 29407 29408 29409 29410 29411 29412 29413 29414 29415 29416 29417 29418 29419 29420 29421 29422 29423 29424 29425 29426 29427 29428 29429 29430 29431 29432 29433 29434 29435 29436 29437 29438 29439 29440 29441 29442 29443 29444 29445 29446 29447 29448 29449 29450 29451 29452 29453 29454 29455 29456 29457 29458 29459 29460 29461 29462 29463 29464 29465 29466 29467 29468 29469 29470 29471 29472 29473 29474 29475 29476 29477 29478 29479 29480 29481 29482 29483 29484 29485 29486 29487 29488 29489 29490 29491 29492 29493 29494 29495 29496 29497 29498 29499 29500 29501 29502 29503 29504 29505 29506 29507 29508 29509 29510 29511 29512 29513 29514 29515 29516 29517 29518 29519 29520 29521 29522 29523 29524 29525 29526 29527 29528 29529 29530 29531 29532 29533 29534 29535 29536 29537 29538 29539 29540 29541 29542 29543 29544 29545 29546 29547 29548 29549 29550 29551 29552 29553 29554 29555 29556 29557 29558 29559 29560 29561 29562 29563 29564 29565 29566 29567 29568 29569 29570 29571 29572 29573 29574 29575 29576 29577 29578 29579 29580 29581 29582 29583 29584 29585 29586 29587 29588 29589 29590 29591 29592 29593 29594 29595 29596 29597 29598 29599 29600 29601 29602 29603 29604 29605 29606 29607 29608 29609 29610 29611 29612 29613 29614 29615 29616 29617 29618 29619 29620 29621 29622 29623 29624 29625 29626 29627 29628 29629 29630 29631 29632 29633 29634 29635 29636 29637 29638 29639 29640 29641 29642 29643 29644 29645 29646 29647 29648 29649 29650 29651 29652 29653 29654 29655 29656 29657 29658 29659 29660 29661 29662 29663 29664 29665 29666 29667 29668 29669 29670 29671 29672 29673 29674 29675 29676 29677 29678 29679 29680 29681 29682 29683 29684 29685 29686 29687 29688 29689 29690 29691 29692 29693 29694 29695 29696 29697 29698 29699 29700 29701 29702 29703 29704 29705 29706 29707 29708 29709 29710 29711 29712 29713 29714 29715 29716 29717 29718 29719 29720 29721 29722 29723 29724 29725 29726 29727 29728 29729 29730 29731 29732 29733 29734 29735 29736 29737 29738 29739 29740 29741 29742 29743 29744 29745 29746 29747 29748 29749 29750 29751 29752 29753 29754 29755 29756 29757 29758 29759 29760 29761 29762 29763 29764 29765 29766 29767 29768 29769 29770 29771 29772 29773 29774 29775 29776 29777 29778 29779 29780 29781 29782 29783 29784 29785 29786 29787 29788 29789 29790 29791 29792 29793 29794 29795 29796 29797 29798 29799 29800 29801 29802 29803 29804 29805 29806 29807 29808 29809 29810 29811 29812 29813 29814 29815 29816 29817 29818 29819 29820 29821 29822 29823 29824 29825 29826 29827 29828 29829 29830 29831 29832 29833 29834 29835 29836 29837 29838 29839 29840 29841 29842 29843 29844 29845 29846 29847 29848 29849 29850 29851 29852 29853 29854 29855 29856 29857 29858 29859 29860 29861 29862 29863 29864 29865 29866 29867 29868 29869 29870 29871 29872 29873 29874 29875 29876 29877 29878 29879 29880 29881 29882 29883 29884 29885 29886 29887 29888 29889 29890 29891 29892 29893 29894 29895 29896 29897 29898 29899 29900 29901 29902 29903 29904 29905 29906 29907 29908 29909 29910 29911 29912 29913 29914 29915 29916 29917 29918 29919 29920 29921 29922 29923 29924 29925 29926 29927 29928 29929 29930 29931 29932 29933 29934 29935 29936 29937 29938 29939 29940 29941 29942 29943 29944 29945 29946 29947 29948 29949 29950 29951 29952 29953 29954 29955 29956 29957 29958 29959 29960 29961 29962 29963 29964 29965 29966 29967 29968 29969 29970 29971 29972 29973 29974 29975 29976 29977 29978 29979 29980 29981 29982 29983 29984 29985 29986 29987 29988 29989 29990 29991 29992 29993 29994 29995 29996 29997 29998 29999 30000 30001 30002 30003 30004 30005 30006 30007 30008 30009 30010 30011 30012 30013 30014 30015 30016 30017 30018 30019 30020 30021 30022 30023 30024 30025 30026 30027 30028 30029 30030 30031 30032 30033 30034 30035 30036 30037 30038 30039 30040 30041 30042 30043 30044 30045 30046 30047 30048 30049 30050 30051 30052 30053 30054 30055 30056 30057 30058 30059 30060 30061 30062 30063 30064 30065 30066 30067 30068 30069 30070 30071 30072 30073 30074 30075 30076 30077 30078 30079 30080 30081 30082 30083 30084 30085 30086 30087 30088 30089 30090 30091 30092 30093 30094 30095 30096 30097 30098 30099 30100 30101 30102 30103 30104 30105 30106 30107 30108 30109 30110 30111 30112 30113 30114 30115 30116 30117 30118 30119 30120 30121 30122 30123 30124 30125 30126 30127 30128 30129 30130 30131 30132 30133 30134 30135 30136 30137 30138 30139 30140 30141 30142 30143 30144 30145 30146 30147 30148 30149 30150 30151 30152 30153 30154 30155 30156 30157 30158 30159 30160 30161 30162 30163 30164 30165 30166 30167 30168 30169 30170 30171 30172 30173 30174 30175 30176 30177 30178 30179 30180 30181 30182 30183 30184 30185 30186 30187 30188 30189 30190 30191 30192 30193 30194 30195 30196 30197 30198 30199 30200 30201 30202 30203 30204 30205 30206 30207 30208 30209 30210 30211 30212 30213 30214 30215 30216 30217 30218 30219 30220 30221 30222 30223 30224 30225 30226 30227 30228 30229 30230 30231 30232 30233 30234 30235 30236 30237 30238 30239 30240 30241 30242 30243 30244 30245 30246 30247 30248 30249 30250 30251 30252 30253 30254 30255 30256 30257 30258 30259 30260 30261 30262 30263 30264 30265 30266 30267 30268 30269 30270 30271 30272 30273 30274 30275 30276 30277 30278 30279 30280 30281 30282 30283 30284 30285 30286 30287 30288 30289 30290 30291 30292 30293 30294 30295 30296 30297 30298 30299 30300 30301 30302 30303 30304 30305 30306 30307 30308 30309 30310 30311 30312 30313 30314 30315 30316 30317 30318 30319 30320 30321 30322 30323 30324 30325 30326 30327 30328 30329 30330 30331 30332 30333 30334 30335 30336 30337 30338 30339 30340 30341 30342 30343 30344 30345 30346 30347 30348 30349 30350 30351 30352 30353 30354 30355 30356 30357 30358 30359 30360 30361 30362 30363 30364 30365 30366 30367 30368 30369 30370 30371 30372 30373 30374 30375 30376 30377 30378 30379 30380 30381 30382 30383 30384 30385 30386 30387 30388 30389 30390 30391 30392 30393 30394 30395 30396 30397 30398 30399 30400 30401 30402 30403 30404 30405 30406 30407 30408 30409 30410 30411 30412 30413 30414 30415 30416 30417 30418 30419 30420 30421 30422 30423 30424 30425 30426 30427 30428 30429 30430 30431 30432 30433 30434 30435 30436 30437 30438 30439 30440 30441 30442 30443 30444 30445 30446 30447 30448 30449 30450 30451 30452 30453 30454 30455 30456 30457 30458 30459 30460 30461 30462 30463 30464 30465 30466 30467 30468 30469 30470 30471 30472 30473 30474 30475 30476 30477 30478 30479 30480 30481 30482 30483 30484 30485 30486 30487 30488 30489 30490 30491 30492 30493 30494 30495 30496 30497 30498 30499 30500 30501 30502 30503 30504 30505 30506 30507 30508 30509 30510 30511 30512 30513 30514 30515 30516 30517 30518 30519 30520 30521 30522 30523 30524 30525 30526 30527 30528 30529 30530 30531 30532 30533 30534 30535 30536 30537 30538 30539 30540 30541 30542 30543 30544 30545 30546 30547 30548 30549 30550 30551 30552 30553 30554 30555 30556 30557 30558 30559 30560 30561 30562 30563 30564 30565 30566 30567 30568 30569 30570 30571 30572 30573 30574 30575 30576 30577 30578 30579 30580 30581 30582 30583 30584 30585 30586 30587 30588 30589 30590 30591 30592 30593 30594 30595 30596 30597 30598 30599 30600 30601 30602 30603 30604 30605 30606 30607 30608 30609 30610 30611 30612 30613 30614 30615 30616 30617 30618 30619 30620 30621 30622 30623 30624 30625 30626 30627 30628 30629 30630 30631 30632 30633 30634 30635 30636 30637 30638 30639 30640 30641 30642 30643 30644 30645 30646 30647 30648 30649 30650 30651 30652 30653 30654 30655 30656 30657 30658 30659 30660 30661 30662 30663 30664 30665 30666 30667 30668 30669 30670 30671 30672 30673 30674 30675 30676 30677 30678 30679 30680 30681 30682 30683 30684 30685 30686 30687 30688 30689 30690 30691 30692 30693 30694 30695 30696 30697 30698 30699 30700 30701 30702 30703 30704 30705 30706 30707 30708 30709 30710 30711 30712 30713 30714 30715 30716 30717 30718 30719 30720 30721 30722 30723 30724 30725 30726 30727 30728 30729 30730 30731 30732 30733 30734 30735 30736 30737 30738 30739 30740 30741 30742 30743 30744 30745 30746 30747 30748 30749 30750 30751 30752 30753 30754 30755 30756 30757 30758 30759 30760 30761 30762 30763 30764 30765 30766 30767 30768 30769 30770 30771 30772 30773 30774 30775 30776 30777 30778 30779 30780 30781 30782 30783 30784 30785 30786 30787 30788 30789 30790 30791 30792 30793 30794 30795 30796 30797 30798 30799 30800 30801 30802 30803 30804 30805 30806 30807 30808 30809 30810 30811 30812 30813 30814 30815 30816 30817 30818 30819 30820 30821 30822 30823 30824 30825 30826 30827 30828 30829 30830 30831 30832 30833 30834 30835 30836 30837 30838 30839 30840 30841 30842 30843 30844 30845 30846 30847 30848 30849 30850 30851 30852 30853 30854 30855 30856 30857 30858 30859 30860 30861 30862 30863 30864 30865 30866 30867 30868 30869 30870 30871 30872 30873 30874 30875 30876 30877 30878 30879 30880 30881 30882 30883 30884 30885 30886 30887 30888 30889 30890 30891 30892 30893 30894 30895 30896 30897 30898 30899 30900 30901 30902 30903 30904 30905 30906 30907 30908 30909 30910 30911 30912 30913 30914 30915 30916 30917 30918 30919 30920 30921 30922 30923 30924 30925 30926 30927 30928 30929 30930 30931 30932 30933 30934 30935 30936 30937 30938 30939 30940 30941 30942 30943 30944 30945 30946 30947 30948 30949 30950 30951 30952 30953 30954 30955 30956 30957 30958 30959 30960 30961 30962 30963 30964 30965 30966 30967 30968 30969 30970 30971 30972 30973 30974 30975 30976 30977 30978 30979 30980 30981 30982 30983 30984 30985 30986 30987 30988 30989 30990 30991 30992 30993 30994 30995 30996 30997 30998 30999 31000 31001 31002 31003 31004 31005 31006 31007 31008 31009 31010 31011 31012 31013 31014 31015 31016 31017 31018 31019 31020 31021 31022 31023 31024 31025 31026 31027 31028 31029 31030 31031 31032 31033 31034 31035 31036 31037 31038 31039 31040 31041 31042 31043 31044 31045 31046 31047 31048 31049 31050 31051 31052 31053 31054 31055 31056 31057 31058 31059 31060 31061 31062 31063 31064 31065 31066 31067 31068 31069 31070 31071 31072 31073 31074 31075 31076 31077 31078 31079 31080 31081 31082 31083 31084 31085 31086 31087 31088 31089 31090 31091 31092 31093 31094 31095 31096 31097 31098 31099 31100 31101 31102 31103 31104 31105 31106 31107 31108 31109 31110 31111 31112 31113 31114 31115 31116 31117 31118 31119 31120 31121 31122 31123 31124 31125 31126 31127 31128 31129 31130 31131 31132 31133 31134 31135 31136 31137 31138 31139 31140 31141 31142 31143 31144 31145 31146 31147 31148 31149 31150 31151 31152 31153 31154 31155 31156 31157 31158 31159 31160 31161 31162 31163 31164 31165 31166 31167 31168 31169 31170 31171 31172 31173 31174 31175 31176 31177 31178 31179 31180 31181 31182 31183 31184 31185 31186 31187 31188 31189 31190 31191 31192 31193 31194 31195 31196 31197 31198 31199 31200 31201 31202 31203 31204 31205 31206 31207 31208 31209 31210 31211 31212 31213 31214 31215 31216 31217 31218 31219 31220 31221 31222 31223 31224 31225 31226 31227 31228 31229 31230 31231 31232 31233 31234 31235 31236 31237 31238 31239 31240 31241 31242 31243 31244 31245 31246 31247 31248 31249 31250 31251 31252 31253 31254 31255 31256 31257 31258 31259 31260 31261 31262 31263 31264 31265 31266 31267 31268 31269 31270 31271 31272 31273 31274 31275 31276 31277 31278 31279 31280 31281 31282 31283 31284 31285 31286 31287 31288 31289 31290 31291 31292 31293 31294 31295 31296 31297 31298 31299 31300 31301 31302 31303 31304 31305 31306 31307 31308 31309 31310 31311 31312 31313 31314 31315 31316 31317 31318 31319 31320 31321 31322 31323 31324 31325 31326 31327 31328 31329 31330 31331 31332 31333 31334 31335 31336 31337 31338 31339 31340 31341 31342 31343 31344 31345 31346 31347 31348 31349 31350 31351 31352 31353 31354 31355 31356 31357 31358 31359 31360 31361 31362 31363 31364 31365 31366 31367 31368 31369 31370 31371 31372 31373 31374 31375 31376 31377 31378 31379 31380 31381 31382 31383 31384 31385 31386 31387 31388 31389 31390 31391 31392 31393 31394 31395 31396 31397 31398 31399 31400 31401 31402 31403 31404 31405 31406 31407 31408 31409 31410 31411 31412 31413 31414 31415 31416 31417 31418 31419 31420 31421 31422 31423 31424 31425 31426 31427 31428 31429 31430 31431 31432 31433 31434 31435 31436 31437 31438 31439 31440 31441 31442 31443 31444 31445 31446 31447 31448 31449 31450 31451 31452 31453 31454 31455 31456 31457 31458 31459 31460 31461 31462 31463 31464 31465 31466 31467 31468 31469 31470 31471 31472 31473 31474 31475 31476 31477 31478 31479 31480 31481 31482 31483 31484 31485 31486 31487 31488 31489 31490 31491 31492 31493 31494 31495 31496 31497 31498 31499 31500 31501 31502 31503 31504 31505 31506 31507 31508 31509 31510 31511 31512 31513 31514 31515 31516 31517 31518 31519 31520 31521 31522 31523 31524 31525 31526 31527 31528 31529 31530 31531 31532 31533 31534 31535 31536 31537 31538 31539 31540 31541 31542 31543 31544 31545 31546 31547 31548 31549 31550 31551 31552 31553 31554 31555 31556 31557 31558 31559 31560 31561 31562 31563 31564 31565 31566 31567 31568 31569 31570 31571 31572 31573 31574 31575 31576 31577 31578 31579 31580 31581 31582 31583 31584 31585 31586 31587 31588 31589 31590 31591 31592 31593 31594 31595 31596 31597 31598 31599 31600 31601 31602 31603 31604 31605 31606 31607 31608 31609 31610 31611 31612 31613 31614 31615 31616 31617 31618 31619 31620 31621 31622 31623 31624 31625 31626 31627 31628 31629 31630 31631 31632 31633 31634 31635 31636 31637 31638 31639 31640 31641 31642 31643 31644 31645 31646 31647 31648 31649 31650 31651 31652 31653 31654 31655 31656 31657 31658 31659 31660 31661 31662 31663 31664 31665 31666 31667 31668 31669 31670 31671 31672 31673 31674 31675 31676 31677 31678 31679 31680 31681 31682 31683 31684 31685 31686 31687 31688 31689 31690 31691 31692 31693 31694 31695 31696 31697 31698 31699 31700 31701 31702 31703 31704 31705 31706 31707 31708 31709 31710 31711 31712 31713 31714 31715 31716 31717 31718 31719 31720 31721 31722 31723 31724 31725 31726 31727 31728 31729 31730 31731 31732 31733 31734 31735 31736 31737 31738 31739 31740 31741 31742 31743 31744 31745 31746 31747 31748 31749 31750 31751 31752 31753 31754 31755 31756 31757 31758 31759 31760 31761 31762 31763 31764 31765 31766 31767 31768 31769 31770 31771 31772 31773 31774 31775 31776 31777 31778 31779 31780 31781 31782 31783 31784 31785 31786 31787 31788 31789 31790 31791 31792 31793 31794 31795 31796 31797 31798 31799 31800 31801 31802 31803 31804 31805 31806 31807 31808 31809 31810 31811 31812 31813 31814 31815 31816 31817 31818 31819 31820 31821 31822 31823 31824 31825 31826 31827 31828 31829 31830 31831 31832 31833 31834 31835 31836 31837 31838 31839 31840 31841 31842 31843 31844 31845 31846 31847 31848 31849 31850 31851 31852 31853 31854 31855 31856 31857 31858 31859 31860 31861 31862 31863 31864 31865 31866 31867 31868 31869 31870 31871 31872 31873 31874 31875 31876 31877 31878 31879 31880 31881 31882 31883 31884 31885 31886 31887 31888 31889 31890 31891 31892 31893 31894 31895 31896 31897 
</DataArray>
<DataArray type="UInt32" Name="offsets" format="ascii">
3 6 9 12 15 17 20 23 26 29 32 35 38 40 43 46 49 52 54 57 60 62 65 68 71 74 76 79 82 85 88 90 93 96 99 102 105 108 111 114 117 120 123 126 129 131 134 137 139 142 145 148 151 154 156 159 162 165 168 171 174 177 179 182 185 188 191 193 196 199 202 205 208 211 214 217 220 222 225 228 230 233 236 238 241 244 247 250 252 255 258 261 264 267 270 273 275 277 279 282 285 287 290 293 296 299 302 304 307 310 313 316 319 322 325 328 331 334 337 340 343 345 348 351 354 356 359 362 365 368 371 374 376 379 382 385 388 391 394 397 400 403 406 409 412 415 418 421 424 427 430 433 436 439 442 445 448 451 453 456 459 462 464 467 470 472 475 478 481 484 487 490 493 496 499 502 505 507 510 513 516 519 522 525 528 531 533 536 539 542 545 548 551 554 557 559 562 565 568 571 574 577 580 583 586 588 591 594 597 600 603 606 609 612 615 618 621 624 627 630 633 636 639 642 645 648 651 654 657 659 662 665 668 670 673 675 678 680 683 686 688 691 694 697 699 702 704 707 709 712 714 716 719 721 724 727 729 732 734 737 740 743 745 748 750 752 755 758 760 763 766 769 771 774 776 778 780 783 785 788 791 794 796 799 801 803 805 808 811 813 815 818 821 824 827 829 832 834 837 840 842 845 848 851 853 856 858 860 862 865 868 871 873 876 878 880 882 884 887 890 893 895 897 900 903 905 907 909 912 914 917 920 923 926 928 931 934 937 940 943 946 949 951 954 957 960 963 966 969 971 973 976 979 982 984 987 990 993 995 998 1000 1003 1005 1007 1010 1013 1016 1019 1021 1024 1027 1029 1032 1035 1038 1041 1043 1046 1048 1051 1054 1057 1060 1063 1065 1067 1070 1073 1076 1079 1082 1085 1088 1091 1093 1096 1099 1102 1104 1107 1110 1112 1115 1117 1120 1123 1126 1129 1132 1135 1138 1141 1144 1147 1150 1152 1155 1157 1160 1162 1165 1168 1171 1173 1176 1178 1181 1183 1186 1189 1192 1195 1198 1201 1203 1206 1208 1211 1214 1217 1219 1222 1225 1228 1230 1233 1235 1237 1240 1243 1246 1249 1251 1254 1257 1260 1263 1265 1267 1270 1273 1275 1278 1280 1283 1285 1287 1290 1293 1296 1298 1301 1304 1307 1310 1312 1315 1318 1321 1324 1327 1330 1333 1336 1339 1342 1345 1347 1350 1353 1356 1359 1361 1364 1367 1370 1372 1375 1377 1379 1381 1384 1387 1390 1392 1394 1397 1399 1402 1405 1407 1410 1413 1416 1419 1421 1424 1427 1430 1433 1436 1439 1442 1445 1448 1451 1454 1456 1458 1461 1464 1466 1469 1472 1475 1477 1480 1483 1486 1489 1492 1495 1497 1500 1503 1506 1508 1511 1514 1517 1519 1522 1525 1528 1531 1534 1537 1540 1543 1546 1549 1552 1554 1557 1560 1563 1565 1568 1571 1574 1577 1580 1583 1586 1588 1591 1594 1597 1600 1603 1605 1608 1611 1614 1617 1620 1623 1626 1629 1632 1635 1638 1641 1644 1647 1650 1653 1656 1659 1662 1664 1667 1670 1673 1676 1678 1681 1684 1686 1689 1692 1695 1698 1701 1704 1707 1709 1712 1715 1718 1721 1724 1727 1730 1733 1735 1738 1740 1743 1746 1748 1751 1754 1757 1759 1762 1765 1767 1770 1773 1776 1778 1781 1783 1786 1789 1791 1794 1796 1799 1802 1805 1808 1811 1814 1817 1820 1823 1826 1829 1832 1835 1838 1841 1844 1847 1850 1853 1856 1859 1862 1864 1867 1869 1872 1874 1877 1880 1883 1886 1889 1892 1895 1898 1901 1904 1907 1910 1913 1916 1919 1921 1924 1927 1930 1933 1936 1939 1942 1945 1948 1950 1953 1956 1959 1962 1965 1968 1971 1974 1977 1980 1983 1986 1989 1992 1995 1998 2001 2004 2007 2010 2013 2016 2019 2022 2025 2028 2031 2034 2037 2039 2042 2045 2047 2050 2053 2056 2058 2060 2063 2065 2068 2071 2074 2077 2080 2082 2085 2088 2091 2094 2097 2099 2102 2105 2108 2111 2114 2117 2120 2123 2126 2129 2132 2135 2138 2141 2144 2147 2150 2153 2156 2159 2162 2165 2168 2171 2174 2177 2180 2183 2186 2189 2192 2195 2198 2201 2204 2207 2210 2213 2216 2219 2222 2225 2228 2231 2234 2237 2240 2243 2246 2248 2251 2254 2257 2260 2263 2266 2269 2272 2275 2278 2281 2284 2287 2290 2293 2295 2298 2301 2304 2307 2309 2312 2315 2318 2321 2324 2327 2330 2333 2336 2339 2342 2345 2348 2351 2354 2357 2360 2363 2366 2369 2372 2375 2378 2381 2384 2387 2390 2392 2395 2398 2400 2403 2405 2407 2409 2411 2414 2417 2419 2422 2425 2428 2431 2434 2437 2440 2443 2446 2449 2452 2455 2458 2461 2464 2467 2470 2472 2475 2478 2480 2483 2485 2488 2491 2494 2497 2499 2502 2504 2507 2510 2513 2516 2518 2521 2524 2527 2529 2532 2535 2538 2541 2544 2546 2549 2551 2554 2557 2559 2561 2564 2566 2569 2572 2575 2578 2581 2584 2587 2590 2593 2596 2599 2601 2604 2607 2610 2612 2615 2618 2621 2623 2626 2629 2631 2633 2635 2638 2641 2644 2647 2650 2653 2656 2659 2662 2665 2668 2670 2673 2676 2679 2682 2685 2688 2691 2694 2696 2698 2700 2703 2706 2709 2712 2715 2718 2721 2724 2726 2728 2731 2734 2737 2739 2742 2745 2747 2750 2753 2756 2759 2762 2765 2768 2771 2774 2777 2780 2782 2785 2788 2791 2794 2797 2800 2803 2806 2808 2811 2814 2817 2820 2823 2826 2829 2832 2835 2838 2840 2843 2845 2847 2849 2852 2855 2858 2861 2864 2867 2870 2872 2874 2877 2879 2882 2885 2888 2891 2894 2896 2899 2901 2903 2906 2909 2912 2914 2917 2919 2922 2925 2928 2931 2933 2936 2939 2942 2945 2948 2951 2954 2957 2960 2963 2966 2969 2972 2975 2978 2981 2984 2986 2989 2992 2995 2997 3000 3003 3006 3009 3012 3014 3017 3020 3023 3026 3029 3032 3034 3037 3039 3042 3045 3048 3051 3054 3057 3060 3063 3065 3068 3071 3074 3076 3079 3082 3085 3088 3091 3094 3097 3100 3103 3106 3109 3112 3115 3118 3121 3124 3127 3130 3133 3136 3139 3142 3145 3148 3151 3153 3155 3157 3160 3163 3166 3169 3171 3174 3177 3180 3183 3185 3188 3191 3194 3197 3200 3203 3206 3208 3211 3214 3217 3220 3223 3226 3229 3232 3234 3237 3240 3243 3246 3249 3252 3255 3258 3261 3264 3267 3270 3272 3275 3278 3281 3284 3287 3290 3292 3295 3298 3301 3304 3307 3310 3313 3316 3318 3321 3324 3327 3329 3332 3335 3338 3341 3344 3347 3350 3353 3356 3359 3362 3365 3367 3370 3373 3376 3379 3382 3385 3388 3391 3394 3397 3400 3403 3406 3409 3412 3415 3418 3421 3424 3427 3430 3433 3436 3439 3442 3445 3448 3451 3454 3457 3460 3463 3466 3469 3472 3475 3478 3481 3484 3487 3490 3493 3496 3499 3502 3505 3508 3510 3513 3516 3519 3522 3525 3528 3531 3534 3537 3540 3543 3546 3549 3552 3555 3558 3561 3564 3567 3570 3573 3576 3579 3582 3584 3587 3590 3593 3596 3599 3602 3605 3608 3611 3614 3616 3619 3622 3624 3627 3630 3633 3636 3639 3642 3645 3648 3651 3653 3656 3658 3661 3664 3667 3670 3672 3675 3678 3680 3683 3685 3688 3691 3694 3697 3700 3702 3705 3708 3711 3714 3717 3720 3723 3726 3728 3731 3734 3737 3740 3743 3746 3749 3752 3755 3758 3761 3764 3767 3770 3772 3775 3777 3779 3782 3785 3788 3791 3794 3796 3799 3802 3805 3808 3811 3814 3817 3820 3823 3826 3829 3832 3835 3838 3841 3843 3846 3849 3852 3855 3858 3861 3864 3867 3870 3873 3876 3879 3882 3885 3888 3891 3893 3896 3899 3902 3905 3908 3910 3912 3915 3918 3920 3923 3926 3929 3932 3935 3938 3941 3944 3947 3950 3952 3955 3958 3961 3964 3967 3970 3973 3976 3979 3981 3984 3986 3989 3992 3995 3998 4001 4003 4006 4009 4012 4015 4017 4020 4023 4026 4028 4031 4034 4037 4039 4042 4045 4047 4050 4053 4056 4059 4062 4065 4068 4071 4074 4077 4080 4083 4086 4089 4092 4095 4097 4100 4103 4106 4109 4112 4115 4118 4120 4123 4126 4129 4132 4135 4138 4141 4144 4147 4150 4153 4156 4159 4162 4165 4168 4171 4174 4177 4180 4183 4186 4189 4192 4195 4198 4201 4203 4206 4209 4212 4215 4217 4220 4223 4226 4228 4231 4234 4237 4240 4243 4246 4249 4252 4255 4257 4260 4262 4265 4268 4271 4274 4277 4280 4283 4286 4289 4292 4295 4298 4301 4304 4307 4310 4313 4316 4318 4320 4323 4326 4329 4331 4334 4337 4339 4342 4345 4347 4350 4353 4356 4358 4361 4364 4366 4369 4372 4375 4378 4381 4384 4387 4390 4393 4396 4399 4402 4405 4408 4411 4414 4417 4420 4423 4426 4428 4431 4433 4436 4439 4442 4445 4448 4451 4454 4457 4460 4463 4466 4468 4471 4473 4476 4479 4482 4484 4487 4490 4493 4496 4499 4501 4504 4507 4510 4513 4516 4519 4521 4524 4527 4530 4533 4536 4539 4542 4545 4548 4551 4554 4556 4559 4562 4565 4568 4571 4574 4577 4580 4582 4585 4588 4591 4593 4596 4599 4601 4604 4607 4610 4613 4616 4618 4621 4624 4627 4630 4633 4636 4639 4642 4645 4647 4650 4653 4655 4658 4660 4663 4665 4667 4669 4672 4674 4677 4680 4683 4686 4689 4692 4694 4697 4700 4703 4706 4709 4712 4714 4717 4720 4723 4726 4729 4732 4735 4737 4740 4743 4746 4749 4751 4754 4757 4760 4763 4766 4768 4771 4773 4776 4779 4782 4785 4788 4791 4794 4797 4800 4803 4805 4808 4811 4814 4817 4820 4823 4826 4828 4831 4834 4837 4840 4843 4846 4849 4851 4854 4856 4859 4862 4865 4868 4871 4874 4877 4880 4882 4885 4888 4891 4893 4895 4898 4901 4904 4907 4910 4912 4914 4917 4919 4922 4925 4927 4930 4933 4935 4938 4941 4944 4947 4950 4953 4956 4959 4961 4964 4967 4970 4973 4976 4978 4981 4984 4987 4990 4992 4995 4998 5000 5003 5006 5009 5012 5015 5018 5021 5024 5027 5030 5033 5036 5039 5042 5045 5048 5051 5054 5057 5060 5063 5066 5069 5072 5075 5078 5081 5084 5087 5090 5093 5096 5099 5102 5105 5108 5111 5114 5117 5120 5123 5125 5128 5131 5133 5136 5139 5142 5145 5148 5150 5153 5156 5159 5162 5164 5167 5170 5173 5176 5179 5182 5185 5188 5191 5194 5197 5200 5203 5206 5209 5212 5215 5218 5221 5224 5227 5230 5233 5236 5238 5241 5244 5247 5249 5252 5255 5258 5261 5264 5267 5269 5272 5275 5278 5281 5284 5287 5290 5293 5296 5299 5302 5304 5307 5309 5311 5314 5317 5319 5322 5325 5328 5331 5334 5337 5340 5343 5346 5349 5352 5354 5357 5360 5362 5365 5368 5371 5374 5377 5380 5383 5386 5389 5392 5395 5398 5401 5404 5407 5409 5412 5415 5418 5421 5424 5427 5430 5432 5435 5437 5440 5443 5446 5449 5451 5454 5456 5459 5462 5465 5468 5471 5474 5477 5480 5483 5485 5488 5491 5494 5497 5500 5503 5506 5509 5512 5515 5518 5521 5524 5527 5530 5533 5536 5538 5541 5544 5547 5550 5553 5556 5559 5562 5565 5568 5571 5574 5577 5580 5583 5586 5589 5592 5595 5598 5601 5604 5607 5610 5613 5615 5617 5620 5623 5626 5629 5632 5635 5638 5641 5644 5647 5650 5652 5655 5658 5661 5664 5666 5669 5672 5675 5678 5680 5683 5686 5689 5692 5695 5698 5701 5704 5706 5709 5712 5715 5718 5721 5724 5727 5730 5733 5735 5738 5741 5744 5747 5750 5753 5756 5759 5762 5765 5768 5771 5774 5777 5780 5783 5786 5789 5792 5795 5797 5800 5803 5806 5809 5812 5815 5818 5821 5824 5827 5830 5833 5836 5839 5841 5844 5846 5849 5852 5855 5858 5861 5864 5867 5870 5872 5875 5878 5880 5883 5886 5889 5892 5895 5898 5901 5904 5907 5910 5913 5916 5919 5922 5925 5928 5931 5934 5937 5940 5943 5946 5949 5952 5955 5958 5961 5964 5967 5970 5973 5976 5979 5982 5985 5988 5990 5993 5996 5998 6001 6004 6007 6010 6012 6015 6017 6020 6023 6025 6028 6030 6033 6036 6039 6042 6045 6047 6050 6053 6056 6059 6062 6065 6068 6071 6074 6077 6080 6083 6085 6088 6091 6094 6096 6099 6102 6105 6108 6111 6114 6117 6120 6123 6125 6128 6131 6134 6137 6139 6141 6144 6147 6150 6153 6156 6159 6162 6165 6167 6170 6173 6176 6179 6182 6184 6187 6190 6193 6195 6198 6201 6204 6206 6209 6212 6215 6218 6220 6223 6226 6229 6232 6235 6238 6241 6244 6247 6250 6253 6256 6259 6262 6264 6267 6270 6273 6276 6279 6282 6284 6287 6289 6291 6294 6296 6299 6301 6304 6307 6310 6313 6315 6318 6321 6324 6327 6329 6332 6335 6338 6341 6344 6347 6350 6353 6356 6358 6361 6364 6367 6370 6373 6376 6379 6382 6385 6388 6391 6394 6397 6400 6402 6405 6408 6411 6413 6416 6419 6422 6424 6427 6429 6432 6435 6438 6441 6444 6447 6450 6453 6456 6459 6462 6465 6468 6471 6474 6477 6479 6482 6485 6488 6491 6494 6497 6499 6502 6505 6508 6511 6514 6517 6520 6523 6526 6529 6532 6535 6538 6541 6544 6547 6550 6553 6555 6558 6561 6564 6567 6570 6573 6576 6579 6582 6585 6588 6591 6594 6597 6600 6603 6606 6609 6612 6615 6618 6621 6624 6627 6630 6633 6636 6639 6642 6645 6648 6651 6654 6657 6659 6662 6665 6668 6671 6673 6676 6679 6682 6685 6688 6691 6694 6696 6699 6702 6705 6708 6711 6714 6717 6720 6723 6725 6728 6731 6733 6736 6739 6742 6745 6748 6750 6753 6756 6759 6761 6764 6767 6769 6772 6775 6778 6781 6784 6787 6790 6793 6796 6799 6802 6805 6808 6811 6814 6817 6820 6823 6826 6829 6831 6834 6837 6840 6843 6846 6849 6852 6855 6858 6861 6863 6865 6868 6870 6873 6876 6879 6882 6885 6887 6890 6893 6896 6899 6901 6904 6907 6910 6913 6916 6918 6921 6923 6926 6929 6931 6934 6937 6940 6943 6946 6949 6952 6955 6957 6960 6963 6966 6969 6972 6975 6977 6980 6983 6986 6989 6992 6995 6997 7000 7003 7006 7009 7011 7014 7017 7019 7022 7024 7027 7030 7032 7035 7038 7041 7044 7047 7050 7052 7055 7058 7061 7064 7066 7069 7072 7075 7078 7081 7084 7087 7090 7092 7094 7097 7100 7103 7106 7109 7112 7115 7118 7120 7123 7126 7129 7132 7135 7138 7140 7143 7146 7149 7152 7155 7158 7161 7163 7166 7169 7172 7174 7177 7180 7183 7186 7189 7192 7195 7198 7201 7204 7207 7210 7212 7215 7218 7221 7224 7226 7229 7232 7234 7237 7240 7243 7246 7248 7251 7254 7257 7259 7261 7264 7267 7270 7272 7275 7278 7281 7283 7286 7289 7292 7295 7298 7301 7304 7307 7310 7312 7315 7318 7321 7323 7326 7329 7332 7335 7338 7341 7344 7347 7350 7353 7356 7359 7361 7364 7366 7369 7372 7374 7377 7380 7382 7385 7388 7391 7394 7397 7400 7403 7405 7408 7411 7414 7417 7420 7422 7425 7427 7430 7433 7436 7438 7440 7443 7445 7447 7450 7452 7455 7458 7461 7464 7467 7470 7472 7475 7477 7480 7483 7486 7489 7492 7495 7498 7501 7504 7507 7510 7513 7516 7518 7521 7524 7526 7529 7531 7534 7537 7539 7542 7545 7548 7550 7552 7555 7558 7560 7563 7566 7569 7572 7575 7578 7581 7584 7587 7590 7593 7596 7599 7602 7605 7608 7611 7614 7617 7620 7623 7626 7629 7631 7633 7636 7638 7641 7643 7646 7649 7651 7653 7656 7659 7661 7664 7667 7669 7672 7675 7677 7680 7682 7685 7688 7691 7694 7696 7699 7702 7705 7708 7710 7713 7715 7717 7720 7722 7725 7728 7730 7732 7735 7738 7741 7743 7746 7749 7752 7755 7757 7759 7762 7765 7768 7771 7774 7776 7779 7782 7785 7788 7791 7794 7797 7800 7803 7806 7809 7811 7814 7816 7819 7821 7824 7827 7829 7832 7834 7837 7840 7843 7846 7849 7852 7855 7858 7860 7863 7866 7868 7871 7874 7877 7880 7882 7885 7888 7891 7894 7897 7900 7903 7906 7909 7912 7915 7918 7920 7923 7926 7929 7932 7935 7938 7941 7944 7947 7950 7953 7955 7958 7961 7964 7967 7970 7973 7975 7978 7980 7983 7986 7988 7991 7994 7997 8000 8003 8006 8009 8012 8015 8018 8021 8024 8027 8030 8033 8036 8039 8041 8043 8046 8049 8052 8054 8057 8060 8062 8065 8068 8071 8074 8077 8080 8083 8086 8089 8092 8095 8098 8101 8104 8107 8110 8113 8116 8119 8122 8125 8128 8131 8134 8137 8139 8141 8144 8147 8150 8153 8156 8159 8162 8165 8168 8171 8174 8176 8179 8182 8185 8188 8191 8194 8197 8200 8203 8206 8209 8212 8215 8218 8221 8224 8227 8230 8233 8236 8239 8242 8245 8248 8251 8254 8257 8260 8263 8266 8269 8272 8275 8277 8280 8283 8286 8289 8292 8294 8297 8300 8302 8305 8308 8310 8312 8315 8318 8321 8324 8327 8330 8333 8336 8339 8342 8345 8348 8351 8353 8356 8359 8361 8364 8367 8370 8373 8376 8379 8381 8384 8387 8389 8392 8395 8398 8401 8404 8407 8410 8413 8416 8419 8422 8425 8428 8430 8433 8436 8439 8442 8445 8448 8451 8453 8456 8459 8462 8465 8468 8471 8474 8477 8480 8483 8486 8489 8491 8494 8497 8499 8502 8505 8508 8511 8514 8517 8520 8523 8526 8529 8532 8535 8538 8541 8544 8547 8550 8553 8556 8559 8561 8564 8567 8569 8572 8574 8577 8580 8583 8585 8588 8591 8593 8596 8598 8601 8604 8607 8609 8612 8615 8618 8621 8623 8626 8629 8632 8635 8638 8641 8644 8646 8649 8652 8655 8657 8660 8663 8666 8669 8672 8675 8678 8681 8684 8687 8690 8693 8695 8698 8701 8704 8707 8710 8713 8716 8719 8721 8724 8727 8730 8733 8736 8739 8742 8745 8748 8751 8754 8756 8759 8762 8765 8768 8771 8774 8777 8780 8783 8786 8789 8792 8795 8798 8801 8804 8807 8810 8813 8815 8817 8820 8823 8826 8828 8831 8834 8837 8840 8843 8846 8849 8852 8855 8858 8861 8864 8866 8869 8872 8875 8878 8881 8884 8887 8890 8893 8895 8898 8901 8904 8907 8910 8913 8916 8919 8922 8925 8928 8931 8934 8937 8940 8943 8945 8948 8950 8953 8956 8959 8962 8965 8967 8970 8973 8976 8979 8981 8984 8987 8990 8992 8995 8998 9001 9003 9006 9009 9012 9015 9018 9021 9024 9027 9030 9032 9035 9038 9041 9043 9046 9049 9051 9054 9057 9060 9063 9066 9069 9071 9074 9077 9080 9083 9086 9089 9092 9095 9097 9100 9103 9106 9108 9111 9114 9117 9120 9123 9126 9129 9132 9135 9138 9141 9144 9147 9150 9153 9156 9159 9162 9165 9168 9171 9174 9177 9180 9183 9186 9189 9191 9194 9197 9200 9203 9206 9209 9212 9214 9217 9220 9223 9226 9229 9232 9235 9238 9241 9244 9247 9250 9253 9256 9259 9262 9265 9268 9271 9274 9277 9280 9283 9286 9289 9291 9294 9296 9299 9302 9305 9308 9311 9314 9316 9319 9322 9325 9327 9330 9333 9335 9338 9341 9344 9347 9350 9353 9356 9359 9362 9365 9368 9371 9373 9376 9379 9382 9385 9388 9390 9393 9396 9399 9402 9405 9408 9411 9414 9417 9420 9423 9426 9429 9431 9434 9437 9440 9442 9445 9448 9451 9454 9457 9460 9463 9466 9469 9472 9475 9478 9480 9482 9485 9488 9491 9494 9496 9499 9502 9505 9508 9511 9514 9517 9520 9523 9525 9527 9530 9533 9536 9539 9542 9544 9547 9550 9553 9556 9559 9561 9564 9567 9570 9573 9576 9578 9581 9583 9586 9589 9592 9595 9597 9600 9602 9605 9607 9609 9612 9615 9618 9621 9624 9627 9630 9632 9634 9637 9640 9643 9646 9649 9652 9654 9656 9658 9661 9663 9665 9668 9671 9674 9676 9679 9682 9685 9688 9691 9693 9695 9697 9700 9702 9705 9708 9711 9713 9716 9718 9720 9723 9726 9729 9732 9735 9738 9741 9743 9745 9748 9751 9753 9755 9757 9760 9763 9766 9769 9772 9775 9778 9781 9784 9787 9790 9793 9796 9799 9802 9805 9808 9811 9814 9817 9820 9823 9826 9829 9832 9835 9838 9841 9844 9847 9850 9853 9856 9859 9862 9865 9868 9871 9874 9877 9879 9882 9885 9888 9891 9894 9897 9900 9903 9906 9909 9911 9914 9917 9920 9923 9926 9929 9931 9934 9937 9939 9942 9945 9948 9951 9954 9957 9960 9963 9966 9969 9972 9975 9978 9980 9983 9985 9988 9991 9994 9997 9999 10002 10005 10008 10010 10013 10016 10018 10021 10024 10027 10029 10032 10035 10037 10040 10043 10046 10049 10052 10054 10057 10060 10063 10066 10069 10072 10075 10077 10080 10083 10086 10089 10092 10095 10098 10100 10103 10106 10108 10111 10114 10117 10120 10122 10125 10127 10130 10133 10136 10139 10142 10144 10147 10150 10153 10156 10158 10161 10164 10167 10170 10173 10176 10178 10180 10183 10186 10189 10192 10195 10197 10200 10203 10205 10208 10211 10214 10217 10220 10223 10226 10229 10232 10235 10237 10240 10243 10246 10249 10252 10255 10258 10261 10264 10267 10270 10273 10276 10279 10282 10285 10288 10291 10293 10296 10299 10302 10305 10308 10311 10313 10316 10319 10322 10325 10328 10331 10334 10336 10338 10341 10344 10347 10350 10352 10355 10358 10361 10364 10367 10370 10373 10375 10378 10381 10383 10386 10388 10390 10392 10395 10398 10401 10404 10407 10410 10412 10415 10418 10421 10424 10427 10429 10432 10435 10438 10441 10443 10446 10449 10452 10454 10457 10460 10463 10465 10468 10471 10474 10477 10480 10483 10486 10489 10492 10495 10498 10501 10504 10507 10510 10513 10516 10519 10522 10525 10528 10531 10534 10537 10540 10542 10545 10548 10551 10554 10557 10560 10563 10565 10568 10570 10573 10576 10579 10582 10585 10588 10590 10593 10596 10598 10601 10604 10607 10609 10612 10615 10617 10620 10623 10626 10629 10632 10634 10637 10640 10643 10645 10647 10650 10653 10656 10659 10662 10665 10668 10671 10674 10677 10680 10683 10685 10688 10691 10694 10697 10700 10703 10706 10709 10712 10714 10717 10720 10723 10726 10729 10731 10733 10736 10739 10742 10745 10748 10751 10754 10757 10760 10762 10765 10768 10771 10774 10777 10780 10783 10786 10788 10791 10794 10797 10800 10803 10806 10809 10812 10815 10818 10821 10824 10827 10830 10833 10836 10839 10842 10844 10847 10850 10853 10856 10858 10861 10863 10866 10868 10871 10874 10877 10880 10883 10886 10889 10892 10895 10898 10901 10904 10907 10910 10913 10916 10919 10921 10924 10927 10930 10933 10936 10938 10941 10944 10947 10949 10951 10954 10957 10960 10963 10966 10968 10971 10974 10977 10980 10982 10985 10988 10991 10994 10997 11000 11003 11006 11008 11011 11014 11017 11020 11023 11026 11029 11031 11034 11037 11040 11043 11046 11049 11052 11055 11058 11060 11063 11066 11069 11072 11075 11078 11081 11084 11087 11090 11093 11096 11099 11102 11105 11108 11111 11114 11116 11119 11122 11125 11128 11131 11134 11137 11140 11143 11146 11149 11152 11155 11157 11160 11163 11166 11169 11172 11175 11177 11180 11183 11185 11188 11191 11193 11196 11199 11202 11205 11208 11211 11214 11217 11220 11223 11226 11229 11232 11235 11238 11241 11244 11247 11250 11253 11256 11259 11262 11265 11268 11271 11273 11276 11278 11281 11283 11285 11288 11291 11294 11296 11299 11302 11305 11308 11311 11314 11317 11320 11323 11325 11327 11330 11332 11335 11338 11341 11344 11347 11350 11353 11356 11359 11362 11365 11368 11371 11374 11376 11379 11381 11383 11386 11388 11391 11394 11397 11400 11403 11406 11409 11412 11415 11417 11419 11422 11425 11428 11431 11434 11437 11440 11443 11446 11449 11452 11455 11458 11461 11464 11467 11470 11473 11476 11479 11482 11485 11487 11490 11493 11496 11499 11502 11504 11507 11510 11513 11516 11519 11521 11524 11527 11530 11532 11535 11538 11541 11544 11547 11550 11553 11556 11559 11561 11564 11567 11570 11573 11575 11578 11581 11584 11587 11590 11593 11595 11598 11601 11604 11607 11610 11613 11616 11618 11621 11624 11627 11630 11632 11635 11638 11641 11644 11647 11650 11653 11656 11659 11662 11664 11667 11670 11673 11676 11678 11681 11684 11687 11689 11692 11695 11698 11701 11704 11706 11709 11712 11715 11718 11721 11724 11727 11730 11733 11736 11739 11742 11745 11748 11750 11752 11755 11758 11760 11763 11766 11769 11772 11775 11778 11781 11783 11786 11789 11792 11795 11798 11801 11803 11806 11809 11812 11815 11818 11821 11824 11827 11830 11833 11836 11839 11842 11845 11848 11851 11854 11857 11860 11863 11866 11869 11872 11874 11877 11880 11883 11886 11889 11892 11895 11898 11900 11903 11906 11909 11912 11914 11917 11920 11923 11926 11929 11931 11934 11936 11939 11941 11944 11947 11950 11953 11956 11959 11962 11964 11967 11970 11973 11975 11978 11981 11984 11987 11990 11992 11995 11998 12001 12004 12007 12009 12012 12014 12017 12020 12022 12025 12027 12030 12033 12036 12039 12042 12044 12047 12050 12053 12055 12058 12061 12064 12067 12070 12073 12076 12079 12082 12085 12087 12090 12093 12096 12099 12102 12105 12108 12111 12114 12117 12120 12123 12126 12129 12132 12135 12138 12141 12144 12147 12150 12153 12155 12158 12161 12164 12167 12170 12173 12176 12179 12182 12185 12188 12191 12194 12197 12200 12203 12206 12209 12211 12214 12217 12220 12222 12225 12228 12231 12234 12237 12240 12242 12245 12248 12251 12253 12255 12258 12260 12263 12265 12267 12270 12272 12275 12278 12280 12283 12286 12288 12290 12293 12296 12299 12302 12305 12308 12311 12314 12316 12319 12321 12324 12327 12330 12333 12336 12339 12342 12345 12348 12351 12354 12357 12360 12363 12366 12369 12372 12375 12378 12381 12384 12387 12389 12392 12395 12398 12401 12404 12407 12410 12413 12415 12418 12421 12423 12426 12429 12431 12433 12436 12439 12441 12444 12447 12450 12453 12456 12459 12462 12465 12468 12471 12474 12477 12480 12483 12486 12489 12492 12495 12498 12501 12504 12507 12510 12513 12516 12519 12522 12525 12528 12531 12534 12537 12540 12543 12546 12549 12552 12555 12558 12560 12563 12565 12568 12571 12574 12577 12580 12583 12586 12589 12592 12595 12598 12601 12604 12607 12610 12613 12616 12619 12622 12625 12628 12631 12634 12637 12640 12643 12646 12649 12652 12655 12658 12661 12664 12667 12670 12673 12676 12679 12682 12685 12687 12690 12693 12695 12698 12701 12704 12707 12710 12712 12715 12717 12720 12723 12725 12728 12731 12734 12737 12740 12743 12745 12748 12751 12754 12757 12760 12763 12766 12769 12772 12775 12778 12780 12783 12786 12788 12790 12793 12795 12798 12801 12803 12806 12809 12812 12815 12817 12820 12823 12826 12829 12832 12835 12838 12841 12844 12846 12849 12851 12854 12857 12860 12863 12866 12869 12872 12874 12877 12879 12882 12885 12888 12891 12894 12897 12900 12903 12906 12908 12911 12913 12916 12919 12922 12925 12928 12931 12934 12937 12940 12943 12945 12948 12951 12954 12956 12959 12962 12964 12967 12970 12972 12975 12978 12981 12984 12986 12989 12992 12995 12997 13000 13003 13006 13009 13012 13015 13018 13021 13024 13027 13030 13033 13036 13039 13041 13044 13047 13050 13053 13056 13059 13061 13064 13066 13069 13071 13074 13077 13080 13082 13085 13088 13091 13094 13097 13100 13103 13106 13108 13111 13114 13117 13120 13123 13125 13128 13131 13133 13136 13139 13142 13145 13148 13151 13154 13157 13160 13162 13165 13168 13171 13173 13176 13179 13182 13185 13188 13191 13193 13196 13199 13202 13205 13208 13211 13214 13217 13220 13223 13226 13229 13232 13235 13238 13241 13244 13247 13250 13253 13256 13259 13262 13265 13268 13271 13274 13277 13280 13283 13286 13288 13291 13294 13297 13300 13303 13305 13308 13311 13313 13315 13318 13321 13324 13327 13329 13332 13335 13338 13341 13344 13346 13349 13352 13355 13358 13361 13364 13367 13370 13373 13376 13379 13382 13385 13388 13391 13394 13396 13399 13402 13405 13408 13411 13414 13417 13420 13422 13424 13427 13430 13433 13436 13439 13442 13444 13447 13450 13453 13456 13458 13461 13464 13467 13470 13473 13476 13479 13482 13485 13488 13491 13494 13497 13500 13503 13506 13509 13512 13515 13518 13521 13524 13527 13530 13532 13535 13538 13540 13543 13546 13549 13552 13555 13558 13561 13564 13567 13570 13573 13576 13579 13582 13585 13588 13591 13594 13597 13600 13603 13606 13609 13612 13615 13618 13621 13623 13626 13628 13631 13634 13637 13640 13643 13645 13648 13651 13654 13657 13660 13663 13666 13669 13672 13675 13678 13681 13684 13687 13690 13693 13696 13699 13702 13705 13707 13709 13712 13714 13717 13720 13723 13726 13729 13732 13735 13738 13741 13744 13747 13750 13753 13756 13759 13762 13764 13767 13770 13773 13775 13778 13781 13784 13787 13790 13793 13796 13799 13802 13805 13808 13811 13814 13816 13819 13822 13825 13828 13831 13834 13837 13840 13843 13846 13849 13852 13855 13858 13861 13864 13867 13870 13873 13876 13879 13882 13884 13887 13890 13893 13896 13899 13902 13905 13908 13911 13914 13917 13920 13923 13925 13928 13930 13933 13936 13938 13940 13943 13946 13949 13952 13955 13958 13961 13964 13967 13970 13973 13976 13979 13982 13985 13988 13991 13994 13997 14000 14002 14005 14008 14010 14013 14016 14019 14021 14024 14027 14030 14033 14036 14039 14041 14044 14047 14050 14052 14055 14058 14061 14064 14067 14070 14073 14076 14078 14081 14084 14086 14089 14092 14094 14097 14099 14102 14105 14108 14111 14113 14115 14118 14121 14123 14125 14128 14131 14133 14136 14139 14142 14145 14147 14150 14153 14155 14157 14160 14162 14165 14168 14171 14174 14177 14180 14183 14186 14189 14192 14195 14198 14201 14204 14207 14210 14213 14216 14219 14222 14224 14227 14230 14233 14236 14238 14241 14244 14247 14250 14252 14254 14257 14260 14263 14266 14269 14272 14275 14278 14281 14284 14287 14290 14292 14295 14298 14301 14303 14306 14309 14312 14315 14318 14321 14324 14326 14329 14332 14335 14337 14340 14343 14345 14347 14350 14353 14356 14358 14361 14364 14367 14369 14372 14375 14378 14381 14384 14387 14390 14393 14396 14399 14402 14405 14408 14411 14414 14417 14420 14423 14425 14428 14431 14434 14437 14440 14443 14446 14449 14452 14455 14458 14461 14464 14467 14470 14473 14476 14479 14481 14483 14486 14489 14492 14495 14498 14500 14502 14505 14507 14510 14513 14516 14519 14522 14525 14528 14531 14534 14536 14539 14542 14545 14547 14550 14553 14556 14559 14562 14565 14568 14571 14574 14577 14580 14583 14586 14589 14591 14594 14597 14600 14603 14606 14609 14612 14614 14617 14620 14622 14625 14628 14631 14634 14637 14640 14642 14645 14648 14651 14654 14656 14659 14662 14665 14668 14671 14674 14676 14679 14682 14685 14688 14691 14694 14697 14700 14702 14704 14707 14710 14713 14715 14717 14720 14723 14726 14729 14732 14734 14737 14740 14743 14746 14749 14752 14754 14757 14760 14763 14766 14768 14771 14774 14777 14780 14783 14785 14788 14791 14794 14797 14799 14802 14805 14808 14811 14814 14817 14820 14823 14826 14829 14832 14835 14838 14841 14844 14847 14850 14853 14856 14859 14862 14865 14868 14871 14874 14876 14879 14882 14885 14888 14890 14893 14895 14898 14900 14903 14906 14908 14911 14914 14916 14919 14922 14924 14927 14930 14933 14936 14939 14942 14944 14947 14950 14952 14955 14957 14959 14961 14964 14967 14969 14972 14974 14976 14979 14982 14985 14987 14990 14992 14995 14998 15001 15004 15007 15010 15012 15015 15018 15021 15023 15026 15029 15032 15035 15038 15041 15044 15046 15049 15052 15055 15057 15060 15062 15064 15067 15070 15073 15076 15079 15082 15085 15087 15090 15093 15096 15099 15102 15105 15108 15111 15113 15115 15118 15121 15124 15127 15129 15132 15135 15137 15140 15143 15146 15148 15151 15154 15157 15159 15161 15164 15167 15170 15173 15175 15178 15181 15184 15187 15190 15192 15194 15197 15200 15203 15206 15209 15212 15215 15218 15221 15224 15227 15230 15233 15236 15239 15242 15245 15248 15251 15254 15257 15260 15263 15266 15269 15272 15275 15278 15281 15284 15287 15289 15292 15295 15298 15300 15303 15306 15309 15312 15315 15318 15321 15324 15327 15330 15333 15336 15339 15342 15345 15347 15350 15352 15354 15357 15360 15362 15365 15368 15371 15374 15377 15380 15383 15386 15389 15392 15395 15398 15401 15404 15407 15410 15413 15416 15419 15422 15425 15428 15431 15433 15436 15439 15441 15443 15446 15449 15452 15455 15458 15461 15464 15466 15469 15472 15475 15477 15480 15483 15486 15489 15491 15493 15496 15499 15502 15505 15508 15511 15514 15516 15519 15522 15525 15528 15530 15533 15536 15539 15542 15544 15547 15550 15553 15556 15559 15562 15565 15568 15571 15574 15577 15580 15583 15586 15589 15592 15595 15598 15601 15603 15606 15609 15612 15615 15618 15621 15624 15627 15630 15633 15636 15639 15642 15645 15648 15651 15653 15656 15659 15662 15664 15667 15670 15673 15676 15679 15682 15685 15688 15691 15693 15696 15699 15702 15705 15708 15711 15714 15717 15720 15723 15726 15729 15732 15735 15738 15741 15744 15747 15750 15753 15756 15758 15761 15764 15767 15770 15773 15776 15779 15782 15785 15788 15791 15794 15797 15800 15803 15806 15809 15811 15814 15817 15820 15823 15826 15828 15831 15834 15837 15840 15843 15846 15849 15852 15855 15858 15861 15864 15867 15870 15873 15876 15879 15882 15885 15888 15891 15894 15897 15900 15903 15906 15909 15911 15914 15917 15919 15922 15925 15928 15930 15933 15936 15939 15942 15945 15948 15951 15954 15957 15960 15963 15966 15969 15972 15975 15977 15980 15982 15985 15988 15991 15994 15997 16000 16003 16006 16009 16011 16014 16017 16020 16023 16026 16029 16032 16035 16038 16040 16042 16045 16048 16051 16054 16057 16060 16063 16066 16069 16072 16075 16078 16081 16084 16087 16090 16093 16096 16099 16102 16105 16108 16111 16114 16117 16120 16123 16126 16129 16132 16135 16138 16141 16144 16147 16150 16153 16156 16159 16162 16165 16168 16171 16174 16177 16180 16183 16186 16189 16192 16195 16198 16201 16204 16207 16210 16213 16216 16219 16222 16225 16228 16231 16234 16237 16240 16243 16246 16249 16252 16255 16257 16260 16263 16266 16269 16272 16275 16277 16280 16283 16286 16289 16292 16295 16298 16301 16304 16306 16309 16311 16314 16317 16320 16323 16326 16329 16332 16335 16338 16341 16344 16347 16350 16353 16356 16359 16362 16365 16368 16371 16374 16377 16380 16383 16386 16389 16392 16395 16398 16401 16404 16407 16410 16413 16415 16418 16421 16424 16426 16428 16431 16434 16437 16440 16443 16446 16449 16452 16455 16458 16461 16464 16467 16470 16473 16476 16479 16482 16485 16488 16491 16494 16496 16498 16501 16504 16507 16510 16513 16516 16519 16522 16524 16527 16530 16533 16536 16539 16542 16544 16547 16550 16553 16556 16559 16561 16564 16567 16570 16573 16575 16578 16581 16584 16586 16589 16592 16595 16597 16600 16603 16605 16608 16611 16614 16617 16620 16623 16626 16629 16632 16635 16638 16641 16644 16646 16649 16652 16655 16658 16661 16664 16667 16670 16672 16675 16678 16681 16684 16687 16690 16693 16696 16699 16702 16705 16707 16710 16713 16716 16718 16721 16724 16727 16730 16732 16735 16738 16741 16744 16747 16750 16753 16756 16758 16761 16763 16766 16769 16771 16774 16777 16780 16783 16786 16788 16791 16794 16797 16800 16803 16806 16809 16812 16815 16818 16821 16824 16826 16829 16832 16835 16838 16841 16844 16847 16850 16853 16855 16858 16861 16864 16867 16870 16873 16875 16878 16881 16884 16887 16890 16893 16896 16898 16901 16904 16907 16910 16913 16915 16918 16921 16924 16927 16930 16933 16936 16939 16942 16945 16948 16951 16954 16957 16960 16963 16966 16969 16972 16975 16978 16981 16984 16987 16990 16993 16996 16999 17002 17005 17008 17011 17014 17017 17020 17023 17026 17029 17032 17035 17038 17041 17044 17047 17050 17053 17056 17058 17061 17063 17066 17069 17072 17075 17078 17081 17084 17087 17090 17093 17096 17099 17102 17105 17107 17110 17113 17116 17119 17122 17125 17128 17131 17134 17137 17140 17143 17146 17149 17152 17154 17157 17160 17162 17165 17167 17170 17173 17176 17179 17182 17184 17187 17190 17193 17196 17199 17202 17205 17208 17211 17214 17217 17220 17223 17226 17229 17232 17235 17238 17241 17244 17246 17249 17252 17255 17258 17261 17264 17267 17270 17273 17276 17279 17281 17284 17286 17289 17292 17294 17297 17299 17302 17305 17308 17311 17314 17317 17320 17322 17325 17327 17330 17333 17336 17339 17341 17344 17347 17350 17353 17355 17357 17360 17363 17365 17368 17371 17374 17377 17380 17383 17386 17389 17392 17395 17398 17401 17404 17407 17410 17413 17415 17418 17421 17424 17427 17430 17433 17436 17439 17442 17445 17448 17451 17454 17457 17459 17462 17464 17467 17470 17473 17476 17479 17482 17485 17487 17490 17492 17495 17498 17501 17504 17507 17510 17513 17516 17519 17521 17523 17526 17529 17532 17534 17537 17540 17543 17546 17548 17551 17553 17556 17559 17561 17564 17566 17568 17570 17573 17576 17578 17581 17584 17587 17589 17591 17593 17596 17599 17602 17605 17608 17611 17614 17617 17620 17623 17626 17628 17631 17634 17637 17640 17643 17646 17648 17651 17654 17657 17659 17662 17665 17668 17671 17674 17677 17680 17683 17685 17688 17691 17694 17696 17699 17702 17705 17708 17711 17714 17717 17720 17723 17726 17729 17732 17735 17738 17741 17744 17747 17750 17753 17756 17759 17762 17765 17768 17771 17774 17777 17780 17783 17786 17789 17792 17795 17798 17801 17804 17807 17810 17813 17816 17819 17822 17825 17828 17831 17834 17837 17840 17843 17846 17849 17852 17855 17858 17861 17864 17867 17870 17873 17876 17878 17881 17884 17887 17890 17893 17895 17898 17901 17904 17907 17909 17912 17915 17918 17920 17923 17926 17929 17932 17935 17938 17941 17944 17947 17950 17953 17956 17959 17962 17965 17968 17971 17974 17977 17980 17983 17986 17989 17992 17995 17998 18001 18004 18007 18010 18013 18016 18019 18022 18025 18028 18031 18034 18037 18040 18042 18045 18048 18050 18053 18056 18059 18062 18065 18068 18071 18073 18076 18079 18082 18085 18088 18091 18094 18097 18100 18103 18106 18108 18111 18114 18116 18119 18121 18124 18127 18130 18132 18135 18138 18141 18144 18147 18150 18153 18156 18158 18161 18164 18167 18170 18172 18175 18178 18181 18184 18186 18189 18191 18194 18197 18200 18203 18206 18209 18212 18215 18218 18221 18224 18227 18229 18232 18234 18237 18240 18243 18246 18249 18252 18255 18258 18261 18264 18267 18270 18273 18275 18278 18281 18284 18287 18290 18293 18296 18299 18302 18304 18307 18310 18313 18315 18318 18321 18324 18327 18330 18333 18336 18339 18342 18345 18348 18351 18354 18357 18360 18363 18366 18369 18372 18375 18378 18381 18384 18387 18390 18393 18396 18399 18402 18405 18408 18411 18414 18417 18420 18422 18425 18428 18430 18433 18436 18439 18442 18444 18447 18450 18453 18456 18459 18462 18465 18468 18471 18474 18477 18480 18483 18486 18489 18491 18494 18497 18500 18503 18506 18509 18512 18515 18518 18520 18523 18525 18528 18531 18534 18537 18540 18543 18546 18548 18551 18554 18557 18560 18563 18566 18569 18572 18575 18578 18581 18584 18587 18590 18592 18595 18598 18601 18604 18607 18610 18613 18616 18619 18622 18625 18627 18630 18633 18636 18639 18642 18645 18648 18651 18654 18657 18660 18663 18666 18669 18672 18675 18678 18681 18684 18687 18690 18693 18696 18698 18701 18703 18706 18709 18712 18715 18718 18721 18723 18726 18728 18731 18734 18737 18739 18742 18745 18748 18750 18753 18756 18759 18761 18764 18767 18769 18772 18775 18778 18781 18784 18787 18790 18792 18795 18798 18801 18804 18807 18810 18813 18815 18818 18821 18824 18827 18830 18833 18836 18839 18842 18845 18848 18851 18854 18856 18859 18862 18865 18868 18871 18874 18877 18880 18882 18885 18888 18891 18894 18897 18900 18903 18906 18909 18912 18915 18918 18921 18924 18927 18930 18933 18936 18939 18942 18944 18947 18950 18953 18956 18959 18962 18965 18968 18971 18974 18977 18980 18983 18986 18989 18992 18995 18998 19001 19004 19007 19010 19013 19016 19019 19022 19025 19028 19031 19034 19037 19040 19043 19046 19049 19052 19055 19058 19061 19064 19067 19070 19073 19076 19079 19082 19085 19088 19091 19094 19096 19099 19101 19104 19107 19110 19112 19115 19118 19120 19122 19125 19127 19130 19133 19136 19139 19142 19145 19148 19151 19154 19157 19160 19163 19166 19169 19172 19175 19178 19181 19184 19187 19190 19193 19196 19199 19202 19205 19208 19211 19214 19217 19220 19223 19226 19229 19232 19234 19237 19240 19243 19246 19248 19251 19254 19256 19259 19262 19265 19267 19270 19273 19276 19279 19281 19284 19286 19288 19291 19294 19297 19300 19302 19305 19308 19311 19313 19316 19319 19322 19324 19327 19330 19333 19336 19339 19342 19344 19347 19350 19353 19356 19359 19362 19365 19368 19371 19374 19377 19380 19383 19386 19389 19392 19395 19398 19401 19404 19406 19409 19412 19415 19418 19421 19424 19427 19430 19433 19436 19439 19442 19445 19448 19451 19454 19457 19460 19462 19465 19468 19470 19473 19476 19478 19481 19484 19487 19490 19493 19496 19499 19502 19505 19508 19511 19513 19516 19519 19522 19525 19527 19530 19533 19536 19539 19541 19544 19547 19550 19552 19555 19558 19561 19564 19567 19570 19573 19576 19579 19582 19585 19588 19591 19594 19597 19600 19603 19606 19609 19612 19615 19618 19621 19624 19627 19629 19632 19635 19638 19641 19644 19647 19650 19653 19655 19658 19661 19664 19666 19669 19672 19675 19678 19681 19684 19687 19690 19693 19696 19699 19702 19705 19708 19711 19714 19717 19720 19723 19726 19729 19732 19735 19738 19740 19743 19746 19749 19751 19754 19757 19760 19763 19766 19769 19772 19775 19777 19780 19783 19785 19788 19791 19794 19797 19799 19802 19805 19808 19811 19814 19817 19820 19822 19825 19827 19830 19833 19835 19838 19841 19843 19845 19848 19851 19854 19857 19860 19863 19866 19869 19872 19875 19878 19881 19884 19887 19890 19893 19896 19899 19902 19905 19908 19910 19913 19916 19919 19922 19924 19927 19930 19933 19936 19939 19942 19945 19948 19951 19954 19957 19960 19963 19965 19968 19971 19973 19976 19979 19982 19985 19988 19991 19994 19997 20000 20003 20006 20009 20012 20015 20018 20021 20024 20027 20030 20033 20036 20039 20042 20045 20048 20051 20054 20057 20060 20063 20066 20069 20072 20075 20078 20081 20084 20087 20090 20093 20096 20099 20102 20105 20108 20111 20114 20117 20120 20123 20126 20129 20132 20135 20138 20141 20144 20147 20150 20153 20156 20159 20162 20165 20168 20171 20174 20177 20180 20183 20186 20189 20192 20195 20198 20201 20204 20207 20210 20213 20216 20219 20222 20225 20228 20231 20234 20237 20240 20243 20246 20249 20252 20255 20258 20261 20264 20267 20270 20273 20276 20279 20282 20285 20288 20291 20294 20297 20300 20303 20306 20309 20312 20315 20318 20321 20324 20327 20330 20333 20336 20339 20342 20345 20348 20351 20354 20357 20359 20362 20365 20368 20371 20374 20377 20380 20382 20385 20388 20391 20394 20397 20400 20403 20406 20409 20411 20414 20416 20419 20422 20425 20427 20430 20433 20435 20438 20441 20444 20447 20450 20453 20456 20459 20462 20465 20468 20471 20474 20477 20480 20483 20486 20489 20492 20495 20498 20501 20504 20507 20510 20513 20516 20519 20522 20525 20528 20531 20534 20537 20540 20543 20546 20548 20551 20554 20556 20558 20561 20564 20566 20569 20572 20574 20577 20580 20583 20585 20588 20591 20594 20597 20600 20603 20606 20609 20612 20614 20617 20620 20623 20626 20629 20632 20634 20637 20640 20643 20646 20649 20652 20655 20658 20661 20664 20667 20670 20673 20676 20679 20682 20685 20688 20691 20694 20697 20700 20703 20706 20709 20712 20715 20718 20721 20724 20727 20729 20732 20735 20738 20741 20744 20747 20750 20753 20756 20759 20762 20765 20768 20771 20774 20777 20780 20783 20786 20789 20792 20795 20798 20801 20804 20807 20810 20813 20816 20819 20822 20825 20828 20831 20834 20837 20840 20843 20846 20849 20852 20855 20858 20861 20864 20867 20869 20872 20874 20877 20880 20883 20886 20888 20891 20894 20897 20900 20902 20905 20908 20911 20914 20916 20919 20922 20925 20928 20931 20934 20937 20940 20942 20945 20948 20950 20953 20955 20958 20961 20964 20967 20969 20972 20975 20977 20979 20982 20985 20988 20991 20994 20997 20999 21002 21005 21008 21011 21014 21017 21020 21023 21026 21029 21031 21033 21036 21039 21042 21045 21048 21050 21053 21056 21058 21061 21064 21067 21070 21072 21075 21078 21080 21083 21086 21089 21092 21095 21098 21101 21104 21107 21110 21113 21116 21119 21122 21125 21128 21131 21134 21137 21140 21143 21146 21149 21152 21155 21158 21161 21164 21167 21169 21172 21174 21177 21180 21183 21186 21189 21192 21195 21198 21201 21204 21207 21210 21213 21215 21218 21221 21224 21227 21229 21231 21234 21237 21240 21243 21246 21249 21252 21255 21258 21261 21264 21267 21270 21273 21276 21279 21282 21285 21288 21291 21294 21297 21300 21303 21306 21309 21312 21315 21318 21321 21324 21327 21330 21333 21336 21339 21342 21345 21348 21351 21354 21357 21359 21362 21365 21368 21370 21373 21376 21379 21382 21385 21388 21391 21394 21397 21400 21403 21406 21409 21412 21415 21418 21421 21424 21427 21430 21432 21435 21438 21440 21443 21446 21449 21452 21455 21458 21461 21464 21467 21469 21472 21475 21478 21481 21484 21486 21489 21492 21495 21498 21501 21503 21506 21508 21511 21514 21517 21520 21523 21526 21529 21532 21535 21538 21541 21544 21547 21549 21552 21555 21558 21560 21562 21565 21568 21571 21574 21577 21580 21583 21586 21588 21591 21594 21596 21599 21602 21604 21606 21609 21612 21615 21618 21621 21623 21626 21629 21632 21635 21638 21641 21644 21646 21649 21652 21654 21656 21659 21662 21665 21668 21671 21674 21676 21678 21681 21684 21687 21689 21692 21695 21698 21701 21704 21707 21710 21712 21715 21718 21721 21724 21727 21730 21733 21736 21739 21742 21745 21748 21751 21754 21757 21760 21763 21766 21769 21772 21775 21778 21781 21784 21787 21790 21792 21795 21798 21801 21804 21807 21810 21813 21815 21818 21821 21824 21827 21830 21833 21836 21839 21842 21845 21848 21850 21853 21856 21859 21862 21865 21868 21871 21874 21876 21879 21882 21885 21888 21891 21894 21897 21900 21903 21906 21909 21912 21915 21918 21921 21924 21926 21929 21932 21935 21937 21940 21943 21946 21949 21952 21954 21957 21960 21963 21966 21969 21972 21975 21978 21981 21984 21987 21990 21993 21996 21998 22001 22004 22007 22010 22012 22015 22018 22020 22023 22026 22029 22032 22035 22037 22040 22043 22046 22049 22052 22055 22058 22061 22064 22067 22070 22073 22076 22079 22081 22084 22086 22089 22092 22095 22097 22100 22102 22105 22107 22110 22113 22116 22119 22122 22125 22127 22129 22132 22135 22138 22141 22144 22147 22149 22152 22154 22157 22160 22163 22166 22169 22172 22175 22178 22181 22184 22187 22190 22193 22196 22199 22202 22205 22207 22210 22213 22216 22218 22220 22223 22226 22229 22232 22235 22237 22240 22243 22245 22247 22250 22253 22256 22259 22262 22265 22268 22271 22274 22277 22280 22283 22286 22289 22292 22295 22298 22301 22304 22307 22310 22313 22316 22319 22322 22325 22328 22331 22334 22337 22340 22343 22346 22349 22352 22355 22358 22361 22364 22367 22370 22373 22376 22379 22381 22384 22387 22389 22391 22393 22396 22399 22402 22405 22408 22411 22413 22416 22419 22422 22425 22428 22431 22434 22437 22440 22442 22445 22448 22451 22453 22456 22459 22462 22465 22468 22471 22474 22477 22480 22483 22486 22489 22492 22495 22498 22501 22504 22507 22510 22513 22515 22518 22521 22524 22527 22529 22532 22535 22538 22541 22544 22547 22550 22553 22556 22559 22562 22565 22568 22571 22574 22577 22580 22583 22586 22589 22592 22595 22598 22601 22604 22607 22610 22613 22616 22619 22622 22625 22628 22631 22633 22636 22638 22641 22644 22647 22650 22653 22656 22659 22662 22664 22667 22670 22673 22675 22678 22680 22683 22686 22689 22692 22695 22698 22701 22704 22706 22709 22712 22715 22718 22720 22723 22726 22729 22732 22734 22737 22740 22743 22746 22749 22752 22755 22757 22760 22763 22766 22769 22771 22774 22777 22780 22783 22786 22789 22792 22795 22798 22801 22804 22807 22810 22813 22816 22819 22822 22825 22828 22831 22834 22837 22840 22843 22846 22849 22852 22855 22858 22861 22864 22867 22870 22873 22876 22879 22882 22885 22888 22891 22894 22897 22900 22903 22906 22909 22911 22914 22917 22920 22923 22925 22927 22930 22933 22935 22937 22940 22943 22946 22949 22952 22955 22958 22961 22964 22967 22970 22973 22976 22979 22982 22985 22988 22991 22994 22996 22999 23002 23005 23007 23009 23012 23015 23018 23021 23024 23027 23030 23033 23036 23039 23042 23045 23048 23051 23054 23057 23060 23063 23066 23069 23072 23075 23078 23081 23084 23087 23090 23092 23095 23098 23101 23104 23107 23110 23113 23115 23118 23121 23124 23127 23130 23133 23136 23139 23142 23145 23148 23151 23154 23157 23160 23162 23165 23168 23171 23174 23177 23180 23183 23186 23188 23191 23193 23195 23198 23201 23204 23207 23210 23213 23216 23219 23222 23225 23228 23231 23233 23236 23239 23242 23245 23248 23251 23254 23257 23260 23263 23266 23269 23272 23275 23278 23281 23284 23287 23289 23292 23295 23298 23300 23303 23306 23309 23312 23315 23318 23321 23324 23326 23329 23332 23335 23338 23341 23344 23347 23350 23353 23356 23359 23362 23365 23368 23371 23373 23376 23379 23382 23384 23387 23390 23393 23396 23399 23402 23405 23408 23411 23414 23417 23420 23423 23426 23429 23432 23435 23438 23441 23444 23447 23450 23453 23456 23459 23462 23465 23468 23471 23474 23477 23480 23483 23485 23488 23490 23493 23496 23499 23502 23505 23508 23511 23514 23516 23519 23522 23525 23528 23531 23534 23537 23540 23543 23545 23548 23551 23553 23556 23559 23562 23565 23568 23570 23573 23576 23579 23582 23584 23587 23590 23593 23596 23598 23601 23604 23607 23609 23612 23614 23617 23620 23622 23625 23628 23631 23634 23637 23640 23643 23646 23649 23652 23655 23658 23661 23664 23666 23669 23672 23674 23677 23679 23682 23685 23688 23690 23693 23696 23698 23701 23704 23707 23710 23712 23715 23717 23720 23723 23726 23729 23732 23735 23737 23740 23742 23745 23748 23751 23754 23757 23759 23762 23765 23768 23771 23773 23776 23779 23782 23785 23788 23791 23793 23796 23799 23802 23805 23808 23811 23814 23817 23820 23823 23826 23829 23832 23835 23838 23841 23844 23847 23850 23853 23856 23859 23862 23865 23868 23871 23874 23877 23880 23883 23886 23889 23892 23894 23896 23899 23902 23905 23908 23911 23914 23917 23920 23923 23926 23928 23931 23934 23936 23938 23941 23943 23946 23949 23952 23955 23958 23961 23964 23966 23969 23972 23975 23978 23981 23984 23987 23990 23993 23996 23999 24002 24004 24007 24010 24013 24016 24018 24021 24024 24027 24030 24033 24036 24039 24042 24045 24048 24051 24054 24056 24059 24062 24065 24068 24071 24074 24077 24080 24083 24086 24089 24092 24095 24098 24101 24104 24107 24109 24112 24115 24118 24121 24124 24126 24129 24132 24135 24137 24140 24143 24146 24149 24152 24155 24157 24160 24162 24165 24168 24171 24173 24176 24179 24182 24185 24188 24191 24194 24197 24200 24202 24205 24208 24210 24213 24216 24219 24222 24225 24228 24231 24233 24236 24239 24242 24245 24248 24251 24254 24257 24260 24263 24266 24269 24272 24274 24277 24280 24282 24285 24288 24291 24294 24297 24300 24302 24305 24308 24311 24314 24317 24320 24322 24325 24328 24331 24334 24337 24340 24343 24345 24348 24351 24354 24357 24360 24363 24366 24369 24372 24375 24378 24381 24384 24387 24390 24393 24396 24399 24402 24405 24408 24411 24413 24416 24419 24422 24425 24428 24431 24434 24437 24440 24443 24445 24448 24451 24454 24457 24459 24461 24464 24467 24470 24473 24475 24478 24481 24484 24487 24490 24493 24496 24499 24502 24504 24507 24510 24513 24516 24519 24522 24525 24528 24531 24534 24537 24539 24542 24545 24548 24550 24553 24556 24559 24561 24564 24567 24570 24573 24576 24579 24582 24585 24588 24591 24594 24597 24599 24602 24605 24608 24611 24614 24616 24619 24622 24624 24627 24630 24633 24636 24639 24642 24645 24648 24651 24654 24657 24660 24663 24666 24668 24671 24674 24677 24680 24683 24686 24689 24691 24694 24697 24700 24702 24705 24708 24711 24714 24717 24719 24722 24725 24728 24731 24734 24737 24740 24743 24746 24748 24751 24754 24757 24760 24763 24766 24769 24772 24774 24777 24780 24783 24786 24789 24791 24794 24797 24800 24803 24806 24809 24812 24814 24817 24820 24823 24826 24829 24832 24835 24838 24841 24844 24847 24850 24853 24856 24859 24862 24865 24868 24871 24874 24877 24880 24883 24886 24889 24892 24895 24898 24901 24904 24907 24910 24913 24916 24919 24922 24925 24928 24931 24934 24937 24940 24943 24946 24949 24952 24955 24958 24960 24963 24966 24969 24972 24975 24978 24981 24983 24986 24989 24992 24995 24998 25001 25004 25007 25010 25013 25016 25019 25022 25025 25028 25031 25034 25037 25040 25043 25046 25049 25051 25053 25056 25059 25061 25063 25066 25069 25072 25075 25078 25081 25084 25086 25089 25092 25095 25098 25101 25104 25107 25110 25113 25116 25119 25122 25125 25128 25130 25133 25136 25139 25142 25145 25148 25151 25154 25156 25159 25162 25164 25167 25170 25173 25175 25178 25181 25184 25187 25190 25193 25196 25199 25202 25205 25208 25211 25214 25217 25220 25223 25226 25229 25232 25235 25238 25241 25244 25247 25250 25253 25256 25259 25261 25264 25267 25270 25273 25276 25279 25282 25285 25287 25290 25293 25296 25299 25302 25305 25307 25309 25312 25315 25318 25321 25323 25326 25329 25331 25334 25337 25339 25342 25345 25348 25351 25354 25357 25359 25362 25365 25368 25371 25374 25377 25380 25383 25385 25388 25391 25394 25397 25400 25403 25406 25409 25412 25415 25418 25420 25423 25426 25428 25431 25434 25437 25440 25443 25446 25449 25451 25454 25457 25460 25462 25465 25467 25470 25472 25475 25478 25481 25484 25487 25490 25493 25496 25499 25502 25505 25508 25511 25514 25517 25520 25523 25525 25528 25530 25533 25536 25539 25542 25545 25548 25551 25554 25557 25560 25562 25565 25568 25571 25574 25577 25580 25583 25585 25588 25591 25594 25596 25599 25601 25603 25606 25609 25611 25614 25617 25620 25623 25625 25628 25631 25634 25636 25639 25642 25645 25647 25650 25652 25654 25657 25660 25663 25666 25669 25672 25674 25677 25680 25683 25686 25689 25692 25695 25698 25700 25702 25704 25707 25709 25712 25715 25717 25719 25722 25725 25727 25730 25733 25736 25739 25742 25745 25748 25751 25754 25757 25760 25762 25765 25768 25771 25774 25777 25780 25783 25786 25789 25792 25795 25798 25801 25803 25805 25808 25811 25814 25817 25819 25822 25825 25828 25830 25833 25836 25839 25842 25845 25847 25849 25852 25855 25858 25860 25863 25866 25869 25872 25875 25878 25881 25884 25887 25890 25893 25896 25899 25902 25905 25907 25910 25913 25916 25918 25921 25924 25927 25929 25932 25935 25938 25941 25944 25947 25949 25952 25955 25958 25961 25964 25966 25969 25972 25975 25978 25981 25984 25987 25990 25992 25995 25998 26001 26004 26007 26010 26013 26016 26019 26021 26024 26027 26030 26033 26035 26038 26040 26043 26046 26048 26051 26053 26056 26059 26062 26065 26068 26071 26073 26076 26078 26080 26083 26086 26089 26092 26095 26098 26101 26104 26106 26109 26111 26114 26116 26119 26121 26124 26127 26130 26133 26136 26139 26142 26145 26148 26151 26154 26156 26159 26162 26165 26167 26170 26173 26176 26179 26182 26185 26188 26191 26193 26196 26199 26202 26205 26208 26211 26214 26217 26220 26222 26225 26228 26231 26234 26236 26239 26242 26244 26247 26250 26253 26256 26259 26262 26265 26268 26271 26273 26276 26279 26282 26284 26287 26290 26293 26296 26299 26302 26305 26308 26311 26314 26317 26320 26323 26326 26329 26332 26335 26338 26341 26343 26346 26349 26352 26355 26358 26361 26364 26367 26370 26373 26375 26378 26381 26384 26387 26390 26393 26396 26399 26402 26405 26408 26411 26414 26417 26420 26423 26426 26429 26432 26435 26438 26441 26444 26447 26450 26453 26456 26459 26462 26465 26468 26471 26474 26477 26480 26483 26486 26489 26492 26495 26498 26501 26504 26507 26510 26512 26514 26517 26520 26523 26526 26529 26532 26535 26538 26541 26544 26547 26550 26553 26555 26557 26560 26563 26566 26568 26571 26574 26576 26579 26582 26585 26587 26590 26593 26596 26598 26601 26604 26607 26610 26613 26616 26619 26622 26624 26627 26630 26632 26635 26637 26639 26642 26645 26648 26651 26654 26657 26659 26662 26664 26666 26668 26671 26674 26676 26679 26682 26684 26686 26689 26692 26695 26698 26701 26704 26707 26710 26713 26716 26719 26722 26725 26728 26731 26734 26737 26740 26743 26746 26749 26751 26754 26757 26760 26763 26766 26769 26772 26775 26778 26780 26783 26786 26789 26792 26795 26798 26801 26803 26805 26808 26811 26814 26817 26820 26823 26826 26829 26832 26835 26838 26841 26844 26847 26850 26853 26856 26859 26862 26865 26868 26871 26874 26876 26879 26881 26884 26887 26890 26893 26896 26899 26902 26904 26907 26910 26913 26915 26917 26920 26923 26925 26928 26931 26934 26937 26939 26942 26945 26948 26950 26953 26956 26959 26961 26964 26967 26970 26973 26976 26979 26982 26985 26988 26990 26992 26995 26998 27001 27004 27007 27009 27012 27015 27017 27019 27021 27024 27027 27030 27033 27036 27038 27041 27044 27047 27050 27053 27056 27059 27062 27065 27067 27070 27072 27075 27078 27081 27084 27087 27090 27093 27096 27099 27102 27105 27108 27111 27114 27117 27120 27123 27126 27129 27132 27135 27138 27141 27144 27146 27149 27152 27155 27158 27160 27162 27165 27168 27171 27173 27176 27179 27182 27185 27188 27191 27194 27197 27200 27203 27206 27209 27212 27215 27218 27221 27223 27226 27229 27232 27234 27237 27240 27242 27245 27248 27251 27254 27257 27260 27263 27266 27269 27272 27275 27278 27281 27283 27286 27289 27291 27294 27297 27300 27302 27305 27307 27310 27312 27315 27317 27319 27321 27324 27327 27330 27333 27336 27339 27342 27345 27347 27350 27353 27356 27359 27362 27365 27368 27371 27373 27376 27379 27381 27384 27387 27390 27393 27396 27399 27402 27405 27408 27411 27414 27417 27420 27423 27426 27429 27432 27435 27438 27441 27444 27446 27449 27452 27455 27458 27461 27464 27467 27470 27473 27476 27478 27481 27483 27486 27489 27491 27494 27496 27499 27501 27504 27507 27509 27512 27514 27517 27520 27522 27525 27528 27531 27533 27536 27539 27542 27545 27548 27551 27554 27557 27560 27563 27566 27569 27572 27575 27578 27581 27584 27587 27590 27593 27596 27599 27602 27605 27608 27611 27614 27617 27620 27623 27626 27629 27632 27635 27638 27641 27644 27647 27650 27653 27656 27659 27662 27665 27668 27671 27674 27677 27680 27683 27686 27689 27692 27695 27698 27701 27704 27707 27710 27713 27716 27718 27721 27724 27726 27729 27732 27735 27738 27741 27744 27746 27748 27751 27754 27757 27760 27763 27766 27769 27772 27775 27778 27781 27784 27787 27790 27793 27796 27799 27802 27804 27807 27810 27813 27815 27818 27821 27824 27827 27830 27833 27836 27839 27842 27845 27848 27851 27854 27857 27860 27863 27865 27868 27871 27874 27877 27880 27883 27886 27888 27891 27894 27897 27900 27903 27906 27909 27912 27914 27917 27919 27922 27925 27928 27931 27934 27937 27940 27943 27946 27949 27952 27955 27958 27961 27964 27967 27969 27972 27975 27978 27981 27984 27987 27990 27992 27995 27998 28001 28004 28006 28009 28012 28015 28018 28021 28024 28027 28029 28032 28035 28037 28039 28042 28045 28047 28050 28053 28056 28059 28062 28065 28067 28070 28073 28076 28079 28082 28085 28088 28091 28094 28096 28099 28102 28104 28107 28110 28112 28115 28118 28120 28123 28126 28129 28132 28135 28137 28140 28143 28146 28149 28152 28155 28158 28161 28163 28166 28169 28172 28175 28178 28181 28184 28186 28189 28192 28195 28198 28201 28204 28207 28210 28213 28216 28219 28222 28224 28227 28230 28233 28236 28239 28242 28245 28247 28249 28252 28254 28257 28259 28262 28265 28268 28271 28274 28277 28280 28283 28286 28289 28292 28295 28298 28301 28304 28306 28309 28311 28314 28317 28320 28323 28326 28329 28332 28335 28337 28340 28342 28345 28347 28350 28352 28355 28357 28360 28363 28365 28368 28371 28374 28377 28380 28382 28385 28388 28391 28394 28397 28400 28403 28406 28408 28411 28414 28417 28420 28423 28425 28428 28431 28433 28436 28438 28440 28443 28446 28449 28452 28455 28458 28461 28464 28466 28469 28472 28475 28478 28481 28484 28487 28490 28493 28496 28499 28502 28505 28507 28510 28513 28516 28519 28522 28525 28528 28530 28533 28536 28539 28541 28544 28547 28550 28553 28556 28559 28562 28565 28568 28571 28574 28577 28580 28583 28586 28589 28592 28594 28597 28600 28603 28606 28609 28612 28615 28617 28620 28623 28625 28628 28631 28634 28637 28640 28643 28646 28649 28652 28655 28658 28661 28664 28667 28670 28672 28675 28678 28681 28684 28686 28689 28692 28695 28698 28701 28704 28707 28710 28713 28716 28719 28722 28725 28728 28731 28734 28737 28740 28743 28746 28749 28752 28755 28758 28761 28763 28766 28769 28772 28775 28778 28781 28783 28786 28789 28792 28795 28798 28801 28804 28807 28810 28812 28814 28817 28820 28823 28825 28828 28830 28833 28836 28839 28842 28845 28848 28851 28854 28857 28860 28863 28866 28869 28872 28875 28877 28880 28883 28886 28889 28892 28895 28898 28901 28904 28907 28910 28913 28915 28917 28920 28923 28926 28929 28932 28935 28938 28941 28943 28946 28949 28951 28954 28957 28959 28961 28964 28967 28970 28973 28976 28979 28982 28984 28987 28990 28993 28996 28999 29002 29005 29008 29011 29013 29016 29019 29022 29024 29027 29030 29033 29036 29039 29041 29044 29047 29050 29053 29056 29059 29062 29065 29068 29071 29074 29077 29079 29082 29085 29088 29090 29093 29096 29099 29101 29104 29107 29110 29113 29116 29119 29122 29125 29128 29131 29134 29137 29140 29143 29146 29149 29152 29155 29158 29161 29164 29167 29170 29173 29176 29179 29182 29185 29188 29191 29194 29197 29199 29202 29205 29208 29211 29214 29217 29220 29223 29226 29229 29232 29235 29238 29241 29244 29247 29250 29253 29256 29259 29262 29265 29268 29271 29273 29276 29278 29281 29284 29286 29289 29292 29295 29298 29301 29304 29307 29310 29313 29315 29318 29321 29324 29327 29330 29333 29336 29339 29342 29345 29348 29351 29354 29357 29359 29362 29365 29368 29371 29373 29376 29379 29382 29384 29387 29390 29393 29396 29399 29402 29405 29408 29411 29414 29417 29420 29423 29426 29429 29432 29435 29438 29441 29444 29447 29450 29453 29456 29459 29462 29465 29468 29471 29474 29477 29480 29483 29486 29489 29492 29495 29498 29501 29504 29507 29510 29513 29516 29519 29522 29525 29528 29531 29534 29537 29540 29543 29546 29549 29552 29555 29558 29561 29564 29567 29570 29573 29576 29579 29582 29585 29588 29591 29594 29597 29600 29603 29606 29609 29612 29615 29618 29621 29624 29627 29630 29633 29636 29639 29642 29645 29648 29651 29654 29657 29660 29663 29666 29669 29672 29675 29678 29681 29684 29687 29690 29693 29696 29699 29702 29705 29708 29711 29714 29717 29720 29723 29726 29729 29732 29735 29738 29741 29744 29747 29750 29753 29756 29759 29762 29765 29768 29771 29774 29777 29780 29783 29786 29789 29792 29795 29798 29801 29804 29807 29810 29813 29816 29819 29822 29825 29828 29831 29834 29837 29840 29843 29846 29849 29852 29855 29858 29861 29864 29867 29870 29873 29876 29879 29882 29885 29888 29891 29894 29897 29900 29903 29906 29909 29912 29915 29918 29921 29924 29927 29930 29933 29936 29939 29942 29945 29948 29951 29953 29956 29959 29962 29965 29968 29971 29974 29977 29980 29983 29986 29989 29992 29995 29998 30001 30003 30006 30009 30012 30015 30018 30021 30024 30027 30029 30032 30035 30038 30041 30043 30046 30049 30052 30055 30058 30061 30064 30067 30070 30073 30076 30079 30082 30085 30088 30091 30094 30097 30100 30103 30106 30109 30111 30114 30117 30120 30123 30126 30129 30132 30135 30138 30141 30144 30147 30150 30152 30154 30157 30160 30163 30166 30169 30171 30174 30176 30179 30182 30185 30188 30191 30194 30197 30200 30203 30206 30209 30211 30214 30217 30220 30223 30226 30229 30232 30234 30237 30240 30243 30246 30249 30252 30255 30258 30261 30264 30267 30270 30273 30276 30279 30281 30283 30286 30289 30292 30295 30298 30301 30304 30307 30310 30313 30316 30319 30321 30324 30327 30330 30333 30336 30339 30342 30345 30348 30351 30354 30357 30360 30363 30366 30369 30371 30374 30377 30380 30383 30386 30389 30392 30394 30397 30400 30403 30406 30409 30412 30415 30418 30421 30424 30426 30428 30431 30434 30437 30440 30443 30446 30449 30452 30455 30458 30461 30464 30467 30470 30473 30476 30479 30482 30485 30488 30491 30494 30497 30500 30503 30506 30509 30512 30515 30518 30520 30523 30526 30529 30532 30535 30537 30540 30543 30546 30549 30552 30555 30558 30561 30564 30567 30569 30572 30575 30578 30581 30583 30586 30589 30592 30595 30598 30601 30604 30607 30610 30613 30615 30618 30620 30623 30626 30629 30632 30635 30638 30641 30644 30647 30650 30653 30656 30659 30662 30665 30668 30671 30674 30677 30680 30683 30686 30689 30692 30695 30698 30701 30704 30707 30710 30713 30715 30718 30721 30724 30727 30730 30732 30735 30738 30741 30744 30747 30750 30753 30756 30759 30762 30765 30768 30771 30774 30777 30780 30783 30786 30788 30791 30794 30796 30799 30802 30805 30807 30810 30813 30816 30819 30822 30824 30827 30830 30833 30836 30839 30842 30845 30848 30851 30854 30856 30859 30862 30865 30868 30871 30874 30876 30879 30882 30885 30888 30891 30893 30895 30898 30901 30903 30906 30909 30911 30914 30917 30920 30923 30926 30929 30932 30935 30938 30941 30943 30946 30949 30951 30954 30957 30959 30962 30965 30967 30970 30973 30975 30978 30981 30983 30986 30989 30992 30995 30998 31001 31003 31006 31009 31012 31015 31018 31021 31024 31027 31030 31033 31036 31038 31041 31044 31047 31050 31053 31056 31059 31061 31064 31067 31070 31073 31075 31078 31081 31084 31086 31089 31092 31095 31098 31101 31104 31107 31110 31113 31116 31119 31121 31124 31127 31130 31133 31136 31139 31142 31145 31148 31151 31154 31157 31160 31163 31166 31169 31172 31175 31178 31181 31184 31187 31190 31193 31195 31198 31201 31204 31207 31210 31212 31215 31218 31221 31224 31227 31230 31233 31236 31239 31242 31245 31248 31251 31254 31256 31259 31262 31264 31267 31269 31272 31275 31278 31281 31283 31286 31288 31290 31293 31295 31298 31301 31304 31307 31310 31313 31316 31318 31321 31323 31326 31329 31332 31335 31338 31341 31343 31346 31349 31352 31355 31358 31361 31363 31366 31369 31372 31375 31377 31380 31383 31386 31389 31392 31394 31397 31400 31402 31405 31408 31411 31414 31416 31419 31422 31425 31428 31430 31433 31436 31439 31442 31445 31448 31450 31453 31456 31459 31462 31465 31468 31471 31474 31477 31479 31482 31485 31488 31491 31494 31497 31499 31502 31505 31508 31511 31513 31516 31519 31522 31525 31528 31531 31534 31537 31540 31543 31546 31549 31552 31555 31558 31561 31563 31566 31569 31572 31574 31577 31580 31582 31585 31588 31591 31594 31597 31600 31603 31606 31609 31612 31615 31618 31621 31624 31627 31630 31632 31635 31637 31640 31643 31646 31649 31652 31655 31658 31661 31664 31667 31670 31673 31676 31679 31682 31685 31688 31691 31694 31697 31700 31703 31706 31709 31712 31715 31717 31720 31723 31725 31728 31731 31734 31737 31740 31743 31746 31749 31752 31755 31757 31760 31763 31766 31769 31771 31774 31777 31780 31783 31785 31788 31791 31794 31797 31800 31803 31806 31809 31812 31814 31817 31820 31823 31826 31829 31832 31835 31838 31841 31844 31847 31850 31853 31856 31859 31862 31865 31868 31871 31874 31877 31880 31883 31886 31889 31892 31895 31898 
</DataArray>
<DataArray type="UInt32" Name="types" format="ascii">
5 5 5 5 5 3 5 5 5 5 5 5 5 3 5 5 5 5 3 5 5 3 5 5 5 5 3 5 5 5 5 3 5 5 5 5 5 5 5 5 5 5 5 5 5 3 5 5 3 5 5 5 5 5 3 5 5 5 5 5 5 5 3 5 5 5 5 3 5 5 5 5 5 5 5 5 5 3 5 5 3 5 5 3 5 5 5 5 3 5 5 5 5 5 5 5 3 3 3 5 5 3 5 5 5 5 5 3 5 5 5 5 5 5 5 5 5 5 5 5 5 3 5 5 5 3 5 5 5 5 5 5 3 5 5 5 5 5 5 5 5 5 5 5 5 5 5 5 5 5 5 5 5 5 5 5 5 5 3 5 5 5 3 5 5 3 5 5 5 5 5 5 5 5 5 5 5 3 5 5 5 5 5 5 5 5 3 5 5 5 5 5 5 5 5 3 5 5 5 5 5 5 5 5 5 3 5 5 5 5 5 5 5 5 5 5 5 5 5 5 5 5 5 5 5 5 5 5 5 3 5 5 5 3 5 3 5 3 5 5 3 5 5 5 3 5 3 5 3 5 3 3 5 3 5 5 3 5 3 5 5 5 3 5 3 3 5 5 3 5 5 5 3 5 3 3 3 5 3 5 5 5 3 5 3 3 3 5 5 3 3 5 5 5 5 3 5 3 5 5 3 5 5 5 3 5 3 3 3 5 5 5 3 5 3 3 3 3 5 5 5 3 3 5 5 3 3 3 5 3 5 5 5 5 3 5 5 5 5 5 5 5 3 5 5 5 5 5 5 3 3 5 5 5 3 5 5 5 3 5 3 5 3 3 5 5 5 5 3 5 5 3 5 5 5 5 3 5 3 5 5 5 5 5 3 3 5 5 5 5 5 5 5 5 3 5 5 5 3 5 5 3 5 3 5 5 5 5 5 5 5 5 5 5 5 3 5 3 5 3 5 5 5 3 5 3 5 3 5 5 5 5 5 5 3 5 3 5 5 5 3 5 5 5 3 5 3 3 5 5 5 5 3 5 5 5 5 3 3 5 5 3 5 3 5 3 3 5 5 5 3 5 5 5 5 3 5 5 5 5 5 5 5 5 5 5 5 3 5 5 5 5 3 5 5 5 3 5 3 3 3 5 5 5 3 3 5 3 5 5 3 5 5 5 5 3 5 5 5 5 5 5 5 5 5 5 5 3 3 5 5 3 5 5 5 3 5 5 5 5 5 5 3 5 5 5 3 5 5 5 3 5 5 5 5 5 5 5 5 5 5 5 3 5 5 5 3 5 5 5 5 5 5 5 3 5 5 5 5 5 3 5 5 5 5 5 5 5 5 5 5 5 5 5 5 5 5 5 5 5 3 5 5 5 5 3 5 5 3 5 5 5 5 5 5 5 3 5 5 5 5 5 5 5 5 3 5 3 5 5 3 5 5 5 3 5 5 3 5 5 5 3 5 3 5 5 3 5 3 5 5 5 5 5 5 5 5 5 5 5 5 5 5 5 5 5 5 5 5 5 5 3 5 3 5 3 5 5 5 5 5 5 5 5 5 5 5 5 5 5 5 3 5 5 5 5 5 5 5 5 5 3 5 5 5 5 5 5 5 5 5 5 5 5 5 5 5 5 5 5 5 5 5 5 5 5 5 5 5 5 5 3 5 5 3 5 5 5 3 3 5 3 5 5 5 5 5 3 5 5 5 5 5 3 5 5 5 5 5 5 5 5 5 5 5 5 5 5 5 5 5 5 5 5 5 5 5 5 5 5 5 5 5 5 5 5 5 5 5 5 5 5 5 5 5 5 5 5 5 5 5 5 5 3 5 5 5 5 5 5 5 5 5 5 5 5 5 5 5 3 5 5 5 5 3 5 5 5 5 5 5 5 5 5 5 5 5 5 5 5 5 5 5 5 5 5 5 5 5 5 5 5 3 5 5 3 5 3 3 3 3 5 5 3 5 5 5 5 5 5 5 5 5 5 5 5 5 5 5 5 5 3 5 5 3 5 3 5 5 5 5 3 5 3 5 5 5 5 3 5 5 5 3 5 5 5 5 5 3 5 3 5 5 3 3 5 3 5 5 5 5 5 5 5 5 5 5 5 3 5 5 5 3 5 5 5 3 5 5 3 3 3 5 5 5 5 5 5 5 5 5 5 5 3 5 5 5 5 5 5 5 5 3 3 3 5 5 5 5 5 5 5 5 3 3 5 5 5 3 5 5 3 5 5 5 5 5 5 5 5 5 5 5 3 5 5 5 5 5 5 5 5 3 5 5 5 5 5 5 5 5 5 5 3 5 3 3 3 5 5 5 5 5 5 5 3 3 5 3 5 5 5 5 5 3 5 3 3 5 5 5 3 5 3 5 5 5 5 3 5 5 5 5 5 5 5 5 5 5 5 5 5 5 5 5 5 3 5 5 5 3 5 5 5 5 5 3 5 5 5 5 5 5 3 5 3 5 5 5 5 5 5 5 5 3 5 5 5 3 5 5 5 5 5 5 5 5 5 5 5 5 5 5 5 5 5 5 5 5 5 5 5 5 5 3 3 3 5 5 5 5 3 5 5 5 5 3 5 5 5 5 5 5 5 3 5 5 5 5 5 5 5 5 3 5 5 5 5 5 5 5 5 5 5 5 5 3 5 5 5 5 5 5 3 5 5 5 5 5 5 5 5 3 5 5 5 3 5 5 5 5 5 5 5 5 5 5 5 5 3 5 5 5 5 5 5 5 5 5 5 5 5 5 5 5 5 5 5 5 5 5 5 5 5 5 5 5 5 5 5 5 5 5 5 5 5 5 5 5 5 5 5 5 5 5 5 5 3 5 5 5 5 5 5 5 5 5 5 5 5 5 5 5 5 5 5 5 5 5 5 5 5 3 5 5 5 5 5 5 5 5 5 5 3 5 5 3 5 5 5 5 5 5 5 5 5 3 5 3 5 5 5 5 3 5 5 3 5 3 5 5 5 5 5 3 5 5 5 5 5 5 5 5 3 5 5 5 5 5 5 5 5 5 5 5 5 5 5 3 5 3 3 5 5 5 5 5 3 5 5 5 5 5 5 5 5 5 5 5 5 5 5 5 3 5 5 5 5 5 5 5 5 5 5 5 5 5 5 5 5 3 5 5 5 5 5 3 3 5 5 3 5 5 5 5 5 5 5 5 5 5 3 5 5 5 5 5 5 5 5 5 3 5 3 5 5 5 5 5 3 5 5 5 5 3 5 5 5 3 5 5 5 3 5 5 3 5 5 5 5 5 5 5 5 5 5 5 5 5 5 5 5 3 5 5 5 5 5 5 5 3 5 5 5 5 5 5 5 5 5 5 5 5 5 5 5 5 5 5 5 5 5 5 5 5 5 5 5 3 5 5 5 5 3 5 5 5 3 5 5 5 5 5 5 5 5 5 3 5 3 5 5 5 5 5 5 5 5 5 5 5 5 5 5 5 5 5 5 3 3 5 5 5 3 5 5 3 5 5 3 5 5 5 3 5 5 3 5 5 5 5 5 5 5 5 5 5 5 5 5 5 5 5 5 5 5 5 3 5 3 5 5 5 5 5 5 5 5 5 5 5 3 5 3 5 5 5 3 5 5 5 5 5 3 5 5 5 5 5 5 3 5 5 5 5 5 5 5 5 5 5 5 3 5 5 5 5 5 5 5 5 3 5 5 5 3 5 5 3 5 5 5 5 5 3 5 5 5 5 5 5 5 5 5 3 5 5 3 5 3 5 3 3 3 5 3 5 5 5 5 5 5 3 5 5 5 5 5 5 3 5 5 5 5 5 5 5 3 5 5 5 5 3 5 5 5 5 5 3 5 3 5 5 5 5 5 5 5 5 5 5 3 5 5 5 5 5 5 5 3 5 5 5 5 5 5 5 3 5 3 5 5 5 5 5 5 5 5 3 5 5 5 3 3 5 5 5 5 5 3 3 5 3 5 5 3 5 5 3 5 5 5 5 5 5 5 5 3 5 5 5 5 5 3 5 5 5 5 3 5 5 3 5 5 5 5 5 5 5 5 5 5 5 5 5 5 5 5 5 5 5 5 5 5 5 5 5 5 5 5 5 5 5 5 5 5 5 5 5 5 5 5 5 3 5 5 3 5 5 5 5 5 3 5 5 5 5 3 5 5 5 5 5 5 5 5 5 5 5 5 5 5 5 5 5 5 5 5 5 5 5 5 3 5 5 5 3 5 5 5 5 5 5 3 5 5 5 5 5 5 5 5 5 5 5 3 5 3 3 5 5 3 5 5 5 5 5 5 5 5 5 5 5 3 5 5 3 5 5 5 5 5 5 5 5 5 5 5 5 5 5 5 3 5 5 5 5 5 5 5 3 5 3 5 5 5 5 3 5 3 5 5 5 5 5 5 5 5 5 3 5 5 5 5 5 5 5 5 5 5 5 5 5 5 5 5 5 3 5 5 5 5 5 5 5 5 5 5 5 5 5 5 5 5 5 5 5 5 5 5 5 5 5 3 3 5 5 5 5 5 5 5 5 5 5 5 3 5 5 5 5 3 5 5 5 5 3 5 5 5 5 5 5 5 5 3 5 5 5 5 5 5 5 5 5 3 5 5 5 5 5 5 5 5 5 5 5 5 5 5 5 5 5 5 5 5 3 5 5 5 5 5 5 5 5 5 5 5 5 5 5 3 5 3 5 5 5 5 5 5 5 5 3 5 5 3 5 5 5 5 5 5 5 5 5 5 5 5 5 5 5 5 5 5 5 5 5 5 5 5 5 5 5 5 5 5 5 5 5 5 5 5 3 5 5 3 5 5 5 5 3 5 3 5 5 3 5 3 5 5 5 5 5 3 5 5 5 5 5 5 5 5 5 5 5 5 3 5 5 5 3 5 5 5 5 5 5 5 5 5 3 5 5 5 5 3 3 5 5 5 5 5 5 5 5 3 5 5 5 5 5 3 5 5 5 3 5 5 5 3 5 5 5 5 3 5 5 5 5 5 5 5 5 5 5 5 5 5 5 3 5 5 5 5 5 5 3 5 3 3 5 3 5 3 5 5 5 5 3 5 5 5 5 3 5 5 5 5 5 5 5 5 5 3 5 5 5 5 5 5 5 5 5 5 5 5 5 5 3 5 5 5 3 5 5 5 3 5 3 5 5 5 5 5 5 5 5 5 5 5 5 5 5 5 5 3 5 5 5 5 5 5 3 5 5 5 5 5 5 5 5 5 5 5 5 5 5 5 5 5 5 3 5 5 5 5 5 5 5 5 5 5 5 5 5 5 5 5 5 5 5 5 5 5 5 5 5 5 5 5 5 5 5 5 5 5 3 5 5 5 5 3 5 5 5 5 5 5 5 3 5 5 5 5 5 5 5 5 5 3 5 5 3 5 5 5 5 5 3 5 5 5 3 5 5 3 5 5 5 5 5 5 5 5 5 5 5 5 5 5 5 5 5 5 5 5 3 5 5 5 5 5 5 5 5 5 5 3 3 5 3 5 5 5 5 5 3 5 5 5 5 3 5 5 5 5 5 3 5 3 5 5 3 5 5 5 5 5 5 5 5 3 5 5 5 5 5 5 3 5 5 5 5 5 5 3 5 5 5 5 3 5 5 3 5 3 5 5 3 5 5 5 5 5 5 3 5 5 5 5 3 5 5 5 5 5 5 5 5 3 3 5 5 5 5 5 5 5 5 3 5 5 5 5 5 5 3 5 5 5 5 5 5 5 3 5 5 5 3 5 5 5 5 5 5 5 5 5 5 5 5 3 5 5 5 5 3 5 5 3 5 5 5 5 3 5 5 5 3 3 5 5 5 3 5 5 5 3 5 5 5 5 5 5 5 5 5 3 5 5 5 3 5 5 5 5 5 5 5 5 5 5 5 5 3 5 3 5 5 3 5 5 3 5 5 5 5 5 5 5 3 5 5 5 5 5 3 5 3 5 5 5 3 3 5 3 3 5 3 5 5 5 5 5 5 3 5 3 5 5 5 5 5 5 5 5 5 5 5 5 5 3 5 5 3 5 3 5 5 3 5 5 5 3 3 5 5 3 5 5 5 5 5 5 5 5 5 5 5 5 5 5 5 5 5 5 5 5 5 5 5 3 3 5 3 5 3 5 5 3 3 5 5 3 5 5 3 5 5 3 5 3 5 5 5 5 3 5 5 5 5 3 5 3 3 5 3 5 5 3 3 5 5 5 3 5 5 5 5 3 3 5 5 5 5 5 3 5 5 5 5 5 5 5 5 5 5 5 3 5 3 5 3 5 5 3 5 3 5 5 5 5 5 5 5 5 3 5 5 3 5 5 5 5 3 5 5 5 5 5 5 5 5 5 5 5 5 3 5 5 5 5 5 5 5 5 5 5 5 3 5 5 5 5 5 5 3 5 3 5 5 3 5 5 5 5 5 5 5 5 5 5 5 5 5 5 5 5 5 3 3 5 5 5 3 5 5 3 5 5 5 5 5 5 5 5 5 5 5 5 5 5 5 5 5 5 5 5 5 5 5 5 5 3 3 5 5 5 5 5 5 5 5 5 5 5 3 5 5 5 5 5 5 5 5 5 5 5 5 5 5 5 5 5 5 5 5 5 5 5 5 5 5 5 5 5 5 5 5 5 3 5 5 5 5 5 3 5 5 3 5 5 3 3 5 5 5 5 5 5 5 5 5 5 5 5 5 3 5 5 3 5 5 5 5 5 5 3 5 5 3 5 5 5 5 5 5 5 5 5 5 5 5 5 3 5 5 5 5 5 5 5 3 5 5 5 5 5 5 5 5 5 5 5 5 3 5 5 3 5 5 5 5 5 5 5 5 5 5 5 5 5 5 5 5 5 5 5 5 3 5 5 3 5 3 5 5 5 3 5 5 3 5 3 5 5 5 3 5 5 5 5 3 5 5 5 5 5 5 5 3 5 5 5 3 5 5 5 5 5 5 5 5 5 5 5 5 3 5 5 5 5 5 5 5 5 3 5 5 5 5 5 5 5 5 5 5 5 3 5 5 5 5 5 5 5 5 5 5 5 5 5 5 5 5 5 5 5 3 3 5 5 5 3 5 5 5 5 5 5 5 5 5 5 5 5 3 5 5 5 5 5 5 5 5 5 3 5 5 5 5 5 5 5 5 5 5 5 5 5 5 5 5 3 5 3 5 5 5 5 5 3 5 5 5 5 3 5 5 5 3 5 5 5 3 5 5 5 5 5 5 5 5 5 3 5 5 5 3 5 5 3 5 5 5 5 5 5 3 5 5 5 5 5 5 5 5 3 5 5 5 3 5 5 5 5 5 5 5 5 5 5 5 5 5 5 5 5 5 5 5 5 5 5 5 5 5 5 5 3 5 5 5 5 5 5 5 3 5 5 5 5 5 5 5 5 5 5 5 5 5 5 5 5 5 5 5 5 5 5 5 5 5 3 5 3 5 5 5 5 5 5 3 5 5 5 3 5 5 3 5 5 5 5 5 5 5 5 5 5 5 5 3 5 5 5 5 5 3 5 5 5 5 5 5 5 5 5 5 5 5 5 3 5 5 5 3 5 5 5 5 5 5 5 5 5 5 5 5 3 3 5 5 5 5 3 5 5 5 5 5 5 5 5 5 3 3 5 5 5 5 5 3 5 5 5 5 5 3 5 5 5 5 5 3 5 3 5 5 5 5 3 5 3 5 3 3 5 5 5 5 5 5 5 3 3 5 5 5 5 5 5 3 3 3 5 3 3 5 5 5 3 5 5 5 5 5 3 3 3 5 3 5 5 5 3 5 3 3 5 5 5 5 5 5 5 3 3 5 5 3 3 3 5 5 5 5 5 5 5 5 5 5 5 5 5 5 5 5 5 5 5 5 5 5 5 5 5 5 5 5 5 5 5 5 5 5 5 5 5 5 5 5 3 5 5 5 5 5 5 5 5 5 5 3 5 5 5 5 5 5 3 5 5 3 5 5 5 5 5 5 5 5 5 5 5 5 5 3 5 3 5 5 5 5 3 5 5 5 3 5 5 3 5 5 5 3 5 5 3 5 5 5 5 5 3 5 5 5 5 5 5 5 3 5 5 5 5 5 5 5 3 5 5 3 5 5 5 5 3 5 3 5 5 5 5 5 3 5 5 5 5 3 5 5 5 5 5 5 3 3 5 5 5 5 5 3 5 5 3 5 5 5 5 5 5 5 5 5 5 3 5 5 5 5 5 5 5 5 5 5 5 5 5 5 5 5 5 5 3 5 5 5 5 5 5 3 5 5 5 5 5 5 5 3 3 5 5 5 5 3 5 5 5 5 5 5 5 3 5 5 3 5 3 3 3 5 5 5 5 5 5 3 5 5 5 5 5 3 5 5 5 5 3 5 5 5 3 5 5 5 3 5 5 5 5 5 5 5 5 5 5 5 5 5 5 5 5 5 5 5 5 5 5 5 5 5 3 5 5 5 5 5 5 5 3 5 3 5 5 5 5 5 5 3 5 5 3 5 5 5 3 5 5 3 5 5 5 5 5 3 5 5 5 3 3 5 5 5 5 5 5 5 5 5 5 5 5 3 5 5 5 5 5 5 5 5 5 3 5 5 5 5 5 3 3 5 5 5 5 5 5 5 5 5 3 5 5 5 5 5 5 5 5 3 5 5 5 5 5 5 5 5 5 5 5 5 5 5 5 5 5 5 3 5 5 5 5 3 5 3 5 3 5 5 5 5 5 5 5 5 5 5 5 5 5 5 5 5 5 3 5 5 5 5 5 3 5 5 5 3 3 5 5 5 5 5 3 5 5 5 5 3 5 5 5 5 5 5 5 5 3 5 5 5 5 5 5 5 3 5 5 5 5 5 5 5 5 5 3 5 5 5 5 5 5 5 5 5 5 5 5 5 5 5 5 5 5 3 5 5 5 5 5 5 5 5 5 5 5 5 5 3 5 5 5 5 5 5 3 5 5 3 5 5 3 5 5 5 5 5 5 5 5 5 5 5 5 5 5 5 5 5 5 5 5 5 5 5 5 5 5 3 5 3 5 3 3 5 5 5 3 5 5 5 5 5 5 5 5 5 3 3 5 3 5 5 5 5 5 5 5 5 5 5 5 5 5 5 3 5 3 3 5 3 5 5 5 5 5 5 5 5 5 3 3 5 5 5 5 5 5 5 5 5 5 5 5 5 5 5 5 5 5 5 5 5 5 3 5 5 5 5 5 3 5 5 5 5 5 3 5 5 5 3 5 5 5 5 5 5 5 5 5 3 5 5 5 5 3 5 5 5 5 5 5 3 5 5 5 5 5 5 5 3 5 5 5 5 3 5 5 5 5 5 5 5 5 5 5 3 5 5 5 5 3 5 5 5 3 5 5 5 5 5 3 5 5 5 5 5 5 5 5 5 5 5 5 5 5 3 3 5 5 3 5 5 5 5 5 5 5 3 5 5 5 5 5 5 3 5 5 5 5 5 5 5 5 5 5 5 5 5 5 5 5 5 5 5 5 5 5 5 3 5 5 5 5 5 5 5 5 3 5 5 5 5 3 5 5 5 5 5 3 5 3 5 3 5 5 5 5 5 5 5 3 5 5 5 3 5 5 5 5 5 3 5 5 5 5 5 3 5 3 5 5 3 5 3 5 5 5 5 5 3 5 5 5 3 5 5 5 5 5 5 5 5 5 5 3 5 5 5 5 5 5 5 5 5 5 5 5 5 5 5 5 5 5 5 5 5 5 3 5 5 5 5 5 5 5 5 5 5 5 5 5 5 5 5 5 5 3 5 5 5 3 5 5 5 5 5 5 3 5 5 5 3 3 5 3 5 3 3 5 3 5 5 3 5 5 3 3 5 5 5 5 5 5 5 5 3 5 3 5 5 5 5 5 5 5 5 5 5 5 5 5 5 5 5 5 5 5 5 5 5 3 5 5 5 5 5 5 5 5 3 5 5 3 5 5 3 3 5 5 3 5 5 5 5 5 5 5 5 5 5 5 5 5 5 5 5 5 5 5 5 5 5 5 5 5 5 5 5 5 5 5 5 5 5 5 5 5 5 5 3 5 3 5 5 5 5 5 5 5 5 5 5 5 5 5 5 5 5 5 5 5 5 5 5 5 5 5 5 5 5 5 5 5 5 5 5 5 5 5 5 5 5 3 5 5 3 5 5 5 5 5 3 5 3 5 5 3 5 5 5 5 5 5 3 5 5 5 5 5 5 5 5 5 5 5 3 5 5 3 3 5 3 5 5 3 5 5 5 5 3 5 5 5 5 5 5 5 5 5 3 5 3 5 5 5 5 5 5 5 3 5 3 5 5 5 5 5 5 5 5 5 3 5 3 5 5 5 5 5 5 5 5 5 5 3 5 5 5 3 5 5 3 5 5 3 5 5 5 5 3 5 5 5 3 5 5 5 5 5 5 5 5 5 5 5 5 5 5 3 5 5 5 5 5 5 3 5 3 5 3 5 5 5 3 5 5 5 5 5 5 5 5 3 5 5 5 5 5 3 5 5 3 5 5 5 5 5 5 5 5 5 3 5 5 5 3 5 5 5 5 5 5 3 5 5 5 5 5 5 5 5 5 5 5 5 5 5 5 5 5 5 5 5 5 5 5 5 5 5 5 5 5 5 5 3 5 5 5 5 5 3 5 5 3 3 5 5 5 5 3 5 5 5 5 5 3 5 5 5 5 5 5 5 5 5 5 5 5 5 5 5 5 3 5 5 5 5 5 5 5 5 3 3 5 5 5 5 5 5 3 5 5 5 5 3 5 5 5 5 5 5 5 5 5 5 5 5 5 5 5 5 5 5 5 5 5 5 5 5 3 5 5 3 5 5 5 5 5 5 5 5 5 5 5 5 5 5 5 5 5 5 5 5 5 5 5 5 5 5 5 3 5 3 5 5 5 5 5 3 5 5 5 5 5 5 5 5 5 5 5 5 5 5 5 5 5 5 5 5 3 3 5 3 5 5 5 5 5 5 5 5 5 5 5 5 5 5 5 5 3 5 5 5 3 5 5 5 5 5 5 5 5 5 5 5 5 5 3 5 5 5 5 5 5 5 5 5 5 5 5 5 5 5 5 5 5 5 5 5 5 3 5 5 5 5 5 5 5 5 5 5 5 5 5 3 5 3 5 5 3 3 5 5 5 5 5 5 5 5 5 5 5 5 5 5 5 5 5 5 5 5 3 5 5 3 5 5 5 3 5 5 5 5 5 5 3 5 5 5 3 5 5 5 5 5 5 5 5 3 5 5 3 5 5 3 5 3 5 5 5 5 3 3 5 5 3 3 5 5 3 5 5 5 5 3 5 5 3 3 5 3 5 5 5 5 5 5 5 5 5 5 5 5 5 5 5 5 5 5 5 5 3 5 5 5 5 3 5 5 5 5 3 3 5 5 5 5 5 5 5 5 5 5 5 5 3 5 5 5 3 5 5 5 5 5 5 5 3 5 5 5 3 5 5 3 3 5 5 5 3 5 5 5 3 5 5 5 5 5 5 5 5 5 5 5 5 5 5 5 5 5 5 3 5 5 5 5 5 5 5 5 5 5 5 5 5 5 5 5 5 5 3 3 5 5 5 5 5 3 3 5 3 5 5 5 5 5 5 5 5 5 3 5 5 5 3 5 5 5 5 5 5 5 5 5 5 5 5 5 5 3 5 5 5 5 5 5 5 3 5 5 3 5 5 5 5 5 5 3 5 5 5 5 3 5 5 5 5 5 5 3 5 5 5 5 5 5 5 5 3 3 5 5 5 3 3 5 5 5 5 5 3 5 5 5 5 5 5 3 5 5 5 5 3 5 5 5 5 5 3 5 5 5 5 3 5 5 5 5 5 5 5 5 5 5 5 5 5 5 5 5 5 5 5 5 5 5 5 5 5 3 5 5 5 5 3 5 3 5 3 5 5 3 5 5 3 5 5 3 5 5 5 5 5 5 3 5 5 3 5 3 3 3 5 5 3 5 3 3 5 5 5 3 5 3 5 5 5 5 5 5 3 5 5 5 3 5 5 5 5 5 5 5 3 5 5 5 3 5 3 3 5 5 5 5 5 5 5 3 5 5 5 5 5 5 5 5 3 3 5 5 5 5 3 5 5 3 5 5 5 3 5 5 5 3 3 5 5 5 5 3 5 5 5 5 5 3 3 5 5 5 5 5 5 5 5 5 5 5 5 5 5 5 5 5 5 5 5 5 5 5 5 5 5 5 5 5 5 5 3 5 5 5 3 5 5 5 5 5 5 5 5 5 5 5 5 5 5 5 3 5 3 3 5 5 3 5 5 5 5 5 5 5 5 5 5 5 5 5 5 5 5 5 5 5 5 5 5 5 3 5 5 3 3 5 5 5 5 5 5 5 3 5 5 5 3 5 5 5 5 3 3 5 5 5 5 5 5 5 3 5 5 5 5 3 5 5 5 5 3 5 5 5 5 5 5 5 5 5 5 5 5 5 5 5 5 5 5 5 3 5 5 5 5 5 5 5 5 5 5 5 5 5 5 5 5 3 5 5 5 3 5 5 5 5 5 5 5 5 5 3 5 5 5 5 5 5 5 5 5 5 5 5 5 5 5 5 5 5 5 5 5 3 5 5 5 5 5 5 5 5 5 5 5 5 5 5 5 5 5 3 5 5 5 5 5 3 5 5 5 5 5 5 5 5 5 5 5 5 5 5 5 5 5 5 5 5 5 5 5 5 5 5 5 3 5 5 3 5 5 5 3 5 5 5 5 5 5 5 5 5 5 5 5 5 5 5 3 5 3 5 5 5 5 5 5 5 5 5 3 5 5 5 5 5 5 5 5 5 3 3 5 5 5 5 5 5 5 5 5 5 5 5 5 5 5 5 5 5 5 5 5 5 5 5 5 5 5 5 5 5 5 5 5 5 5 5 5 5 5 5 5 5 5 5 5 5 5 5 5 5 5 5 5 5 5 5 5 5 5 5 5 5 5 5 5 5 5 5 5 5 5 3 5 5 5 5 5 5 3 5 5 5 5 5 5 5 5 5 3 5 3 5 5 5 5 5 5 5 5 5 5 5 5 5 5 5 5 5 5 5 5 5 5 5 5 5 5 5 5 5 5 5 5 5 5 3 5 5 5 3 3 5 5 5 5 5 5 5 5 5 5 5 5 5 5 5 5 5 5 5 5 5 5 3 3 5 5 5 5 5 5 5 5 3 5 5 5 5 5 5 3 5 5 5 5 5 3 5 5 5 5 3 5 5 5 3 5 5 5 3 5 5 3 5 5 5 5 5 5 5 5 5 5 5 5 5 3 5 5 5 5 5 5 5 5 3 5 5 5 5 5 5 5 5 5 5 5 3 5 5 5 3 5 5 5 5 3 5 5 5 5 5 5 5 5 3 5 3 5 5 3 5 5 5 5 5 3 5 5 5 5 5 5 5 5 5 5 5 5 3 5 5 5 5 5 5 5 5 5 3 5 5 5 5 5 5 3 5 5 5 5 5 5 5 3 5 5 5 5 5 3 5 5 5 5 5 5 5 5 5 5 5 5 5 5 5 5 5 5 5 5 5 5 5 5 5 5 5 5 5 5 5 5 5 5 5 5 5 5 5 5 5 5 5 5 5 5 5 3 5 3 5 5 5 5 5 5 5 5 5 5 5 5 5 5 3 5 5 5 5 5 5 5 5 5 5 5 5 5 5 5 3 5 5 3 5 3 5 5 5 5 5 3 5 5 5 5 5 5 5 5 5 5 5 5 5 5 5 5 5 5 5 5 3 5 5 5 5 5 5 5 5 5 5 5 3 5 3 5 5 3 5 3 5 5 5 5 5 5 5 3 5 3 5 5 5 5 3 5 5 5 5 3 3 5 5 3 5 5 5 5 5 5 5 5 5 5 5 5 5 5 5 5 3 5 5 5 5 5 5 5 5 5 5 5 5 5 5 3 5 3 5 5 5 5 5 5 5 3 5 3 5 5 5 5 5 5 5 5 5 3 3 5 5 5 3 5 5 5 5 3 5 3 5 5 3 5 3 3 3 5 5 3 5 5 5 3 3 3 5 5 5 5 5 5 5 5 5 5 5 3 5 5 5 5 5 5 3 5 5 5 3 5 5 5 5 5 5 5 5 3 5 5 5 3 5 5 5 5 5 5 5 5 5 5 5 5 5 5 5 5 5 5 5 5 5 5 5 5 5 5 5 5 5 5 5 5 5 5 5 5 5 5 5 5 5 5 5 5 5 5 5 5 5 5 5 5 5 5 5 5 5 5 5 5 3 5 5 5 5 5 3 5 5 5 5 3 5 5 5 3 5 5 5 5 5 5 5 5 5 5 5 5 5 5 5 5 5 5 5 5 5 5 5 5 5 5 5 5 5 5 5 5 5 5 5 5 5 5 5 5 3 5 5 3 5 5 5 5 5 5 5 3 5 5 5 5 5 5 5 5 5 5 5 3 5 5 3 5 3 5 5 5 3 5 5 5 5 5 5 5 5 3 5 5 5 5 3 5 5 5 5 3 5 3 5 5 5 5 5 5 5 5 5 5 5 5 3 5 3 5 5 5 5 5 5 5 5 5 5 5 5 5 3 5 5 5 5 5 5 5 5 5 3 5 5 5 3 5 5 5 5 5 5 5 5 5 5 5 5 5 5 5 5 5 5 5 5 5 5 5 5 5 5 5 5 5 5 5 5 5 5 5 3 5 5 3 5 5 5 5 3 5 5 5 5 5 5 5 5 5 5 5 5 5 5 5 3 5 5 5 5 5 5 5 5 5 3 5 3 5 5 5 5 5 5 5 3 5 5 5 5 5 5 5 5 5 5 5 5 5 5 3 5 5 5 5 5 5 5 5 5 5 5 3 5 5 5 5 5 5 5 5 5 5 5 5 5 5 5 5 5 5 5 5 5 5 5 3 5 3 5 5 5 5 5 5 3 5 3 5 5 5 3 5 5 5 3 5 5 5 3 5 5 3 5 5 5 5 5 5 5 3 5 5 5 5 5 5 5 3 5 5 5 5 5 5 5 5 5 5 5 5 5 3 5 5 5 5 5 5 5 5 3 5 5 5 5 5 5 5 5 5 5 5 5 5 5 5 5 5 5 5 5 3 5 5 5 5 5 5 5 5 5 5 5 5 5 5 5 5 5 5 5 5 5 5 5 5 5 5 5 5 5 5 5 5 5 5 5 5 5 5 5 5 5 5 5 5 5 5 5 5 5 5 3 5 3 5 5 5 3 5 5 3 3 5 3 5 5 5 5 5 5 5 5 5 5 5 5 5 5 5 5 5 5 5 5 5 5 5 5 5 5 5 5 5 5 5 5 5 5 5 3 5 5 5 5 3 5 5 3 5 5 5 3 5 5 5 5 3 5 3 3 5 5 5 5 3 5 5 5 3 5 5 5 3 5 5 5 5 5 5 3 5 5 5 5 5 5 5 5 5 5 5 5 5 5 5 5 5 5 5 5 3 5 5 5 5 5 5 5 5 5 5 5 5 5 5 5 5 5 5 3 5 5 3 5 5 3 5 5 5 5 5 5 5 5 5 5 5 3 5 5 5 5 3 5 5 5 5 3 5 5 5 3 5 5 5 5 5 5 5 5 5 5 5 5 5 5 5 5 5 5 5 5 5 5 5 5 5 3 5 5 5 5 5 5 5 5 3 5 5 5 3 5 5 5 5 5 5 5 5 5 5 5 5 5 5 5 5 5 5 5 5 5 5 5 5 3 5 5 5 3 5 5 5 5 5 5 5 5 3 5 5 3 5 5 5 5 3 5 5 5 5 5 5 5 3 5 3 5 5 3 5 5 3 3 5 5 5 5 5 5 5 5 5 5 5 5 5 5 5 5 5 5 5 5 5 3 5 5 5 5 3 5 5 5 5 5 5 5 5 5 5 5 5 5 3 5 5 3 5 5 5 5 5 5 5 5 5 5 5 5 5 5 5 5 5 5 5 5 5 5 5 5 5 5 5 5 5 5 5 5 5 5 5 5 5 5 5 5 5 5 5 5 5 5 5 5 5 5 5 5 5 5 5 5 5 5 5 5 5 5 5 5 5 5 5 5 5 5 5 5 5 5 5 5 5 5 5 5 5 5 5 5 5 5 5 5 5 5 5 5 5 5 5 5 5 5 5 5 5 5 5 5 5 5 5 5 5 5 5 5 5 5 5 5 5 5 5 5 5 5 5 5 5 5 5 5 3 5 5 5 5 5 5 5 3 5 5 5 5 5 5 5 5 5 3 5 3 5 5 5 3 5 5 3 5 5 5 5 5 5 5 5 5 5 5 5 5 5 5 5 5 5 5 5 5 5 5 5 5 5 5 5 5 5 5 5 5 5 5 5 5 3 5 5 3 3 5 5 3 5 5 3 5 5 5 3 5 5 5 5 5 5 5 5 5 3 5 5 5 5 5 5 3 5 5 5 5 5 5 5 5 5 5 5 5 5 5 5 5 5 5 5 5 5 5 5 5 5 5 5 5 5 5 5 3 5 5 5 5 5 5 5 5 5 5 5 5 5 5 5 5 5 5 5 5 5 5 5 5 5 5 5 5 5 5 5 5 5 5 5 5 5 5 5 5 5 5 5 5 5 5 3 5 3 5 5 5 5 3 5 5 5 5 3 5 5 5 5 3 5 5 5 5 5 5 5 5 3 5 5 3 5 3 5 5 5 5 3 5 5 3 3 5 5 5 5 5 5 3 5 5 5 5 5 5 5 5 5 5 3 3 5 5 5 5 5 3 5 5 3 5 5 5 5 3 5 5 3 5 5 5 5 5 5 5 5 5 5 5 5 5 5 5 5 5 5 5 5 5 5 5 5 5 5 5 5 5 3 5 3 5 5 5 5 5 5 5 5 5 5 5 5 5 3 5 5 5 5 3 3 5 5 5 5 5 5 5 5 5 5 5 5 5 5 5 5 5 5 5 5 5 5 5 5 5 5 5 5 5 5 5 5 5 5 5 5 5 5 5 5 5 5 3 5 5 5 3 5 5 5 5 5 5 5 5 5 5 5 5 5 5 5 5 5 5 5 5 3 5 5 3 5 5 5 5 5 5 5 5 5 3 5 5 5 5 5 3 5 5 5 5 5 3 5 3 5 5 5 5 5 5 5 5 5 5 5 5 5 3 5 5 5 3 3 5 5 5 5 5 5 5 5 3 5 5 3 5 5 3 3 5 5 5 5 5 3 5 5 5 5 5 5 5 3 5 5 3 3 5 5 5 5 5 5 3 3 5 5 5 3 5 5 5 5 5 5 5 3 5 5 5 5 5 5 5 5 5 5 5 5 5 5 5 5 5 5 5 5 5 5 5 5 5 5 3 5 5 5 5 5 5 5 3 5 5 5 5 5 5 5 5 5 5 5 3 5 5 5 5 5 5 5 5 3 5 5 5 5 5 5 5 5 5 5 5 5 5 5 5 5 3 5 5 5 3 5 5 5 5 5 3 5 5 5 5 5 5 5 5 5 5 5 5 5 5 3 5 5 5 5 3 5 5 3 5 5 5 5 5 3 5 5 5 5 5 5 5 5 5 5 5 5 5 5 3 5 3 5 5 5 3 5 3 5 3 5 5 5 5 5 5 3 3 5 5 5 5 5 5 3 5 3 5 5 5 5 5 5 5 5 5 5 5 5 5 5 5 5 5 3 5 5 5 3 3 5 5 5 5 5 3 5 5 3 3 5 5 5 5 5 5 5 5 5 5 5 5 5 5 5 5 5 5 5 5 5 5 5 5 5 5 5 5 5 5 5 5 5 5 5 5 5 5 5 5 5 5 5 5 3 5 5 3 3 3 5 5 5 5 5 5 3 5 5 5 5 5 5 5 5 5 3 5 5 5 3 5 5 5 5 5 5 5 5 5 5 5 5 5 5 5 5 5 5 5 5 3 5 5 5 5 3 5 5 5 5 5 5 5 5 5 5 5 5 5 5 5 5 5 5 5 5 5 5 5 5 5 5 5 5 5 5 5 5 5 5 3 5 3 5 5 5 5 5 5 5 5 3 5 5 5 3 5 3 5 5 5 5 5 5 5 5 3 5 5 5 5 3 5 5 5 5 3 5 5 5 5 5 5 5 3 5 5 5 5 3 5 5 5 5 5 5 5 5 5 5 5 5 5 5 5 5 5 5 5 5 5 5 5 5 5 5 5 5 5 5 5 5 5 5 5 5 5 5 5 5 5 5 5 5 5 5 3 5 5 5 5 3 3 5 5 3 3 5 5 5 5 5 5 5 5 5 5 5 5 5 5 5 5 5 5 5 3 5 5 5 3 3 5 5 5 5 5 5 5 5 5 5 5 5 5 5 5 5 5 5 5 5 5 5 5 5 5 5 5 3 5 5 5 5 5 5 5 3 5 5 5 5 5 5 5 5 5 5 5 5 5 5 5 3 5 5 5 5 5 5 5 5 3 5 3 3 5 5 5 5 5 5 5 5 5 5 5 5 3 5 5 5 5 5 5 5 5 5 5 5 5 5 5 5 5 5 5 3 5 5 5 3 5 5 5 5 5 5 5 5 3 5 5 5 5 5 5 5 5 5 5 5 5 5 5 5 3 5 5 5 3 5 5 5 5 5 5 5 5 5 5 5 5 5 5 5 5 5 5 5 5 5 5 5 5 5 5 5 5 5 5 5 5 5 3 5 3 5 5 5 5 5 5 5 5 3 5 5 5 5 5 5 5 5 5 3 5 5 3 5 5 5 5 5 3 5 5 5 5 3 5 5 5 5 3 5 5 5 3 5 3 5 5 3 5 5 5 5 5 5 5 5 5 5 5 5 5 5 3 5 5 3 5 3 5 5 5 3 5 5 3 5 5 5 5 3 5 3 5 5 5 5 5 5 3 5 3 5 5 5 5 5 3 5 5 5 5 3 5 5 5 5 5 5 3 5 5 5 5 5 5 5 5 5 5 5 5 5 5 5 5 5 5 5 5 5 5 5 5 5 5 5 5 5 5 5 5 5 3 3 5 5 5 5 5 5 5 5 5 5 3 5 5 3 3 5 3 5 5 5 5 5 5 5 3 5 5 5 5 5 5 5 5 5 5 5 5 3 5 5 5 5 3 5 5 5 5 5 5 5 5 5 5 5 5 3 5 5 5 5 5 5 5 5 5 5 5 5 5 5 5 5 5 3 5 5 5 5 5 3 5 5 5 3 5 5 5 5 5 5 3 5 3 5 5 5 3 5 5 5 5 5 5 5 5 5 3 5 5 3 5 5 5 5 5 5 5 3 5 5 5 5 5 5 5 5 5 5 5 5 5 3 5 5 3 5 5 5 5 5 5 3 5 5 5 5 5 5 3 5 5 5 5 5 5 5 3 5 5 5 5 5 5 5 5 5 5 5 5 5 5 5 5 5 5 5 5 5 5 3 5 5 5 5 5 5 5 5 5 5 3 5 5 5 5 3 3 5 5 5 5 3 5 5 5 5 5 5 5 5 5 3 5 5 5 5 5 5 5 5 5 5 5 3 5 5 5 3 5 5 5 3 5 5 5 5 5 5 5 5 5 5 5 5 3 5 5 5 5 5 3 5 5 3 5 5 5 5 5 5 5 5 5 5 5 5 5 5 3 5 5 5 5 5 5 5 3 5 5 5 3 5 5 5 5 5 3 5 5 5 5 5 5 5 5 5 3 5 5 5 5 5 5 5 5 3 5 5 5 5 5 3 5 5 5 5 5 5 5 3 5 5 5 5 5 5 5 5 5 5 5 5 5 5 5 5 5 5 5 5 5 5 5 5 5 5 5 5 5 5 5 5 5 5 5 5 5 5 5 5 5 5 5 5 5 5 5 5 3 5 5 5 5 5 5 5 3 5 5 5 5 5 5 5 5 5 5 5 5 5 5 5 5 5 5 5 5 5 5 3 3 5 5 3 3 5 5 5 5 5 5 5 3 5 5 5 5 5 5 5 5 5 5 5 5 5 5 3 5 5 5 5 5 5 5 5 3 5 5 3 5 5 5 3 5 5 5 5 5 5 5 5 5 5 5 5 5 5 5 5 5 5 5 5 5 5 5 5 5 5 5 5 3 5 5 5 5 5 5 5 5 3 5 5 5 5 5 5 3 3 5 5 5 5 3 5 5 3 5 5 3 5 5 5 5 5 5 3 5 5 5 5 5 5 5 5 3 5 5 5 5 5 5 5 5 5 5 5 3 5 5 3 5 5 5 5 5 5 5 3 5 5 5 3 5 3 5 3 5 5 5 5 5 5 5 5 5 5 5 5 5 5 5 5 5 3 5 3 5 5 5 5 5 5 5 5 5 5 3 5 5 5 5 5 5 5 3 5 5 5 3 5 3 3 5 5 3 5 5 5 5 3 5 5 5 3 5 5 5 3 5 3 3 5 5 5 5 5 5 3 5 5 5 5 5 5 5 5 3 3 3 5 3 5 5 3 3 5 5 3 5 5 5 5 5 5 5 5 5 5 5 3 5 5 5 5 5 5 5 5 5 5 5 5 5 3 3 5 5 5 5 3 5 5 5 3 5 5 5 5 5 3 3 5 5 5 3 5 5 5 5 5 5 5 5 5 5 5 5 5 5 5 3 5 5 5 3 5 5 5 3 5 5 5 5 5 5 3 5 5 5 5 5 3 5 5 5 5 5 5 5 5 3 5 5 5 5 5 5 5 5 5 3 5 5 5 5 3 5 3 5 5 3 5 3 5 5 5 5 5 5 3 5 3 3 5 5 5 5 5 5 5 5 3 5 3 5 3 5 3 5 5 5 5 5 5 5 5 5 5 5 3 5 5 5 3 5 5 5 5 5 5 5 5 3 5 5 5 5 5 5 5 5 5 3 5 5 5 5 3 5 5 3 5 5 5 5 5 5 5 5 5 3 5 5 5 3 5 5 5 5 5 5 5 5 5 5 5 5 5 5 5 5 5 5 5 3 5 5 5 5 5 5 5 5 5 5 3 5 5 5 5 5 5 5 5 5 5 5 5 5 5 5 5 5 5 5 5 5 5 5 5 5 5 5 5 5 5 5 5 5 5 5 5 5 5 5 5 5 5 5 5 5 3 3 5 5 5 5 5 5 5 5 5 5 5 5 5 3 3 5 5 5 3 5 5 3 5 5 5 3 5 5 5 3 5 5 5 5 5 5 5 5 3 5 5 3 5 3 3 5 5 5 5 5 5 3 5 3 3 3 5 5 3 5 5 3 3 5 5 5 5 5 5 5 5 5 5 5 5 5 5 5 5 5 5 5 5 5 3 5 5 5 5 5 5 5 5 5 3 5 5 5 5 5 5 5 3 3 5 5 5 5 5 5 5 5 5 5 5 5 5 5 5 5 5 5 5 5 5 5 5 3 5 3 5 5 5 5 5 5 5 3 5 5 5 3 3 5 5 3 5 5 5 5 3 5 5 5 3 5 5 5 3 5 5 5 5 5 5 5 5 5 3 3 5 5 5 5 5 3 5 5 3 3 3 5 5 5 5 5 3 5 5 5 5 5 5 5 5 5 3 5 3 5 5 5 5 5 5 5 5 5 5 5 5 5 5 5 5 5 5 5 5 5 5 5 5 3 5 5 5 5 3 3 5 5 5 3 5 5 5 5 5 5 5 5 5 5 5 5 5 5 5 5 3 5 5 5 3 5 5 3 5 5 5 5 5 5 5 5 5 5 5 5 5 3 5 5 3 5 5 5 3 5 3 5 3 5 3 3 3 5 5 5 5 5 5 5 5 3 5 5 5 5 5 5 5 5 3 5 5 3 5 5 5 5 5 5 5 5 5 5 5 5 5 5 5 5 5 5 5 5 5 3 5 5 5 5 5 5 5 5 5 5 3 5 3 5 5 3 5 3 5 3 5 5 3 5 3 5 5 3 5 5 5 3 5 5 5 5 5 5 5 5 5 5 5 5 5 5 5 5 5 5 5 5 5 5 5 5 5 5 5 5 5 5 5 5 5 5 5 5 5 5 5 5 5 5 5 5 5 5 5 5 5 5 5 5 5 5 5 5 5 5 5 5 5 3 5 5 3 5 5 5 5 5 5 3 3 5 5 5 5 5 5 5 5 5 5 5 5 5 5 5 5 5 5 3 5 5 5 3 5 5 5 5 5 5 5 5 5 5 5 5 5 5 5 5 3 5 5 5 5 5 5 5 3 5 5 5 5 5 5 5 5 3 5 3 5 5 5 5 5 5 5 5 5 5 5 5 5 5 5 5 3 5 5 5 5 5 5 5 3 5 5 5 5 3 5 5 5 5 5 5 5 3 5 5 3 3 5 5 3 5 5 5 5 5 5 3 5 5 5 5 5 5 5 5 5 3 5 5 3 5 5 3 5 5 3 5 5 5 5 5 3 5 5 5 5 5 5 5 5 3 5 5 5 5 5 5 5 3 5 5 5 5 5 5 5 5 5 5 5 5 3 5 5 5 5 5 5 5 3 3 5 3 5 3 5 5 5 5 5 5 5 5 5 5 5 5 5 5 5 3 5 3 5 5 5 5 5 5 5 5 3 5 3 5 3 5 3 5 3 5 5 3 5 5 5 5 5 3 5 5 5 5 5 5 5 5 3 5 5 5 5 5 3 5 5 3 5 3 3 5 5 5 5 5 5 5 5 3 5 5 5 5 5 5 5 5 5 5 5 5 5 3 5 5 5 5 5 5 5 3 5 5 5 3 5 5 5 5 5 5 5 5 5 5 5 5 5 5 5 5 5 3 5 5 5 5 5 5 5 3 5 5 3 5 5 5 5 5 5 5 5 5 5 5 5 5 5 5 3 5 5 5 5 3 5 5 5 5 5 5 5 5 5 5 5 5 5 5 5 5 5 5 5 5 5 5 5 5 5 3 5 5 5 5 5 5 3 5 5 5 5 5 5 5 5 5 3 3 5 5 5 3 5 3 5 5 5 5 5 5 5 5 5 5 5 5 5 5 5 3 5 5 5 5 5 5 5 5 5 5 5 5 3 3 5 5 5 5 5 5 5 5 3 5 5 3 5 5 3 3 5 5 5 5 5 5 5 3 5 5 5 5 5 5 5 5 5 3 5 5 5 3 5 5 5 5 5 3 5 5 5 5 5 5 5 5 5 5 5 5 3 5 5 5 3 5 5 5 3 5 5 5 5 5 5 5 5 5 5 5 5 5 5 5 5 5 5 5 5 5 5 5 5 5 5 5 5 5 5 5 5 3 5 5 5 5 5 5 5 5 5 5 5 5 5 5 5 5 5 5 5 5 5 5 5 5 3 5 3 5 5 3 5 5 5 5 5 5 5 5 5 3 5 5 5 5 5 5 5 5 5 5 5 5 5 5 3 5 5 5 5 3 5 5 5 3 5 5 5 5 5 5 5 5 5 5 5 5 5 5 5 5 5 5 5 5 5 5 5 5 5 5 5 5 5 5 5 5 5 5 5 5 5 5 5 5 5 5 5 5 5 5 5 5 5 5 5 5 5 5 5 5 5 5 5 5 5 5 5 5 5 5 5 5 5 5 5 5 5 5 5 5 5 5 5 5 5 5 5 5 5 5 5 5 5 5 5 5 5 5 5 5 5 5 5 5 5 5 5 5 5 5 5 5 5 5 5 5 5 5 5 5 5 5 5 5 5 5 5 5 5 5 5 5 5 5 5 5 5 5 5 5 5 5 5 5 5 5 5 5 5 5 5 5 5 5 5 5 5 5 5 5 5 5 5 5 5 5 5 5 5 5 5 5 5 5 5 5 5 5 5 5 5 5 5 5 5 5 5 5 5 5 5 5 5 3 5 5 5 5 5 5 5 5 5 5 5 5 5 5 5 5 3 5 5 5 5 5 5 5 5 3 5 5 5 5 3 5 5 5 5 5 5 5 5 5 5 5 5 5 5 5 5 5 5 5 5 5 5 3 5 5 5 5 5 5 5 5 5 5 5 5 5 3 3 5 5 5 5 5 3 5 3 5 5 5 5 5 5 5 5 5 5 5 3 5 5 5 5 5 5 5 3 5 5 5 5 5 5 5 5 5 5 5 5 5 5 5 3 3 5 5 5 5 5 5 5 5 5 5 5 5 3 5 5 5 5 5 5 5 5 5 5 5 5 5 5 5 5 3 5 5 5 5 5 5 5 3 5 5 5 5 5 5 5 5 5 5 3 3 5 5 5 5 5 5 5 5 5 5 5 5 5 5 5 5 5 5 5 5 5 5 5 5 5 5 5 5 5 5 3 5 5 5 5 5 3 5 5 5 5 5 5 5 5 5 5 3 5 5 5 5 3 5 5 5 5 5 5 5 5 5 5 3 5 3 5 5 5 5 5 5 5 5 5 5 5 5 5 5 5 5 5 5 5 5 5 5 5 5 5 5 5 5 5 5 5 3 5 5 5 5 5 3 5 5 5 5 5 5 5 5 5 5 5 5 5 5 5 5 5 5 3 5 5 3 5 5 5 3 5 5 5 5 5 3 5 5 5 5 5 5 5 5 5 5 3 5 5 5 5 5 5 3 5 5 5 5 5 3 3 5 5 3 5 5 3 5 5 5 5 5 5 5 5 5 5 3 5 5 3 5 5 3 5 5 3 5 5 3 5 5 3 5 5 5 5 5 5 3 5 5 5 5 5 5 5 5 5 5 5 3 5 5 5 5 5 5 5 3 5 5 5 5 3 5 5 5 3 5 5 5 5 5 5 5 5 5 5 5 3 5 5 5 5 5 5 5 5 5 5 5 5 5 5 5 5 5 5 5 5 5 5 5 5 3 5 5 5 5 5 3 5 5 5 5 5 5 5 5 5 5 5 5 5 5 3 5 5 3 5 3 5 5 5 5 3 5 3 3 5 3 5 5 5 5 5 5 5 3 5 3 5 5 5 5 5 5 3 5 5 5 5 5 5 3 5 5 5 5 3 5 5 5 5 5 3 5 5 3 5 5 5 5 3 5 5 5 5 3 5 5 5 5 5 5 3 5 5 5 5 5 5 5 5 5 3 5 5 5 5 5 5 3 5 5 5 5 3 5 5 5 5 5 5 5 5 5 5 5 5 5 5 5 5 3 5 5 5 3 5 5 3 5 5 5 5 5 5 5 5 5 5 5 5 5 5 5 5 3 5 3 5 5 5 5 5 5 5 5 5 5 5 5 5 5 5 5 5 5 5 5 5 5 5 5 5 5 3 5 5 3 5 5 5 5 5 5 5 5 5 5 3 5 5 5 5 3 5 5 5 5 3 5 5 5 5 5 5 5 5 5 3 5 5 5 5 5 5 5 5 5 5 5 5 5 5 5 5 5 5 5 5 5 5 5 5 5 5 5 5 
</DataArray>
</Cells>
<PointData Scalars="" Vectors="displacement," Tensors="">
<DataArray type="Float64" Name="displacement" NumberOfComponents="3" format="ascii">
-0.084993867820572278 -0.084995213616563633 0 -0.079243739639403371 -0.083484581655494675 0 -0.07165081121618172 -0.084988673961374508 0 -0.084993867820572278 -0.084995213616563633 0 -0.083644124291893621 -0.081900458194886588 0 -0.079243739639403371 -0.083484581655494675 0 -0.084993867820572278 -0.084995213616563633 0 -0.083644124291893621 -0.081900458194886588 0 -0.084995238180725671 -0.076270012409588195 0 -0.083644124291893621 -0.081900458194886588 0 -0.084995238180725671 -0.076270012409588195 0 -0.084159411009746166 -0.080717385899116575 0 -0.084995238180725671 -0.076270012409588195 0 -0.084159411009746166 -0.080717385899116575 0 -0.085270542669556942 -0.074703004461923267 0 -0.082455953540809326 -0.082993939399519295 0 -0.082131456258891664 -0.083663593815775303 0 -0.084159411009746166 -0.080717385899116575 0 -0.091443871509210115 -0.08145546160569804 0 -0.092013295988898944 -0.07782437095034335 0 -0.084159411009746166 -0.080717385899116575 0 -0.092013295988898944 -0.07782437095034335 0 -0.088959893699951859 -0.075029854593578305 0 -0.083644124291893621 -0.081900458194886588 0 -0.084159411009746166 -0.080717385899116575 0 -0.079243739639403371 -0.083484581655494675 0 -0.084159411009746166 -0.080717385899116575 0 -0.079243739639403371 -0.083484581655494675 0 -0.077337084406514281 -0.084949832991482593 0 -0.079243739639403371 -0.083484581655494675 0 -0.073748737533838912 -0.084092008564473505 0 -0.077337084406514281 -0.084949832991482593 0 -0.079243739639403371 -0.083484581655494675 0 -0.07165081121618172 -0.084988673961374508 0 -0.073748737533838912 -0.084092008564473505 0 -0.071625052020760485 -0.084999990016826996 0 -0.069816751809648039 -0.088206184443205243 0 -0.066960672877019234 -0.084999986308985254 0 -0.071627577615242605 -0.085001091362968337 0 -0.072785242103966682 -0.085419043320306559 0 -0.066960672877019234 -0.084999986308985254 0 -0.066269928502093386 -0.08862235148961399 0 -0.063126702343396859 -0.087663742827990401 0 -0.066960672877019234 -0.084999986308985254 0 -0.062296254409787893 -0.08499998387239599 0 -0.063126702343396859 -0.087663742827990401 0 -0.069816751809648039 -0.088206184443205243 0 -0.066960672877019234 -0.084999986308985254 0 -0.066269928502093386 -0.08862235148961399 0 -0.069816751809648039 -0.088206184443205243 0 -0.066269928502093386 -0.08862235148961399 0 -0.068022716893846868 -0.091404112486975067 0 -0.072785242103966682 -0.085419043320306559 0 -0.075284017180302282 -0.083944297968943676 0 -0.066269928502093386 -0.08862235148961399 0 -0.064032937422715624 -0.09053136640551615 0 -0.068022716893846868 -0.091404112486975067 0 -0.066269928502093386 -0.08862235148961399 0 -0.064032937422715624 -0.09053136640551615 0 -0.063126702343396859 -0.087663742827990401 0 -0.064546063398127879 -0.086094656857561874 0 -0.075284017180302282 -0.083944297968943676 0 -0.059199879489479204 -0.089835106773394457 0 -0.059038930640760136 -0.089783550004183824 0 -0.05892898501527799 -0.089835941712932063 0 -0.059199879489479204 -0.089835106773394457 0 -0.059038930640760136 -0.089783550004183824 0 -0.059063046064829837 -0.089814638401783081 0 -0.059038930640760136 -0.089783550004183824 0 -0.05892898501527799 -0.089835941712932063 0 -0.058955557788181089 -0.089647170269512078 0 -0.096548027379274579 -0.081866391222890397 0 -0.09799712982656103 -0.078468136002371555 0 -0.0947734116001165 -0.079440023843660834 0 -0.075284017180302282 -0.083944297968943676 0 -0.075997989807172733 -0.082522151596299304 0 -0.09799712982656103 -0.078468136002371555 0 -0.0947734116001165 -0.079440023843660834 0 -0.09581236777837808 -0.077262511629943201 0 -0.058955557788181089 -0.089647170269512078 0 -0.059063046064829837 -0.089814638401783081 0 -0.059067128772644147 -0.08964042108037383 0 -0.059038930640760136 -0.089783550004183824 0 -0.058955557788181089 -0.089647170269512078 0 -0.059063046064829837 -0.089814638401783081 0 -0.096548027379274579 -0.081866391222890397 0 -0.091443871509210115 -0.08145546160569804 0 -0.0947734116001165 -0.079440023843660834 0 -0.075284017180302282 -0.083944297968943676 0 -0.082131456258891664 -0.083663593815775303 0 -0.073748737533838912 -0.084092008564473505 0 -0.073378637124622309 -0.085362628527300158 0 -0.077337084406514281 -0.084949832991482593 0 -0.0947734116001165 -0.079440023843660834 0 -0.092013295988898944 -0.07782437095034335 0 -0.094241658143462997 -0.077540442743586152 0 -0.0947734116001165 -0.079440023843660834 0 -0.094241658143462997 -0.077540442743586152 0 -0.09581236777837808 -0.077262511629943201 0 -0.091443871509210115 -0.08145546160569804 0 -0.0947734116001165 -0.079440023843660834 0 -0.092013295988898944 -0.07782437095034335 0 -0.092013295988898944 -0.07782437095034335 0 -0.091933927361177364 -0.07543733983925624 0 -0.088959893699951859 -0.075029854593578305 0 -0.091933927361177364 -0.07543733983925624 0 -0.091413179380715762 -0.073197841384046544 0 -0.088959893699951859 -0.075029854593578305 0 -0.091933927361177364 -0.07543733983925624 0 -0.093098920964010401 -0.075429965071924579 0 -0.092979812159809147 -0.074330722336961502 0 -0.091933927361177364 -0.07543733983925624 0 -0.093367143306982397 -0.076414046931337617 0 -0.093098920964010401 -0.075429965071924579 0 -0.092013295988898944 -0.07782437095034335 0 -0.091933927361177364 -0.07543733983925624 0 -0.093367143306982397 -0.076414046931337617 0 -0.092013295988898944 -0.07782437095034335 0 -0.094241658143462997 -0.077540442743586152 0 -0.093367143306982397 -0.076414046931337617 0 -0.094241658143462997 -0.077540442743586152 0 -0.093367143306982397 -0.076414046931337617 0 -0.094573224492758817 -0.07622174470001257 0 -0.094241658143462997 -0.077540442743586152 0 -0.094573224492758817 -0.07622174470001257 0 -0.09581236777837808 -0.077262511629943201 0 -0.094573224492758817 -0.07622174470001257 0 -0.09581236777837808 -0.077262511629943201 0 -0.095788760619069921 -0.075808782062994642 0 -0.091463545694156781 -0.071224947800763064 0 -0.091414503412403425 -0.070648226839229555 0 -0.094573224492758817 -0.07622174470001257 0 -0.094117019231356069 -0.075540629209915999 0 -0.094991276286391479 -0.074037448194877675 0 -0.094573224492758817 -0.07622174470001257 0 -0.09486145624192055 -0.075216783111655458 0 -0.095788760619069921 -0.075808782062994642 0 -0.091404833013238318 -0.070869318386715466 0 -0.091414503412403425 -0.070648226839229555 0 -0.094117019231356069 -0.075540629209915999 0 -0.092979812159809147 -0.074330722336961502 0 -0.09484297850568274 -0.074167760424658336 0 -0.093367143306982397 -0.076414046931337617 0 -0.093098920964010401 -0.075429965071924579 0 -0.094117019231356069 -0.075540629209915999 0 -0.093367143306982397 -0.076414046931337617 0 -0.094573224492758817 -0.07622174470001257 0 -0.094117019231356069 -0.075540629209915999 0 -0.093098920964010401 -0.075429965071924579 0 -0.094117019231356069 -0.075540629209915999 0 -0.092979812159809147 -0.074330722336961502 0 -0.092979812159809147 -0.074330722336961502 0 -0.09484297850568274 -0.074167760424658336 0 -0.093238349459527636 -0.072227659982906062 0 -0.091414503412403425 -0.070648226839229555 0 -0.091983245695743454 -0.06760282918717786 0 -0.09484297850568274 -0.074167760424658336 0 -0.093238349459527636 -0.072227659982906062 0 -0.095370581463460599 -0.069920396973478099 0 -0.093238349459527636 -0.072227659982906062 0 -0.091413179380715762 -0.073197841384046544 0 -0.091630269565635913 -0.069626277466878952 0 -0.091413179380715762 -0.073197841384046544 0 -0.091630269565635913 -0.069626277466878952 0 -0.088999450011907094 -0.072472025291931058 0 -0.092979812159809147 -0.074330722336961502 0 -0.093238349459527636 -0.072227659982906062 0 -0.091413179380715762 -0.073197841384046544 0 -0.091933927361177364 -0.07543733983925624 0 -0.092979812159809147 -0.074330722336961502 0 -0.091413179380715762 -0.073197841384046544 0 -0.09799712982656103 -0.078468136002371555 0 -0.098955040001935279 -0.075672355800521063 0 -0.09715469147562765 -0.076044065303972452 0 -0.058955557788181089 -0.089647170269512078 0 -0.058976487980614577 -0.089329431851243798 0 -0.059067128772644147 -0.08964042108037383 0 -0.075997989807172733 -0.082522151596299304 0 -0.075937069926790418 -0.079959251618359886 0 -0.098955040001935279 -0.075672355800521063 0 -0.09715469147562765 -0.076044065303972452 0 -0.097767229980544754 -0.074879669041850158 0 -0.09799712982656103 -0.078468136002371555 0 -0.09715469147562765 -0.076044065303972452 0 -0.09581236777837808 -0.077262511629943201 0 -0.09715469147562765 -0.076044065303972452 0 -0.09581236777837808 -0.077262511629943201 0 -0.095788760619069921 -0.075808782062994642 0 -0.09486145624192055 -0.075216783111655458 0 -0.096557640049099253 -0.074461898588388475 0 -0.096497645148531708 -0.072721358719388007 0 -0.091414503412403425 -0.070648226839229555 0 -0.090865081137984388 -0.067731066591386641 0 -0.09715469147562765 -0.076044065303972452 0 -0.095788760619069921 -0.075808782062994642 0 -0.096557640049099253 -0.074461898588388475 0 -0.09486145624192055 -0.075216783111655458 0 -0.095788760619069921 -0.075808782062994642 0 -0.096557640049099253 -0.074461898588388475 0 -0.09715469147562765 -0.076044065303972452 0 -0.096557640049099253 -0.074461898588388475 0 -0.097767229980544754 -0.074879669041850158 0 -0.096557640049099253 -0.074461898588388475 0 -0.097767229980544754 -0.074879669041850158 0 -0.098389657212895901 -0.073378327629167281 0 -0.098955040001935279 -0.075672355800521063 0 -0.098389657212895901 -0.073378327629167281 0 -0.10002484272725298 -0.073340253382322099 0 -0.098955040001935279 -0.075672355800521063 0 -0.097767229980544754 -0.074879669041850158 0 -0.098389657212895901 -0.073378327629167281 0 -0.098389657212895901 -0.073378327629167281 0 -0.097895889058440516 -0.072198062624395778 0 -0.096497645148531708 -0.072721358719388007 0 -0.098389657212895901 -0.073378327629167281 0 -0.097895889058440516 -0.072198062624395778 0 -0.098868711866076903 -0.072078830874965263 0 -0.096557640049099253 -0.074461898588388475 0 -0.098389657212895901 -0.073378327629167281 0 -0.096497645148531708 -0.072721358719388007 0 -0.090865081137984388 -0.067731066591386641 0 -0.088798272739721379 -0.063186061684949904 0 -0.09153267025795632 -0.066602218402794733 0 -0.090830352552588978 -0.064058746464317209 0 -0.092950709410503055 -0.064087676008705768 0 -0.09153267025795632 -0.066602218402794733 0 -0.090830352552588978 -0.064058746464317209 0 -0.090468334984865589 -0.066588333217817583 0 -0.092277845028461716 -0.063295665680549951 0 -0.088798272739721379 -0.063186061684949904 0 -0.097797176049397999 -0.070668739454802232 0 -0.098868711866076903 -0.072078830874965263 0 -0.099322011701126714 -0.070756417233020993 0 -0.097895889058440516 -0.072198062624395778 0 -0.097797176049397999 -0.070668739454802232 0 -0.098868711866076903 -0.072078830874965263 0 -0.088798272739721379 -0.063186061684949904 0 -0.084046894651033613 -0.064783155571182124 0 -0.097895889058440516 -0.072198062624395778 0 -0.096497645148531708 -0.072721358719388007 0 -0.097797176049397999 -0.070668739454802232 0 -0.090110164069357984 -0.069128438641959972 0 -0.09153267025795632 -0.066602218402794733 0 -0.090468334984865589 -0.066588333217817583 0 -0.093238349459527636 -0.072227659982906062 0 -0.091630269565635913 -0.069626277466878952 0 -0.095370581463460599 -0.069920396973478099 0 -0.095944661375210183 -0.065815812594006151 0 -0.091630269565635913 -0.069626277466878952 0 -0.095370581463460599 -0.069920396973478099 0 -0.092277845028461716 -0.063295665680549951 0 -0.091983245695743454 -0.06760282918717786 0 -0.095944661375210183 -0.065815812594006151 0 -0.091630269565635913 -0.069626277466878952 0 -0.090437618300249975 -0.065761653835326561 0 -0.091630269565635913 -0.069626277466878952 0 -0.088428097487816798 -0.069090647128290966 0 -0.090437618300249975 -0.065761653835326561 0 -0.088428097487816798 -0.069090647128290966 0 -0.084990483188076532 -0.065691894736656403 0 -0.090437618300249975 -0.065761653835326561 0 -0.091630269565635913 -0.069626277466878952 0 -0.088428097487816798 -0.069090647128290966 0 -0.088999450011907094 -0.072472025291931058 0 -0.088428097487816798 -0.069090647128290966 0 -0.086441855303374074 -0.071073527351171908 0 -0.088999450011907094 -0.072472025291931058 0 -0.087514232438686793 -0.071227102966980024 0 -0.086454706308531068 -0.068423398780632846 0 -0.086402469208204866 -0.071956535096521612 0 -0.092047289401017668 -0.068514457096475773 0 -0.091391388872628779 -0.066082966071494928 0 -0.088561225308391625 -0.066640947428817945 0 -0.089087816759076427 -0.067610055117436882 0 -0.087154793126885524 -0.066457129369799431 0 -0.089087816759076427 -0.067610055117436882 0 -0.089089870168188992 -0.067644518863561653 0 -0.089087816759076427 -0.067610055117436882 0 -0.089097613598483338 -0.066226005380366507 0 -0.088428097487816798 -0.069090647128290966 0 -0.086441855303374074 -0.071073527351171908 0 -0.08571683293370265 -0.068381685119005442 0 -0.088428097487816798 -0.069090647128290966 0 -0.08571683293370265 -0.068381685119005442 0 -0.084990483188076532 -0.065691894736656403 0 -0.089097613598483338 -0.066226005380366507 0 -0.08906839746178187 -0.064111088099234756 0 -0.091391388872628779 -0.066082966071494928 0 -0.089743344886152265 -0.065201657524362966 0 -0.090734808395551189 -0.063633266652022027 0 -0.089743344886152265 -0.065201657524362966 0 -0.088561225308391625 -0.066640947428817945 0 -0.088801051133876999 -0.063594318041733988 0 -0.088561225308391625 -0.066640947428817945 0 -0.086723635099210813 -0.063306205959531542 0 -0.088801051133876999 -0.063594318041733988 0 -0.089743344886152265 -0.065201657524362966 0 -0.088801051133876999 -0.063594318041733988 0 -0.090734808395551189 -0.063633266652022027 0 -0.091391388872628779 -0.066082966071494928 0 -0.089743344886152265 -0.065201657524362966 0 -0.088561225308391625 -0.066640947428817945 0 -0.085001606058522305 -0.064763112795693037 0 -0.087154793126885524 -0.066457129369799431 0 -0.085000007885837323 -0.064760914303903946 0 -0.088561225308391625 -0.066640947428817945 0 -0.086723635099210813 -0.063306205959531542 0 -0.08499971747120004 -0.064763920973317957 0 -0.086454706308531068 -0.068423398780632846 0 -0.084997891542963749 -0.069697772766550495 0 -0.086454706308531068 -0.068423398780632846 0 -0.086402469208204866 -0.071956535096521612 0 -0.084997891542963749 -0.069697772766550495 0 -0.086402469208204866 -0.071956535096521612 0 -0.084997891542963749 -0.069697772766550495 0 -0.085270542669556942 -0.074703004461923267 0 -0.084995238180725671 -0.076270012409588195 0 -0.084997891542963749 -0.069697772766550495 0 -0.085270542669556942 -0.074703004461923267 0 -0.086402469208204866 -0.071956535096521612 0 -0.085270542669556942 -0.074703004461923267 0 -0.086244106670604281 -0.074900210193363556 0 -0.084159411009746166 -0.080717385899116575 0 -0.085270542669556942 -0.074703004461923267 0 -0.086244106670604281 -0.074900210193363556 0 -0.084159411009746166 -0.080717385899116575 0 -0.086244106670604281 -0.074900210193363556 0 -0.088959893699951859 -0.075029854593578305 0 -0.086244106670604281 -0.074900210193363556 0 -0.088959893699951859 -0.075029854593578305 0 -0.087526229354082885 -0.073123393964944328 0 -0.088959893699951859 -0.075029854593578305 0 -0.088999450011907094 -0.072472025291931058 0 -0.087526229354082885 -0.073123393964944328 0 -0.091413179380715762 -0.073197841384046544 0 -0.088959893699951859 -0.075029854593578305 0 -0.088999450011907094 -0.072472025291931058 0 -0.087423339855725118 -0.071244022312127647 0 -0.088999450011907094 -0.072472025291931058 0 -0.087494320317238181 -0.071579221047725225 0 -0.088999450011907094 -0.072472025291931058 0 -0.087494320317238181 -0.071579221047725225 0 -0.087526229354082885 -0.073123393964944328 0 -0.089087816759076427 -0.067610055117436882 0 -0.089261907535835169 -0.068172010298846078 0 -0.086402469208204866 -0.071956535096521612 0 -0.087494320317238181 -0.071579221047725225 0 -0.087526229354082885 -0.073123393964944328 0 -0.087514232438686793 -0.071227102966980024 0 -0.086402469208204866 -0.071956535096521612 0 -0.087494320317238181 -0.071579221047725225 0 -0.086402469208204866 -0.071956535096521612 0 -0.086244106670604281 -0.074900210193363556 0 -0.087526229354082885 -0.073123393964944328 0 -0.036303007175029843 -0.089159652470297016 0 -0.032429740869276899 -0.084493412556557942 0 -0.042770844800092203 -0.09178675077249196 0 -0.042540667038715479 -0.096983053922544527 0 -0.039784202186459228 -0.093015068364366529 0 -0.046708119014275885 -0.09296901717432271 0 -0.043494175972038661 -0.091903457888065629 0 -0.043219247979851376 -0.095527332643585719 0 -0.046708119014275885 -0.09296901717432271 0 -0.04653220300537235 -0.09612085260700011 0 -0.043219247979851376 -0.095527332643585719 0 -0.046708119014275885 -0.09296901717432271 0 -0.049636288765372745 -0.094331692373599701 0 -0.04653220300537235 -0.09612085260700011 0 -0.046708119014275885 -0.09296901717432271 0 -0.045486540174087688 -0.090174957241342849 0 -0.04803116839099271 -0.089858022269364249 0 -0.046708119014275885 -0.09296901717432271 0 -0.045486540174087688 -0.090174957241342849 0 -0.043494175972038661 -0.091903457888065629 0 -0.036303007175029843 -0.089159652470297016 0 -0.037566838719269961 -0.088958926679561359 0 -0.045486540174087688 -0.090174957241342849 0 -0.043494175972038661 -0.091903457888065629 0 -0.043575310428705646 -0.088109566463169725 0 -0.042770844800092203 -0.09178675077249196 0 -0.043575310428705646 -0.088109566463169725 0 -0.039210235027717283 -0.089010366155604856 0 -0.043575310428705646 -0.088109566463169725 0 -0.043638192859842904 -0.084999241225037131 0 -0.046506726279947695 -0.087481975489295552 0 -0.043575310428705646 -0.088109566463169725 0 -0.043638192859842904 -0.084999241225037131 0 -0.040779969167082861 -0.086642036348067428 0 -0.043638192859842904 -0.084999241225037131 0 -0.046506726279947695 -0.087481975489295552 0 -0.048302879002835537 -0.084999895364881894 0 -0.045486540174087688 -0.090174957241342849 0 -0.043575310428705646 -0.088109566463169725 0 -0.046506726279947695 -0.087481975489295552 0 -0.045486540174087688 -0.090174957241342849 0 -0.046506726279947695 -0.087481975489295552 0 -0.04803116839099271 -0.089858022269364249 0 -0.04803116839099271 -0.089858022269364249 0 -0.049560177657159539 -0.08722485017245489 0 -0.050640431454026261 -0.089460247324548325 0 -0.046506726279947695 -0.087481975489295552 0 -0.04803116839099271 -0.089858022269364249 0 -0.049560177657159539 -0.08722485017245489 0 -0.048302879002835537 -0.084999895364881894 0 -0.049560177657159539 -0.08722485017245489 0 -0.052967236301597567 -0.084999858907074316 0 -0.046506726279947695 -0.087481975489295552 0 -0.048302879002835537 -0.084999895364881894 0 -0.049560177657159539 -0.08722485017245489 0 -0.049560177657159539 -0.08722485017245489 0 -0.052967236301597567 -0.084999858907074316 0 -0.051953433542834153 -0.0877289445165748 0 -0.051953433542834153 -0.0877289445165748 0 -0.050640431454026261 -0.089460247324548325 0 -0.053336124873002662 -0.089356661897065648 0 -0.049560177657159539 -0.08722485017245489 0 -0.051953433542834153 -0.0877289445165748 0 -0.050640431454026261 -0.089460247324548325 0 -0.050640431454026261 -0.089460247324548325 0 -0.051967139910748986 -0.091110767494797518 0 -0.053336124873002662 -0.089356661897065648 0 -0.051967139910748986 -0.091110767494797518 0 -0.051437392776564062 -0.093312423031983338 0 -0.053156022214909227 -0.092462403271022606 0 -0.051967139910748986 -0.091110767494797518 0 -0.049684884538978319 -0.091824502683621953 0 -0.051437392776564062 -0.093312423031983338 0 -0.050640431454026261 -0.089460247324548325 0 -0.051967139910748986 -0.091110767494797518 0 -0.049684884538978319 -0.091824502683621953 0 -0.046708119014275885 -0.09296901717432271 0 -0.04803116839099271 -0.089858022269364249 0 -0.049684884538978319 -0.091824502683621953 0 -0.04803116839099271 -0.089858022269364249 0 -0.050640431454026261 -0.089460247324548325 0 -0.049684884538978319 -0.091824502683621953 0 -0.046708119014275885 -0.09296901717432271 0 -0.049684884538978319 -0.091824502683621953 0 -0.049636288765372745 -0.094331692373599701 0 -0.049684884538978319 -0.091824502683621953 0 -0.049636288765372745 -0.094331692373599701 0 -0.051437392776564062 -0.093312423031983338 0 -0.049636288765372745 -0.094331692373599701 0 -0.051437392776564062 -0.093312423031983338 0 -0.051538147914079922 -0.095283965901465137 0 -0.051437392776564062 -0.093312423031983338 0 -0.053873690727152972 -0.09445759505629181 0 -0.051538147914079922 -0.095283965901465137 0 -0.051437392776564062 -0.093312423031983338 0 -0.053156022214909227 -0.092462403271022606 0 -0.053873690727152972 -0.09445759505629181 0 -0.048773014516892338 -0.088181061326989121 0 -0.049312958476290546 -0.089055284533319401 0 -0.053967618245526122 -0.09411608477420727 0 -0.056460184271052781 -0.094288679628873884 0 -0.055095389048358069 -0.091669102712151354 0 -0.053156022214909227 -0.092462403271022606 0 -0.053873690727152972 -0.09445759505629181 0 -0.055095389048358069 -0.091669102712151354 0 -0.056364628106383298 -0.092641469672175805 0 -0.056625447708248171 -0.091603806750116049 0 -0.055459481868141522 -0.08976871376303007 0 -0.054853526331796125 -0.086472354789471656 0 -0.055916962028048751 -0.087542565311322887 0 -0.056364628106383298 -0.092641469672175805 0 -0.056625447708248171 -0.091603806750116049 0 -0.057739417618039614 -0.091445573230218138 0 -0.056625447708248171 -0.091603806750116049 0 -0.055459481868141522 -0.08976871376303007 0 -0.056298508270868949 -0.090205934063639054 0 -0.054853526331796125 -0.086472354789471656 0 -0.055578046610333665 -0.089747611493853158 0 -0.056460184271052781 -0.094288679628873884 0 -0.055459481868141522 -0.08976871376303007 0 -0.055095389048358069 -0.091669102712151354 0 -0.056625447708248171 -0.091603806750116049 0 -0.056792267178862564 -0.090694295933604452 0 -0.057351849038108457 -0.090802842086908878 0 -0.056625447708248171 -0.091603806750116049 0 -0.056792267178862564 -0.090694295933604452 0 -0.056298508270868949 -0.090205934063639054 0 -0.056792267178862564 -0.090694295933604452 0 -0.057058683930074676 -0.090076784284798553 0 -0.057351849038108457 -0.090802842086908878 0 -0.056792267178862564 -0.090694295933604452 0 -0.057058683930074676 -0.090076784284798553 0 -0.056298508270868949 -0.090205934063639054 0 -0.055459481868141522 -0.08976871376303007 0 -0.053809100530764729 -0.090863891808831004 0 -0.053336124873002662 -0.089356661897065648 0 -0.055459481868141522 -0.08976871376303007 0 -0.055095389048358069 -0.091669102712151354 0 -0.053809100530764729 -0.090863891808831004 0 -0.051967139910748986 -0.091110767494797518 0 -0.053156022214909227 -0.092462403271022606 0 -0.053809100530764729 -0.090863891808831004 0 -0.053156022214909227 -0.092462403271022606 0 -0.055095389048358069 -0.091669102712151354 0 -0.053809100530764729 -0.090863891808831004 0 -0.051967139910748986 -0.091110767494797518 0 -0.053809100530764729 -0.090863891808831004 0 -0.053336124873002662 -0.089356661897065648 0 -0.051953433542834153 -0.0877289445165748 0 -0.053336124873002662 -0.089356661897065648 0 -0.055580157384939474 -0.088553076932941427 0 -0.054769689375329111 -0.087317151010055175 0 -0.056538236150191525 -0.087444469897527383 0 -0.051953433542834153 -0.0877289445165748 0 -0.054331853488920237 -0.087028626130220402 0 -0.056029800343350665 -0.088764966042088889 0 -0.055459481868141522 -0.08976871376303007 0 -0.053336124873002662 -0.089356661897065648 0 -0.055580157384939474 -0.088553076932941427 0 -0.052967236301597567 -0.084999858907074316 0 -0.057631836347123634 -0.084999974317856525 0 -0.056016204211475455 -0.086579763455000264 0 -0.052967236301597567 -0.084999858907074316 0 -0.054331853488920237 -0.087028626130220402 0 -0.056016204211475455 -0.086579763455000264 0 -0.052967236301597567 -0.084999858907074316 0 -0.051953433542834153 -0.0877289445165748 0 -0.054331853488920237 -0.087028626130220402 0 -0.054331853488920237 -0.087028626130220402 0 -0.056016204211475455 -0.086579763455000264 0 -0.056029800343350665 -0.088764966042088889 0 -0.056016204211475455 -0.086579763455000264 0 -0.056029800343350665 -0.088764966042088889 0 -0.059155026668178345 -0.087177302551847344 0 -0.057631836347123634 -0.084999974317856525 0 -0.056016204211475455 -0.086579763455000264 0 -0.059155026668178345 -0.087177302551847344 0 -0.056538236150191525 -0.087444469897527383 0 -0.059870929068407047 -0.087228631426673336 0 -0.056029800343350665 -0.088764966042088889 0 -0.060036432258734874 -0.089654752680961028 0 -0.059155026668178345 -0.087177302551847344 0 -0.057058683930074676 -0.090076784284798553 0 -0.055580157384939474 -0.088553076932941427 0 -0.058288130380381095 -0.089317994924910354 0 -0.055459481868141522 -0.08976871376303007 0 -0.056298508270868949 -0.090205934063639054 0 -0.055580157384939474 -0.088553076932941427 0 -0.057058683930074676 -0.090076784284798553 0 -0.056298508270868949 -0.090205934063639054 0 -0.055580157384939474 -0.088553076932941427 0 -0.060036432258734874 -0.089654752680961028 0 -0.059155026668178345 -0.087177302551847344 0 -0.063126702343396859 -0.087663742827990401 0 -0.057631836347123634 -0.084999974317856525 0 -0.059155026668178345 -0.087177302551847344 0 -0.062296254409787893 -0.08499998387239599 0 -0.059155026668178345 -0.087177302551847344 0 -0.062296254409787893 -0.08499998387239599 0 -0.063126702343396859 -0.087663742827990401 0 -0.064032937422715624 -0.09053136640551615 0 -0.060036432258734874 -0.089654752680961028 0 -0.063126702343396859 -0.087663742827990401 0 -0.064546063398127879 -0.086094656857561874 0 -0.059870929068407047 -0.087228631426673336 0 -0.059199879489479204 -0.089835106773394457 0 -0.059063046064829837 -0.089814638401783081 0 -0.058890231917614541 -0.089962798260312074 0 -0.059199879489479204 -0.089835106773394457 0 -0.058288130380381095 -0.089317994924910354 0 -0.058890231917614541 -0.089962798260312074 0 -0.059063046064829837 -0.089814638401783081 0 -0.058890231917614541 -0.089962798260312074 0 -0.059046784074655308 -0.089796093670844651 0 -0.058288130380381095 -0.089317994924910354 0 -0.058890231917614541 -0.089962798260312074 0 -0.057943623126733089 -0.090303153830577687 0 -0.057058683930074676 -0.090076784284798553 0 -0.058288130380381095 -0.089317994924910354 0 -0.057943623126733089 -0.090303153830577687 0 -0.057058683930074676 -0.090076784284798553 0 -0.057943623126733089 -0.090303153830577687 0 -0.057351849038108457 -0.090802842086908878 0 -0.057943623126733089 -0.090303153830577687 0 -0.057351849038108457 -0.090802842086908878 0 -0.057739417618039614 -0.091445573230218138 0 -0.058890231917614541 -0.089962798260312074 0 -0.059350018952407949 -0.089785914984860646 0 -0.059046784074655308 -0.089796093670844651 0 -0.058890231917614541 -0.089962798260312074 0 -0.057943623126733089 -0.090303153830577687 0 -0.057739417618039614 -0.091445573230218138 0 -0.056322229899606356 -0.087788513056993575 0 -0.055916962028048751 -0.087542565311322887 0 -0.059350018952407949 -0.089785914984860646 0 -0.059192379466746395 -0.089668320378005831 0 -0.059046784074655308 -0.089796093670844651 0 -0.056625447708248171 -0.091603806750116049 0 -0.057351849038108457 -0.090802842086908878 0 -0.057739417618039614 -0.091445573230218138 0 -0.059350018952407949 -0.089785914984860646 0 -0.059394759046191369 -0.089634253830711677 0 -0.059192379466746395 -0.089668320378005831 0 -0.059680892077125097 -0.089505054798289657 0 -0.059350018952407949 -0.089785914984860646 0 -0.059394759046191369 -0.089634253830711677 0 -0.059394759046191369 -0.089634253830711677 0 -0.059290901106096118 -0.08954688898918918 0 -0.059365476300168946 -0.089421869525072972 0 -0.059394759046191369 -0.089634253830711677 0 -0.059290901106096118 -0.08954688898918918 0 -0.059192379466746395 -0.089668320378005831 0 -0.059290901106096118 -0.08954688898918918 0 -0.059192379466746395 -0.089668320378005831 0 -0.059180779537838769 -0.089470987132120108 0 -0.059192379466746395 -0.089668320378005831 0 -0.059067128772644147 -0.08964042108037383 0 -0.059180779537838769 -0.089470987132120108 0 -0.059063046064829837 -0.089814638401783081 0 -0.059067128772644147 -0.08964042108037383 0 -0.059046784074655308 -0.089796093670844651 0 -0.059192379466746395 -0.089668320378005831 0 -0.059067128772644147 -0.08964042108037383 0 -0.059046784074655308 -0.089796093670844651 0 -0.058976487980614577 -0.089329431851243798 0 -0.059067128772644147 -0.08964042108037383 0 -0.059180779537838769 -0.089470987132120108 0 -0.058976487980614577 -0.089329431851243798 0 -0.059180779537838769 -0.089470987132120108 0 -0.05918117580780273 -0.089222424281986026 0 -0.059180779537838769 -0.089470987132120108 0 -0.059318831877122211 -0.0892717702122552 0 -0.05918117580780273 -0.089222424281986026 0 -0.059394759046191369 -0.089634253830711677 0 -0.059365476300168946 -0.089421869525072972 0 -0.059573179059895516 -0.089299974105196633 0 -0.059290901106096118 -0.08954688898918918 0 -0.059180779537838769 -0.089470987132120108 0 -0.059365476300168946 -0.089421869525072972 0 -0.059365476300168946 -0.089421869525072972 0 -0.059449450153249768 -0.089271794470362556 0 -0.059318831877122211 -0.0892717702122552 0 -0.059365476300168946 -0.089421869525072972 0 -0.059449450153249768 -0.089271794470362556 0 -0.059573179059895516 -0.089299974105196633 0 -0.059180779537838769 -0.089470987132120108 0 -0.059365476300168946 -0.089421869525072972 0 -0.059318831877122211 -0.0892717702122552 0 -0.059318831877122211 -0.0892717702122552 0 -0.059309217317624438 -0.089093755524263379 0 -0.05918117580780273 -0.089222424281986026 0 -0.059309217317624438 -0.089093755524263379 0 -0.059131869418201616 -0.088932292683613939 0 -0.059519092348984289 -0.08890473710380091 0 -0.059318831877122211 -0.0892717702122552 0 -0.059438178881472459 -0.089172517265925691 0 -0.059309217317624438 -0.089093755524263379 0 -0.059449450153249768 -0.089271794470362556 0 -0.059318831877122211 -0.0892717702122552 0 -0.059438178881472459 -0.089172517265925691 0 -0.059449450153249768 -0.089271794470362556 0 -0.059438178881472459 -0.089172517265925691 0 -0.059551708418867692 -0.08919702950464925 0 -0.057685702228594475 -0.080774550139475251 0 -0.057409626351402961 -0.080534416137788264 0 -0.059438178881472459 -0.089172517265925691 0 -0.059309217317624438 -0.089093755524263379 0 -0.059519092348984289 -0.08890473710380091 0 -0.059438178881472459 -0.089172517265925691 0 -0.059519092348984289 -0.08890473710380091 0 -0.059571090803287138 -0.089189935969689368 0 -0.058976487980614577 -0.089329431851243798 0 -0.05918117580780273 -0.089222424281986026 0 -0.059131869418201616 -0.088932292683613939 0 -0.075937069926790418 -0.079959251618359886 0 -0.07530007584924614 -0.07500892057032138 0 -0.059309217317624438 -0.089093755524263379 0 -0.05918117580780273 -0.089222424281986026 0 -0.059131869418201616 -0.088932292683613939 0 -0.081349481055507711 -0.074769760966523977 0 -0.07530007584924614 -0.07500892057032138 0 -0.098389657212895901 -0.073378327629167281 0 -0.099501929530025124 -0.073264555695216657 0 -0.098868711866076903 -0.072078830874965263 0 -0.07530007584924614 -0.07500892057032138 0 -0.075042033462542068 -0.069872831477446315 0 -0.099501929530025124 -0.073264555695216657 0 -0.098868711866076903 -0.072078830874965263 0 -0.10013725390389598 -0.072003765228870101 0 -0.098868711866076903 -0.072078830874965263 0 -0.10013725390389598 -0.072003765228870101 0 -0.099322011701126714 -0.070756417233020993 0 -0.084046894651033613 -0.064783155571182124 0 -0.071822264478695483 -0.065846642426416357 0 -0.10013725390389598 -0.072003765228870101 0 -0.099322011701126714 -0.070756417233020993 0 -0.10075051023398417 -0.070791196183018129 0 -0.069563293376378191 -0.072734004234365712 0 -0.070870764931716568 -0.070785220951363401 0 -0.071742148800873637 -0.074590616324052381 0 -0.061069943852629496 -0.066310484657425797 0 -0.061374034642681215 -0.0677055849278419 0 -0.061702031859545134 -0.066951926022084315 0 -0.070436985798315879 -0.065706734013212725 0 -0.062588552102987347 -0.074159355030551474 0 -0.071437863745912517 -0.064054534072955624 0 -0.068929768387107029 -0.064020516928841073 0 -0.071582191610955831 -0.064668795364509465 0 -0.070436985798315879 -0.065706734013212725 0 -0.065022789186114843 -0.063921005042276074 0 -0.072608239778142292 -0.071941691974972424 0 -0.067678332975254052 -0.071870370267979766 0 -0.071147800414632006 -0.065667836625218398 0 -0.070436985798315879 -0.065706734013212725 0 -0.071822264478695483 -0.065846642426416357 0 -0.069563293376378191 -0.072734004234365712 0 -0.070870764931716568 -0.070785220951363401 0 -0.070645576054511008 -0.070781757937793649 0 -0.075042033462542068 -0.069872831477446315 0 -0.071822264478695483 -0.065846642426416357 0 -0.07530007584924614 -0.07500892057032138 0 -0.062588552102987347 -0.074159355030551474 0 -0.068487620010455011 -0.074681044458149992 0 -0.069563293376378191 -0.072734004234365712 0 -0.071742148800873637 -0.074590616324052381 0 -0.062588552102987347 -0.074159355030551474 0 -0.055693454266275852 -0.072899704309443966 0 -0.06209314669687261 -0.067683032051445782 0 -0.061702031859545134 -0.066951926022084315 0 -0.062484887871615623 -0.066744667237239375 0 -0.061374034642681215 -0.0677055849278419 0 -0.06209314669687261 -0.067683032051445782 0 -0.061702031859545134 -0.066951926022084315 0 -0.065022789186114843 -0.063921005042276074 0 -0.052289835930657558 -0.060159812018876005 0 -0.061702031859545134 -0.066951926022084315 0 -0.061486475497059545 -0.066317723369645212 0 -0.062484887871615623 -0.066744667237239375 0 -0.065022789186114843 -0.063921005042276074 0 -0.053423273661194232 -0.064833232555814413 0 -0.061069943852629496 -0.066310484657425797 0 -0.061702031859545134 -0.066951926022084315 0 -0.061486475497059545 -0.066317723369645212 0 -0.06137422098394496 -0.062530828463555385 0 -0.052142096973200276 -0.062389906114530616 0 -0.05348649437152217 -0.059254235912265918 0 -0.046669087293819481 -0.063478983677309198 0 -0.04733377856415362 -0.06193593777077528 0 -0.043341125896274972 -0.061982846341817638 0 -0.052289835930657558 -0.060159812018876005 0 -0.053423273661194232 -0.064833232555814413 0 -0.053749832276141545 -0.069339312588815843 0 -0.052391078646419162 -0.07249688470269755 0 -0.048735896601699774 -0.069467824795406308 0 -0.055693454266275852 -0.072899704309443966 0 -0.053423273661194232 -0.064833232555814413 0 -0.055693454266275852 -0.072899704309443966 0 -0.045229505361706661 -0.072654882577278673 0 -0.052224211710725388 -0.077025615961918897 0 -0.051081886114543784 -0.076058295250792107 0 -0.049366280441970327 -0.077091492915737539 0 -0.051081886114543784 -0.076058295250792107 0 -0.052928509095322179 -0.075398163737647253 0 -0.050891360037659344 -0.075016365614447536 0 -0.056134126277593017 -0.080295068566813968 0 -0.04978469711155846 -0.08185653546231704 0 -0.051081886114543784 -0.076058295250792107 0 -0.050891360037659344 -0.075016365614447536 0 -0.049997614560980459 -0.075760982016169626 0 -0.056671049210952916 -0.073032185652284198 0 -0.057679242874550347 -0.075314969687368102 0 -0.057173886633716614 -0.075220816084784023 0 -0.056671049210952916 -0.073032185652284198 0 -0.058673147236236137 -0.072975479350936068 0 -0.057679242874550347 -0.075314969687368102 0 -0.055693454266275852 -0.072899704309443966 0 -0.056134126277593017 -0.080295068566813968 0 -0.052224211710725388 -0.077025615961918897 0 -0.051081886114543784 -0.076058295250792107 0 -0.052928509095322179 -0.075398163737647253 0 -0.062588552102987347 -0.074159355030551474 0 -0.057409626351402961 -0.080534416137788264 0 -0.057409626351402961 -0.080534416137788264 0 -0.056422836069791593 -0.082241726793568601 0 -0.056134126277593017 -0.080295068566813968 0 -0.056422836069791593 -0.082241726793568601 0 -0.056978361191578154 -0.078864003826160767 0 -0.056580928440268782 -0.078789898036426539 0 -0.056731317084985598 -0.079443206827355672 0 -0.056134126277593017 -0.080295068566813968 0 -0.057409626351402961 -0.080534416137788264 0 -0.059680892077125097 -0.089505054798289657 0 -0.059394759046191369 -0.089634253830711677 0 -0.059581917047164028 -0.089105374215452393 0 -0.05516018818700031 -0.081468086740851486 0 -0.055350534782120514 -0.082277189503441595 0 -0.054096623193751123 -0.082351521581484941 0 -0.055227335188427949 -0.082561860227411382 0 -0.055350534782120514 -0.082277189503441595 0 -0.054096623193751123 -0.082351521581484941 0 -0.056213633567850155 -0.085065717857785619 0 -0.056422836069791593 -0.082241726793568601 0 -0.059449450153249768 -0.089271794470362556 0 -0.059551708418867692 -0.08919702950464925 0 -0.059573179059895516 -0.089299974105196633 0 -0.054853526331796125 -0.086472354789471656 0 -0.056422836069791593 -0.082241726793568601 0 -0.054853526331796125 -0.086472354789471656 0 -0.04978469711155846 -0.08185653546231704 0 -0.048773014516892338 -0.088181061326989121 0 -0.048231361223507477 -0.082684776922180903 0 -0.053967618245526122 -0.09411608477420727 0 -0.056460184271052781 -0.094288679628873884 0 -0.053578783032703123 -0.096612118222930699 0 -0.053967618245526122 -0.09411608477420727 0 -0.053578783032703123 -0.096612118222930699 0 -0.052847268547409613 -0.096470768818515573 0 -0.04978469711155846 -0.08185653546231704 0 -0.048231361223507477 -0.082684776922180903 0 -0.048231361223507477 -0.082684776922180903 0 -0.044561105799416606 -0.08359823741884595 0 -0.053873690727152972 -0.09445759505629181 0 -0.05261412395841162 -0.097108481818323919 0 -0.051538147914079922 -0.095283965901465137 0 -0.044588008690745223 -0.081342962066512495 0 -0.044621617629267744 -0.081351471692662616 0 -0.044594547507924395 -0.08131892347421292 0 -0.05261412395841162 -0.097108481818323919 0 -0.051538147914079922 -0.095283965901465137 0 -0.049869557356442447 -0.096597354038241268 0 -0.049636288765372745 -0.094331692373599701 0 -0.051538147914079922 -0.095283965901465137 0 -0.049869557356442447 -0.096597354038241268 0 -0.044561105799416606 -0.08359823741884595 0 -0.039609544693510246 -0.084383870598760138 0 -0.037924259427345175 -0.07513968581813206 0 -0.036443697378071509 -0.076547410698162038 0 -0.035167488257412623 -0.074633675175978714 0 -0.045179596831405114 -0.086771057006609045 0 -0.044561105799416606 -0.08359823741884595 0 -0.049636288765372745 -0.094331692373599701 0 -0.049850748440341576 -0.096702994876841378 0 -0.04653220300537235 -0.09612085260700011 0 -0.037924259427345175 -0.07513968581813206 0 -0.036443697378071509 -0.076547410698162038 0 -0.038203715172781004 -0.078011558604624553 0 -0.044561105799416606 -0.08359823741884595 0 -0.044121121778812188 -0.076244988877191486 0 -0.036443697378071509 -0.076547410698162038 0 -0.036602841036506899 -0.077912987208840712 0 -0.038203715172781004 -0.078011558604624553 0 -0.046183186815706836 -0.075921440526159525 0 -0.045776034868095741 -0.076763791752242003 0 -0.045485658052685174 -0.076492215601061453 0 -0.044621617629267744 -0.081351471692662616 0 -0.044594547507924395 -0.08131892347421292 0 -0.044615752005824856 -0.081290256740814165 0 -0.047134996132213572 -0.079024002490852646 0 -0.044121121778812188 -0.076244988877191486 0 -0.051081886114543784 -0.076058295250792107 0 -0.049997614560980459 -0.075760982016169626 0 -0.049366280441970327 -0.077091492915737539 0 -0.047134996132213572 -0.079024002490852646 0 -0.045229505361706661 -0.072654882577278673 0 -0.04978469711155846 -0.08185653546231704 0 -0.047134996132213572 -0.079024002490852646 0 -0.048231361223507477 -0.082684776922180903 0 -0.047134996132213572 -0.079024002490852646 0 -0.046234604953788165 -0.08074234672910606 0 -0.046550610296202735 -0.080800181699300727 0 -0.046799939614550701 -0.080254246075440738 0 -0.052391078646419162 -0.07249688470269755 0 -0.048735896601699774 -0.069467824795406308 0 -0.048132252330628948 -0.070747437353483225 0 -0.045776034868095741 -0.076763791752242003 0 -0.045510548396883774 -0.076770159808646515 0 -0.045485658052685174 -0.076492215601061453 0 -0.045229505361706661 -0.072654882577278673 0 -0.043261650513425065 -0.072657977781438468 0 -0.043033429952123566 -0.073984502299059354 0 -0.043525888248866669 -0.072924618639028299 0 -0.043628187629082736 -0.073967638806520228 0 -0.045229505361706661 -0.072654882577278673 0 -0.043879452488988148 -0.068832340043751661 0 -0.043879452488988148 -0.068832340043751661 0 -0.043261650513425065 -0.072657977781438468 0 -0.052289835930657558 -0.060159812018876005 0 -0.038905845034510014 -0.058168093029229553 0 -0.053423273661194232 -0.064833232555814413 0 -0.043879452488988148 -0.068832340043751661 0 -0.04733377856415362 -0.06193593777077528 0 -0.042604388563740887 -0.060002927862263175 0 -0.043341125896274972 -0.061982846341817638 0 -0.046669087293819481 -0.063478983677309198 0 -0.043341125896274972 -0.061982846341817638 0 -0.042932207480819301 -0.063421462028292061 0 -0.042604388563740887 -0.060002927862263175 0 -0.043341125896274972 -0.061982846341817638 0 -0.042879417447923333 -0.062927905448321636 0 -0.043879452488988148 -0.068832340043751661 0 -0.038758679396977379 -0.058918371498160163 0 -0.038794224671988599 -0.058992473400941527 0 -0.038758679396977379 -0.058918371498160163 0 -0.043341125896274972 -0.061982846341817638 0 -0.042884910493496554 -0.062923788961912794 0 -0.042932207480819301 -0.063421462028292061 0 -0.038795962803760908 -0.058861588858228509 0 -0.038263527568802053 -0.053284994456962394 0 -0.041461217712061418 -0.053331217045043317 0 -0.038758679396977379 -0.058918371498160163 0 -0.037717511301904913 -0.058097609142714071 0 -0.038758679396977379 -0.058918371498160163 0 -0.038905845034510014 -0.058168093029229553 0 -0.038905845034510014 -0.058168093029229553 0 -0.037717511301904913 -0.058097609142714071 0 -0.034789572034843654 -0.06583317480844407 0 -0.032969916777393575 -0.064171730863284343 0 -0.031833123059560521 -0.06439080503921138 0 -0.037717511301904913 -0.058097609142714071 0 -0.023590602732361368 -0.056380873561840662 0 -0.034789572034843654 -0.06583317480844407 0 -0.031833123059560521 -0.06439080503921138 0 -0.030784856947503429 -0.065764681020558532 0 -0.035013245789898423 -0.065377403033756901 0 -0.034789572034843654 -0.06583317480844407 0 -0.033940948767336276 -0.064420674341697876 0 -0.034789572034843654 -0.06583317480844407 0 -0.033940948767336276 -0.064420674341697876 0 -0.032969916777393575 -0.064171730863284343 0 -0.03478364427274809 -0.062666921433446432 0 -0.035013245789898423 -0.065377403033756901 0 -0.033940948767336276 -0.064420674341697876 0 -0.043879452488988148 -0.068832340043751661 0 -0.043463696416694494 -0.0685562381076706 0 -0.03475197881912942 -0.062689844602879005 0 -0.033940948767336276 -0.064420674341697876 0 -0.033382838537626795 -0.063094624272593464 0 -0.033940948767336276 -0.064420674341697876 0 -0.032969916777393575 -0.064171730863284343 0 -0.033382838537626795 -0.063094624272593464 0 -0.032969916777393575 -0.064171730863284343 0 -0.032352595610616111 -0.063390403934827366 0 -0.033382838537626795 -0.063094624272593464 0 -0.032352595610616111 -0.063390403934827366 0 -0.031339813234122063 -0.062733107540087957 0 -0.031833123059560521 -0.06439080503921138 0 -0.032969916777393575 -0.064171730863284343 0 -0.032352595610616111 -0.063390403934827366 0 -0.031833123059560521 -0.06439080503921138 0 -0.032597431356681708 -0.062420897162869853 0 -0.034630443555279541 -0.061402518110307489 0 -0.031278679530537902 -0.061484410190424776 0 -0.032352595610616111 -0.063390403934827366 0 -0.032597431356681708 -0.062420897162869853 0 -0.031339813234122063 -0.062733107540087957 0 -0.043261650513425065 -0.072657977781438468 0 -0.033079745155172438 -0.070658044515419668 0 -0.038271438379405019 -0.078620555098736791 0 -0.037719991125615318 -0.078416578214295041 0 -0.035660912855786327 -0.078694819147436632 0 -0.032352595610616111 -0.063390403934827366 0 -0.032597431356681708 -0.062420897162869853 0 -0.033382838537626795 -0.063094624272593464 0 -0.032597431356681708 -0.062420897162869853 0 -0.033382838537626795 -0.063094624272593464 0 -0.034630443555279541 -0.061402518110307489 0 -0.03475197881912942 -0.062689844602879005 0 -0.033382838537626795 -0.063094624272593464 0 -0.034630443555279541 -0.061402518110307489 0 -0.036602841036506899 -0.077912987208840712 0 -0.037719991125615318 -0.078416578214295041 0 -0.038203715172781004 -0.078011558604624553 0 -0.038271438379405019 -0.078620555098736791 0 -0.037719991125615318 -0.078416578214295041 0 -0.038219240060159178 -0.077993450459803396 0 -0.043261650513425065 -0.072657977781438468 0 -0.044121121778812188 -0.076244988877191486 0 -0.043955145003467234 -0.076358262989269302 0 -0.044121121778812188 -0.076244988877191486 0 -0.036602841036506899 -0.077912987208840712 0 -0.037719991125615318 -0.078416578214295041 0 -0.035660912855786327 -0.078694819147436632 0 -0.031339813234122063 -0.062733107540087957 0 -0.029992872771132793 -0.065765356308144562 0 -0.027934811262825793 -0.061586775735559172 0 -0.031278679530537902 -0.061484410190424776 0 -0.031339813234122063 -0.062733107540087957 0 -0.027934811262825793 -0.061586775735559172 0 -0.033079745155172438 -0.070658044515419668 0 -0.022346308215195489 -0.068835314087427338 0 -0.035660912855786327 -0.078694819147436632 0 -0.033063671856910955 -0.078761212474271647 0 -0.034630319498674803 -0.077019126761931567 0 -0.032597431356681708 -0.062420897162869853 0 -0.031278679530537902 -0.061484410190424776 0 -0.031339813234122063 -0.062733107540087957 0 -0.031339813234122063 -0.062733107540087957 0 -0.029992872771132793 -0.065765356308144562 0 -0.030749687173291754 -0.065773746996353258 0 -0.024171074988301278 -0.0586789714474409 0 -0.023590602732361368 -0.056380873561840662 0 -0.031339813234122063 -0.062733107540087957 0 -0.031833123059560521 -0.06439080503921138 0 -0.030784856947503429 -0.065764681020558532 0 -0.021367770947442355 -0.05644332794600148 0 -0.023590602732361368 -0.056380873561840662 0 0.0080997706191868642 -0.052124724657243181 0 -8.8519881777236308e-05 -0.057433909582093247 0 0.00077232247200953712 -0.067211472377462098 0 -0.021367770947442355 -0.05644332794600148 0 -0.015938115477682917 -0.054053415947302431 0 -0.021367770947442355 -0.05644332794600148 0 -0.022346308215195489 -0.068835314087427338 0 0.0080997706191868642 -0.052124724657243181 0 -8.8519881777236308e-05 -0.057433909582093247 0 -0.0084769871158554208 -0.052263178400987459 0 -8.8519881777236308e-05 -0.057433909582093247 0 -0.0050571574691747516 -0.062827903216383957 0 -0.0084769871158554208 -0.052263178400987459 0 -8.8519881777236308e-05 -0.057433909582093247 0 -0.0050571574691747516 -0.062827903216383957 0 0.00077232247200953712 -0.067211472377462098 0 0.00033307602829731552 -0.068513648084730719 0 -0.0044978144310866691 -0.069897552106756855 0 -0.012057282312915944 -0.068164443991575105 0 -0.022346308215195489 -0.068835314087427338 0 -0.01685862054105719 -0.068526608001497374 0 -0.0050571574691747516 -0.062827903216383957 0 0.00077232247200953712 -0.067211472377462098 0 -0.011128376067116013 -0.067091631426745166 0 0.00033307602829731552 -0.068513648084730719 0 -0.0044978144310866691 -0.069897552106756855 0 -0.0039549298163143298 -0.077181347452044358 0 -0.022346308215195489 -0.068835314087427338 0 -0.023548167296288364 -0.075892611005907981 0 -0.033063671856910955 -0.078761212474271647 0 -0.032180916445284057 -0.076960631809851757 0 -0.034630319498674803 -0.077019126761931567 0 -0.032180916445284057 -0.076960631809851757 0 -0.034630319498674803 -0.077019126761931567 0 -0.033598512107736109 -0.075687732837048285 0 -0.0037171650345693055 -0.077302459457936901 0 -0.0047189193800724226 -0.079374945589106682 0 -0.0024917946179857037 -0.09185008647296819 0 -0.0044978144310866691 -0.069897552106756855 0 -0.0037675959098394125 -0.07734557701079485 0 -0.007428425916487744 -0.073804863642391111 0 -0.022652973825922358 -0.075492613486258978 0 -0.023548167296288364 -0.075892611005907981 0 -0.0037675959098394125 -0.07734557701079485 0 -0.0047189193800724226 -0.079374945589106682 0 -0.008346879583046151 -0.079022158652510985 0 -0.023548167296288364 -0.075892611005907981 0 -0.023434238562097059 -0.075838329807843871 0 -0.036443697378071509 -0.076547410698162038 0 -0.034630319498674803 -0.077019126761931567 0 -0.035167488257412623 -0.074633675175978714 0 -0.036602841036506899 -0.077912987208840712 0 -0.035660912855786327 -0.078694819147436632 0 -0.034630319498674803 -0.077019126761931567 0 -0.036443697378071509 -0.076547410698162038 0 -0.036602841036506899 -0.077912987208840712 0 -0.034630319498674803 -0.077019126761931567 0 -0.034630319498674803 -0.077019126761931567 0 -0.035167488257412623 -0.074633675175978714 0 -0.033598512107736109 -0.075687732837048285 0 -0.035167488257412623 -0.074633675175978714 0 -0.033598512107736109 -0.075687732837048285 0 -0.032417527943469228 -0.074137822543592385 0 -0.023548167296288364 -0.075892611005907981 0 -0.032429740869276899 -0.084493412556557942 0 -0.039609544693510246 -0.084383870598760138 0 -0.032429740869276899 -0.084493412556557942 0 -0.032180916445284057 -0.076960631809851757 0 -0.033598512107736109 -0.075687732837048285 0 -0.032417527943469228 -0.074137822543592385 0 -0.0047189193800724226 -0.079374945589106682 0 -0.0024917946179857037 -0.09185008647296819 0 -0.0066278818742007981 -0.08399887325907314 0 -0.01462496214894681 -0.037452978170305989 0 -0.012271565630639922 -0.040151455262187517 0 -0.015356065396942894 -0.035251091439944086 0 -0.01462496214894681 -0.037452978170305989 0 -0.015836255583612117 -0.038592802306878907 0 -0.016964789477545237 -0.036318527204216751 0 -0.01462496214894681 -0.037452978170305989 0 -0.015866900272676409 -0.035901197996288679 0 -0.016964789477545237 -0.036318527204216751 0 -0.015866900272676409 -0.035901197996288679 0 -0.016464515837113045 -0.034848857079129471 0 -0.016964789477545237 -0.036318527204216751 0 -0.01462496214894681 -0.037452978170305989 0 -0.015866900272676409 -0.035901197996288679 0 -0.015356065396942894 -0.035251091439944086 0 -0.014815866125023501 -0.03613793224063061 0 -0.014279587517639244 -0.035361509432270601 0 -0.014792706824082985 -0.03485971223373599 0 -0.018497858990716421 -0.042671248578981309 0 -0.017755378149177662 -0.039103900591819604 0 -0.01342316121630111 -0.038250162031029544 0 -0.015356065396942894 -0.035251091439944086 0 -0.015486084406538604 -0.034502378619105642 0 -0.014815866125023501 -0.03613793224063061 0 -0.014792706824082985 -0.03485971223373599 0 -0.015486084406538604 -0.034502378619105642 0 -0.013726401461858051 -0.038321789820940172 0 -0.01342316121630111 -0.038250162031029544 0 -0.015356065396942894 -0.035251091439944086 0 -0.02649283394227632 -0.045357562883150196 0 -0.024091737731791886 -0.041126633184337846 0 -0.013726401461858051 -0.038321789820940172 0 -0.014616737742472321 -0.039703042538652492 0 -0.015356065396942894 -0.035251091439944086 0 -0.013416576021898725 -0.038259018837498049 0 -0.014616737742472321 -0.039703042538652492 0 -0.012033741456869234 -0.041076077570570697 0 -0.02649283394227632 -0.045357562883150196 0 -0.028749126918399818 -0.049971953848472958 0 -0.013726401461858051 -0.038321789820940172 0 -0.013416576021898725 -0.038259018837498049 0 -0.014616737742472321 -0.039703042538652492 0 -0.026408144825743572 -0.045334351794665856 0 -0.02649283394227632 -0.045357562883150196 0 -0.012271565630639922 -0.040151455262187517 0 -0.014343310151787624 -0.039225485679603309 0 -0.01469313742299389 -0.040967513954223565 0 -0.01462496214894681 -0.037452978170305989 0 -0.012271565630639922 -0.040151455262187517 0 -0.014343310151787624 -0.039225485679603309 0 -0.01462496214894681 -0.037452978170305989 0 -0.014343310151787624 -0.039225485679603309 0 -0.015836255583612117 -0.038592802306878907 0 -0.014343310151787624 -0.039225485679603309 0 -0.015836255583612117 -0.038592802306878907 0 -0.01469313742299389 -0.040967513954223565 0 -0.015836255583612117 -0.038592802306878907 0 -0.01469313742299389 -0.040967513954223565 0 -0.017533807022032964 -0.040632192719813061 0 -0.012271565630639922 -0.040151455262187517 0 -0.01469313742299389 -0.040967513954223565 0 -0.01319792933758397 -0.044164428634955115 0 -0.01469313742299389 -0.040967513954223565 0 -0.015884810533940794 -0.04448936861743949 0 -0.017533807022032964 -0.040632192719813061 0 -0.01469313742299389 -0.040967513954223565 0 -0.01319792933758397 -0.044164428634955115 0 -0.015884810533940794 -0.04448936861743949 0 -0.010988344353289039 -0.049076524687113252 0 -0.013454245355757632 -0.04700049308837833 0 -0.017001699363185518 -0.049700780891618078 0 -0.015884810533940794 -0.04448936861743949 0 -0.013454245355757632 -0.04700049308837833 0 -0.017001699363185518 -0.049700780891618078 0 -0.01319792933758397 -0.044164428634955115 0 -0.015884810533940794 -0.04448936861743949 0 -0.013454245355757632 -0.04700049308837833 0 -0.022275351084247372 -0.053646862813974419 0 -0.028749126918399818 -0.049971953848472958 0 -0.023243353792034155 -0.058822826179317521 0 -0.022197966556192966 -0.058807202330972336 0 -0.022482798769967973 -0.057261386046144815 0 -0.023590602732361368 -0.056380873561840662 0 -0.022275351084247372 -0.053646862813974419 0 -0.010988344353289039 -0.049076524687113252 0 -0.013454245355757632 -0.04700049308837833 0 -0.010218868230381466 -0.047556043125393875 0 -0.021367770947442355 -0.05644332794600148 0 -0.022275351084247372 -0.053646862813974419 0 -0.01319792933758397 -0.044164428634955115 0 -0.013454245355757632 -0.04700049308837833 0 -0.010218868230381466 -0.047556043125393875 0 -0.012271565630639922 -0.040151455262187517 0 -0.01319792933758397 -0.044164428634955115 0 -0.010218868230381466 -0.047556043125393875 0 -0.014616737742472321 -0.039703042538652492 0 -0.013783272279411373 -0.044656596136097765 0 -0.012033741456869234 -0.041076077570570697 0 -0.018497858990716421 -0.042671248578981309 0 -0.022275351084247372 -0.053646862813974419 0 -0.035549318173519327 -0.04955684726721659 0 -0.03316181259793502 -0.050834886378112835 0 -0.034863631211477349 -0.048169309894977592 0 -0.028749126918399818 -0.049971953848472958 0 -0.029099207592313613 -0.050077527769950315 0 -0.028510145506330301 -0.057319432290986586 0 -0.030767111030193223 -0.05673684107577346 0 -0.029767213092271275 -0.054670640046719024 0 -0.037717511301904913 -0.058097609142714071 0 -0.028749126918399818 -0.049971953848472958 0 -0.028510145506330301 -0.057319432290986586 0 -0.030654879711771776 -0.057346283726593505 0 -0.030767111030193223 -0.05673684107577346 0 -0.033651590671361933 -0.0535752439198992 0 -0.035549318173519327 -0.04955684726721659 0 -0.03316181259793502 -0.050834886378112835 0 -0.033433108104986932 -0.053572527315824313 0 -0.033651590671361933 -0.0535752439198992 0 -0.03316181259793502 -0.050834886378112835 0 -0.041428889023260619 -0.060145597075825362 0 -0.045899725520821791 -0.06020773223856684 0 -0.044336630209243638 -0.058174237930966072 0 -0.041428889023260619 -0.060145597075825362 0 -0.044336630209243638 -0.058174237930966072 0 -0.043244353985812646 -0.055844715008495451 0 -0.045899725520821791 -0.06020773223856684 0 -0.044336630209243638 -0.058174237930966072 0 -0.045491673787976257 -0.055875994046489526 0 -0.038905845034510014 -0.058168093029229553 0 -0.040151970178863079 -0.053327672920115095 0 -0.044336630209243638 -0.058174237930966072 0 -0.043244353985812646 -0.055844715008495451 0 -0.045491673787976257 -0.055875994046489526 0 -0.047923145712190814 -0.053661601209065359 0 -0.041642829833798224 -0.048533966856384607 0 -0.060223916910879652 -0.052040186313329247 0 -0.059196381540222463 -0.054346678995271215 0 -0.060520577941924739 -0.053661495844327917 0 -0.03316181259793502 -0.050834886378112835 0 -0.032906867662336269 -0.048110638613744372 0 -0.034863631211477349 -0.048169309894977592 0 -0.043244353985812646 -0.055844715008495451 0 -0.045491673787976257 -0.055875994046489526 0 -0.045068533985860255 -0.051527814358308277 0 -0.040151970178863079 -0.053327672920115095 0 -0.041642829833798224 -0.048533966856384607 0 -0.060325475268002644 -0.054714937584856918 0 -0.059196381540222463 -0.054346678995271215 0 -0.060520577941924739 -0.053661495844327917 0 -0.060325475268002644 -0.054714937584856918 0 -0.059196381540222463 -0.054346678995271215 0 -0.059333342970708983 -0.055934421168104091 0 -0.060325475268002644 -0.054714937584856918 0 -0.060075818346112066 -0.056076619997394425 0 -0.059333342970708983 -0.055934421168104091 0 -0.041642829833798224 -0.048533966856384607 0 -0.042576243570787584 -0.044904010946741936 0 -0.044184764101953947 -0.040805429768172419 0 -0.041229609503131211 -0.047724937339914321 0 -0.040504255903369077 -0.040114638938731781 0 -0.037304644711820455 -0.044293246384030295 0 -0.041642829833798224 -0.048533966856384607 0 -0.02649283394227632 -0.045357562883150196 0 -0.037304644711820455 -0.044293246384030295 0 -0.036698583617356118 -0.047039296661654004 0 -0.033624847272774101 -0.046449965176571191 0 -0.034863631211477349 -0.048169309894977592 0 -0.036698583617356118 -0.047039296661654004 0 -0.035507652052662195 -0.049505617257252867 0 -0.034863631211477349 -0.048169309894977592 0 -0.033624847272774101 -0.046449965176571191 0 -0.032906867662336269 -0.048110638613744372 0 -0.034863631211477349 -0.048169309894977592 0 -0.013482537893152421 -0.035903901156141629 0 -0.014279587517639244 -0.035361509432270601 0 -0.013835541527012737 -0.034963954642854386 0 -0.037304644711820455 -0.044293246384030295 0 -0.033163314191074163 -0.041987440513201642 0 -0.014815866125023501 -0.03613793224063061 0 -0.013482537893152421 -0.035903901156141629 0 -0.014279587517639244 -0.035361509432270601 0 -0.014279587517639244 -0.035361509432270601 0 -0.013835541527012737 -0.034963954642854386 0 -0.014318383483806431 -0.03469703808277988 0 -0.014279587517639244 -0.035361509432270601 0 -0.014318383483806431 -0.03469703808277988 0 -0.014792706824082985 -0.03485971223373599 0 -0.062714218623136919 -0.042495602648552747 0 -0.062613396197198204 -0.042614571350703637 0 -0.062462157135994012 -0.04235962721671669 0 -0.042089909484378345 -0.042628449635767791 0 -0.047495610538169288 -0.044529305359284913 0 -0.047495610538169288 -0.044529305359284913 0 -0.042576243570787584 -0.044904010946741936 0 -0.041917330951654404 -0.042777448842867223 0 -0.037495658081022287 -0.047939501131162465 0 -0.042500810068450773 -0.048879438890586185 0 -0.03527239201397004 -0.043297540730003831 0 -0.035621393645261165 -0.042434081783548426 0 -0.034882184380366887 -0.04281855827443487 0 -0.037304644711820455 -0.044293246384030295 0 -0.042576243570787584 -0.044904010946741936 0 -0.03527239201397004 -0.043297540730003831 0 -0.034882184380366887 -0.04281855827443487 0 -0.034923050063622445 -0.043232861212818177 0 -0.042089909484378345 -0.042628449635767791 0 -0.042576243570787584 -0.044904010946741936 0 -0.062613396197198204 -0.042614571350703637 0 -0.062462157135994012 -0.04235962721671669 0 -0.062226576288910061 -0.042537299385834122 0 -0.047495610538169288 -0.044529305359284913 0 -0.06372700439058783 -0.047077396378824896 0 -0.06372700439058783 -0.047077396378824896 0 -0.08155477760194782 -0.048775432944853279 0 -0.062948024952787701 -0.056607952431738696 0 -0.064769989471281389 -0.053729609550134838 0 -0.06577403766461648 -0.057137067338134888 0 -0.062948024952787701 -0.056607952431738696 0 -0.062343674799380237 -0.053543319689297438 0 -0.064769989471281389 -0.053729609550134838 0 -0.060325475268002644 -0.054714937584856918 0 -0.060075818346112066 -0.056076619997394425 0 -0.062343674799380237 -0.053543319689297438 0 -0.047495610538169288 -0.044529305359284913 0 -0.051304942060207324 -0.046343824485643989 0 -0.060137267034985689 -0.056062137619420298 0 -0.062948024952787701 -0.056607952431738696 0 -0.062343674799380237 -0.053543319689297438 0 -0.060325475268002644 -0.054714937584856918 0 -0.060520577941924739 -0.053661495844327917 0 -0.062343674799380237 -0.053543319689297438 0 -0.060223916910879652 -0.052040186313329247 0 -0.060520577941924739 -0.053661495844327917 0 -0.062343674799380237 -0.053543319689297438 0 -0.060223916910879652 -0.052040186313329247 0 -0.062343674799380237 -0.053543319689297438 0 -0.063134667923413643 -0.052305505174912947 0 -0.052289835930657558 -0.060159812018876005 0 -0.047923145712190814 -0.053661601209065359 0 -0.061236558845759945 -0.04973730061278625 0 -0.060223916910879652 -0.052040186313329247 0 -0.06272787112482929 -0.050899375951399289 0 -0.060223916910879652 -0.052040186313329247 0 -0.06272787112482929 -0.050899375951399289 0 -0.063134667923413643 -0.052305505174912947 0 -0.064248332149911505 -0.049795096909345034 0 -0.061236558845759945 -0.04973730061278625 0 -0.06272787112482929 -0.050899375951399289 0 -0.064248332149911505 -0.049795096909345034 0 -0.064395194577499829 -0.050698905050728514 0 -0.06272787112482929 -0.050899375951399289 0 -0.06272787112482929 -0.050899375951399289 0 -0.064475003182872068 -0.05165871296984121 0 -0.063134667923413643 -0.052305505174912947 0 -0.064395194577499829 -0.050698905050728514 0 -0.06272787112482929 -0.050899375951399289 0 -0.064475003182872068 -0.05165871296984121 0 -0.062343674799380237 -0.053543319689297438 0 -0.063134667923413643 -0.052305505174912947 0 -0.064769989471281389 -0.053729609550134838 0 -0.064475003182872068 -0.05165871296984121 0 -0.063134667923413643 -0.052305505174912947 0 -0.064769989471281389 -0.053729609550134838 0 -0.064475003182872068 -0.05165871296984121 0 -0.064769989471281389 -0.053729609550134838 0 -0.065476069883712323 -0.051904987829215703 0 -0.064769989471281389 -0.053729609550134838 0 -0.066491228305069358 -0.05246810278531884 0 -0.067347362421043999 -0.054418234357084226 0 -0.064769989471281389 -0.053729609550134838 0 -0.066491228305069358 -0.05246810278531884 0 -0.065476069883712323 -0.051904987829215703 0 -0.070806081394429982 -0.061807431703919037 0 -0.070511680526165216 -0.06366912447396321 0 -0.064475003182872068 -0.05165871296984121 0 -0.065476069883712323 -0.051904987829215703 0 -0.065530867343690166 -0.050564255273785295 0 -0.081958631892727354 -0.062435620914236781 0 -0.07698603597446789 -0.062369689933001266 0 -0.076771051587134542 -0.06342302501141657 0 -0.066491228305069358 -0.05246810278531884 0 -0.065476069883712323 -0.051904987829215703 0 -0.065530867343690166 -0.050564255273785295 0 -0.064248332149911505 -0.049795096909345034 0 -0.064395194577499829 -0.050698905050728514 0 -0.065405548058396143 -0.050287743349834282 0 -0.065022789186114843 -0.063921005042276074 0 -0.070511680526165216 -0.06366912447396321 0 -0.068929768387107029 -0.064020516928841073 0 -0.071582191610955831 -0.064668795364509465 0 -0.071698611308405227 -0.065163817671265126 0 -0.07698603597446789 -0.062369689933001266 0 -0.076660091363142877 -0.062950075500689068 0 -0.076771051587134542 -0.06342302501141657 0 -0.064395194577499829 -0.050698905050728514 0 -0.064475003182872068 -0.05165871296984121 0 -0.065405548058396143 -0.050287743349834282 0 -0.071822264478695483 -0.065846642426416357 0 -0.070912589279585145 -0.065116775369172361 0 -0.064475003182872068 -0.05165871296984121 0 -0.065530867343690166 -0.050564255273785295 0 -0.065462630683243248 -0.050261388856500534 0 -0.070436985798315879 -0.065706734013212725 0 -0.070912589279585145 -0.065116775369172361 0 -0.070912589279585145 -0.065116775369172361 0 -0.070511680526165216 -0.06366912447396321 0 -0.070476646402492307 -0.063538707398125088 0 -0.070511680526165216 -0.06366912447396321 0 -0.081958631892727354 -0.062435620914236781 0 -0.076771051587134542 -0.06342302501141657 0 -0.084562041032931523 -0.066639401459576975 0 -0.066491228305069358 -0.05246810278531884 0 -0.065530867343690166 -0.050564255273785295 0 -0.068942323544539094 -0.051692858250325421 0 -0.065530867343690166 -0.050564255273785295 0 -0.065459810340683197 -0.0502605038281322 0 -0.068942323544539094 -0.051692858250325421 0 -0.070511680526165216 -0.06366912447396321 0 -0.085970520326121416 -0.058852878181780213 0 -0.08374735800047603 -0.054072505758605324 0 -0.085970520326121416 -0.058852878181780213 0 -0.066491228305069358 -0.05246810278531884 0 -0.067347362421043999 -0.054418234357084226 0 -0.068942323544539094 -0.051692858250325421 0 -0.08374735800047603 -0.054072505758605324 0 -0.08155477760194782 -0.048775432944853279 0 -0.10073342826419211 -0.054416339853192733 0 -0.10198853912070181 -0.052119340619154721 0 -0.099843970853665753 -0.053211912927550203 0 -0.064769989471281389 -0.053729609550134838 0 -0.067347362421043999 -0.054418234357084226 0 -0.06577403766461648 -0.057137067338134888 0 -0.08155477760194782 -0.048775432944853279 0 -0.09497238663407466 -0.050987096832232764 0 -0.10198853912070181 -0.052119340619154721 0 -0.099846437880732664 -0.051705224928922544 0 -0.099843970853665753 -0.053211912927550203 0 -0.10216969976696251 -0.051766830346886818 0 -0.10427495067054031 -0.049323901642259312 0 -0.100890575241613 -0.048260809083783801 0 -0.10551927592509913 -0.052397981355124676 0 -0.10216969976696251 -0.051766830346886818 0 -0.10427495067054031 -0.049323901642259312 0 -0.10551927592509913 -0.052397981355124676 0 -0.10427495067054031 -0.049323901642259312 0 -0.10785079089220694 -0.048347567673195153 0 -0.08155477760194782 -0.048775432944853279 0 -0.079890710936745116 -0.043151837567304341 0 -0.10427495067054031 -0.049323901642259312 0 -0.10345057759992111 -0.045761255833538309 0 -0.10785079089220694 -0.048347567673195153 0 -0.10427495067054031 -0.049323901642259312 0 -0.10345057759992111 -0.045761255833538309 0 -0.100890575241613 -0.048260809083783801 0 -0.10345057759992111 -0.045761255833538309 0 -0.10392959116486142 -0.04260960312669524 0 -0.10643940831759784 -0.04388199274769098 0 -0.10345057759992111 -0.045761255833538309 0 -0.10392959116486142 -0.04260960312669524 0 -0.1019396238888917 -0.042716325083038929 0 -0.10392959116486142 -0.04260960312669524 0 -0.10248351681199301 -0.041075493238754181 0 -0.10389180902046506 -0.040547885439096612 0 -0.10392959116486142 -0.04260960312669524 0 -0.1019396238888917 -0.042716325083038929 0 -0.10248351681199301 -0.041075493238754181 0 -0.10392959116486142 -0.04260960312669524 0 -0.10643940831759784 -0.04388199274769098 0 -0.10518190732800323 -0.040776364243623561 0 -0.10643940831759784 -0.04388199274769098 0 -0.10518190732800323 -0.040776364243623561 0 -0.10805288157548311 -0.041166222738714384 0 -0.10345057759992111 -0.045761255833538309 0 -0.10643940831759784 -0.04388199274769098 0 -0.10785079089220694 -0.048347567673195153 0 -0.062342531999332519 -0.041390203169437624 0 -0.06244095406600348 -0.041548050042058894 0 -0.062079019482845714 -0.041949636378417268 0 -0.10643940831759784 -0.04388199274769098 0 -0.1101439014927718 -0.044271665517911327 0 -0.10785079089220694 -0.048347567673195153 0 -0.072928030427782023 -0.038781090506745004 0 -0.079890710936745116 -0.043151837567304341 0 -0.072928030427782023 -0.038781090506745004 0 -0.084569558511584236 -0.037862164300334407 0 -0.10643940831759784 -0.04388199274769098 0 -0.1101439014927718 -0.044271665517911327 0 -0.10805288157548311 -0.041166222738714384 0 -0.071424751424564517 -0.030260615331232959 0 -0.072758101334542816 -0.0321434533383834 0 -0.071280518651100758 -0.032609708137590322 0 -0.072928030427782023 -0.038781090506745004 0 -0.056690073298342476 -0.036695000269079812 0 -0.062286357260714804 -0.041342123679032283 0 -0.062691167464054134 -0.041392429371164385 0 -0.062613792405891336 -0.040684320294722347 0 -0.071424751424564517 -0.030260615331232959 0 -0.071280518651100758 -0.032609708137590322 0 -0.070066273030380655 -0.032568773525799066 0 -0.062286357260714804 -0.041342123679032283 0 -0.06244095406600348 -0.041548050042058894 0 -0.062691167464054134 -0.041392429371164385 0 -0.072928030427782023 -0.038781090506745004 0 -0.072388470994843385 -0.038588875512714803 0 -0.06244095406600348 -0.041548050042058894 0 -0.062419361743283636 -0.041964348984709937 0 -0.062700412239960299 -0.04198126222219873 0 -0.06244095406600348 -0.041548050042058894 0 -0.062419361743283636 -0.041964348984709937 0 -0.062079019482845714 -0.041949636378417268 0 -0.062462157135994012 -0.04235962721671669 0 -0.062226576288910061 -0.042537299385834122 0 -0.062079019482845714 -0.041949636378417268 0 -0.062226576288910061 -0.042537299385834122 0 -0.061847674385195617 -0.042464689117490642 0 -0.062079019482845714 -0.041949636378417268 0 -0.062462157135994012 -0.04235962721671669 0 -0.062419361743283636 -0.041964348984709937 0 -0.062079019482845714 -0.041949636378417268 0 -0.062462157135994012 -0.04235962721671669 0 -0.062419361743283636 -0.041964348984709937 0 -0.062700412239960299 -0.04198126222219873 0 -0.042089909484378345 -0.042628449635767791 0 -0.044172313744229821 -0.037086993066680597 0 -0.062714218623136919 -0.042495602648552747 0 -0.062462157135994012 -0.04235962721671669 0 -0.062700412239960299 -0.04198126222219873 0 -0.019512289544229396 -0.029488424600624921 0 -0.019350449830343834 -0.029682816453846784 0 -0.019495128193449805 -0.02987725237936642 0 -0.019350449830343834 -0.029682816453846784 0 -0.019284564793420951 -0.029816954550000496 0 -0.019495128193449805 -0.02987725237936642 0 -0.042089909484378345 -0.042628449635767791 0 -0.03092586701244451 -0.040220542122976072 0 -0.019512289544229396 -0.029488424600624921 0 -0.019350449830343834 -0.029682816453846784 0 -0.019092893856689958 -0.029799672493121633 0 -0.035621393645261165 -0.042434081783548426 0 -0.034882184380366887 -0.04281855827443487 0 -0.035967875542972726 -0.041573473209145909 0 -0.013835541527012737 -0.034963954642854386 0 -0.014318383483806431 -0.03469703808277988 0 -0.01411689533163518 -0.03393610736888069 0 -0.033163314191074163 -0.041987440513201642 0 -0.03092586701244451 -0.040220542122976072 0 -0.014318383483806431 -0.03469703808277988 0 -0.01411689533163518 -0.03393610736888069 0 -0.014546689797888007 -0.034299055577634165 0 -0.019350449830343834 -0.029682816453846784 0 -0.01923281277384483 -0.029792050111464748 0 -0.019284564793420951 -0.029816954550000496 0 -0.019350449830343834 -0.029682816453846784 0 -0.019092893856689958 -0.029799672493121633 0 -0.01923281277384483 -0.029792050111464748 0 -0.01923281277384483 -0.029792050111464748 0 -0.019284564793420951 -0.029816954550000496 0 -0.019189898466745337 -0.029863514062527862 0 -0.019092893856689958 -0.029799672493121633 0 -0.01923281277384483 -0.029792050111464748 0 -0.019189898466745337 -0.029863514062527862 0 -0.019189898466745337 -0.029863514062527862 0 -0.019255646889670481 -0.029925621154115269 0 -0.019066709628126264 -0.030013408607515495 0 -0.019284564793420951 -0.029816954550000496 0 -0.019189898466745337 -0.029863514062527862 0 -0.019255646889670481 -0.029925621154115269 0 -0.019092893856689958 -0.029799672493121633 0 -0.019189898466745337 -0.029863514062527862 0 -0.019066709628126264 -0.030013408607515495 0 -0.019255646889670481 -0.029925621154115269 0 -0.019066709628126264 -0.030013408607515495 0 -0.019241767095531718 -0.030128101803860483 0 -0.019255646889670481 -0.029925621154115269 0 -0.019495128193449805 -0.02987725237936642 0 -0.019241767095531718 -0.030128101803860483 0 -0.019495128193449805 -0.02987725237936642 0 -0.019505285607835494 -0.030317852023252961 0 -0.019241767095531718 -0.030128101803860483 0 -0.044172313744229821 -0.037086993066680597 0 -0.048322613856104833 -0.035907334045146608 0 -0.019284564793420951 -0.029816954550000496 0 -0.019255646889670481 -0.029925621154115269 0 -0.019495128193449805 -0.02987725237936642 0 -0.06244095406600348 -0.041548050042058894 0 -0.062700412239960299 -0.04198126222219873 0 -0.062691167464054134 -0.041392429371164385 0 -0.019505285607835494 -0.030317852023252961 0 -0.01917685245912313 -0.030474320134216006 0 -0.019241767095531718 -0.030128101803860483 0 -0.048322613856104833 -0.035907334045146608 0 -0.056690073298342476 -0.036695000269079812 0 -0.019505285607835494 -0.030317852023252961 0 -0.01917685245912313 -0.030474320134216006 0 -0.019512298599124865 -0.030744976954855015 0 -0.01917685245912313 -0.030474320134216006 0 -0.018984968519599656 -0.030278078482708866 0 -0.01878223107054677 -0.030641587218371739 0 -0.01917685245912313 -0.030474320134216006 0 -0.01878223107054677 -0.030641587218371739 0 -0.019177689684839658 -0.030754946497863839 0 -0.01917685245912313 -0.030474320134216006 0 -0.018984968519599656 -0.030278078482708866 0 -0.019241767095531718 -0.030128101803860483 0 -0.019066709628126264 -0.030013408607515495 0 -0.018984968519599656 -0.030278078482708866 0 -0.019241767095531718 -0.030128101803860483 0 -0.018984968519599656 -0.030278078482708866 0 -0.018625983652458648 -0.030157348569738115 0 -0.01878223107054677 -0.030641587218371739 0 -0.019066709628126264 -0.030013408607515495 0 -0.018984968519599656 -0.030278078482708866 0 -0.018625983652458648 -0.030157348569738115 0 -0.023675251190077958 -0.036190067903865919 0 -0.022027851830452323 -0.0347895781243307 0 -0.018625983652458648 -0.030157348569738115 0 -0.01878223107054677 -0.030641587218371739 0 -0.018035044626287036 -0.030757644483681661 0 -0.015799261169465409 -0.032037788576505147 0 -0.018076310671474818 -0.031773180939231767 0 -0.018035044626287036 -0.030757644483681661 0 -0.015799261169465409 -0.032037788576505147 0 -0.017018466802631492 -0.033238885047337227 0 -0.018076310671474818 -0.031773180939231767 0 -0.015799261169465409 -0.032037788576505147 0 -0.017018466802631492 -0.033238885047337227 0 -0.015884634194708338 -0.033592944913564918 0 -0.019092893856689958 -0.029799672493121633 0 -0.019066709628126264 -0.030013408607515495 0 -0.018625983652458648 -0.030157348569738115 0 -0.03092586701244451 -0.040220542122976072 0 -0.023675251190077958 -0.036190067903865919 0 -0.015799261169465409 -0.032037788576505147 0 -0.015884634194708338 -0.033592944913564918 0 -0.015023765164206657 -0.033999221495059274 0 -0.01411689533163518 -0.03393610736888069 0 -0.015799261169465409 -0.032037788576505147 0 -0.015023765164206657 -0.033999221495059274 0 -0.015884634194708338 -0.033592944913564918 0 -0.015023765164206657 -0.033999221495059274 0 -0.015382639299581504 -0.034153899176948686 0 -0.015382639299581504 -0.034153899176948686 0 -0.014901381966413869 -0.034339022149400864 0 -0.015134994539865103 -0.034473036812215398 0 -0.015023765164206657 -0.033999221495059274 0 -0.015382639299581504 -0.034153899176948686 0 -0.014901381966413869 -0.034339022149400864 0 -0.015382639299581504 -0.034153899176948686 0 -0.015134994539865103 -0.034473036812215398 0 -0.015486084406538604 -0.034502378619105642 0 -0.01411689533163518 -0.03393610736888069 0 -0.015023765164206657 -0.033999221495059274 0 -0.014546689797888007 -0.034299055577634165 0 -0.015023765164206657 -0.033999221495059274 0 -0.014901381966413869 -0.034339022149400864 0 -0.014546689797888007 -0.034299055577634165 0 -0.014318383483806431 -0.03469703808277988 0 -0.014546689797888007 -0.034299055577634165 0 -0.014792706824082985 -0.03485971223373599 0 -0.014901381966413869 -0.034339022149400864 0 -0.014546689797888007 -0.034299055577634165 0 -0.014792706824082985 -0.03485971223373599 0 -0.014901381966413869 -0.034339022149400864 0 -0.014792706824082985 -0.03485971223373599 0 -0.015134994539865103 -0.034473036812215398 0 -0.014792706824082985 -0.03485971223373599 0 -0.015134994539865103 -0.034473036812215398 0 -0.015486084406538604 -0.034502378619105642 0 -0.015866900272676409 -0.035901197996288679 0 -0.015356065396942894 -0.035251091439944086 0 -0.016464515837113045 -0.034848857079129471 0 -0.017018466802631492 -0.033238885047337227 0 -0.015884634194708338 -0.033592944913564918 0 -0.016464515837113045 -0.034848857079129471 0 -0.015356065396942894 -0.035251091439944086 0 -0.015486084406538604 -0.034502378619105642 0 -0.016464515837113045 -0.034848857079129471 0 -0.015884634194708338 -0.033592944913564918 0 -0.015382639299581504 -0.034153899176948686 0 -0.015486084406538604 -0.034502378619105642 0 -0.015884634194708338 -0.033592944913564918 0 -0.015486084406538604 -0.034502378619105642 0 -0.016464515837113045 -0.034848857079129471 0 -0.090264627465376251 -0.056864571222806054 0 -0.091871332219109536 -0.056141647697627244 0 -0.092188682480613876 -0.058691469231928792 0 -0.090264627465376251 -0.056864571222806054 0 -0.091871332219109536 -0.056141647697627244 0 -0.089015048999245977 -0.054697825079988861 0 -0.091001148720415967 -0.055732601744054762 0 -0.093016346303986586 -0.057605011194046631 0 -0.091871332219109536 -0.056141647697627244 0 -0.092188682480613876 -0.058691469231928792 0 -0.094583672116422546 -0.057342815080465237 0 -0.091483242404727674 -0.053767659417783352 0 -0.091724458339571074 -0.052629381745754447 0 -0.093568048566227469 -0.052495849670465111 0 -0.091483242404727674 -0.053767659417783352 0 -0.091724458339571074 -0.052629381745754447 0 -0.090733869754096266 -0.052151004830456864 0 -0.091724458339571074 -0.052629381745754447 0 -0.090733869754096266 -0.052151004830456864 0 -0.091707493045459637 -0.050910881931797818 0 -0.091001148720415967 -0.055732601744054762 0 -0.088161731477669245 -0.054166269981028449 0 -0.091483242404727674 -0.053767659417783352 0 -0.090733869754096266 -0.052151004830456864 0 -0.088474265073884714 -0.053095467668383724 0 -0.089015048999245977 -0.054697825079988861 0 -0.087009261394814019 -0.055690983236210634 0 -0.088672660478919779 -0.055944473197045749 0 -0.088161731477669245 -0.054166269981028449 0 -0.085002819608447064 -0.052759630244168437 0 -0.087009261394814019 -0.055690983236210634 0 -0.08499995200251094 -0.056759211882578431 0 -0.085000070174255024 -0.052758560043328108 0 -0.089015048999245977 -0.054697825079988861 0 -0.087009261394814019 -0.055690983236210634 0 -0.085000070174255024 -0.052758560043328108 0 -0.087009261394814019 -0.055690983236210634 0 -0.087219623723212097 -0.058365558244950475 0 -0.08499995200251094 -0.056759211882578431 0 -0.090264627465376251 -0.056864571222806054 0 -0.088672660478919779 -0.055944473197045749 0 -0.089470825462673834 -0.05856736617234945 0 -0.087219623723212097 -0.058365558244950475 0 -0.088672660478919779 -0.055944473197045749 0 -0.089771206589951455 -0.059802750025500791 0 -0.087009261394814019 -0.055690983236210634 0 -0.087219623723212097 -0.058365558244950475 0 -0.088672660478919779 -0.055944473197045749 0 -0.090264627465376251 -0.056864571222806054 0 -0.089015048999245977 -0.054697825079988861 0 -0.088672660478919779 -0.055944473197045749 0 -0.088518257476408541 -0.058584586169379782 0 -0.088768534745074498 -0.060276424171687056 0 -0.087219623723212097 -0.058365558244950475 0 -0.089771206589951455 -0.059802750025500791 0 -0.08748460796643158 -0.061163202523752791 0 -0.087219623723212097 -0.058365558244950475 0 -0.084999962077028673 -0.060760142832185456 0 -0.08748460796643158 -0.061163202523752791 0 -0.087219623723212097 -0.058365558244950475 0 -0.08499995200251094 -0.056759211882578431 0 -0.084999962077028673 -0.060760142832185456 0 -0.085000007885837323 -0.064760914303903946 0 -0.084999962077028673 -0.060760142832185456 0 -0.086723635099210813 -0.063306205959531542 0 -0.084999962077028673 -0.060760142832185456 0 -0.08748460796643158 -0.061163202523752791 0 -0.086723635099210813 -0.063306205959531542 0 -0.089771206589951455 -0.059802750025500791 0 -0.08748460796643158 -0.061163202523752791 0 -0.088801051133876999 -0.063594318041733988 0 -0.089771206589951455 -0.059802750025500791 0 -0.088801051133876999 -0.063594318041733988 0 -0.090796729023773476 -0.063623752501067651 0 -0.08748460796643158 -0.061163202523752791 0 -0.086723635099210813 -0.063306205959531542 0 -0.088801051133876999 -0.063594318041733988 0 -0.089141053905015644 -0.064084869441858913 0 -0.08906839746178187 -0.064111088099234756 0 -0.089470825462673834 -0.05856736617234945 0 -0.0901777566870062 -0.061099694594142127 0 -0.092188682480613876 -0.058691469231928792 0 -0.088768534745074498 -0.060276424171687056 0 -0.08906839746178187 -0.064111088099234756 0 -0.090264627465376251 -0.056864571222806054 0 -0.089470825462673834 -0.05856736617234945 0 -0.092188682480613876 -0.058691469231928792 0 -0.0901777566870062 -0.061099694594142127 0 -0.092188682480613876 -0.058691469231928792 0 -0.093568427047423908 -0.061121826673110641 0 -0.08906839746178187 -0.064111088099234756 0 -0.091652089020337932 -0.063635423754516099 0 -0.092188682480613876 -0.058691469231928792 0 -0.093568427047423908 -0.061121826673110641 0 -0.095264943357167106 -0.059559577824450934 0 -0.096902146302301873 -0.06115715644002228 0 -0.093568427047423908 -0.061121826673110641 0 -0.095264943357167106 -0.059559577824450934 0 -0.096902146302301873 -0.06115715644002228 0 -0.095264943357167106 -0.059559577824450934 0 -0.097286597763471122 -0.058495733607107747 0 -0.092277845028461716 -0.063295665680549951 0 -0.091652089020337932 -0.063635423754516099 0 -0.095264943357167106 -0.059559577824450934 0 -0.097286597763471122 -0.058495733607107747 0 -0.094583672116422546 -0.057342815080465237 0 -0.097005551441041948 -0.055411326461617762 0 -0.096957477949811938 -0.055741438440835636 0 -0.094227938404739073 -0.054730811068183907 0 -0.09243438355142046 -0.059734421535780673 0 -0.093016346303986586 -0.057605011194046631 0 -0.092188682480613876 -0.058691469231928792 0 -0.095264943357167106 -0.059559577824450934 0 -0.094583672116422546 -0.057342815080465237 0 -0.090469147279305509 -0.060535854400609788 0 -0.090437682110690781 -0.06058128600132056 0 -0.090530614846252397 -0.060616713349300917 0 -0.086923656977455813 -0.062505502784745662 0 -0.081958631892727354 -0.062435620914236781 0 -0.084562041032931523 -0.066639401459576975 0 -0.088798272739721379 -0.063186061684949904 0 -0.085970520326121416 -0.058852878181780213 0 -0.090541672526700839 -0.060539907894367431 0 -0.090469147279305509 -0.060535854400609788 0 -0.090530614846252397 -0.060616713349300917 0 -0.092277845028461716 -0.063295665680549951 0 -0.09243438355142046 -0.059734421535780673 0 -0.096954828229441778 -0.05572294900886339 0 -0.098699974190452705 -0.055193588975818088 0 -0.097811864442005278 -0.054855593627777165 0 -0.097005551441041948 -0.055411326461617762 0 -0.096954828229441778 -0.05572294900886339 0 -0.097811864442005278 -0.054855593627777165 0 -0.092458686606792906 -0.059666772817282103 0 -0.09243438355142046 -0.059734421535780673 0 -0.10073342826419211 -0.054416339853192733 0 -0.09943353318309639 -0.056728231474750243 0 -0.098699974190452705 -0.055193588975818088 0 -0.085970520326121416 -0.058852878181780213 0 -0.09243438355142046 -0.059734421535780673 0 -0.09943353318309639 -0.056728231474750243 0 -0.096954828229441778 -0.05572294900886339 0 -0.098699974190452705 -0.055193588975818088 0 -0.10073342826419211 -0.054416339853192733 0 -0.099843970853665753 -0.053211912927550203 0 -0.098699974190452705 -0.055193588975818088 0 -0.099843970853665753 -0.053211912927550203 0 -0.098699974190452705 -0.055193588975818088 0 -0.098372495032489668 -0.053350777748448742 0 -0.098699974190452705 -0.055193588975818088 0 -0.098372495032489668 -0.053350777748448742 0 -0.097811864442005278 -0.054855593627777165 0 -0.097005551441041948 -0.055411326461617762 0 -0.097292952297823046 -0.053968736353459598 0 -0.095885691517462568 -0.053409757751958685 0 -0.098372495032489668 -0.053350777748448742 0 -0.097811864442005278 -0.054855593627777165 0 -0.097292952297823046 -0.053968736353459598 0 -0.098372495032489668 -0.053350777748448742 0 -0.097292952297823046 -0.053968736353459598 0 -0.097259524417872709 -0.052728166952162342 0 -0.097005551441041948 -0.055411326461617762 0 -0.097811864442005278 -0.054855593627777165 0 -0.097292952297823046 -0.053968736353459598 0 -0.097292952297823046 -0.053968736353459598 0 -0.097259524417872709 -0.052728166952162342 0 -0.095885691517462568 -0.053409757751958685 0 -0.098372495032489668 -0.053350777748448742 0 -0.097259524417872709 -0.052728166952162342 0 -0.097690276688436592 -0.051222033767174782 0 -0.097259524417872709 -0.052728166952162342 0 -0.095499331093160403 -0.050583533899094701 0 -0.097690276688436592 -0.051222033767174782 0 -0.099846437880732664 -0.051705224928922544 0 -0.098372495032489668 -0.053350777748448742 0 -0.097690276688436592 -0.051222033767174782 0 -0.099846437880732664 -0.051705224928922544 0 -0.099843970853665753 -0.053211912927550203 0 -0.098372495032489668 -0.053350777748448742 0 -0.094227938404739073 -0.054730811068183907 0 -0.095885691517462568 -0.053409757751958685 0 -0.093568048566227469 -0.052495849670465111 0 -0.091483242404727674 -0.053767659417783352 0 -0.094227938404739073 -0.054730811068183907 0 -0.093568048566227469 -0.052495849670465111 0 -0.097005551441041948 -0.055411326461617762 0 -0.094227938404739073 -0.054730811068183907 0 -0.095885691517462568 -0.053409757751958685 0 -0.095885691517462568 -0.053409757751958685 0 -0.093568048566227469 -0.052495849670465111 0 -0.095499331093160403 -0.050583533899094701 0 -0.097259524417872709 -0.052728166952162342 0 -0.095885691517462568 -0.053409757751958685 0 -0.095499331093160403 -0.050583533899094701 0 -0.093568048566227469 -0.052495849670465111 0 -0.095499331093160403 -0.050583533899094701 0 -0.092556988940281124 -0.04914891339135341 0 -0.095499331093160403 -0.050583533899094701 0 -0.09579347420498216 -0.04752312646433933 0 -0.097929812103039776 -0.048787149776779101 0 -0.095499331093160403 -0.050583533899094701 0 -0.09579347420498216 -0.04752312646433933 0 -0.092556988940281124 -0.04914891339135341 0 -0.09579347420498216 -0.04752312646433933 0 -0.092556988940281124 -0.04914891339135341 0 -0.093960043033596771 -0.04502493722752092 0 -0.09320254334111229 -0.048575446337946158 0 -0.094416196590395268 -0.045514443781405171 0 -0.093668401353628264 -0.049292945020344953 0 -0.095132028657381892 -0.045099729847571955 0 -0.092311382995920357 -0.046592460851401021 0 -0.09497238663407466 -0.050987096832232764 0 -0.09696068869518075 -0.051204414293119879 0 -0.10216969976696251 -0.051766830346886818 0 -0.098832596063692393 -0.051153272909413683 0 -0.100890575241613 -0.048260809083783801 0 -0.096638040277353426 -0.051092377467782404 0 -0.09696068869518075 -0.051204414293119879 0 -0.095499331093160403 -0.050583533899094701 0 -0.098832596063692393 -0.051153272909413683 0 -0.097929812103039776 -0.048787149776779101 0 -0.098832596063692393 -0.051153272909413683 0 -0.097929812103039776 -0.048787149776779101 0 -0.100890575241613 -0.048260809083783801 0 -0.09579347420498216 -0.04752312646433933 0 -0.097929812103039776 -0.048787149776779101 0 -0.098663955795866815 -0.046443879562070474 0 -0.097929812103039776 -0.048787149776779101 0 -0.100890575241613 -0.048260809083783801 0 -0.098663955795866815 -0.046443879562070474 0 -0.10345057759992111 -0.045761255833538309 0 -0.100890575241613 -0.048260809083783801 0 -0.100749344058261 -0.044549258625276908 0 -0.100890575241613 -0.048260809083783801 0 -0.100749344058261 -0.044549258625276908 0 -0.098663955795866815 -0.046443879562070474 0 -0.10345057759992111 -0.045761255833538309 0 -0.100749344058261 -0.044549258625276908 0 -0.1019396238888917 -0.042716325083038929 0 -0.09579347420498216 -0.04752312646433933 0 -0.098663955795866815 -0.046443879562070474 0 -0.09762089260293827 -0.043552332055997227 0 -0.100749344058261 -0.044549258625276908 0 -0.098663955795866815 -0.046443879562070474 0 -0.09762089260293827 -0.043552332055997227 0 -0.09762089260293827 -0.043552332055997227 0 -0.10032863779261184 -0.041449069215727018 0 -0.097999682874762378 -0.040351630518314821 0 -0.09762089260293827 -0.043552332055997227 0 -0.095857050613278982 -0.040897716662471412 0 -0.097999682874762378 -0.040351630518314821 0 -0.100749344058261 -0.044549258625276908 0 -0.09762089260293827 -0.043552332055997227 0 -0.10032863779261184 -0.041449069215727018 0 -0.100749344058261 -0.044549258625276908 0 -0.10032863779261184 -0.041449069215727018 0 -0.1019396238888917 -0.042716325083038929 0 -0.10032863779261184 -0.041449069215727018 0 -0.1019396238888917 -0.042716325083038929 0 -0.10248351681199301 -0.041075493238754181 0 -0.09579347420498216 -0.04752312646433933 0 -0.09762089260293827 -0.043552332055997227 0 -0.093960043033596771 -0.04502493722752092 0 -0.094416196590395268 -0.045514443781405171 0 -0.095160437641081355 -0.043625468759657206 0 -0.09762089260293827 -0.043552332055997227 0 -0.093960043033596771 -0.04502493722752092 0 -0.095857050613278982 -0.040897716662471412 0 -0.095132028657381892 -0.045099729847571955 0 -0.092358185407156512 -0.042929098942194946 0 -0.095857050613278982 -0.040897716662471412 0 -0.092358185407156512 -0.042929098942194946 0 -0.089652849453395883 -0.046390659446349472 0 -0.088861915107282793 -0.042880301492003961 0 -0.092358185407156512 -0.042929098942194946 0 -0.089652849453395883 -0.046390659446349472 0 -0.092311382995920357 -0.046592460851401021 0 -0.095132028657381892 -0.045099729847571955 0 -0.092358185407156512 -0.042929098942194946 0 -0.092311382995920357 -0.046592460851401021 0 -0.093668401353628264 -0.049292945020344953 0 -0.092311382995920357 -0.046592460851401021 0 -0.090193293005252265 -0.050025257672096562 0 -0.089652849453395883 -0.046390659446349472 0 -0.092311382995920357 -0.046592460851401021 0 -0.090193293005252265 -0.050025257672096562 0 -0.090733869754096266 -0.052151004830456864 0 -0.090193293005252265 -0.050025257672096562 0 -0.091707493045459637 -0.050910881931797818 0 -0.090733869754096266 -0.052151004830456864 0 -0.088474265073884714 -0.053095467668383724 0 -0.090193293005252265 -0.050025257672096562 0 -0.092501053433641511 -0.050288374896657148 0 -0.09320254334111229 -0.048575446337946158 0 -0.091724458339571074 -0.052629381745754447 0 -0.093568048566227469 -0.052495849670465111 0 -0.092556988940281124 -0.04914891339135341 0 -0.091724458339571074 -0.052629381745754447 0 -0.093668401353628264 -0.049292945020344953 0 -0.091707493045459637 -0.050910881931797818 0 -0.093668401353628264 -0.049292945020344953 0 -0.090193293005252265 -0.050025257672096562 0 -0.091707493045459637 -0.050910881931797818 0 -0.088474265073884714 -0.053095467668383724 0 -0.084999955839787728 -0.052755793748148129 0 -0.087580620020780361 -0.049590601955375117 0 -0.088474265073884714 -0.053095467668383724 0 -0.090193293005252265 -0.050025257672096562 0 -0.087580620020780361 -0.049590601955375117 0 -0.089652849453395883 -0.046390659446349472 0 -0.090193293005252265 -0.050025257672096562 0 -0.087580620020780361 -0.049590601955375117 0 -0.087580620020780361 -0.049590601955375117 0 -0.084999576124631215 -0.04802198220055074 0 -0.087189034550833752 -0.04573943507167192 0 -0.084999955839787728 -0.052755793748148129 0 -0.087580620020780361 -0.049590601955375117 0 -0.084999576124631215 -0.04802198220055074 0 -0.084999576124631215 -0.04802198220055074 0 -0.087189034550833752 -0.04573943507167192 0 -0.084999685147977094 -0.04328521567465176 0 -0.089652849453395883 -0.046390659446349472 0 -0.087580620020780361 -0.049590601955375117 0 -0.087189034550833752 -0.04573943507167192 0 -0.089652849453395883 -0.046390659446349472 0 -0.087189034550833752 -0.04573943507167192 0 -0.088861915107282793 -0.042880301492003961 0 -0.087189034550833752 -0.04573943507167192 0 -0.088861915107282793 -0.042880301492003961 0 -0.084999685147977094 -0.04328521567465176 0 -0.084999685147977094 -0.04328521567465176 0 -0.087989756800981117 -0.039267871190078088 0 -0.084999715320603353 -0.038549326536503024 0 -0.088861915107282793 -0.042880301492003961 0 -0.084999685147977094 -0.04328521567465176 0 -0.087989756800981117 -0.039267871190078088 0 -0.088861915107282793 -0.042880301492003961 0 -0.087989756800981117 -0.039267871190078088 0 -0.090707767647346366 -0.039685947236669274 0 -0.087989756800981117 -0.039267871190078088 0 -0.090707767647346366 -0.039685947236669274 0 -0.088824452366051826 -0.035533921586683212 0 -0.087989756800981117 -0.039267871190078088 0 -0.084999715320603353 -0.038549326536503024 0 -0.088824452366051826 -0.035533921586683212 0 -0.092358185407156512 -0.042929098942194946 0 -0.090707767647346366 -0.039685947236669274 0 -0.0937559925290153 -0.038885330730145648 0 -0.092358185407156512 -0.042929098942194946 0 -0.088861915107282793 -0.042880301492003961 0 -0.090707767647346366 -0.039685947236669274 0 -0.090707767647346366 -0.039685947236669274 0 -0.092127459301260567 -0.036804373115753179 0 -0.088824452366051826 -0.035533921586683212 0 -0.090707767647346366 -0.039685947236669274 0 -0.092127459301260567 -0.036804373115753179 0 -0.0937559925290153 -0.038885330730145648 0 -0.092127459301260567 -0.036804373115753179 0 -0.092446102207669162 -0.033745997174137364 0 -0.094786850818934815 -0.036003897928234635 0 -0.092127459301260567 -0.036804373115753179 0 -0.092446102207669162 -0.033745997174137364 0 -0.088824452366051826 -0.035533921586683212 0 -0.092446102207669162 -0.033745997174137364 0 -0.088824452366051826 -0.035533921586683212 0 -0.089571180305860018 -0.031059319508439251 0 -0.084999715320603353 -0.038549326536503024 0 -0.088824452366051826 -0.035533921586683212 0 -0.084999761967960649 -0.03381316036565301 0 -0.088824452366051826 -0.035533921586683212 0 -0.087041032756089376 -0.031197288040606449 0 -0.089571180305860018 -0.031059319508439251 0 -0.088824452366051826 -0.035533921586683212 0 -0.084999761967960649 -0.03381316036565301 0 -0.087041032756089376 -0.031197288040606449 0 -0.084999761967960649 -0.03381316036565301 0 -0.087041032756089376 -0.031197288040606449 0 -0.084999767911885432 -0.02907769624224359 0 -0.087041032756089376 -0.031197288040606449 0 -0.084999767911885432 -0.02907769624224359 0 -0.086351086064328147 -0.028289358741960396 0 -0.084999658365075934 -0.029069942081841039 0 -0.08553761469338203 -0.027193135347241323 0 -0.084999997535848013 -0.029076618150225986 0 -0.086490975252051822 -0.028040659118855137 0 -0.084999998792271242 -0.027038760201816892 0 -0.086454556006969691 -0.027990389672086852 0 -0.084999900919123406 -0.027038479295109424 0 -0.086551410712698756 -0.026247399962394193 0 -0.08553761469338203 -0.027193135347241323 0 -0.085001624042879226 -0.027038887672888857 0 -0.078221724456537148 -0.023019818561770267 0 -0.081937963890122992 -0.023080519936660999 0 -0.082338919598924601 -0.025834128188584004 0 -0.078221724456537148 -0.023019818561770267 0 -0.081937963890122992 -0.023080519936660999 0 -0.08209835325546419 -0.020326308052058352 0 -0.086454556006969691 -0.027990389672086852 0 -0.086551410712698756 -0.026247399962394193 0 -0.089843753568533441 -0.025566276080709004 0 -0.08553761469338203 -0.027193135347241323 0 -0.087101278300996829 -0.024023179476008689 0 -0.08553761469338203 -0.027193135347241323 0 -0.086498765473089975 -0.028565025289757535 0 -0.087041032756089376 -0.031197288040606449 0 -0.086351086064328147 -0.028289358741960396 0 -0.089571180305860018 -0.031059319508439251 0 -0.089463376578557907 -0.0311112170474078 0 -0.086498765473089975 -0.028565025289757535 0 -0.086307967490881279 -0.028769291908025622 0 -0.082338919598924601 -0.025834128188584004 0 -0.085105632597400643 -0.023145997096808864 0 -0.086307967490881279 -0.028769291908025622 0 -0.085105632597400643 -0.023145997096808864 0 -0.088915308470765897 -0.024971829569103019 0 -0.085105632597400643 -0.023145997096808864 0 -0.088825151037613959 -0.021532160553154763 0 -0.088915308470765897 -0.024971829569103019 0 -0.081937963890122992 -0.023080519936660999 0 -0.085105632597400643 -0.023145997096808864 0 -0.08209835325546419 -0.020326308052058352 0 -0.081937963890122992 -0.023080519936660999 0 -0.082338919598924601 -0.025834128188584004 0 -0.085105632597400643 -0.023145997096808864 0 -0.089941208651461838 -0.020961473040616421 0 -0.087101278300996829 -0.024023179476008689 0 -0.093188007607323708 -0.023152504370512406 0 -0.089683184772709812 -0.022806928680545083 0 -0.089843753568533441 -0.025566276080709004 0 -0.085105632597400643 -0.023145997096808864 0 -0.086131887653529221 -0.017639661236096799 0 -0.08209835325546419 -0.020326308052058352 0 -0.086131887653529221 -0.017639661236096799 0 -0.089576339984756878 -0.01796535692170409 0 -0.088825151037613959 -0.021532160553154763 0 -0.085105632597400643 -0.023145997096808864 0 -0.086131887653529221 -0.017639661236096799 0 -0.088825151037613959 -0.021532160553154763 0 -0.086131887653529221 -0.017639661236096799 0 -0.089576339984756878 -0.01796535692170409 0 -0.090153139102367122 -0.015270124526479056 0 -0.089941208651461838 -0.020961473040616421 0 -0.092982941399497254 -0.018152038215388862 0 -0.093188007607323708 -0.023152504370512406 0 -0.089683184772709812 -0.022806928680545083 0 -0.091424157694137725 -0.020457062135531133 0 -0.089683184772709812 -0.022806928680545083 0 -0.087091957769348416 -0.021360804986916237 0 -0.086799559481052918 -0.024500652280226461 0 -0.089683184772709812 -0.022806928680545083 0 -0.087091957769348416 -0.021360804986916237 0 -0.091424157694137725 -0.020457062135531133 0 -0.084999996325635679 -0.022021775100433828 0 -0.087091957769348416 -0.021360804986916237 0 -0.086799559481052918 -0.024500652280226461 0 -0.084999900919123406 -0.027038479295109424 0 -0.084999996325635679 -0.022021775100433828 0 -0.086799559481052918 -0.024500652280226461 0 -0.084999900919123406 -0.027038479295109424 0 -0.086799559481052918 -0.024500652280226461 0 -0.086551410712698756 -0.026247399962394193 0 -0.086799559481052918 -0.024500652280226461 0 -0.086551410712698756 -0.026247399962394193 0 -0.089843753568533441 -0.025566276080709004 0 -0.089683184772709812 -0.022806928680545083 0 -0.086799559481052918 -0.024500652280226461 0 -0.089843753568533441 -0.025566276080709004 0 -0.094577225695786485 -0.02046855665571851 0 -0.097209778061030053 -0.01986352892948888 0 -0.095550511745531447 -0.018214569759857142 0 -0.097209778061030053 -0.01986352892948888 0 -0.097271694072485121 -0.017790212449614165 0 -0.095550511745531447 -0.018214569759857142 0 -0.094577225695786485 -0.02046855665571851 0 -0.095550511745531447 -0.018214569759857142 0 -0.09359630009035233 -0.018242035485001685 0 -0.097209778061030053 -0.01986352892948888 0 -0.097271694072485121 -0.017790212449614165 0 -0.099243635112404957 -0.018104826050828852 0 -0.097209778061030053 -0.01986352892948888 0 -0.099092810303530704 -0.020806140949639212 0 -0.099243635112404957 -0.018104826050828852 0 -0.097271694072485121 -0.017790212449614165 0 -0.098046032632059493 -0.01638271607876899 0 -0.099243635112404957 -0.018104826050828852 0 -0.097271694072485121 -0.017790212449614165 0 -0.098046032632059493 -0.01638271607876899 0 -0.096013923139322221 -0.016373855493024288 0 -0.097271694072485121 -0.017790212449614165 0 -0.096013923139322221 -0.016373855493024288 0 -0.095550511745531447 -0.018214569759857142 0 -0.095550511745531447 -0.018214569759857142 0 -0.094613923561224181 -0.016641383715716399 0 -0.09359630009035233 -0.018242035485001685 0 -0.096013923139322221 -0.016373855493024288 0 -0.095550511745531447 -0.018214569759857142 0 -0.094613923561224181 -0.016641383715716399 0 -0.096013923139322221 -0.016373855493024288 0 -0.094613923561224181 -0.016641383715716399 0 -0.094687410047029894 -0.015480461490936166 0 -0.094613923561224181 -0.016641383715716399 0 -0.092966378935217045 -0.016588173459412808 0 -0.093698820789714643 -0.015508877903348374 0 -0.092966378935217045 -0.016588173459412808 0 -0.092386586833978074 -0.015523570222291129 0 -0.093698820789714643 -0.015508877903348374 0 -0.092966378935217045 -0.016588173459412808 0 -0.091845380092769047 -0.017803096157077591 0 -0.091498851013035759 -0.016441925936364645 0 -0.092966378935217045 -0.016588173459412808 0 -0.091498851013035759 -0.016441925936364645 0 -0.092386586833978074 -0.015523570222291129 0 -0.092966378935217045 -0.016588173459412808 0 -0.091845380092769047 -0.017803096157077591 0 -0.09359630009035233 -0.018242035485001685 0 -0.094613923561224181 -0.016641383715716399 0 -0.092966378935217045 -0.016588173459412808 0 -0.09359630009035233 -0.018242035485001685 0 -0.091498851013035759 -0.016441925936364645 0 -0.089576339984756878 -0.01796535692170409 0 -0.090153139102367122 -0.015270124526479056 0 -0.091845380092769047 -0.017803096157077591 0 -0.091498851013035759 -0.016441925936364645 0 -0.089576339984756878 -0.01796535692170409 0 -0.089576339984756878 -0.01796535692170409 0 -0.091877677077988509 -0.019882430490978705 0 -0.088825151037613959 -0.021532160553154763 0 -0.091845380092769047 -0.017803096157077591 0 -0.089576339984756878 -0.01796535692170409 0 -0.091877677077988509 -0.019882430490978705 0 -0.094577225695786485 -0.02046855665571851 0 -0.09359630009035233 -0.018242035485001685 0 -0.091877677077988509 -0.019882430490978705 0 -0.091845380092769047 -0.017803096157077591 0 -0.09359630009035233 -0.018242035485001685 0 -0.091877677077988509 -0.019882430490978705 0 -0.094577225695786485 -0.02046855665571851 0 -0.091877677077988509 -0.019882430490978705 0 -0.09257713573252431 -0.023702661888177139 0 -0.091877677077988509 -0.019882430490978705 0 -0.09257713573252431 -0.023702661888177139 0 -0.088825151037613959 -0.021532160553154763 0 -0.09257713573252431 -0.023702661888177139 0 -0.088825151037613959 -0.021532160553154763 0 -0.088915308470765897 -0.024971829569103019 0 -0.086307967490881279 -0.028769291908025622 0 -0.088915308470765897 -0.024971829569103019 0 -0.091339460257746238 -0.027821076988855695 0 -0.09257713573252431 -0.023702661888177139 0 -0.088915308470765897 -0.024971829569103019 0 -0.091339460257746238 -0.027821076988855695 0 -0.09257713573252431 -0.023702661888177139 0 -0.095585897129657177 -0.026802441033901375 0 -0.091339460257746238 -0.027821076988855695 0 -0.095585897129657177 -0.026802441033901375 0 -0.096803923729686783 -0.023017631143234688 0 -0.097867551988757531 -0.02589407478523912 0 -0.09257713573252431 -0.023702661888177139 0 -0.095585897129657177 -0.026802441033901375 0 -0.096803923729686783 -0.023017631143234688 0 -0.095585897129657177 -0.026802441033901375 0 -0.097867551988757531 -0.02589407478523912 0 -0.097921474880397305 -0.028682759242791903 0 -0.094577225695786485 -0.02046855665571851 0 -0.09257713573252431 -0.023702661888177139 0 -0.096803923729686783 -0.023017631143234688 0 -0.094577225695786485 -0.02046855665571851 0 -0.097209778061030053 -0.01986352892948888 0 -0.096803923729686783 -0.023017631143234688 0 -0.099092810303530704 -0.020806140949639212 0 -0.099063533444629967 -0.024273992180948042 0 -0.10044424679673788 -0.021436659231997696 0 -0.096803923729686783 -0.023017631143234688 0 -0.099092810303530704 -0.020806140949639212 0 -0.099063533444629967 -0.024273992180948042 0 -0.097209778061030053 -0.01986352892948888 0 -0.096803923729686783 -0.023017631143234688 0 -0.099092810303530704 -0.020806140949639212 0 -0.099063533444629967 -0.024273992180948042 0 -0.10044424679673788 -0.021436659231997696 0 -0.10096821813406195 -0.026580611750437418 0 -0.096803923729686783 -0.023017631143234688 0 -0.099063533444629967 -0.024273992180948042 0 -0.097867551988757531 -0.02589407478523912 0 -0.099063533444629967 -0.024273992180948042 0 -0.097867551988757531 -0.02589407478523912 0 -0.10011638989592371 -0.0271808956747258 0 -0.099063533444629967 -0.024273992180948042 0 -0.10011638989592371 -0.0271808956747258 0 -0.10096821813406195 -0.026580611750437418 0 -0.096520320591398215 -0.031298895806193563 0 -0.096092812902074234 -0.031627671624931068 0 -0.10011638989592371 -0.0271808956747258 0 -0.10135190042891866 -0.028969969571592397 0 -0.10096821813406195 -0.026580611750437418 0 -0.10011638989592371 -0.0271808956747258 0 -0.10012532808600091 -0.030116997070699963 0 -0.10307117075231988 -0.030896941076879021 0 -0.10012532808600091 -0.030116997070699963 0 -0.10060493339003351 -0.032289416145781846 0 -0.10307117075231988 -0.030896941076879021 0 -0.10012532808600091 -0.030116997070699963 0 -0.097921474880397305 -0.028682759242791903 0 -0.098289231399037932 -0.032031020726892089 0 -0.10011638989592371 -0.0271808956747258 0 -0.10012532808600091 -0.030116997070699963 0 -0.097921474880397305 -0.028682759242791903 0 -0.097867551988757531 -0.02589407478523912 0 -0.10011638989592371 -0.0271808956747258 0 -0.097921474880397305 -0.028682759242791903 0 -0.095585897129657177 -0.026802441033901375 0 -0.097921474880397305 -0.028682759242791903 0 -0.094793869953712626 -0.030798959194761135 0 -0.097921474880397305 -0.028682759242791903 0 -0.098289231399037932 -0.032031020726892089 0 -0.094793869953712626 -0.030798959194761135 0 -0.098289231399037932 -0.032031020726892089 0 -0.099687463041068125 -0.034298775272292303 0 -0.096551819750562637 -0.036923520408610362 0 -0.098289231399037932 -0.032031020726892089 0 -0.094793869953712626 -0.030798959194761135 0 -0.096551819750562637 -0.036923520408610362 0 -0.099687463041068125 -0.034298775272292303 0 -0.10060493339003351 -0.032289416145781846 0 -0.10216812985918323 -0.033938082131910449 0 -0.099687463041068125 -0.034298775272292303 0 -0.10063320081673119 -0.036441047499286755 0 -0.10216812985918323 -0.033938082131910449 0 -0.10060493339003351 -0.032289416145781846 0 -0.10307117075231988 -0.030896941076879021 0 -0.10216812985918323 -0.033938082131910449 0 -0.098289231399037932 -0.032031020726892089 0 -0.099687463041068125 -0.034298775272292303 0 -0.10060493339003351 -0.032289416145781846 0 -0.10012532808600091 -0.030116997070699963 0 -0.098289231399037932 -0.032031020726892089 0 -0.10060493339003351 -0.032289416145781846 0 -0.089463376578557907 -0.0311112170474078 0 -0.092617087308058246 -0.033635778053339262 0 -0.086307967490881279 -0.028769291908025622 0 -0.091339460257746238 -0.027821076988855695 0 -0.090477311622249354 -0.032354882660142095 0 -0.091339460257746238 -0.027821076988855695 0 -0.094793869953712626 -0.030798959194761135 0 -0.090477311622249354 -0.032354882660142095 0 -0.095585897129657177 -0.026802441033901375 0 -0.091339460257746238 -0.027821076988855695 0 -0.094793869953712626 -0.030798959194761135 0 -0.094793869953712626 -0.030798959194761135 0 -0.090477311622249354 -0.032354882660142095 0 -0.096551819750562637 -0.036923520408610362 0 -0.092617087308058246 -0.033635778053339262 0 -0.094491630209874999 -0.035037370139909263 0 -0.092127459301260567 -0.036804373115753179 0 -0.094786850818934815 -0.036003897928234635 0 -0.0937559925290153 -0.038885330730145648 0 -0.094786850818934815 -0.036003897928234635 0 -0.0937559925290153 -0.038885330730145648 0 -0.096551819750562637 -0.036923520408610362 0 -0.0937559925290153 -0.038885330730145648 0 -0.095857050613278982 -0.040897716662471412 0 -0.096551819750562637 -0.036923520408610362 0 -0.092358185407156512 -0.042929098942194946 0 -0.0937559925290153 -0.038885330730145648 0 -0.095857050613278982 -0.040897716662471412 0 -0.10063320081673119 -0.036441047499286755 0 -0.099851857914913522 -0.038740514405202403 0 -0.10248860558176315 -0.037517374736842142 0 -0.10063320081673119 -0.036441047499286755 0 -0.10303048064378872 -0.035872141379560393 0 -0.10216812985918323 -0.033938082131910449 0 -0.10063320081673119 -0.036441047499286755 0 -0.10248860558176315 -0.037517374736842142 0 -0.10303048064378872 -0.035872141379560393 0 -0.096551819750562637 -0.036923520408610362 0 -0.097999682874762378 -0.040351630518314821 0 -0.099851857914913522 -0.038740514405202403 0 -0.099687463041068125 -0.034298775272292303 0 -0.10063320081673119 -0.036441047499286755 0 -0.096551819750562637 -0.036923520408610362 0 -0.10063320081673119 -0.036441047499286755 0 -0.096551819750562637 -0.036923520408610362 0 -0.099851857914913522 -0.038740514405202403 0 -0.095857050613278982 -0.040897716662471412 0 -0.096551819750562637 -0.036923520408610362 0 -0.097999682874762378 -0.040351630518314821 0 -0.10032863779261184 -0.041449069215727018 0 -0.097999682874762378 -0.040351630518314821 0 -0.099851857914913522 -0.038740514405202403 0 -0.10032863779261184 -0.041449069215727018 0 -0.099851857914913522 -0.038740514405202403 0 -0.10161046313976192 -0.039651385375999056 0 -0.099851857914913522 -0.038740514405202403 0 -0.10161046313976192 -0.039651385375999056 0 -0.10248860558176315 -0.037517374736842142 0 -0.10032863779261184 -0.041449069215727018 0 -0.10161046313976192 -0.039651385375999056 0 -0.10248351681199301 -0.041075493238754181 0 -0.10248351681199301 -0.041075493238754181 0 -0.10389180902046506 -0.040547885439096612 0 -0.10312419186939022 -0.039316672013573715 0 -0.10161046313976192 -0.039651385375999056 0 -0.10248351681199301 -0.041075493238754181 0 -0.10312419186939022 -0.039316672013573715 0 -0.10392959116486142 -0.04260960312669524 0 -0.10389180902046506 -0.040547885439096612 0 -0.10518190732800323 -0.040776364243623561 0 -0.10389180902046506 -0.040547885439096612 0 -0.10452863240437411 -0.040025903052719032 0 -0.10518190732800323 -0.040776364243623561 0 -0.10389180902046506 -0.040547885439096612 0 -0.10452863240437411 -0.040025903052719032 0 -0.10403919769561248 -0.039450907238558576 0 -0.10452863240437411 -0.040025903052719032 0 -0.10403919769561248 -0.039450907238558576 0 -0.10522179087139921 -0.039041697264054161 0 -0.10389180902046506 -0.040547885439096612 0 -0.10403919769561248 -0.039450907238558576 0 -0.10312419186939022 -0.039316672013573715 0 -0.10403919769561248 -0.039450907238558576 0 -0.10312419186939022 -0.039316672013573715 0 -0.10420228659604516 -0.038305948900069269 0 -0.10403919769561248 -0.039450907238558576 0 -0.10420228659604516 -0.038305948900069269 0 -0.10522179087139921 -0.039041697264054161 0 -0.10161046313976192 -0.039651385375999056 0 -0.10312419186939022 -0.039316672013573715 0 -0.10248860558176315 -0.037517374736842142 0 -0.10420228659604516 -0.038305948900069269 0 -0.10303048064378872 -0.035872141379560393 0 -0.10493606704017604 -0.034187440518382031 0 -0.10248860558176315 -0.037517374736842142 0 -0.10420228659604516 -0.038305948900069269 0 -0.10303048064378872 -0.035872141379560393 0 -0.093043202055543173 -0.034085714866282507 0 -0.094392442795783446 -0.032349744062315722 0 -0.10312419186939022 -0.039316672013573715 0 -0.10248860558176315 -0.037517374736842142 0 -0.10420228659604516 -0.038305948900069269 0 -0.10420228659604516 -0.038305948900069269 0 -0.10522179087139921 -0.039041697264054161 0 -0.10493606704017604 -0.034187440518382031 0 -0.091028102506248779 -0.033551311111450759 0 -0.090354444992873525 -0.030211603401017785 0 -0.094537699410206441 -0.033409840211344639 0 -0.09407187411469245 -0.033968471947643943 0 -0.093806438741007331 -0.032347665175138318 0 -0.091028102506248779 -0.033551311111450759 0 -0.08505334356585903 -0.032561424346153847 0 -0.091028102506248779 -0.033551311111450759 0 -0.094392442795783446 -0.032349744062315722 0 -0.091028102506248779 -0.033551311111450759 0 -0.093043202055543173 -0.034085714866282507 0 -0.091028102506248779 -0.033551311111450759 0 -0.084569558511584236 -0.037862164300334407 0 -0.10592275910585994 -0.038061256736140497 0 -0.10491500545392461 -0.039284403470493272 0 -0.10518190732800323 -0.040776364243623561 0 -0.10592275910585994 -0.038061256736140497 0 -0.10518190732800323 -0.040776364243623561 0 -0.10805288157548311 -0.041166222738714384 0 -0.093043202055543173 -0.034085714866282507 0 -0.093610044667201436 -0.035069608472660579 0 -0.10452863240437411 -0.040025903052719032 0 -0.10522179087139921 -0.039041697264054161 0 -0.10518190732800323 -0.040776364243623561 0 -0.074166616822483822 -0.034108253452680211 0 -0.072758101334542816 -0.0321434533383834 0 -0.072374530032736695 -0.033765107165585451 0 -0.072758101334542816 -0.0321434533383834 0 -0.071280518651100758 -0.032609708137590322 0 -0.072374530032736695 -0.033765107165585451 0 -0.070779388367745485 -0.033403632414043656 0 -0.07021948497148453 -0.034224058318020403 0 -0.070066273030380655 -0.032568773525799066 0 -0.071280518651100758 -0.032609708137590322 0 -0.07143934386394489 -0.033520753313139584 0 -0.070779388367745485 -0.033403632414043656 0 -0.071280518651100758 -0.032609708137590322 0 -0.07143934386394489 -0.033520753313139584 0 -0.072374530032736695 -0.033765107165585451 0 -0.071280518651100758 -0.032609708137590322 0 -0.070779388367745485 -0.033403632414043656 0 -0.070066273030380655 -0.032568773525799066 0 -0.07021948497148453 -0.034224058318020403 0 -0.070862030485156047 -0.035090677477424288 0 -0.069905832424711323 -0.035900467383663613 0 -0.070779388367745485 -0.033403632414043656 0 -0.07021948497148453 -0.034224058318020403 0 -0.071189933463882249 -0.034189660697054883 0 -0.07143934386394489 -0.033520753313139584 0 -0.071189933463882249 -0.034189660697054883 0 -0.072374530032736695 -0.033765107165585451 0 -0.07143934386394489 -0.033520753313139584 0 -0.070779388367745485 -0.033403632414043656 0 -0.071189933463882249 -0.034189660697054883 0 -0.071189933463882249 -0.034189660697054883 0 -0.070862030485156047 -0.035090677477424288 0 -0.071799709486728647 -0.03481614947682353 0 -0.07021948497148453 -0.034224058318020403 0 -0.071189933463882249 -0.034189660697054883 0 -0.070862030485156047 -0.035090677477424288 0 -0.074166616822483822 -0.034108253452680211 0 -0.072374530032736695 -0.033765107165585451 0 -0.072897376499969718 -0.035030481089423193 0 -0.087620965986539498 -0.032035940073577754 0 -0.088634693472616571 -0.031253783402132689 0 -0.088937369495133478 -0.030387940993389765 0 -0.071189933463882249 -0.034189660697054883 0 -0.072374530032736695 -0.033765107165585451 0 -0.071799709486728647 -0.03481614947682353 0 -0.072374530032736695 -0.033765107165585451 0 -0.071799709486728647 -0.03481614947682353 0 -0.072897376499969718 -0.035030481089423193 0 -0.08505334356585903 -0.032561424346153847 0 -0.081985482993672684 -0.029989639589186601 0 -0.071799709486728647 -0.03481614947682353 0 -0.072897376499969718 -0.035030481089423193 0 -0.071670663326016792 -0.036009244731939859 0 -0.088634693472616571 -0.031253783402132689 0 -0.088937369495133478 -0.030387940993389765 0 -0.089615581204497113 -0.030423976974872348 0 -0.090354444992873525 -0.030211603401017785 0 -0.081985482993672684 -0.029989639589186601 0 -0.064486661174523952 -0.025482180630769406 0 -0.063256615005220687 -0.02538417076518221 0 -0.062906890677352278 -0.026632237525010531 0 -0.081985482993672684 -0.029989639589186601 0 -0.065109401488026575 -0.031058294550834191 0 -0.093453100198873401 -0.029993547858683731 0 -0.095433715437883024 -0.030113189618795458 0 -0.097263287692246334 -0.025868371361829984 0 -0.070862030485156047 -0.035090677477424288 0 -0.071670663326016792 -0.036009244731939859 0 -0.069905832424711323 -0.035900467383663613 0 -0.070862030485156047 -0.035090677477424288 0 -0.071799709486728647 -0.03481614947682353 0 -0.071670663326016792 -0.036009244731939859 0 -0.094768143354669238 -0.028721357317110816 0 -0.095428352865640942 -0.02801137743043185 0 -0.095577008754309106 -0.02792969438466494 0 -0.081985482993672684 -0.029989639589186601 0 -0.079444029125396443 -0.02443953046429476 0 -0.095433715437883024 -0.030113189618795458 0 -0.097263287692246334 -0.025868371361829984 0 -0.1005842675825033 -0.025878436302627619 0 -0.090354444992873525 -0.030211603401017785 0 -0.09575903099460692 -0.026643709991757643 0 -0.095513280821105453 -0.027935580182008733 0 -0.095224848506375984 -0.027666148271413317 0 -0.095547455400578199 -0.027562148465493059 0 -0.095428352865640942 -0.02801137743043185 0 -0.095577008754309106 -0.02792969438466494 0 -0.096046356176002226 -0.027322292220512651 0 -0.095034186293741052 -0.02849312640795763 0 -0.094950629583145429 -0.027941365380966313 0 -0.094483652172228774 -0.027978738117500446 0 -0.095034186293741052 -0.02849312640795763 0 -0.095513280821105453 -0.027935580182008733 0 -0.094950629583145429 -0.027941365380966313 0 -0.090354444992873525 -0.030211603401017785 0 -0.093196788807866859 -0.028079313836325996 0 -0.095513280821105453 -0.027935580182008733 0 -0.094950629583145429 -0.027941365380966313 0 -0.095224848506375984 -0.027666148271413317 0 -0.094950629583145429 -0.027941365380966313 0 -0.094664953035659236 -0.027468040488676852 0 -0.095224848506375984 -0.027666148271413317 0 -0.094950629583145429 -0.027941365380966313 0 -0.094483652172228774 -0.027978738117500446 0 -0.094664953035659236 -0.027468040488676852 0 -0.094840520862435496 -0.031202506854934513 0 -0.096947525234535065 -0.026878469942022573 0 -0.094483652172228774 -0.027978738117500446 0 -0.094050309357763914 -0.028427301612290436 0 -0.093917805174151034 -0.027588653908314255 0 -0.10135190042891866 -0.028969969571592397 0 -0.10196651746436537 -0.026432531108596394 0 -0.10096821813406195 -0.026580611750437418 0 -0.10135190042891866 -0.028969969571592397 0 -0.10253496244119335 -0.029974724342114376 0 -0.10196651746436537 -0.026432531108596394 0 -0.10135190042891866 -0.028969969571592397 0 -0.10253496244119335 -0.029974724342114376 0 -0.10204029783484364 -0.029979061694993391 0 -0.093819733453638837 -0.03172038989894143 0 -0.093779220571466634 -0.031720618186956574 0 -0.093831873559864803 -0.031799998963331591 0 -0.094840520862435496 -0.031202506854934513 0 -0.095221728421047286 -0.031648921112880736 0 -0.10307117075231988 -0.030896941076879021 0 -0.10408079100691955 -0.032640067532749888 0 -0.10216812985918323 -0.033938082131910449 0 -0.096092812902074234 -0.031627671624931068 0 -0.095221728421047286 -0.031648921112880736 0 -0.10408079100691955 -0.032640067532749888 0 -0.10216812985918323 -0.033938082131910449 0 -0.10493606704017604 -0.034187440518382031 0 -0.10303048064378872 -0.035872141379560393 0 -0.10216812985918323 -0.033938082131910449 0 -0.10493606704017604 -0.034187440518382031 0 -0.094840520862435496 -0.031202506854934513 0 -0.094392442795783446 -0.032349744062315722 0 -0.095221728421047286 -0.031648921112880736 0 -0.094392442795783446 -0.032349744062315722 0 -0.095034186293741052 -0.02849312640795763 0 -0.094483652172228774 -0.027978738117500446 0 -0.094050309357763914 -0.028427301612290436 0 -0.090354444992873525 -0.030211603401017785 0 -0.094840520862435496 -0.031202506854934513 0 -0.091618194892038374 -0.030987264992859864 0 -0.092337293569949144 -0.03103561027792353 0 -0.092309354891882342 -0.030874748580690579 0 -0.092038657880197286 -0.030491831773629068 0 -0.091618194892038374 -0.030987264992859864 0 -0.092309354891882342 -0.030874748580690579 0 -0.018504057146907411 -0.030875106743972938 0 -0.018613030213670882 -0.030933953422672741 0 -0.018376471631295792 -0.03076170684719751 0 -0.018504057146907411 -0.030875106743972938 0 -0.018806319392647187 -0.031110759877213262 0 -0.018613030213670882 -0.030933953422672741 0 -0.01878223107054677 -0.030641587218371739 0 -0.018504057146907411 -0.030875106743972938 0 -0.018035044626287036 -0.030757644483681661 0 -0.01878223107054677 -0.030641587218371739 0 -0.018504057146907411 -0.030875106743972938 0 -0.018944957109233173 -0.030921480462396123 0 -0.018504057146907411 -0.030875106743972938 0 -0.018944957109233173 -0.030921480462396123 0 -0.018806319392647187 -0.031110759877213262 0 -0.018944957109233173 -0.030921480462396123 0 -0.019145591661507332 -0.031185953714786024 0 -0.018806319392647187 -0.031110759877213262 0 -0.018944957109233173 -0.030921480462396123 0 -0.019177689684839658 -0.030754946497863839 0 -0.019315262246614853 -0.030976703198012698 0 -0.018944957109233173 -0.030921480462396123 0 -0.019315262246614853 -0.030976703198012698 0 -0.019145591661507332 -0.031185953714786024 0 -0.01878223107054677 -0.030641587218371739 0 -0.018944957109233173 -0.030921480462396123 0 -0.019177689684839658 -0.030754946497863839 0 -0.056690073298342476 -0.036695000269079812 0 -0.050451234080329019 -0.034688043421658682 0 -0.019177689684839658 -0.030754946497863839 0 -0.019512298599124865 -0.030744976954855015 0 -0.019315262246614853 -0.030976703198012698 0 -0.01917685245912313 -0.030474320134216006 0 -0.019177689684839658 -0.030754946497863839 0 -0.019512298599124865 -0.030744976954855015 0 -0.07021948497148453 -0.034224058318020403 0 -0.070066273030380655 -0.032568773525799066 0 -0.069097623734321559 -0.034162672627599186 0 -0.050451234080329019 -0.034688043421658682 0 -0.046642607172587225 -0.03214884359994432 0 -0.07021948497148453 -0.034224058318020403 0 -0.069097623734321559 -0.034162672627599186 0 -0.069905832424711323 -0.035900467383663613 0 -0.069097623734321559 -0.034162672627599186 0 -0.069905832424711323 -0.035900467383663613 0 -0.068120804761022793 -0.03578700960520291 0 -0.063256615005220687 -0.02538417076518221 0 -0.062906890677352278 -0.026632237525010531 0 -0.062068961980205797 -0.025316774447098973 0 -0.065109401488026575 -0.031058294550834191 0 -0.046642607172587225 -0.03214884359994432 0 -0.062906890677352278 -0.026632237525010531 0 -0.061370391169908042 -0.026507865152498779 0 -0.062068961980205797 -0.025316774447098973 0 -0.019206580343162406 -0.031210344202473615 0 -0.019458907039325849 -0.030885936713037153 0 -0.019045559546340851 -0.030875674621896932 0 -0.044735012113391294 -0.030134630490373411 0 -0.046642607172587225 -0.03214884359994432 0 -0.046642607172587225 -0.03214884359994432 0 -0.029313095463160879 -0.031219324663561695 0 -0.029313095463160879 -0.031219324663561695 0 -0.025210511470542429 -0.031008816142564191 0 -0.019206580343162406 -0.031210344202473615 0 -0.019045559546340851 -0.030875674621896932 0 -0.018779732633128751 -0.031160140495392268 0 -0.019206580343162406 -0.031210344202473615 0 -0.018779732633128751 -0.031160140495392268 0 -0.019014365072603005 -0.031474825164951245 0 -0.018779732633128751 -0.031160140495392268 0 -0.018467509365437836 -0.030999700069889766 0 -0.018555537501164964 -0.031247110921882631 0 -0.018779732633128751 -0.031160140495392268 0 -0.018722634960834813 -0.031340640402686873 0 -0.018555537501164964 -0.031247110921882631 0 -0.018779732633128751 -0.031160140495392268 0 -0.018613030213670882 -0.030933953422672741 0 -0.018467509365437836 -0.030999700069889766 0 -0.019045559546340851 -0.030875674621896932 0 -0.018779732633128751 -0.031160140495392268 0 -0.018613030213670882 -0.030933953422672741 0 -0.018888386933711351 -0.03166488913814481 0 -0.018841265958436187 -0.031624659127707934 0 -0.019014365072603005 -0.031474825164951245 0 -0.018699017603484896 -0.031726571079411445 0 -0.018841265958436187 -0.031624659127707934 0 -0.018806704808311928 -0.031843249355039766 0 -0.018699017603484896 -0.031726571079411445 0 -0.018841265958436187 -0.031624659127707934 0 -0.018673685159215407 -0.031587708739047593 0 -0.018699017603484896 -0.031726571079411445 0 -0.018673685159215407 -0.031587708739047593 0 -0.018541517413515642 -0.031725556875856854 0 -0.018888386933711351 -0.03166488913814481 0 -0.018841265958436187 -0.031624659127707934 0 -0.018896118360033919 -0.031660297895343192 0 -0.044501086972626142 -0.01951823789767106 0 -0.046071337184208853 -0.016737469934079485 0 -0.018841265958436187 -0.031624659127707934 0 -0.018811481306825129 -0.031486342413367854 0 -0.019014365072603005 -0.031474825164951245 0 -0.018841265958436187 -0.031624659127707934 0 -0.018673685159215407 -0.031587708739047593 0 -0.018811481306825129 -0.031486342413367854 0 -0.018673685159215407 -0.031587708739047593 0 -0.018628748679483654 -0.031436649292759078 0 -0.018811481306825129 -0.031486342413367854 0 -0.018779732633128751 -0.031160140495392268 0 -0.018722634960834813 -0.031340640402686873 0 -0.019014365072603005 -0.031474825164951245 0 -0.018628748679483654 -0.031436649292759078 0 -0.018722634960834813 -0.031340640402686873 0 -0.018811481306825129 -0.031486342413367854 0 -0.018722634960834813 -0.031340640402686873 0 -0.018811481306825129 -0.031486342413367854 0 -0.019014365072603005 -0.031474825164951245 0 -0.018628748679483654 -0.031436649292759078 0 -0.018722634960834813 -0.031340640402686873 0 -0.018555537501164964 -0.031247110921882631 0 -0.061370391169908042 -0.026507865152498779 0 -0.060688345701970403 -0.027611437952074089 0 -0.061413565173207597 -0.027677582409554213 0 -0.044735012113391294 -0.030134630490373411 0 -0.045294769282243678 -0.027221386819165437 0 -0.051380590653508654 -0.017344893155836455 0 -0.073669813081416499 -0.018949672172372953 0 -0.051380590653508654 -0.017344893155836455 0 -0.045294769282243678 -0.027221386819165437 0 -0.059981295264979813 -0.028633981951718651 0 -0.060688345701970403 -0.027611437952074089 0 -0.061413565173207597 -0.027677582409554213 0 -0.10756709153004516 -0.019032599786213834 0 -0.10580777999667754 -0.01947576589250408 0 -0.10509557271950538 -0.021820833121781628 0 -0.10580777999667754 -0.01947576589250408 0 -0.10358655691831112 -0.01978365295955381 0 -0.10574589758074983 -0.018182397615864949 0 -0.1050657297580062 -0.019376387188792865 0 -0.10405586794779077 -0.019236320833376591 0 -0.10504298984051626 -0.018399279724843395 0 -0.10358655691831112 -0.01978365295955381 0 -0.10509557271950538 -0.021820833121781628 0 -0.10297737648446524 -0.021710156219415532 0 -0.10580777999667754 -0.01947576589250408 0 -0.10358655691831112 -0.01978365295955381 0 -0.10509557271950538 -0.021820833121781628 0 -0.062906890677352278 -0.026632237525010531 0 -0.061370391169908042 -0.026507865152498779 0 -0.061413565173207597 -0.027677582409554213 0 -0.1005842675825033 -0.025878436302627619 0 -0.10509557271950538 -0.021820833121781628 0 -0.10297737648446524 -0.021710156219415532 0 -0.079444029125396443 -0.02443953046429476 0 -0.073669813081416499 -0.018949672172372953 0 -0.10076864568506944 -0.023208967245371272 0 -0.10050976920257279 -0.023290556854187405 0 -0.097263287692246334 -0.025868371361829984 0 -0.1005842675825033 -0.025878436302627619 0 -0.10091163673351787 -0.021999915138130748 0 -0.1005842675825033 -0.025878436302627619 0 -0.10297737648446524 -0.021710156219415532 0 -0.10091163673351787 -0.021999915138130748 0 -0.095577008754309106 -0.02792969438466494 0 -0.096305827605047425 -0.02715699092911554 0 -0.096046356176002226 -0.027322292220512651 0 -0.09575903099460692 -0.026643709991757643 0 -0.10050976920257279 -0.023290556854187405 0 -0.10411120805792953 -0.020556924592810579 0 -0.10405586794779077 -0.019236320833376591 0 -0.10316081303356155 -0.019846601109712265 0 -0.1050657297580062 -0.019376387188792865 0 -0.10411120805792953 -0.020556924592810579 0 -0.10405586794779077 -0.019236320833376591 0 -0.10276992507654747 -0.020950214773325392 0 -0.10050976920257279 -0.023290556854187405 0 -0.10358655691831112 -0.01978365295955381 0 -0.10297737648446524 -0.021710156219415532 0 -0.1013216810502129 -0.021943041418858899 0 -0.1042387355791186 -0.017858756195024257 0 -0.10309151150421661 -0.018721259048162797 0 -0.10314909896358697 -0.016765131593346447 0 -0.10405586794779077 -0.019236320833376591 0 -0.1042387355791186 -0.017858756195024257 0 -0.10309151150421661 -0.018721259048162797 0 -0.10405586794779077 -0.019236320833376591 0 -0.1042387355791186 -0.017858756195024257 0 -0.10504298984051626 -0.018399279724843395 0 -0.1042387355791186 -0.017858756195024257 0 -0.10440579839030784 -0.016363926932283113 0 -0.10314909896358697 -0.016765131593346447 0 -0.10440579839030784 -0.016363926932283113 0 -0.10314909896358697 -0.016765131593346447 0 -0.10362572273709378 -0.014621282474441444 0 -0.10440579839030784 -0.016363926932283113 0 -0.10565976618163025 -0.017119462985741025 0 -0.10527006461602054 -0.0146570922992891 0 -0.1042387355791186 -0.017858756195024257 0 -0.10440579839030784 -0.016363926932283113 0 -0.10565976618163025 -0.017119462985741025 0 -0.10565976618163025 -0.017119462985741025 0 -0.10504298984051626 -0.018399279724843395 0 -0.10574589758074983 -0.018182397615864949 0 -0.1042387355791186 -0.017858756195024257 0 -0.10565976618163025 -0.017119462985741025 0 -0.10504298984051626 -0.018399279724843395 0 -0.1050657297580062 -0.019376387188792865 0 -0.10504298984051626 -0.018399279724843395 0 -0.10574589758074983 -0.018182397615864949 0 -0.10276992507654747 -0.020950214773325392 0 -0.10356415482694316 -0.020129180470475905 0 -0.10756709153004516 -0.019032599786213834 0 -0.10580777999667754 -0.01947576589250408 0 -0.1065560590127289 -0.018308874430899371 0 -0.10580777999667754 -0.01947576589250408 0 -0.10574589758074983 -0.018182397615864949 0 -0.1065560590127289 -0.018308874430899371 0 -0.10756709153004516 -0.019032599786213834 0 -0.1065560590127289 -0.018308874430899371 0 -0.107254635597859 -0.018002444629000598 0 -0.1065560590127289 -0.018308874430899371 0 -0.10680013350308108 -0.017374153671764033 0 -0.107254635597859 -0.018002444629000598 0 -0.1065560590127289 -0.018308874430899371 0 -0.10620923652800382 -0.017500260162270981 0 -0.10680013350308108 -0.017374153671764033 0 -0.10574589758074983 -0.018182397615864949 0 -0.1065560590127289 -0.018308874430899371 0 -0.10620923652800382 -0.017500260162270981 0 -0.10565976618163025 -0.017119462985741025 0 -0.10574589758074983 -0.018182397615864949 0 -0.10620923652800382 -0.017500260162270981 0 -0.10565976618163025 -0.017119462985741025 0 -0.10620923652800382 -0.017500260162270981 0 -0.10658133838543658 -0.01681770600546981 0 -0.10102859763956981 -0.012173803425289757 0 -0.10015050615749903 -0.010547126606109979 0 -0.10565976618163025 -0.017119462985741025 0 -0.10658133838543658 -0.01681770600546981 0 -0.10649036322670932 -0.015827474055843067 0 -0.10658133838543658 -0.01681770600546981 0 -0.10709747540753614 -0.016900330073705304 0 -0.10710542084517395 -0.016391233139054367 0 -0.10658133838543658 -0.01681770600546981 0 -0.10710542084517395 -0.016391233139054367 0 -0.10649036322670932 -0.015827474055843067 0 -0.10658133838543658 -0.01681770600546981 0 -0.10680013350308108 -0.017374153671764033 0 -0.10709747540753614 -0.016900330073705304 0 -0.10620923652800382 -0.017500260162270981 0 -0.10658133838543658 -0.01681770600546981 0 -0.10680013350308108 -0.017374153671764033 0 -0.10680013350308108 -0.017374153671764033 0 -0.10742446153827043 -0.017265522622984215 0 -0.10709747540753614 -0.016900330073705304 0 -0.10742446153827043 -0.017265522622984215 0 -0.10709747540753614 -0.016900330073705304 0 -0.10755320297393393 -0.016694138102765311 0 -0.10710542084517395 -0.016391233139054367 0 -0.10755320297393393 -0.016694138102765311 0 -0.10737586371552926 -0.015912919145950194 0 -0.10709747540753614 -0.016900330073705304 0 -0.10710542084517395 -0.016391233139054367 0 -0.10755320297393393 -0.016694138102765311 0 -0.10755320297393393 -0.016694138102765311 0 -0.1077624830332935 -0.016785167649368132 0 -0.10737586371552926 -0.015912919145950194 0 -0.056697817038153867 -0.0086579238798231931 0 -0.055435514428803026 -0.0082429159234744791 0 -0.052903549399925115 0.0026488877249428882 0 -0.049339212354986443 -0.014107252588468023 0 -0.057795886442747552 0.00074168483879070556 0 -0.055435514428803026 -0.0082429159234744791 0 -0.050113332234682645 -0.011811270230834619 0 -0.055435514428803026 -0.0082429159234744791 0 -0.047062164685937165 -0.0055856013464329899 0 -0.050113332234682645 -0.011811270230834619 0 -0.047062164685937165 -0.0055856013464329899 0 -0.10742446153827043 -0.017265522622984215 0 -0.10785102614548579 -0.01680419878917995 0 -0.10782128139359122 -0.01789218902178823 0 -0.10742446153827043 -0.017265522622984215 0 -0.10755320297393393 -0.016694138102765311 0 -0.10785102614548579 -0.01680419878917995 0 -0.044711797851944651 -0.010585050670797212 0 -0.044337908376795791 -0.012381486988706614 0 -0.048843996855751276 -0.0086663019506507521 0 -0.10680013350308108 -0.017374153671764033 0 -0.10742446153827043 -0.017265522622984215 0 -0.107254635597859 -0.018002444629000598 0 -0.10742446153827043 -0.017265522622984215 0 -0.10782128139359122 -0.01789218902178823 0 -0.107254635597859 -0.018002444629000598 0 -0.049691532043998961 -0.018336737351824412 0 -0.051081170838638355 -0.015839077168094764 0 -0.050749606908106412 -0.017464652531323482 0 -0.10756709153004516 -0.019032599786213834 0 -0.10782128139359122 -0.01789218902178823 0 -0.107254635597859 -0.018002444629000598 0 -0.051380590653508654 -0.017344893155836455 0 -0.050113332234682645 -0.011811270230834619 0 -0.051380590653508654 -0.017344893155836455 0 -0.046071337184208853 -0.016737469934079485 0 -0.018699017603484896 -0.031726571079411445 0 -0.018806704808311928 -0.031843249355039766 0 -0.018574090195599042 -0.031864322356208431 0 -0.050113332234682645 -0.011811270230834619 0 -0.046071337184208853 -0.016737469934079485 0 -0.10065169778564746 -0.021015212805467864 0 -0.10117591542665941 -0.019697001284850975 0 -0.10041820521366726 -0.019855599141771291 0 -0.10065169778564746 -0.021015212805467864 0 -0.10117591542665941 -0.019697001284850975 0 -0.10115901055020696 -0.02131034345439968 0 -0.10065169778564746 -0.021015212805467864 0 -0.10044424679673788 -0.021436659231997696 0 -0.10041820521366726 -0.019855599141771291 0 -0.099092810303530704 -0.020806140949639212 0 -0.10044424679673788 -0.021436659231997696 0 -0.10041820521366726 -0.019855599141771291 0 -0.10065169778564746 -0.021015212805467864 0 -0.10044424679673788 -0.021436659231997696 0 -0.10046130086719447 -0.021349331965035766 0 -0.097283460332107885 -0.025351252862273618 0 -0.096947525234535065 -0.026878469942022573 0 -0.10044424679673788 -0.021436659231997696 0 -0.10246832746591565 -0.026302932202097805 0 -0.10096821813406195 -0.026580611750437418 0 -0.096947525234535065 -0.026878469942022573 0 -0.097244005754309332 -0.026839095828483837 0 -0.096947525234535065 -0.026878469942022573 0 -0.098060283550996913 -0.025395027468746424 0 -0.094483652172228774 -0.027978738117500446 0 -0.093917805174151034 -0.027588653908314255 0 -0.094664953035659236 -0.027468040488676852 0 -0.10065169778564746 -0.021015212805467864 0 -0.10046130086719447 -0.021349331965035766 0 -0.10115901055020696 -0.02131034345439968 0 -0.10115901055020696 -0.02131034345439968 0 -0.10251941911267022 -0.020885014199032329 0 -0.10212699191487086 -0.019780865270432355 0 -0.098060283550996913 -0.025395027468746424 0 -0.099143362906318949 -0.024319764483483153 0 -0.094664953035659236 -0.027468040488676852 0 -0.095224848506375984 -0.027666148271413317 0 -0.095425975856994791 -0.027320109192273026 0 -0.10050976920257279 -0.023290556854187405 0 -0.099143362906318949 -0.024319764483483153 0 -0.096305827605047425 -0.02715699092911554 0 -0.096046356176002226 -0.027322292220512651 0 -0.095425975856994791 -0.027320109192273026 0 -0.10411120805792953 -0.020556924592810579 0 -0.10251941911267022 -0.020885014199032329 0 -0.10316081303356155 -0.019846601109712265 0 -0.095513280821105453 -0.027935580182008733 0 -0.096046356176002226 -0.027322292220512651 0 -0.095547455400578199 -0.027562148465493059 0 -0.096046356176002226 -0.027322292220512651 0 -0.095547455400578199 -0.027562148465493059 0 -0.095425975856994791 -0.027320109192273026 0 -0.093196788807866859 -0.028079313836325996 0 -0.093994844718805842 -0.027507131452349044 0 -0.095224848506375984 -0.027666148271413317 0 -0.095547455400578199 -0.027562148465493059 0 -0.095425975856994791 -0.027320109192273026 0 -0.10251941911267022 -0.020885014199032329 0 -0.10316081303356155 -0.019846601109712265 0 -0.10212699191487086 -0.019780865270432355 0 -0.10316081303356155 -0.019846601109712265 0 -0.10212699191487086 -0.019780865270432355 0 -0.10309151150421661 -0.018721259048162797 0 -0.10405586794779077 -0.019236320833376591 0 -0.10316081303356155 -0.019846601109712265 0 -0.10309151150421661 -0.018721259048162797 0 -0.10117591542665941 -0.019697001284850975 0 -0.10115901055020696 -0.02131034345439968 0 -0.10212699191487086 -0.019780865270432355 0 -0.10117591542665941 -0.019697001284850975 0 -0.10212699191487086 -0.019780865270432355 0 -0.10186445476175947 -0.0182711573973545 0 -0.10186445476175947 -0.0182711573973545 0 -0.10309151150421661 -0.018721259048162797 0 -0.10314909896358697 -0.016765131593346447 0 -0.10212699191487086 -0.019780865270432355 0 -0.10186445476175947 -0.0182711573973545 0 -0.10309151150421661 -0.018721259048162797 0 -0.10186445476175947 -0.0182711573973545 0 -0.10314909896358697 -0.016765131593346447 0 -0.10125323541509562 -0.016459991451654454 0 -0.10186445476175947 -0.0182711573973545 0 -0.10125323541509562 -0.016459991451654454 0 -0.10079910207108569 -0.018006869506176085 0 -0.10125323541509562 -0.016459991451654454 0 -0.10079910207108569 -0.018006869506176085 0 -0.10035081618422825 -0.016127677724004578 0 -0.10117591542665941 -0.019697001284850975 0 -0.10079910207108569 -0.018006869506176085 0 -0.10041820521366726 -0.019855599141771291 0 -0.10117591542665941 -0.019697001284850975 0 -0.10186445476175947 -0.0182711573973545 0 -0.10079910207108569 -0.018006869506176085 0 -0.10079910207108569 -0.018006869506176085 0 -0.10041820521366726 -0.019855599141771291 0 -0.099243635112404957 -0.018104826050828852 0 -0.099092810303530704 -0.020806140949639212 0 -0.10041820521366726 -0.019855599141771291 0 -0.099243635112404957 -0.018104826050828852 0 -0.098046032632059493 -0.01638271607876899 0 -0.099243635112404957 -0.018104826050828852 0 -0.10035081618422825 -0.016127677724004578 0 -0.10079910207108569 -0.018006869506176085 0 -0.099243635112404957 -0.018104826050828852 0 -0.10035081618422825 -0.016127677724004578 0 -0.098636634066392309 -0.015711263253544848 0 -0.096657422190165321 -0.015201302988953202 0 -0.098031496947104252 -0.015507142833699498 0 -0.097456388806443542 -0.014018474520136081 0 -0.095284762382544866 -0.014664689254638961 0 -0.098046032632059493 -0.01638271607876899 0 -0.10035081618422825 -0.016127677724004578 0 -0.097995377195938538 -0.014721203924994996 0 -0.097456388806443542 -0.014018474520136081 0 -0.098588576592972196 -0.012492396481882842 0 -0.095530086120061933 -0.013203941070129298 0 -0.098890413857062862 -0.012335490624657585 0 -0.096706547375912152 -0.013512202787127144 0 -0.098883500769641086 -0.010941288658603752 0 -0.096712821266130414 -0.011452886283861763 0 -0.097060898270783874 -0.0099984161095850576 0 -0.098588576592972196 -0.012492396481882842 0 -0.099873949094467507 -0.014101716700256957 0 -0.10129659858743223 -0.011763649798466258 0 -0.097456388806443542 -0.014018474520136081 0 -0.098588576592972196 -0.012492396481882842 0 -0.099873949094467507 -0.014101716700256957 0 -0.098031496947104252 -0.015507142833699498 0 -0.097456388806443542 -0.014018474520136081 0 -0.099873949094467507 -0.014101716700256957 0 -0.10125323541509562 -0.016459991451654454 0 -0.098031496947104252 -0.015507142833699498 0 -0.099873949094467507 -0.014101716700256957 0 -0.099704819914637505 -0.016013268736367808 0 -0.098636634066392309 -0.015711263253544848 0 -0.10125323541509562 -0.016459991451654454 0 -0.099873949094467507 -0.014101716700256957 0 -0.10199995633125938 -0.014259378807509887 0 -0.10314909896358697 -0.016765131593346447 0 -0.10125323541509562 -0.016459991451654454 0 -0.10199995633125938 -0.014259378807509887 0 -0.10314909896358697 -0.016765131593346447 0 -0.10199995633125938 -0.014259378807509887 0 -0.10362572273709378 -0.014621282474441444 0 -0.10199995633125938 -0.014259378807509887 0 -0.10297279922674912 -0.012821279340035421 0 -0.10362572273709378 -0.014621282474441444 0 -0.10199995633125938 -0.014259378807509887 0 -0.10297279922674912 -0.012821279340035421 0 -0.10129659858743223 -0.011763649798466258 0 -0.099873949094467507 -0.014101716700256957 0 -0.10199995633125938 -0.014259378807509887 0 -0.10129659858743223 -0.011763649798466258 0 -0.098890413857062862 -0.012335490624657585 0 -0.10115949764910651 -0.011504856688804816 0 -0.098883500769641086 -0.010941288658603752 0 -0.10124653180585887 -0.010502880246636048 0 -0.10071259017977376 -0.0086847913735386504 0 -0.10115949764910651 -0.011504856688804816 0 -0.10241310918327953 -0.011116189247013696 0 -0.10124653180585887 -0.010502880246636048 0 -0.10071259017977376 -0.0086847913735386504 0 -0.10364482475932772 -0.0104014255152051 0 -0.10297279922674912 -0.012821279340035421 0 -0.10129659858743223 -0.011763649798466258 0 -0.10364482475932772 -0.0104014255152051 0 -0.10071259017977376 -0.0086847913735386504 0 -0.10364482475932772 -0.0104014255152051 0 -0.10202905522528984 -0.0072898877593317634 0 -0.10071259017977376 -0.0086847913735386504 0 -0.098582983745140129 -0.0090453182461669307 0 -0.099095566537809043 -0.0075628751281334892 0 -0.098582983745140129 -0.0090453182461669307 0 -0.099095566537809043 -0.0075628751281334892 0 -0.097253167198152218 -0.0079897048069592011 0 -0.098582983745140129 -0.0090453182461669307 0 -0.097253167198152218 -0.0079897048069592011 0 -0.097060898270783874 -0.0099984161095850576 0 -0.098883500769641086 -0.010941288658603752 0 -0.098582983745140129 -0.0090453182461669307 0 -0.097060898270783874 -0.0099984161095850576 0 -0.098883500769641086 -0.010941288658603752 0 -0.10071259017977376 -0.0086847913735386504 0 -0.098582983745140129 -0.0090453182461669307 0 -0.095855499712543965 -0.0066680557977184893 0 -0.10015050615749903 -0.010547126606109979 0 -0.10727652512891137 -0.014527708284408235 0 -0.10737586371552926 -0.015912919145950194 0 -0.10795384965304142 -0.015323544975232336 0 -0.1077624830332935 -0.016785167649368132 0 -0.10737586371552926 -0.015912919145950194 0 -0.10795384965304142 -0.015323544975232336 0 -0.10727652512891137 -0.014527708284408235 0 -0.10737586371552926 -0.015912919145950194 0 -0.10649036322670932 -0.015827474055843067 0 -0.055435514428803026 -0.0082429159234744791 0 -0.070380310703978696 -0.0053803992145835949 0 -0.10710542084517395 -0.016391233139054367 0 -0.10737586371552926 -0.015912919145950194 0 -0.10649036322670932 -0.015827474055843067 0 -0.10866095887489245 -0.011894621854632682 0 -0.10738155352487669 -0.014500187177601426 0 -0.10724242509211301 -0.011094511927743118 0 -0.10738155352487669 -0.014500187177601426 0 -0.10591613508513338 -0.011917338306624508 0 -0.10724242509211301 -0.011094511927743118 0 -0.10591613508513338 -0.011917338306624508 0 -0.10443461093448261 -0.012923682578057129 0 -0.10364482475932772 -0.0104014255152051 0 -0.10591613508513338 -0.011917338306624508 0 -0.10527006461602054 -0.0146570922992891 0 -0.10443461093448261 -0.012923682578057129 0 -0.10565976618163025 -0.017119462985741025 0 -0.10738155352487669 -0.014500187177601426 0 -0.10527006461602054 -0.0146570922992891 0 -0.10738155352487669 -0.014500187177601426 0 -0.10591613508513338 -0.011917338306624508 0 -0.10527006461602054 -0.0146570922992891 0 -0.10527006461602054 -0.0146570922992891 0 -0.10362572273709378 -0.014621282474441444 0 -0.10443461093448261 -0.012923682578057129 0 -0.10440579839030784 -0.016363926932283113 0 -0.10527006461602054 -0.0146570922992891 0 -0.10362572273709378 -0.014621282474441444 0 -0.10297279922674912 -0.012821279340035421 0 -0.10443461093448261 -0.012923682578057129 0 -0.10364482475932772 -0.0104014255152051 0 -0.10297279922674912 -0.012821279340035421 0 -0.10362572273709378 -0.014621282474441444 0 -0.10443461093448261 -0.012923682578057129 0 -0.10364482475932772 -0.0104014255152051 0 -0.10405391659215027 -0.0080244980706992864 0 -0.10538474685875802 -0.0095330438450054195 0 -0.10364482475932772 -0.0104014255152051 0 -0.10405391659215027 -0.0080244980706992864 0 -0.10202905522528984 -0.0072898877593317634 0 -0.10405391659215027 -0.0080244980706992864 0 -0.10538474685875802 -0.0095330438450054195 0 -0.1052741712447471 -0.0069001937240963157 0 -0.10538474685875802 -0.0095330438450054195 0 -0.10678189357573663 -0.008836412174792356 0 -0.1052741712447471 -0.0069001937240963157 0 -0.10591613508513338 -0.011917338306624508 0 -0.10364482475932772 -0.0104014255152051 0 -0.10538474685875802 -0.0095330438450054195 0 -0.10591613508513338 -0.011917338306624508 0 -0.10538474685875802 -0.0095330438450054195 0 -0.10724242509211301 -0.011094511927743118 0 -0.10538474685875802 -0.0095330438450054195 0 -0.10724242509211301 -0.011094511927743118 0 -0.10678189357573663 -0.008836412174792356 0 -0.10724242509211301 -0.011094511927743118 0 -0.10678189357573663 -0.008836412174792356 0 -0.10816272742205955 -0.0099102241412975245 0 -0.10678189357573663 -0.008836412174792356 0 -0.10812086680676354 -0.0082147207337111942 0 -0.10682021989509624 -0.0067509826510298524 0 -0.10678189357573663 -0.008836412174792356 0 -0.10812086680676354 -0.0082147207337111942 0 -0.10816272742205955 -0.0099102241412975245 0 -0.10812086680676354 -0.0082147207337111942 0 -0.10816272742205955 -0.0099102241412975245 0 -0.10993184234175515 -0.0094982157329068541 0 -0.10812086680676354 -0.0082147207337111942 0 -0.109218111667297 -0.0070124204756290666 0 -0.10993184234175515 -0.0094982157329068541 0 -0.10866095887489245 -0.011894621854632682 0 -0.10816272742205955 -0.0099102241412975245 0 -0.10993184234175515 -0.0094982157329068541 0 -0.10866095887489245 -0.011894621854632682 0 -0.10724242509211301 -0.011094511927743118 0 -0.10816272742205955 -0.0099102241412975245 0 -0.095855499712543965 -0.0066680557977184893 0 -0.083637388931159073 -0.0021579852447801474 0 -0.07996261949414174 0.0074668870308354359 0 -0.078951152826032614 0.0047669905835405844 0 -0.092733829490916256 0.0038949614300073359 0 -0.08568034644691222 0.0022401715297276268 0 -0.093415667599275207 0.017515148166220344 0 -0.092396819257730023 0.018755501427203811 0 -0.091737049067682985 0.02139741589280603 0 -0.080894236266639455 0.0055566396404693134 0 -0.080401486462170824 0.0080546881678042366 0 -0.081423034605799097 0.004142875754269958 0 -0.1073215338955977 -0.0037442631428811022 0 -0.10763717780349057 -0.0058365409181224178 0 -0.109218111667297 -0.0070124204756290666 0 -0.093415667599275207 0.017515148166220344 0 -0.092396819257730023 0.018755501427203811 0 -0.093024180511440499 0.015905921774847693 0 -0.08289795931808483 0.0069443272703350479 0 -0.07996261949414174 0.0074668870308354359 0 -0.1073215338955977 -0.0037442631428811022 0 -0.1064194107487758 -0.0044242786074937561 0 -0.10441293524397763 -0.0014967402929385223 0 -0.1064194107487758 -0.0044242786074937561 0 -0.10763717780349057 -0.0058365409181224178 0 -0.10668205527751619 -0.0056177588785745703 0 -0.1073215338955977 -0.0037442631428811022 0 -0.1064194107487758 -0.0044242786074937561 0 -0.10763717780349057 -0.0058365409181224178 0 -0.10791573156394814 -0.0069544679615248023 0 -0.10763717780349057 -0.0058365409181224178 0 -0.109218111667297 -0.0070124204756290666 0 -0.08289795931808483 0.0069443272703350479 0 -0.08568034644691222 0.0022401715297276268 0 -0.10812086680676354 -0.0082147207337111942 0 -0.10791573156394814 -0.0069544679615248023 0 -0.109218111667297 -0.0070124204756290666 0 -0.10812086680676354 -0.0082147207337111942 0 -0.10791573156394814 -0.0069544679615248023 0 -0.10682021989509624 -0.0067509826510298524 0 -0.10791573156394814 -0.0069544679615248023 0 -0.10763717780349057 -0.0058365409181224178 0 -0.10682021989509624 -0.0067509826510298524 0 -0.10763717780349057 -0.0058365409181224178 0 -0.10682021989509624 -0.0067509826510298524 0 -0.10668205527751619 -0.0056177588785745703 0 -0.10682021989509624 -0.0067509826510298524 0 -0.10598192311429795 -0.0055173835441891242 0 -0.10668205527751619 -0.0056177588785745703 0 -0.10682021989509624 -0.0067509826510298524 0 -0.10598192311429795 -0.0055173835441891242 0 -0.1052741712447471 -0.0069001937240963157 0 -0.10678189357573663 -0.008836412174792356 0 -0.10682021989509624 -0.0067509826510298524 0 -0.1052741712447471 -0.0069001937240963157 0 -0.10484985946582447 -0.0036695618752818223 0 -0.10317361953952774 -0.0033619895256894179 0 -0.1064194107487758 -0.0044242786074937561 0 -0.10001534865301806 -0.0020769738167914042 0 -0.10441293524397763 -0.0014967402929385223 0 -0.1064194107487758 -0.0044242786074937561 0 -0.10598192311429795 -0.0055173835441891242 0 -0.10512395096866926 -0.0048019589299292433 0 -0.1064194107487758 -0.0044242786074937561 0 -0.10598192311429795 -0.0055173835441891242 0 -0.10668205527751619 -0.0056177588785745703 0 -0.10598192311429795 -0.0055173835441891242 0 -0.10512395096866926 -0.0048019589299292433 0 -0.1052741712447471 -0.0069001937240963157 0 -0.10512395096866926 -0.0048019589299292433 0 -0.1052741712447471 -0.0069001937240963157 0 -0.10384364310488166 -0.0061909008820282274 0 -0.10405391659215027 -0.0080244980706992864 0 -0.10384364310488166 -0.0061909008820282274 0 -0.10202905522528984 -0.0072898877593317634 0 -0.10405391659215027 -0.0080244980706992864 0 -0.1052741712447471 -0.0069001937240963157 0 -0.10384364310488166 -0.0061909008820282274 0 -0.10512395096866926 -0.0048019589299292433 0 -0.10384364310488166 -0.0061909008820282274 0 -0.10276996963848234 -0.0040470833031133815 0 -0.10317361953952774 -0.0033619895256894179 0 -0.1010716942811756 -0.0029361047549735608 0 -0.10001534865301806 -0.0020769738167914042 0 -0.099612449153061083 -0.00028743961016548011 0 -0.099401168138943022 -0.00098722714582906998 0 -0.099612449153061083 -0.00028743961016548011 0 -0.09941140524938416 0.00037780653590421614 0 -0.099401168138943022 -0.00098722714582906998 0 -0.099612449153061083 -0.00028743961016548011 0 -0.09941140524938416 0.00037780653590421614 0 -0.09970066873190167 0.0012726163576833164 0 -0.09941140524938416 0.00037780653590421614 0 -0.09970066873190167 0.0012726163576833164 0 -0.099350032974183655 0.001719052933146186 0 -0.099612449153061083 -0.00028743961016548011 0 -0.09970066873190167 0.0012726163576833164 0 -0.10127422963488351 0.00024898811949000113 0 -0.09970066873190167 0.0012726163576833164 0 -0.10035430892011271 0.0024444347848139713 0 -0.099089450571170454 0.0030136932630775003 0 -0.09970066873190167 0.0012726163576833164 0 -0.10127422963488351 0.00024898811949000113 0 -0.10035430892011271 0.0024444347848139713 0 -0.10001534865301806 -0.0020769738167914042 0 -0.099612449153061083 -0.00028743961016548011 0 -0.10127422963488351 0.00024898811949000113 0 -0.10001534865301806 -0.0020769738167914042 0 -0.10441293524397763 -0.0014967402929385223 0 -0.10127422963488351 0.00024898811949000113 0 -0.10441293524397763 -0.0014967402929385223 0 -0.1027961987259761 0.00036049744525347009 0 -0.10384627547743665 0.0013192264823441134 0 -0.10441293524397763 -0.0014967402929385223 0 -0.1027961987259761 0.00036049744525347009 0 -0.10127422963488351 0.00024898811949000113 0 -0.10127422963488351 0.00024898811949000113 0 -0.10202101293489918 0.0010797404332934185 0 -0.10035430892011271 0.0024444347848139713 0 -0.09572360500941117 0.0044510880595211317 0 -0.096575376400194923 0.0041565891109727818 0 -0.10035430892011271 0.0024444347848139713 0 -0.10384627547743665 0.0013192264823441134 0 -0.098503540441514159 0.0047654955564485494 0 -0.1027961987259761 0.00036049744525347009 0 -0.10127422963488351 0.00024898811949000113 0 -0.10202101293489918 0.0010797404332934185 0 -0.10202101293489918 0.0010797404332934185 0 -0.10035430892011271 0.0024444347848139713 0 -0.10384627547743665 0.0013192264823441134 0 -0.1027961987259761 0.00036049744525347009 0 -0.10202101293489918 0.0010797404332934185 0 -0.10384627547743665 0.0013192264823441134 0 -0.093713806373590725 0.014397355219272769 0 -0.093123445904393823 0.011721825728366553 0 -0.094900238125006517 0.0075602854882244356 0 -0.095692673682682555 0.012980737494504176 0 -0.093765455446800428 0.013217922547843586 0 -0.094900238125006517 0.0075602854882244356 0 -0.079226868347544874 0.0066887400311917613 0 -0.081317922184266644 0.0068212605756795058 0 -0.092469475899521078 0.010392179172273653 0 -0.093123445904393823 0.011721825728366553 0 -0.094900238125006517 0.0075602854882244356 0 -0.091901201792731618 0.012537674572736262 0 -0.090730198045408481 0.013762295481703291 0 -0.090639563728842229 0.011304798855325173 0 -0.092469475899521078 0.010392179172273653 0 -0.091901201792731618 0.012537674572736262 0 -0.090639563728842229 0.011304798855325173 0 -0.092469475899521078 0.010392179172273653 0 -0.093123445904393823 0.011721825728366553 0 -0.091901201792731618 0.012537674572736262 0 -0.093123445904393823 0.011721825728366553 0 -0.091901201792731618 0.012537674572736262 0 -0.092462874705280057 0.013267886620161451 0 -0.091901201792731618 0.012537674572736262 0 -0.092462874705280057 0.013267886620161451 0 -0.090730198045408481 0.013762295481703291 0 -0.093713806373590725 0.014397355219272769 0 -0.092462874705280057 0.013267886620161451 0 -0.090730198045408481 0.013762295481703291 0 -0.093713806373590725 0.014397355219272769 0 -0.093123445904393823 0.011721825728366553 0 -0.092462874705280057 0.013267886620161451 0 -0.079226868347544874 0.0066887400311917613 0 -0.07996261949414174 0.0074668870308354359 0 -0.093415667599275207 0.017515148166220344 0 -0.095692673682682555 0.012980737494504176 0 -0.093024180511440499 0.015905921774847693 0 -0.063332162217180368 0.0064850586351941266 0 -0.063483996581346777 0.0058040474668243818 0 -0.06434458411659881 0.0059241080617764268 0 -0.1073215338955977 -0.0037442631428811022 0 -0.10441293524397763 -0.0014967402929385223 0 -0.10384627547743665 0.0013192264823441134 0 -0.092733829490916256 0.0038949614300073359 0 -0.09572360500941117 0.0044510880595211317 0 -0.095692673682682555 0.012980737494504176 0 -0.093765455446800428 0.013217922547843586 0 -0.093024180511440499 0.015905921774847693 0 -0.098395958549878995 -0.0056020167629736344 0 -0.10041517687655545 -0.0060053461991901895 0 -0.099613298126613958 -0.0027050566728332153 0 -0.098395958549878995 -0.0056020167629736344 0 -0.099613298126613958 -0.0027050566728332153 0 -0.09771263598214891 -0.0032788671639686698 0 -0.098395958549878995 -0.0056020167629736344 0 -0.09771263598214891 -0.0032788671639686698 0 -0.096824879550709966 -0.0058980069210064368 0 -0.097253167198152218 -0.0079897048069592011 0 -0.098395958549878995 -0.0056020167629736344 0 -0.096824879550709966 -0.0058980069210064368 0 -0.099095566537809043 -0.0075628751281334892 0 -0.097253167198152218 -0.0079897048069592011 0 -0.098395958549878995 -0.0056020167629736344 0 -0.099095566537809043 -0.0075628751281334892 0 -0.098395958549878995 -0.0056020167629736344 0 -0.10041517687655545 -0.0060053461991901895 0 -0.10071259017977376 -0.0086847913735386504 0 -0.099095566537809043 -0.0075628751281334892 0 -0.10041517687655545 -0.0060053461991901895 0 -0.10071259017977376 -0.0086847913735386504 0 -0.10041517687655545 -0.0060053461991901895 0 -0.10202905522528984 -0.0072898877593317634 0 -0.10041517687655545 -0.0060053461991901895 0 -0.10202905522528984 -0.0072898877593317634 0 -0.10276996963848234 -0.0040470833031133815 0 -0.10384364310488166 -0.0061909008820282274 0 -0.10202905522528984 -0.0072898877593317634 0 -0.10276996963848234 -0.0040470833031133815 0 -0.10041517687655545 -0.0060053461991901895 0 -0.10276996963848234 -0.0040470833031133815 0 -0.099613298126613958 -0.0027050566728332153 0 -0.1010716942811756 -0.0029361047549735608 0 -0.10000265916727112 -0.0027768280393822955 0 -0.099401168138943022 -0.00098722714582906998 0 -0.099858939820966913 -3.2329783338135461e-05 0 -0.099613298126613958 -0.0027050566728332153 0 -0.09941140524938416 0.00037780653590421614 0 -0.099401168138943022 -0.00098722714582906998 0 -0.099858939820966913 -3.2329783338135461e-05 0 -0.09941140524938416 0.00037780653590421614 0 -0.099858939820966913 -3.2329783338135461e-05 0 -0.099491021267426094 0.0014331953074811241 0 -0.099858939820966913 -3.2329783338135461e-05 0 -0.098925520490142083 -0.00072329018324298309 0 -0.099613298126613958 -0.0027050566728332153 0 -0.098925520490142083 -0.00072329018324298309 0 -0.099613298126613958 -0.0027050566728332153 0 -0.09771263598214891 -0.0032788671639686698 0 -0.098925520490142083 -0.00072329018324298309 0 -0.09771263598214891 -0.0032788671639686698 0 -0.096736788108754621 -0.0014239457488090849 0 -0.096736788108754621 -0.0014239457488090849 0 -0.094386814496265611 -0.0019863791284291696 0 -0.09566083469610373 -0.0038086235931538591 0 -0.096736788108754621 -0.0014239457488090849 0 -0.094386814496265611 -0.0019863791284291696 0 -0.095429391381390158 0.00022048196388870222 0 -0.094386814496265611 -0.0019863791284291696 0 -0.09566083469610373 -0.0038086235931538591 0 -0.093923813456881874 -0.0045283135090590414 0 -0.09771263598214891 -0.0032788671639686698 0 -0.096736788108754621 -0.0014239457488090849 0 -0.09566083469610373 -0.0038086235931538591 0 -0.09566083469610373 -0.0038086235931538591 0 -0.095193836916355537 -0.0063724789939636024 0 -0.096824879550709966 -0.0058980069210064368 0 -0.09771263598214891 -0.0032788671639686698 0 -0.09566083469610373 -0.0038086235931538591 0 -0.096824879550709966 -0.0058980069210064368 0 -0.09566083469610373 -0.0038086235931538591 0 -0.095193836916355537 -0.0063724789939636024 0 -0.093923813456881874 -0.0045283135090590414 0 -0.095193836916355537 -0.0063724789939636024 0 -0.095802122578988999 -0.0081507875906850907 0 -0.094530980392898686 -0.0083962218399374483 0 -0.095193836916355537 -0.0063724789939636024 0 -0.096824879550709966 -0.0058980069210064368 0 -0.095802122578988999 -0.0081507875906850907 0 -0.097253167198152218 -0.0079897048069592011 0 -0.096824879550709966 -0.0058980069210064368 0 -0.095802122578988999 -0.0081507875906850907 0 -0.092566249691757321 -0.0074840690057521916 0 -0.092080943378988117 -0.0056995246850421967 0 -0.091318927258537463 -0.0082167397568133679 0 -0.092566249691757321 -0.0074840690057521916 0 -0.093570414890141812 -0.0067371809191014613 0 -0.093277327651750397 -0.0087500434742447519 0 -0.092566249691757321 -0.0074840690057521916 0 -0.091318927258537463 -0.0082167397568133679 0 -0.092060629008606981 -0.010417450609708818 0 -0.093570414890141812 -0.0067371809191014613 0 -0.094530980392898686 -0.0083962218399374483 0 -0.093277327651750397 -0.0087500434742447519 0 -0.095193836916355537 -0.0063724789939636024 0 -0.093570414890141812 -0.0067371809191014613 0 -0.094530980392898686 -0.0083962218399374483 0 -0.095193836916355537 -0.0063724789939636024 0 -0.093570414890141812 -0.0067371809191014613 0 -0.093923813456881874 -0.0045283135090590414 0 -0.093570414890141812 -0.0067371809191014613 0 -0.092080943378988117 -0.0056995246850421967 0 -0.093923813456881874 -0.0045283135090590414 0 -0.092566249691757321 -0.0074840690057521916 0 -0.093570414890141812 -0.0067371809191014613 0 -0.092080943378988117 -0.0056995246850421967 0 -0.092080943378988117 -0.0056995246850421967 0 -0.092662935712885822 -0.0032388232707416336 0 -0.091427865547281731 -0.0040663865674395198 0 -0.092080943378988117 -0.0056995246850421967 0 -0.092662935712885822 -0.0032388232707416336 0 -0.093923813456881874 -0.0045283135090590414 0 -0.094386814496265611 -0.0019863791284291696 0 -0.092662935712885822 -0.0032388232707416336 0 -0.093923813456881874 -0.0045283135090590414 0 -0.094386814496265611 -0.0019863791284291696 0 -0.092662935712885822 -0.0032388232707416336 0 -0.093078184076228559 -0.00017100603923573727 0 -0.092662935712885822 -0.0032388232707416336 0 -0.090818615647697151 -0.0024368507409605151 0 -0.093078184076228559 -0.00017100603923573727 0 -0.090818615647697151 -0.0024368507409605151 0 -0.088728021210795718 -0.0017523794057089711 0 -0.089137809905928664 -0.0034890491736117453 0 -0.088728021210795718 -0.0017523794057089711 0 -0.089137809905928664 -0.0034890491736117453 0 -0.087588062288350046 -0.0031359669369617968 0 -0.090818615647697151 -0.0024368507409605151 0 -0.089137809905928664 -0.0034890491736117453 0 -0.090173141868682263 -0.0049849145302021313 0 -0.089137809905928664 -0.0034890491736117453 0 -0.088988910108103142 -0.0053396811931217189 0 -0.087768396662139259 -0.004761520829699082 0 -0.089137809905928664 -0.0034890491736117453 0 -0.088988910108103142 -0.0053396811931217189 0 -0.090173141868682263 -0.0049849145302021313 0 -0.092080943378988117 -0.0056995246850421967 0 -0.090173141868682263 -0.0049849145302021313 0 -0.091427865547281731 -0.0040663865674395198 0 -0.092662935712885822 -0.0032388232707416336 0 -0.090818615647697151 -0.0024368507409605151 0 -0.091427865547281731 -0.0040663865674395198 0 -0.090818615647697151 -0.0024368507409605151 0 -0.090173141868682263 -0.0049849145302021313 0 -0.091427865547281731 -0.0040663865674395198 0 -0.084999977091826204 -0.0019534081337708458 0 -0.086792764109054343 -0.0017244161264516117 0 -0.087528281510796779 0.0021656649495605603 0 -0.085887360044115096 -0.0028199711186724509 0 -0.087129412588505095 -0.001513642208015155 0 -0.087588062288350046 -0.0031359669369617968 0 -0.085887360044115096 -0.0028199711186724509 0 -0.087588062288350046 -0.0031359669369617968 0 -0.086772402771642082 -0.0043915342261611149 0 -0.088728021210795718 -0.0017523794057089711 0 -0.087129412588505095 -0.001513642208015155 0 -0.087588062288350046 -0.0031359669369617968 0 -0.089137809905928664 -0.0034890491736117453 0 -0.087588062288350046 -0.0031359669369617968 0 -0.087768396662139259 -0.004761520829699082 0 -0.087768396662139259 -0.004761520829699082 0 -0.086772402771642082 -0.0043915342261611149 0 -0.086926663436539181 -0.0056857846720329841 0 -0.087588062288350046 -0.0031359669369617968 0 -0.087768396662139259 -0.004761520829699082 0 -0.086772402771642082 -0.0043915342261611149 0 -0.084999977091826204 -0.0019534081337708458 0 -0.086792764109054343 -0.0017244161264516117 0 -0.085871161536366675 -0.005677634168221808 0 -0.085887360044115096 -0.0028199711186724509 0 -0.086772402771642082 -0.0043915342261611149 0 -0.085871161536366675 -0.005677634168221808 0 -0.084999977091826204 -0.0019534081337708458 0 -0.084999439380731262 -0.0069704705054657807 0 -0.085871161536366675 -0.005677634168221808 0 -0.08637988251907236 -0.0015010480821500791 0 -0.086127335374294997 -0.0030587027885156707 0 -0.086772402771642082 -0.0043915342261611149 0 -0.085871161536366675 -0.005677634168221808 0 -0.086926663436539181 -0.0056857846720329841 0 -0.084999439380731262 -0.0069704705054657807 0 -0.086443974166785495 -0.0068338283299506685 0 -0.086455141619345394 -0.009205624227566999 0 -0.084999439380731262 -0.0069704705054657807 0 -0.085871161536366675 -0.005677634168221808 0 -0.086443974166785495 -0.0068338283299506685 0 -0.085871161536366675 -0.005677634168221808 0 -0.086443974166785495 -0.0068338283299506685 0 -0.086926663436539181 -0.0056857846720329841 0 -0.086443974166785495 -0.0068338283299506685 0 -0.087841721027751715 -0.0067461094732099427 0 -0.086455141619345394 -0.009205624227566999 0 -0.086443974166785495 -0.0068338283299506685 0 -0.087841721027751715 -0.0067461094732099427 0 -0.086926663436539181 -0.0056857846720329841 0 -0.087768396662139259 -0.004761520829699082 0 -0.087841721027751715 -0.0067461094732099427 0 -0.086926663436539181 -0.0056857846720329841 0 -0.088988910108103142 -0.0053396811931217189 0 -0.087768396662139259 -0.004761520829699082 0 -0.087841721027751715 -0.0067461094732099427 0 -0.087841721027751715 -0.0067461094732099427 0 -0.088673317913567765 -0.0088633324625146236 0 -0.089442723448028408 -0.0067907600614706123 0 -0.087841721027751715 -0.0067461094732099427 0 -0.088673317913567765 -0.0088633324625146236 0 -0.086455141619345394 -0.009205624227566999 0 -0.088673317913567765 -0.0088633324625146236 0 -0.086455141619345394 -0.009205624227566999 0 -0.087995882499874403 -0.010836806011181324 0 -0.084999439380731262 -0.0069704705054657807 0 -0.086455141619345394 -0.009205624227566999 0 -0.084999756361855014 -0.01198600471929263 0 -0.092080943378988117 -0.0056995246850421967 0 -0.090173141868682263 -0.0049849145302021313 0 -0.090689774116427785 -0.0066627110250930309 0 -0.092080943378988117 -0.0056995246850421967 0 -0.090689774116427785 -0.0066627110250930309 0 -0.091318927258537463 -0.0082167397568133679 0 -0.090173141868682263 -0.0049849145302021313 0 -0.090689774116427785 -0.0066627110250930309 0 -0.089442723448028408 -0.0067907600614706123 0 -0.088988910108103142 -0.0053396811931217189 0 -0.090173141868682263 -0.0049849145302021313 0 -0.089442723448028408 -0.0067907600614706123 0 -0.088988910108103142 -0.0053396811931217189 0 -0.087841721027751715 -0.0067461094732099427 0 -0.089442723448028408 -0.0067907600614706123 0 -0.090689774116427785 -0.0066627110250930309 0 -0.089442723448028408 -0.0067907600614706123 0 -0.090059572925890868 -0.0083551974116410997 0 -0.088673317913567765 -0.0088633324625146236 0 -0.090059572925890868 -0.0083551974116410997 0 -0.090266228966101481 -0.010590650131984378 0 -0.088673317913567765 -0.0088633324625146236 0 -0.089442723448028408 -0.0067907600614706123 0 -0.090059572925890868 -0.0083551974116410997 0 -0.090059572925890868 -0.0083551974116410997 0 -0.091318927258537463 -0.0082167397568133679 0 -0.090266228966101481 -0.010590650131984378 0 -0.090689774116427785 -0.0066627110250930309 0 -0.090059572925890868 -0.0083551974116410997 0 -0.091318927258537463 -0.0082167397568133679 0 -0.091318927258537463 -0.0082167397568133679 0 -0.090266228966101481 -0.010590650131984378 0 -0.092060629008606981 -0.010417450609708818 0 -0.090266228966101481 -0.010590650131984378 0 -0.088882976463931646 -0.013597492915104762 0 -0.090731443462535408 -0.012418832367772003 0 -0.090724746851354454 -0.013620149686105689 0 -0.092129255863322532 -0.013964325562589535 0 -0.090266228966101481 -0.010590650131984378 0 -0.090731443462535408 -0.012418832367772003 0 -0.092060629008606981 -0.010417450609708818 0 -0.090731443462535408 -0.012418832367772003 0 -0.092504114969392495 -0.01217976224043492 0 -0.092060629008606981 -0.010417450609708818 0 -0.086455141619345394 -0.009205624227566999 0 -0.084999756361855014 -0.01198600471929263 0 -0.087995882499874403 -0.010836806011181324 0 -0.088673317913567765 -0.0088633324625146236 0 -0.090266228966101481 -0.010590650131984378 0 -0.087995882499874403 -0.010836806011181324 0 -0.090266228966101481 -0.010590650131984378 0 -0.087995882499874403 -0.010836806011181324 0 -0.088882976463931646 -0.013597492915104762 0 -0.084999756361855014 -0.01198600471929263 0 -0.087995882499874403 -0.010836806011181324 0 -0.088882976463931646 -0.013597492915104762 0 -0.084999756361855014 -0.01198600471929263 0 -0.088882976463931646 -0.013597492915104762 0 -0.084999444123415702 -0.017003527617689529 0 -0.088882976463931646 -0.013597492915104762 0 -0.084999444123415702 -0.017003527617689529 0 -0.088603646039062539 -0.017981639114273081 0 -0.088882976463931646 -0.013597492915104762 0 -0.088603646039062539 -0.017981639114273081 0 -0.091234514686453647 -0.016940395966362837 0 -0.087091957769348416 -0.021360804986916237 0 -0.088603646039062539 -0.017981639114273081 0 -0.091680958613778812 -0.020245541412540185 0 -0.089589804129350525 -0.020023790004634324 0 -0.091704624759504319 -0.019305287807019605 0 -0.087091957769348416 -0.021360804986916237 0 -0.084999444123415702 -0.017003527617689529 0 -0.088603646039062539 -0.017981639114273081 0 -0.084999996325635679 -0.022021775100433828 0 -0.087091957769348416 -0.021360804986916237 0 -0.084999444123415702 -0.017003527617689529 0 -0.092129255863322532 -0.013964325562589535 0 -0.094445605144366535 -0.014633037562062981 0 -0.094230992628976371 -0.017547901695309853 0 -0.096697506999680397 -0.019063829024467717 0 -0.097828898798852634 -0.01640782168088905 0 -0.094230992628976371 -0.017547901695309853 0 -0.093600496071749417 -0.01510674687996651 0 -0.097828898798852634 -0.01640782168088905 0 -0.088882976463931646 -0.013597492915104762 0 -0.093600496071749417 -0.01510674687996651 0 -0.091234514686453647 -0.016940395966362837 0 -0.094230992628976371 -0.017547901695309853 0 -0.093600496071749417 -0.01510674687996651 0 -0.091234514686453647 -0.016940395966362837 0 -0.088603646039062539 -0.017981639114273081 0 -0.091234514686453647 -0.016940395966362837 0 -0.091680958613778812 -0.020245541412540185 0 -0.094230992628976371 -0.017547901695309853 0 -0.091234514686453647 -0.016940395966362837 0 -0.091680958613778812 -0.020245541412540185 0 -0.093188007607323708 -0.023152504370512406 0 -0.091424157694137725 -0.020457062135531133 0 -0.095576416643659387 -0.019526462124595176 0 -0.094230992628976371 -0.017547901695309853 0 -0.091680958613778812 -0.020245541412540185 0 -0.096697506999680397 -0.019063829024467717 0 -0.093188007607323708 -0.023152504370512406 0 -0.09643363765322821 -0.020841029854858414 0 -0.095576416643659387 -0.019526462124595176 0 -0.091704624759504319 -0.019305287807019605 0 -0.095016987939116213 -0.017691859471146213 0 -0.09643363765322821 -0.020841029854858414 0 -0.095576416643659387 -0.019526462124595176 0 -0.099628296368339364 -0.018590646096510278 0 -0.095016987939116213 -0.017691859471146213 0 -0.095631143293744836 -0.01554520320871032 0 -0.091498851013035759 -0.016441925936364645 0 -0.090153139102367122 -0.015270124526479056 0 -0.092386586833978074 -0.015523570222291129 0 -0.096697506999680397 -0.019063829024467717 0 -0.097828898798852634 -0.01640782168088905 0 -0.10151782314966833 -0.017928796056157617 0 -0.092504114969392495 -0.01217976224043492 0 -0.093650610399495501 -0.011437476411100088 0 -0.094373239320865013 -0.012443098869268004 0 -0.097828898798852634 -0.01640782168088905 0 -0.10198868246389273 -0.017601749320305771 0 -0.10151782314966833 -0.017928796056157617 0 -0.094445605144366535 -0.014633037562062981 0 -0.095611313717865701 -0.015211373506754701 0 -0.093650610399495501 -0.011437476411100088 0 -0.094373239320865013 -0.012443098869268004 0 -0.094579453298376928 -0.011233084996149414 0 -0.093787004052312703 -0.013287770989765966 0 -0.094253982618622181 -0.013656606309862016 0 -0.094592658321865614 -0.013150723920790346 0 -0.095631143293744836 -0.01554520320871032 0 -0.095588047866659268 -0.015184909672469521 0 -0.095737677171878921 -0.015580596966110331 0 -0.095884521137707457 -0.015479169296689769 0 -0.09560437996858677 -0.01554229139605413 0 -0.095611313717865701 -0.015211373506754701 0 -0.095631143293744836 -0.01554520320871032 0 -0.090153139102367122 -0.015270124526479056 0 -0.093090721238321669 -0.014485164925343658 0 -0.092386586833978074 -0.015523570222291129 0 -0.093787004052312703 -0.013287770989765966 0 -0.093884399592411863 -0.013941000173064296 0 -0.093090721238321669 -0.014485164925343658 0 -0.093884399592411863 -0.013941000173064296 0 -0.094253982618622181 -0.013656606309862016 0 -0.094404638470552207 -0.014340181235335354 0 -0.090153139102367122 -0.015270124526479056 0 -0.093787004052312703 -0.013287770989765966 0 -0.093090721238321669 -0.014485164925343658 0 -0.093787004052312703 -0.013287770989765966 0 -0.093884399592411863 -0.013941000173064296 0 -0.094253982618622181 -0.013656606309862016 0 -0.092982941399497254 -0.018152038215388862 0 -0.095631143293744836 -0.01554520320871032 0 -0.093884399592411863 -0.013941000173064296 0 -0.093090721238321669 -0.014485164925343658 0 -0.094404638470552207 -0.014340181235335354 0 -0.093698820789714643 -0.015508877903348374 0 -0.094687410047029894 -0.015480461490936166 0 -0.094404638470552207 -0.014340181235335354 0 -0.093090721238321669 -0.014485164925343658 0 -0.093698820789714643 -0.015508877903348374 0 -0.094404638470552207 -0.014340181235335354 0 -0.093090721238321669 -0.014485164925343658 0 -0.092386586833978074 -0.015523570222291129 0 -0.093698820789714643 -0.015508877903348374 0 -0.096013923139322221 -0.016373855493024288 0 -0.094687410047029894 -0.015480461490936166 0 -0.095426027190013599 -0.015106050566521281 0 -0.09549267388322058 -0.01418245401459458 0 -0.097995377195938538 -0.014721203924994996 0 -0.094592658321865614 -0.013150723920790346 0 -0.094613923561224181 -0.016641383715716399 0 -0.093698820789714643 -0.015508877903348374 0 -0.094687410047029894 -0.015480461490936166 0 -0.09649925478284041 -0.015112186220158592 0 -0.09549267388322058 -0.01418245401459458 0 -0.097995377195938538 -0.014721203924994996 0 -0.096657422190165321 -0.015201302988953202 0 -0.095588047866659268 -0.015184909672469521 0 -0.094687410047029894 -0.015480461490936166 0 -0.095426027190013599 -0.015106050566521281 0 -0.094404638470552207 -0.014340181235335354 0 -0.096013923139322221 -0.016373855493024288 0 -0.095426027190013599 -0.015106050566521281 0 -0.09649925478284041 -0.015112186220158592 0 -0.095426027190013599 -0.015106050566521281 0 -0.09649925478284041 -0.015112186220158592 0 -0.09549267388322058 -0.01418245401459458 0 -0.094253982618622181 -0.013656606309862016 0 -0.094686783991063256 -0.013835720306442012 0 -0.094592658321865614 -0.013150723920790346 0 -0.094253982618622181 -0.013656606309862016 0 -0.094686783991063256 -0.013835720306442012 0 -0.094404638470552207 -0.014340181235335354 0 -0.09549267388322058 -0.01418245401459458 0 -0.094686783991063256 -0.013835720306442012 0 -0.094404638470552207 -0.014340181235335354 0 -0.09549267388322058 -0.01418245401459458 0 -0.094686783991063256 -0.013835720306442012 0 -0.094592658321865614 -0.013150723920790346 0 -0.095426027190013599 -0.015106050566521281 0 -0.09549267388322058 -0.01418245401459458 0 -0.094404638470552207 -0.014340181235335354 0 -0.098046032632059493 -0.01638271607876899 0 -0.09649925478284041 -0.015112186220158592 0 -0.097995377195938538 -0.014721203924994996 0 -0.098046032632059493 -0.01638271607876899 0 -0.096013923139322221 -0.016373855493024288 0 -0.09649925478284041 -0.015112186220158592 0 -0.095284762382544866 -0.014664689254638961 0 -0.095530086120061933 -0.013203941070129298 0 -0.092584287840549562 -0.013890398805937502 0 -0.096712821266130414 -0.011452886283861763 0 -0.095702685447914257 -0.010951356849605262 0 -0.097060898270783874 -0.0099984161095850576 0 -0.097456388806443542 -0.014018474520136081 0 -0.095284762382544866 -0.014664689254638961 0 -0.095530086120061933 -0.013203941070129298 0 -0.096712821266130414 -0.011452886283861763 0 -0.094547863790974657 -0.011961164531798645 0 -0.095702685447914257 -0.010951356849605262 0 -0.096706547375912152 -0.013512202787127144 0 -0.095588047866659268 -0.015184909672469521 0 -0.094346141743429077 -0.011904671181955278 0 -0.094547863790974657 -0.011961164531798645 0 -0.095702685447914257 -0.010951356849605262 0 -0.095611313717865701 -0.015211373506754701 0 -0.095588047866659268 -0.015184909672469521 0 -0.095611313717865701 -0.015211373506754701 0 -0.096419467430108111 -0.013438638662393667 0 -0.094373239320865013 -0.012443098869268004 0 -0.095746401812195209 -0.011322877514916337 0 -0.094579453298376928 -0.011233084996149414 0 -0.094579453298376928 -0.011233084996149414 0 -0.095356590440800304 -0.0099196036805636201 0 -0.093996574370124056 -0.010271690230061454 0 -0.095746401812195209 -0.011322877514916337 0 -0.094579453298376928 -0.011233084996149414 0 -0.095356590440800304 -0.0099196036805636201 0 -0.095746401812195209 -0.011322877514916337 0 -0.095356590440800304 -0.0099196036805636201 0 -0.097060898270783874 -0.0099984161095850576 0 -0.095356590440800304 -0.0099196036805636201 0 -0.097060898270783874 -0.0099984161095850576 0 -0.096372746394560241 -0.0090127993311297679 0 -0.096419467430108111 -0.013438638662393667 0 -0.096849047144832889 -0.012762258157423087 0 -0.095356590440800304 -0.0099196036805636201 0 -0.095802122578988999 -0.0081507875906850907 0 -0.096372746394560241 -0.0090127993311297679 0 -0.097253167198152218 -0.0079897048069592011 0 -0.097060898270783874 -0.0099984161095850576 0 -0.096372746394560241 -0.0090127993311297679 0 -0.097253167198152218 -0.0079897048069592011 0 -0.095802122578988999 -0.0081507875906850907 0 -0.096372746394560241 -0.0090127993311297679 0 -0.095356590440800304 -0.0099196036805636201 0 -0.094530980392898686 -0.0083962218399374483 0 -0.093996574370124056 -0.010271690230061454 0 -0.095356590440800304 -0.0099196036805636201 0 -0.095802122578988999 -0.0081507875906850907 0 -0.094530980392898686 -0.0083962218399374483 0 -0.093277327651750397 -0.0087500434742447519 0 -0.093012572577290106 -0.010769491307734259 0 -0.093996574370124056 -0.010271690230061454 0 -0.094530980392898686 -0.0083962218399374483 0 -0.093277327651750397 -0.0087500434742447519 0 -0.093996574370124056 -0.010271690230061454 0 -0.093277327651750397 -0.0087500434742447519 0 -0.092060629008606981 -0.010417450609708818 0 -0.093012572577290106 -0.010769491307734259 0 -0.092566249691757321 -0.0074840690057521916 0 -0.093277327651750397 -0.0087500434742447519 0 -0.092060629008606981 -0.010417450609708818 0 -0.092504114969392495 -0.01217976224043492 0 -0.092060629008606981 -0.010417450609708818 0 -0.093012572577290106 -0.010769491307734259 0 -0.092504114969392495 -0.01217976224043492 0 -0.093650610399495501 -0.011437476411100088 0 -0.093012572577290106 -0.010769491307734259 0 -0.093650610399495501 -0.011437476411100088 0 -0.093012572577290106 -0.010769491307734259 0 -0.093996574370124056 -0.010271690230061454 0 -0.093650610399495501 -0.011437476411100088 0 -0.094579453298376928 -0.011233084996149414 0 -0.093996574370124056 -0.010271690230061454 0 -0.011344435237694319 0.019612287033589984 0 -0.010582707883537736 0.017420500297227266 0 -0.01342635430885278 0.01681322683218801 0 -0.011344435237694319 0.019612287033589984 0 -0.0083463155245030712 0.018043050581631474 0 -0.010582707883537736 0.017420500297227266 0 -0.01540147792327605 0.014428526137415206 0 -0.018498255358349973 0.016770624891321487 0 -0.011344435237694319 0.019612287033589984 0 -0.014870642022605508 0.019782824544250479 0 -0.01342635430885278 0.01681322683218801 0 -0.014870642022605508 0.019782824544250479 0 -0.01342635430885278 0.01681322683218801 0 -0.017431636736458055 0.018992059650782524 0 -0.011344435237694319 0.019612287033589984 0 -0.013283692975333326 0.021155018292296351 0 -0.014870642022605508 0.019782824544250479 0 -0.013283692975333326 0.021155018292296351 0 -0.014870642022605508 0.019782824544250479 0 -0.014759495473640786 0.02234761229983441 0 -0.014870642022605508 0.019782824544250479 0 -0.014759495473640786 0.02234761229983441 0 -0.017564042564523919 0.021154410035317355 0 -0.014870642022605508 0.019782824544250479 0 -0.017431636736458055 0.018992059650782524 0 -0.017564042564523919 0.021154410035317355 0 -0.014759495473640786 0.02234761229983441 0 -0.017564042564523919 0.021154410035317355 0 -0.016569640355027709 0.023982076218971245 0 -0.013283692975333326 0.021155018292296351 0 -0.014759495473640786 0.02234761229983441 0 -0.012267939924995684 0.023342709392001657 0 -0.014759495473640786 0.02234761229983441 0 -0.012267939924995684 0.023342709392001657 0 -0.014222678705275223 0.024861435832377893 0 -0.011344435237694319 0.019612287033589984 0 -0.012267939924995684 0.023342709392001657 0 -0.00799352031271937 0.022664395198601348 0 -0.011344435237694319 0.019612287033589984 0 -0.013283692975333326 0.021155018292296351 0 -0.012267939924995684 0.023342709392001657 0 -0.0098528155023219991 0.024083283487229622 0 -0.0069013110563739795 0.023367014444815305 0 -0.0083463155245030712 0.018043050581631474 0 -0.0098528155023219991 0.024083283487229622 0 -0.0069013110563739795 0.023367014444815305 0 -0.0070968428927392713 0.026902319977436872 0 -0.0051877988918467505 0.021750268782763579 0 -0.0069013110563739795 0.023367014444815305 0 -0.0042155259263345572 0.025165994910657769 0 -0.0051877988918467505 0.021750268782763579 0 -0.0054918216665813917 0.018799879536121177 0 -0.0083463155245030712 0.018043050581631474 0 -0.0051877988918467505 0.021750268782763579 0 -0.0069013110563739795 0.023367014444815305 0 -0.0083463155245030712 0.018043050581631474 0 -0.0086360611002908941 0.0246738585157316 0 -0.0082600771995221325 0.021544001322005488 0 -0.011344435237694319 0.019612287033589984 0 -0.00799352031271937 0.022664395198601348 0 -0.0083463155245030712 0.018043050581631474 0 -0.0083463155245030712 0.018043050581631474 0 -0.0053571155164115775 0.016611383963992706 0 -0.0093581047576708279 0.015379423799473975 0 -0.0083463155245030712 0.018043050581631474 0 -0.0093581047576708279 0.015379423799473975 0 -0.010582707883537736 0.017420500297227266 0 -0.0054918216665813917 0.018799879536121177 0 -0.0083463155245030712 0.018043050581631474 0 -0.0053571155164115775 0.016611383963992706 0 -0.0053571155164115775 0.016611383963992706 0 -0.0093581047576708279 0.015379423799473975 0 -0.0058423956197698841 0.01317667795320825 0 -0.010706010107582167 0.010622621910294476 0 -0.0067130611343201498 0.0066286127562589598 0 -0.014732650524070811 0.0020172426313979411 0 -0.012122220436154768 -0.0020060398158208009 0 -0.010418935531025778 0.0065776682966210091 0 -0.015857451032086769 0.0066419602121438577 0 -0.010837994105558834 0.0013902385126537424 0 -0.010418935531025778 0.0065776682966210091 0 -0.016053720820453931 0.011734327591269548 0 -0.015857451032086769 0.0066419602121438577 0 -0.010706010107582167 0.010622621910294476 0 -0.01540147792327605 0.014428526137415206 0 -0.0093581047576708279 0.015379423799473975 0 -0.010582707883537736 0.017420500297227266 0 -0.01342635430885278 0.01681322683218801 0 -0.016053720820453931 0.011734327591269548 0 -0.018526204673112633 0.0098390618294446341 0 -0.015857451032086769 0.0066419602121438577 0 -0.016053720820453931 0.011734327591269548 0 -0.018526204673112633 0.0098390618294446341 0 -0.019419465152819639 0.013646656483683014 0 -0.018526204673112633 0.0098390618294446341 0 -0.015857451032086769 0.0066419602121438577 0 -0.020264779533282817 0.0059304885573600316 0 -0.015857451032086769 0.0066419602121438577 0 -0.020264779533282817 0.0059304885573600316 0 -0.016477651235639226 -0.0015716597507892814 0 -0.01825061501369207 0.0013872899065010267 0 -0.020307009799313921 0.0019852893924111772 0 -0.020595685819791685 0.003786774697664396 0 -0.01825061501369207 0.0013872899065010267 0 -0.020307009799313921 0.0019852893924111772 0 -0.020333115455218154 -0.00042604302517096972 0 -0.02132079496370802 0.0012589408503148932 0 -0.020394558098531235 -0.0006433082828625218 0 -0.017116881483593249 -0.0014294043276350584 0 -0.022368277467201866 0.0030037432154495104 0 -0.020307009799313921 0.0019852893924111772 0 -0.020333115455218154 -0.00042604302517096972 0 -0.022368277467201866 0.0030037432154495104 0 -0.02132079496370802 0.0012589408503148932 0 -0.017116881483593249 -0.0014294043276350584 0 -0.020608428735886156 -0.0008734238633545232 0 -0.019449976751167129 -0.0027276249024647588 0 -0.02132079496370802 0.0012589408503148932 0 -0.021908035600803937 -1.2763445911758047e-06 0 -0.020394558098531235 -0.0006433082828625218 0 -0.022368277467201866 0.0030037432154495104 0 -0.020307009799313921 0.0019852893924111772 0 -0.020595685819791685 0.003786774697664396 0 -0.022368277467201866 0.0030037432154495104 0 -0.02132079496370802 0.0012589408503148932 0 -0.0257440610604668 0.0068380218736887564 0 -0.022368277467201866 0.0030037432154495104 0 -0.020595685819791685 0.003786774697664396 0 -0.0257440610604668 0.0068380218736887564 0 -0.020595685819791685 0.003786774697664396 0 -0.020075237086648639 0.0067436416765939457 0 -0.0257440610604668 0.0068380218736887564 0 -0.01825061501369207 0.0013872899065010267 0 -0.020595685819791685 0.003786774697664396 0 -0.020075237086648639 0.0067436416765939457 0 -0.018526204673112633 0.0098390618294446341 0 -0.020264779533282817 0.0059304885573600316 0 -0.020868627900417658 0.011061251345216424 0 -0.020264779533282817 0.0059304885573600316 0 -0.023913368066302811 0.012150602029943339 0 -0.020868627900417658 0.011061251345216424 0 -0.023913368066302811 0.012150602029943339 0 -0.020868627900417658 0.011061251345216424 0 -0.022164592160479901 0.013700961192928822 0 -0.019335424245811469 0.0045447095802717734 0 -0.022788871544369267 0.0091668253710068519 0 -0.018526204673112633 0.0098390618294446341 0 -0.020868627900417658 0.011061251345216424 0 -0.019419465152819639 0.013646656483683014 0 0.0094317121727736011 0.016937564114034052 0 0.0096654287504903541 0.013390273244723696 0 -0.023624126767080568 -0.00042106335844440865 0 -0.022682344304337149 0.001660519199675164 0 -0.024406601029366117 0.0028278164733760913 0 -0.023624126767080568 -0.00042106335844440865 0 -0.024406601029366117 0.0028278164733760913 0 -0.026457957789920352 -0.0010872797591249498 0 -0.023624126767080568 -0.00042106335844440865 0 -0.022682344304337149 0.001660519199675164 0 -0.021908035600803937 -1.2763445911758047e-06 0 -0.02132079496370802 0.0012589408503148932 0 -0.021908035600803937 -1.2763445911758047e-06 0 -0.021908945960270588 0.0016677282459338662 0 -0.022682344304337149 0.001660519199675164 0 -0.021908035600803937 -1.2763445911758047e-06 0 -0.021908945960270588 0.0016677282459338662 0 -0.003973506324272705 0.012118068699489871 0 -0.0013068353352156459 0.014917080965515733 0 -0.022682344304337149 0.001660519199675164 0 -0.021685979743523678 0.0034845749842344013 0 -0.024406601029366117 0.0028278164733760913 0 -0.02132079496370802 0.0012589408503148932 0 -0.021908945960270588 0.0016677282459338662 0 -0.021685979743523678 0.0034845749842344013 0 -0.022682344304337149 0.001660519199675164 0 -0.021908945960270588 0.0016677282459338662 0 -0.021685979743523678 0.0034845749842344013 0 0.046355589054090304 0.029248746332670574 0 0.046248592049566481 0.029360287369198518 0 0.046179153013351855 0.02938220883664051 0 0.0094317121727736011 0.016937564114034052 0 0.0085846340112781996 0.021938352754222387 0 0.046355589054090304 0.029248746332670574 0 0.046248592049566481 0.029360287369198518 0 0.046270680624978279 0.029359966089790468 0 0.046248592049566481 0.029360287369198518 0 0.046183498983689855 0.029389118531176338 0 0.046216469610187057 0.029402055901367536 0 0.046248592049566481 0.029360287369198518 0 0.046179153013351855 0.02938220883664051 0 0.046183498983689855 0.029389118531176338 0 -0.0013068353352156459 0.014917080965515733 0 0.0085846340112781996 0.021938352754222387 0 -0.0257440610604668 0.0068380218736887564 0 -0.029151362847278223 0.016862001827104789 0 -0.028093481394466553 0.017148731577184207 0 -0.021685979743523678 0.0034845749842344013 0 -0.024406601029366117 0.0028278164733760913 0 -0.022556065593464448 0.0062210089176415869 0 0.045117315583804031 0.031287672782832725 0 0.04462253493254096 0.03021441782470715 0 0.045558397351553197 0.030349957879798529 0 0.0085846340112781996 0.021938352754222387 0 0.0019009341317471121 0.031984108290565826 0 -0.028093481394466553 0.017148731577184207 0 -0.025916927961072679 0.018028116316107463 0 -0.025674985503100475 0.023744878423802636 0 -0.029151362847278223 0.016862001827104789 0 -0.028093481394466553 0.017148731577184207 0 -0.025674985503100475 0.023744878423802636 0 0.0085846340112781996 0.021938352754222387 0 0.02254811855827284 0.023082682348747594 0 0.046179153013351855 0.02938220883664051 0 0.046183498983689855 0.029389118531176338 0 0.046106921842730721 0.029377410484373239 0 0.046183498983689855 0.029389118531176338 0 0.046106921842730721 0.029377410484373239 0 0.046165211328542261 0.029400942073180347 0 0.046183498983689855 0.029389118531176338 0 0.046216469610187057 0.029402055901367536 0 0.046165211328542261 0.029400942073180347 0 -0.016053720820453931 0.011734327591269548 0 -0.019419465152819639 0.013646656483683014 0 -0.020779183874894629 0.018257840421058779 0 -0.01342635430885278 0.01681322683218801 0 -0.017431636736458055 0.018992059650782524 0 -0.020779183874894629 0.018257840421058779 0 -0.020675659539170391 0.01552924002416586 0 -0.019419465152819639 0.013646656483683014 0 -0.020779183874894629 0.018257840421058779 0 -0.020675659539170391 0.01552924002416586 0 -0.021508022987023489 0.016845191402292743 0 -0.02270894835273285 0.016133787981044298 0 -0.021508022987023489 0.016845191402292743 0 -0.021780131519172938 0.017555190900462737 0 -0.02270894835273285 0.016133787981044298 0 -0.021508022987023489 0.016845191402292743 0 -0.021780131519172938 0.017555190900462737 0 -0.020779183874894629 0.018257840421058779 0 -0.020675659539170391 0.01552924002416586 0 -0.021508022987023489 0.016845191402292743 0 -0.020779183874894629 0.018257840421058779 0 -0.020675659539170391 0.01552924002416586 0 -0.022164592160479901 0.013700961192928822 0 -0.02270894835273285 0.016133787981044298 0 -0.020675659539170391 0.01552924002416586 0 -0.019419465152819639 0.013646656483683014 0 -0.022164592160479901 0.013700961192928822 0 -0.020868627900417658 0.011061251345216424 0 -0.019419465152819639 0.013646656483683014 0 -0.022164592160479901 0.013700961192928822 0 -0.023913368066302811 0.012150602029943339 0 -0.02346050654136448 0.014403908743082981 0 -0.024984054218286075 0.015742334693631871 0 -0.020075237086648639 0.0067436416765939457 0 -0.0257440610604668 0.0068380218736887564 0 -0.028093481394466553 0.017148731577184207 0 -0.023913368066302811 0.012150602029943339 0 -0.028093481394466553 0.017148731577184207 0 -0.024984054218286075 0.015742334693631871 0 -0.022788871544369267 0.0091668253710068519 0 -0.02536322924921286 0.012344121368709014 0 -0.022164592160479901 0.013700961192928822 0 -0.02346050654136448 0.014403908743082981 0 -0.02270894835273285 0.016133787981044298 0 -0.023913368066302811 0.012150602029943339 0 -0.022164592160479901 0.013700961192928822 0 -0.02346050654136448 0.014403908743082981 0 -0.028093481394466553 0.017148731577184207 0 -0.024984054218286075 0.015742334693631871 0 -0.025916927961072679 0.018028116316107463 0 -0.024984054218286075 0.015742334693631871 0 -0.02270894835273285 0.016133787981044298 0 -0.023943533321137581 0.018409318245645213 0 -0.02346050654136448 0.014403908743082981 0 -0.024984054218286075 0.015742334693631871 0 -0.02270894835273285 0.016133787981044298 0 -0.02270894835273285 0.016133787981044298 0 -0.022510813487461628 0.017679200307473272 0 -0.023943533321137581 0.018409318245645213 0 -0.021780131519172938 0.017555190900462737 0 -0.02270894835273285 0.016133787981044298 0 -0.022510813487461628 0.017679200307473272 0 -0.0050864908581473378 0.03125007008035751 0 0.0019009341317471121 0.031984108290565826 0 -0.022510813487461628 0.017679200307473272 0 -0.023943533321137581 0.018409318245645213 0 -0.021580673179463841 0.018643511521298017 0 -0.023943533321137581 0.018409318245645213 0 -0.025916927961072679 0.018028116316107463 0 -0.025674985503100475 0.023744878423802636 0 -0.021580673179463841 0.018643511521298017 0 -0.022065665520600353 0.023607926095414001 0 -0.026210566070578964 0.025689447854665304 0 -0.023943533321137581 0.018409318245645213 0 -0.021580673179463841 0.018643511521298017 0 -0.025674985503100475 0.023744878423802636 0 -0.024984054218286075 0.015742334693631871 0 -0.023943533321137581 0.018409318245645213 0 -0.025916927961072679 0.018028116316107463 0 -0.020259822118444334 0.022290882456325555 0 -0.021580673179463841 0.018643511521298017 0 -0.022065665520600353 0.023607926095414001 0 -0.020259822118444334 0.022290882456325555 0 -0.020283766605267456 0.019905538063731024 0 -0.019302098113051447 0.021036567539156031 0 -0.020259822118444334 0.022290882456325555 0 -0.020283766605267456 0.019905538063731024 0 -0.021580673179463841 0.018643511521298017 0 -0.020283766605267456 0.019905538063731024 0 -0.01907536452798653 0.019860857241460979 0 -0.019302098113051447 0.021036567539156031 0 -0.020283766605267456 0.019905538063731024 0 -0.020779183874894629 0.018257840421058779 0 -0.01907536452798653 0.019860857241460979 0 -0.021780131519172938 0.017555190900462737 0 -0.020779183874894629 0.018257840421058779 0 -0.021580673179463841 0.018643511521298017 0 -0.020283766605267456 0.019905538063731024 0 -0.020779183874894629 0.018257840421058779 0 -0.021580673179463841 0.018643511521298017 0 -0.021780131519172938 0.017555190900462737 0 -0.022510813487461628 0.017679200307473272 0 -0.021580673179463841 0.018643511521298017 0 -0.017431636736458055 0.018992059650782524 0 -0.01907536452798653 0.019860857241460979 0 -0.017564042564523919 0.021154410035317355 0 -0.017431636736458055 0.018992059650782524 0 -0.020779183874894629 0.018257840421058779 0 -0.01907536452798653 0.019860857241460979 0 -0.01907536452798653 0.019860857241460979 0 -0.017564042564523919 0.021154410035317355 0 -0.019302098113051447 0.021036567539156031 0 -0.017564042564523919 0.021154410035317355 0 -0.018585431899832035 0.022806987043351531 0 -0.016569640355027709 0.023982076218971245 0 -0.017564042564523919 0.021154410035317355 0 -0.019302098113051447 0.021036567539156031 0 -0.018585431899832035 0.022806987043351531 0 -0.020259822118444334 0.022290882456325555 0 -0.019302098113051447 0.021036567539156031 0 -0.018585431899832035 0.022806987043351531 0 -0.018585431899832035 0.022806987043351531 0 -0.018992898051769749 0.025358369414457543 0 -0.016569640355027709 0.023982076218971245 0 -0.020259822118444334 0.022290882456325555 0 -0.018585431899832035 0.022806987043351531 0 -0.018992898051769749 0.025358369414457543 0 -0.018992898051769749 0.025358369414457543 0 -0.018496129097163999 0.029740124213366439 0 -0.01570558643906891 0.027291343501634119 0 -0.018992898051769749 0.025358369414457543 0 -0.021363632720050114 0.027238711456922055 0 -0.018496129097163999 0.029740124213366439 0 -0.018992898051769749 0.025358369414457543 0 -0.021363632720050114 0.027238711456922055 0 -0.022065665520600353 0.023607926095414001 0 -0.020259822118444334 0.022290882456325555 0 -0.018992898051769749 0.025358369414457543 0 -0.022065665520600353 0.023607926095414001 0 -0.021363632720050114 0.027238711456922055 0 -0.022065665520600353 0.023607926095414001 0 -0.026210566070578964 0.025689447854665304 0 -0.021363632720050114 0.027238711456922055 0 -0.026210566070578964 0.025689447854665304 0 -0.022426525687602946 0.032434143203537054 0 0.0019009341317471121 0.031984108290565826 0 -0.0025694576055847736 0.040751191670913865 0 0.007324216099490021 0.062813835592507944 0 0.0050037057192384247 0.058448477887524129 0 0.007731167445372715 0.058245567941761084 0 -0.021363632720050114 0.027238711456922055 0 -0.022426525687602946 0.032434143203537054 0 -0.018496129097163999 0.029740124213366439 0 -0.022426525687602946 0.032434143203537054 0 -0.018496129097163999 0.029740124213366439 0 -0.017767789391450396 0.034025622860978683 0 0.046106921842730721 0.029377410484373239 0 0.046125488585859367 0.029368583389727053 0 0.046079188916554339 0.029333385935294273 0 0.02254811855827284 0.023082682348747594 0 0.026593443893241454 0.02361447678976053 0 0.046106921842730721 0.029377410484373239 0 0.046165211328542261 0.029400942073180347 0 0.046125488585859367 0.029368583389727053 0 0.04462253493254096 0.03021441782470715 0 0.045558397351553197 0.030349957879798529 0 0.045492719838025102 0.029373746256598544 0 0.007324216099490021 0.062813835592507944 0 0.010154799952139873 0.059228860351655047 0 0.007731167445372715 0.058245567941761084 0 0.0019009341317471121 0.031984108290565826 0 0.016397347444748134 0.036654957890066675 0 0.045558397351553197 0.030349957879798529 0 0.045492719838025102 0.029373746256598544 0 0.045989431344965956 0.029432064127773626 0 0.046106921842730721 0.029377410484373239 0 0.045989431344965956 0.029432064127773626 0 0.046079188916554339 0.029333385935294273 0 0.045492719838025102 0.029373746256598544 0 0.045989431344965956 0.029432064127773626 0 0.045943695614039985 0.029368511026752489 0 0.045989431344965956 0.029432064127773626 0 0.046048721863761521 0.029374972207152284 0 0.045943695614039985 0.029368511026752489 0 0.045989431344965956 0.029432064127773626 0 0.046048721863761521 0.029374972207152284 0 0.046059547095451278 0.029377420733545458 0 0.045989431344965956 0.029432064127773626 0 0.046059547095451278 0.029377420733545458 0 0.046079188916554339 0.029333385935294273 0 0.010154799952139873 0.059228860351655047 0 0.013187844222330382 0.05566654019311694 0 0.012866939508867522 0.055823242828695586 0 0.045492719838025102 0.029373746256598544 0 0.04607291552152612 0.02932832013927289 0 0.045943695614039985 0.029368511026752489 0 0.010154799952139873 0.059228860351655047 0 0.012866939508867522 0.055823242828695586 0 0.0096859492108454393 0.056014925788236712 0 0.016397347444748134 0.036654957890066675 0 0.024470650686470745 0.038742494361783703 0 0.013219026010085439 0.055683763468535506 0 0.012866939508867522 0.055823242828695586 0 0.012988084771037448 0.05491118529448203 0 0.024470650686470745 0.038742494361783703 0 0.024396972481151233 0.038795906893561764 0 0.04607291552152612 0.02932832013927289 0 0.046037217823861894 0.029360675818808232 0 0.046078960252232376 0.029390289334690581 0 0.046037217823861894 0.029360675818808232 0 0.046048721863761521 0.029374972207152284 0 0.046078960252232376 0.029390289334690581 0 0.04607291552152612 0.02932832013927289 0 0.046037217823861894 0.029360675818808232 0 0.045943695614039985 0.029368511026752489 0 0.046037217823861894 0.029360675818808232 0 0.046048721863761521 0.029374972207152284 0 0.045943695614039985 0.029368511026752489 0 0.012866939508867522 0.055823242828695586 0 0.0096859492108454393 0.056014925788236712 0 0.011959250889828042 0.054358738509372818 0 0.010154799952139873 0.059228860351655047 0 0.0096859492108454393 0.056014925788236712 0 0.007731167445372715 0.058245567941761084 0 0.0096859492108454393 0.056014925788236712 0 0.007731167445372715 0.058245567941761084 0 0.0066607274651262925 0.055250770177546232 0 0.009383657563755211 0.05360437724198152 0 0.011346074980963478 0.052250349890145834 0 0.0072179413077099724 0.051721021243180162 0 0.009383657563755211 0.05360437724198152 0 0.0066607274651262925 0.055250770177546232 0 0.0072179413077099724 0.051721021243180162 0 0.0096859492108454393 0.056014925788236712 0 0.009383657563755211 0.05360437724198152 0 0.0066607274651262925 0.055250770177546232 0 0.0096859492108454393 0.056014925788236712 0 0.009383657563755211 0.05360437724198152 0 0.011959250889828042 0.054358738509372818 0 0.011959250889828042 0.054358738509372818 0 0.011346074980963478 0.052250349890145834 0 0.013513244260520656 0.053624220050773733 0 0.009383657563755211 0.05360437724198152 0 0.011959250889828042 0.054358738509372818 0 0.011346074980963478 0.052250349890145834 0 0.011346074980963478 0.052250349890145834 0 0.013513244260520656 0.053624220050773733 0 0.01421877742357739 0.051804579149787602 0 0.013513244260520656 0.053624220050773733 0 0.012988084771037448 0.05491118529448203 0 0.013925556752838119 0.0550073401503689 0 0.011959250889828042 0.054358738509372818 0 0.013513244260520656 0.053624220050773733 0 0.012988084771037448 0.05491118529448203 0 0.012866939508867522 0.055823242828695586 0 0.011959250889828042 0.054358738509372818 0 0.012988084771037448 0.05491118529448203 0 0.013219026010085439 0.055683763468535506 0 0.012988084771037448 0.05491118529448203 0 0.013925556752838119 0.0550073401503689 0 0.024470650686470745 0.038742494361783703 0 0.024072891192978476 0.039287774318718167 0 -0.0025694576055847736 0.040751191670913865 0 -0.0050471305577899084 0.043812046691199272 0 -0.022426525687602946 0.032434143203537054 0 -0.017767789391450396 0.034025622860978683 0 -0.018849515567240484 0.039278271379318754 0 0.0050037057192384247 0.058448477887524129 0 0.007731167445372715 0.058245567941761084 0 0.0066607274651262925 0.055250770177546232 0 0.0050037057192384247 0.058448477887524129 0 0.0066607274651262925 0.055250770177546232 0 0.0026198624303596461 0.053946104465520797 0 -0.0050471305577899084 0.043812046691199272 0 0.0026243091470136413 0.046126358936924634 0 0.0066607274651262925 0.055250770177546232 0 0.0026198624303596461 0.053946104465520797 0 0.0072179413077099724 0.051721021243180162 0 -0.0021774856325906386 0.055171440171384943 0 0.0050992087628347216 0.051830455472022044 0 -0.00046342129862054067 0.049775020315800285 0 -0.0050471305577899084 0.043812046691199272 0 -0.0057952680255597896 0.043867569348541809 0 -0.012378669441184339 0.037802887224459542 0 -0.010175792272958412 0.038542700637998278 0 -0.010902815101652764 0.040129571644186054 0 -0.010175792272958412 0.038542700637998278 0 -0.0087958402652746799 0.037857526834299937 0 -0.010699121024966739 0.036746734308835634 0 -0.0050471305577899084 0.043812046691199272 0 -0.0074787742619913042 0.042479990570672026 0 -0.012378669441184339 0.037802887224459542 0 -0.010175792272958412 0.038542700637998278 0 -0.010699121024966739 0.036746734308835634 0 -0.0087958402652746799 0.037857526834299937 0 -0.0073125923382787008 0.038738557359902878 0 -0.0084537904904202731 0.039921325623858202 0 -0.010175792272958412 0.038542700637998278 0 -0.0087958402652746799 0.037857526834299937 0 -0.0084537904904202731 0.039921325623858202 0 -0.0095085653466353889 0.033775424450557638 0 -0.0092225972752366693 0.03047255617715967 0 -0.0087958402652746799 0.037857526834299937 0 -0.0097435222157575031 0.034814529988307828 0 -0.010699121024966739 0.036746734308835634 0 -0.0087958402652746799 0.037857526834299937 0 -0.0097435222157575031 0.034814529988307828 0 -0.0080916984731385297 0.030954240377520103 0 -0.0076246872267662453 0.041745263692784675 0 -0.0074787742619913042 0.042479990570672026 0 -0.0097435222157575031 0.034814529988307828 0 -0.014462969033364441 0.037187274679892135 0 -0.014546446068053323 0.031549306780538869 0 -0.017767789391450396 0.034025622860978683 0 -0.014462969033364441 0.037187274679892135 0 -0.014546446068053323 0.031549306780538869 0 -0.017767789391450396 0.034025622860978683 0 -0.018849515567240484 0.039278271379318754 0 -0.014462969033364441 0.037187274679892135 0 -0.018496129097163999 0.029740124213366439 0 -0.017767789391450396 0.034025622860978683 0 -0.014546446068053323 0.031549306780538869 0 -0.018496129097163999 0.029740124213366439 0 -0.014546446068053323 0.031549306780538869 0 -0.01570558643906891 0.027291343501634119 0 -0.014546446068053323 0.031549306780538869 0 -0.011871764644180736 0.02751007109460836 0 -0.01570558643906891 0.027291343501634119 0 -0.0097435222157575031 0.034814529988307828 0 -0.014546446068053323 0.031549306780538869 0 -0.011024187908925707 0.031223553943540566 0 -0.0097435222157575031 0.034814529988307828 0 -0.011024187908925707 0.031223553943540566 0 -0.0080916984731385297 0.030954240377520103 0 -0.011024187908925707 0.031223553943540566 0 -0.011871764644180736 0.02751007109460836 0 -0.0080916984731385297 0.030954240377520103 0 -0.014546446068053323 0.031549306780538869 0 -0.011024187908925707 0.031223553943540566 0 -0.011871764644180736 0.02751007109460836 0 -0.012267939924995684 0.023342709392001657 0 -0.00799352031271937 0.022664395198601348 0 -0.011871764644180736 0.02751007109460836 0 -0.00799352031271937 0.022664395198601348 0 -0.011871764644180736 0.02751007109460836 0 -0.0080916984731385297 0.030954240377520103 0 -0.012267939924995684 0.023342709392001657 0 -0.011871764644180736 0.02751007109460836 0 -0.014222678705275223 0.024861435832377893 0 -0.018992898051769749 0.025358369414457543 0 -0.016569640355027709 0.023982076218971245 0 -0.01570558643906891 0.027291343501634119 0 -0.014222678705275223 0.024861435832377893 0 -0.016569640355027709 0.023982076218971245 0 -0.01570558643906891 0.027291343501634119 0 -0.014759495473640786 0.02234761229983441 0 -0.014222678705275223 0.024861435832377893 0 -0.016569640355027709 0.023982076218971245 0 -0.011871764644180736 0.02751007109460836 0 -0.014222678705275223 0.024861435832377893 0 -0.01570558643906891 0.027291343501634119 0 -0.0069013110563739795 0.023367014444815305 0 -0.0070968428927392713 0.026902319977436872 0 -0.0042155259263345572 0.025165994910657769 0 -0.0070968428927392713 0.026902319977436872 0 -0.0042155259263345572 0.025165994910657769 0 -0.0043942407420749507 0.028751503679371414 0 -0.0098528155023219991 0.024083283487229622 0 -0.0070968428927392713 0.026902319977436872 0 -0.01040576921925501 0.032009758679063201 0 -0.0086360611002908941 0.0246738585157316 0 -0.0092225972752366693 0.03047255617715967 0 -0.0070968428927392713 0.026902319977436872 0 -0.01040576921925501 0.032009758679063201 0 -0.006921374821929489 0.032401984270352742 0 -0.0077805119363312056 0.030198946890224981 0 -0.0071465373521070749 0.032307818615836564 0 -0.0070968428927392713 0.026902319977436872 0 -0.006921374821929489 0.032401984270352742 0 -0.0036971903862218773 0.033678462872987112 0 -0.0065975375121286968 0.036231469046920248 0 -0.0046710112276120066 0.036807160495182518 0 -0.0036971903862218773 0.033678462872987112 0 -0.006921374821929489 0.032401984270352742 0 -0.0065975375121286968 0.036231469046920248 0 -0.0036971903862218773 0.033678462872987112 0 -0.0087958402652746799 0.037857526834299937 0 -0.01040576921925501 0.032009758679063201 0 -0.0065975375121286968 0.036231469046920248 0 -0.01040576921925501 0.032009758679063201 0 -0.006921374821929489 0.032401984270352742 0 -0.0065975375121286968 0.036231469046920248 0 -0.0065975375121286968 0.036231469046920248 0 -0.0073125923382787008 0.038738557359902878 0 -0.0060861438141558586 0.039014154090386416 0 -0.0087958402652746799 0.037857526834299937 0 -0.0065975375121286968 0.036231469046920248 0 -0.0073125923382787008 0.038738557359902878 0 -0.0065975375121286968 0.036231469046920248 0 -0.0046710112276120066 0.036807160495182518 0 -0.0060861438141558586 0.039014154090386416 0 -0.0046710112276120066 0.036807160495182518 0 -0.0047028337055870706 0.038454370367170622 0 -0.0060861438141558586 0.039014154090386416 0 -0.0018332415250708457 0.031579570477890617 0 0.00041943189529959477 0.028431954368772622 0 -0.0043942407420749507 0.028751503679371414 0 -0.0046710112276120066 0.036807160495182518 0 -0.0033088456821977483 0.037237407980087039 0 -0.0047028337055870706 0.038454370367170622 0 -0.0092717625752804754 0.034553484255732597 0 -0.0071465373521070749 0.032307818615836564 0 -0.0046710112276120066 0.036807160495182518 0 -0.0033088456821977483 0.037237407980087039 0 -0.0036971903862218773 0.033678462872987112 0 -0.0092717625752804754 0.034553484255732597 0 -0.025866716793765267 0.026029497074008166 0 -0.0018332415250708457 0.031579570477890617 0 0.0022528142085400465 0.031972851175648638 0 0.00073108360319443027 0.034551974758234627 0 -0.071770772686504655 0.014241883449340034 0 -0.075427634954589082 0.01296173986844008 0 -0.074436018531871373 0.018710679946663825 0 -0.071770772686504655 0.014241883449340034 0 -0.075427634954589082 0.01296173986844008 0 -0.071579858385819289 0.011413562245134059 0 -0.030883999457132959 0.024601363016843177 0 -0.034010525799107114 0.023053264045350793 0 0.0022528142085400465 0.031972851175648638 0 0.00041943189529959477 0.028431954368772622 0 0.0038207495018431539 0.029316427150540565 0 -0.0018332415250708457 0.031579570477890617 0 0.0022528142085400465 0.031972851175648638 0 0.00041943189529959477 0.028431954368772622 0 0.00041943189529959477 0.028431954368772622 0 0.0028235608218584061 0.027188363156531375 0 0.0038207495018431539 0.029316427150540565 0 0.00041943189529959477 0.028431954368772622 0 0.0028235608218584061 0.027188363156531375 0 0.0016537817756181866 0.024370451027250252 0 0.0028235608218584061 0.027188363156531375 0 0.0016537817756181866 0.024370451027250252 0 0.0053569246656952983 0.026605390610322743 0 -0.010048232001869148 0.028704420167260384 0 -0.035515043332932053 0.019162862497804727 0 0.00041943189529959477 0.028431954368772622 0 0.0016537817756181866 0.024370451027250252 0 -0.001647446599389444 0.025918243958006477 0 0.0016537817756181866 0.024370451027250252 0 -0.001647446599389444 0.025918243958006477 0 -0.0015247510762464284 0.022596672528371851 0 -0.001647446599389444 0.025918243958006477 0 -0.0042155259263345572 0.025165994910657769 0 -0.0015247510762464284 0.022596672528371851 0 0.00041943189529959477 0.028431954368772622 0 -0.001647446599389444 0.025918243958006477 0 -0.0043942407420749507 0.028751503679371414 0 -0.001647446599389444 0.025918243958006477 0 -0.0042155259263345572 0.025165994910657769 0 -0.0043942407420749507 0.028751503679371414 0 -0.063483996581346777 0.0058040474668243818 0 -0.06434458411659881 0.0059241080617764268 0 -0.064074436442243102 0.0052344623167741907 0 -0.079226868347544874 0.0066887400311917613 0 -0.07302741490972138 0.0088153703722022754 0 -0.093713806373590725 0.014397355219272769 0 -0.087751617425943743 0.017597286048661679 0 -0.090730198045408481 0.013762295481703291 0 -0.087751617425943743 0.017597286048661679 0 -0.088235103598179224 0.012709433649864574 0 -0.085528006439291954 0.013577735658939678 0 -0.087751617425943743 0.017597286048661679 0 -0.090730198045408481 0.013762295481703291 0 -0.088235103598179224 0.012709433649864574 0 -0.090730198045408481 0.013762295481703291 0 -0.090639563728842229 0.011304798855325173 0 -0.088235103598179224 0.012709433649864574 0 -0.090639563728842229 0.011304798855325173 0 -0.088235103598179224 0.012709433649864574 0 -0.089135481858021781 0.0099017365193263575 0 -0.088235103598179224 0.012709433649864574 0 -0.089135481858021781 0.0099017365193263575 0 -0.086619459540794974 0.010523923897033468 0 -0.088235103598179224 0.012709433649864574 0 -0.085528006439291954 0.013577735658939678 0 -0.086619459540794974 0.010523923897033468 0 -0.085528006439291954 0.013577735658939678 0 -0.082909284662921398 0.011645986233194246 0 -0.082686674840057775 0.016273050095727149 0 -0.085528006439291954 0.013577735658939678 0 -0.082909284662921398 0.011645986233194246 0 -0.086619459540794974 0.010523923897033468 0 -0.087751617425943743 0.017597286048661679 0 -0.085528006439291954 0.013577735658939678 0 -0.082686674840057775 0.016273050095727149 0 -0.087751617425943743 0.017597286048661679 0 -0.082686674840057775 0.016273050095727149 0 -0.082362006160451098 0.020600998533901089 0 -0.07302741490972138 0.0088153703722022754 0 -0.063342059161465292 0.010790975294957124 0 -0.082686674840057775 0.016273050095727149 0 -0.078805983220856954 0.01865617088272321 0 -0.082362006160451098 0.020600998533901089 0 -0.082686674840057775 0.016273050095727149 0 -0.078805983220856954 0.01865617088272321 0 -0.079107164394323526 0.014511455444231273 0 -0.082909284662921398 0.011645986233194246 0 -0.082686674840057775 0.016273050095727149 0 -0.079107164394323526 0.014511455444231273 0 -0.082909284662921398 0.011645986233194246 0 -0.079107164394323526 0.014511455444231273 0 -0.080207397830829738 0.0092129153428474504 0 -0.079107164394323526 0.014511455444231273 0 -0.075427634954589082 0.01296173986844008 0 -0.080207397830829738 0.0092129153428474504 0 -0.079107164394323526 0.014511455444231273 0 -0.075427634954589082 0.01296173986844008 0 -0.074436018531871373 0.018710679946663825 0 -0.078805983220856954 0.01865617088272321 0 -0.079107164394323526 0.014511455444231273 0 -0.074436018531871373 0.018710679946663825 0 0.0028235608218584061 0.027188363156531375 0 0.0038207495018431539 0.029316427150540565 0 0.0053569246656952983 0.026605390610322743 0 -0.034010525799107114 0.023053264045350793 0 -0.035515043332932053 0.019162862497804727 0 -0.078805983220856954 0.01865617088272321 0 -0.074436018531871373 0.018710679946663825 0 -0.077091631163269031 0.023442841721900035 0 0.0053253216827098262 0.026258808703801966 0 0.00721599671291916 0.023060433462187089 0 0.0047997816977708692 0.023828594480215012 0 0.0016537817756181866 0.024370451027250252 0 0.0053253216827098262 0.026258808703801966 0 0.0047997816977708692 0.023828594480215012 0 -0.035515043332932053 0.019162862497804727 0 -0.032700531088863068 0.012450802360786748 0 -0.066607933353558274 0.0047660482039940241 0 -0.065355610343186932 0.0042034451478052629 0 -0.065940405547779246 0.0033539756022947158 0 -0.066607933353558274 0.0047660482039940241 0 -0.065443150621836185 0.0053647061527337548 0 -0.065355610343186932 0.0042034451478052629 0 -0.035515043332932053 0.019162862497804727 0 -0.063342059161465292 0.010790975294957124 0 -0.078805983220856954 0.01865617088272321 0 -0.077091631163269031 0.023442841721900035 0 -0.082362006160451098 0.020600998533901089 0 -0.065443150621836185 0.0053647061527337548 0 -0.064649299351692655 0.0048005701296976152 0 -0.065355610343186932 0.0042034451478052629 0 -0.06434458411659881 0.0059241080617764268 0 -0.065443150621836185 0.0053647061527337548 0 -0.064649299351692655 0.0048005701296976152 0 -0.064649299351692655 0.0048005701296976152 0 -0.065355610343186932 0.0042034451478052629 0 -0.064561725784126098 0.0037893689094856604 0 -0.064561725784126098 0.0037893689094856604 0 -0.063762995324089036 0.0044394603815453796 0 -0.064065061135445397 0.0032505569788470281 0 -0.078951152826032614 0.0047669905835405844 0 -0.081493045637127601 0.0005398894494044402 0 -0.081385058864189425 0.0030579834719481952 0 -0.081423034605799097 0.004142875754269958 0 -0.082306619447400517 0.0007011601464811441 0 -0.064649299351692655 0.0048005701296976152 0 -0.064561725784126098 0.0037893689094856604 0 -0.063762995324089036 0.0044394603815453796 0 -0.080894236266639455 0.0055566396404693134 0 -0.081385058864189425 0.0030579834719481952 0 -0.081423034605799097 0.004142875754269958 0 -0.064649299351692655 0.0048005701296976152 0 -0.063762995324089036 0.0044394603815453796 0 -0.064074436442243102 0.0052344623167741907 0 -0.06434458411659881 0.0059241080617764268 0 -0.064649299351692655 0.0048005701296976152 0 -0.064074436442243102 0.0052344623167741907 0 -0.063483996581346777 0.0058040474668243818 0 -0.063762995324089036 0.0044394603815453796 0 -0.064074436442243102 0.0052344623167741907 0 -0.10727652512891137 -0.014527708284408235 0 -0.10821664402718627 -0.01384559322966406 0 -0.10806525042574894 -0.013222355304712689 0 -0.063606172344092035 0.001760187893147074 0 -0.063937812854182513 0.0017261219756794836 0 -0.063740555696922677 0.00055552768727374236 0 -0.063937812854182513 0.0017261219756794836 0 -0.063737861738810422 0.0028088796005768177 0 -0.064868331499856838 0.0028834467083897991 0 -0.079736622148552011 0.00074328202691819516 0 -0.08134551134983406 -0.00071644264313125937 0 -0.063937812854182513 0.0017261219756794836 0 -0.063495583498453689 0.0025044924960368384 0 -0.063691324582702338 0.0027700709519822772 0 -0.063606172344092035 0.001760187893147074 0 -0.063937812854182513 0.0017261219756794836 0 -0.063495583498453689 0.0025044924960368384 0 -0.078217622693106323 -0.0024035294618005979 0 -0.083637388931159073 -0.0021579852447801474 0 -0.0848300886987923 0.0018251788906366291 0 -0.085316188430693246 -0.00065259736259315319 0 -0.085509302122005484 9.754717527499678e-05 0 -0.08568034644691222 0.0022401715297276268 0 -0.083637388931159073 -0.0021579852447801474 0 -0.085316188430693246 -0.00065259736259315319 0 -0.085509302122005484 9.754717527499678e-05 0 -0.085599366704195157 -0.00024961937002747673 0 -0.083637388931159073 -0.0021579852447801474 0 -0.08134551134983406 -0.00071644264313125937 0 -0.081493045637127601 0.0005398894494044402 0 -0.08134551134983406 -0.00071644264313125937 0 -0.08568034644691222 0.0022401715297276268 0 -0.081493045637127601 0.0005398894494044402 0 -0.064561725784126098 0.0037893689094856604 0 -0.064065061135445397 0.0032505569788470281 0 -0.064111381995741915 0.003097191219389765 0 -0.078837957308566908 -0.0015018300364520766 0 -0.08134551134983406 -0.00071644264313125937 0 -0.064868331499856838 0.0028834467083897991 0 -0.065190629192345528 0.0016249014571546355 0 -0.065940405547779246 0.0033539756022947158 0 -0.065355610343186932 0.0042034451478052629 0 -0.064561725784126098 0.0037893689094856604 0 -0.064868331499856838 0.0028834467083897991 0 -0.065355610343186932 0.0042034451478052629 0 -0.064868331499856838 0.0028834467083897991 0 -0.065940405547779246 0.0033539756022947158 0 -0.064561725784126098 0.0037893689094856604 0 -0.063737861738810422 0.0028088796005768177 0 -0.064868331499856838 0.0028834467083897991 0 -0.063937812854182513 0.0017261219756794836 0 -0.064868331499856838 0.0028834467083897991 0 -0.065190629192345528 0.0016249014571546355 0 -0.063937812854182513 0.0017261219756794836 0 -0.065190629192345528 0.0016249014571546355 0 -0.063740555696922677 0.00055552768727374236 0 -0.033173277716361783 0.0078011356753966334 0 -0.032700531088863068 0.012450802360786748 0 0.0092021215223715581 0.019616784931100174 0 0.0066719854374142368 0.020536557181626332 0 0.005638536834130398 0.018171924454468632 0 0.0092021215223715581 0.019616784931100174 0 0.0066719854374142368 0.020536557181626332 0 0.00721599671291916 0.023060433462187089 0 0.0066719854374142368 0.020536557181626332 0 0.00721599671291916 0.023060433462187089 0 0.0046938625143734779 0.021244361575963593 0 0.00721599671291916 0.023060433462187089 0 0.0047997816977708692 0.023828594480215012 0 0.0046938625143734779 0.021244361575963593 0 0.0046938625143734779 0.021244361575963593 0 0.005638536834130398 0.018171924454468632 0 0.0018810159739730506 0.019762027335425199 0 0.0066719854374142368 0.020536557181626332 0 0.0046938625143734779 0.021244361575963593 0 0.005638536834130398 0.018171924454468632 0 0.0043445356166088968 0.015354098453123303 0 0.0029863068959758024 0.013712984194268507 0 0.0061870103757149762 0.014272850120334215 0 0.0020644448710848665 0.015235713491379383 0 0.0032434189999176366 0.011773617995284792 0 0.005638536834130398 0.018171924454468632 0 0.0061870103757149762 0.014272850120334215 0 0.0020644448710848665 0.015235713491379383 0 0.0061870103757149762 0.014272850120334215 0 0.0082966161803613731 0.016634827515159871 0 0.008860383814396685 0.014467890123052248 0 0.0061870103757149762 0.014272850120334215 0 0.008860383814396685 0.014467890123052248 0 0.0081763736762798366 0.012556684020602534 0 0.0092021215223715581 0.019616784931100174 0 0.005638536834130398 0.018171924454468632 0 0.0082966161803613731 0.016634827515159871 0 0.005638536834130398 0.018171924454468632 0 0.0061870103757149762 0.014272850120334215 0 0.0082966161803613731 0.016634827515159871 0 -0.065190629192345528 0.0016249014571546355 0 -0.06411965843887299 -0.00058222428083342368 0 -0.063740555696922677 0.00055552768727374236 0 -0.033173277716361783 0.0078011356753966334 0 -0.036882204727732834 0.002139228947453498 0 0.0092021215223715581 0.019616784931100174 0 0.0082966161803613731 0.016634827515159871 0 0.011290696735097203 0.015853027115128152 0 0.008860383814396685 0.014467890123052248 0 0.011290696735097203 0.015853027115128152 0 0.010237716074901653 0.013083760009189541 0 0.0082966161803613731 0.016634827515159871 0 0.008860383814396685 0.014467890123052248 0 0.011290696735097203 0.015853027115128152 0 -0.062221266364341533 -0.0029751665579712491 0 -0.062971326232915556 -0.0017791800366417625 0 -0.062840349380314034 -0.00040974341497746082 0 -0.036882204727732834 0.002139228947453498 0 -0.047062164685937165 -0.0055856013464329899 0 -0.06411965843887299 -0.00058222428083342368 0 -0.062971326232915556 -0.0017791800366417625 0 -0.06269658436954724 -0.0031622312194638769 0 0.011290696735097203 0.015853027115128152 0 0.013307522610511609 0.012040807206041684 0 0.010237716074901653 0.013083760009189541 0 -0.06411965843887299 -0.00058222428083342368 0 -0.062971326232915556 -0.0017791800366417625 0 -0.062840349380314034 -0.00040974341497746082 0 -0.10727652512891137 -0.014527708284408235 0 -0.10821664402718627 -0.01384559322966406 0 -0.10795384965304142 -0.015323544975232336 0 -0.063523606301096644 0.0019111082378603164 0 -0.062840349380314034 -0.00040974341497746082 0 -0.063740555696922677 0.00055552768727374236 0 -0.078217622693106323 -0.0024035294618005979 0 -0.070380310703978696 -0.0053803992145835949 0 -0.06411965843887299 -0.00058222428083342368 0 -0.062840349380314034 -0.00040974341497746082 0 -0.063740555696922677 0.00055552768727374236 0 -0.078217622693106323 -0.0024035294618005979 0 -0.077018193773955607 -0.001135922046559362 0 -0.0015247510762464284 0.022596672528371851 0 0.0018810159739730506 0.019762027335425199 0 -0.0025367472562992143 0.018604042803844829 0 -0.0051877988918467505 0.021750268782763579 0 -0.0054918216665813917 0.018799879536121177 0 -0.0025367472562992143 0.018604042803844829 0 -0.0051877988918467505 0.021750268782763579 0 -0.0015247510762464284 0.022596672528371851 0 -0.0025367472562992143 0.018604042803844829 0 -0.0051877988918467505 0.021750268782763579 0 -0.0042155259263345572 0.025165994910657769 0 -0.0015247510762464284 0.022596672528371851 0 0.0016537817756181866 0.024370451027250252 0 -0.0015247510762464284 0.022596672528371851 0 0.0018810159739730506 0.019762027335425199 0 0.0016537817756181866 0.024370451027250252 0 0.0046938625143734779 0.021244361575963593 0 0.0018810159739730506 0.019762027335425199 0 0.0016537817756181866 0.024370451027250252 0 0.0047997816977708692 0.023828594480215012 0 0.0046938625143734779 0.021244361575963593 0 0.0018810159739730506 0.019762027335425199 0 9.2987268815473851e-05 0.016421050569971295 0 -0.0025367472562992143 0.018604042803844829 0 0.005638536834130398 0.018171924454468632 0 0.0018810159739730506 0.019762027335425199 0 0.0031830334259059468 0.015782810873629899 0 0.0018810159739730506 0.019762027335425199 0 0.0031830334259059468 0.015782810873629899 0 9.2987268815473851e-05 0.016421050569971295 0 0.0029863068959758024 0.013712984194268507 0 0.00034261846354962115 0.0098094340739223601 0 0.0031830334259059468 0.015782810873629899 0 9.2987268815473851e-05 0.016421050569971295 0 0.00045683730641242828 0.013142691727975355 0 9.2987268815473851e-05 0.016421050569971295 0 -0.0025643257492209805 0.014761365263534805 0 0.00045683730641242828 0.013142691727975355 0 9.2987268815473851e-05 0.016421050569971295 0 -0.0025643257492209805 0.014761365263534805 0 -0.0025367472562992143 0.018604042803844829 0 -0.0053571155164115775 0.016611383963992706 0 -0.0025643257492209805 0.014761365263534805 0 -0.0025367472562992143 0.018604042803844829 0 -0.0054918216665813917 0.018799879536121177 0 -0.0053571155164115775 0.016611383963992706 0 -0.0025367472562992143 0.018604042803844829 0 -0.0053571155164115775 0.016611383963992706 0 -0.0025643257492209805 0.014761365263534805 0 -0.0058423956197698841 0.01317667795320825 0 -0.0025643257492209805 0.014761365263534805 0 -0.0023531851080414263 0.010611540881271607 0 -0.0058423956197698841 0.01317667795320825 0 -0.0042472484741057533 0.0022500393980640653 0 -0.0067130611343201498 0.0066286127562589598 0 -0.00067184975869712669 -0.0021759552367948492 0 -0.00019826891683185122 -0.001761713243795022 0 -0.0051792620040063912 0.0022368823658382051 0 -0.0034697831814019028 -0.0029592429958573674 0 -0.00067184975869712669 -0.0021759552367948492 0 -0.0051792620040063912 0.0022368823658382051 0 -0.0034697831814019028 -0.0029592429958573674 0 -0.00067184975869712669 -0.0021759552367948492 0 -0.0012675466674897619 -0.0034773526141303316 0 -6.6926646014912804e-05 -0.003028541086963531 0 -0.00022318215607695601 -0.0017885634849724456 0 0.0012756935025449269 -0.0040149858116140568 0 -0.00054881606541828834 -0.0032105144438490103 0 -0.00067184975869712669 -0.0021759552367948492 0 -0.0012675466674897619 -0.0034773526141303316 0 -6.6926646014912804e-05 -0.003028541086963531 0 -0.00054881606541828834 -0.0032105144438490103 0 -0.00067184975869712669 -0.0021759552367948492 0 -6.6926646014912804e-05 -0.003028541086963531 0 -0.00067184975869712669 -0.0021759552367948492 0 -0.00022318215607695601 -0.0017885634849724456 0 -0.0042348490170909985 0.0022354362380983392 0 -0.0042472484741057533 0.0022500393980640653 0 -0.0025643257492209805 0.014761365263534805 0 -0.0023531851080414263 0.010611540881271607 0 0.00045683730641242828 0.013142691727975355 0 -0.0042472484741057533 0.0022500393980640653 0 0.00034261846354962115 0.0098094340739223601 0 -0.0013281423944311917 0.01229051011952708 0 0.00097504621499721006 0.009521688005888115 0 0.0032434189999176366 0.011773617995284792 0 0.0020644448710848665 0.015235713491379383 0 -0.0013281423944311917 0.01229051011952708 0 0.0032434189999176366 0.011773617995284792 0 0.00097504621499721006 0.009521688005888115 0 -0.00069283503425307427 0.0062825856347766655 0 0.00414901118800475 0.008230825000901127 0 0.00097504621499721006 0.009521688005888115 0 0.0032434189999176366 0.011773617995284792 0 0.00414901118800475 0.008230825000901127 0 0.00097504621499721006 0.009521688005888115 0 -0.0013322770738468845 0.0093233718820715603 0 -0.00069283503425307427 0.0062825856347766655 0 -0.0046960020839168374 0.009340326957436737 0 -0.0013281423944311917 0.01229051011952708 0 -0.0013322770738468845 0.0093233718820715603 0 -0.0046960020839168374 0.009340326957436737 0 -0.0013322770738468845 0.0093233718820715603 0 -0.00069283503425307427 0.0062825856347766655 0 -0.0013281423944311917 0.01229051011952708 0 0.00097504621499721006 0.009521688005888115 0 -0.0013322770738468845 0.0093233718820715603 0 -0.0067090122463755314 -0.012094249082204566 0 -0.008050010208119112 -0.016213047504064146 0 0.0044510556275680468 -0.0054333952532443662 0 0.0012756935025449269 -0.0040149858116140568 0 0.0011934423418430186 -0.0067079994359367763 0 -0.016756772255520375 -0.031600463515261586 0 -0.017052522816226743 -0.031423782824865423 0 -0.017304654545335436 -0.031579288714052578 0 -0.016756772255520375 -0.031600463515261586 0 -0.017343166434623473 -0.031863106120954894 0 -0.017304654545335436 -0.031579288714052578 0 -0.0067090122463755314 -0.012094249082204566 0 -0.0083661256096031929 -0.0098526437829124427 0 -0.0067090122463755314 -0.012094249082204566 0 -0.0070862446431468207 -0.014571004294138956 0 -0.017052522816226743 -0.031423782824865423 0 -0.016953653378914538 -0.031335990365805914 0 -0.017099303602255766 -0.031287636260403248 0 -0.016957384315515855 -0.031433150952333108 0 -0.017052522816226743 -0.031423782824865423 0 -0.016953653378914538 -0.031335990365805914 0 -0.016957384315515855 -0.031433150952333108 0 -0.016953653378914538 -0.031335990365805914 0 -0.016862738563470859 -0.03138104756442215 0 -0.016953653378914538 -0.031335990365805914 0 -0.016862738563470859 -0.03138104756442215 0 -0.016848199294550392 -0.03123850574527021 0 -0.016733571975090653 -0.031319306149882237 0 -0.016862738563470859 -0.03138104756442215 0 -0.016848199294550392 -0.03123850574527021 0 -0.0087925279044092659 -0.019416732148002536 0 -0.008050010208119112 -0.016213047504064146 0 -0.0087925279044092659 -0.019416732148002536 0 -0.0090526209113622677 -0.021066714731408143 0 -0.016626600753367211 -0.031270944802236793 0 -0.016638080084415953 -0.031056089325231566 0 -0.01605814440083797 -0.030768564804441498 0 -0.0087925279044092659 -0.019416732148002536 0 -0.01076655211716223 -0.022915573744324669 0 -0.0034697831814019028 -0.0029592429958573674 0 -0.0014956566913329953 -0.0050787198006597839 0 -0.006367028990761088 -0.00341197681332104 0 -0.0021047588685882369 -0.0080300300584023182 0 -0.0014956566913329953 -0.0050787198006597839 0 -0.006367028990761088 -0.00341197681332104 0 -0.0087925279044092659 -0.019416732148002536 0 -0.008417198354722908 -0.010029827213685278 0 -0.0034697831814019028 -0.0029592429958573674 0 -0.0014956566913329953 -0.0050787198006597839 0 -0.0012675466674897619 -0.0034773526141303316 0 -0.0014956566913329953 -0.0050787198006597839 0 -0.0012675466674897619 -0.0034773526141303316 0 -0.00018761783580871112 -0.0041574526127748984 0 -0.0042472484741057533 0.0022500393980640653 0 -0.0067090122463755314 -0.012094249082204566 0 -0.00022318215607695601 -0.0017885634849724456 0 0.0044510556275680468 -0.0054333952532443662 0 0.0012756935025449269 -0.0040149858116140568 0 -0.00054881606541828834 -0.0032105144438490103 0 -0.0012675466674897619 -0.0034773526141303316 0 -0.00018761783580871112 -0.0041574526127748984 0 -6.6926646014912804e-05 -0.003028541086963531 0 -0.00054881606541828834 -0.0032105144438490103 0 -0.00018761783580871112 -0.0041574526127748984 0 -6.6926646014912804e-05 -0.003028541086963531 0 -0.00018761783580871112 -0.0041574526127748984 0 0.0012756935025449269 -0.0040149858116140568 0 -0.00018761783580871112 -0.0041574526127748984 0 0.0012756935025449269 -0.0040149858116140568 0 0.0011934423418430186 -0.0067079994359367763 0 -0.0021047588685882369 -0.0080300300584023182 0 -0.0014956566913329953 -0.0050787198006597839 0 0.0011934423418430186 -0.0067079994359367763 0 -0.0014956566913329953 -0.0050787198006597839 0 -0.00018761783580871112 -0.0041574526127748984 0 0.0011934423418430186 -0.0067079994359367763 0 -0.018806704808311928 -0.031843249355039766 0 -0.018574090195599042 -0.031864322356208431 0 -0.01839096242672994 -0.032162452610869884 0 -0.046071337184208853 -0.016737469934079485 0 -0.03085079555022377 -0.0083053033496611351 0 -0.018403612647483716 -0.03186312301068453 0 -0.01839096242672994 -0.032162452610869884 0 -0.01814840100115192 -0.031862616798657442 0 -0.018574090195599042 -0.031864322356208431 0 -0.018403612647483716 -0.03186312301068453 0 -0.018541517413515642 -0.031725556875856854 0 -0.018574090195599042 -0.031864322356208431 0 -0.018403612647483716 -0.03186312301068453 0 -0.01839096242672994 -0.032162452610869884 0 -0.044711797851944651 -0.010585050670797212 0 -0.046341300022650411 -0.0076888340543116301 0 -0.048843996855751276 -0.0086663019506507521 0 0.013307522610511609 0.012040807206041684 0 0.01157109279144918 0.011356213625837861 0 0.010237716074901653 0.013083760009189541 0 -0.047062164685937165 -0.0055856013464329899 0 -0.03085079555022377 -0.0083053033496611351 0 -0.062221266364341533 -0.0029751665579712491 0 -0.062971326232915556 -0.0017791800366417625 0 -0.06269658436954724 -0.0031622312194638769 0 0.010237716074901653 0.013083760009189541 0 0.0088474380604193926 0.01021219730486044 0 0.0081763736762798366 0.012556684020602534 0 0.01157109279144918 0.011356213625837861 0 0.010237716074901653 0.013083760009189541 0 0.0088474380604193926 0.01021219730486044 0 0.008860383814396685 0.014467890123052248 0 0.010237716074901653 0.013083760009189541 0 0.0081763736762798366 0.012556684020602534 0 -0.03085079555022377 -0.0083053033496611351 0 -0.014922180173064681 -0.007489721524596071 0 -0.01800053893311725 -0.032061313923457284 0 -0.01814840100115192 -0.031862616798657442 0 -0.017834749955988344 -0.031690284311464506 0 -0.01839096242672994 -0.032162452610869884 0 -0.01800053893311725 -0.032061313923457284 0 -0.01814840100115192 -0.031862616798657442 0 -0.014922180173064681 -0.007489721524596071 0 -0.0083661256096031929 -0.0098526437829124427 0 0.0088474380604193926 0.01021219730486044 0 0.0061451670225086122 0.011394994220185124 0 0.00414901118800475 0.008230825000901127 0 -0.01800053893311725 -0.032061313923457284 0 -0.017343166434623473 -0.031863106120954894 0 -0.017834749955988344 -0.031690284311464506 0 0.0088474380604193926 0.01021219730486044 0 0.0061451670225086122 0.011394994220185124 0 0.0081763736762798366 0.012556684020602534 0 0.0061870103757149762 0.014272850120334215 0 0.0061451670225086122 0.011394994220185124 0 0.0081763736762798366 0.012556684020602534 0 0.0061870103757149762 0.014272850120334215 0 0.0061451670225086122 0.011394994220185124 0 0.0032434189999176366 0.011773617995284792 0 0.0061451670225086122 0.011394994220185124 0 0.0032434189999176366 0.011773617995284792 0 0.00414901118800475 0.008230825000901127 0 -0.017304654545335436 -0.031579288714052578 0 -0.017463125573278199 -0.031416645678664999 0 -0.017834749955988344 -0.031690284311464506 0 -0.017343166434623473 -0.031863106120954894 0 -0.017304654545335436 -0.031579288714052578 0 -0.017834749955988344 -0.031690284311464506 0 -0.017052522816226743 -0.031423782824865423 0 -0.017304654545335436 -0.031579288714052578 0 -0.017463125573278199 -0.031416645678664999 0 -0.017052522816226743 -0.031423782824865423 0 -0.017463125573278199 -0.031416645678664999 0 -0.017099303602255766 -0.031287636260403248 0 -0.017463125573278199 -0.031416645678664999 0 -0.017886833375510829 -0.031440406975147855 0 -0.017834749955988344 -0.031690284311464506 0 -0.017463125573278199 -0.031416645678664999 0 -0.017630129848983329 -0.031268441285535492 0 -0.017359272031696633 -0.031246780088660213 0 -0.017463125573278199 -0.031416645678664999 0 -0.017886833375510829 -0.031440406975147855 0 -0.017630129848983329 -0.031268441285535492 0 -0.017886833375510829 -0.031440406975147855 0 -0.018038190074731158 -0.031162051711549749 0 -0.017630129848983329 -0.031268441285535492 0 -0.01814840100115192 -0.031862616798657442 0 -0.017834749955988344 -0.031690284311464506 0 -0.018093097066079668 -0.031597108769235598 0 -0.01814840100115192 -0.031862616798657442 0 -0.018093097066079668 -0.031597108769235598 0 -0.018326921964443629 -0.031684293915496188 0 -0.018403612647483716 -0.03186312301068453 0 -0.01814840100115192 -0.031862616798657442 0 -0.018326921964443629 -0.031684293915496188 0 -0.018093097066079668 -0.031597108769235598 0 -0.018235031379178559 -0.031424078005265831 0 -0.018326921964443629 -0.031684293915496188 0 -0.017886833375510829 -0.031440406975147855 0 -0.017834749955988344 -0.031690284311464506 0 -0.018093097066079668 -0.031597108769235598 0 -0.017886833375510829 -0.031440406975147855 0 -0.018093097066079668 -0.031597108769235598 0 -0.018235031379178559 -0.031424078005265831 0 -0.017886833375510829 -0.031440406975147855 0 -0.018235031379178559 -0.031424078005265831 0 -0.018038190074731158 -0.031162051711549749 0 -0.018235031379178559 -0.031424078005265831 0 -0.018448418798755934 -0.031373163148238924 0 -0.018314405945876352 -0.031134154180302884 0 -0.018235031379178559 -0.031424078005265831 0 -0.018448418798755934 -0.031373163148238924 0 -0.018487061391727101 -0.031559204334418778 0 -0.018628748679483654 -0.031436649292759078 0 -0.018448418798755934 -0.031373163148238924 0 -0.018555537501164964 -0.031247110921882631 0 -0.018628748679483654 -0.031436649292759078 0 -0.018448418798755934 -0.031373163148238924 0 -0.018487061391727101 -0.031559204334418778 0 -0.018673685159215407 -0.031587708739047593 0 -0.018628748679483654 -0.031436649292759078 0 -0.018487061391727101 -0.031559204334418778 0 -0.018673685159215407 -0.031587708739047593 0 -0.018487061391727101 -0.031559204334418778 0 -0.018541517413515642 -0.031725556875856854 0 -0.018235031379178559 -0.031424078005265831 0 -0.018487061391727101 -0.031559204334418778 0 -0.018326921964443629 -0.031684293915496188 0 -0.018487061391727101 -0.031559204334418778 0 -0.018326921964443629 -0.031684293915496188 0 -0.018541517413515642 -0.031725556875856854 0 -0.018403612647483716 -0.03186312301068453 0 -0.018326921964443629 -0.031684293915496188 0 -0.018541517413515642 -0.031725556875856854 0 -0.018699017603484896 -0.031726571079411445 0 -0.018574090195599042 -0.031864322356208431 0 -0.018541517413515642 -0.031725556875856854 0 -0.018467509365437836 -0.030999700069889766 0 -0.018314405945876352 -0.031134154180302884 0 -0.018315133718492242 -0.030900409595860632 0 -0.018613030213670882 -0.030933953422672741 0 -0.018467509365437836 -0.030999700069889766 0 -0.018376471631295792 -0.03076170684719751 0 -0.018467509365437836 -0.030999700069889766 0 -0.018315133718492242 -0.030900409595860632 0 -0.018376471631295792 -0.03076170684719751 0 -0.018467509365437836 -0.030999700069889766 0 -0.018555537501164964 -0.031247110921882631 0 -0.018314405945876352 -0.031134154180302884 0 -0.018448418798755934 -0.031373163148238924 0 -0.018555537501164964 -0.031247110921882631 0 -0.018314405945876352 -0.031134154180302884 0 -0.018235031379178559 -0.031424078005265831 0 -0.018314405945876352 -0.031134154180302884 0 -0.018038190074731158 -0.031162051711549749 0 -0.018314405945876352 -0.031134154180302884 0 -0.018038190074731158 -0.031162051711549749 0 -0.018185362523857728 -0.030979342868291678 0 -0.018315133718492242 -0.030900409595860632 0 -0.018185362523857728 -0.030979342868291678 0 -0.018385549179458997 -0.030801028176965489 0 -0.018314405945876352 -0.031134154180302884 0 -0.018315133718492242 -0.030900409595860632 0 -0.018185362523857728 -0.030979342868291678 0 -0.019629479831381896 -0.034121046079208239 0 -0.019326085711293507 -0.033887335874383216 0 -0.019713252054848664 -0.033656588692389765 0 -0.018423739859819672 -0.03189332853280951 0 -0.018798313256392564 -0.032254324024536804 0 -0.018185362523857728 -0.030979342868291678 0 -0.018080857645997737 -0.031007737617699455 0 -0.018385549179458997 -0.030801028176965489 0 -0.018038190074731158 -0.031162051711549749 0 -0.018185362523857728 -0.030979342868291678 0 -0.018080857645997737 -0.031007737617699455 0 -0.01827734587042238 -0.031738228670074135 0 -0.018423739859819672 -0.03189332853280951 0 -0.018038190074731158 -0.031162051711549749 0 -0.017630129848983329 -0.031268441285535492 0 -0.017505221766339233 -0.031057634326172017 0 -0.017630129848983329 -0.031268441285535492 0 -0.017505221766339233 -0.031057634326172017 0 -0.017359272031696633 -0.031246780088660213 0 -0.017463125573278199 -0.031416645678664999 0 -0.017359272031696633 -0.031246780088660213 0 -0.017099303602255766 -0.031287636260403248 0 -0.017505221766339233 -0.031057634326172017 0 -0.017359272031696633 -0.031246780088660213 0 -0.017215613315362942 -0.031184754229597995 0 -0.017359272031696633 -0.031246780088660213 0 -0.017215613315362942 -0.031184754229597995 0 -0.017099303602255766 -0.031287636260403248 0 -0.018423739859819672 -0.03189332853280951 0 -0.01837715578412373 -0.032323792039376888 0 -0.017215613315362942 -0.031184754229597995 0 -0.017004774364840894 -0.031234529825196099 0 -0.01703023216866301 -0.03124670039132035 0 -0.017505221766339233 -0.031057634326172017 0 -0.017215613315362942 -0.031184754229597995 0 -0.017004774364840894 -0.031234529825196099 0 -0.019326085711293507 -0.033887335874383216 0 -0.019474785176838233 -0.033502936888958834 0 -0.019713252054848664 -0.033656588692389765 0 -0.019474785176838233 -0.033502936888958834 0 -0.019702069722607383 -0.033295347421513494 0 -0.019454787288536942 -0.033201484396698504 0 -0.018798313256392564 -0.032254324024536804 0 -0.019065718933994294 -0.032440882613904862 0 -0.019474785176838233 -0.033502936888958834 0 -0.019713252054848664 -0.033656588692389765 0 -0.019702069722607383 -0.033295347421513494 0 -0.018315133718492242 -0.030900409595860632 0 -0.018385549179458997 -0.030801028176965489 0 -0.018376471631295792 -0.03076170684719751 0 -0.018385549179458997 -0.030801028176965489 0 -0.018376471631295792 -0.03076170684719751 0 -0.018825500387432983 -0.030811005691611128 0 -0.018376471631295792 -0.03076170684719751 0 -0.018035044626287036 -0.030757644483681661 0 -0.018825500387432983 -0.030811005691611128 0 -0.018504057146907411 -0.030875106743972938 0 -0.018376471631295792 -0.03076170684719751 0 -0.018035044626287036 -0.030757644483681661 0 -0.017005427371363978 -0.031303826089675926 0 -0.01730172501581027 -0.031788945621549797 0 -0.016959551263731432 -0.031438002168526748 0 -0.017005427371363978 -0.031303826089675926 0 -0.016638080084415953 -0.031056089325231566 0 -0.016959551263731432 -0.031438002168526748 0 -0.016638080084415953 -0.031056089325231566 0 -0.016959551263731432 -0.031438002168526748 0 -0.016155996374699028 -0.030771582332488816 0 -0.016626600753367211 -0.031270944802236793 0 -0.016638080084415953 -0.031056089325231566 0 -0.016848199294550392 -0.03123850574527021 0 -0.017005427371363978 -0.031303826089675926 0 -0.016848199294550392 -0.03123850574527021 0 -0.016940201297973422 -0.031269387133121822 0 -0.017005427371363978 -0.031303826089675926 0 -0.016638080084415953 -0.031056089325231566 0 -0.016848199294550392 -0.03123850574527021 0 -0.017005427371363978 -0.031303826089675926 0 -0.016940201297973422 -0.031269387133121822 0 -0.016978252569562025 -0.031268983599329399 0 -0.016953653378914538 -0.031335990365805914 0 -0.016848199294550392 -0.03123850574527021 0 -0.016940201297973422 -0.031269387133121822 0 -0.016953653378914538 -0.031335990365805914 0 -0.016940201297973422 -0.031269387133121822 0 -0.016978252569562025 -0.031268983599329399 0 -0.016953653378914538 -0.031335990365805914 0 -0.016978252569562025 -0.031268983599329399 0 -0.017099303602255766 -0.031287636260403248 0 -0.016978252569562025 -0.031268983599329399 0 -0.017099303602255766 -0.031287636260403248 0 -0.01703023216866301 -0.03124670039132035 0 -0.017215613315362942 -0.031184754229597995 0 -0.017099303602255766 -0.031287636260403248 0 -0.01703023216866301 -0.03124670039132035 0 -0.017004774364840894 -0.031234529825196099 0 -0.01703023216866301 -0.03124670039132035 0 -0.016961460299500415 -0.03137481350106916 0 -0.016978252569562025 -0.031268983599329399 0 -0.01703023216866301 -0.03124670039132035 0 -0.016961460299500415 -0.03137481350106916 0 -0.017005427371363978 -0.031303826089675926 0 -0.016961460299500415 -0.03137481350106916 0 -0.01730172501581027 -0.031788945621549797 0 -0.017005427371363978 -0.031303826089675926 0 -0.016978252569562025 -0.031268983599329399 0 -0.016961460299500415 -0.03137481350106916 0 -0.016866620064316367 -0.031740914968458211 0 -0.017739476773667925 -0.032769446715931558 0 -0.01730172501581027 -0.031788945621549797 0 -0.016961460299500415 -0.03137481350106916 0 -0.016866620064316367 -0.031740914968458211 0 -0.01730172501581027 -0.031788945621549797 0 -0.017004774364840894 -0.031234529825196099 0 -0.016961460299500415 -0.03137481350106916 0 -0.016866620064316367 -0.031740914968458211 0 -0.01837715578412373 -0.032323792039376888 0 -0.018191391303741877 -0.032464845541222684 0 -0.019326085711293507 -0.033887335874383216 0 -0.019474785176838233 -0.033502936888958834 0 -0.018894498725711906 -0.033628472943359244 0 -0.019474785176838233 -0.033502936888958834 0 -0.018894498725711906 -0.033628472943359244 0 -0.019454787288536942 -0.033201484396698504 0 -0.018894498725711906 -0.033628472943359244 0 -0.019454787288536942 -0.033201484396698504 0 -0.018800065162277405 -0.032949636379564287 0 -0.018191391303741877 -0.032464845541222684 0 -0.018104754380887114 -0.032499259059036938 0 -0.018894498725711906 -0.033628472943359244 0 -0.017739476773667925 -0.032769446715931558 0 -0.018800065162277405 -0.032949636379564287 0 -0.017739476773667925 -0.032769446715931558 0 -0.01730172501581027 -0.031788945621549797 0 -0.017377541045551014 -0.032273221725807023 0 -0.01730172501581027 -0.031788945621549797 0 -0.016959551263731432 -0.031438002168526748 0 -0.017377541045551014 -0.032273221725807023 0 -0.016959551263731432 -0.031438002168526748 0 -0.017377541045551014 -0.032273221725807023 0 -0.016978109347227627 -0.031705182558902069 0 -0.017377541045551014 -0.032273221725807023 0 -0.017344318062838031 -0.032164805169917092 0 -0.016978109347227627 -0.031705182558902069 0 -0.017344318062838031 -0.032164805169917092 0 -0.017028069129415218 -0.031701289900946901 0 -0.016978109347227627 -0.031705182558902069 0 -0.017397100905361666 -0.031964884385659892 0 -0.017581615302802368 -0.032164430586501577 0 -0.017344318062838031 -0.032164805169917092 0 -0.017028069129415218 -0.031701289900946901 0 -0.017899297078413898 -0.032206002072677459 0 -0.017028069129415218 -0.031701289900946901 0 -0.016155996374699028 -0.030771582332488816 0 -0.016541684507094916 -0.031184007510071086 0 -0.017028069129415218 -0.031701289900946901 0 -0.017136713175772068 -0.031533358635639851 0 -0.016541684507094916 -0.031184007510071086 0 -0.017028069129415218 -0.031701289900946901 0 -0.016978109347227627 -0.031705182558902069 0 -0.016155996374699028 -0.030771582332488816 0 -0.016959551263731432 -0.031438002168526748 0 -0.016978109347227627 -0.031705182558902069 0 -0.016155996374699028 -0.030771582332488816 0 -0.017334946315816991 -0.03172421904264059 0 -0.017708056951508226 -0.031881295453329184 0 -0.017563724304876713 -0.032111393858255489 0 -0.017334946315816991 -0.03172421904264059 0 -0.017563724304876713 -0.032111393858255489 0 -0.017256091272503164 -0.032020741422627869 0 -0.017028069129415218 -0.031701289900946901 0 -0.017334946315816991 -0.03172421904264059 0 -0.017256091272503164 -0.032020741422627869 0 -0.017028069129415218 -0.031701289900946901 0 -0.017136713175772068 -0.031533358635639851 0 -0.017334946315816991 -0.03172421904264059 0 -0.017136713175772068 -0.031533358635639851 0 -0.017334946315816991 -0.03172421904264059 0 -0.017359875918821155 -0.031528412148827047 0 -0.017334946315816991 -0.03172421904264059 0 -0.017509758396795916 -0.031458240227624591 0 -0.017708056951508226 -0.031881295453329184 0 -0.012836318910022208 -0.025193627567889437 0 -0.013710563345693354 -0.028895853892386199 0 -0.017334946315816991 -0.03172421904264059 0 -0.017359875918821155 -0.031528412148827047 0 -0.017509758396795916 -0.031458240227624591 0 -0.012939075039988699 -0.023016814298617128 0 -0.014150598534066472 -0.024274137612846428 0 -0.012836318910022208 -0.025193627567889437 0 -0.014150598534066472 -0.024274137612846428 0 -0.012229699835358239 -0.024980884870883607 0 -0.012024819934525009 -0.024037581258326352 0 -0.013761210978122324 -0.024440488236404191 0 -0.017359875918821155 -0.031528412148827047 0 -0.017509758396795916 -0.031458240227624591 0 -0.017285016377279694 -0.03149937491797062 0 -0.012939075039988699 -0.023016814298617128 0 -0.012836318910022208 -0.025193627567889437 0 0.0020477600263556083 -0.022691528362528565 0 0.001348233896704754 -0.02632322959039933 0 -0.001277579740579308 -0.023464755367434011 0 -0.022817842094887325 -0.030844293973321894 0 -0.017285016377279694 -0.03149937491797062 0 -0.01777141707982555 -0.029357239180400663 0 -0.017136713175772068 -0.031533358635639851 0 -0.017359875918821155 -0.031528412148827047 0 -0.017285016377279694 -0.03149937491797062 0 -0.017136713175772068 -0.031533358635639851 0 -0.017285016377279694 -0.03149937491797062 0 -0.016541684507094916 -0.031184007510071086 0 -0.017285016377279694 -0.03149937491797062 0 -0.01777141707982555 -0.029357239180400663 0 -0.015999963642702453 -0.030525927557897802 0 -0.017285016377279694 -0.03149937491797062 0 -0.016541684507094916 -0.031184007510071086 0 -0.015999963642702453 -0.030525927557897802 0 -0.01777141707982555 -0.029357239180400663 0 -0.016535872926129437 -0.022946408821602447 0 -0.022378070733802911 -0.02410004837452849 0 -0.01777141707982555 -0.029357239180400663 0 -0.014410156593513539 -0.028910781210187128 0 -0.016535872926129437 -0.022946408821602447 0 -0.01777141707982555 -0.029357239180400663 0 -0.015999963642702453 -0.030525927557897802 0 -0.014410156593513539 -0.028910781210187128 0 -0.022817842094887325 -0.030844293973321894 0 -0.01777141707982555 -0.029357239180400663 0 -0.022378070733802911 -0.02410004837452849 0 -0.013460211827492458 -0.015134181840491671 0 -0.012685002235261493 -0.011636848903604745 0 -0.015255491335104121 -0.012247814336459282 0 -0.012939075039988699 -0.023016814298617128 0 -0.015013868030516254 -0.017457546207554738 0 -0.016155996374699028 -0.030771582332488816 0 -0.016541684507094916 -0.031184007510071086 0 -0.015999963642702453 -0.030525927557897802 0 -0.016155996374699028 -0.030771582332488816 0 -0.015999963642702453 -0.030525927557897802 0 -0.014410156593513539 -0.028910781210187128 0 -0.012321389390063437 -0.024282594576477759 0 -0.01076655211716223 -0.022915573744324669 0 -0.016155996374699028 -0.030771582332488816 0 -0.014410156593513539 -0.028910781210187128 0 -0.01605814440083797 -0.030768564804441498 0 -0.016638080084415953 -0.031056089325231566 0 -0.016155996374699028 -0.030771582332488816 0 -0.01605814440083797 -0.030768564804441498 0 -0.0026518939025052539 -0.02478932688227373 0 -0.0099326260871482313 -0.019059720777779805 0 -0.002848785926044017 -0.010010514551890165 0 0.0071155355166701321 -0.020951398970045179 0 -0.0026518939025052539 -0.02478932688227373 0 -0.002848785926044017 -0.010010514551890165 0 -0.0096985455990331419 -0.01228958517483277 0 -0.0099326260871482313 -0.019059720777779805 0 -0.002848785926044017 -0.010010514551890165 0 -0.0096985455990331419 -0.01228958517483277 0 -0.014113804659176417 -0.015808517202181061 0 -0.013922318875819897 -0.010459820461976082 0 -0.0096985455990331419 -0.01228958517483277 0 -0.0099326260871482313 -0.019059720777779805 0 -0.014113804659176417 -0.015808517202181061 0 -0.0099326260871482313 -0.019059720777779805 0 -0.016535872926129437 -0.022946408821602447 0 -0.014113804659176417 -0.015808517202181061 0 -0.014410156593513539 -0.028910781210187128 0 -0.0026518939025052539 -0.02478932688227373 0 -0.0099326260871482313 -0.019059720777779805 0 -0.014410156593513539 -0.028910781210187128 0 -0.0099326260871482313 -0.019059720777779805 0 -0.016535872926129437 -0.022946408821602447 0 -0.016535872926129437 -0.022946408821602447 0 -0.022378070733802911 -0.02410004837452849 0 -0.018851660997268444 -0.017002094379215203 0 -0.016535872926129437 -0.022946408821602447 0 -0.014113804659176417 -0.015808517202181061 0 -0.018851660997268444 -0.017002094379215203 0 -0.012685002235261493 -0.011636848903604745 0 -0.013508769326634803 -0.0092140746920642228 0 -0.0118703173802703 -0.0080942858273594254 0 -0.022378070733802911 -0.02410004837452849 0 -0.020901820799571993 -0.014520565812768971 0 -0.018851660997268444 -0.017002094379215203 0 -0.012685002235261493 -0.011636848903604745 0 -0.015233907213707577 -0.0095144617735126395 0 -0.015255491335104121 -0.012247814336459282 0 -0.015013868030516254 -0.017457546207554738 0 -0.01608892459885965 -0.01132110384962225 0 -0.012685002235261493 -0.011636848903604745 0 -0.013508769326634803 -0.0092140746920642228 0 -0.015233907213707577 -0.0095144617735126395 0 -0.0118703173802703 -0.0080942858273594254 0 -0.014253752613704433 -0.0075910419677805152 0 -0.014399168848194706 -0.0048482594640611399 0 -0.013508769326634803 -0.0092140746920642228 0 -0.014253752613704433 -0.0075910419677805152 0 -0.015233907213707577 -0.0095144617735126395 0 -0.013508769326634803 -0.0092140746920642228 0 -0.0118703173802703 -0.0080942858273594254 0 -0.014253752613704433 -0.0075910419677805152 0 -0.020800983129647708 -0.013942820076515946 0 -0.016887905543421192 -0.012478085992894126 0 -0.016673622574633246 -0.0055532006920905388 0 -0.014113804659176417 -0.015808517202181061 0 -0.018851660997268444 -0.017002094379215203 0 -0.016887905543421192 -0.012478085992894126 0 -0.020800983129647708 -0.013942820076515946 0 -0.018851660997268444 -0.017002094379215203 0 -0.016887905543421192 -0.012478085992894126 0 -0.01608892459885965 -0.01132110384962225 0 -0.016083463247533149 -0.01149637969220769 0 -0.014113804659176417 -0.015808517202181061 0 -0.016887905543421192 -0.012478085992894126 0 -0.013922318875819897 -0.010459820461976082 0 -0.01608892459885965 -0.01132110384962225 0 -0.01610539179966811 -0.010390938646462055 0 -0.016673622574633246 -0.0055532006920905388 0 -0.016477651235639226 -0.0015716597507892814 0 -0.012118147103827442 -0.0066080515501971493 0 -0.013922318875819897 -0.010459820461976082 0 -0.016673622574633246 -0.0055532006920905388 0 -0.012118147103827442 -0.0066080515501971493 0 -0.016887905543421192 -0.012478085992894126 0 -0.013922318875819897 -0.010459820461976082 0 -0.016673622574633246 -0.0055532006920905388 0 -0.017150400520533654 -0.0077425920021074943 0 -0.016673622574633246 -0.0055532006920905388 0 -0.019139436288209376 -0.0042593492686258515 0 -0.01608892459885965 -0.01132110384962225 0 -0.017769683088118299 -0.0063165757536254689 0 -0.016673622574633246 -0.0055532006920905388 0 -0.016477651235639226 -0.0015716597507892814 0 -0.019139436288209376 -0.0042593492686258515 0 -0.019335424245811469 0.0045447095802717734 0 -0.017463311500457792 0.0020219027255270216 0 -0.01825061501369207 0.0013872899065010267 0 -0.016477651235639226 -0.0015716597507892814 0 -0.018541769670753636 -0.0011375905903268028 0 -0.016477651235639226 -0.0015716597507892814 0 -0.018541769670753636 -0.0011375905903268028 0 -0.019139436288209376 -0.0042593492686258515 0 -0.015857451032086769 0.0066419602121438577 0 -0.016477651235639226 -0.0015716597507892814 0 -0.010989007508711625 -0.0013080026986326454 0 -0.016477651235639226 -0.0015716597507892814 0 -0.010989007508711625 -0.0013080026986326454 0 -0.012118147103827442 -0.0066080515501971493 0 -0.010418935531025778 0.0065776682966210091 0 -0.010837994105558834 0.0013902385126537424 0 -0.0051792620040063912 0.0022368823658382051 0 -0.010837994105558834 0.0013902385126537424 0 -0.0051792620040063912 0.0022368823658382051 0 -0.006367028990761088 -0.00341197681332104 0 -0.0034697831814019028 -0.0029592429958573674 0 -0.0051792620040063912 0.0022368823658382051 0 -0.006367028990761088 -0.00341197681332104 0 -0.010989007508711625 -0.0013080026986326454 0 -0.002848785926044017 -0.010010514551890165 0 -0.012118147103827442 -0.0066080515501971493 0 -0.0096985455990331419 -0.01228958517483277 0 -0.002848785926044017 -0.010010514551890165 0 -0.012118147103827442 -0.0066080515501971493 0 -0.012122220436154768 -0.0020060398158208009 0 -0.008417198354722908 -0.010029827213685278 0 -0.0096985455990331419 -0.01228958517483277 0 -0.013922318875819897 -0.010459820461976082 0 -0.012118147103827442 -0.0066080515501971493 0 -0.022027583858935749 -0.0044848948717916594 0 -0.020070175303953313 -0.005799233065220886 0 -0.021089957190457347 -0.0076355097541364559 0 -0.022027583858935749 -0.0044848948717916594 0 -0.020612154047493635 -0.0025371162641409542 0 -0.020070175303953313 -0.005799233065220886 0 -0.022027583858935749 -0.0044848948717916594 0 -0.023086220746621384 -0.0060083178780286463 0 -0.021089957190457347 -0.0076355097541364559 0 -0.024336838087105093 -0.0036775082524538715 0 -0.02489834779889159 -0.0068152149046899974 0 -0.026245433821544976 -0.0049451357203598671 0 -0.023086220746621384 -0.0060083178780286463 0 -0.024336838087105093 -0.0036775082524538715 0 -0.02489834779889159 -0.0068152149046899974 0 -0.022027583858935749 -0.0044848948717916594 0 -0.023086220746621384 -0.0060083178780286463 0 -0.024336838087105093 -0.0036775082524538715 0 -0.023624126767080568 -0.00042106335844440865 0 -0.024336838087105093 -0.0036775082524538715 0 -0.026457957789920352 -0.0010872797591249498 0 -0.024336838087105093 -0.0036775082524538715 0 -0.026457957789920352 -0.0010872797591249498 0 -0.026245433821544976 -0.0049451357203598671 0 -0.023624126767080568 -0.00042106335844440865 0 -0.024336838087105093 -0.0036775082524538715 0 -0.02242309554411492 -0.0023833303154666106 0 -0.023624126767080568 -0.00042106335844440865 0 -0.021908035600803937 -1.2763445911758047e-06 0 -0.02242309554411492 -0.0023833303154666106 0 -0.022027583858935749 -0.0044848948717916594 0 -0.024336838087105093 -0.0036775082524538715 0 -0.02242309554411492 -0.0023833303154666106 0 -0.022027583858935749 -0.0044848948717916594 0 -0.02242309554411492 -0.0023833303154666106 0 -0.020612154047493635 -0.0025371162641409542 0 -0.021908035600803937 -1.2763445911758047e-06 0 -0.020394558098531235 -0.0006433082828625218 0 -0.020612154047493635 -0.0025371162641409542 0 -0.021908035600803937 -1.2763445911758047e-06 0 -0.02242309554411492 -0.0023833303154666106 0 -0.020612154047493635 -0.0025371162641409542 0 -0.020394558098531235 -0.0006433082828625218 0 -0.020612154047493635 -0.0025371162641409542 0 -0.017116881483593249 -0.0014294043276350584 0 -0.020612154047493635 -0.0025371162641409542 0 -0.017116881483593249 -0.0014294043276350584 0 -0.018060764661602984 -0.0048847263102772334 0 -0.019449976751167129 -0.0027276249024647588 0 -0.017769683088118299 -0.0063165757536254689 0 -0.017116881483593249 -0.0014294043276350584 0 -0.014399168848194706 -0.0048482594640611399 0 -0.018060764661602984 -0.0048847263102772334 0 -0.018541769670753636 -0.0011375905903268028 0 -0.020333115455218154 -0.00042604302517096972 0 -0.019139436288209376 -0.0042593492686258515 0 -0.01825061501369207 0.0013872899065010267 0 -0.018541769670753636 -0.0011375905903268028 0 -0.020333115455218154 -0.00042604302517096972 0 -0.014399168848194706 -0.0048482594640611399 0 -0.018060764661602984 -0.0048847263102772334 0 -0.016198373601267801 -0.0068668407333552567 0 -0.014253752613704433 -0.0075910419677805152 0 -0.014399168848194706 -0.0048482594640611399 0 -0.016198373601267801 -0.0068668407333552567 0 -0.020070175303953313 -0.005799233065220886 0 -0.018060764661602984 -0.0048847263102772334 0 -0.018203641702937111 -0.0081505207917550344 0 -0.020612154047493635 -0.0025371162641409542 0 -0.020070175303953313 -0.005799233065220886 0 -0.018060764661602984 -0.0048847263102772334 0 -0.018060764661602984 -0.0048847263102772334 0 -0.018203641702937111 -0.0081505207917550344 0 -0.016198373601267801 -0.0068668407333552567 0 -0.020070175303953313 -0.005799233065220886 0 -0.018203641702937111 -0.0081505207917550344 0 -0.021089957190457347 -0.0076355097541364559 0 -0.018203641702937111 -0.0081505207917550344 0 -0.019907496666229978 -0.0099894364791237329 0 -0.021089957190457347 -0.0076355097541364559 0 -0.018203641702937111 -0.0081505207917550344 0 -0.016198373601267801 -0.0068668407333552567 0 -0.015233907213707577 -0.0095144617735126395 0 -0.014253752613704433 -0.0075910419677805152 0 -0.016198373601267801 -0.0068668407333552567 0 -0.015233907213707577 -0.0095144617735126395 0 -0.018203641702937111 -0.0081505207917550344 0 -0.015233907213707577 -0.0095144617735126395 0 -0.017698715464857153 -0.011173034350745188 0 -0.015233907213707577 -0.0095144617735126395 0 -0.017698715464857153 -0.011173034350745188 0 -0.015255491335104121 -0.012247814336459282 0 -0.017698715464857153 -0.011173034350745188 0 -0.019907496666229978 -0.0099894364791237329 0 -0.020658875315186346 -0.012437532385078838 0 -0.018203641702937111 -0.0081505207917550344 0 -0.017698715464857153 -0.011173034350745188 0 -0.019907496666229978 -0.0099894364791237329 0 -0.019907496666229978 -0.0099894364791237329 0 -0.022112293005566001 -0.010442311975392896 0 -0.020658875315186346 -0.012437532385078838 0 -0.021089957190457347 -0.0076355097541364559 0 -0.02301682247764451 -0.0079878695117857699 0 -0.022112293005566001 -0.010442311975392896 0 -0.019907496666229978 -0.0099894364791237329 0 -0.021089957190457347 -0.0076355097541364559 0 -0.022112293005566001 -0.010442311975392896 0 -0.023086220746621384 -0.0060083178780286463 0 -0.021089957190457347 -0.0076355097541364559 0 -0.02301682247764451 -0.0079878695117857699 0 -0.02489834779889159 -0.0068152149046899974 0 -0.024828433773928626 -0.008649413897834005 0 -0.026829568244247204 -0.0076106179693088243 0 -0.02489834779889159 -0.0068152149046899974 0 -0.02301682247764451 -0.0079878695117857699 0 -0.024828433773928626 -0.008649413897834005 0 -0.023086220746621384 -0.0060083178780286463 0 -0.02489834779889159 -0.0068152149046899974 0 -0.02301682247764451 -0.0079878695117857699 0 -0.02301682247764451 -0.0079878695117857699 0 -0.024828433773928626 -0.008649413897834005 0 -0.022112293005566001 -0.010442311975392896 0 -0.022112293005566001 -0.010442311975392896 0 -0.023760376714631441 -0.011854376434672327 0 -0.020658875315186346 -0.012437532385078838 0 -0.01968994174538442 -0.015301212175893676 0 -0.017051872865425248 -0.016700313359097382 0 -0.0206261419803743 -0.0054856514934576873 0 -0.017277806898042453 -0.0044217632681524408 0 -0.022112293005566001 -0.010442311975392896 0 -0.023760376714631441 -0.011854376434672327 0 -0.026885258804025761 -0.010233810036180123 0 -0.024828433773928626 -0.008649413897834005 0 -0.022112293005566001 -0.010442311975392896 0 -0.026946437857125406 -0.010374806199304767 0 -0.023760376714631441 -0.011854376434672327 0 -0.022802038003287006 -0.016298218174460952 0 -0.012067526165317073 -0.016079350884813194 0 -0.023760376714631441 -0.011854376434672327 0 -0.022802038003287006 -0.016298218174460952 0 -0.027063082647879093 -0.014705528764225572 0 -0.022802038003287006 -0.016298218174460952 0 -0.020604294728486693 -0.020189612721881339 0 -0.012067526165317073 -0.016079350884813194 0 -0.022802038003287006 -0.016298218174460952 0 -0.020604294728486693 -0.020189612721881339 0 -0.028566715034003504 -0.018959153047185932 0 -0.020604294728486693 -0.020189612721881339 0 -0.014874990146314694 -0.021174571759091973 0 -0.018430225806092004 -0.023836390961085609 0 -0.012067526165317073 -0.016079350884813194 0 -0.014874990146314694 -0.021174571759091973 0 -0.01005761918184876 -0.0253890029747223 0 -0.020604294728486693 -0.020189612721881339 0 -0.012067526165317073 -0.016079350884813194 0 -0.014874990146314694 -0.021174571759091973 0 -0.014874990146314694 -0.021174571759091973 0 -0.01005761918184876 -0.0253890029747223 0 -0.018430225806092004 -0.023836390961085609 0 -0.01005761918184876 -0.0253890029747223 0 -0.0097646422828648795 -0.027801976045613463 0 -0.0098387551696140479 -0.026971956723980509 0 -0.012537842470228667 -0.025504083387140011 0 -0.013956099618897872 -0.025651384050814127 0 -0.01005761918184876 -0.0253890029747223 0 -0.0079399807631238186 -0.027899419829059045 0 -0.0098387551696140479 -0.026971956723980509 0 -0.01005761918184876 -0.0253890029747223 0 -0.022140465364138901 -0.028561469767901967 0 -0.018430225806092004 -0.023836390961085609 0 -0.020604294728486693 -0.020189612721881339 0 -0.018430225806092004 -0.023836390961085609 0 -0.024160956103435525 -0.023899492268783303 0 -0.022140465364138901 -0.028561469767901967 0 -0.018430225806092004 -0.023836390961085609 0 -0.024160956103435525 -0.023899492268783303 0 -0.012939075039988699 -0.023016814298617128 0 -0.013347861462713271 -0.019614450875633457 0 -0.013460211827492458 -0.015134181840491671 0 -0.015255491335104121 -0.012247814336459282 0 -0.017162837223258301 -0.013772977281304498 0 0.0020477600263556083 -0.022691528362528565 0 -0.004243420116279358 -0.020127247657268768 0 -0.001277579740579308 -0.023464755367434011 0 -0.017698715464857153 -0.011173034350745188 0 -0.015255491335104121 -0.012247814336459282 0 -0.017162837223258301 -0.013772977281304498 0 -0.017698715464857153 -0.011173034350745188 0 -0.020658875315186346 -0.012437532385078838 0 -0.017162837223258301 -0.013772977281304498 0 -0.017051872865425248 -0.016700313359097382 0 -0.013347861462713271 -0.019614450875633457 0 -0.012067526165317073 -0.016079350884813194 0 -0.01005761918184876 -0.0253890029747223 0 -0.004243420116279358 -0.020127247657268768 0 -0.01005761918184876 -0.0253890029747223 0 -0.0042474680311922457 -0.024826752984886818 0 -0.0079399807631238186 -0.027899419829059045 0 -0.01005761918184876 -0.0253890029747223 0 -0.004243420116279358 -0.020127247657268768 0 -0.0042474680311922457 -0.024826752984886818 0 0.001348233896704754 -0.02632322959039933 0 -0.0042474680311922457 -0.024826752984886818 0 -0.0079399807631238186 -0.027899419829059045 0 0.001348233896704754 -0.02632322959039933 0 -0.0042474680311922457 -0.024826752984886818 0 -0.001277579740579308 -0.023464755367434011 0 -0.004243420116279358 -0.020127247657268768 0 -0.0042474680311922457 -0.024826752984886818 0 -0.001277579740579308 -0.023464755367434011 0 -0.012970249275353252 -0.028220979166812887 0 -0.012292212806375989 -0.027524193670684243 0 -0.012637780285505638 -0.02660777476312182 0 -0.012970249275353252 -0.028220979166812887 0 -0.012292212806375989 -0.027524193670684243 0 -0.011367329354994269 -0.027829870753633329 0 -0.012836318910022208 -0.025193627567889437 0 -0.0098428522063059732 -0.026198277283005778 0 -0.012292212806375989 -0.027524193670684243 0 -0.011367329354994269 -0.027829870753633329 0 -0.01170182888515839 -0.026943399235921813 0 -0.011367329354994269 -0.027829870753633329 0 -0.01170182888515839 -0.026943399235921813 0 -0.010798321569437551 -0.026837835881228751 0 -0.01170182888515839 -0.026943399235921813 0 -0.010798321569437551 -0.026837835881228751 0 -0.011440471596650516 -0.025845999880257611 0 -0.01170182888515839 -0.026943399235921813 0 -0.012637780285505638 -0.02660777476312182 0 -0.011440471596650516 -0.025845999880257611 0 -0.012292212806375989 -0.027524193670684243 0 -0.01170182888515839 -0.026943399235921813 0 -0.012637780285505638 -0.02660777476312182 0 -0.0099934518990003936 -0.027544398725290117 0 -0.0090449026531154234 -0.027693520761888614 0 -0.0091476708299869959 -0.027039315389844758 0 -0.0097646422828648795 -0.027801976045613463 0 -0.0099934518990003936 -0.027544398725290117 0 -0.0090449026531154234 -0.027693520761888614 0 -0.0097646422828648795 -0.027801976045613463 0 -0.0099934518990003936 -0.027544398725290117 0 -0.0098387551696140479 -0.026971956723980509 0 -0.0079399807631238186 -0.027899419829059045 0 -0.0099934518990003936 -0.027544398725290117 0 -0.0098387551696140479 -0.026971956723980509 0 -0.0098428522063059732 -0.026198277283005778 0 -0.0098835904277770961 -0.026610556376273443 0 -0.011367329354994269 -0.027829870753633329 0 -0.0099934518990003936 -0.027544398725290117 0 -0.010798321569437551 -0.026837835881228751 0 -0.0099934518990003936 -0.027544398725290117 0 -0.010798321569437551 -0.026837835881228751 0 -0.0099699553963542575 -0.026738327265919661 0 -0.010798321569437551 -0.026837835881228751 0 -0.0099699553963542575 -0.026738327265919661 0 -0.010272937785692762 -0.025706741136084447 0 -0.0099934518990003936 -0.027544398725290117 0 -0.0099699553963542575 -0.026738327265919661 0 -0.0091476708299869959 -0.027039315389844758 0 -0.0099699553963542575 -0.026738327265919661 0 -0.0092982445484298855 -0.026148657324486721 0 -0.0091476708299869959 -0.027039315389844758 0 -0.0092982445484298855 -0.026148657324486721 0 -0.010272937785692762 -0.025706741136084447 0 -0.0090715203408005592 -0.025029905925357525 0 -0.0099699553963542575 -0.026738327265919661 0 -0.0092982445484298855 -0.026148657324486721 0 -0.010272937785692762 -0.025706741136084447 0 -0.010272937785692762 -0.025706741136084447 0 -0.010702983509570909 -0.024911693480320074 0 -0.011440471596650516 -0.025845999880257611 0 -0.010798321569437551 -0.026837835881228751 0 -0.010272937785692762 -0.025706741136084447 0 -0.011440471596650516 -0.025845999880257611 0 -0.010272937785692762 -0.025706741136084447 0 -0.010702983509570909 -0.024911693480320074 0 -0.010018573177505943 -0.024538236552539013 0 -0.010702983509570909 -0.024911693480320074 0 -0.010018573177505943 -0.024538236552539013 0 -0.010931615313163518 -0.024250164733543154 0 -0.010018573177505943 -0.024538236552539013 0 -0.0090715203408005592 -0.025029905925357525 0 -0.0090945390795170132 -0.023661103915900032 0 -0.010272937785692762 -0.025706741136084447 0 -0.010018573177505943 -0.024538236552539013 0 -0.0090715203408005592 -0.025029905925357525 0 -0.010018573177505943 -0.024538236552539013 0 -0.0090945390795170132 -0.023661103915900032 0 -0.010277539506145615 -0.023695849850706704 0 -0.010018573177505943 -0.024538236552539013 0 -0.010277539506145615 -0.023695849850706704 0 -0.010931615313163518 -0.024250164733543154 0 -0.010277539506145615 -0.023695849850706704 0 -0.010955086476990618 -0.023372580486419086 0 -0.010931615313163518 -0.024250164733543154 0 -0.010277539506145615 -0.023695849850706704 0 -0.010355234536914814 -0.022741530621695805 0 -0.010955086476990618 -0.023372580486419086 0 -0.010355234536914814 -0.022741530621695805 0 -0.011117729801434143 -0.022782900309660851 0 -0.010955086476990618 -0.023372580486419086 0 0.021412108190983357 -0.062853918055019969 0 0.018515622939567038 -0.060200943877547146 0 0.022216299188273562 -0.06017489773247249 0 -0.0090945390795170132 -0.023661103915900032 0 -0.010277539506145615 -0.023695849850706704 0 -0.010355234536914814 -0.022741530621695805 0 0.0048987574359835445 -0.044344595977162858 0 0.00075878689238491749 -0.044473788329664699 0 -0.018177391304090549 -0.032858397077855532 0 -0.018233274362817378 -0.032879172092213839 0 -0.01814383100012874 -0.032810303036240523 0 -0.018173201426754226 -0.032817279370576109 0 -0.018181922148452549 -0.032867046813760487 0 -0.018182067764146662 -0.032865882547375012 0 -0.018177391304090549 -0.032858397077855532 0 -0.018173201426754226 -0.032817279370576109 0 -0.018181922148452549 -0.032867046813760487 0 -0.018177391304090549 -0.032858397077855532 0 -0.01814383100012874 -0.032810303036240523 0 -0.018173201426754226 -0.032817279370576109 0 -0.018181922148452549 -0.032867046813760487 0 -0.018182067764146662 -0.032865882547375012 0 -0.018187017309603624 -0.032896905118203756 0 -0.018177391304090549 -0.032858397077855532 0 -0.018233274362817378 -0.032879172092213839 0 -0.018205124263846319 -0.032896465269517346 0 -0.018181922148452549 -0.032867046813760487 0 -0.018205124263846319 -0.032896465269517346 0 -0.018187017309603624 -0.032896905118203756 0 -0.018177391304090549 -0.032858397077855532 0 -0.018181922148452549 -0.032867046813760487 0 -0.018205124263846319 -0.032896465269517346 0 -0.01176884369400912 -0.023220905216502035 0 -0.011117729801434143 -0.022782900309660851 0 -0.010955086476990618 -0.023372580486419086 0 -0.01176884369400912 -0.023220905216502035 0 -0.010955086476990618 -0.023372580486419086 0 -0.011348001269544607 -0.023817769224679829 0 -0.010955086476990618 -0.023372580486419086 0 -0.011348001269544607 -0.023817769224679829 0 -0.010931615313163518 -0.024250164733543154 0 -0.01176884369400912 -0.023220905216502035 0 -0.011348001269544607 -0.023817769224679829 0 -0.011601488970343975 -0.024270769830844509 0 -0.011348001269544607 -0.023817769224679829 0 -0.010931615313163518 -0.024250164733543154 0 -0.011601488970343975 -0.024270769830844509 0 -0.01176884369400912 -0.023220905216502035 0 -0.011601488970343975 -0.024270769830844509 0 -0.012260461350125157 -0.024885383559892154 0 -0.010287518415783488 -0.031456580571059545 0 -0.012803739983348961 -0.029413706167101303 0 -0.01814383100012874 -0.032810303036240523 0 -0.01796660289947757 -0.032390125064419358 0 -0.017618435743635322 -0.032431165001794333 0 -0.017949113958034023 -0.032591466997933395 0 -0.017828037001635478 -0.032445844012662775 0 -0.018233274362817378 -0.032879172092213839 0 -0.01814383100012874 -0.032810303036240523 0 -0.01796660289947757 -0.032390125064419358 0 -0.01814383100012874 -0.032810303036240523 0 -0.018173201426754226 -0.032817279370576109 0 -0.018219795248175023 -0.032607399147634927 0 -0.010702983509570909 -0.024911693480320074 0 -0.011413874780750845 -0.02486393540697247 0 -0.011440471596650516 -0.025845999880257611 0 -0.012260461350125157 -0.024885383559892154 0 -0.011413874780750845 -0.02486393540697247 0 -0.011440471596650516 -0.025845999880257611 0 -0.010931615313163518 -0.024250164733543154 0 -0.011601488970343975 -0.024270769830844509 0 -0.011413874780750845 -0.02486393540697247 0 -0.010702983509570909 -0.024911693480320074 0 -0.010931615313163518 -0.024250164733543154 0 -0.011413874780750845 -0.02486393540697247 0 -0.011601488970343975 -0.024270769830844509 0 -0.012260461350125157 -0.024885383559892154 0 -0.011413874780750845 -0.02486393540697247 0 -0.017708056951508226 -0.031881295453329184 0 -0.01796660289947757 -0.032390125064419358 0 -0.017563724304876713 -0.032111393858255489 0 -0.013710563345693354 -0.028895853892386199 0 -0.012803739983348961 -0.029413706167101303 0 -0.012637780285505638 -0.02660777476312182 0 -0.012260461350125157 -0.024885383559892154 0 -0.011440471596650516 -0.025845999880257611 0 -0.017563724304876713 -0.032111393858255489 0 -0.017256091272503164 -0.032020741422627869 0 -0.017618435743635322 -0.032431165001794333 0 -0.017581615302802368 -0.032164430586501577 0 -0.017828037001635478 -0.032445844012662775 0 -0.017899297078413898 -0.032206002072677459 0 -0.017985764673698855 -0.032539349334066367 0 -0.017705060340061782 -0.032468270891423526 0 -0.017985764673698855 -0.032539349334066367 0 -0.017705060340061782 -0.032468270891423526 0 -0.017977503243576651 -0.032643483126081362 0 -0.017899297078413898 -0.032206002072677459 0 -0.017985764673698855 -0.032539349334066367 0 -0.018219795248175023 -0.032607399147634927 0 -0.01796660289947757 -0.032390125064419358 0 -0.017563724304876713 -0.032111393858255489 0 -0.017618435743635322 -0.032431165001794333 0 -0.017985764673698855 -0.032539349334066367 0 -0.018219795248175023 -0.032607399147634927 0 -0.018119223484440346 -0.032693152514978806 0 -0.017377541045551014 -0.032273221725807023 0 -0.017344318062838031 -0.032164805169917092 0 -0.017520409909235885 -0.032461493829449073 0 -0.017344318062838031 -0.032164805169917092 0 -0.017520409909235885 -0.032461493829449073 0 -0.017705060340061782 -0.032468270891423526 0 -0.017344318062838031 -0.032164805169917092 0 -0.017899297078413898 -0.032206002072677459 0 -0.017705060340061782 -0.032468270891423526 0 -0.017705060340061782 -0.032468270891423526 0 -0.017737423137753051 -0.032576756174663178 0 -0.017977503243576651 -0.032643483126081362 0 -0.017520409909235885 -0.032461493829449073 0 -0.017737423137753051 -0.032576756174663178 0 -0.017671122480677936 -0.032489376808403754 0 -0.017520409909235885 -0.032461493829449073 0 -0.017705060340061782 -0.032468270891423526 0 -0.017737423137753051 -0.032576756174663178 0 -0.017737423137753051 -0.032576756174663178 0 -0.017671122480677936 -0.032489376808403754 0 -0.017587494720186267 -0.032661977255264429 0 -0.017737423137753051 -0.032576756174663178 0 -0.018037693932119687 -0.032746075710258941 0 -0.017977503243576651 -0.032643483126081362 0 -0.017927921038771485 -0.032845086603223529 0 -0.018037693932119687 -0.032746075710258941 0 -0.018318252915237213 -0.032919127618113921 0 -0.017927921038771485 -0.032845086603223529 0 -0.018318252915237213 -0.032919127618113921 0 -0.018547481046241737 -0.033231543051437183 0 -0.017737423137753051 -0.032576756174663178 0 -0.017927921038771485 -0.032845086603223529 0 -0.018037693932119687 -0.032746075710258941 0 -0.017737423137753051 -0.032576756174663178 0 -0.017927921038771485 -0.032845086603223529 0 -0.017587494720186267 -0.032661977255264429 0 -0.018173201426754226 -0.032817279370576109 0 -0.018219795248175023 -0.032607399147634927 0 -0.018177691201980171 -0.03279339764382927 0 -0.018219795248175023 -0.032607399147634927 0 -0.018177691201980171 -0.03279339764382927 0 -0.018119223484440346 -0.032693152514978806 0 -0.018177691201980171 -0.03279339764382927 0 -0.018119223484440346 -0.032693152514978806 0 -0.018187468880707776 -0.032815667050262148 0 -0.017985764673698855 -0.032539349334066367 0 -0.018119223484440346 -0.032693152514978806 0 -0.017977503243576651 -0.032643483126081362 0 -0.018037693932119687 -0.032746075710258941 0 -0.017977503243576651 -0.032643483126081362 0 -0.018187468880707776 -0.032815667050262148 0 -0.018119223484440346 -0.032693152514978806 0 -0.017977503243576651 -0.032643483126081362 0 -0.018187468880707776 -0.032815667050262148 0 -0.018187468880707776 -0.032815667050262148 0 -0.018318252915237213 -0.032919127618113921 0 -0.018195865187439104 -0.032872802452159053 0 -0.018037693932119687 -0.032746075710258941 0 -0.018187468880707776 -0.032815667050262148 0 -0.018318252915237213 -0.032919127618113921 0 -0.018318252915237213 -0.032919127618113921 0 -0.018195865187439104 -0.032872802452159053 0 -0.018205985533083752 -0.032886259886853189 0 -0.018195865187439104 -0.032872802452159053 0 -0.018189193475041981 -0.032886116264668197 0 -0.018205985533083752 -0.032886259886853189 0 -0.018177691201980171 -0.03279339764382927 0 -0.018187468880707776 -0.032815667050262148 0 -0.018195865187439104 -0.032872802452159053 0 -0.018177691201980171 -0.03279339764382927 0 -0.018195865187439104 -0.032872802452159053 0 -0.018182067764146662 -0.032865882547375012 0 -0.018173201426754226 -0.032817279370576109 0 -0.018177691201980171 -0.03279339764382927 0 -0.018182067764146662 -0.032865882547375012 0 -0.018195865187439104 -0.032872802452159053 0 -0.018182067764146662 -0.032865882547375012 0 -0.018189193475041981 -0.032886116264668197 0 -0.018182067764146662 -0.032865882547375012 0 -0.018185025010467398 -0.032896110137478299 0 -0.018189193475041981 -0.032886116264668197 0 -0.018185025010467398 -0.032896110137478299 0 -0.018189193475041981 -0.032886116264668197 0 -0.018185429880676198 -0.032904525936959889 0 -0.018185025010467398 -0.032896110137478299 0 -0.018185429880676198 -0.032904525936959889 0 -0.018183471188371082 -0.032919839539689535 0 -0.018185429880676198 -0.032904525936959889 0 -0.018193527017964239 -0.032899310295694921 0 -0.018205985533083752 -0.032886259886853189 0 -0.018189193475041981 -0.032886116264668197 0 -0.018185429880676198 -0.032904525936959889 0 -0.018205985533083752 -0.032886259886853189 0 -0.013513327778357641 -0.037936328357508327 0 -0.013142348403167916 -0.040526374479276768 0 -0.018318252915237213 -0.032919127618113921 0 -0.018547481046241737 -0.033231543051437183 0 -0.018738906445968959 -0.033377650652313719 0 -0.018318252915237213 -0.032919127618113921 0 -0.018205985533083752 -0.032886259886853189 0 -0.018208811188888212 -0.032883442113754442 0 -0.013309820364395243 -0.040231406117902574 0 -0.013142348403167916 -0.040526374479276768 0 -0.018193527017964239 -0.032899310295694921 0 -0.018205985533083752 -0.032886259886853189 0 -0.018208811188888212 -0.032883442113754442 0 -0.018547481046241737 -0.033231543051437183 0 -0.01931376734480995 -0.033739045980206342 0 -0.019359494183622438 -0.034641132245585224 0 -0.01931376734480995 -0.033739045980206342 0 -0.019359494183622438 -0.034641132245585224 0 -0.019616223080498176 -0.034887008729318159 0 -0.012740578491070813 -0.044367754418810926 0 -0.014399903472394098 -0.045842786975926503 0 -0.013147581189366502 -0.047113190472591396 0 -0.013142348403167916 -0.040526374479276768 0 -0.013905559024461955 -0.044211647001682099 0 -0.018175673844559155 -0.032931264586319092 0 -0.018172256995570842 -0.032971421309973846 0 -0.018177988034246435 -0.032943531988427595 0 -0.012413229860052968 -0.044491735817614564 0 -0.011021248445734837 -0.049996500774499401 0 -0.018185429880676198 -0.032904525936959889 0 -0.018175673844559155 -0.032931264586319092 0 -0.018177988034246435 -0.032943531988427595 0 -0.018193527017964239 -0.032899310295694921 0 -0.018208811188888212 -0.032883442113754442 0 -0.018175673844559155 -0.032931264586319092 0 -0.013142348403167916 -0.040526374479276768 0 -0.012413229860052968 -0.044491735817614564 0 -0.018185429880676198 -0.032904525936959889 0 -0.018193527017964239 -0.032899310295694921 0 -0.018175673844559155 -0.032931264586319092 0 -0.019214964191569772 -0.034065602130164442 0 -0.01922227755952494 -0.033793612085853644 0 -0.017927921038771485 -0.032845086603223529 0 -0.017771021958871706 -0.033390315017645576 0 -0.017587494720186267 -0.032661977255264429 0 -0.020195981604839673 -0.035131328785304339 0 -0.020374659703855935 -0.034959930549581936 0 -0.02077102659481914 -0.034974445511450604 0 -0.017927921038771485 -0.032845086603223529 0 -0.018547481046241737 -0.033231543051437183 0 -0.017771021958871706 -0.033390315017645576 0 -0.019359494183622438 -0.034641132245585224 0 -0.020195981604839673 -0.035131328785304339 0 -0.019989380127083709 -0.034777317290139782 0 -0.018547481046241737 -0.033231543051437183 0 -0.019359494183622438 -0.034641132245585224 0 -0.017771021958871706 -0.033390315017645576 0 -0.019304730405699893 -0.034234475763771595 0 -0.019214964191569772 -0.034065602130164442 0 -0.020195981604839673 -0.035131328785304339 0 -0.019989380127083709 -0.034777317290139782 0 -0.020374659703855935 -0.034959930549581936 0 -0.020374659703855935 -0.034959930549581936 0 -0.020312789368249241 -0.034712059853017542 0 -0.020645204067512433 -0.03498366599831753 0 -0.019989380127083709 -0.034777317290139782 0 -0.020312789368249241 -0.034712059853017542 0 -0.019978112829408274 -0.034644321051118698 0 -0.019989380127083709 -0.034777317290139782 0 -0.020374659703855935 -0.034959930549581936 0 -0.020312789368249241 -0.034712059853017542 0 -0.019989380127083709 -0.034777317290139782 0 -0.019978112829408274 -0.034644321051118698 0 -0.019691767953631721 -0.034715313498034715 0 -0.019359494183622438 -0.034641132245585224 0 -0.019989380127083709 -0.034777317290139782 0 -0.019691767953631721 -0.034715313498034715 0 -0.019978112829408274 -0.034644321051118698 0 -0.019691767953631721 -0.034715313498034715 0 -0.01975863214481639 -0.034658871444607164 0 -0.019978112829408274 -0.034644321051118698 0 -0.019951146153670257 -0.034530383877611551 0 -0.020201354146834126 -0.03454671193390052 0 -0.019978112829408274 -0.034644321051118698 0 -0.019951146153670257 -0.034530383877611551 0 -0.01975863214481639 -0.034658871444607164 0 -0.020312789368249241 -0.034712059853017542 0 -0.020201354146834126 -0.03454671193390052 0 -0.020381239717234854 -0.034578732070724524 0 -0.020312789368249241 -0.034712059853017542 0 -0.019978112829408274 -0.034644321051118698 0 -0.020201354146834126 -0.03454671193390052 0 -0.014287618988402608 -0.047529047990877413 0 -0.013147581189366502 -0.047113190472591396 0 -0.013555090289734584 -0.049847959894758646 0 -0.014368589002898679 -0.053807033120024481 0 -0.011021248445734837 -0.049996500774499401 0 -0.014287618988402608 -0.047529047990877413 0 -0.013555090289734584 -0.049847959894758646 0 -0.016048041201095434 -0.047310370171945115 0 -0.014399903472394098 -0.045842786975926503 0 -0.014287618988402608 -0.047529047990877413 0 -0.016048041201095434 -0.047310370171945115 0 -0.014399903472394098 -0.045842786975926503 0 -0.014287618988402608 -0.047529047990877413 0 -0.013147581189366502 -0.047113190472591396 0 -0.013905559024461955 -0.044211647001682099 0 -0.014368589002898679 -0.053807033120024481 0 -0.019616223080498176 -0.034887008729318159 0 -0.01975863214481639 -0.034658871444607164 0 -0.019591201519715454 -0.034591102993696603 0 -0.019359494183622438 -0.034641132245585224 0 -0.019616223080498176 -0.034887008729318159 0 -0.019691767953631721 -0.034715313498034715 0 -0.019616223080498176 -0.034887008729318159 0 -0.019691767953631721 -0.034715313498034715 0 -0.01975863214481639 -0.034658871444607164 0 -0.019951146153670257 -0.034530383877611551 0 -0.01975863214481639 -0.034658871444607164 0 -0.019591201519715454 -0.034591102993696603 0 -0.0057352204466699416 -0.068058914011552174 0 -0.0063504974253496931 -0.068060836664999236 0 -0.0063282972748437225 -0.067410598916918557 0 -0.0057352204466699416 -0.068058914011552174 0 -0.0063504974253496931 -0.068060836664999236 0 -0.0060573783908546928 -0.068399717637974075 0 -0.0063504974253496931 -0.068060836664999236 0 -0.0063282972748437225 -0.067410598916918557 0 -0.0067420257835030129 -0.067798215348252561 0 -0.0063504974253496931 -0.068060836664999236 0 -0.0067297549631356477 -0.06823366963803626 0 -0.0064908313348940698 -0.068505143959879486 0 -0.0063504974253496931 -0.068060836664999236 0 -0.0067420257835030129 -0.067798215348252561 0 -0.0067297549631356477 -0.06823366963803626 0 -0.011021248445734837 -0.049996500774499401 0 -0.010045752978637294 -0.055906748101433847 0 -0.0054275622248341673 -0.052599803244295737 0 -0.0071528396510858929 -0.052056233559281767 0 -0.0072973133094036665 -0.054264512745992671 0 -0.0050948409435244901 -0.060994651218030251 0 -0.0065555946653030172 -0.061277162525539407 0 -0.0045994391720503526 -0.058681640736488433 0 -0.0071528396510858929 -0.052056233559281767 0 -0.0085810252273520599 -0.053183023149845493 0 -0.0079834559075332243 -0.050441740845961619 0 -0.0071528396510858929 -0.052056233559281767 0 -0.0085810252273520599 -0.053183023149845493 0 -0.0072973133094036665 -0.054264512745992671 0 -0.010045752978637294 -0.055906748101433847 0 -0.0090691608407303028 -0.059780330629306482 0 -0.0076482790690966945 -0.055056168567570452 0 -0.0090691608407303028 -0.059780330629306482 0 -0.0085810252273520599 -0.053183023149845493 0 -0.0072973133094036665 -0.054264512745992671 0 -0.0091779645363506135 -0.05593832207188109 0 -0.0067420257835030129 -0.067798215348252561 0 -0.0067297549631356477 -0.06823366963803626 0 -0.0071703957972327724 -0.068193739083753202 0 -0.0056174983417076226 -0.063253993299497061 0 -0.0065095680950826972 -0.063424719451495512 0 -0.0069415318669080097 -0.062722208463467682 0 -0.0056174983417076226 -0.063253993299497061 0 -0.0069415318669080097 -0.062722208463467682 0 -0.0065555946653030172 -0.061277162525539407 0 -0.0069415318669080097 -0.062722208463467682 0 -0.0080636405791115716 -0.061689716633970167 0 -0.0072580228852810805 -0.064439865950196101 0 -0.0050948409435244901 -0.060994651218030251 0 -0.0056174983417076226 -0.063253993299497061 0 -0.0065555946653030172 -0.061277162525539407 0 -0.0065095680950826972 -0.063424719451495512 0 -0.0069415318669080097 -0.062722208463467682 0 -0.0072580228852810805 -0.064439865950196101 0 -0.0069415318669080097 -0.062722208463467682 0 -0.0080636405791115716 -0.061689716633970167 0 -0.0065555946653030172 -0.061277162525539407 0 -0.008044980041003881 -0.0635460102012467 0 -0.0078175819274415633 -0.064858189762520058 0 -0.0084263190492041718 -0.06345320517948122 0 -0.0080636405791115716 -0.061689716633970167 0 -0.0073508972733602688 -0.064707988048911841 0 -0.0090929713505602042 -0.063691370062638863 0 -0.0084263190492041718 -0.06345320517948122 0 -0.0092643769181971845 -0.062267557734405864 0 -0.0084263190492041718 -0.06345320517948122 0 -0.0092643769181971845 -0.062267557734405864 0 -0.0080636405791115716 -0.061689716633970167 0 -0.0092643769181971845 -0.062267557734405864 0 -0.0076864464928705981 -0.060317762424096227 0 -0.01083679102458269 -0.061986455856730321 0 -0.0092643769181971845 -0.062267557734405864 0 -0.0080636405791115716 -0.061689716633970167 0 -0.0076864464928705981 -0.060317762424096227 0 0.0043442778715259448 -0.056327870511805253 0 0.010612626886615415 -0.065484677580650616 0 -0.0076864464928705981 -0.060317762424096227 0 -0.0065555946653030172 -0.061277162525539407 0 -0.0045994391720503526 -0.058681640736488433 0 -0.0080636405791115716 -0.061689716633970167 0 -0.0076864464928705981 -0.060317762424096227 0 -0.0065555946653030172 -0.061277162525539407 0 0.019519770990072887 -0.055284657211279814 0 0.018070132182859151 -0.057587238748028229 0 0.015794023923624445 -0.057099335226729421 0 0.0043442778715259448 -0.056327870511805253 0 -0.0060152752835359868 -0.047451860978730664 0 0.019519770990072887 -0.055284657211279814 0 0.020780760057844166 -0.057893278578545031 0 0.022262462554858805 -0.056224331134076315 0 0.019519770990072887 -0.055284657211279814 0 0.018070132182859151 -0.057587238748028229 0 0.020780760057844166 -0.057893278578545031 0 0.018515622939567038 -0.060200943877547146 0 0.020780760057844166 -0.057893278578545031 0 0.022216299188273562 -0.06017489773247249 0 0.00075878689238491749 -0.044473788329664699 0 -0.0062311769835487049 -0.046109965517120953 0 0.018515622939567038 -0.060200943877547146 0 0.018070132182859151 -0.057587238748028229 0 0.020780760057844166 -0.057893278578545031 0 0.018515622939567038 -0.060200943877547146 0 0.018070132182859151 -0.057587238748028229 0 0.015714686722746309 -0.057457886633462692 0 -0.01176884369400912 -0.023220905216502035 0 -0.011117729801434143 -0.022782900309660851 0 -0.01138620677484134 -0.021816061557654278 0 -0.018233274362817378 -0.032879172092213839 0 -0.018205124263846319 -0.032896465269517346 0 -0.018173985807257532 -0.032954026718029467 0 -0.010287518415783488 -0.031456580571059545 0 -0.0062311769835487049 -0.046109965517120953 0 -0.010355234536914814 -0.022741530621695805 0 -0.011117729801434143 -0.022782900309660851 0 -0.01138620677484134 -0.021816061557654278 0 -0.018205124263846319 -0.032896465269517346 0 -0.018193466576053908 -0.032913738769941664 0 -0.018173985807257532 -0.032954026718029467 0 -0.018205124263846319 -0.032896465269517346 0 -0.018193466576053908 -0.032913738769941664 0 -0.018187017309603624 -0.032896905118203756 0 -0.018193466576053908 -0.032913738769941664 0 -0.018187017309603624 -0.032896905118203756 0 -0.018187103641421735 -0.032912511027198298 0 -0.018185025010467398 -0.032896110137478299 0 -0.018187103641421735 -0.032912511027198298 0 -0.018183471188371082 -0.032919839539689535 0 -0.018182067764146662 -0.032865882547375012 0 -0.018185025010467398 -0.032896110137478299 0 -0.018187017309603624 -0.032896905118203756 0 -0.018185025010467398 -0.032896110137478299 0 -0.018187017309603624 -0.032896905118203756 0 -0.018187103641421735 -0.032912511027198298 0 -0.018193466576053908 -0.032913738769941664 0 -0.018185141729277939 -0.032928472595332728 0 -0.018173985807257532 -0.032954026718029467 0 -0.018187103641421735 -0.032912511027198298 0 -0.018183471188371082 -0.032919839539689535 0 -0.018185141729277939 -0.032928472595332728 0 -0.018193466576053908 -0.032913738769941664 0 -0.018187103641421735 -0.032912511027198298 0 -0.018185141729277939 -0.032928472595332728 0 -0.018183471188371082 -0.032919839539689535 0 -0.018182251126428173 -0.032932165391596442 0 -0.018185141729277939 -0.032928472595332728 0 -0.018182251126428173 -0.032932165391596442 0 -0.018185141729277939 -0.032928472595332728 0 -0.01817930801621662 -0.032942214205209444 0 -0.0054275622248341673 -0.052599803244295737 0 -0.0071528396510858929 -0.052056233559281767 0 -0.0076960701697903616 -0.050294663637512595 0 -0.01817930801621662 -0.032942214205209444 0 -0.018177988034246435 -0.032943531988427595 0 -0.018177807490148547 -0.032952551213298611 0 -0.011021248445734837 -0.049996500774499401 0 -0.0065133344807339422 -0.046771046291840146 0 -0.018182251126428173 -0.032932165391596442 0 -0.01817930801621662 -0.032942214205209444 0 -0.018177988034246435 -0.032943531988427595 0 -0.018172256995570842 -0.032971421309973846 0 -0.018177988034246435 -0.032943531988427595 0 -0.018177807490148547 -0.032952551213298611 0 -0.018185429880676198 -0.032904525936959889 0 -0.018183471188371082 -0.032919839539689535 0 -0.018177988034246435 -0.032943531988427595 0 -0.018183471188371082 -0.032919839539689535 0 -0.018182251126428173 -0.032932165391596442 0 -0.018177988034246435 -0.032943531988427595 0 -0.0071528396510858929 -0.052056233559281767 0 -0.0079834559075332243 -0.050441740845961619 0 -0.0076960701697903616 -0.050294663637512595 0 0.018070132182859151 -0.057587238748028229 0 0.015714686722746309 -0.057457886633462692 0 0.015794023923624445 -0.057099335226729421 0 -0.0076482790690966945 -0.055056168567570452 0 -0.0060152752835359868 -0.047451860978730664 0 -0.018185141729277939 -0.032928472595332728 0 -0.01817930801621662 -0.032942214205209444 0 -0.018173985807257532 -0.032954026718029467 0 -0.0062311769835487049 -0.046109965517120953 0 -0.0065133344807339422 -0.046771046291840146 0 -0.0068820143335130441 -0.046630355262913967 0 -0.0065133344807339422 -0.046771046291840146 0 -0.01817930801621662 -0.032942214205209444 0 -0.018173985807257532 -0.032954026718029467 0 -0.018173156994144311 -0.032954284297884197 0 -0.0062311769835487049 -0.046109965517120953 0 -0.0060152752835359868 -0.047451860978730664 0 -0.0030949473676971217 -0.050567704984503518 0 -0.0021220080312324913 -0.046078285945023924 0 -0.0057205927251008969 -0.047914384667252279 0 -0.0060152752835359868 -0.047451860978730664 0 -0.0065133344807339422 -0.046771046291840146 0 -0.017018466802631492 -0.033238885047337227 0 -0.016464515837113045 -0.034848857079129471 0 -0.017855773470327012 -0.034758042596308332 0 -0.017855773470327012 -0.034758042596308332 0 -0.019490622476691234 -0.0341674546551506 0 -0.019229102369435213 -0.036115041691204705 0 -0.017018466802631492 -0.033238885047337227 0 -0.017855773470327012 -0.034758042596308332 0 -0.019490622476691234 -0.0341674546551506 0 -0.016464515837113045 -0.034848857079129471 0 -0.017855773470327012 -0.034758042596308332 0 -0.016964789477545237 -0.036318527204216751 0 -0.01917677787467276 -0.03349394189589102 0 -0.019179176490005462 -0.032995538371034722 0 -0.019490622476691234 -0.0341674546551506 0 -0.018076310671474818 -0.031773180939231767 0 -0.019241677100464993 -0.03206527258176619 0 -0.019490622476691234 -0.0341674546551506 0 -0.019668663871429508 -0.033483551350254381 0 -0.02013696663416523 -0.03407116918091331 0 -0.017018466802631492 -0.033238885047337227 0 -0.019490622476691234 -0.0341674546551506 0 -0.018076310671474818 -0.031773180939231767 0 -0.018076310671474818 -0.031773180939231767 0 -0.018035044626287036 -0.030757644483681661 0 -0.018825500387432983 -0.030811005691611128 0 -0.019179176490005462 -0.032995538371034722 0 -0.019065718933994294 -0.032440882613904862 0 -0.018076310671474818 -0.031773180939231767 0 -0.019241677100464993 -0.03206527258176619 0 -0.018825500387432983 -0.030811005691611128 0 -0.019668663871429508 -0.033483551350254381 0 -0.019702069722607383 -0.033295347421513494 0 -0.019837040913490374 -0.033453323099091721 0 -0.019702069722607383 -0.033295347421513494 0 -0.019454787288536942 -0.033201484396698504 0 -0.019837040913490374 -0.033453323099091721 0 -0.019837040913490374 -0.033453323099091721 0 -0.02013696663416523 -0.03407116918091331 0 -0.020350147748052973 -0.034464790600902795 0 -0.02013696663416523 -0.03407116918091331 0 -0.020350147748052973 -0.034464790600902795 0 -0.021777223443169114 -0.036027692311689001 0 -0.019490622476691234 -0.0341674546551506 0 -0.02013696663416523 -0.03407116918091331 0 -0.021777223443169114 -0.036027692311689001 0 -0.019668663871429508 -0.033483551350254381 0 -0.019837040913490374 -0.033453323099091721 0 -0.02013696663416523 -0.03407116918091331 0 -0.020350147748052973 -0.034464790600902795 0 -0.020501691818893466 -0.034708913304230885 0 -0.020700389414231014 -0.035158999401754369 0 -0.020501691818893466 -0.034708913304230885 0 -0.020858264714073527 -0.034320776760126598 0 -0.020748443916502449 -0.034977395377808043 0 -0.019337330237247995 -0.033451631800129826 0 -0.019297224108736279 -0.033549455380444189 0 -0.020501691818893466 -0.034708913304230885 0 -0.019548973775162667 -0.033095620456569302 0 -0.020858264714073527 -0.034320776760126598 0 -0.019837040913490374 -0.033453323099091721 0 -0.020350147748052973 -0.034464790600902795 0 -0.019548973775162667 -0.033095620456569302 0 -0.020350147748052973 -0.034464790600902795 0 -0.020501691818893466 -0.034708913304230885 0 -0.019548973775162667 -0.033095620456569302 0 -0.019454787288536942 -0.033201484396698504 0 -0.019837040913490374 -0.033453323099091721 0 -0.019548973775162667 -0.033095620456569302 0 -0.019454787288536942 -0.033201484396698504 0 -0.018800065162277405 -0.032949636379564287 0 -0.019548973775162667 -0.033095620456569302 0 -0.017739476773667925 -0.032769446715931558 0 -0.018800065162277405 -0.032949636379564287 0 -0.017963567819254032 -0.032769716074669837 0 -0.019548973775162667 -0.033095620456569302 0 -0.017963567819254032 -0.032769716074669837 0 -0.01801873481103447 -0.032287850724879892 0 -0.018800065162277405 -0.032949636379564287 0 -0.019548973775162667 -0.033095620456569302 0 -0.017963567819254032 -0.032769716074669837 0 -0.017739476773667925 -0.032769446715931558 0 -0.017377541045551014 -0.032273221725807023 0 -0.017963567819254032 -0.032769716074669837 0 -0.017377541045551014 -0.032273221725807023 0 -0.017520409909235885 -0.032461493829449073 0 -0.017963567819254032 -0.032769716074669837 0 -0.017520409909235885 -0.032461493829449073 0 -0.017963567819254032 -0.032769716074669837 0 -0.017671122480677936 -0.032489376808403754 0 -0.017671122480677936 -0.032489376808403754 0 -0.01801873481103447 -0.032287850724879892 0 -0.017587494720186267 -0.032661977255264429 0 -0.017963567819254032 -0.032769716074669837 0 -0.017671122480677936 -0.032489376808403754 0 -0.01801873481103447 -0.032287850724879892 0 -0.020858264714073527 -0.034320776760126598 0 -0.02077102659481914 -0.034974445511450604 0 -0.020748443916502449 -0.034977395377808043 0 -0.019297224108736279 -0.033549455380444189 0 -0.01922227755952494 -0.033793612085853644 0 -0.020374659703855935 -0.034959930549581936 0 -0.02077102659481914 -0.034974445511450604 0 -0.020645204067512433 -0.03498366599831753 0 -0.02077102659481914 -0.034974445511450604 0 -0.020748443916502449 -0.034977395377808043 0 -0.020645204067512433 -0.03498366599831753 0 -0.020748443916502449 -0.034977395377808043 0 -0.020645204067512433 -0.03498366599831753 0 -0.020742708127714175 -0.035096564533843633 0 -0.023902855715543656 -0.038402896213998478 0 -0.024113894674198364 -0.041507523497638657 0 -0.020312789368249241 -0.034712059853017542 0 -0.020645204067512433 -0.03498366599831753 0 -0.020511543515393072 -0.034680708292886026 0 -0.020312789368249241 -0.034712059853017542 0 -0.020511543515393072 -0.034680708292886026 0 -0.020381239717234854 -0.034578732070724524 0 -0.020511543515393072 -0.034680708292886026 0 -0.020381239717234854 -0.034578732070724524 0 -0.020508154484692707 -0.034513682816901807 0 -0.024113894674198364 -0.041507523497638657 0 -0.023237945415909178 -0.05594401000225302 0 -0.020783097637555713 -0.035151927438876927 0 -0.020813644247112531 -0.035192270745261212 0 -0.020809484047976244 -0.035237043336546696 0 -0.019716678997639309 -0.049200500942083142 0 -0.023237945415909178 -0.05594401000225302 0 -0.020813644247112531 -0.035192270745261212 0 -0.020861616240240646 -0.035258938601965953 0 -0.020921626825953048 -0.035293990055819499 0 -0.020645204067512433 -0.03498366599831753 0 -0.020783097637555713 -0.035151927438876927 0 -0.020742708127714175 -0.035096564533843633 0 -0.020783097637555713 -0.035151927438876927 0 -0.020742708127714175 -0.035096564533843633 0 -0.020813644247112531 -0.035192270745261212 0 -0.020742708127714175 -0.035096564533843633 0 -0.020773785070077683 -0.03515119402123057 0 -0.020813644247112531 -0.035192270745261212 0 -0.020813644247112531 -0.035192270745261212 0 -0.020843569192890425 -0.035216247343918115 0 -0.020861616240240646 -0.035258938601965953 0 -0.020773785070077683 -0.03515119402123057 0 -0.020813644247112531 -0.035192270745261212 0 -0.020843569192890425 -0.035216247343918115 0 -0.020843569192890425 -0.035216247343918115 0 -0.020825012855342051 -0.035158331327108307 0 -0.020878103488879633 -0.035163378939523177 0 -0.020773785070077683 -0.03515119402123057 0 -0.020843569192890425 -0.035216247343918115 0 -0.020825012855342051 -0.035158331327108307 0 -0.020773785070077683 -0.03515119402123057 0 -0.020825012855342051 -0.035158331327108307 0 -0.02070232365443584 -0.035148362762208632 0 -0.020825012855342051 -0.035158331327108307 0 -0.02070232365443584 -0.035148362762208632 0 -0.020889009364543552 -0.03527812919084828 0 -0.02070232365443584 -0.035148362762208632 0 -0.020700389414231014 -0.035158999401754369 0 -0.020889009364543552 -0.03527812919084828 0 -0.020748443916502449 -0.034977395377808043 0 -0.020742708127714175 -0.035096564533843633 0 -0.02070232365443584 -0.035148362762208632 0 -0.020742708127714175 -0.035096564533843633 0 -0.020773785070077683 -0.03515119402123057 0 -0.02070232365443584 -0.035148362762208632 0 -0.020501691818893466 -0.034708913304230885 0 -0.020748443916502449 -0.034977395377808043 0 -0.02070232365443584 -0.035148362762208632 0 -0.020501691818893466 -0.034708913304230885 0 -0.02070232365443584 -0.035148362762208632 0 -0.020700389414231014 -0.035158999401754369 0 -0.020350147748052973 -0.034464790600902795 0 -0.020700389414231014 -0.035158999401754369 0 -0.021777223443169114 -0.036027692311689001 0 -0.023117787135462413 -0.039265936466994597 0 -0.023388736585746875 -0.040976380617598215 0 -0.021777223443169114 -0.036027692311689001 0 -0.020889009364543552 -0.03527812919084828 0 -0.021181824238412725 -0.035109604156756395 0 -0.021777223443169114 -0.036027692311689001 0 -0.026126495632779051 -0.041584541412210525 0 -0.02044514918024402 -0.038721139978412977 0 -0.020700389414231014 -0.035158999401754369 0 -0.021777223443169114 -0.036027692311689001 0 -0.020889009364543552 -0.03527812919084828 0 -0.020825012855342051 -0.035158331327108307 0 -0.020878103488879633 -0.035163378939523177 0 -0.021181824238412725 -0.035109604156756395 0 -0.020825012855342051 -0.035158331327108307 0 -0.020889009364543552 -0.03527812919084828 0 -0.021181824238412725 -0.035109604156756395 0 -0.020878103488879633 -0.035163378939523177 0 -0.020873935460777673 -0.035190302392952309 0 -0.021181824238412725 -0.035109604156756395 0 -0.023673146850924722 -0.045641004478911062 0 -0.023388736585746875 -0.040976380617598215 0 -0.030726532522578287 -0.049740772865176475 0 -0.026126495632779051 -0.041584541412210525 0 -0.024817571239862064 -0.046817165116904931 0 -0.030726532522578287 -0.049740772865176475 0 -0.024817571239862064 -0.046817165116904931 0 -0.025119753829740417 -0.051977382868554876 0 -0.026126495632779051 -0.041584541412210525 0 -0.020564022823582325 -0.044249730184270912 0 -0.02044514918024402 -0.038721139978412977 0 -0.026126495632779051 -0.041584541412210525 0 -0.020564022823582325 -0.044249730184270912 0 -0.024817571239862064 -0.046817165116904931 0 -0.020564022823582325 -0.044249730184270912 0 -0.024817571239862064 -0.046817165116904931 0 -0.021760721950425967 -0.048154642410500138 0 -0.024817571239862064 -0.046817165116904931 0 -0.021760721950425967 -0.048154642410500138 0 -0.025119753829740417 -0.051977382868554876 0 -0.020564022823582325 -0.044249730184270912 0 -0.021760721950425967 -0.048154642410500138 0 -0.017001699363185518 -0.049700780891618078 0 -0.015884810533940794 -0.04448936861743949 0 -0.020564022823582325 -0.044249730184270912 0 -0.017001699363185518 -0.049700780891618078 0 -0.020564022823582325 -0.044249730184270912 0 -0.017533807022032964 -0.040632192719813061 0 -0.02044514918024402 -0.038721139978412977 0 -0.015884810533940794 -0.04448936861743949 0 -0.020564022823582325 -0.044249730184270912 0 -0.017533807022032964 -0.040632192719813061 0 -0.015836255583612117 -0.038592802306878907 0 -0.017533807022032964 -0.040632192719813061 0 -0.018101001992564428 -0.037968794638163855 0 -0.015836255583612117 -0.038592802306878907 0 -0.018101001992564428 -0.037968794638163855 0 -0.016964789477545237 -0.036318527204216751 0 -0.017533807022032964 -0.040632192719813061 0 -0.018101001992564428 -0.037968794638163855 0 -0.02044514918024402 -0.038721139978412977 0 -0.021777223443169114 -0.036027692311689001 0 -0.02044514918024402 -0.038721139978412977 0 -0.019229102369435213 -0.036115041691204705 0 -0.018101001992564428 -0.037968794638163855 0 -0.02044514918024402 -0.038721139978412977 0 -0.019229102369435213 -0.036115041691204705 0 -0.019490622476691234 -0.0341674546551506 0 -0.021777223443169114 -0.036027692311689001 0 -0.019229102369435213 -0.036115041691204705 0 -0.017855773470327012 -0.034758042596308332 0 -0.019229102369435213 -0.036115041691204705 0 -0.016964789477545237 -0.036318527204216751 0 -0.018101001992564428 -0.037968794638163855 0 -0.019229102369435213 -0.036115041691204705 0 -0.016964789477545237 -0.036318527204216751 0 -0.032429740869276899 -0.084493412556557942 0 -0.029434663739416417 -0.087578904607447911 0 -0.0024917946179857037 -0.09185008647296819 0 -0.010918371209435361 -0.085785700885702032 0 -0.016436230608653016 -0.09441433991261558 0 -0.010918371209435361 -0.085785700885702032 0 -0.017473832950791867 -0.085530756464162569 0 -0.013561485031216729 -0.079530660747865092 0 -0.0024917946179857037 -0.09185008647296819 0 -0.010918371209435361 -0.085785700885702032 0 -0.0066278818742007981 -0.08399887325907314 0 -0.010918371209435361 -0.085785700885702032 0 -0.017473832950791867 -0.085530756464162569 0 -0.016436230608653016 -0.09441433991261558 0 -0.022260738925598243 -0.089633273792607576 0 -0.017473832950791867 -0.085530756464162569 0 -0.016436230608653016 -0.09441433991261558 0 -0.022260738925598243 -0.089633273792607576 0 -0.030160574098813293 -0.094532870638419531 0 -0.016436230608653016 -0.09441433991261558 0 -0.022260738925598243 -0.089633273792607576 0 -0.027402732877603562 -0.090455146744761739 0 -0.030160574098813293 -0.094532870638419531 0 -0.027402732877603562 -0.090455146744761739 0 -0.023286372048661973 -0.084150598608590352 0 -0.027449591185476824 -0.08420199019328499 0 -0.022260738925598243 -0.089633273792607576 0 -0.027402732877603562 -0.090455146744761739 0 -0.023286372048661973 -0.084150598608590352 0 -0.022260738925598243 -0.089633273792607576 0 -0.023286372048661973 -0.084150598608590352 0 -0.017473832950791867 -0.085530756464162569 0 -0.023286372048661973 -0.084150598608590352 0 -0.017473832950791867 -0.085530756464162569 0 -0.018748179930103234 -0.079799913413564863 0 -0.023286372048661973 -0.084150598608590352 0 -0.018748179930103234 -0.079799913413564863 0 -0.022845290502221026 -0.076141115016440969 0 -0.018748179930103234 -0.079799913413564863 0 -0.017376707217216639 -0.07325760757712152 0 -0.013561485031216729 -0.079530660747865092 0 -0.023286372048661973 -0.084150598608590352 0 -0.022845290502221026 -0.076141115016440969 0 -0.028019940804369037 -0.079515793400980417 0 -0.023286372048661973 -0.084150598608590352 0 -0.028019940804369037 -0.079515793400980417 0 -0.027449591185476824 -0.08420199019328499 0 -0.022845290502221026 -0.076141115016440969 0 -0.017376707217216639 -0.07325760757712152 0 -0.023983545086174611 -0.067192074557574907 0 -0.022845290502221026 -0.076141115016440969 0 -0.028669621696804742 -0.073143481024987952 0 -0.028019940804369037 -0.079515793400980417 0 -0.022845290502221026 -0.076141115016440969 0 -0.023983545086174611 -0.067192074557574907 0 -0.028669621696804742 -0.073143481024987952 0 -0.018748179930103234 -0.079799913413564863 0 -0.022845290502221026 -0.076141115016440969 0 -0.017376707217216639 -0.07325760757712152 0 -0.017376707217216639 -0.07325760757712152 0 -0.011844337267344832 -0.074570152460915431 0 -0.013561485031216729 -0.079530660747865092 0 -0.017473832950791867 -0.085530756464162569 0 -0.018748179930103234 -0.079799913413564863 0 -0.013561485031216729 -0.079530660747865092 0 -0.011844337267344832 -0.074570152460915431 0 -0.013561485031216729 -0.079530660747865092 0 -0.008346879583046151 -0.079022158652510985 0 -0.010918371209435361 -0.085785700885702032 0 -0.0066278818742007981 -0.08399887325907314 0 -0.008346879583046151 -0.079022158652510985 0 -0.010918371209435361 -0.085785700885702032 0 -0.013561485031216729 -0.079530660747865092 0 -0.008346879583046151 -0.079022158652510985 0 -0.0047189193800724226 -0.079374945589106682 0 -0.0066278818742007981 -0.08399887325907314 0 -0.008346879583046151 -0.079022158652510985 0 -0.0037675959098394125 -0.07734557701079485 0 -0.008346879583046151 -0.079022158652510985 0 -0.007428425916487744 -0.073804863642391111 0 -0.011844337267344832 -0.074570152460915431 0 -0.008346879583046151 -0.079022158652510985 0 -0.007428425916487744 -0.073804863642391111 0 -0.0044978144310866691 -0.069897552106756855 0 -0.007428425916487744 -0.073804863642391111 0 -0.012057282312915944 -0.068164443991575105 0 -0.011844337267344832 -0.074570152460915431 0 -0.007428425916487744 -0.073804863642391111 0 -0.012057282312915944 -0.068164443991575105 0 -0.017376707217216639 -0.07325760757712152 0 -0.011844337267344832 -0.074570152460915431 0 -0.012057282312915944 -0.068164443991575105 0 -0.011128376067116013 -0.067091631426745166 0 -0.010978550612934629 -0.060568898786418301 0 -0.017255652367971493 -0.058728552176146601 0 -0.0050571574691747516 -0.062827903216383957 0 -0.011128376067116013 -0.067091631426745166 0 -0.010978550612934629 -0.060568898786418301 0 -0.0050571574691747516 -0.062827903216383957 0 -0.010978550612934629 -0.060568898786418301 0 -0.0084769871158554208 -0.052263178400987459 0 -0.010978550612934629 -0.060568898786418301 0 -0.0084769871158554208 -0.052263178400987459 0 -0.017255652367971493 -0.058728552176146601 0 -0.015938115477682917 -0.054053415947302431 0 -0.019509345026060502 -0.053535895014369395 0 -0.0084769871158554208 -0.052263178400987459 0 -0.025119753829740417 -0.051977382868554876 0 -0.017255652367971493 -0.058728552176146601 0 -0.021760721950425967 -0.048154642410500138 0 -0.017001699363185518 -0.049700780891618078 0 -0.025119753829740417 -0.051977382868554876 0 -0.025119753829740417 -0.051977382868554876 0 -0.017255652367971493 -0.058728552176146601 0 -0.027078157934964594 -0.058777536797246836 0 -0.017376707217216639 -0.07325760757712152 0 -0.012057282312915944 -0.068164443991575105 0 -0.023983545086174611 -0.067192074557574907 0 -0.01685862054105719 -0.068526608001497374 0 -0.018238268002736851 -0.068347211006853981 0 -0.017255652367971493 -0.058728552176146601 0 -0.023983545086174611 -0.067192074557574907 0 -0.027078157934964594 -0.058777536797246836 0 -0.011128376067116013 -0.067091631426745166 0 -0.017255652367971493 -0.058728552176146601 0 -0.023983545086174611 -0.067192074557574907 0 -0.023983545086174611 -0.067192074557574907 0 -0.035158787469883511 -0.065214502855254403 0 -0.028669621696804742 -0.073143481024987952 0 -0.023983545086174611 -0.067192074557574907 0 -0.035158787469883511 -0.065214502855254403 0 -0.027078157934964594 -0.058777536797246836 0 -0.035158787469883511 -0.065214502855254403 0 -0.032377136714916065 -0.076700530681080917 0 -0.028669621696804742 -0.073143481024987952 0 -0.020873935460777673 -0.035190302392952309 0 -0.020721685078029919 -0.035409015683635435 0 -0.020838667703035416 -0.035269003670290192 0 -0.030726532522578287 -0.049740772865176475 0 -0.035158787469883511 -0.065214502855254403 0 -0.027078157934964594 -0.058777536797246836 0 -0.023673146850924722 -0.045641004478911062 0 -0.023143194757026246 -0.053876386662597989 0 -0.030726532522578287 -0.049740772865176475 0 -0.025119753829740417 -0.051977382868554876 0 -0.027078157934964594 -0.058777536797246836 0 -0.020878103488879633 -0.035163378939523177 0 -0.020838667703035416 -0.035269003670290192 0 -0.020859821366877494 -0.035268030009739951 0 -0.020878103488879633 -0.035163378939523177 0 -0.020873935460777673 -0.035190302392952309 0 -0.020838667703035416 -0.035269003670290192 0 -0.020838667703035416 -0.035269003670290192 0 -0.020838552676942651 -0.035379375673970613 0 -0.020859821366877494 -0.035268030009739951 0 -0.020721685078029919 -0.035409015683635435 0 -0.020838667703035416 -0.035269003670290192 0 -0.020838552676942651 -0.035379375673970613 0 -0.020721685078029919 -0.035409015683635435 0 -0.020838552676942651 -0.035379375673970613 0 -0.020795091303470969 -0.035506794978754204 0 -0.020838552676942651 -0.035379375673970613 0 -0.020795091303470969 -0.035506794978754204 0 -0.020895690187528775 -0.035497335022630729 0 -0.020721685078029919 -0.035409015683635435 0 -0.020795091303470969 -0.035506794978754204 0 -0.020712933972069431 -0.035747484294186345 0 -0.028845182306562755 -0.091966767410467207 0 -0.029345355742554237 -0.0920657766546569 0 -0.02813096879976415 -0.092698359342690578 0 -0.020787018193158698 -0.068427067330141811 0 -0.023117664297214548 -0.064145179571754002 0 -0.020795091303470969 -0.035506794978754204 0 -0.020712933972069431 -0.035747484294186345 0 -0.020895690187528775 -0.035497335022630729 0 -0.035158787469883511 -0.065214502855254403 0 -0.032377136714916065 -0.076700530681080917 0 -0.037798736714236253 -0.082215543043145697 0 -0.023143194757026246 -0.053876386662597989 0 -0.020787018193158698 -0.068427067330141811 0 -0.032377136714916065 -0.076700530681080917 0 -0.028669621696804742 -0.073143481024987952 0 -0.028019940804369037 -0.079515793400980417 0 -0.032377136714916065 -0.076700530681080917 0 -0.028019940804369037 -0.079515793400980417 0 -0.031110462676029814 -0.082833220206348271 0 -0.028019940804369037 -0.079515793400980417 0 -0.031110462676029814 -0.082833220206348271 0 -0.027449591185476824 -0.08420199019328499 0 -0.032377136714916065 -0.076700530681080917 0 -0.031110462676029814 -0.082833220206348271 0 -0.037798736714236253 -0.082215543043145697 0 -0.029242476800911424 -0.092112587752082392 0 -0.0292536931155182 -0.092641607909991555 0 -0.029019561516947092 -0.093496781663658102 0 -0.020787018193158698 -0.068427067330141811 0 -0.020901883830639935 -0.069164812954584945 0 -0.027402732877603562 -0.090455146744761739 0 -0.029272338095909876 -0.091964055033401423 0 -0.029242476800911424 -0.092112587752082392 0 -0.027402732877603562 -0.090455146744761739 0 -0.029242476800911424 -0.092112587752082392 0 -0.0292536931155182 -0.092641607909991555 0 -0.027402732877603562 -0.090455146744761739 0 -0.031110462676029814 -0.082833220206348271 0 -0.027449591185476824 -0.08420199019328499 0 -0.020459867371349156 -0.072114624659356349 0 -0.020787018193158698 -0.068427067330141811 0 -0.027402732877603562 -0.090455146744761739 0 -0.031110462676029814 -0.082833220206348271 0 -0.037798736714236253 -0.082215543043145697 0 -0.027402732877603562 -0.090455146744761739 0 -0.0292536931155182 -0.092641607909991555 0 -0.030160574098813293 -0.094532870638419531 0 -0.030240470586286237 -0.092120254571699201 0 -0.030855543019424551 -0.091483243888832458 0 -0.028845182306562755 -0.091966767410467207 0 -0.02796023265916326 -0.091226763002887387 0 -0.028531642693638101 -0.090726584110786795 0 -0.028845182306562755 -0.091966767410467207 0 -0.029242476800911424 -0.092112587752082392 0 -0.029019561516947092 -0.093496781663658102 0 -0.028845182306562755 -0.091966767410467207 0 -0.028531642693638101 -0.090726584110786795 0 -0.029315820783263714 -0.090481117111521139 0 -0.028845182306562755 -0.091966767410467207 0 -0.029345355742554237 -0.0920657766546569 0 -0.029242476800911424 -0.092112587752082392 0 -0.027247086476364982 -0.09157746317280796 0 -0.02796023265916326 -0.091226763002887387 0 -0.027913958668721612 -0.092041076908148445 0 -0.028845182306562755 -0.091966767410467207 0 -0.02796023265916326 -0.091226763002887387 0 -0.027913958668721612 -0.092041076908148445 0 -0.02796023265916326 -0.091226763002887387 0 -0.027281686568542494 -0.090985795849594139 0 -0.02786370901124274 -0.090315767932018842 0 -0.027247086476364982 -0.09157746317280796 0 -0.02796023265916326 -0.091226763002887387 0 -0.027281686568542494 -0.090985795849594139 0 -0.027247086476364982 -0.09157746317280796 0 -0.027281686568542494 -0.090985795849594139 0 -0.026742565735394609 -0.091202319180940919 0 -0.027281686568542494 -0.090985795849594139 0 -0.026742565735394609 -0.091202319180940919 0 -0.02664958596841106 -0.090544344523305426 0 -0.026742565735394609 -0.091202319180940919 0 -0.026029619299337427 -0.091209773960449964 0 -0.02664958596841106 -0.090544344523305426 0 -0.026742565735394609 -0.091202319180940919 0 -0.026519359755116514 -0.091811890756207479 0 -0.026029619299337427 -0.091209773960449964 0 -0.027247086476364982 -0.09157746317280796 0 -0.026742565735394609 -0.091202319180940919 0 -0.026519359755116514 -0.091811890756207479 0 -0.027247086476364982 -0.09157746317280796 0 -0.026519359755116514 -0.091811890756207479 0 -0.026878851555398067 -0.092423665681213907 0 -0.026519359755116514 -0.091811890756207479 0 -0.026878851555398067 -0.092423665681213907 0 -0.02585342295159216 -0.092654415373752574 0 -0.026878851555398067 -0.092423665681213907 0 -0.027913958668721612 -0.092041076908148445 0 -0.02813096879976415 -0.092698359342690578 0 -0.027247086476364982 -0.09157746317280796 0 -0.026878851555398067 -0.092423665681213907 0 -0.027913958668721612 -0.092041076908148445 0 -0.028845182306562755 -0.091966767410467207 0 -0.027913958668721612 -0.092041076908148445 0 -0.02813096879976415 -0.092698359342690578 0 -0.020838552676942651 -0.035379375673970613 0 -0.020895690187528775 -0.035497335022630729 0 -0.020876490442407643 -0.035346888553594948 0 -0.020895690187528775 -0.035497335022630729 0 -0.020876490442407643 -0.035346888553594948 0 -0.020890178093256152 -0.035344953276829502 0 -0.023117664297214548 -0.064145179571754002 0 -0.022743832284195742 -0.061275534214030536 0 -0.020843569192890425 -0.035216247343918115 0 -0.020878103488879633 -0.035163378939523177 0 -0.020859821366877494 -0.035268030009739951 0 -0.020843569192890425 -0.035216247343918115 0 -0.020876490442407643 -0.035346888553594948 0 -0.020859821366877494 -0.035268030009739951 0 -0.020843569192890425 -0.035216247343918115 0 -0.020876490442407643 -0.035346888553594948 0 -0.020890178093256152 -0.035344953276829502 0 -0.020838552676942651 -0.035379375673970613 0 -0.020876490442407643 -0.035346888553594948 0 -0.020859821366877494 -0.035268030009739951 0 -0.020843569192890425 -0.035216247343918115 0 -0.020861616240240646 -0.035258938601965953 0 -0.020890178093256152 -0.035344953276829502 0 -0.020861616240240646 -0.035258938601965953 0 -0.020890178093256152 -0.035344953276829502 0 -0.020921626825953048 -0.035293990055819499 0 -0.026878851555398067 -0.092423665681213907 0 -0.026691884473110737 -0.09336402397874656 0 -0.02585342295159216 -0.092654415373752574 0 -0.026878851555398067 -0.092423665681213907 0 -0.02813096879976415 -0.092698359342690578 0 -0.026691884473110737 -0.09336402397874656 0 -0.026691884473110737 -0.09336402397874656 0 -0.025639455183041282 -0.093926512742441293 0 -0.02585342295159216 -0.092654415373752574 0 -0.025828927192057562 -0.080631285412764611 0 -0.027829743278336476 -0.083190933306940926 0 -0.025154726302261843 -0.084829919791499675 0 -0.023237945415909178 -0.05594401000225302 0 -0.022757912981045479 -0.082344230844571195 0 -0.022743832284195742 -0.061275534214030536 0 -0.023237945415909178 -0.05594401000225302 0 -0.020508154484692707 -0.034513682816901807 0 -0.020336871130302695 -0.03447471350072423 0 -0.020347180130598077 -0.034371181381195957 0 -0.023237945415909178 -0.05594401000225302 0 -0.021300281093423714 -0.062920019272128647 0 -0.020201354146834126 -0.03454671193390052 0 -0.020381239717234854 -0.034578732070724524 0 -0.020336871130302695 -0.03447471350072423 0 -0.020381239717234854 -0.034578732070724524 0 -0.020508154484692707 -0.034513682816901807 0 -0.020336871130302695 -0.03447471350072423 0 -0.020336871130302695 -0.03447471350072423 0 -0.020347180130598077 -0.034371181381195957 0 -0.020185113342034249 -0.034401406200326008 0 -0.027829743278336476 -0.083190933306940926 0 -0.02793550309639535 -0.085001819243022234 0 -0.025154726302261843 -0.084829919791499675 0 -0.027829743278336476 -0.083190933306940926 0 -0.02793550309639535 -0.085001819243022234 0 -0.029580514935344141 -0.085437980808400843 0 -0.021300281093423714 -0.062920019272128647 0 -0.019700813441148556 -0.07189343647480699 0 -0.02793550309639535 -0.085001819243022234 0 -0.028379477979899644 -0.086655585219088574 0 -0.029580514935344141 -0.085437980808400843 0 -0.028379477979899644 -0.086655585219088574 0 -0.026675309520157689 -0.086078909737896919 0 -0.025971781993351345 -0.087854300638413985 0 -0.02793550309639535 -0.085001819243022234 0 -0.026675309520157689 -0.086078909737896919 0 -0.025154726302261843 -0.084829919791499675 0 -0.02793550309639535 -0.085001819243022234 0 -0.028379477979899644 -0.086655585219088574 0 -0.026675309520157689 -0.086078909737896919 0 -0.022757912981045479 -0.082344230844571195 0 -0.02353518938175574 -0.087554161366424466 0 -0.026519359755116514 -0.091811890756207479 0 -0.02585342295159216 -0.092654415373752574 0 -0.026029619299337427 -0.091209773960449964 0 -0.026675309520157689 -0.086078909737896919 0 -0.025154726302261843 -0.084829919791499675 0 -0.025971781993351345 -0.087854300638413985 0 -0.025154726302261843 -0.084829919791499675 0 -0.025971781993351345 -0.087854300638413985 0 -0.024768522702756635 -0.088506439307304216 0 -0.024768522702756635 -0.088506439307304216 0 -0.0259169056602725 -0.088647519674444272 0 -0.025266028958222182 -0.089182169175015605 0 -0.025971781993351345 -0.087854300638413985 0 -0.024768522702756635 -0.088506439307304216 0 -0.0259169056602725 -0.088647519674444272 0 -0.0202718480298116 -0.075898123601098058 0 -0.020288465164289577 -0.07915669723263774 0 -0.027632938250120028 -0.086998122018147037 0 -0.025971781993351345 -0.087854300638413985 0 -0.0259169056602725 -0.088647519674444272 0 -0.0202718480298116 -0.075898123601098058 0 -0.021164871151635237 -0.077231274786938656 0 -0.026947363813830252 -0.087485436929950505 0 -0.0259169056602725 -0.088647519674444272 0 -0.026550591032550627 -0.088545095316727884 0 -0.026947363813830252 -0.087485436929950505 0 -0.026550591032550627 -0.088545095316727884 0 -0.027684076427741053 -0.087146812276491153 0 -0.020030490718323087 -0.083507411990537031 0 -0.019418950331709418 -0.074538689601953881 0 -0.023301639135543988 -0.091987943923755533 0 -0.021536525016781591 -0.092233891252412437 0 -0.022112314513322729 -0.09119813995775311 0 -0.023301639135543988 -0.091987943923755533 0 -0.023202313838769178 -0.090314560396756949 0 -0.025259578026365252 -0.089694558687634776 0 -0.023202313838769178 -0.090314560396756949 0 -0.022343888521542288 -0.089167381593842104 0 -0.021613258108519415 -0.090162249629267152 0 -0.023202313838769178 -0.090314560396756949 0 -0.021613258108519415 -0.090162249629267152 0 -0.022112314513322729 -0.09119813995775311 0 -0.023301639135543988 -0.091987943923755533 0 -0.023202313838769178 -0.090314560396756949 0 -0.022112314513322729 -0.09119813995775311 0 -0.0259169056602725 -0.088647519674444272 0 -0.026550591032550627 -0.088545095316727884 0 -0.025259578026365252 -0.089694558687634776 0 -0.0259169056602725 -0.088647519674444272 0 -0.025266028958222182 -0.089182169175015605 0 -0.025259578026365252 -0.089694558687634776 0 -0.023202313838769178 -0.090314560396756949 0 -0.025259578026365252 -0.089694558687634776 0 -0.02409142343428209 -0.089549299260379356 0 -0.020030490718323087 -0.083507411990537031 0 -0.020844653992433418 -0.085294948154343159 0 -0.025266028958222182 -0.089182169175015605 0 -0.025259578026365252 -0.089694558687634776 0 -0.025750169661445076 -0.089599038120565633 0 -0.025259578026365252 -0.089694558687634776 0 -0.02409142343428209 -0.089549299260379356 0 -0.024822767759623263 -0.088718972185706263 0 -0.025259578026365252 -0.089694558687634776 0 -0.024822767759623263 -0.088718972185706263 0 -0.025750169661445076 -0.089599038120565633 0 -0.02409142343428209 -0.089549299260379356 0 -0.024822767759623263 -0.088718972185706263 0 -0.023522525172605592 -0.088402805768305948 0 -0.02409142343428209 -0.089549299260379356 0 -0.023522525172605592 -0.088402805768305948 0 -0.021158557218612789 -0.088179928586084561 0 -0.02409142343428209 -0.089549299260379356 0 -0.022343888521542288 -0.089167381593842104 0 -0.02185313705954145 -0.086975785978497186 0 -0.021972612162513245 -0.088580042747921847 0 -0.020516200615563616 -0.087388312667654983 0 -0.023202313838769178 -0.090314560396756949 0 -0.02409142343428209 -0.089549299260379356 0 -0.022343888521542288 -0.089167381593842104 0 -0.023522525172605592 -0.088402805768305948 0 -0.023899181743707795 -0.086986104003647244 0 -0.021158557218612789 -0.088179928586084561 0 -0.021503464208188001 -0.084999274526563751 0 -0.023899181743707795 -0.086986104003647244 0 -0.025573869653391621 -0.08499988482496687 0 -0.021503464208188001 -0.084999274526563751 0 -0.023899181743707795 -0.086986104003647244 0 -0.021158557218612789 -0.088179928586084561 0 -0.023899181743707795 -0.086986104003647244 0 -0.025573869653391621 -0.08499988482496687 0 -0.027128632392106545 -0.088189362786844028 0 -0.024822767759623263 -0.088718972185706263 0 -0.023522525172605592 -0.088402805768305948 0 -0.023899181743707795 -0.086986104003647244 0 -0.026167304731337972 -0.087381200158767769 0 -0.02716412224907656 -0.087650035028602608 0 -0.024822767759623263 -0.088718972185706263 0 -0.023899181743707795 -0.086986104003647244 0 -0.025690666648576426 -0.087499549239506813 0 -0.025690666648576426 -0.087499549239506813 0 -0.026602951523186317 -0.088794335560040766 0 -0.025713684318789173 -0.088655923233926862 0 -0.024822767759623263 -0.088718972185706263 0 -0.025690666648576426 -0.087499549239506813 0 -0.025713684318789173 -0.088655923233926862 0 -0.025690666648576426 -0.087499549239506813 0 -0.027348549114749685 -0.088015148972105259 0 -0.026602951523186317 -0.088794335560040766 0 -0.02716412224907656 -0.087650035028602608 0 -0.029148996783851796 -0.088102273733431782 0 -0.025573869653391621 -0.08499988482496687 0 -0.027128632392106545 -0.088189362786844028 0 -0.029645335858935969 -0.084999968154938668 0 -0.027128632392106545 -0.088189362786844028 0 -0.029645335858935969 -0.084999968154938668 0 -0.030254114675045848 -0.089220016470108035 0 -0.02964417929994527 -0.085003534595057953 0 -0.029148996783851796 -0.088102273733431782 0 -0.029645531737922753 -0.085000156826510159 0 -0.030355914357094293 -0.089252135006426855 0 -0.0325326271732286 -0.087411906476519502 0 -0.029148996783851796 -0.088102273733431782 0 -0.031040799333435894 -0.088867165209955454 0 -0.027550715344399849 -0.088104849544063557 0 -0.027716358771204232 -0.089201149146668088 0 -0.02879755380968604 -0.088515400420375367 0 -0.027556398256337798 -0.089269518963856501 0 -0.026602951523186317 -0.088794335560040766 0 -0.026858086462432318 -0.08979253256351892 0 -0.029148996783851796 -0.088102273733431782 0 -0.028887257337767688 -0.08874181292920777 0 -0.027348549114749685 -0.088015148972105259 0 -0.027556398256337798 -0.089269518963856501 0 -0.026602951523186317 -0.088794335560040766 0 -0.026602951523186317 -0.088794335560040766 0 -0.025713684318789173 -0.088655923233926862 0 -0.025750169661445076 -0.089599038120565633 0 -0.024822767759623263 -0.088718972185706263 0 -0.025713684318789173 -0.088655923233926862 0 -0.025750169661445076 -0.089599038120565633 0 -0.026602951523186317 -0.088794335560040766 0 -0.025750169661445076 -0.089599038120565633 0 -0.026858086462432318 -0.08979253256351892 0 -0.025750169661445076 -0.089599038120565633 0 -0.026858086462432318 -0.08979253256351892 0 -0.02664958596841106 -0.090544344523305426 0 -0.026029619299337427 -0.091209773960449964 0 -0.025750169661445076 -0.089599038120565633 0 -0.02664958596841106 -0.090544344523305426 0 -0.02353518938175574 -0.087554161366424466 0 -0.023923976762310492 -0.088380649198399913 0 -0.024768522702756635 -0.088506439307304216 0 -0.025266028958222182 -0.089182169175015605 0 -0.025750169661445076 -0.089599038120565633 0 -0.027281686568542494 -0.090985795849594139 0 -0.02664958596841106 -0.090544344523305426 0 -0.02786370901124274 -0.090315767932018842 0 -0.02796023265916326 -0.091226763002887387 0 -0.02786370901124274 -0.090315767932018842 0 -0.028531642693638101 -0.090726584110786795 0 -0.027716358771204232 -0.089201149146668088 0 -0.02786370901124274 -0.090315767932018842 0 -0.028722965268875765 -0.089609773871333134 0 -0.028887257337767688 -0.08874181292920777 0 -0.028828311410887791 -0.089079416711207685 0 -0.027556398256337798 -0.089269518963856501 0 -0.026858086462432318 -0.08979253256351892 0 -0.02786370901124274 -0.090315767932018842 0 -0.026858086462432318 -0.08979253256351892 0 -0.02664958596841106 -0.090544344523305426 0 -0.02786370901124274 -0.090315767932018842 0 -0.02786370901124274 -0.090315767932018842 0 -0.028531642693638101 -0.090726584110786795 0 -0.028722965268875765 -0.089609773871333134 0 -0.028531642693638101 -0.090726584110786795 0 -0.029315820783263714 -0.090481117111521139 0 -0.028722965268875765 -0.089609773871333134 0 -0.029315820783263714 -0.090481117111521139 0 -0.030030797975730224 -0.088926822370618941 0 -0.028722965268875765 -0.089609773871333134 0 -0.029019561516947092 -0.093496781663658102 0 -0.030095508029855576 -0.089372391264066806 0 -0.031922178859361133 -0.091906990418848505 0 -0.0292536931155182 -0.092641607909991555 0 -0.029019561516947092 -0.093496781663658102 0 -0.030160574098813293 -0.094532870638419531 0 -0.029019561516947092 -0.093496781663658102 0 -0.030160574098813293 -0.094532870638419531 0 -0.031922178859361133 -0.091906990418848505 0 -0.030855543019424551 -0.091483243888832458 0 -0.032853201852864819 -0.089475668487963608 0 -0.032853201852864819 -0.089475668487963608 0 -0.031040799333435894 -0.088867165209955454 0 -0.030030797975730224 -0.088926822370618941 0 -0.028722965268875765 -0.089609773871333134 0 -0.02879755380968604 -0.088515400420375367 0 -0.027716358771204232 -0.089201149146668088 0 -0.028722965268875765 -0.089609773871333134 0 -0.02879755380968604 -0.088515400420375367 0 -0.030355914357094293 -0.089252135006426855 0 -0.033195759601027802 -0.090168970511231725 0 -0.0325326271732286 -0.087411906476519502 0 -0.033195759601027802 -0.090168970511231725 0 -0.0325326271732286 -0.087411906476519502 0 -0.034697340150989513 -0.088338714216789044 0 -0.034309610430867332 -0.084999564157705307 0 -0.0325326271732286 -0.087411906476519502 0 -0.034697340150989513 -0.088338714216789044 0 -0.029645531737922753 -0.085000156826510159 0 -0.034309610430867332 -0.084999564157705307 0 -0.0325326271732286 -0.087411906476519502 0 -0.034309610430867332 -0.084999564157705307 0 -0.037415612498409662 -0.088067131240008326 0 -0.038817440522098116 -0.084820072731439433 0 -0.034309610430867332 -0.084999564157705307 0 -0.034697340150989513 -0.088338714216789044 0 -0.037415612498409662 -0.088067131240008326 0 -0.032853201852864819 -0.089475668487963608 0 -0.034731773595765181 -0.087767955824419375 0 -0.036047273494825491 -0.091098717188566908 0 -0.034697340150989513 -0.088338714216789044 0 -0.037415612498409662 -0.088067131240008326 0 -0.036047273494825491 -0.091098717188566908 0 -0.033195759601027802 -0.090168970511231725 0 -0.034697340150989513 -0.088338714216789044 0 -0.035232103283878081 -0.090121752378949913 0 -0.036451387864527153 -0.08769189451384303 0 -0.036710562537136018 -0.089507795527755826 0 -0.036451387864527153 -0.08769189451384303 0 -0.038838177394126067 -0.086571135486955789 0 -0.039210235027717283 -0.089010366155604856 0 -0.036451387864527153 -0.08769189451384303 0 -0.039210235027717283 -0.089010366155604856 0 -0.036710562537136018 -0.089507795527755826 0 -0.036451387864527153 -0.08769189451384303 0 -0.038838177394126067 -0.086571135486955789 0 -0.038815406418145335 -0.084819378417882035 0 -0.034731773595765181 -0.087767955824419375 0 -0.035538801972084012 -0.086775868507646847 0 -0.038838177394126067 -0.086571135486955789 0 -0.038815406418145335 -0.084819378417882035 0 -0.040779969167082861 -0.086642036348067428 0 -0.043638192859842904 -0.084999241225037131 0 -0.038815406418145335 -0.084819378417882035 0 -0.040779969167082861 -0.086642036348067428 0 -0.038838177394126067 -0.086571135486955789 0 -0.040779969167082861 -0.086642036348067428 0 -0.039210235027717283 -0.089010366155604856 0 -0.043575310428705646 -0.088109566463169725 0 -0.040779969167082861 -0.086642036348067428 0 -0.039210235027717283 -0.089010366155604856 0 -0.042770844800092203 -0.09178675077249196 0 -0.039210235027717283 -0.089010366155604856 0 -0.039784202186459228 -0.093015068364366529 0 -0.039210235027717283 -0.089010366155604856 0 -0.03660537523174625 -0.090993777902550477 0 -0.039784202186459228 -0.093015068364366529 0 -0.035232103283878081 -0.090121752378949913 0 -0.036710562537136018 -0.089507795527755826 0 -0.03660537523174625 -0.090993777902550477 0 -0.032853201852864819 -0.089475668487963608 0 -0.034032460766673128 -0.089903843242595885 0 -0.039210235027717283 -0.089010366155604856 0 -0.036710562537136018 -0.089507795527755826 0 -0.03660537523174625 -0.090993777902550477 0 -0.030095508029855576 -0.089372391264066806 0 -0.031922178859361133 -0.091906990418848505 0 -0.03660537523174625 -0.090993777902550477 0 -0.031922178859361133 -0.091906990418848505 0 -0.03660537523174625 -0.090993777902550477 0 -0.037501569763006108 -0.09632434402356102 0 -0.029407299297029586 -0.088600201753102042 0 -0.029434663739416417 -0.087578904607447911 0 -0.030160574098813293 -0.094532870638419531 0 -0.031922178859361133 -0.091906990418848505 0 -0.037501569763006108 -0.09632434402356102 0 -0.03660537523174625 -0.090993777902550477 0 -0.039784202186459228 -0.093015068364366529 0 -0.037501569763006108 -0.09632434402356102 0 -0.042540667038715479 -0.096983053922544527 0 -0.039784202186459228 -0.093015068364366529 0 -0.037501569763006108 -0.09632434402356102 0 -0.0068756292461856165 -0.069617343366937506 0 -0.006361507486266035 -0.069526047231041679 0 -0.0066487679088013292 -0.069976903386009079 0 -0.0068756292461856165 -0.069617343366937506 0 -0.006361507486266035 -0.069526047231041679 0 -0.0066593384901628113 -0.069142853205923768 0 -0.0068756292461856165 -0.069617343366937506 0 -0.0073633040518472793 -0.069421258088438825 0 -0.007047372372981333 -0.069181478083335066 0 -0.006361507486266035 -0.069526047231041679 0 -0.0062371514337291444 -0.06998959701041757 0 -0.0059907703327415924 -0.069667555991521607 0 -0.006361507486266035 -0.069526047231041679 0 -0.0062371514337291444 -0.06998959701041757 0 -0.0066487679088013292 -0.069976903386009079 0 -0.0062371514337291444 -0.06998959701041757 0 -0.0066487679088013292 -0.069976903386009079 0 -0.0065755065876190715 -0.070435710854639288 0 -0.0062371514337291444 -0.06998959701041757 0 -0.0065755065876190715 -0.070435710854639288 0 -0.0062978564125168186 -0.070594657186580811 0 -0.0068756292461856165 -0.069617343366937506 0 -0.0066487679088013292 -0.069976903386009079 0 -0.0070611092458435949 -0.070155088799632462 0 -0.0066487679088013292 -0.069976903386009079 0 -0.0070611092458435949 -0.070155088799632462 0 -0.0065755065876190715 -0.070435710854639288 0 0.0027851570100354953 -0.069311371580684969 0 0.0015063260186978108 -0.07061165024988951 0 0.011169969192643165 -0.071267979788931665 0 0.011075361133254922 -0.072067168242085353 0 0.010235198808434195 -0.070511813035932375 0 -0.0066578399757507619 -0.069346378558868521 0 -0.0071841349062721016 -0.068318615823559525 0 -0.0070855694297209063 -0.069999372819183017 0 -0.0079918534152305272 -0.068023170990354806 0 -0.0071841349062721016 -0.068318615823559525 0 -0.0070855694297209063 -0.069999372819183017 0 0.010984768913327543 -0.070616433214417698 0 0.011169969192643165 -0.071267979788931665 0 0.010235198808434195 -0.070511813035932375 0 0.00087909226167519306 -0.082487156241059484 0 0.0057608639447996593 -0.07997888087721626 0 -0.0029085910639218447 -0.075577678935184606 0 -0.0024326245346189481 -0.074440809021514218 0 -0.00011208025574258775 -0.077573433557911409 0 0.010984768913327543 -0.070616433214417698 0 0.011169969192643165 -0.071267979788931665 0 0.011958523598952496 -0.071336117894375481 0 0.0033028887931714928 -0.075093094231265187 0 0.0057608639447996593 -0.07997888087721626 0 0.011169969192643165 -0.071267979788931665 0 0.011556084153373475 -0.071799110575908556 0 0.011958523598952496 -0.071336117894375481 0 0.011169969192643165 -0.071267979788931665 0 0.011556084153373475 -0.071799110575908556 0 0.011075361133254922 -0.072067168242085353 0 0.011556084153373475 -0.071799110575908556 0 0.011075361133254922 -0.072067168242085353 0 0.011595720004008513 -0.072330806427017849 0 0.011556084153373475 -0.071799110575908556 0 0.011595720004008513 -0.072330806427017849 0 0.011968434346530169 -0.072153180596100805 0 -0.0071089000143605705 -0.069023796875797877 0 -0.0077060216073443341 -0.066935101527482957 0 -0.0068756292461856165 -0.069617343366937506 0 -0.0070611092458435949 -0.070155088799632462 0 -0.0073633040518472793 -0.069421258088438825 0 -0.0066578399757507619 -0.069346378558868521 0 -0.0071841349062721016 -0.068318615823559525 0 -0.0069995558995900806 -0.067605882908532741 0 -0.0079918534152305272 -0.068023170990354806 0 -0.0071841349062721016 -0.068318615823559525 0 -0.0068298776670167186 -0.067443386481690584 0 -0.007701765528575313 -0.067053569146707348 0 -0.0077060216073443341 -0.066935101527482957 0 -0.0077060216073443341 -0.066935101527482957 0 -0.0083646739491767541 -0.064613466185146434 0 -0.0065232361757696375 -0.067069979130057994 0 -0.0061121563161242939 -0.065182789916933812 0 -0.0072580228852810805 -0.064439865950196101 0 -0.0073633040518472793 -0.069421258088438825 0 -0.0072780446990048063 -0.068808505560540592 0 -0.007047372372981333 -0.069181478083335066 0 -0.0068298776670167186 -0.067443386481690584 0 -0.0079576727417361576 -0.066131785348945399 0 -0.0073508972733602688 -0.064707988048911841 0 -0.0077060216073443341 -0.066935101527482957 0 -0.0078175819274415633 -0.064858189762520058 0 -0.0079918534152305272 -0.068023170990354806 0 -0.0068298776670167186 -0.067443386481690584 0 -0.0079576727417361576 -0.066131785348945399 0 0.011075361133254922 -0.072067168242085353 0 0.011595720004008513 -0.072330806427017849 0 0.011928171084526429 -0.073357196383954534 0 -0.0079918534152305272 -0.068023170990354806 0 -0.0079576727417361576 -0.066131785348945399 0 -0.0093657251576704167 -0.065146498022941798 0 0.0027851570100354953 -0.069311371580684969 0 0.0050523040038586275 -0.067569873031772948 0 0.011595720004008513 -0.072330806427017849 0 0.011928171084526429 -0.073357196383954534 0 0.01188879986253452 -0.072605775923414426 0 -0.0079576727417361576 -0.066131785348945399 0 -0.0083921001038462593 -0.06492896074718553 0 -0.0093657251576704167 -0.065146498022941798 0 -0.0079576727417361576 -0.066131785348945399 0 -0.0083921001038462593 -0.06492896074718553 0 -0.0073508972733602688 -0.064707988048911841 0 -0.0083921001038462593 -0.06492896074718553 0 -0.0083153260427973486 -0.064341734890595387 0 -0.0073508972733602688 -0.064707988048911841 0 -0.0084263190492041718 -0.06345320517948122 0 -0.0083153260427973486 -0.064341734890595387 0 -0.0073508972733602688 -0.064707988048911841 0 -0.0090929713505602042 -0.063691370062638863 0 -0.0083921001038462593 -0.06492896074718553 0 -0.0093657251576704167 -0.065146498022941798 0 -0.0090929713505602042 -0.063691370062638863 0 -0.0083921001038462593 -0.06492896074718553 0 -0.0083153260427973486 -0.064341734890595387 0 -0.0090929713505602042 -0.063691370062638863 0 -0.0084263190492041718 -0.06345320517948122 0 -0.0083153260427973486 -0.064341734890595387 0 -0.0057018488965220404 -0.063280740342135072 0 -0.0061121563161242939 -0.065182789916933812 0 -0.0066147825544438411 -0.064098824029658136 0 -0.0090691608407303028 -0.059780330629306482 0 -0.0083646739491767541 -0.064613466185146434 0 -0.0061121563161242939 -0.065182789916933812 0 -0.0072580228852810805 -0.064439865950196101 0 -0.0066147825544438411 -0.064098824029658136 0 -0.0065095680950826972 -0.063424719451495512 0 -0.0072580228852810805 -0.064439865950196101 0 -0.0066147825544438411 -0.064098824029658136 0 -0.0056174983417076226 -0.063253993299497061 0 -0.0065095680950826972 -0.063424719451495512 0 -0.0066147825544438411 -0.064098824029658136 0 -0.0090691608407303028 -0.059780330629306482 0 -0.0089861149094481885 -0.060033044153884683 0 -0.0069098797971861078 -0.068620854955105212 0 -0.0066593384901628113 -0.069142853205923768 0 -0.0064908313348940698 -0.068505143959879486 0 -0.0067297549631356477 -0.06823366963803626 0 -0.0071703957972327724 -0.068193739083753202 0 -0.0069098797971861078 -0.068620854955105212 0 -0.0071703957972327724 -0.068193739083753202 0 -0.0072780446990048063 -0.068808505560540592 0 -0.0069098797971861078 -0.068620854955105212 0 -0.0067297549631356477 -0.06823366963803626 0 -0.0069098797971861078 -0.068620854955105212 0 -0.0064908313348940698 -0.068505143959879486 0 -0.0069098797971861078 -0.068620854955105212 0 -0.0066593384901628113 -0.069142853205923768 0 -0.007047372372981333 -0.069181478083335066 0 -0.0072780446990048063 -0.068808505560540592 0 -0.0069098797971861078 -0.068620854955105212 0 -0.007047372372981333 -0.069181478083335066 0 -0.0068756292461856165 -0.069617343366937506 0 -0.0066593384901628113 -0.069142853205923768 0 -0.007047372372981333 -0.069181478083335066 0 -0.0066593384901628113 -0.069142853205923768 0 -0.0062076806654397894 -0.069068095395711876 0 -0.0064908313348940698 -0.068505143959879486 0 -0.006361507486266035 -0.069526047231041679 0 -0.0062076806654397894 -0.069068095395711876 0 -0.006034050149775756 -0.069378163721103628 0 -0.006361507486266035 -0.069526047231041679 0 -0.0066593384901628113 -0.069142853205923768 0 -0.0062076806654397894 -0.069068095395711876 0 -0.0063504974253496931 -0.068060836664999236 0 -0.0064908313348940698 -0.068505143959879486 0 -0.0060573783908546928 -0.068399717637974075 0 -0.0064908313348940698 -0.068505143959879486 0 -0.0060573783908546928 -0.068399717637974075 0 -0.005857677899691687 -0.068776817200666363 0 -0.014368589002898679 -0.053807033120024481 0 -0.011648877851249914 -0.065882979448421031 0 -0.0062076806654397894 -0.069068095395711876 0 -0.0064908313348940698 -0.068505143959879486 0 -0.0057732404600907474 -0.068968660758834371 0 -0.0084707128626969018 -0.067482647723578024 0 -0.011648877851249914 -0.065882979448421031 0 -0.0057352204466699416 -0.068058914011552174 0 -0.0060573783908546928 -0.068399717637974075 0 -0.005857677899691687 -0.068776817200666363 0 -0.018256981458275208 -0.063931038858096589 0 -0.018542863993166261 -0.065845006254870525 0 -0.01662643331879856 -0.065656243173019574 0 -0.014368589002898679 -0.053807033120024481 0 -0.020505190769057588 -0.0560186977393171 0 -0.019951146153670257 -0.034530383877611551 0 -0.019591201519715454 -0.034591102993696603 0 -0.019948243638746959 -0.034387171161035582 0 -0.018542863993166261 -0.065845006254870525 0 -0.01662643331879856 -0.065656243173019574 0 -0.016635240938571234 -0.066055666503072902 0 -0.011648877851249914 -0.065882979448421031 0 -0.013490429631469276 -0.06987797961014465 0 -0.018542863993166261 -0.065845006254870525 0 -0.016635240938571234 -0.066055666503072902 0 -0.016961760472865642 -0.066670831627854088 0 -0.0055897708003153903 -0.069341542656947322 0 -0.0058056543210929295 -0.069042702948972176 0 -0.0053062525135181612 -0.069308614919886186 0 -0.0055897708003153903 -0.069341542656947322 0 -0.0058190365568774839 -0.069187077079648399 0 -0.0058122775436220174 -0.069441626935699649 0 -0.0058190365568774839 -0.069187077079648399 0 -0.006034050149775756 -0.069378163721103628 0 -0.0058122775436220174 -0.069441626935699649 0 -0.0062076806654397894 -0.069068095395711876 0 -0.0058190365568774839 -0.069187077079648399 0 -0.006034050149775756 -0.069378163721103628 0 -0.0062076806654397894 -0.069068095395711876 0 -0.0058190365568774839 -0.069187077079648399 0 -0.0057732404600907474 -0.068968660758834371 0 -0.0055897708003153903 -0.069341542656947322 0 -0.0058190365568774839 -0.069187077079648399 0 -0.0058056543210929295 -0.069042702948972176 0 -0.011576325426585488 -0.066030592004804795 0 -0.011648877851249914 -0.065882979448421031 0 -0.020201354146834126 -0.03454671193390052 0 -0.020336871130302695 -0.03447471350072423 0 -0.020185113342034249 -0.034401406200326008 0 -0.019951146153670257 -0.034530383877611551 0 -0.020201354146834126 -0.03454671193390052 0 -0.020185113342034249 -0.034401406200326008 0 -0.019951146153670257 -0.034530383877611551 0 -0.020185113342034249 -0.034401406200326008 0 -0.019948243638746959 -0.034387171161035582 0 -0.016635240938571234 -0.066055666503072902 0 -0.016961760472865642 -0.066670831627854088 0 -0.015335102703216889 -0.067531991826735444 0 -0.01662643331879856 -0.065656243173019574 0 -0.016635240938571234 -0.066055666503072902 0 -0.015102185904474713 -0.067339990216712081 0 -0.019019780381077739 -0.071194430547837306 0 -0.018587415260021164 -0.073606887367899609 0 -0.020347180130598077 -0.034371181381195957 0 -0.020185113342034249 -0.034401406200326008 0 -0.020217452689991075 -0.034268638230759575 0 -0.020505190769057588 -0.0560186977393171 0 -0.019700813441148556 -0.07189343647480699 0 -0.020185113342034249 -0.034401406200326008 0 -0.019948243638746959 -0.034387171161035582 0 -0.020217452689991075 -0.034268638230759575 0 -0.016635240938571234 -0.066055666503072902 0 -0.015102185904474713 -0.067339990216712081 0 -0.015463639170133502 -0.067460546624610804 0 -0.022137572644361746 -0.075199558674570149 0 -0.019409158191274176 -0.077953171754707382 0 -0.018387900494638759 -0.076688631399807042 0 -0.0202718480298116 -0.075898123601098058 0 -0.019700813441148556 -0.07189343647480699 0 -0.0202718480298116 -0.075898123601098058 0 -0.019418950331709418 -0.074538689601953881 0 -0.015102185904474713 -0.067339990216712081 0 -0.015463639170133502 -0.067460546624610804 0 -0.015326718373854565 -0.067614477641693677 0 -0.019700813441148556 -0.07189343647480699 0 -0.019418950331709418 -0.074538689601953881 0 -0.018587415260021164 -0.073606887367899609 0 -0.019418950331709418 -0.074538689601953881 0 -0.0042971365431825328 -0.069689906565324228 0 -0.0041493166129799404 -0.069822515989022532 0 -0.0049292780587797142 -0.069798844615560421 0 -0.013490429631469276 -0.06987797961014465 0 -0.018587415260021164 -0.073606887367899609 0 -0.0041493166129799404 -0.069822515989022532 0 -0.0049292780587797142 -0.069798844615560421 0 -0.0049510727821655276 -0.071183556915467752 0 -0.0053062525135181612 -0.069308614919886186 0 -0.0042971365431825328 -0.069689906565324228 0 -0.0049292780587797142 -0.069798844615560421 0 -0.0049292780587797142 -0.069798844615560421 0 -0.0053798238284766993 -0.069680319154077505 0 -0.0054728174407931169 -0.070151481504374655 0 -0.0053062525135181612 -0.069308614919886186 0 -0.0049292780587797142 -0.069798844615560421 0 -0.0053798238284766993 -0.069680319154077505 0 -0.0049510727821655276 -0.071183556915467752 0 -0.0065678097264766531 -0.071175690531579683 0 -0.0061486741911025294 -0.072797317679706958 0 -0.0049292780587797142 -0.069798844615560421 0 -0.0049510727821655276 -0.071183556915467752 0 -0.0065678097264766531 -0.071175690531579683 0 -0.0052556097985991812 -0.071538886627368375 0 -0.0059222592835760663 -0.072496982006823224 0 -0.021326604703199793 -0.094090179202904883 0 -0.019882545554235648 -0.092344203530260946 0 -0.021536525016781591 -0.092233891252412437 0 -0.019418950331709418 -0.074538689601953881 0 -0.015993066095392815 -0.078312173209184877 0 -0.023301639135543988 -0.091987943923755533 0 -0.021326604703199793 -0.094090179202904883 0 -0.021536525016781591 -0.092233891252412437 0 -0.019882545554235648 -0.092344203530260946 0 -0.021536525016781591 -0.092233891252412437 0 -0.020908919941925681 -0.091283356461019718 0 -0.021536525016781591 -0.092233891252412437 0 -0.022112314513322729 -0.09119813995775311 0 -0.020908919941925681 -0.091283356461019718 0 -0.0059907703327415924 -0.069667555991521607 0 -0.0056677567226407861 -0.069713923139913495 0 -0.0058475468170354926 -0.070021155739294502 0 -0.0062371514337291444 -0.06998959701041757 0 -0.0059907703327415924 -0.069667555991521607 0 -0.0058475468170354926 -0.070021155739294502 0 -0.006361507486266035 -0.069526047231041679 0 -0.006034050149775756 -0.069378163721103628 0 -0.0059907703327415924 -0.069667555991521607 0 -0.006034050149775756 -0.069378163721103628 0 -0.0059907703327415924 -0.069667555991521607 0 -0.0058122775436220174 -0.069441626935699649 0 -0.0059907703327415924 -0.069667555991521607 0 -0.0058122775436220174 -0.069441626935699649 0 -0.0056677567226407861 -0.069713923139913495 0 -0.0053798238284766993 -0.069680319154077505 0 -0.0056677567226407861 -0.069713923139913495 0 -0.0054728174407931169 -0.070151481504374655 0 -0.0055897708003153903 -0.069341542656947322 0 -0.0053798238284766993 -0.069680319154077505 0 -0.0056677567226407861 -0.069713923139913495 0 -0.0055897708003153903 -0.069341542656947322 0 -0.0058122775436220174 -0.069441626935699649 0 -0.0056677567226407861 -0.069713923139913495 0 -0.0055897708003153903 -0.069341542656947322 0 -0.0053062525135181612 -0.069308614919886186 0 -0.0053798238284766993 -0.069680319154077505 0 -0.0056677567226407861 -0.069713923139913495 0 -0.0054728174407931169 -0.070151481504374655 0 -0.0058475468170354926 -0.070021155739294502 0 -0.0084560909413573231 -0.073352797231807584 0 -0.0081656899893189396 -0.075786790508885649 0 -0.0054728174407931169 -0.070151481504374655 0 -0.0058475468170354926 -0.070021155739294502 0 -0.0059356345679063274 -0.070578423880272745 0 -0.0062371514337291444 -0.06998959701041757 0 -0.0058475468170354926 -0.070021155739294502 0 -0.0059356345679063274 -0.070578423880272745 0 -0.0081656899893189396 -0.075786790508885649 0 -0.0070094338480226346 -0.078603529371936778 0 -0.008310988859443617 -0.072776773131217123 0 -0.0061486741911025294 -0.072797317679706958 0 -0.0074402345801033174 -0.07442561261942332 0 -0.0059222592835760663 -0.072496982006823224 0 -0.0081656899893189396 -0.075786790508885649 0 -0.0065678097264766531 -0.071175690531579683 0 -0.008310988859443617 -0.072776773131217123 0 -0.0061486741911025294 -0.072797317679706958 0 -0.018402206137620527 -0.090566284686162762 0 -0.018359737784750266 -0.088260211078743517 0 -0.016923818292687253 -0.088758081369507011 0 -0.013352669814296036 -0.080364020234433897 0 -0.010780058715197053 -0.081594767351710756 0 -0.018359737784750266 -0.088260211078743517 0 -0.016923818292687253 -0.088758081369507011 0 -0.017858565026673701 -0.087019953843777226 0 -0.0087960782414743376 -0.081791198026120476 0 -0.0088960492449105845 -0.081615428343329341 0 -0.0086327245079909284 -0.081650940832688854 0 -0.0088960492449105845 -0.081615428343329341 0 -0.0087746573346131913 -0.081470698189967175 0 -0.0086327245079909284 -0.081650940832688854 0 -0.010780058715197053 -0.081594767351710756 0 -0.010609065077969024 -0.082890210641057505 0 -0.0081656899893189396 -0.075786790508885649 0 -0.010780058715197053 -0.081594767351710756 0 -0.021613258108519415 -0.090162249629267152 0 -0.022112314513322729 -0.09119813995775311 0 -0.020908919941925681 -0.091283356461019718 0 -0.021613258108519415 -0.090162249629267152 0 -0.020908919941925681 -0.091283356461019718 0 -0.019916295703393403 -0.090230645066922383 0 -0.015993066095392815 -0.078312173209184877 0 -0.013352669814296036 -0.080364020234433897 0 -0.019882545554235648 -0.092344203530260946 0 -0.018402206137620527 -0.090566284686162762 0 -0.019916295703393403 -0.090230645066922383 0 -0.019882545554235648 -0.092344203530260946 0 -0.020908919941925681 -0.091283356461019718 0 -0.019916295703393403 -0.090230645066922383 0 -0.018402206137620527 -0.090566284686162762 0 -0.019916295703393403 -0.090230645066922383 0 -0.019581502009430551 -0.088821345958897915 0 -0.018402206137620527 -0.090566284686162762 0 -0.018359737784750266 -0.088260211078743517 0 -0.019581502009430551 -0.088821345958897915 0 -0.018359737784750266 -0.088260211078743517 0 -0.019581502009430551 -0.088821345958897915 0 -0.019170357771666174 -0.087715602668182832 0 -0.019581502009430551 -0.088821345958897915 0 -0.020938994518129146 -0.088760407750008555 0 -0.020076655725603437 -0.087343863380896336 0 -0.019916295703393403 -0.090230645066922383 0 -0.019581502009430551 -0.088821345958897915 0 -0.020938994518129146 -0.088760407750008555 0 -0.022343888521542288 -0.089167381593842104 0 -0.020938994518129146 -0.088760407750008555 0 -0.02185313705954145 -0.086975785978497186 0 -0.021613258108519415 -0.090162249629267152 0 -0.019916295703393403 -0.090230645066922383 0 -0.020938994518129146 -0.088760407750008555 0 -0.022343888521542288 -0.089167381593842104 0 -0.021613258108519415 -0.090162249629267152 0 -0.020938994518129146 -0.088760407750008555 0 -0.02185313705954145 -0.086975785978497186 0 -0.020076655725603437 -0.087343863380896336 0 -0.019463238227689292 -0.08589722483409036 0 -0.020938994518129146 -0.088760407750008555 0 -0.02185313705954145 -0.086975785978497186 0 -0.020076655725603437 -0.087343863380896336 0 -0.020076655725603437 -0.087343863380896336 0 -0.01931700552453338 -0.086975505371246764 0 -0.019463238227689292 -0.08589722483409036 0 -0.019581502009430551 -0.088821345958897915 0 -0.020076655725603437 -0.087343863380896336 0 -0.019170357771666174 -0.087715602668182832 0 -0.018359737784750266 -0.088260211078743517 0 -0.019170357771666174 -0.087715602668182832 0 -0.018557873563505366 -0.086943301590016273 0 -0.020076655725603437 -0.087343863380896336 0 -0.019170357771666174 -0.087715602668182832 0 -0.01931700552453338 -0.086975505371246764 0 -0.019170357771666174 -0.087715602668182832 0 -0.01931700552453338 -0.086975505371246764 0 -0.018557873563505366 -0.086943301590016273 0 -0.01931700552453338 -0.086975505371246764 0 -0.019463238227689292 -0.08589722483409036 0 -0.018557873563505366 -0.086943301590016273 0 -0.019463238227689292 -0.08589722483409036 0 -0.018557873563505366 -0.086943301590016273 0 -0.017851962148625153 -0.087022006696441043 0 -0.02185313705954145 -0.086975785978497186 0 -0.019463238227689292 -0.08589722483409036 0 -0.019582251455516942 -0.084516091498367807 0 -0.019463238227689292 -0.08589722483409036 0 -0.019182811032516303 -0.084539101987383347 0 -0.017851962148625153 -0.087022006696441043 0 -0.019463238227689292 -0.08589722483409036 0 -0.019182811032516303 -0.084539101987383347 0 -0.019582251455516942 -0.084516091498367807 0 -0.016912316028765754 -0.084999333743437058 0 -0.016831835529785233 -0.085148852617950091 0 -0.017352705275771589 -0.084765717786417671 0 -0.016649835289699336 -0.084843459193480478 0 -0.017290924746945258 -0.084989712387359154 0 -0.016904746723741742 -0.084995917459230935 0 -0.016649835289699336 -0.084843459193480478 0 -0.021503464208188001 -0.084999274526563751 0 -0.021158557218612789 -0.088179928586084561 0 -0.017353451108909731 -0.084765914503797848 0 -0.020516200615563616 -0.087388312667654983 0 -0.017290924746945258 -0.084989712387359154 0 -0.011116813429932756 -0.084982503356482775 0 -0.012547310121080036 -0.084822436073793722 0 -0.011684918123155974 -0.084226457886485445 0 -0.010609065077969024 -0.082890210641057505 0 -0.012982246505747521 -0.083379697253029975 0 -0.010819952625433785 -0.084616372025936915 0 -0.011684918123155974 -0.084226457886485445 0 -0.010774676958685165 -0.083984974922797315 0 -0.010819952625433785 -0.084616372025936915 0 -0.011116813429932756 -0.084982503356482775 0 -0.011684918123155974 -0.084226457886485445 0 -0.010657567749969595 -0.082972039822696006 0 -0.010609065077969024 -0.082890210641057505 0 -0.010780058715197053 -0.081594767351710756 0 -0.012982246505747521 -0.083379697253029975 0 -0.011489523872277441 -0.083541870097159701 0 -0.011389611288066091 -0.083420651189237791 0 -0.011568489213173458 -0.083400761060311843 0 -0.018359737784750266 -0.088260211078743517 0 -0.018557873563505366 -0.086943301590016273 0 -0.017858565026673701 -0.087019953843777226 0 -0.01326805476851012 -0.083409083656268493 0 -0.012982246505747521 -0.083379697253029975 0 -0.0134346135003142 -0.083186374590767734 0 -0.011670628972784354 -0.0832826900563165 0 -0.011684918123155974 -0.084226457886485445 0 -0.016911959807771167 -0.084999995654545996 0 -0.016768098933661598 -0.085267460282691901 0 -0.013265164356048534 -0.08499999697610236 0 -0.016649835289699336 -0.084843459193480478 0 -0.012664027148934904 -0.084752530056537698 0 -0.016768098933661598 -0.085267460282691901 0 -0.013265164356048534 -0.08499999697610236 0 -0.012876205011306248 -0.085487351070061876 0 -0.0134346135003142 -0.083186374590767734 0 -0.012547310121080036 -0.084822436073793722 0 -0.011684918123155974 -0.084226457886485445 0 -0.016649835289699336 -0.084843459193480478 0 -0.012982246505747521 -0.083379697253029975 0 -0.013265164356048534 -0.08499999697610236 0 -0.012876205011306248 -0.085487351070061876 0 -0.0096183761913649322 -0.084999993087830919 0 -0.012664027148934904 -0.084752530056537698 0 -0.0095507464640682133 -0.08478837698583111 0 -0.011670628972784354 -0.0832826900563165 0 -0.010774676958685165 -0.083984974922797315 0 -0.0099085794635457823 -0.083381129016936242 0 -0.011670628972784354 -0.0832826900563165 0 -0.011684918123155974 -0.084226457886485445 0 -0.010774676958685165 -0.083984974922797315 0 -0.012876205011306248 -0.085487351070061876 0 -0.0096183761913649322 -0.084999993087830919 0 -0.0089847526424416992 -0.08570678424227765 0 -0.0099085794635457823 -0.083381129016936242 0 -0.0086470403379413623 -0.084783594185637995 0 -0.0097911204918328144 -0.084417886719471605 0 -0.0096174074788018173 -0.084998542390272255 0 -0.0095507464640682133 -0.08478837698583111 0 -0.0096181655480439641 -0.085000041397811824 0 -0.0091053843981480816 -0.084999949523281715 0 -0.0090070721653571512 -0.085579676312984118 0 -0.010774676958685165 -0.083984974922797315 0 -0.0099085794635457823 -0.083381129016936242 0 -0.0097911204918328144 -0.084417886719471605 0 -0.0091053843981480816 -0.084999949523281715 0 -0.0090070721653571512 -0.085579676312984118 0 -0.0054974744165975946 -0.086926363975001641 0 -0.0090070721653571512 -0.085579676312984118 0 -0.0067530377410483129 -0.088086881371779724 0 -0.0054974744165975946 -0.086926363975001641 0 -0.0091015822311867785 -0.085000162924235789 0 -0.0057422818976884584 -0.085608017136160452 0 -0.0091051706417051882 -0.085000004106660212 0 -0.0046332389836737289 -0.087369103593072206 0 -0.0042774160472112011 -0.084999976847902017 0 -0.0095507464640682133 -0.08478837698583111 0 -0.0064818746899415001 -0.084387782634022468 0 -0.0064818746899415001 -0.084387782634022468 0 -0.0057422818976884584 -0.085608017136160452 0 -0.0086470403379413623 -0.084783594185637995 0 -0.0091053269440567845 -0.08520722696928125 0 -0.0097911204918328144 -0.084417886719471605 0 -0.0064818746899415001 -0.084387782634022468 0 -0.0068107209191709097 -0.083158429920248383 0 -0.0064772391104684652 -0.083092686282676034 0 -0.0064967707394855577 -0.083109270846009414 0 -0.0064560914589273394 -0.083115368531979442 0 -0.0066361162255446091 -0.070962687540979189 0 -0.0065094447633309927 -0.071098095446268314 0 -0.0058302407800532889 -0.070637258842192394 0 -0.0068107209191709097 -0.083158429920248383 0 -0.0052999290650875821 -0.084380859813223116 0 -0.0064818746899415001 -0.084387782634022468 0 -0.0052999290650875821 -0.084380859813223116 0 -0.0057910170787195559 -0.085763791388849181 0 -0.0050743605089749212 -0.086565304649610847 0 -0.0048985040368794879 -0.085768350046115827 0 -0.010819952625433785 -0.084616372025936915 0 -0.011114255008132887 -0.084979363571902652 0 -0.0091053269440567845 -0.08520722696928125 0 -0.010819952625433785 -0.084616372025936915 0 -0.0091053269440567845 -0.08520722696928125 0 -0.0097911204918328144 -0.084417886719471605 0 -0.010609065077969024 -0.082890210641057505 0 -0.0068107209191709097 -0.083158429920248383 0 -0.010819952625433785 -0.084616372025936915 0 -0.010774676958685165 -0.083984974922797315 0 -0.0097911204918328144 -0.084417886719471605 0 -0.0087746573346131913 -0.081470698189967175 0 -0.0084685773743683086 -0.081509522897379005 0 -0.0086327245079909284 -0.081650940832688854 0 -0.006314231437997548 -0.070926137674536191 0 -0.00649575117809647 -0.070900589822141355 0 -0.0062978564125168186 -0.070594657186580811 0 -0.0066361162255446091 -0.070962687540979189 0 -0.006314231437997548 -0.070926137674536191 0 -0.00649575117809647 -0.070900589822141355 0 -0.0068107209191709097 -0.083158429920248383 0 -0.0070094338480226346 -0.078603529371936778 0 -0.00015136715589108042 -0.070512675931485552 0 0.0011190329478887487 -0.071220338749453507 0 -0.0065094447633309927 -0.071098095446268314 0 -0.0066571316045815768 -0.07074767259541688 0 -0.0069460114393757651 -0.070575465358443737 0 -0.0065094447633309927 -0.071098095446268314 0 -0.0055735649340440336 -0.073643743031821404 0 -0.0056165550902231931 -0.071658881111983638 0 -0.0066361162255446091 -0.070962687540979189 0 -0.0065094447633309927 -0.071098095446268314 0 -0.00649575117809647 -0.070900589822141355 0 -0.0065094447633309927 -0.071098095446268314 0 -0.0056165550902231931 -0.071658881111983638 0 -0.0058302407800532889 -0.070637258842192394 0 -0.0065094447633309927 -0.071098095446268314 0 -0.00649575117809647 -0.070900589822141355 0 -0.0066571316045815768 -0.07074767259541688 0 -0.0071089000143605705 -0.069023796875797877 0 -0.0069220811192746041 -0.069698414378915413 0 -0.00649575117809647 -0.070900589822141355 0 -0.0066571316045815768 -0.07074767259541688 0 -0.0065755065876190715 -0.070435710854639288 0 -0.0070611092458435949 -0.070155088799632462 0 -0.0066571316045815768 -0.07074767259541688 0 -0.0065755065876190715 -0.070435710854639288 0 -0.00649575117809647 -0.070900589822141355 0 -0.0065755065876190715 -0.070435710854639288 0 -0.0062978564125168186 -0.070594657186580811 0 -0.0062371514337291444 -0.06998959701041757 0 -0.0059166147399239482 -0.070612406526409058 0 -0.0062978564125168186 -0.070594657186580811 0 -0.0059166147399239482 -0.070612406526409058 0 -0.006314231437997548 -0.070926137674536191 0 -0.0062978564125168186 -0.070594657186580811 0 -7.0459620929836164e-05 -0.093817874733158918 0 0.0014546348166921575 -0.092099063169093207 0 0.0025398207459947468 -0.09335870391589686 0 -7.0459620929836164e-05 -0.093817874733158918 0 -0.0013101463631564351 -0.091905753111083469 0 -4.3644056543432123e-06 -0.092017980251553513 0 -7.0459620929836164e-05 -0.093817874733158918 0 -4.3644056543432123e-06 -0.092017980251553513 0 0.0014546348166921575 -0.092099063169093207 0 -0.0029085910639218447 -0.075577678935184606 0 -0.0024326245346189481 -0.074440809021514218 0 -0.0055735649340440336 -0.073643743031821404 0 -0.0066578399757507619 -0.069346378558868521 0 -0.0066571316045815768 -0.07074767259541688 0 -0.0070855694297209063 -0.069999372819183017 0 -0.0024326245346189481 -0.074440809021514218 0 -0.0055735649340440336 -0.073643743031821404 0 -0.0046406767456653088 -0.071545783503017393 0 0.0033028887931714928 -0.075093094231265187 0 0.0011190329478887487 -0.071220338749453507 0 0.010984768913327543 -0.070616433214417698 0 0.010235198808434195 -0.070511813035932375 0 0.0099294933758442786 -0.069905898264808641 0 0.0015063260186978108 -0.07061165024988951 0 0.0011190329478887487 -0.071220338749453507 0 -0.0066571316045815768 -0.07074767259541688 0 -0.0070855694297209063 -0.069999372819183017 0 -0.0069460114393757651 -0.070575465358443737 0 0.00087909226167519306 -0.082487156241059484 0 -0.0032015410712456106 -0.084081722605836698 0 -0.0020638736208631555 -0.091076248485429556 0 -9.3560541781144204e-05 -0.090243268860339135 0 -0.0031298385126876721 -0.089872734194908627 0 -7.0459620929836164e-05 -0.093817874733158918 0 -0.0013101463631564351 -0.091905753111083469 0 -0.0020703618732782693 -0.091077603663653195 0 -0.0028842567320607453 -0.084559710974774355 0 -0.0032015410712456106 -0.084081722605836698 0 -0.0055735649340440336 -0.073643743031821404 0 -0.0056165550902231931 -0.071658881111983638 0 -0.0046406767456653088 -0.071545783503017393 0 -0.0032015410712456106 -0.084081722605836698 0 -0.0052999290650875821 -0.084380859813223116 0 -0.0056165550902231931 -0.071658881111983638 0 -0.0046406767456653088 -0.071545783503017393 0 -0.0058302407800532889 -0.070637258842192394 0 -0.0013101463631564351 -0.091905753111083469 0 -0.0020638736208631555 -0.091076248485429556 0 -9.3560541781144204e-05 -0.090243268860339135 0 -0.0013101463631564351 -0.091905753111083469 0 -9.3560541781144204e-05 -0.090243268860339135 0 -4.3644056543432123e-06 -0.092017980251553513 0 -9.3560541781144204e-05 -0.090243268860339135 0 -4.3644056543432123e-06 -0.092017980251553513 0 0.0014546348166921575 -0.092099063169093207 0 -0.0027245551773807278 -0.086839389440207984 0 -0.0025528802996513849 -0.085943364403916062 0 -0.00036069020562518863 -0.087113855805933241 0 -0.0027245551773807278 -0.086839389440207984 0 -0.0025528802996513849 -0.085943364403916062 0 -0.0039946558482901653 -0.085961416949058511 0 -0.0014195586290158952 -0.089043468383632737 0 -0.0017600070670340108 -0.086806529569750435 0 0.00036304669009039868 -0.088204359804932631 0 -0.0025528802996513849 -0.085943364403916062 0 -0.0039946558482901653 -0.085961416949058511 0 -0.0047326938182185333 -0.084782857348488255 0 -0.0022413857676417352 -0.087160915069537534 0 -0.0057422818976884584 -0.085608017136160452 0 -0.0027245551773807278 -0.086839389440207984 0 -0.0050743605089749212 -0.086565304649610847 0 -0.0039946558482901653 -0.085961416949058511 0 -0.0014195586290158952 -0.089043468383632737 0 -0.0046307459979300939 -0.087367559161415254 0 -0.004015433338563917 -0.086798580100427528 0 -0.001830890902894245 -0.086719325781128384 0 -0.0052999290650875821 -0.084380859813223116 0 -0.0050743605089749212 -0.086565304649610847 0 -0.0039946558482901653 -0.085961416949058511 0 -0.0048985040368794879 -0.085768350046115827 0 -0.0039946558482901653 -0.085961416949058511 0 -0.0048985040368794879 -0.085768350046115827 0 -0.0047326938182185333 -0.084782857348488255 0 -0.0057910170787195559 -0.085763791388849181 0 -0.0048985040368794879 -0.085768350046115827 0 -0.0047326938182185333 -0.084782857348488255 0 -0.0046332389836737289 -0.087369103593072206 0 -0.004015433338563917 -0.086798580100427528 0 -0.0042774160472112011 -0.084999976847902017 0 -0.0057422818976884584 -0.085608017136160452 0 -0.0057238455613087755 -0.085617968006537468 0 -0.004015433338563917 -0.086798580100427528 0 -0.0042774160472112011 -0.084999976847902017 0 -0.0017600070670340108 -0.086806529569750435 0 -0.0017600070670340108 -0.086806529569750435 0 0.00055039254479660499 -0.084999941904804616 0 0.00036304669009039868 -0.088204359804932631 0 -0.0042774160472112011 -0.084999976847902017 0 -0.0017600070670340108 -0.086806529569750435 0 0.00055039254479660499 -0.084999941904804616 0 -0.0014195586290158952 -0.089043468383632737 0 -0.004015433338563917 -0.086798580100427528 0 -0.0017600070670340108 -0.086806529569750435 0 0.00055039254479660499 -0.084999941904804616 0 0.0025389142875571536 -0.087329534512396265 0 0.00036304669009039868 -0.088204359804932631 0 0.0025389142875571536 -0.087329534512396265 0 0.004453129607988408 -0.089072753012927594 0 0.0053782370701239944 -0.084999931360303815 0 0.00055039254479660499 -0.084999941904804616 0 0.0025389142875571536 -0.087329534512396265 0 0.0053782370701239944 -0.084999931360303815 0 0.0025389142875571536 -0.087329534512396265 0 0.004453129607988408 -0.089072753012927594 0 0.0023931297585268532 -0.089327873445263467 0 0.004453129607988408 -0.089072753012927594 0 0.0031841870600231052 -0.090049961338885848 0 0.0023931297585268532 -0.089327873445263467 0 -0.0014195586290158952 -0.089043468383632737 0 0.00036304669009039868 -0.088204359804932631 0 0.0018406136954651489 -0.090700003850885377 0 0.0023931297585268532 -0.089327873445263467 0 0.00036304669009039868 -0.088204359804932631 0 0.0018406136954651489 -0.090700003850885377 0 0.0031841870600231052 -0.090049961338885848 0 0.0023931297585268532 -0.089327873445263467 0 0.0018406136954651489 -0.090700003850885377 0 -0.0022413857676417352 -0.087160915069537534 0 0.00066726100799398714 -0.088323597337487778 0 0.0025389142875571536 -0.087329534512396265 0 0.0023931297585268532 -0.089327873445263467 0 0.00036304669009039868 -0.088204359804932631 0 0.010205802727552723 -0.084999992690260651 0 0.0075562949832923658 -0.088623925752327901 0 0.010815001128430085 -0.088222078688727473 0 0.004453129607988408 -0.089072753012927594 0 0.0053782370701239944 -0.084999931360303815 0 0.0075562949832923658 -0.088623925752327901 0 0.010205802727552723 -0.084999992690260651 0 0.0053782370701239944 -0.084999931360303815 0 0.0075562949832923658 -0.088623925752327901 0 0.004453129607988408 -0.089072753012927594 0 0.0075562949832923658 -0.088623925752327901 0 0.0064281297595551387 -0.090852641007344276 0 0.0075562949832923658 -0.088623925752327901 0 0.0085528059462608701 -0.091360315952432103 0 0.010815001128430085 -0.088222078688727473 0 0.0085528059462608701 -0.091360315952432103 0 0.01088055744381339 -0.091400413029064778 0 0.010815001128430085 -0.088222078688727473 0 0.0085528059462608701 -0.091360315952432103 0 0.0080511427042402606 -0.094053858495161874 0 0.01088055744381339 -0.091400413029064778 0 0.0075562949832923658 -0.088623925752327901 0 0.0085528059462608701 -0.091360315952432103 0 0.0064281297595551387 -0.090852641007344276 0 0.0085528059462608701 -0.091360315952432103 0 0.0064281297595551387 -0.090852641007344276 0 0.0069553340471133181 -0.0929324896285635 0 0.0064281297595551387 -0.090852641007344276 0 0.0069553340471133181 -0.0929324896285635 0 0.0043695012586079558 -0.09189264503413247 0 0.0042585463679337774 -0.090653238053348156 0 0.0032557812152620813 -0.090023718692221796 0 0.0085528059462608701 -0.091360315952432103 0 0.0069553340471133181 -0.0929324896285635 0 0.0080511427042402606 -0.094053858495161874 0 0.0069553340471133181 -0.0929324896285635 0 0.0065822519463420333 -0.094384937637302574 0 0.0048278353003821722 -0.093593300474457602 0 0.0069553340471133181 -0.0929324896285635 0 0.0065822519463420333 -0.094384937637302574 0 0.0080511427042402606 -0.094053858495161874 0 0.0065822519463420333 -0.094384937637302574 0 0.0080511427042402606 -0.094053858495161874 0 0.0080282656375320165 -0.09563134506270532 0 0.0080511427042402606 -0.094053858495161874 0 0.010846536452276269 -0.094026560559634764 0 0.011237130264325801 -0.091128521178261673 0 0.0080511427042402606 -0.094053858495161874 0 0.010846536452276269 -0.094026560559634764 0 0.01002752159503971 -0.095711106873565821 0 0.0099218311664434223 -0.092375857980712864 0 0.011395413051799207 -0.090990578670901642 0 -9.3560541781144204e-05 -0.090243268860339135 0 0.0014546348166921575 -0.092099063169093207 0 0.00290066564567628 -0.090625354638267638 0 -0.001830890902894245 -0.086719325781128384 0 0.00066726100799398714 -0.088323597337487778 0 0.0034646962323520579 -0.092091570561887978 0 0.0014546348166921575 -0.092099063169093207 0 0.00290066564567628 -0.090625354638267638 0 0.0031841870600231052 -0.090049961338885848 0 0.0018406136954651489 -0.090700003850885377 0 0.0043695012586079558 -0.09189264503413247 0 0.00066726100799398714 -0.088323597337487778 0 0.0032557812152620813 -0.090023718692221796 0 0.004453129607988408 -0.089072753012927594 0 0.0031841870600231052 -0.090049961338885848 0 0.0043695012586079558 -0.09189264503413247 0 0.004453129607988408 -0.089072753012927594 0 0.0064281297595551387 -0.090852641007344276 0 0.0043695012586079558 -0.09189264503413247 0 0.0034646962323520579 -0.092091570561887978 0 0.00290066564567628 -0.090625354638267638 0 0.0049681735608122259 -0.091784226091370588 0 0.0034646962323520579 -0.092091570561887978 0 0.0049681735608122259 -0.091784226091370588 0 0.0048278353003821722 -0.093593300474457602 0 0.0069553340471133181 -0.0929324896285635 0 0.0049681735608122259 -0.091784226091370588 0 0.0048278353003821722 -0.093593300474457602 0 0.0065822519463420333 -0.094384937637302574 0 0.0048278353003821722 -0.093593300474457602 0 0.0051773923484929032 -0.095086560860068295 0 0.0048278353003821722 -0.093593300474457602 0 0.0028992414506935284 -0.095029554741636893 0 0.0051773923484929032 -0.095086560860068295 0 -7.0459620929836164e-05 -0.093817874733158918 0 0.0025398207459947468 -0.09335870391589686 0 0.0028992414506935284 -0.095029554741636893 0 0.0048278353003821722 -0.093593300474457602 0 0.0025398207459947468 -0.09335870391589686 0 0.0028992414506935284 -0.095029554741636893 0 0.0034646962323520579 -0.092091570561887978 0 0.0048278353003821722 -0.093593300474457602 0 0.0025398207459947468 -0.09335870391589686 0 0.0034646962323520579 -0.092091570561887978 0 0.0014546348166921575 -0.092099063169093207 0 0.0025398207459947468 -0.09335870391589686 0 -7.0459620929836164e-05 -0.093817874733158918 0 0.0028992414506935284 -0.095029554741636893 0 0.0019029860455058185 -0.096485673619513379 0 0.0019029860455058185 -0.096485673619513379 0 0.0038095804177076271 -0.097785970724008395 0 0.0041942587243625909 -0.096095904359613737 0 0.0028992414506935284 -0.095029554741636893 0 0.0019029860455058185 -0.096485673619513379 0 0.0041942587243625909 -0.096095904359613737 0 0.011556084153373475 -0.071799110575908556 0 0.011958523598952496 -0.071336117894375481 0 0.011968434346530169 -0.072153180596100805 0 0.012721908175217945 -0.072779017941579011 0 0.012915247760615639 -0.07294283324705865 0 0.012916845765886012 -0.072857562903799161 0 0.011958523598952496 -0.071336117894375481 0 0.012604256494183569 -0.07229867788150994 0 0.011968434346530169 -0.072153180596100805 0 0.0057608639447996593 -0.07997888087721626 0 0.0078580786774189223 -0.076875959801419327 0 0.0057608639447996593 -0.07997888087721626 0 0.0080453483765531367 -0.084302053631357038 0 0.012604256494183569 -0.07229867788150994 0 0.011968434346530169 -0.072153180596100805 0 0.012265726380112011 -0.07259489425222887 0 0.011595720004008513 -0.072330806427017849 0 0.011968434346530169 -0.072153180596100805 0 0.01188879986253452 -0.072605775923414426 0 0.0056069157892230104 -0.099049336391799497 0 0.0038095804177076271 -0.097785970724008395 0 0.0041942587243625909 -0.096095904359613737 0 0.0097273796034815559 -0.088014922856280348 0 0.0096810623533737181 -0.091970227723870812 0 0.0058295578613838097 -0.099500979975435597 0 0.0059590362009342059 -0.097470522957298272 0 0.0041942587243625909 -0.096095904359613737 0 0.012915247760615639 -0.07294283324705865 0 0.013153209808357892 -0.072942241025017396 0 0.012916845765886012 -0.072857562903799161 0 0.0097273796034815559 -0.088014922856280348 0 0.0080453483765531367 -0.084302053631357038 0 0.0059590362009342059 -0.097470522957298272 0 0.0057387755622667685 -0.096170022155752391 0 0.0041942587243625909 -0.096095904359613737 0 0.0028992414506935284 -0.095029554741636893 0 0.0041942587243625909 -0.096095904359613737 0 0.0051773923484929032 -0.095086560860068295 0 0.0057387755622667685 -0.096170022155752391 0 0.0041942587243625909 -0.096095904359613737 0 0.0051773923484929032 -0.095086560860068295 0 0.0057387755622667685 -0.096170022155752391 0 0.0051773923484929032 -0.095086560860068295 0 0.00640524865755197 -0.095554938067440379 0 0.0065822519463420333 -0.094384937637302574 0 0.00640524865755197 -0.095554938067440379 0 0.0080282656375320165 -0.09563134506270532 0 0.00640524865755197 -0.095554938067440379 0 0.0080282656375320165 -0.09563134506270532 0 0.0069667458973826464 -0.096663605543380562 0 0.0065822519463420333 -0.094384937637302574 0 0.0051773923484929032 -0.095086560860068295 0 0.00640524865755197 -0.095554938067440379 0 0.0080282656375320165 -0.09563134506270532 0 0.0069667458973826464 -0.096663605543380562 0 0.0083467211676087234 -0.097426987831136028 0 0.0057387755622667685 -0.096170022155752391 0 0.00640524865755197 -0.095554938067440379 0 0.0069667458973826464 -0.096663605543380562 0 0.0059590362009342059 -0.097470522957298272 0 0.0057387755622667685 -0.096170022155752391 0 0.0069667458973826464 -0.096663605543380562 0 0.0080282656375320165 -0.09563134506270532 0 0.01002752159503971 -0.095711106873565821 0 0.0091771835264542155 -0.096617442195059494 0 0.0080511427042402606 -0.094053858495161874 0 0.0080282656375320165 -0.09563134506270532 0 0.01002752159503971 -0.095711106873565821 0 0.0080282656375320165 -0.09563134506270532 0 0.0091771835264542155 -0.096617442195059494 0 0.0083467211676087234 -0.097426987831136028 0 0.01002752159503971 -0.095711106873565821 0 0.010297784097695068 -0.097686265638765604 0 0.012222054546313458 -0.095795266266753346 0 0.01002752159503971 -0.095711106873565821 0 0.0091771835264542155 -0.096617442195059494 0 0.010297784097695068 -0.097686265638765604 0 0.010297784097695068 -0.097686265638765604 0 0.0087334373184831081 -0.099250286273296962 0 0.010700884357155497 -0.10054694170000021 0 0.0091771835264542155 -0.096617442195059494 0 0.010297784097695068 -0.097686265638765604 0 0.0083467211676087234 -0.097426987831136028 0 0.010297784097695068 -0.097686265638765604 0 0.0087334373184831081 -0.099250286273296962 0 0.0083467211676087234 -0.097426987831136028 0 0.0059590362009342059 -0.097470522957298272 0 0.0069667458973826464 -0.096663605543380562 0 0.0070958303127363152 -0.098645343494317028 0 0.0069667458973826464 -0.096663605543380562 0 0.0083467211676087234 -0.097426987831136028 0 0.0070958303127363152 -0.098645343494317028 0 0.0087334373184831081 -0.099250286273296962 0 0.0070958303127363152 -0.098645343494317028 0 0.0076855959767900724 -0.099636986869004379 0 0.0087334373184831081 -0.099250286273296962 0 0.0083467211676087234 -0.097426987831136028 0 0.0070958303127363152 -0.098645343494317028 0 0.0070958303127363152 -0.098645343494317028 0 0.0066871498356355407 -0.10008893122317628 0 0.0076855959767900724 -0.099636986869004379 0 0.0058295578613838097 -0.099500979975435597 0 0.0070958303127363152 -0.098645343494317028 0 0.0066871498356355407 -0.10008893122317628 0 0.0058295578613838097 -0.099500979975435597 0 0.0059590362009342059 -0.097470522957298272 0 0.0070958303127363152 -0.098645343494317028 0 0.0097273796034815559 -0.088014922856280348 0 0.009840956023735482 -0.088345098242678471 0 0.0097273796034815559 -0.088014922856280348 0 0.01370249003735409 -0.08440324359264699 0 0.013153209808357892 -0.072942241025017396 0 0.01346455747255745 -0.073283077045271039 0 0.013145252184147386 -0.073194969462331574 0 0.0058579254654697946 -0.099497395482483694 0 0.0066871498356355407 -0.10008893122317628 0 0.0072214872121785121 -0.10223240819273136 0 0.0066871498356355407 -0.10008893122317628 0 0.0076855959767900724 -0.099636986869004379 0 0.0082502406162504437 -0.10085857775408805 0 0.0087334373184831081 -0.099250286273296962 0 0.0076855959767900724 -0.099636986869004379 0 0.0082502406162504437 -0.10085857775408805 0 0.0066871498356355407 -0.10008893122317628 0 0.0082502406162504437 -0.10085857775408805 0 0.0072214872121785121 -0.10223240819273136 0 0.0087334373184831081 -0.099250286273296962 0 0.0082502406162504437 -0.10085857775408805 0 0.010700884357155497 -0.10054694170000021 0 0.0082502406162504437 -0.10085857775408805 0 0.010700884357155497 -0.10054694170000021 0 0.0094937330206666982 -0.10281677060453552 0 0.010700884357155497 -0.10054694170000021 0 0.0094937330206666982 -0.10281677060453552 0 0.011576210873001392 -0.1027616814476135 0 0.0094937330206666982 -0.10281677060453552 0 0.0085695599928866158 -0.10495498775720841 0 0.01033831756678604 -0.10503024288499617 0 0.0094937330206666982 -0.10281677060453552 0 0.011576210873001392 -0.1027616814476135 0 0.01033831756678604 -0.10503024288499617 0 0.01346455747255745 -0.073283077045271039 0 0.013486219152804336 -0.073662791375694758 0 0.01386363730166042 -0.073985369409664561 0 0.01370249003735409 -0.08440324359264699 0 0.017907068015640012 -0.077726781948646309 0 0.0094937330206666982 -0.10281677060453552 0 0.0072214872121785121 -0.10223240819273136 0 0.0085695599928866158 -0.10495498775720841 0 0.01346455747255745 -0.073283077045271039 0 0.01333684178034044 -0.073483659911162041 0 0.013145252184147386 -0.073194969462331574 0 0.01346455747255745 -0.073283077045271039 0 0.01333684178034044 -0.073483659911162041 0 0.013486219152804336 -0.073662791375694758 0 0.0082502406162504437 -0.10085857775408805 0 0.0094937330206666982 -0.10281677060453552 0 0.0072214872121785121 -0.10223240819273136 0 0.013486219152804336 -0.073662791375694758 0 0.013286488623736079 -0.07375479698091035 0 0.01386363730166042 -0.073985369409664561 0 0.01333684178034044 -0.073483659911162041 0 0.013286488623736079 -0.07375479698091035 0 0.013130023290310091 -0.07354182798717894 0 0.01333684178034044 -0.073483659911162041 0 0.013486219152804336 -0.073662791375694758 0 0.013286488623736079 -0.07375479698091035 0 0.013286488623736079 -0.07375479698091035 0 0.013130023290310091 -0.07354182798717894 0 0.01287887243380985 -0.073610921385383207 0 0.01287887243380985 -0.073610921385383207 0 0.012135272286606021 -0.073518945779584288 0 0.013105874023307115 -0.073979652682771693 0 0.013286488623736079 -0.07375479698091035 0 0.01287887243380985 -0.073610921385383207 0 0.013105874023307115 -0.073979652682771693 0 0.013130023290310091 -0.07354182798717894 0 0.012901267714975601 -0.073392390865656632 0 0.01287887243380985 -0.073610921385383207 0 0.013130023290310091 -0.07354182798717894 0 0.012901267714975601 -0.073392390865656632 0 0.013145252184147386 -0.073194969462331574 0 0.01333684178034044 -0.073483659911162041 0 0.013130023290310091 -0.07354182798717894 0 0.013145252184147386 -0.073194969462331574 0 0.012695382282539552 -0.073171812656342275 0 0.012901267714975601 -0.073392390865656632 0 0.013145252184147386 -0.073194969462331574 0 0.012901267714975601 -0.073392390865656632 0 0.012632634152913911 -0.073435070356041091 0 0.01287887243380985 -0.073610921385383207 0 0.012695382282539552 -0.073171812656342275 0 0.012901267714975601 -0.073392390865656632 0 0.012632634152913911 -0.073435070356041091 0 0.012632634152913911 -0.073435070356041091 0 0.01287887243380985 -0.073610921385383207 0 0.012135272286606021 -0.073518945779584288 0 0.012135272286606021 -0.073518945779584288 0 0.011928171084526429 -0.073357196383954534 0 0.012403478649928053 -0.073953937809277892 0 0.012135272286606021 -0.073518945779584288 0 0.011928171084526429 -0.073357196383954534 0 0.012168848200785797 -0.073235606690452343 0 0.011928171084526429 -0.073357196383954534 0 0.012168848200785797 -0.073235606690452343 0 0.012122615177675078 -0.072962892416631536 0 0.012135272286606021 -0.073518945779584288 0 0.012168848200785797 -0.073235606690452343 0 0.012408589583889899 -0.073285900525433226 0 0.012632634152913911 -0.073435070356041091 0 0.012135272286606021 -0.073518945779584288 0 0.012408589583889899 -0.073285900525433226 0 0.012168848200785797 -0.073235606690452343 0 0.012408589583889899 -0.073285900525433226 0 0.012385162466510802 -0.073000764431522286 0 0.012695382282539552 -0.073171812656342275 0 0.012632634152913911 -0.073435070356041091 0 0.012408589583889899 -0.073285900525433226 0 0.012695382282539552 -0.073171812656342275 0 0.012385162466510802 -0.073000764431522286 0 0.012620976355378856 -0.072855859763608311 0 0.012695382282539552 -0.073171812656342275 0 0.012408589583889899 -0.073285900525433226 0 0.012385162466510802 -0.073000764431522286 0 0.012385162466510802 -0.073000764431522286 0 0.012122615177675078 -0.072962892416631536 0 0.012265726380112011 -0.07259489425222887 0 0.012385162466510802 -0.073000764431522286 0 0.012265726380112011 -0.07259489425222887 0 0.012620976355378856 -0.072855859763608311 0 0.011928171084526429 -0.073357196383954534 0 0.012122615177675078 -0.072962892416631536 0 0.01188879986253452 -0.072605775923414426 0 0.012168848200785797 -0.073235606690452343 0 0.012385162466510802 -0.073000764431522286 0 0.012122615177675078 -0.072962892416631536 0 0.011968434346530169 -0.072153180596100805 0 0.01188879986253452 -0.072605775923414426 0 0.012265726380112011 -0.07259489425222887 0 0.012122615177675078 -0.072962892416631536 0 0.01188879986253452 -0.072605775923414426 0 0.012265726380112011 -0.07259489425222887 0 0.012604256494183569 -0.07229867788150994 0 0.012265726380112011 -0.07259489425222887 0 0.012620976355378856 -0.072855859763608311 0 0.0078580786774189223 -0.076875959801419327 0 0.0086499306670144646 -0.076200575451585442 0 0.012915247760615639 -0.07294283324705865 0 0.013153209808357892 -0.072942241025017396 0 0.013145252184147386 -0.073194969462331574 0 0.012604256494183569 -0.07229867788150994 0 0.013145252184147386 -0.073194969462331574 0 0.012620976355378856 -0.072855859763608311 0 0.012695382282539552 -0.073171812656342275 0 0.013145252184147386 -0.073194969462331574 0 0.012620976355378856 -0.072855859763608311 0 0.044153438942834591 -0.073960265772802861 0 0.044512167732531985 -0.074016167798618387 0 0.04419856835338009 -0.074262953328897305 0 0.044153438942834591 -0.073960265772802861 0 0.044347178312429063 -0.073712311599692104 0 0.044512167732531985 -0.074016167798618387 0 0.037129470979316778 -0.07300472549660951 0 0.042187993374621424 -0.072163138068556704 0 0.044838000740690165 -0.071920029482677617 0 0.043868552173162621 -0.072173613750888738 0 0.044133088084438318 -0.071529259832454992 0 0.044653614230446392 -0.072942688627619795 0 0.04540390808763127 -0.071885455953850277 0 0.043868552173162621 -0.072173613750888738 0 0.040923450031035487 -0.072170079689740915 0 0.037129470979316778 -0.07300472549660951 0 0.044347178312429063 -0.073712311599692104 0 0.044512167732531985 -0.074016167798618387 0 0.044532876216039442 -0.073684260953607819 0 0.013052363935433459 -0.10124548119771495 0 0.015659674695317486 -0.10036618914282683 0 0.014117946568001119 -0.10431367575838379 0 0.037129470979316778 -0.07300472549660951 0 0.025819750218445316 -0.078403848453425878 0 0.027682808487841676 -0.084822462020107278 0 0.025819750218445316 -0.078403848453425878 0 0.011576210873001392 -0.1027616814476135 0 0.01033831756678604 -0.10503024288499617 0 0.014117946568001119 -0.10431367575838379 0 0.011576210873001392 -0.1027616814476135 0 0.013052363935433459 -0.10124548119771495 0 0.014117946568001119 -0.10431367575838379 0 0.010700884357155497 -0.10054694170000021 0 0.013052363935433459 -0.10124548119771495 0 0.012857206669617621 -0.098538419804203789 0 0.010700884357155497 -0.10054694170000021 0 0.011576210873001392 -0.1027616814476135 0 0.013052363935433459 -0.10124548119771495 0 0.013052363935433459 -0.10124548119771495 0 0.015659674695317486 -0.10036618914282683 0 0.012857206669617621 -0.098538419804203789 0 0.015659674695317486 -0.10036618914282683 0 0.012857206669617621 -0.098538419804203789 0 0.014615814119549748 -0.096063913974530429 0 0.010297784097695068 -0.097686265638765604 0 0.012857206669617621 -0.098538419804203789 0 0.012222054546313458 -0.095795266266753346 0 0.010297784097695068 -0.097686265638765604 0 0.010700884357155497 -0.10054694170000021 0 0.012857206669617621 -0.098538419804203789 0 0.012222054546313458 -0.095795266266753346 0 0.014615814119549748 -0.096063913974530429 0 0.012650355300752935 -0.093364616032882389 0 0.012857206669617621 -0.098538419804203789 0 0.012222054546313458 -0.095795266266753346 0 0.014615814119549748 -0.096063913974530429 0 0.010846536452276269 -0.094026560559634764 0 0.01002752159503971 -0.095711106873565821 0 0.012222054546313458 -0.095795266266753346 0 0.014615814119549748 -0.096063913974530429 0 0.017286090774541144 -0.096392880980037302 0 0.016542962690227807 -0.093949495463347965 0 0.044512167732531985 -0.074016167798618387 0 0.044534382450205218 -0.07463668679428781 0 0.04419856835338009 -0.074262953328897305 0 0.027682808487841676 -0.084822462020107278 0 0.029660345197587392 -0.084699069782163683 0 0.015659674695317486 -0.10036618914282683 0 0.014615814119549748 -0.096063913974530429 0 0.017286090774541144 -0.096392880980037302 0 0.044153438942834591 -0.073960265772802861 0 0.04419856835338009 -0.074262953328897305 0 0.043770210839325113 -0.074185104726946602 0 0.040923450031035487 -0.072170079689740915 0 0.041621333716988874 -0.072440685577976768 0 0.04419856835338009 -0.074262953328897305 0 0.044030522136818136 -0.074604013685824755 0 0.043770210839325113 -0.074185104726946602 0 0.044534382450205218 -0.07463668679428781 0 0.04419856835338009 -0.074262953328897305 0 0.044030522136818136 -0.074604013685824755 0 0.044534382450205218 -0.07463668679428781 0 0.044030522136818136 -0.074604013685824755 0 0.044035509733016079 -0.075111558752300328 0 0.044030522136818136 -0.074604013685824755 0 0.044035509733016079 -0.075111558752300328 0 0.0436030111939451 -0.074930999249740171 0 0.044035509733016079 -0.075111558752300328 0 0.044327544120449119 -0.075773034820713472 0 0.043629952763590697 -0.075599272718918795 0 0.044534382450205218 -0.07463668679428781 0 0.044035509733016079 -0.075111558752300328 0 0.044327544120449119 -0.075773034820713472 0 0.031043413663887649 -0.082767834197959023 0 0.031256012221235994 -0.082652864072070384 0 0.017286090774541144 -0.096392880980037302 0 0.018547821475371176 -0.092600528114720596 0 0.016542962690227807 -0.093949495463347965 0 0.017286090774541144 -0.096392880980037302 0 0.018547821475371176 -0.092600528114720596 0 0.019001673411714815 -0.092398351650763752 0 0.029660345197587392 -0.084699069782163683 0 0.031256012221235994 -0.082652864072070384 0 0.016542962690227807 -0.093949495463347965 0 0.016321468732691635 -0.092804841008302122 0 0.017426517124429181 -0.092481807035224711 0 0.016542962690227807 -0.093949495463347965 0 0.016321468732691635 -0.092804841008302122 0 0.015073183840113391 -0.093334119131807003 0 0.018547821475371176 -0.092600528114720596 0 0.016542962690227807 -0.093949495463347965 0 0.017426517124429181 -0.092481807035224711 0 0.018547821475371176 -0.092600528114720596 0 0.017426517124429181 -0.092481807035224711 0 0.018534215873790914 -0.091963663952419145 0 0.017426517124429181 -0.092481807035224711 0 0.017790538344796342 -0.091276354507727753 0 0.018534215873790914 -0.091963663952419145 0 0.017426517124429181 -0.092481807035224711 0 0.017790538344796342 -0.091276354507727753 0 0.016858331444599885 -0.091702008695165094 0 0.017790538344796342 -0.091276354507727753 0 0.019046467003796894 -0.090877090371844355 0 0.018534215873790914 -0.091963663952419145 0 0.016858331444599885 -0.091702008695165094 0 0.016673981832640062 -0.090243137979019145 0 0.015637452779254213 -0.092000079129253884 0 0.016321468732691635 -0.092804841008302122 0 0.016858331444599885 -0.091702008695165094 0 0.015637452779254213 -0.092000079129253884 0 0.016321468732691635 -0.092804841008302122 0 0.017426517124429181 -0.092481807035224711 0 0.016858331444599885 -0.091702008695165094 0 0.017790538344796342 -0.091276354507727753 0 0.016858331444599885 -0.091702008695165094 0 0.016673981832640062 -0.090243137979019145 0 0.017790538344796342 -0.091276354507727753 0 0.016673981832640062 -0.090243137979019145 0 0.018222840097828926 -0.090327901277661188 0 0.017790538344796342 -0.091276354507727753 0 0.018222840097828926 -0.090327901277661188 0 0.019046467003796894 -0.090877090371844355 0 0.031256012221235994 -0.082652864072070384 0 0.032884997548143072 -0.082890285833989358 0 0.019046467003796894 -0.090877090371844355 0 0.019263904872833998 -0.091976515888522486 0 0.020402971872745205 -0.08993666257441045 0 0.018222840097828926 -0.090327901277661188 0 0.019046467003796894 -0.090877090371844355 0 0.019298278150448499 -0.089777084258337456 0 0.019046467003796894 -0.090877090371844355 0 0.020402971872745205 -0.08993666257441045 0 0.019298278150448499 -0.089777084258337456 0 0.019263904872833998 -0.091976515888522486 0 0.019068899465868958 -0.092470382433111217 0 0.022943524499166649 -0.090868017181691282 0 0.019263904872833998 -0.091976515888522486 0 0.020402971872745205 -0.08993666257441045 0 0.022943524499166649 -0.090868017181691282 0 0.018547821475371176 -0.092600528114720596 0 0.018534215873790914 -0.091963663952419145 0 0.019041745038939649 -0.092423945336144217 0 0.019263904872833998 -0.091976515888522486 0 0.018534215873790914 -0.091963663952419145 0 0.019041745038939649 -0.092423945336144217 0 0.031148753870532377 -0.08284360154420109 0 0.031256012221235994 -0.082652864072070384 0 0.019046467003796894 -0.090877090371844355 0 0.019263904872833998 -0.091976515888522486 0 0.018534215873790914 -0.091963663952419145 0 0.010846536452276269 -0.094026560559634764 0 0.012650355300752935 -0.093364616032882389 0 0.011237130264325801 -0.091128521178261673 0 0.010846536452276269 -0.094026560559634764 0 0.012222054546313458 -0.095795266266753346 0 0.012650355300752935 -0.093364616032882389 0 0.014615814119549748 -0.096063913974530429 0 0.016542962690227807 -0.093949495463347965 0 0.015073183840113391 -0.093334119131807003 0 0.014615814119549748 -0.096063913974530429 0 0.012650355300752935 -0.093364616032882389 0 0.015073183840113391 -0.093334119131807003 0 0.012650355300752935 -0.093364616032882389 0 0.015073183840113391 -0.093334119131807003 0 0.014188970305797815 -0.091266240465672527 0 0.016321468732691635 -0.092804841008302122 0 0.015073183840113391 -0.093334119131807003 0 0.015637452779254213 -0.092000079129253884 0 0.015073183840113391 -0.093334119131807003 0 0.015637452779254213 -0.092000079129253884 0 0.014188970305797815 -0.091266240465672527 0 0.016673981832640062 -0.090243137979019145 0 0.015637452779254213 -0.092000079129253884 0 0.014188970305797815 -0.091266240465672527 0 0.014188970305797815 -0.091266240465672527 0 0.011237130264325801 -0.091128521178261673 0 0.014309762704949977 -0.088318502876102115 0 0.012650355300752935 -0.093364616032882389 0 0.014188970305797815 -0.091266240465672527 0 0.011237130264325801 -0.091128521178261673 0 0.01088055744381339 -0.091400413029064778 0 0.010815001128430085 -0.088222078688727473 0 0.01411131042249184 -0.088478892614268875 0 0.011395413051799207 -0.090990578670901642 0 0.013913815718044936 -0.088628377057247645 0 0.016673981832640062 -0.090243137979019145 0 0.014188970305797815 -0.091266240465672527 0 0.014309762704949977 -0.088318502876102115 0 0.010815001128430085 -0.088222078688727473 0 0.01411131042249184 -0.088478892614268875 0 0.015033504790684616 -0.084999966183373757 0 0.013913815718044936 -0.088628377057247645 0 0.015428469770686527 -0.087202109357741253 0 0.01411131042249184 -0.088478892614268875 0 0.015033504790684616 -0.084999966183373757 0 0.017378854936996879 -0.085435690601893252 0 0.010205802727552723 -0.084999992690260651 0 0.010815001128430085 -0.088222078688727473 0 0.015033504790684616 -0.084999966183373757 0 0.01979702637084883 -0.088521241347022758 0 0.018985342741265315 -0.086887377748100944 0 0.022090984353814826 -0.087569997442117756 0 0.01979702637084883 -0.088521241347022758 0 0.018332582369368373 -0.08901079515098001 0 0.018985342741265315 -0.086887377748100944 0 0.01979702637084883 -0.088521241347022758 0 0.020402971872745205 -0.08993666257441045 0 0.022090984353814826 -0.087569997442117756 0 0.01979702637084883 -0.088521241347022758 0 0.019298278150448499 -0.089777084258337456 0 0.018332582369368373 -0.08901079515098001 0 0.018222840097828926 -0.090327901277661188 0 0.019298278150448499 -0.089777084258337456 0 0.018332582369368373 -0.08901079515098001 0 0.01979702637084883 -0.088521241347022758 0 0.020402971872745205 -0.08993666257441045 0 0.019298278150448499 -0.089777084258337456 0 0.016673981832640062 -0.090243137979019145 0 0.018332582369368373 -0.08901079515098001 0 0.01712066210146506 -0.087956688369774355 0 0.016673981832640062 -0.090243137979019145 0 0.014309762704949977 -0.088318502876102115 0 0.01712066210146506 -0.087956688369774355 0 0.016673981832640062 -0.090243137979019145 0 0.018222840097828926 -0.090327901277661188 0 0.018332582369368373 -0.08901079515098001 0 0.018332582369368373 -0.08901079515098001 0 0.01712066210146506 -0.087956688369774355 0 0.018985342741265315 -0.086887377748100944 0 0.01712066210146506 -0.087956688369774355 0 0.017378854936996879 -0.085435690601893252 0 0.018985342741265315 -0.086887377748100944 0 0.014309762704949977 -0.088318502876102115 0 0.01712066210146506 -0.087956688369774355 0 0.017378854936996879 -0.085435690601893252 0 0.015033504790684616 -0.084999966183373757 0 0.017378854936996879 -0.085435690601893252 0 0.019861268135568141 -0.08499990843293885 0 0.017378854936996879 -0.085435690601893252 0 0.019861268135568141 -0.08499990843293885 0 0.018985342741265315 -0.086887377748100944 0 0.019861268135568141 -0.08499990843293885 0 0.018985342741265315 -0.086887377748100944 0 0.022090984353814826 -0.087569997442117756 0 0.019861268135568141 -0.08499990843293885 0 0.022090984353814826 -0.087569997442117756 0 0.024688945423421878 -0.084999896330100189 0 0.020402971872745205 -0.08993666257441045 0 0.022090984353814826 -0.087569997442117756 0 0.022943524499166649 -0.090868017181691282 0 0.022090984353814826 -0.087569997442117756 0 0.026800264242311647 -0.089178431075113945 0 0.022943524499166649 -0.090868017181691282 0 0.034536204021254714 -0.082669094796512313 0 0.032884997548143072 -0.082890285833989358 0 0.022090984353814826 -0.087569997442117756 0 0.024688945423421878 -0.084999896330100189 0 0.026800264242311647 -0.089178431075113945 0 0.024688945423421878 -0.084999896330100189 0 0.029516709026188456 -0.085000006730130834 0 0.026800264242311647 -0.089178431075113945 0 0.029520674145396518 -0.085002197863147097 0 0.034536204021254714 -0.082669094796512313 0 0.029516930945680291 -0.085000055669506774 0 0.029665809468675201 -0.086275726805827915 0 0.027138415962803291 -0.088955755768641759 0 0.035601091355596165 -0.083863846041400458 0 0.035492991335633571 -0.084754711662429885 0 0.031086693890448432 -0.086035912763693753 0 0.029516930945680291 -0.085000055669506774 0 0.032773796825446927 -0.084999930678039501 0 0.031086693890448432 -0.086035912763693753 0 0.029999215677716368 -0.087737019739375935 0 0.033002057987583579 -0.086390920069292401 0 0.031086693890448432 -0.086035912763693753 0 0.029516930945680291 -0.085000055669506774 0 0.029665809468675201 -0.086275726805827915 0 0.035451950114453359 -0.084075869368611902 0 0.035601091355596165 -0.083863846041400458 0 0.031086693890448432 -0.086035912763693753 0 0.029665809468675201 -0.086275726805827915 0 0.029999215677716368 -0.087737019739375935 0 0.038301658476065023 -0.085539037898027401 0 0.038433258254617859 -0.084610820759518965 0 0.037857972735399079 -0.0852258476983659 0 0.035601091355596165 -0.083863846041400458 0 0.038201307573358517 -0.080712300104981011 0 0.029665809468675201 -0.086275726805827915 0 0.029979822541855387 -0.087606095236553647 0 0.027138415962803291 -0.088955755768641759 0 0.035601091355596165 -0.083863846041400458 0 0.034536204021254714 -0.082669094796512313 0 0.040862144676642849 -0.078269684396476524 0 0.042058031743460213 -0.077703982475732278 0 0.041682882773060814 -0.076560459831175043 0 0.040862144676642849 -0.078269684396476524 0 0.041682882773060814 -0.076560459831175043 0 0.040481062260733919 -0.076483521176485769 0 0.040481062260733919 -0.076483521176485769 0 0.041041979008016129 -0.075461613641608694 0 0.040099831122494212 -0.074735952907232756 0 0.038201307573358517 -0.080712300104981011 0 0.039889959760898125 -0.077579598696753196 0 0.041682882773060814 -0.076560459831175043 0 0.040481062260733919 -0.076483521176485769 0 0.041041979008016129 -0.075461613641608694 0 0.041682882773060814 -0.076560459831175043 0 0.041041979008016129 -0.075461613641608694 0 0.041987772698201739 -0.075389274548374574 0 0.041987772698201739 -0.075389274548374574 0 0.042860164381211596 -0.075302737617048643 0 0.042899081152377061 -0.076319312861123215 0 0.041682882773060814 -0.076560459831175043 0 0.041987772698201739 -0.075389274548374574 0 0.042899081152377061 -0.076319312861123215 0 0.039984293812215105 -0.076822439212187385 0 0.041288540905768403 -0.075550443260585784 0 0.044035509733016079 -0.075111558752300328 0 0.043629952763590697 -0.075599272718918795 0 0.0436030111939451 -0.074930999249740171 0 0.042860164381211596 -0.075302737617048643 0 0.042899081152377061 -0.076319312861123215 0 0.0436030111939451 -0.074930999249740171 0 0.043629952763590697 -0.075599272718918795 0 0.042861087876534483 -0.075823642810039241 0 0.0436030111939451 -0.074930999249740171 0 0.044327544120449119 -0.075773034820713472 0 0.043629952763590697 -0.075599272718918795 0 0.043338630658877123 -0.076353567343725975 0 0.043629952763590697 -0.075599272718918795 0 0.043338630658877123 -0.076353567343725975 0 0.042861087876534483 -0.075823642810039241 0 0.042058031743460213 -0.077703982475732278 0 0.041682882773060814 -0.076560459831175043 0 0.042899081152377061 -0.076319312861123215 0 0.042124624925657453 -0.076963837341590971 0 0.043338630658877123 -0.076353567343725975 0 0.042861087876534483 -0.075823642810039241 0 0.034536204021254714 -0.082669094796512313 0 0.039984293812215105 -0.076822439212187385 0 0.037954246387059618 -0.085628150870757924 0 0.038001546668662269 -0.085680135429940019 0 0.037834918839437466 -0.085276725898111472 0 0.03777837837812012 -0.085643498518311559 0 0.038001546668662269 -0.085680135429940019 0 0.038239804536690132 -0.085932984786373567 0 0.03777837837812012 -0.085643498518311559 0 0.037954246387059618 -0.085628150870757924 0 0.038001546668662269 -0.085680135429940019 0 0.040136642545724424 -0.085985091359784951 0 0.04171433436182604 -0.086065031439625073 0 0.040474402957569808 -0.084998719240639606 0 0.038263655094150938 -0.085943854543600082 0 0.043281664517229063 -0.086838406738730348 0 0.037954246387059618 -0.085628150870757924 0 0.038263655094150938 -0.085943854543600082 0 0.037834918839437466 -0.085276725898111472 0 0.040474402957569808 -0.084998719240639606 0 0.038263655094150938 -0.085943854543600082 0 0.036036014848392653 -0.08500109094340462 0 0.038263655094150938 -0.085943854543600082 0 0.037597746427956602 -0.085700120194329696 0 0.036941787767982369 -0.085617927088655801 0 0.037954246387059618 -0.085628150870757924 0 0.038263655094150938 -0.085943854543600082 0 0.037597746427956602 -0.085700120194329696 0 0.03777837837812012 -0.085643498518311559 0 0.037954246387059618 -0.085628150870757924 0 0.037597746427956602 -0.085700120194329696 0 0.03777837837812012 -0.085643498518311559 0 0.037597746427956602 -0.085700120194329696 0 0.037396189426622324 -0.085474911541416301 0 0.037597746427956602 -0.085700120194329696 0 0.037368829934147002 -0.085409282743970763 0 0.037396189426622324 -0.085474911541416301 0 0.037368829934147002 -0.085409282743970763 0 0.036941787767982369 -0.085617927088655801 0 0.037448007536969093 -0.085681160986554247 0 0.037597746427956602 -0.085700120194329696 0 0.037368829934147002 -0.085409282743970763 0 0.036941787767982369 -0.085617927088655801 0 0.038263655094150938 -0.085943854543600082 0 0.036036014848392653 -0.08500109094340462 0 0.036941787767982369 -0.085617927088655801 0 0.036036014848392653 -0.08500109094340462 0 0.036941787767982369 -0.085617927088655801 0 0.037448007536969093 -0.085681160986554247 0 0.036030183964372804 -0.084999250817514929 0 0.035492991335633571 -0.084754711662429885 0 0.036030974286654041 -0.085000030589746964 0 0.032773796825446927 -0.084999930678039501 0 0.033002057987583579 -0.086390920069292401 0 0.031086693890448432 -0.086035912763693753 0 0.032773796825446927 -0.084999930678039501 0 0.033002057987583579 -0.086390920069292401 0 0.038301658476065023 -0.085539037898027401 0 0.037448007536969093 -0.085681160986554247 0 0.037857972735399079 -0.0852258476983659 0 0.037368829934147002 -0.085409282743970763 0 0.037448007536969093 -0.085681160986554247 0 0.037857972735399079 -0.0852258476983659 0 0.037368829934147002 -0.085409282743970763 0 0.037857972735399079 -0.0852258476983659 0 0.037795944918232259 -0.084758958409790808 0 0.038433258254617859 -0.084610820759518965 0 0.037857972735399079 -0.0852258476983659 0 0.037795944918232259 -0.084758958409790808 0 0.038433258254617859 -0.084610820759518965 0 0.037894791918582263 -0.083603274915430362 0 0.038414684757291109 -0.083440539057301519 0 0.038433258254617859 -0.084610820759518965 0 0.037795944918232259 -0.084758958409790808 0 0.037894791918582263 -0.083603274915430362 0 0.037682233113631773 -0.080093068679919957 0 0.038426632330949166 -0.079421167442751822 0 0.037633337547366467 -0.084287098490057763 0 0.037112843470412105 -0.082917997494923124 0 0.037894791918582263 -0.083603274915430362 0 0.037633337547366467 -0.084287098490057763 0 0.037795944918232259 -0.084758958409790808 0 0.037894791918582263 -0.083603274915430362 0 0.037633337547366467 -0.084287098490057763 0 0.037449038586128469 -0.085151730228046091 0 0.037083770073313239 -0.085346315262959993 0 0.037633337547366467 -0.084287098490057763 0 0.037795944918232259 -0.084758958409790808 0 0.037449038586128469 -0.085151730228046091 0 0.037368829934147002 -0.085409282743970763 0 0.037795944918232259 -0.084758958409790808 0 0.037449038586128469 -0.085151730228046091 0 0.037368829934147002 -0.085409282743970763 0 0.037449038586128469 -0.085151730228046091 0 0.037396189426622324 -0.085474911541416301 0 0.03777837837812012 -0.085643498518311559 0 0.037396189426622324 -0.085474911541416301 0 0.037833183336720554 -0.085774948082453201 0 0.037396189426622324 -0.085474911541416301 0 0.037083770073313239 -0.085346315262959993 0 0.037833183336720554 -0.085774948082453201 0 0.037449038586128469 -0.085151730228046091 0 0.037396189426622324 -0.085474911541416301 0 0.037083770073313239 -0.085346315262959993 0 0.037633337547366467 -0.084287098490057763 0 0.037083770073313239 -0.085346315262959993 0 0.037112843470412105 -0.082917997494923124 0 0.037112843470412105 -0.082917997494923124 0 0.03381850471374831 -0.082143602514226019 0 0.035695746469643463 -0.080442614776988233 0 0.036828833833132867 -0.084064185417306231 0 0.036391181000484059 -0.083414360555362069 0 0.037083770073313239 -0.085346315262959993 0 0.037112843470412105 -0.082917997494923124 0 0.03381850471374831 -0.082143602514226019 0 0.03794922046036138 -0.086538509414352108 0 0.038185345935838784 -0.086229289073259927 0 0.038427556019424783 -0.0864148126212409 0 0.03794922046036138 -0.086538509414352108 0 0.038185345935838784 -0.086229289073259927 0 0.037833183336720554 -0.085774948082453201 0 0.037083770073313239 -0.085346315262959993 0 0.03794922046036138 -0.086538509414352108 0 0.037833183336720554 -0.085774948082453201 0 0.038185345935838784 -0.086229289073259927 0 0.037833183336720554 -0.085774948082453201 0 0.0384089853236943 -0.08613262685105133 0 0.037833183336720554 -0.085774948082453201 0 0.038239804536690132 -0.085932984786373567 0 0.0384089853236943 -0.08613262685105133 0 0.03777837837812012 -0.085643498518311559 0 0.037833183336720554 -0.085774948082453201 0 0.038239804536690132 -0.085932984786373567 0 0.034344152395592027 -0.077990250902404121 0 0.034298404231071132 -0.07463705418198753 0 0.031958173733839891 -0.07528668955959418 0 0.034344152395592027 -0.077990250902404121 0 0.036597203908754664 -0.075492459862867012 0 0.034298404231071132 -0.07463705418198753 0 0.03381850471374831 -0.082143602514226019 0 0.034344152395592027 -0.077990250902404121 0 0.031343119369462415 -0.078662408196539219 0 0.03381850471374831 -0.082143602514226019 0 0.034344152395592027 -0.077990250902404121 0 0.035695746469643463 -0.080442614776988233 0 0.034344152395592027 -0.077990250902404121 0 0.035695746469643463 -0.080442614776988233 0 0.037557967147326454 -0.078860086592505665 0 0.037112843470412105 -0.082917997494923124 0 0.035695746469643463 -0.080442614776988233 0 0.037557967147326454 -0.078860086592505665 0 0.034344152395592027 -0.077990250902404121 0 0.037557967147326454 -0.078860086592505665 0 0.036597203908754664 -0.075492459862867012 0 0.037557967147326454 -0.078860086592505665 0 0.039352695429666955 -0.07579021558448501 0 0.036597203908754664 -0.075492459862867012 0 0.037557967147326454 -0.078860086592505665 0 0.039352695429666955 -0.07579021558448501 0 0.040687201066493914 -0.078394586950845821 0 0.037112843470412105 -0.082917997494923124 0 0.037557967147326454 -0.078860086592505665 0 0.040158429528250154 -0.081083484606655265 0 0.037557967147326454 -0.078860086592505665 0 0.040158429528250154 -0.081083484606655265 0 0.040687201066493914 -0.078394586950845821 0 0.040158429528250154 -0.081083484606655265 0 0.043082645617127206 -0.079727381833008176 0 0.040687201066493914 -0.078394586950845821 0 0.038426632330949166 -0.079421167442751822 0 0.039889959760898125 -0.077579598696753196 0 0.039889959760898125 -0.077579598696753196 0 0.040164566304367592 -0.07582025666875325 0 0.043082645617127206 -0.079727381833008176 0 0.040687201066493914 -0.078394586950845821 0 0.042081559867398977 -0.076198818231586404 0 0.039352695429666955 -0.07579021558448501 0 0.040687201066493914 -0.078394586950845821 0 0.042081559867398977 -0.076198818231586404 0 0.039352695429666955 -0.07579021558448501 0 0.042081559867398977 -0.076198818231586404 0 0.040627362477701302 -0.072744343617946905 0 0.040164566304367592 -0.07582025666875325 0 0.040144971594775224 -0.074936871392844689 0 0.040920997086297567 -0.07356373146009644 0 0.040627362477701302 -0.072744343617946905 0 0.041674990833310346 -0.072903113107946185 0 0.038427540102163517 -0.073194493754467529 0 0.036106808218440915 -0.072152148110783243 0 0.039297937992799611 -0.069674933396972297 0 0.040627362477701302 -0.072744343617946905 0 0.038427540102163517 -0.073194493754467529 0 0.039297937992799611 -0.069674933396972297 0 0.039352695429666955 -0.07579021558448501 0 0.038427540102163517 -0.073194493754467529 0 0.036597203908754664 -0.075492459862867012 0 0.039352695429666955 -0.07579021558448501 0 0.040627362477701302 -0.072744343617946905 0 0.038427540102163517 -0.073194493754467529 0 0.036597203908754664 -0.075492459862867012 0 0.036106808218440915 -0.072152148110783243 0 0.034298404231071132 -0.07463705418198753 0 0.038427540102163517 -0.073194493754467529 0 0.036597203908754664 -0.075492459862867012 0 0.036106808218440915 -0.072152148110783243 0 0.034172716749652797 -0.07079940354254427 0 0.032997539839427638 -0.072486057553100461 0 0.032751566694327161 -0.069106175015422447 0 0.036106808218440915 -0.072152148110783243 0 0.034172716749652797 -0.07079940354254427 0 0.032997539839427638 -0.072486057553100461 0 0.036106808218440915 -0.072152148110783243 0 0.032997539839427638 -0.072486057553100461 0 0.034298404231071132 -0.07463705418198753 0 0.032997539839427638 -0.072486057553100461 0 0.034298404231071132 -0.07463705418198753 0 0.031958173733839891 -0.07528668955959418 0 0.043278422488573276 -0.073575122430760309 0 0.042903642032889197 -0.074609979943539947 0 0.041653002699279268 -0.074134606932069552 0 0.042711099941800043 -0.074908617803104233 0 0.041973396001201327 -0.075536010105120385 0 0.043278422488573276 -0.073575122430760309 0 0.042291435964706553 -0.073964514447520155 0 0.042607906945306952 -0.073079949271880079 0 0.043278422488573276 -0.073575122430760309 0 0.043770210839325113 -0.074185104726946602 0 0.04373631686463849 -0.073076389536175346 0 0.043278422488573276 -0.073575122430760309 0 0.043770210839325113 -0.074185104726946602 0 0.042903642032889197 -0.074609979943539947 0 0.043770210839325113 -0.074185104726946602 0 0.0436030111939451 -0.074930999249740171 0 0.042903642032889197 -0.074609979943539947 0 0.044030522136818136 -0.074604013685824755 0 0.043770210839325113 -0.074185104726946602 0 0.0436030111939451 -0.074930999249740171 0 0.042860164381211596 -0.075302737617048643 0 0.0436030111939451 -0.074930999249740171 0 0.042903642032889197 -0.074609979943539947 0 0.041987772698201739 -0.075389274548374574 0 0.042860164381211596 -0.075302737617048643 0 0.042903642032889197 -0.074609979943539947 0 0.041987772698201739 -0.075389274548374574 0 0.042903642032889197 -0.074609979943539947 0 0.041653002699279268 -0.074134606932069552 0 0.041041979008016129 -0.075461613641608694 0 0.041987772698201739 -0.075389274548374574 0 0.041653002699279268 -0.074134606932069552 0 0.039889959760898125 -0.077579598696753196 0 0.041973396001201327 -0.075536010105120385 0 0.041041979008016129 -0.075461613641608694 0 0.040099831122494212 -0.074735952907232756 0 0.041653002699279268 -0.074134606932069552 0 0.040920997086297567 -0.07356373146009644 0 0.042291435964706553 -0.073964514447520155 0 0.041674990833310346 -0.072903113107946185 0 0.041133239142097856 -0.074457121493410675 0 0.040920997086297567 -0.07356373146009644 0 0.042291435964706553 -0.073964514447520155 0 0.042607906945306952 -0.073079949271880079 0 0.041674990833310346 -0.072903113107946185 0 0.04252755273156953 -0.072204697371053603 0 0.042291435964706553 -0.073964514447520155 0 0.042607906945306952 -0.073079949271880079 0 0.041674990833310346 -0.072903113107946185 0 0.041674990833310346 -0.072903113107946185 0 0.04252755273156953 -0.072204697371053603 0 0.041780872119021879 -0.070781821342035839 0 0.040627362477701302 -0.072744343617946905 0 0.041674990833310346 -0.072903113107946185 0 0.041780872119021879 -0.070781821342035839 0 0.043206487960194842 -0.072660528808823038 0 0.043868552173162621 -0.072173613750888738 0 0.043011889358639026 -0.071310690650166181 0 0.04252755273156953 -0.072204697371053603 0 0.043206487960194842 -0.072660528808823038 0 0.043011889358639026 -0.071310690650166181 0 0.042607906945306952 -0.073079949271880079 0 0.04252755273156953 -0.072204697371053603 0 0.043206487960194842 -0.072660528808823038 0 0.043278422488573276 -0.073575122430760309 0 0.042607906945306952 -0.073079949271880079 0 0.043206487960194842 -0.072660528808823038 0 0.043206487960194842 -0.072660528808823038 0 0.04373631686463849 -0.073076389536175346 0 0.043868552173162621 -0.072173613750888738 0 0.044653614230446392 -0.072942688627619795 0 0.043770210839325113 -0.074185104726946602 0 0.04373631686463849 -0.073076389536175346 0 0.044653614230446392 -0.072942688627619795 0 0.04373631686463849 -0.073076389536175346 0 0.043868552173162621 -0.072173613750888738 0 0.043278422488573276 -0.073575122430760309 0 0.043206487960194842 -0.072660528808823038 0 0.04373631686463849 -0.073076389536175346 0 0.043868552173162621 -0.072173613750888738 0 0.043011889358639026 -0.071310690650166181 0 0.044133088084438318 -0.071529259832454992 0 0.037101582346050571 -0.068925069896907137 0 0.03649346593764706 -0.069977485168953066 0 0.030204676045219508 -0.064581767823153821 0 0.032045726607698347 -0.064579325899048953 0 0.030058086645289889 -0.063959070955852196 0 0.031097235198101356 -0.064906928330945857 0 0.03152163376431108 -0.065169157791330104 0 0.030204676045219508 -0.064581767823153821 0 0.031493052630089363 -0.065400200098818112 0 0.031646172918527463 -0.066913038513302006 0 0.030204676045219508 -0.064581767823153821 0 0.030215524635769798 -0.063827999550688894 0 0.030169791122511409 -0.064106909710042986 0 0.030204676045219508 -0.064581767823153821 0 0.031493052630089363 -0.065400200098818112 0 0.032045726607698347 -0.064579325899048953 0 0.031493052630089363 -0.065400200098818112 0 0.032045726607698347 -0.064579325899048953 0 0.033164917486475876 -0.066483780834959455 0 0.04252755273156953 -0.072204697371053603 0 0.043011889358639026 -0.071310690650166181 0 0.041780872119021879 -0.070781821342035839 0 0.037101582346050571 -0.068925069896907137 0 0.037073346584260279 -0.068555856991394687 0 0.033939495679943463 -0.065583501233029792 0 0.033164917486475876 -0.066483780834959455 0 0.034620757417425881 -0.066779199719459711 0 0.032045726607698347 -0.064579325899048953 0 0.033939495679943463 -0.065583501233029792 0 0.033164917486475876 -0.066483780834959455 0 0.033164917486475876 -0.066483780834959455 0 0.032895548530643012 -0.068154542675935487 0 0.031646172918527463 -0.066913038513302006 0 0.033164917486475876 -0.066483780834959455 0 0.034620757417425881 -0.066779199719459711 0 0.034312907464346849 -0.067540375131492164 0 0.032385382121525842 -0.065417096385000997 0 0.033214467327657558 -0.065978513779396994 0 0.033164917486475876 -0.066483780834959455 0 0.032895548530643012 -0.068154542675935487 0 0.034312907464346849 -0.067540375131492164 0 0.032982885505109902 -0.065440629383429288 0 0.033006477060105316 -0.065441887559213374 0 0.033015211280067423 -0.06546243865500688 0 0.032982885505109902 -0.065440629383429288 0 0.033015211280067423 -0.06546243865500688 0 0.032905950410857011 -0.065432909671103073 0 0.032385382121525842 -0.065417096385000997 0 0.032359323118673788 -0.065411615735785661 0 0.03023952516910924 -0.063911704664696603 0 0.030215524635769798 -0.063827999550688894 0 0.030507610113435883 -0.063924119041364386 0 0.030842357543426555 -0.063837351023748462 0 0.030215524635769798 -0.063827999550688894 0 0.030507610113435883 -0.063924119041364386 0 0.030911957744356379 -0.063808311508883192 0 0.030842357543426555 -0.063837351023748462 0 0.030215524635769798 -0.063827999550688894 0 0.032385382121525842 -0.065417096385000997 0 0.03152163376431108 -0.065169157791330104 0 0.03023952516910924 -0.063911704664696603 0 0.030141506024082797 -0.063958190850683674 0 0.030215524635769798 -0.063827999550688894 0 0.03023952516910924 -0.063911704664696603 0 0.030141506024082797 -0.063958190850683674 0 0.030015592109539434 -0.063987173947884862 0 0.030141506024082797 -0.063958190850683674 0 0.030215524635769798 -0.063827999550688894 0 0.030169791122511409 -0.064106909710042986 0 0.031493052630089363 -0.065400200098818112 0 0.033164917486475876 -0.066483780834959455 0 0.031646172918527463 -0.066913038513302006 0 0.034528088153167241 -0.06872760339957433 0 0.033767048847133205 -0.066907929038327041 0 0.032751566694327161 -0.069106175015422447 0 0.033767048847133205 -0.066907929038327041 0 0.032751566694327161 -0.069106175015422447 0 0.032231494666371117 -0.067057625760997566 0 0.034172716749652797 -0.07079940354254427 0 0.034528088153167241 -0.06872760339957433 0 0.032751566694327161 -0.069106175015422447 0 0.036106808218440915 -0.072152148110783243 0 0.034172716749652797 -0.07079940354254427 0 0.034528088153167241 -0.06872760339957433 0 0.036106808218440915 -0.072152148110783243 0 0.034528088153167241 -0.06872760339957433 0 0.039297937992799611 -0.069674933396972297 0 0.035242075954146183 -0.068457629082463986 0 0.036219466998344836 -0.068456216954600232 0 0.034528088153167241 -0.06872760339957433 0 0.034818224445011134 -0.06737122355772146 0 0.033767048847133205 -0.066907929038327041 0 0.034528088153167241 -0.06872760339957433 0 0.034818224445011134 -0.06737122355772146 0 0.034883546744061418 -0.066861947497606586 0 0.034818224445011134 -0.06737122355772146 0 0.034883546744061418 -0.066861947497606586 0 0.034620757417425881 -0.066779199719459711 0 0.037073346584260279 -0.068555856991394687 0 0.036219466998344836 -0.068456216954600232 0 0.040627362477701302 -0.072744343617946905 0 0.041780872119021879 -0.070781821342035839 0 0.039297937992799611 -0.069674933396972297 0 0.033939495679943463 -0.065583501233029792 0 0.034883546744061418 -0.066861947497606586 0 0.034620757417425881 -0.066779199719459711 0 0.033214467327657558 -0.065978513779396994 0 0.033547449259370275 -0.066269827365518896 0 0.034620757417425881 -0.066779199719459711 0 0.034312907464346849 -0.067540375131492164 0 0.034935154574179519 -0.067019449379915538 0 0.033015211280067423 -0.06546243865500688 0 0.033449046533494065 -0.065816192973964849 0 0.033145403185238183 -0.065499866696881889 0 0.033015211280067423 -0.06546243865500688 0 0.033145403185238183 -0.065499866696881889 0 0.032905950410857011 -0.065432909671103073 0 0.033449046533494065 -0.065816192973964849 0 0.033435323513487866 -0.065756138481396192 0 0.033145403185238183 -0.065499866696881889 0 0.034818224445011134 -0.06737122355772146 0 0.034620757417425881 -0.066779199719459711 0 0.034935154574179519 -0.067019449379915538 0 0.034818224445011134 -0.06737122355772146 0 0.034935154574179519 -0.067019449379915538 0 0.033767048847133205 -0.066907929038327041 0 0.033547449259370275 -0.066269827365518896 0 0.033468808518243222 -0.066444406112057472 0 0.033449046533494065 -0.065816192973964849 0 0.033435323513487866 -0.065756138481396192 0 0.033767048847133205 -0.066907929038327041 0 0.033435323513487866 -0.065756138481396192 0 0.032927712298033374 -0.06588146183477768 0 0.033767048847133205 -0.066907929038327041 0 0.033435323513487866 -0.065756138481396192 0 0.032927712298033374 -0.06588146183477768 0 0.033142644748107665 -0.065514730422753298 0 0.032927712298033374 -0.06588146183477768 0 0.033767048847133205 -0.066907929038327041 0 0.032231494666371117 -0.067057625760997566 0 0.033015778158082501 -0.065234895589579192 0 0.033142644748107665 -0.065514730422753298 0 0.032580060939791863 -0.065362392568467473 0 0.032927712298033374 -0.06588146183477768 0 0.033142644748107665 -0.065514730422753298 0 0.032580060939791863 -0.065362392568467473 0 0.033015778158082501 -0.065234895589579192 0 0.033142644748107665 -0.065514730422753298 0 0.033325982352305487 -0.065547825834502443 0 0.033435323513487866 -0.065756138481396192 0 0.033142644748107665 -0.065514730422753298 0 0.033325982352305487 -0.065547825834502443 0 0.032778516877945064 -0.06517881802869302 0 0.032853250028293993 -0.065218877647503781 0 0.032692001563644102 -0.065034945451132073 0 0.032453465282519481 -0.06496838599435438 0 0.032586890165862165 -0.065107493320956597 0 0.032453465282519481 -0.06496838599435438 0 0.032479419762504465 -0.064977548974082533 0 0.032454644424724337 -0.065051025085284764 0 0.033435323513487866 -0.065756138481396192 0 0.033325982352305487 -0.065547825834502443 0 0.033145403185238183 -0.065499866696881889 0 0.032853250028293993 -0.065218877647503781 0 0.032860125289800916 -0.065235058023026787 0 0.033325982352305487 -0.065547825834502443 0 0.033145403185238183 -0.065499866696881889 0 0.032690944311401231 -0.065269159731286289 0 0.033145403185238183 -0.065499866696881889 0 0.032905950410857011 -0.065432909671103073 0 0.032690944311401231 -0.065269159731286289 0 0.032479419762504465 -0.064977548974082533 0 0.032690944311401231 -0.065269159731286289 0 0.032475502196776571 -0.064873909259164905 0 0.032453465282519481 -0.06496838599435438 0 0.032479419762504465 -0.064977548974082533 0 0.032690944311401231 -0.065269159731286289 0 0.032479419762504465 -0.064977548974082533 0 0.032320999446538212 -0.064990202912426354 0 0.032475502196776571 -0.064873909259164905 0 0.032320999446538212 -0.064990202912426354 0 0.032454644424724337 -0.065051025085284764 0 0.032026095471129862 -0.065223425680695529 0 0.032479419762504465 -0.064977548974082533 0 0.032320999446538212 -0.064990202912426354 0 0.032454644424724337 -0.065051025085284764 0 0.032454644424724337 -0.065051025085284764 0 0.032520483019467653 -0.065327015727265056 0 0.032026095471129862 -0.065223425680695529 0 0.032520483019467653 -0.065327015727265056 0 0.032026095471129862 -0.065223425680695529 0 0.031931066394576574 -0.065899971433934959 0 0.032454644424724337 -0.065051025085284764 0 0.032520483019467653 -0.065327015727265056 0 0.032586890165862165 -0.065107493320956597 0 0.032453465282519481 -0.06496838599435438 0 0.032454644424724337 -0.065051025085284764 0 0.032586890165862165 -0.065107493320956597 0 0.032692001563644102 -0.065034945451132073 0 0.032586890165862165 -0.065107493320956597 0 0.03267743745401696 -0.065118378630032309 0 0.032586890165862165 -0.065107493320956597 0 0.032647722662977691 -0.065200253511875902 0 0.03267743745401696 -0.065118378630032309 0 0.032520483019467653 -0.065327015727265056 0 0.032586890165862165 -0.065107493320956597 0 0.032647722662977691 -0.065200253511875902 0 0.032647722662977691 -0.065200253511875902 0 0.032715851254514657 -0.065150286652082487 0 0.03267743745401696 -0.065118378630032309 0 0.032715851254514657 -0.065150286652082487 0 0.03267743745401696 -0.065118378630032309 0 0.032716352014905539 -0.065108864782671666 0 0.032692001563644102 -0.065034945451132073 0 0.03267743745401696 -0.065118378630032309 0 0.032716352014905539 -0.065108864782671666 0 0.031020966485619871 -0.064393668824036854 0 0.031381692615669581 -0.064743123597111485 0 0.030670422068715189 -0.064707763170513716 0 0.030606617644237652 -0.064132886521710716 0 0.031020966485619871 -0.064393668824036854 0 0.030670422068715189 -0.064707763170513716 0 0.030155757508256047 -0.064181408688963812 0 0.030606617644237652 -0.064132886521710716 0 0.030670422068715189 -0.064707763170513716 0 0.030155757508256047 -0.064181408688963812 0 0.030670422068715189 -0.064707763170513716 0 0.029757608355367639 -0.064524254105729206 0 0.03023952516910924 -0.063911704664696603 0 0.030155757508256047 -0.064181408688963812 0 0.030606617644237652 -0.064132886521710716 0 0.03023952516910924 -0.063911704664696603 0 0.030507610113435883 -0.063924119041364386 0 0.030606617644237652 -0.064132886521710716 0 0.030842357543426555 -0.063837351023748462 0 0.030507610113435883 -0.063924119041364386 0 0.030606617644237652 -0.064132886521710716 0 0.031032928617933088 -0.063736477955473825 0 0.030842357543426555 -0.063837351023748462 0 0.031171128898112535 -0.064048822560981322 0 0.030606617644237652 -0.064132886521710716 0 0.031171128898112535 -0.064048822560981322 0 0.031020966485619871 -0.064393668824036854 0 0.030842357543426555 -0.063837351023748462 0 0.030606617644237652 -0.064132886521710716 0 0.031171128898112535 -0.064048822560981322 0 0.032385382121525842 -0.065417096385000997 0 0.032281907947419461 -0.065137755680240564 0 0.032982885505109902 -0.065440629383429288 0 0.033006477060105316 -0.065441887559213374 0 0.033021568150510085 -0.065353282568341928 0 0.031032928617933088 -0.063736477955473825 0 0.031171128898112535 -0.064048822560981322 0 0.031680946785852579 -0.064068335311591881 0 0.031171128898112535 -0.064048822560981322 0 0.031680946785852579 -0.064068335311591881 0 0.031377230406565398 -0.06435901440733395 0 0.031171128898112535 -0.064048822560981322 0 0.031020966485619871 -0.064393668824036854 0 0.031377230406565398 -0.06435901440733395 0 0.032982885505109902 -0.065440629383429288 0 0.032905950410857011 -0.065432909671103073 0 0.033021568150510085 -0.065353282568341928 0 0.033021568150510085 -0.065353282568341928 0 0.032690944311401231 -0.065269159731286289 0 0.032475502196776571 -0.064873909259164905 0 0.032905950410857011 -0.065432909671103073 0 0.033021568150510085 -0.065353282568341928 0 0.032690944311401231 -0.065269159731286289 0 0.032281907947419461 -0.065137755680240564 0 0.032288763263989897 -0.065092987630862201 0 0.031680946785852579 -0.064068335311591881 0 0.032475502196776571 -0.064873909259164905 0 0.031761703865261046 -0.064654744705659795 0 0.032475502196776571 -0.064873909259164905 0 0.031761703865261046 -0.064654744705659795 0 0.031941708639235344 -0.064976741876255767 0 0.031761703865261046 -0.064654744705659795 0 0.031381692615669581 -0.064743123597111485 0 0.031941708639235344 -0.064976741876255767 0 0.032320999446538212 -0.064990202912426354 0 0.032475502196776571 -0.064873909259164905 0 0.031941708639235344 -0.064976741876255767 0 0.031020966485619871 -0.064393668824036854 0 0.031377230406565398 -0.06435901440733395 0 0.031381692615669581 -0.064743123597111485 0 0.031680946785852579 -0.064068335311591881 0 0.031761703865261046 -0.064654744705659795 0 0.031377230406565398 -0.06435901440733395 0 0.031761703865261046 -0.064654744705659795 0 0.031377230406565398 -0.06435901440733395 0 0.031381692615669581 -0.064743123597111485 0 0.031381692615669581 -0.064743123597111485 0 0.031333778958318903 -0.065126703499861396 0 0.031941708639235344 -0.064976741876255767 0 0.031381692615669581 -0.064743123597111485 0 0.031333778958318903 -0.065126703499861396 0 0.030670422068715189 -0.064707763170513716 0 0.031333778958318903 -0.065126703499861396 0 0.031941708639235344 -0.064976741876255767 0 0.032026095471129862 -0.065223425680695529 0 0.032320999446538212 -0.064990202912426354 0 0.031941708639235344 -0.064976741876255767 0 0.032026095471129862 -0.065223425680695529 0 0.031333778958318903 -0.065126703499861396 0 0.032026095471129862 -0.065223425680695529 0 0.031218801934133917 -0.065655590230651956 0 0.031333778958318903 -0.065126703499861396 0 0.030760531436289342 -0.065349621143573025 0 0.031218801934133917 -0.065655590230651956 0 0.031333778958318903 -0.065126703499861396 0 0.030760531436289342 -0.065349621143573025 0 0.030670422068715189 -0.064707763170513716 0 0.030760531436289342 -0.065349621143573025 0 0.030670422068715189 -0.064707763170513716 0 0.030034864384298036 -0.06529330348496494 0 0.030670422068715189 -0.064707763170513716 0 0.030034864384298036 -0.06529330348496494 0 0.029757608355367639 -0.064524254105729206 0 0.030760531436289342 -0.065349621143573025 0 0.030034864384298036 -0.06529330348496494 0 0.030528165603978055 -0.065945381146775547 0 0.030034864384298036 -0.06529330348496494 0 0.029448359137211763 -0.065533586178043862 0 0.029117093812921383 -0.065026272846542554 0 0.029448359137211763 -0.065533586178043862 0 0.029117093812921383 -0.065026272846542554 0 0.02892446514978279 -0.065792130686627856 0 0.029117093812921383 -0.065026272846542554 0 0.029032719755309605 -0.064262683982620514 0 0.028230738817323835 -0.064682806424297412 0 0.029117093812921383 -0.065026272846542554 0 0.029757608355367639 -0.064524254105729206 0 0.029032719755309605 -0.064262683982620514 0 0.030034864384298036 -0.06529330348496494 0 0.029117093812921383 -0.065026272846542554 0 0.029757608355367639 -0.064524254105729206 0 0.030155757508256047 -0.064181408688963812 0 0.029757608355367639 -0.064524254105729206 0 0.029424692469425948 -0.06372431995147998 0 0.029757608355367639 -0.064524254105729206 0 0.029032719755309605 -0.064262683982620514 0 0.029424692469425948 -0.06372431995147998 0 0.029032719755309605 -0.064262683982620514 0 0.029424692469425948 -0.06372431995147998 0 0.028221994922771484 -0.063650874094125565 0 0.029379815324531072 -0.063849645831653742 0 0.028643446543807818 -0.063907101633322042 0 0.03023952516910924 -0.063911704664696603 0 0.030155757508256047 -0.064181408688963812 0 0.029424692469425948 -0.06372431995147998 0 0.02970954581464411 -0.063817535628310343 0 0.029379815324531072 -0.063849645831653742 0 0.029090420255974539 -0.063972295581630478 0 0.029223548229741443 -0.063951063567966759 0 0.028967375222979229 -0.063800827190223369 0 0.029090420255974539 -0.063972295581630478 0 0.029223548229741443 -0.063951063567966759 0 0.029355367831365695 -0.064136776459268546 0 0.029869530399244205 -0.064163278449970371 0 0.029355367831365695 -0.064136776459268546 0 0.029437535145503905 -0.063979021816285453 0 0.029223548229741443 -0.063951063567966759 0 0.029355367831365695 -0.064136776459268546 0 0.029437535145503905 -0.063979021816285453 0 0.029032719755309605 -0.064262683982620514 0 0.028221994922771484 -0.063650874094125565 0 0.028230738817323835 -0.064682806424297412 0 0.028221994922771484 -0.063650874094125565 0 0.026824935217027668 -0.064001727602395045 0 0.026489192243196558 -0.0638490141767976 0 0.028643446543807818 -0.063907101633322042 0 0.027644880289652181 -0.064021398837115814 0 0.029090420255974539 -0.063972295581630478 0 0.029355367831365695 -0.064136776459268546 0 0.028947885208643536 -0.064018448672784667 0 0.028221994922771484 -0.063650874094125565 0 0.028230738817323835 -0.064682806424297412 0 0.026824935217027668 -0.064001727602395045 0 0.028230738817323835 -0.064682806424297412 0 0.027546830952355328 -0.065236304923140198 0 0.026824935217027668 -0.064001727602395045 0 0.025525813189169369 -0.064207787293084378 0 0.025830210688977732 -0.064254165803818875 0 0.029117093812921383 -0.065026272846542554 0 0.028269831650709346 -0.065542640308170447 0 0.02892446514978279 -0.065792130686627856 0 0.029117093812921383 -0.065026272846542554 0 0.028230738817323835 -0.064682806424297412 0 0.028269831650709346 -0.065542640308170447 0 0.025525813189169369 -0.064207787293084378 0 0.023947244911772685 -0.061709711643612386 0 0.028269831650709346 -0.065542640308170447 0 0.027546830952355328 -0.065236304923140198 0 0.028019549276135428 -0.066000682932421145 0 0.028230738817323835 -0.064682806424297412 0 0.028269831650709346 -0.065542640308170447 0 0.027546830952355328 -0.065236304923140198 0 0.025578200055015331 -0.065052694931302224 0 0.026208945237123291 -0.064490246029344667 0 0.026243844808501397 -0.065051534446210951 0 0.026487595859398964 -0.064773761415337444 0 0.026208945237123291 -0.064490246029344667 0 0.026243844808501397 -0.065051534446210951 0 0.025578200055015331 -0.065052694931302224 0 0.025510799655760637 -0.064607104288287726 0 0.026208945237123291 -0.064490246029344667 0 0.025510799655760637 -0.064607104288287726 0 0.026208945237123291 -0.064490246029344667 0 0.02529592480519274 -0.06408570907870155 0 0.026208945237123291 -0.064490246029344667 0 0.02529592480519274 -0.06408570907870155 0 0.026489192243196558 -0.0638490141767976 0 0.026487595859398964 -0.064773761415337444 0 0.026208945237123291 -0.064490246029344667 0 0.026824935217027668 -0.064001727602395045 0 -0.0092982445484298855 -0.026148657324486721 0 -0.0090715203408005592 -0.025029905925357525 0 -0.0079593311513106377 -0.026191491163440175 0 -0.0090715203408005592 -0.025029905925357525 0 -0.0079593311513106377 -0.026191491163440175 0 -0.0074116117235086864 -0.024690763904494269 0 -0.004993750568902295 -0.025924484796096273 0 -0.0079593311513106377 -0.026191491163440175 0 -0.0074116117235086864 -0.024690763904494269 0 0.025578200055015331 -0.065052694931302224 0 0.025510799655760637 -0.064607104288287726 0 0.024220502045719926 -0.064690784531394804 0 0.010689895843654351 -0.045346737073520479 0 0.0079897160040988662 -0.044834428683333004 0 0.024220502045719926 -0.064690784531394804 0 0.023915522421988109 -0.063194614071196059 0 0.02529592480519274 -0.06408570907870155 0 0.025510799655760637 -0.064607104288287726 0 0.024220502045719926 -0.064690784531394804 0 0.02529592480519274 -0.06408570907870155 0 -0.0090715203408005592 -0.025029905925357525 0 -0.0090945390795170132 -0.023661103915900032 0 -0.0074116117235086864 -0.024690763904494269 0 0.021412108190983357 -0.062853918055019969 0 0.024220502045719926 -0.064690784531394804 0 0.023915522421988109 -0.063194614071196059 0 0.021412108190983357 -0.062853918055019969 0 0.023915522421988109 -0.063194614071196059 0 0.023509274206257501 -0.061774509631690962 0 0.0048987574359835445 -0.044344595977162858 0 0.0079897160040988662 -0.044834428683333004 0 0.023915522421988109 -0.063194614071196059 0 0.025003582443322046 -0.062305482078560286 0 0.023509274206257501 -0.061774509631690962 0 0.023915522421988109 -0.063194614071196059 0 0.02529592480519274 -0.06408570907870155 0 0.025003582443322046 -0.062305482078560286 0 0.02529592480519274 -0.06408570907870155 0 0.025003582443322046 -0.062305482078560286 0 0.026179399937646439 -0.062843526254464807 0 0.025003582443322046 -0.062305482078560286 0 0.02452939319274864 -0.060395012360149297 0 0.026737629767930021 -0.06107577673345272 0 0.02452939319274864 -0.060395012360149297 0 0.026737629767930021 -0.06107577673345272 0 0.025773598458921222 -0.059063793077424674 0 0.025003582443322046 -0.062305482078560286 0 0.02452939319274864 -0.060395012360149297 0 0.023509274206257501 -0.061774509631690962 0 0.02452939319274864 -0.060395012360149297 0 0.022216299188273562 -0.06017489773247249 0 0.023509274206257501 -0.061774509631690962 0 0.021412108190983357 -0.062853918055019969 0 0.022216299188273562 -0.06017489773247249 0 0.023509274206257501 -0.061774509631690962 0 0.026208945237123291 -0.064490246029344667 0 0.026824935217027668 -0.064001727602395045 0 0.026489192243196558 -0.0638490141767976 0 0.028947885208643536 -0.064018448672784667 0 0.027821576503912104 -0.063629846805583937 0 0.028442049059858365 -0.063673549188704187 0 0.028947885208643536 -0.064018448672784667 0 0.028442049059858365 -0.063673549188704187 0 0.028819317399253138 -0.063827725178127154 0 0.029090420255974539 -0.063972295581630478 0 0.028947885208643536 -0.064018448672784667 0 0.028819317399253138 -0.063827725178127154 0 0.02529592480519274 -0.06408570907870155 0 0.028947885208643536 -0.064018448672784667 0 0.027821576503912104 -0.063629846805583937 0 0.026798282918323143 -0.064166297315331397 0 0.027644880289652181 -0.064021398837115814 0 0.02529592480519274 -0.06408570907870155 0 0.026179399937646439 -0.062843526254464807 0 0.027821576503912104 -0.063629846805583937 0 0.026179399937646439 -0.062843526254464807 0 0.027821576503912104 -0.063629846805583937 0 0.026737629767930021 -0.06107577673345272 0 0.027821576503912104 -0.063629846805583937 0 0.02857802994459736 -0.063740792156748882 0 0.028442049059858365 -0.063673549188704187 0 0.023227967858768246 -0.064685886330439826 0 0.022561289515307965 -0.06453636986283505 0 0.025003582443322046 -0.062305482078560286 0 0.026179399937646439 -0.062843526254464807 0 0.026737629767930021 -0.06107577673345272 0 0.02857802994459736 -0.063740792156748882 0 0.028705652588090928 -0.063773169736454041 0 0.028708068214992347 -0.06375307596553402 0 0.029090420255974539 -0.063972295581630478 0 0.028705652588090928 -0.063773169736454041 0 0.028967375222979229 -0.063800827190223369 0 0.02857802994459736 -0.063740792156748882 0 0.028705652588090928 -0.063773169736454041 0 0.028442049059858365 -0.063673549188704187 0 0.028705652588090928 -0.063773169736454041 0 0.028442049059858365 -0.063673549188704187 0 0.028819317399253138 -0.063827725178127154 0 0.029090420255974539 -0.063972295581630478 0 0.028705652588090928 -0.063773169736454041 0 0.028819317399253138 -0.063827725178127154 0 0.028847220825382297 -0.063729281130393459 0 0.028708068214992347 -0.06375307596553402 0 0.028743468010065054 -0.063655159723480653 0 0.028967375222979229 -0.063800827190223369 0 0.028847220825382297 -0.063729281130393459 0 0.028708068214992347 -0.06375307596553402 0 0.028705652588090928 -0.063773169736454041 0 0.028967375222979229 -0.063800827190223369 0 0.028708068214992347 -0.06375307596553402 0 0.028967375222979229 -0.063800827190223369 0 0.02899801773751183 -0.063741237325165803 0 0.028847220825382297 -0.063729281130393459 0 0.028708068214992347 -0.06375307596553402 0 0.028618200983671401 -0.063733139741315809 0 0.028743468010065054 -0.063655159723480653 0 0.02857802994459736 -0.063740792156748882 0 0.028708068214992347 -0.06375307596553402 0 0.028618200983671401 -0.063733139741315809 0 0.022561289515307965 -0.06453636986283505 0 0.020605322624608992 -0.064568341088439368 0 0.020605322624608992 -0.064568341088439368 0 0.020884194934445936 -0.068493191772276363 0 0.013056979902568303 -0.074225943969609465 0 0.012719786000274333 -0.074142584139439041 0 0.012939551268684003 -0.074024048546913815 0 0.012882512225241663 -0.074398894414208536 0 0.013056979902568303 -0.074225943969609465 0 0.012719786000274333 -0.074142584139439041 0 0.013056979902568303 -0.074225943969609465 0 0.013090148833629326 -0.074049602568549797 0 0.012939551268684003 -0.074024048546913815 0 0.013056979902568303 -0.074225943969609465 0 0.013252696536430948 -0.074036944551301678 0 0.013090148833629326 -0.074049602568549797 0 0.020884194934445936 -0.068493191772276363 0 0.021392428289542555 -0.072032100121066187 0 0.028743468010065054 -0.063655159723480653 0 0.028913488909048251 -0.063658047515031776 0 0.028954680162178101 -0.063473689352046808 0 0.029025104424966093 -0.063584878478111659 0 0.028913488909048251 -0.063658047515031776 0 0.029088065096135516 -0.06370128950447497 0 0.029025104424966093 -0.063584878478111659 0 0.028913488909048251 -0.063658047515031776 0 0.028954680162178101 -0.063473689352046808 0 0.02899801773751183 -0.063741237325165803 0 0.028913488909048251 -0.063658047515031776 0 0.029088065096135516 -0.06370128950447497 0 0.02899801773751183 -0.063741237325165803 0 0.028847220825382297 -0.063729281130393459 0 0.028913488909048251 -0.063658047515031776 0 0.028847220825382297 -0.063729281130393459 0 0.028743468010065054 -0.063655159723480653 0 0.028913488909048251 -0.063658047515031776 0 0.02452939319274864 -0.060395012360149297 0 0.022216299188273562 -0.06017489773247249 0 0.02337968366217389 -0.058217545104042902 0 0.020780760057844166 -0.057893278578545031 0 0.022216299188273562 -0.06017489773247249 0 0.02337968366217389 -0.058217545104042902 0 0.02452939319274864 -0.060395012360149297 0 0.025801227493696274 -0.059020341382680495 0 0.02337968366217389 -0.058217545104042902 0 0.021680194381651564 -0.063415755460253367 0 0.020605322624608992 -0.064568341088439368 0 0.020605322624608992 -0.064568341088439368 0 0.016340872777761212 -0.065495635588831203 0 0.025801227493696274 -0.059020341382680495 0 0.02337968366217389 -0.058217545104042902 0 0.024480599258292525 -0.056246026089545931 0 0.02337968366217389 -0.058217545104042902 0 0.024480599258292525 -0.056246026089545931 0 0.022262462554858805 -0.056224331134076315 0 0.020780760057844166 -0.057893278578545031 0 0.02337968366217389 -0.058217545104042902 0 0.022262462554858805 -0.056224331134076315 0 0.024480599258292525 -0.056246026089545931 0 0.022262462554858805 -0.056224331134076315 0 0.023144747152038941 -0.053489947839600642 0 0.019519770990072887 -0.055284657211279814 0 0.022262462554858805 -0.056224331134076315 0 0.023144747152038941 -0.053489947839600642 0 0.016340872777761212 -0.065495635588831203 0 0.010612626886615415 -0.065484677580650616 0 0.012719786000274333 -0.074142584139439041 0 0.012765867357358945 -0.073919970143186256 0 0.012939551268684003 -0.074024048546913815 0 0.012719786000274333 -0.074142584139439041 0 0.012765867357358945 -0.073919970143186256 0 0.012514351425041538 -0.07386655726161892 0 0.012765867357358945 -0.073919970143186256 0 0.012817372672834245 -0.073847760543443691 0 0.012914024815121205 -0.073873782268804949 0 0.012135272286606021 -0.073518945779584288 0 0.0132489596657975 -0.074177652765158392 0 0.013105874023307115 -0.073979652682771693 0 0.012135272286606021 -0.073518945779584288 0 0.012839287000817694 -0.073746480852703925 0 0.012602446874924256 -0.073830112991483357 0 0.013713009482307251 -0.072482971689640935 0 0.0149079090673801 -0.072494762848305375 0 0.01275254562057474 -0.073837932794239086 0 0.012839287000817694 -0.073746480852703925 0 0.012602446874924256 -0.073830112991483357 0 0.012765867357358945 -0.073919970143186256 0 0.012817372672834245 -0.073847760543443691 0 0.01275254562057474 -0.073837932794239086 0 0.012765867357358945 -0.073919970143186256 0 0.01275254562057474 -0.073837932794239086 0 0.012602446874924256 -0.073830112991483357 0 0.012817372672834245 -0.073847760543443691 0 0.01275254562057474 -0.073837932794239086 0 0.012839287000817694 -0.073746480852703925 0 0.012765867357358945 -0.073919970143186256 0 0.012602446874924256 -0.073830112991483357 0 0.012514351425041538 -0.07386655726161892 0 0.010518269373645025 -0.065803000611569851 0 0.010612626886615415 -0.065484677580650616 0 0.012135272286606021 -0.073518945779584288 0 0.012602446874924256 -0.073830112991483357 0 0.012403478649928053 -0.073953937809277892 0 0.0050523040038586275 -0.067569873031772948 0 0.010612626886615415 -0.065484677580650616 0 -0.0090929713505602042 -0.063691370062638863 0 -0.0093657251576704167 -0.065146498022941798 0 -0.01083679102458269 -0.061986455856730321 0 -0.0090929713505602042 -0.063691370062638863 0 -0.0092643769181971845 -0.062267557734405864 0 -0.01083679102458269 -0.061986455856730321 0 0.01320411220035618 -0.073940404335536059 0 0.013090148833629326 -0.074049602568549797 0 0.013029771575310113 -0.073923556663274104 0 0.020744129179023758 -0.076405239808547618 0 0.021033822093411595 -0.076553971154313158 0 0.021015244483545241 -0.076070854281851175 0 0.02007383569643139 -0.072960832385427901 0 0.022167754249110549 -0.072537000106941751 0 0.020618425169600083 -0.074439829806050989 0 0.019966903758790261 -0.073060271461120443 0 0.019316264889700202 -0.073760522127965106 0 0.02007383569643139 -0.072960832385427901 0 0.021392428289542555 -0.072032100121066187 0 0.028929291408944638 -0.063405267398410847 0 0.02901226921412927 -0.06331189348128291 0 0.029110762214921572 -0.063490016972088337 0 0.021392428289542555 -0.072032100121066187 0 0.022167754249110549 -0.072537000106941751 0 0.021451960082314644 -0.071523825067160735 0 0.021392428289542555 -0.072032100121066187 0 0.029025104424966093 -0.063584878478111659 0 0.028929291408944638 -0.063405267398410847 0 0.029110762214921572 -0.063490016972088337 0 0.01320411220035618 -0.073940404335536059 0 0.013252696536430948 -0.074036944551301678 0 0.013090148833629326 -0.074049602568549797 0 0.013090148833629326 -0.074049602568549797 0 0.012939551268684003 -0.074024048546913815 0 0.013029771575310113 -0.073923556663274104 0 0.012839287000817694 -0.073746480852703925 0 0.01320411220035618 -0.073940404335536059 0 0.013029771575310113 -0.073923556663274104 0 0.012765867357358945 -0.073919970143186256 0 0.012939551268684003 -0.074024048546913815 0 0.012914024815121205 -0.073873782268804949 0 0.012939551268684003 -0.074024048546913815 0 0.013029771575310113 -0.073923556663274104 0 0.012914024815121205 -0.073873782268804949 0 0.0132489596657975 -0.074177652765158392 0 0.014789245326827339 -0.074962629442926101 0 0.0139670011948322 -0.074213263190571852 0 0.015915207727649355 -0.077150784797927516 0 0.017907068015640012 -0.077726781948646309 0 0.0149079090673801 -0.072494762848305375 0 0.02007383569643139 -0.072960832385427901 0 0.013105874023307115 -0.073979652682771693 0 0.0139670011948322 -0.074213263190571852 0 0.014295437148267405 -0.073986748665598581 0 0.013286488623736079 -0.07375479698091035 0 0.013105874023307115 -0.073979652682771693 0 0.01386363730166042 -0.073985369409664561 0 0.012817372672834245 -0.073847760543443691 0 0.012839287000817694 -0.073746480852703925 0 0.012914024815121205 -0.073873782268804949 0 0.012839287000817694 -0.073746480852703925 0 0.013029771575310113 -0.073923556663274104 0 0.012914024815121205 -0.073873782268804949 0 0.0132489596657975 -0.074177652765158392 0 0.013105874023307115 -0.073979652682771693 0 0.0139670011948322 -0.074213263190571852 0 0.0139670011948322 -0.074213263190571852 0 0.014295437148267405 -0.073986748665598581 0 0.014367884331574479 -0.074137142958169228 0 0.018040123671937542 -0.077008895253128429 0 0.018289810141426138 -0.077024986492586947 0 0.017907068015640012 -0.077726781948646309 0 0.019335814690388715 -0.077645740368411251 0 0.018289810141426138 -0.077024986492586947 0 0.019335814690388715 -0.077645740368411251 0 0.01754153196704978 -0.078026038226383945 0 0.017703798264612217 -0.078367978349794934 0 0.019165812443241961 -0.078089141076467236 0 0.017907068015640012 -0.077726781948646309 0 0.018289810141426138 -0.077024986492586947 0 0.02007383569643139 -0.072960832385427901 0 0.018289810141426138 -0.077024986492586947 0 0.020744129179023758 -0.076405239808547618 0 0.020456219810828024 -0.075809851038663625 0 0.021015244483545241 -0.076070854281851175 0 0.014789245326827339 -0.074962629442926101 0 0.0139670011948322 -0.074213263190571852 0 0.014387205191325001 -0.074131494464840728 0 0.020456219810828024 -0.075809851038663625 0 0.021015244483545241 -0.076070854281851175 0 0.020931919417505152 -0.075719519063827123 0 0.022167754249110549 -0.072537000106941751 0 0.024744225295249493 -0.075022636470788537 0 0.021015244483545241 -0.076070854281851175 0 0.020931919417505152 -0.075719519063827123 0 0.021789965630547217 -0.075754289099014202 0 0.019904265918921336 -0.077438233173232618 0 0.025919149228403226 -0.07767777754254368 0 0.026374136400218316 -0.077189959279480164 0 0.024560721671537614 -0.0745711904893996 0 0.025002809852073496 -0.07248558867999369 0 0.024230400425233934 -0.074558610340923162 0 0.019904265918921336 -0.077438233173232618 0 0.026374136400218316 -0.077189959279480164 0 0.027804928515340908 -0.075940589884035722 0 0.021033822093411595 -0.076553971154313158 0 0.021015244483545241 -0.076070854281851175 0 0.021789965630547217 -0.075754289099014202 0 0.019335814690388715 -0.077645740368411251 0 0.025819750218445316 -0.078403848453425878 0 0.019335814690388715 -0.077645740368411251 0 0.024744225295249493 -0.075022636470788537 0 0.024744225295249493 -0.075022636470788537 0 0.02474431554929574 -0.075029340462085092 0 0.029625147941937782 -0.063805373900061066 0 0.029459378010346492 -0.063878113195812714 0 0.029414058913419153 -0.064653179111805431 0 0.024509837176034208 -0.071040668836598903 0 0.026602839426451811 -0.07481892758191927 0 0.026002603421590224 -0.07300764785977884 0 0.024560721671537614 -0.0745711904893996 0 0.025002809852073496 -0.07248558867999369 0 0.029495894654158243 -0.063764209750643244 0 0.029459378010346492 -0.063878113195812714 0 0.029485857060081094 -0.063822528719664831 0 0.029495894654158243 -0.063764209750643244 0 0.029625147941937782 -0.063805373900061066 0 0.029459378010346492 -0.063878113195812714 0 0.02454052407109629 -0.071018656559804966 0 0.024509837176034208 -0.071040668836598903 0 0.02901226921412927 -0.06331189348128291 0 0.029340212498065916 -0.063472727092751632 0 0.029110762214921572 -0.063490016972088337 0 0.022167754249110549 -0.072537000106941751 0 0.024509837176034208 -0.071040668836598903 0 0.033530626479515824 -0.069145845768474865 0 0.033390719650993883 -0.072526732504598082 0 0.029459378010346492 -0.063878113195812714 0 0.029730965618498015 -0.063873025394023356 0 0.029700780765221025 -0.063933327535325338 0 0.029570370383018935 -0.063890969300569408 0 0.029459378010346492 -0.063878113195812714 0 0.029700780765221025 -0.063933327535325338 0 0.029570370383018935 -0.063890969300569408 0 0.029700780765221025 -0.063933327535325338 0 0.02968707505376178 -0.063935785202122772 0 0.029570370383018935 -0.063890969300569408 0 0.029459378010346492 -0.063878113195812714 0 0.029485857060081094 -0.063822528719664831 0 0.032601103779671722 -0.074497412663320953 0 0.029293751509941721 -0.075121521794367235 0 0.03133593907031313 -0.076199630065740667 0 0.029459378010346492 -0.063878113195812714 0 0.029414058913419153 -0.064653179111805431 0 0.028933859298138541 -0.06464892340940559 0 0.025920163230230487 -0.077675866111038841 0 0.026374136400218316 -0.077189959279480164 0 0.027131469634460149 -0.077725596474444617 0 0.024744225295249493 -0.075022636470788537 0 0.026602839426451811 -0.07481892758191927 0 0.026602839426451811 -0.07481892758191927 0 0.025819750218445316 -0.078403848453425878 0 0.026374136400218316 -0.077189959279480164 0 0.027131469634460149 -0.077725596474444617 0 0.027804928515340908 -0.075940589884035722 0 0.028921253902518228 -0.076103201866106807 0 0.029293751509941721 -0.075121521794367235 0 0.03133593907031313 -0.076199630065740667 0 0.026602839426451811 -0.07481892758191927 0 0.033390719650993883 -0.072526732504598082 0 0.033390719650993883 -0.072526732504598082 0 0.03649346593764706 -0.069977485168953066 0 0.037129470979316778 -0.07300472549660951 0 0.033390719650993883 -0.072526732504598082 0 0.029730965618498015 -0.063873025394023356 0 0.029883474192093622 -0.06402628566986085 0 0.029700780765221025 -0.063933327535325338 0 0.029730965618498015 -0.063873025394023356 0 0.029883474192093622 -0.06402628566986085 0 0.030058086645289889 -0.063959070955852196 0 0.044838000740690165 -0.071920029482677617 0 0.04506155316868652 -0.071599873085459731 0 0.044133088084438318 -0.071529259832454992 0 0.029883474192093622 -0.06402628566986085 0 0.030058086645289889 -0.063959070955852196 0 0.030023278060746318 -0.064210813614671985 0 0.030204676045219508 -0.064581767823153821 0 0.030058086645289889 -0.063959070955852196 0 0.030023278060746318 -0.064210813614671985 0 0.030204676045219508 -0.064581767823153821 0 0.030023278060746318 -0.064210813614671985 0 0.030041426008637316 -0.064170645743704902 0 0.029883474192093622 -0.06402628566986085 0 0.030023278060746318 -0.064210813614671985 0 0.030041426008637316 -0.064170645743704902 0 0.030041426008637316 -0.064170645743704902 0 0.029852015141291068 -0.064018138611231956 0 0.029982832734526399 -0.064009486401348514 0 0.030204676045219508 -0.064581767823153821 0 0.030041426008637316 -0.064170645743704902 0 0.030169791122511409 -0.064106909710042986 0 0.029883474192093622 -0.06402628566986085 0 0.029700780765221025 -0.063933327535325338 0 0.029852015141291068 -0.064018138611231956 0 0.029883474192093622 -0.06402628566986085 0 0.030041426008637316 -0.064170645743704902 0 0.029852015141291068 -0.064018138611231956 0 0.029700780765221025 -0.063933327535325338 0 0.029852015141291068 -0.064018138611231956 0 0.02968707505376178 -0.063935785202122772 0 0.029852015141291068 -0.064018138611231956 0 0.02968707505376178 -0.063935785202122772 0 0.029736018425782051 -0.063940603176619024 0 0.029852015141291068 -0.064018138611231956 0 0.029736018425782051 -0.063940603176619024 0 0.029982832734526399 -0.064009486401348514 0 0.029736018425782051 -0.063940603176619024 0 0.029982832734526399 -0.064009486401348514 0 0.029844839529541783 -0.063977031722712976 0 0.030041426008637316 -0.064170645743704902 0 0.030169791122511409 -0.064106909710042986 0 0.029982832734526399 -0.064009486401348514 0 0.030141506024082797 -0.063958190850683674 0 0.029982832734526399 -0.064009486401348514 0 0.030015592109539434 -0.063987173947884862 0 0.030141506024082797 -0.063958190850683674 0 0.030169791122511409 -0.064106909710042986 0 0.029982832734526399 -0.064009486401348514 0 0.03023952516910924 -0.063911704664696603 0 0.029869530399244205 -0.064163278449970371 0 0.030015592109539434 -0.063987173947884862 0 0.029869530399244205 -0.064163278449970371 0 0.030015592109539434 -0.063987173947884862 0 0.029844839529541783 -0.063977031722712976 0 0.029982832734526399 -0.064009486401348514 0 0.030015592109539434 -0.063987173947884862 0 0.029844839529541783 -0.063977031722712976 0 0.029869530399244205 -0.064163278449970371 0 0.029844839529541783 -0.063977031722712976 0 0.029591150921529672 -0.063924480731282388 0 0.029869530399244205 -0.064163278449970371 0 0.029591150921529672 -0.063924480731282388 0 0.029437535145503905 -0.063979021816285453 0 0.029736018425782051 -0.063940603176619024 0 0.029844839529541783 -0.063977031722712976 0 0.029591150921529672 -0.063924480731282388 0 0.029591150921529672 -0.063924480731282388 0 0.029430182398662762 -0.063852301169002534 0 0.029437535145503905 -0.063979021816285453 0 0.029430182398662762 -0.063852301169002534 0 0.029437535145503905 -0.063979021816285453 0 0.029252856562405734 -0.063863738170975515 0 0.029223548229741443 -0.063951063567966759 0 0.029437535145503905 -0.063979021816285453 0 0.029252856562405734 -0.063863738170975515 0 0.029223548229741443 -0.063951063567966759 0 0.028967375222979229 -0.063800827190223369 0 0.029252856562405734 -0.063863738170975515 0 0.028967375222979229 -0.063800827190223369 0 0.029252856562405734 -0.063863738170975515 0 0.029212350981704781 -0.063783693700439667 0 0.028967375222979229 -0.063800827190223369 0 0.02899801773751183 -0.063741237325165803 0 0.029212350981704781 -0.063783693700439667 0 0.029430182398662762 -0.063852301169002534 0 0.029252856562405734 -0.063863738170975515 0 0.029212350981704781 -0.063783693700439667 0 0.029212350981704781 -0.063783693700439667 0 0.029269767639640166 -0.063705243106305307 0 0.029421604456216329 -0.063784302340478272 0 0.029430182398662762 -0.063852301169002534 0 0.029212350981704781 -0.063783693700439667 0 0.029421604456216329 -0.063784302340478272 0 0.029088065096135516 -0.06370128950447497 0 0.029212350981704781 -0.063783693700439667 0 0.029269767639640166 -0.063705243106305307 0 0.02899801773751183 -0.063741237325165803 0 0.029088065096135516 -0.06370128950447497 0 0.029212350981704781 -0.063783693700439667 0 0.029025104424966093 -0.063584878478111659 0 0.029088065096135516 -0.06370128950447497 0 0.029269767639640166 -0.063705243106305307 0 0.029025104424966093 -0.063584878478111659 0 0.029110762214921572 -0.063490016972088337 0 0.029269767639640166 -0.063705243106305307 0 0.029340212498065916 -0.063472727092751632 0 0.029110762214921572 -0.063490016972088337 0 0.029269767639640166 -0.063705243106305307 0 0.029495894654158243 -0.063764209750643244 0 0.029269767639640166 -0.063705243106305307 0 0.029421604456216329 -0.063784302340478272 0 0.029495894654158243 -0.063764209750643244 0 0.029446381684870897 -0.063736013656206569 0 0.029269767639640166 -0.063705243106305307 0 0.024509837176034208 -0.071040668836598903 0 0.02486661283635452 -0.070239524850720547 0 0.029495894654158243 -0.063764209750643244 0 0.029421604456216329 -0.063784302340478272 0 0.029485857060081094 -0.063822528719664831 0 0.029421604456216329 -0.063784302340478272 0 0.029485857060081094 -0.063822528719664831 0 0.029552143839089516 -0.063864911702482111 0 0.029570370383018935 -0.063890969300569408 0 0.029485857060081094 -0.063822528719664831 0 0.029552143839089516 -0.063864911702482111 0 0.029570370383018935 -0.063890969300569408 0 0.02968707505376178 -0.063935785202122772 0 0.029552143839089516 -0.063864911702482111 0 0.02968707505376178 -0.063935785202122772 0 0.029736018425782051 -0.063940603176619024 0 0.029552143839089516 -0.063864911702482111 0 0.029736018425782051 -0.063940603176619024 0 0.029591150921529672 -0.063924480731282388 0 0.029552143839089516 -0.063864911702482111 0 0.029591150921529672 -0.063924480731282388 0 0.029430182398662762 -0.063852301169002534 0 0.029552143839089516 -0.063864911702482111 0 0.029430182398662762 -0.063852301169002534 0 0.029421604456216329 -0.063784302340478272 0 0.029552143839089516 -0.063864911702482111 0 0.087814636593440312 -0.066362511051393611 0 0.084996604854227817 -0.071699853980024278 0 0.084999070529269236 -0.061884570839546661 0 0.087814636593440312 -0.066362511051393611 0 0.091271448069257494 -0.06295692345386425 0 0.088523813957272796 -0.062826699637044806 0 0.088375287052963616 -0.067367010713341835 0 0.088910214694982698 -0.065395230767339108 0 0.087814636593440312 -0.066362511051393611 0 0.09132188483105283 -0.067794358389356019 0 0.091271448069257494 -0.06295692345386425 0 0.092638036668860876 -0.064059650761588274 0 0.091764485546669688 -0.0653211049468502 0 0.091271448069257494 -0.06295692345386425 0 0.092638036668860876 -0.064059650761588274 0 0.091764485546669688 -0.0653211049468502 0 0.093319250304482959 -0.065911423031580749 0 0.087814636593440312 -0.066362511051393611 0 0.09132188483105283 -0.067794358389356019 0 0.087780810355279251 -0.071315177345656733 0 0.09132188483105283 -0.067794358389356019 0 0.090958743120279836 -0.072555714780858732 0 0.087780810355279251 -0.071315177345656733 0 0.092135629343842063 -0.067237188210342066 0 0.093125477141749305 -0.067356530018207988 0 0.093319250304482959 -0.065911423031580749 0 0.088375287052963616 -0.067367010713341835 0 0.086220512053880483 -0.071880271221106282 0 0.091764485546669688 -0.0653211049468502 0 0.092135629343842063 -0.067237188210342066 0 0.093319250304482959 -0.065911423031580749 0 0.090958743120279836 -0.072555714780858732 0 0.088082322365978141 -0.075380910539928792 0 0.091030992595655474 -0.078879791017546927 0 0.086220512053880483 -0.071880271221106282 0 0.081378875538575784 -0.08178935610417587 0 0.092135629343842063 -0.067237188210342066 0 0.092821973722876316 -0.067935484890696368 0 0.092546459329262878 -0.068569980073371214 0 0.092135629343842063 -0.067237188210342066 0 0.092821973722876316 -0.067935484890696368 0 0.093125477141749305 -0.067356530018207988 0 0.090958743120279836 -0.072555714780858732 0 0.088082322365978141 -0.075380910539928792 0 0.087780810355279251 -0.071315177345656733 0 0.087780810355279251 -0.071315177345656733 0 0.084996604854227817 -0.071699853980024278 0 0.085971079970355635 -0.076167687354653985 0 0.088082322365978141 -0.075380910539928792 0 0.087780810355279251 -0.071315177345656733 0 0.085971079970355635 -0.076167687354653985 0 0.087814636593440312 -0.066362511051393611 0 0.087780810355279251 -0.071315177345656733 0 0.084996604854227817 -0.071699853980024278 0 0.084996604854227817 -0.071699853980024278 0 0.085971079970355635 -0.076167687354653985 0 0.083756094082859223 -0.082978602277807678 0 0.084996604854227817 -0.071699853980024278 0 0.084990923613854519 -0.084998101288019906 0 0.083756094082859223 -0.082978602277807678 0 0.085971079970355635 -0.076167687354653985 0 0.083756094082859223 -0.082978602277807678 0 0.086255118620891608 -0.079069973175125222 0 0.084990923613854519 -0.084998101288019906 0 0.083756094082859223 -0.082978602277807678 0 0.07495684184284726 -0.084991859770372602 0 0.083756094082859223 -0.082978602277807678 0 0.081571771054881365 -0.082684233446730135 0 0.08407351718325573 -0.081333686271607281 0 0.083756094082859223 -0.082978602277807678 0 0.07495684184284726 -0.084991859770372602 0 0.081571771054881365 -0.082684233446730135 0 0.074930946574667326 -0.084999990365063907 0 0.075403170706589626 -0.089237775451809304 0 0.07274165907894134 -0.088026901394134938 0 0.074937340344132797 -0.084997679813219512 0 0.078202341838955303 -0.08416221066467551 0 0.081571771054881365 -0.082684233446730135 0 0.08407351718325573 -0.081333686271607281 0 0.085276054254542072 -0.080359656415623718 0 0.078202341838955303 -0.08416221066467551 0 0.081378875538575784 -0.08178935610417587 0 0.075403170706589626 -0.089237775451809304 0 0.075917192331919403 -0.093384901950803498 0 0.074056892256648729 -0.091109169217380673 0 0.075917192331919403 -0.093384901950803498 0 0.074014639193356727 -0.09338811939517902 0 0.074056892256648729 -0.091109169217380673 0 0.083756094082859223 -0.082978602277807678 0 0.08407351718325573 -0.081333686271607281 0 0.086255118620891608 -0.079069973175125222 0 0.08407351718325573 -0.081333686271607281 0 0.086255118620891608 -0.079069973175125222 0 0.085276054254542072 -0.080359656415623718 0 0.082738933933782732 -0.08158471621864366 0 0.081378875538575784 -0.08178935610417587 0 0.088082322365978141 -0.075380910539928792 0 0.086255118620891608 -0.079069973175125222 0 0.091030992595655474 -0.078879791017546927 0 0.088082322365978141 -0.075380910539928792 0 0.085971079970355635 -0.076167687354653985 0 0.086255118620891608 -0.079069973175125222 0 0.092546459329262878 -0.068569980073371214 0 0.093056446315912908 -0.068312026493237324 0 0.093222916235857808 -0.06853581433764018 0 0.081378875538575784 -0.08178935610417587 0 0.079464735625344118 -0.083013760664413738 0 0.092821973722876316 -0.067935484890696368 0 0.092546459329262878 -0.068569980073371214 0 0.093056446315912908 -0.068312026493237324 0 0.092949084074638103 -0.068337285611026699 0 0.093382867178154944 -0.068333849769451657 0 0.091980951454019549 -0.067920818367175187 0 0.079464735625344118 -0.083013760664413738 0 0.079725636832593136 -0.081761539354118826 0 0.09312709258465246 -0.068099674794561332 0 0.092949084074638103 -0.068337285611026699 0 0.093382867178154944 -0.068333849769451657 0 0.092821973722876316 -0.067935484890696368 0 0.093056446315912908 -0.068312026493237324 0 0.09312709258465246 -0.068099674794561332 0 0.093056446315912908 -0.068312026493237324 0 0.09312709258465246 -0.068099674794561332 0 0.093382867178154944 -0.068333849769451657 0 0.079529759496570512 -0.08281356657216743 0 0.079464735625344118 -0.083013760664413738 0 0.092949084074638103 -0.068337285611026699 0 0.091980951454019549 -0.067920818367175187 0 0.092130004222970505 -0.07093070674243894 0 0.070308714508217476 -0.093403184113556512 0 0.071604009096015164 -0.090595160839741215 0 0.068113224666173158 -0.090894652808917314 0 0.079464735625344118 -0.083013760664413738 0 0.075158477442118232 -0.086263235873254365 0 0.073844586879174307 -0.093389329303466467 0 0.070308714508217476 -0.093403184113556512 0 0.071604009096015164 -0.090595160839741215 0 0.074014639193356727 -0.09338811939517902 0 0.071783707936307672 -0.090641063712476988 0 0.074056892256648729 -0.091109169217380673 0 0.075403170706589626 -0.089237775451809304 0 0.074056892256648729 -0.091109169217380673 0 0.07274165907894134 -0.088026901394134938 0 0.071783707936307672 -0.090641063712476988 0 0.074056892256648729 -0.091109169217380673 0 0.07274165907894134 -0.088026901394134938 0 0.071604009096015164 -0.090595160839741215 0 0.069365788414255433 -0.087800440056745185 0 0.068113224666173158 -0.090894652808917314 0 0.075158477442118232 -0.086263235873254365 0 0.070996824523879468 -0.086162233404548205 0 0.071783707936307672 -0.090641063712476988 0 0.07274165907894134 -0.088026901394134938 0 0.069486020023058009 -0.087852498360973405 0 0.069486020023058009 -0.087852498360973405 0 0.071043093679934166 -0.084999962327033093 0 0.067154979659901456 -0.084999994381272287 0 0.07274165907894134 -0.088026901394134938 0 0.069486020023058009 -0.087852498360973405 0 0.071043093679934166 -0.084999962327033093 0 0.074930946574667326 -0.084999990365063907 0 0.07274165907894134 -0.088026901394134938 0 0.071043093679934166 -0.084999962327033093 0 0.064041995228026463 -0.086894952499286859 0 0.067154826543022128 -0.084999991665422964 0 0.065642175028402833 -0.088572135817884659 0 0.064041995228026463 -0.086894952499286859 0 0.067154826543022128 -0.084999991665422964 0 0.062708667419025643 -0.084999845581218161 0 0.069365788414255433 -0.087800440056745185 0 0.067154826543022128 -0.084999991665422964 0 0.065642175028402833 -0.088572135817884659 0 0.070996824523879468 -0.086162233404548205 0 0.067161206841377885 -0.084999970878676875 0 0.069365788414255433 -0.087800440056745185 0 0.065642175028402833 -0.088572135817884659 0 0.068113224666173158 -0.090894652808917314 0 0.064041995228026463 -0.086894952499286859 0 0.065642175028402833 -0.088572135817884659 0 0.061928683867652302 -0.08786310981027573 0 0.065642175028402833 -0.088572135817884659 0 0.065130886309341995 -0.091483780364215422 0 0.068113224666173158 -0.090894652808917314 0 0.065642175028402833 -0.088572135817884659 0 0.065130886309341995 -0.091483780364215422 0 0.062595757738749827 -0.090645347741787813 0 0.070308714508217476 -0.093403184113556512 0 0.068113224666173158 -0.090894652808917314 0 0.066766899056826506 -0.093411211221509485 0 0.065130886309341995 -0.091483780364215422 0 0.068113224666173158 -0.090894652808917314 0 0.066766899056826506 -0.093411211221509485 0 0.091980951454019549 -0.067920818367175187 0 0.088913199549509742 -0.067839212427818998 0 0.090377308877308229 -0.069386434804503835 0 0.079725636832593136 -0.081761539354118826 0 0.077661206834336749 -0.080924615136526448 0 0.088913199549509742 -0.067839212427818998 0 0.088787418034122392 -0.069016525720151503 0 0.090377308877308229 -0.069386434804503835 0 0.088913199549509742 -0.067839212427818998 0 0.088787418034122392 -0.069016525720151503 0 0.08689751167634166 -0.068021542392531081 0 0.077661206834336749 -0.080924615136526448 0 0.07516366968042705 -0.080197500605344765 0 0.088913199549509742 -0.067839212427818998 0 0.08689751167634166 -0.068021542392531081 0 0.086320772892469505 -0.067964642267005326 0 0.088787418034122392 -0.069016525720151503 0 0.08689751167634166 -0.068021542392531081 0 0.089051133699488985 -0.070819746070011569 0 0.065130886309341995 -0.091483780364215422 0 0.066766899056826506 -0.093411211221509485 0 0.063228347258416223 -0.093407139079184062 0 0.08689751167634166 -0.068021542392531081 0 0.086699288064539803 -0.06894935470024792 0 0.086964853074317172 -0.068952904065317594 0 0.088038396243175901 -0.068000473276373125 0 0.088401775315769079 -0.067905742510509126 0 0.086699288064539803 -0.06894935470024792 0 0.086813888346714788 -0.069016368643194825 0 0.086795490183412496 -0.069072472408616775 0 0.079428381084656705 -0.072954441884681878 0 0.080775761944792607 -0.071452290906112742 0 0.086699288064539803 -0.06894935470024792 0 0.086813888346714788 -0.069016368643194825 0 0.086964853074317172 -0.068952904065317594 0 0.086809280249200649 -0.070234506463936988 0 0.086795490183412496 -0.069072472408616775 0 0.087001384628289366 -0.06906448406872924 0 0.086813888346714788 -0.069016368643194825 0 0.086808193048998741 -0.069018888670634312 0 0.086804778466271645 -0.069031863842679855 0 0.086813888346714788 -0.069016368643194825 0 0.086795490183412496 -0.069072472408616775 0 0.086804778466271645 -0.069031863842679855 0 0.086808193048998741 -0.069018888670634312 0 0.086964853074317172 -0.068952904065317594 0 0.086690370726245122 -0.069016978329550796 0 0.088401775315769079 -0.067905742510509126 0 0.086589595273179887 -0.063022075714321196 0 0.086813888346714788 -0.069016368643194825 0 0.086808193048998741 -0.069018888670634312 0 0.086964853074317172 -0.068952904065317594 0 0.089051133699488985 -0.070819746070011569 0 0.090377308877308229 -0.069386434804503835 0 0.092130004222970505 -0.07093070674243894 0 0.088787418034122392 -0.069016525720151503 0 0.089051133699488985 -0.070819746070011569 0 0.090377308877308229 -0.069386434804503835 0 0.091980951454019549 -0.067920818367175187 0 0.090377308877308229 -0.069386434804503835 0 0.092130004222970505 -0.07093070674243894 0 0.089488686281764748 -0.066843123827246761 0 0.088741932764081127 -0.066317809374793646 0 0.09312709258465246 -0.068099674794561332 0 0.092949084074638103 -0.068337285611026699 0 0.094276036481990733 -0.067336331967033675 0 0.09312709258465246 -0.068099674794561332 0 0.094276036481990733 -0.067336331967033675 0 0.093125477141749305 -0.067356530018207988 0 0.092821973722876316 -0.067935484890696368 0 0.09312709258465246 -0.068099674794561332 0 0.093125477141749305 -0.067356530018207988 0 0.094276036481990733 -0.067336331967033675 0 0.093125477141749305 -0.067356530018207988 0 0.093319250304482959 -0.065911423031580749 0 0.089051133699488985 -0.070819746070011569 0 0.092130004222970505 -0.07093070674243894 0 0.091105449484823381 -0.073604109127278744 0 0.094276036481990733 -0.067336331967033675 0 0.095155300757145081 -0.065715837951105929 0 0.093319250304482959 -0.065911423031580749 0 0.088741932764081127 -0.066317809374793646 0 0.086589595273179887 -0.063022075714321196 0 0.086589595273179887 -0.063022075714321196 0 0.086158469245662589 -0.055320755537939331 0 0.095155300757145081 -0.065715837951105929 0 0.093319250304482959 -0.065911423031580749 0 0.094190043867167644 -0.063697839261607631 0 0.092638036668860876 -0.064059650761588274 0 0.093319250304482959 -0.065911423031580749 0 0.094190043867167644 -0.063697839261607631 0 0.079284881358162182 -0.039023189116652264 0 0.081532324760119484 -0.042027276706247153 0 0.078019479714003262 -0.042200999534446101 0 0.08662717001374913 -0.068726854378196992 0 0.086739228652690015 -0.068887786081509902 0 0.086842761360209908 -0.068704110324194462 0 0.086690370726245122 -0.069016978329550796 0 0.08662717001374913 -0.068726854378196992 0 0.086739228652690015 -0.068887786081509902 0 0.086589595273179887 -0.063022075714321196 0 0.082086296391956845 -0.057374543792318593 0 0.086842761360209908 -0.068704110324194462 0 0.086813612490087691 -0.06894785745069873 0 0.087001384628289366 -0.06906448406872924 0 0.086739228652690015 -0.068887786081509902 0 0.086842761360209908 -0.068704110324194462 0 0.086813612490087691 -0.06894785745069873 0 0.074754135682651587 -0.070165119778859669 0 0.073791067441741659 -0.074875469371351505 0 0.057287615789301256 -0.078430933141044365 0 0.05839616429794648 -0.082353473069746871 0 0.059118910389603263 -0.080686302164660509 0 0.086813612490087691 -0.06894785745069873 0 0.086795490183412496 -0.069072472408616775 0 0.086784823107243739 -0.068997690625739239 0 0.086739228652690015 -0.068887786081509902 0 0.086813612490087691 -0.06894785745069873 0 0.086784823107243739 -0.068997690625739239 0 0.086813612490087691 -0.06894785745069873 0 0.086795490183412496 -0.069072472408616775 0 0.087001384628289366 -0.06906448406872924 0 0.086795490183412496 -0.069072472408616775 0 0.086804778466271645 -0.069031863842679855 0 0.086784823107243739 -0.068997690625739239 0 0.086808193048998741 -0.069018888670634312 0 0.086804778466271645 -0.069031863842679855 0 0.086784823107243739 -0.068997690625739239 0 0.086690370726245122 -0.069016978329550796 0 0.086739228652690015 -0.068887786081509902 0 0.086784823107243739 -0.068997690625739239 0 0.086808193048998741 -0.069018888670634312 0 0.086690370726245122 -0.069016978329550796 0 0.086784823107243739 -0.068997690625739239 0 0.061046427253617468 -0.081219360538633864 0 0.062070959074514195 -0.082378235203052402 0 0.062932801907806285 -0.083058732937981286 0 0.062629289660522752 -0.081384815786923276 0 0.064894817257402732 -0.081618395033325158 0 0.065759646274596253 -0.083959024080906525 0 0.056597148780219278 -0.0843275087977296 0 0.052154361309564558 -0.084569076772892576 0 0.061046427253617468 -0.081219360538633864 0 0.060706470953036273 -0.082170560910940493 0 0.059926176156031449 -0.081221300330473728 0 0.061046427253617468 -0.081219360538633864 0 0.062070959074514195 -0.082378235203052402 0 0.060706470953036273 -0.082170560910940493 0 0.062629289660522752 -0.081384815786923276 0 0.064894817257402732 -0.081618395033325158 0 0.064021788984930592 -0.079916611863079703 0 0.062070959074514195 -0.082378235203052402 0 0.06106309067728212 -0.082958867091822028 0 0.061665927267401249 -0.083473292803573296 0 0.062070959074514195 -0.082378235203052402 0 0.062453399095043972 -0.083352014884507802 0 0.061665927267401249 -0.083473292803573296 0 0.062070959074514195 -0.082378235203052402 0 0.06106309067728212 -0.082958867091822028 0 0.060706470953036273 -0.082170560910940493 0 0.06106309067728212 -0.082958867091822028 0 0.060706470953036273 -0.082170560910940493 0 0.060265025024841906 -0.083004434541672459 0 0.060265025024841906 -0.083004434541672459 0 0.059497091126407532 -0.082998625272976259 0 0.059814279428687347 -0.082235083560860053 0 0.059497091126407532 -0.082998625272976259 0 0.059814279428687347 -0.082235083560860053 0 0.059308466312153807 -0.081860859056871946 0 0.060706470953036273 -0.082170560910940493 0 0.060265025024841906 -0.083004434541672459 0 0.059814279428687347 -0.082235083560860053 0 0.059497091126407532 -0.082998625272976259 0 0.05839616429794648 -0.082353473069746871 0 0.059308466312153807 -0.081860859056871946 0 0.05839616429794648 -0.082353473069746871 0 0.059308466312153807 -0.081860859056871946 0 0.059118910389603263 -0.080686302164660509 0 0.059308466312153807 -0.081860859056871946 0 0.059926176156031449 -0.081221300330473728 0 0.059118910389603263 -0.080686302164660509 0 0.060706470953036273 -0.082170560910940493 0 0.059814279428687347 -0.082235083560860053 0 0.059926176156031449 -0.081221300330473728 0 0.059814279428687347 -0.082235083560860053 0 0.059308466312153807 -0.081860859056871946 0 0.059926176156031449 -0.081221300330473728 0 0.061046427253617468 -0.081219360538633864 0 0.059926176156031449 -0.081221300330473728 0 0.059278750688266622 -0.078862240035793937 0 0.059278750688266622 -0.078862240035793937 0 0.062646825517654395 -0.07849961188600528 0 0.060738892503074578 -0.076900818999101561 0 0.062629289660522752 -0.081384815786923276 0 0.059278750688266622 -0.078862240035793937 0 0.062646825517654395 -0.07849961188600528 0 0.056597148780219278 -0.0843275087977296 0 0.056998336963161936 -0.083483009079512324 0 0.059926176156031449 -0.081221300330473728 0 0.059118910389603263 -0.080686302164660509 0 0.059278750688266622 -0.078862240035793937 0 0.057287615789301256 -0.078430933141044365 0 0.059118910389603263 -0.080686302164660509 0 0.059278750688266622 -0.078862240035793937 0 0.062646825517654395 -0.07849961188600528 0 0.064021788984930592 -0.079916611863079703 0 0.06585623367759566 -0.078574842863225081 0 0.062629289660522752 -0.081384815786923276 0 0.062646825517654395 -0.07849961188600528 0 0.064021788984930592 -0.079916611863079703 0 0.025977590595373662 -0.073109935291766098 0 0.027772388080342821 -0.073094482478513259 0 0.028285447138292025 -0.075807773189151856 0 0.064894817257402732 -0.081618395033325158 0 0.064021788984930592 -0.079916611863079703 0 0.06585623367759566 -0.078574842863225081 0 0.042660551835745374 -0.081452739400784166 0 0.0412056206751448 -0.079881203926851121 0 0.027772388080342821 -0.073094482478513259 0 0.028285447138292025 -0.075807773189151856 0 0.029775371369852029 -0.072365662883016574 0 0.030766615539701243 -0.074883330667652528 0 0.028488242594364218 -0.076055651665522056 0 0.029775371369852029 -0.072365662883016574 0 0.030766615539701243 -0.074883330667652528 0 0.029775371369852029 -0.072365662883016574 0 0.03125993193659491 -0.072245512559085692 0 0.028488242594364218 -0.076055651665522056 0 0.030034295915028864 -0.078715638022906612 0 0.026951088849589702 -0.079879118734325627 0 0.030766615539701243 -0.074883330667652528 0 0.031758353868979301 -0.077511570014248188 0 0.028488242594364218 -0.076055651665522056 0 0.031758353868979301 -0.077511570014248188 0 0.028488242594364218 -0.076055651665522056 0 0.030034295915028864 -0.078715638022906612 0 0.031758353868979301 -0.077511570014248188 0 0.030034295915028864 -0.078715638022906612 0 0.031816207208379223 -0.079654235986021768 0 0.04914761726229569 -0.076222746155005822 0 0.050200069348184301 -0.084049245289990415 0 0.042660551835745374 -0.081452739400784166 0 0.048729907274760502 -0.084270447452309827 0 0.028285447138292025 -0.075807773189151856 0 0.026424002734511808 -0.079166574398059589 0 0.026803607845417608 -0.079475105903221044 0 0.025977590595373662 -0.073109935291766098 0 0.028285447138292025 -0.075807773189151856 0 0.026424002734511808 -0.079166574398059589 0 0.064894817257402732 -0.081618395033325158 0 0.06585623367759566 -0.078574842863225081 0 0.066210545362921952 -0.084336726680682941 0 0.064894817257402732 -0.081618395033325158 0 0.065759646274596253 -0.083959024080906525 0 0.066210545362921952 -0.084336726680682941 0 0.052988880239192931 -0.084856321564792947 0 0.052154361309564558 -0.084569076772892576 0 0.062070959074514195 -0.082378235203052402 0 0.063068070396092427 -0.083040486957108611 0 0.062453399095043972 -0.083352014884507802 0 0.062453399095043972 -0.083352014884507802 0 0.062772326060935413 -0.083808260314836541 0 0.063034502096495568 -0.083473976581485879 0 0.063068070396092427 -0.083040486957108611 0 0.062453399095043972 -0.083352014884507802 0 0.063034502096495568 -0.083473976581485879 0 0.062453399095043972 -0.083352014884507802 0 0.062772326060935413 -0.083808260314836541 0 0.062127978396686927 -0.084164343512288756 0 0.062772326060935413 -0.083808260314836541 0 0.063490019460874639 -0.08401662480070822 0 0.062726944012982372 -0.084260366604129208 0 0.062772326060935413 -0.083808260314836541 0 0.062726944012982372 -0.084260366604129208 0 0.062127978396686927 -0.084164343512288756 0 0.062772326060935413 -0.083808260314836541 0 0.063490019460874639 -0.08401662480070822 0 0.063034502096495568 -0.083473976581485879 0 0.050234228767001635 -0.085658440537007441 0 0.050200069348184301 -0.084049245289990415 0 0.063490019460874639 -0.08401662480070822 0 0.063034502096495568 -0.083473976581485879 0 0.063407345865273565 -0.083302960154213498 0 0.052691775862801958 -0.08464124089798386 0 0.052513146048013756 -0.082083050285111869 0 0.05344884149697067 -0.082849762101387572 0 0.050200069348184301 -0.084049245289990415 0 0.048729907274760502 -0.084270447452309827 0 0.063068070396092427 -0.083040486957108611 0 0.063034502096495568 -0.083473976581485879 0 0.063407345865273565 -0.083302960154213498 0 0.052154361309564558 -0.084569076772892576 0 0.050200069348184301 -0.084049245289990415 0 0.050234228767001635 -0.085658440537007441 0 0.048729907274760502 -0.084270447452309827 0 0.048729907274760502 -0.084270447452309827 0 0.048643773640693361 -0.088164422921894289 0 0.057717113364589991 -0.10546158867940121 0 0.056828530335445417 -0.10278865103922855 0 0.054558775423814564 -0.10291932135587738 0 0.058059144284392676 -0.10465403809783155 0 0.057717113364589991 -0.10546158867940121 0 0.056828530335445417 -0.10278865103922855 0 0.063490019460874639 -0.08401662480070822 0 0.062435336678105788 -0.085096730785433228 0 0.062726944012982372 -0.084260366604129208 0 0.062435336678105788 -0.085096730785433228 0 0.062726944012982372 -0.084260366604129208 0 0.062127978396686927 -0.084164343512288756 0 0.026951088849589702 -0.079879118734325627 0 0.030804729680213017 -0.081966707505731484 0 0.031214824475030972 -0.082507262533801182 0 0.026951088849589702 -0.079879118734325627 0 0.030343106790132881 -0.080303292064186793 0 0.030804729680213017 -0.081966707505731484 0 0.048729907274760502 -0.084270447452309827 0 0.042063219164882371 -0.08464848849286831 0 0.046932772100892493 -0.086340982730897131 0 0.046097281635354079 -0.085732198394358694 0 0.045724814829898583 -0.085675737920851508 0 0.030343106790132881 -0.080303292064186793 0 0.031816207208379223 -0.079654235986021768 0 0.032107827076435481 -0.081411690169374412 0 0.030034295915028864 -0.078715638022906612 0 0.030343106790132881 -0.080303292064186793 0 0.031816207208379223 -0.079654235986021768 0 0.030034295915028864 -0.078715638022906612 0 0.026951088849589702 -0.079879118734325627 0 0.030343106790132881 -0.080303292064186793 0 0.030343106790132881 -0.080303292064186793 0 0.030804729680213017 -0.081966707505731484 0 0.032107827076435481 -0.081411690169374412 0 0.041960437415013513 -0.084559028283728535 0 0.042063219164882371 -0.08464848849286831 0 0.030804729680213017 -0.081966707505731484 0 0.031234887359552717 -0.082510827177923449 0 0.032107827076435481 -0.081411690169374412 0 0.054558775423814564 -0.10291932135587738 0 0.054325474981519663 -0.09874344750828612 0 0.051298365533204056 -0.10036423965737248 0 0.054558775423814564 -0.10291932135587738 0 0.05587158947747807 -0.1007540868475094 0 0.054325474981519663 -0.09874344750828612 0 0.046097281635354079 -0.085732198394358694 0 0.045724814829898583 -0.085675737920851508 0 0.045262988122710859 -0.08512267396663778 0 0.048643773640693361 -0.088164422921894289 0 0.044535986329394421 -0.087567396957162216 0 0.056828530335445417 -0.10278865103922855 0 0.054558775423814564 -0.10291932135587738 0 0.05587158947747807 -0.1007540868475094 0 0.05587158947747807 -0.1007540868475094 0 0.057757167685726092 -0.099003294365169706 0 0.054325474981519663 -0.09874344750828612 0 0.054325474981519663 -0.09874344750828612 0 0.052353888994254874 -0.098220646732479447 0 0.051298365533204056 -0.10036423965737248 0 0.050234228767001635 -0.085658440537007441 0 0.053978105070014187 -0.092260657977009539 0 0.056828530335445417 -0.10278865103922855 0 0.05587158947747807 -0.1007540868475094 0 0.057757167685726092 -0.099003294365169706 0 0.063490019460874639 -0.08401662480070822 0 0.062435336678105788 -0.085096730785433228 0 0.061929365333935713 -0.087212443969686901 0 0.058059144284392676 -0.10465403809783155 0 0.056828530335445417 -0.10278865103922855 0 0.057757167685726092 -0.099003294365169706 0 0.050234228767001635 -0.085658440537007441 0 0.054273450821243178 -0.086633572845922449 0 0.057998259364829934 -0.093024336246334174 0 0.057892434575431174 -0.091027321801333189 0 0.058786372028728801 -0.091299167386154775 0 0.061929365333935713 -0.087212443969686901 0 0.060943736182327436 -0.086588304907869146 0 0.061505247675691647 -0.085950719633025446 0 0.061929365333935713 -0.087212443969686901 0 0.060209147128337422 -0.087250896440026024 0 0.060088011764140539 -0.088005556716860278 0 0.060209147128337422 -0.087250896440026024 0 0.060943736182327436 -0.086588304907869146 0 0.060199899409083227 -0.086180811473051455 0 0.061929365333935713 -0.087212443969686901 0 0.060209147128337422 -0.087250896440026024 0 0.060943736182327436 -0.086588304907869146 0 0.060943736182327436 -0.086588304907869146 0 0.060738381767338388 -0.08579585417499809 0 0.061505247675691647 -0.085950719633025446 0 0.060943736182327436 -0.086588304907869146 0 0.060199899409083227 -0.086180811473051455 0 0.060738381767338388 -0.08579585417499809 0 0.060199899409083227 -0.086180811473051455 0 0.060738381767338388 -0.08579585417499809 0 0.060033741026359132 -0.08537927350308272 0 0.062435336678105788 -0.085096730785433228 0 0.061929365333935713 -0.087212443969686901 0 0.061505247675691647 -0.085950719633025446 0 0.060738381767338388 -0.08579585417499809 0 0.061505247675691647 -0.085950719633025446 0 0.061526694730445808 -0.085076635887802357 0 0.062435336678105788 -0.085096730785433228 0 0.061505247675691647 -0.085950719633025446 0 0.061526694730445808 -0.085076635887802357 0 0.062435336678105788 -0.085096730785433228 0 0.061526694730445808 -0.085076635887802357 0 0.062127978396686927 -0.084164343512288756 0 0.061526694730445808 -0.085076635887802357 0 0.062127978396686927 -0.084164343512288756 0 0.061436331161944906 -0.084224443640902896 0 0.060738381767338388 -0.08579585417499809 0 0.061526694730445808 -0.085076635887802357 0 0.060569116252467539 -0.08474220164330154 0 0.060738381767338388 -0.08579585417499809 0 0.060569116252467539 -0.08474220164330154 0 0.060033741026359132 -0.08537927350308272 0 0.061526694730445808 -0.085076635887802357 0 0.060569116252467539 -0.08474220164330154 0 0.061436331161944906 -0.084224443640902896 0 0.060569116252467539 -0.08474220164330154 0 0.060843728792643978 -0.083823532840456683 0 0.061436331161944906 -0.084224443640902896 0 0.060843728792643978 -0.083823532840456683 0 0.061665927267401249 -0.083473292803573296 0 0.061436331161944906 -0.084224443640902896 0 0.060569116252467539 -0.08474220164330154 0 0.060843728792643978 -0.083823532840456683 0 0.06000172094231121 -0.083858107114789582 0 0.060265025024841906 -0.083004434541672459 0 0.060843728792643978 -0.083823532840456683 0 0.06000172094231121 -0.083858107114789582 0 0.06106309067728212 -0.082958867091822028 0 0.060265025024841906 -0.083004434541672459 0 0.060843728792643978 -0.083823532840456683 0 0.06106309067728212 -0.082958867091822028 0 0.060843728792643978 -0.083823532840456683 0 0.061665927267401249 -0.083473292803573296 0 0.062453399095043972 -0.083352014884507802 0 0.061665927267401249 -0.083473292803573296 0 0.062127978396686927 -0.084164343512288756 0 0.061665927267401249 -0.083473292803573296 0 0.062127978396686927 -0.084164343512288756 0 0.061436331161944906 -0.084224443640902896 0 0.086809280249200649 -0.070234506463936988 0 0.087001384628289366 -0.06906448406872924 0 0.087280307757781062 -0.070234789722368601 0 0.073791067441741659 -0.074875469371351505 0 0.073020508532022341 -0.07780724576478229 0 0.05839616429794648 -0.082353473069746871 0 0.059608511385376574 -0.084203160248016537 0 0.059179832510022276 -0.08579620302349461 0 0.059497091126407532 -0.082998625272976259 0 0.05839616429794648 -0.082353473069746871 0 0.059608511385376574 -0.084203160248016537 0 0.059497091126407532 -0.082998625272976259 0 0.06000172094231121 -0.083858107114789582 0 0.059608511385376574 -0.084203160248016537 0 0.060265025024841906 -0.083004434541672459 0 0.059497091126407532 -0.082998625272976259 0 0.06000172094231121 -0.083858107114789582 0 0.060569116252467539 -0.08474220164330154 0 0.059608511385376574 -0.084203160248016537 0 0.060033741026359132 -0.08537927350308272 0 0.059608511385376574 -0.084203160248016537 0 0.059179832510022276 -0.08579620302349461 0 0.060033741026359132 -0.08537927350308272 0 0.060569116252467539 -0.08474220164330154 0 0.06000172094231121 -0.083858107114789582 0 0.059608511385376574 -0.084203160248016537 0 0.079428381084656705 -0.072954441884681878 0 0.07516366968042705 -0.080197500605344765 0 0.086809280249200649 -0.070234506463936988 0 0.087280307757781062 -0.070234789722368601 0 0.087000284570510317 -0.071514727024841018 0 0.073020508532022341 -0.07780724576478229 0 0.071865480380653657 -0.079802931546273423 0 0.060209147128337422 -0.087250896440026024 0 0.059179832510022276 -0.08579620302349461 0 0.060088011764140539 -0.088005556716860278 0 0.060209147128337422 -0.087250896440026024 0 0.060199899409083227 -0.086180811473051455 0 0.059179832510022276 -0.08579620302349461 0 0.060199899409083227 -0.086180811473051455 0 0.059179832510022276 -0.08579620302349461 0 0.060033741026359132 -0.08537927350308272 0 0.087280307757781062 -0.070234789722368601 0 0.087000284570510317 -0.071514727024841018 0 0.087644063953523185 -0.071523106728818897 0 0.08689751167634166 -0.068021542392531081 0 0.086699288064539803 -0.06894935470024792 0 0.086320772892469505 -0.067964642267005326 0 0.059179832510022276 -0.08579620302349461 0 0.060088011764140539 -0.088005556716860278 0 0.059794143135616117 -0.089009377161497968 0 0.07516366968042705 -0.080197500605344765 0 0.071865480380653657 -0.079802931546273423 0 0.063052452221392941 -0.093091914941993426 0 0.061130384055347209 -0.093096262847464556 0 0.062084586217850207 -0.09195353178972776 0 0.058786372028728801 -0.091299167386154775 0 0.059693691005448656 -0.089262618621641948 0 0.058525247215475133 -0.089985246779523867 0 0.054273450821243178 -0.086633572845922449 0 0.055357089406821082 -0.087014362452411148 0 0.061929365333935713 -0.087212443969686901 0 0.059975785725062167 -0.088981459376345995 0 0.059693691005448656 -0.089262618621641948 0 0.061929365333935713 -0.087212443969686901 0 0.060088011764140539 -0.088005556716860278 0 0.059975785725062167 -0.088981459376345995 0 0.060088011764140539 -0.088005556716860278 0 0.059975785725062167 -0.088981459376345995 0 0.059794143135616117 -0.089009377161497968 0 0.071790389749859268 -0.079818758648808011 0 0.071865480380653657 -0.079802931546273423 0 0.059975785725062167 -0.088981459376345995 0 0.059985116467363354 -0.089326793757373582 0 0.059693691005448656 -0.089262618621641948 0 0.059985116467363354 -0.089326793757373582 0 0.059693691005448656 -0.089262618621641948 0 0.059239259167026583 -0.088477655004610842 0 0.071865480380653657 -0.079802931546273423 0 0.067167795218817647 -0.084889818987072346 0 0.061130384055347209 -0.093096262847464556 0 0.062084586217850207 -0.09195353178972776 0 0.059872525103367429 -0.089582557017468298 0 0.058800373289181557 -0.089168936782480501 0 0.059693691005448656 -0.089262618621641948 0 0.059239259167026583 -0.088477655004610842 0 0.058800373289181557 -0.089168936782480501 0 0.059693691005448656 -0.089262618621641948 0 0.058525247215475133 -0.089985246779523867 0 0.062483300195516317 -0.090513526500902025 0 0.062084586217850207 -0.09195353178972776 0 0.059872525103367429 -0.089582557017468298 0 0.065130886309341995 -0.091483780364215422 0 0.063228347258416223 -0.093407139079184062 0 0.062595757738749827 -0.090645347741787813 0 0.07516366968042705 -0.080197500605344765 0 0.07230054551864136 -0.08511400565048835 0 0.063052452221392941 -0.093091914941993426 0 0.062483300195516317 -0.090513526500902025 0 0.062084586217850207 -0.09195353178972776 0 0.065642175028402833 -0.088572135817884659 0 0.062595757738749827 -0.090645347741787813 0 0.061928683867652302 -0.08786310981027573 0 0.062483300195516317 -0.090513526500902025 0 0.061928683867652302 -0.08786310981027573 0 0.059872525103367429 -0.089582557017468298 0 0.07230054551864136 -0.08511400565048835 0 0.071252460400374446 -0.085859212361934334 0 0.067167795218817647 -0.084889818987072346 0 0.065379316448546665 -0.085007113398386999 0 0.059872525103367429 -0.089582557017468298 0 0.060134490195070438 -0.087389399051284566 0 0.058441287398713945 -0.085822110041422969 0 0.061928683867652302 -0.08786310981027573 0 0.059872525103367429 -0.089582557017468298 0 0.060134490195070438 -0.087389399051284566 0 0.061928683867652302 -0.08786310981027573 0 0.060273684543347729 -0.08628248590397225 0 0.060134490195070438 -0.087389399051284566 0 0.060273684543347729 -0.08628248590397225 0 0.062708667419025643 -0.084999845581218161 0 0.058262698720103819 -0.085000204656887429 0 0.060273684543347729 -0.08628248590397225 0 0.060134490195070438 -0.087389399051284566 0 0.058441287398713945 -0.085822110041422969 0 0.060273684543347729 -0.08628248590397225 0 0.058441287398713945 -0.085822110041422969 0 0.058262698720103819 -0.085000204656887429 0 0.064041995228026463 -0.086894952499286859 0 0.061928683867652302 -0.08786310981027573 0 0.062708667419025643 -0.084999845581218161 0 0.061928683867652302 -0.08786310981027573 0 0.060273684543347729 -0.08628248590397225 0 0.062708667419025643 -0.084999845581218161 0 0.054198084923295427 -0.087184911635966353 0 0.053815701258018524 -0.084999162614229115 0 0.056789570093824487 -0.087268481255604297 0 0.054198084923295427 -0.087184911635966353 0 0.053815701258018524 -0.084999162614229115 0 0.052032813809569728 -0.086925703811103885 0 0.053815701258018524 -0.084999162614229115 0 0.058262698720103819 -0.085000204656887429 0 0.056789570093824487 -0.087268481255604297 0 0.058441287398713945 -0.085822110041422969 0 0.058262698720103819 -0.085000204656887429 0 0.056789570093824487 -0.087268481255604297 0 0.055616174532764233 -0.089582337734152015 0 0.055341436923152194 -0.091045556469844358 0 0.059239259167026583 -0.088477655004610842 0 0.058441287398713945 -0.085822110041422969 0 0.056789570093824487 -0.087268481255604297 0 0.059239259167026583 -0.088477655004610842 0 0.056789570093824487 -0.087268481255604297 0 0.057692579795840512 -0.089134505638208184 0 0.056789570093824487 -0.087268481255604297 0 0.054159271122174724 -0.090198727306650031 0 0.057438171254133849 -0.093043435565447669 0 0.054198084923295427 -0.087184911635966353 0 0.056789570093824487 -0.087268481255604297 0 0.054159271122174724 -0.090198727306650031 0 0.054198084923295427 -0.087184911635966353 0 0.054159271122174724 -0.090198727306650031 0 0.052032813809569728 -0.086925703811103885 0 0.054159271122174724 -0.090198727306650031 0 0.05261223121178616 -0.092640403608511931 0 0.057438171254133849 -0.093043435565447669 0 0.05261223121178616 -0.092640403608511931 0 0.057438171254133849 -0.093043435565447669 0 0.053083608058422521 -0.095517062104895967 0 0.058800373289181557 -0.089168936782480501 0 0.059239259167026583 -0.088477655004610842 0 0.057692579795840512 -0.089134505638208184 0 0.058800373289181557 -0.089168936782480501 0 0.057692579795840512 -0.089134505638208184 0 0.058525247215475133 -0.089985246779523867 0 0.053978105070014187 -0.092260657977009539 0 0.055341436923152194 -0.091045556469844358 0 0.057892434575431174 -0.091027321801333189 0 0.057692579795840512 -0.089134505638208184 0 0.058525247215475133 -0.089985246779523867 0 0.057757167685726092 -0.099003294365169706 0 0.057438171254133849 -0.093043435565447669 0 0.054325474981519663 -0.09874344750828612 0 0.057892434575431174 -0.091027321801333189 0 0.058786372028728801 -0.091299167386154775 0 0.058525247215475133 -0.089985246779523867 0 0.057438171254133849 -0.093043435565447669 0 0.053083608058422521 -0.095517062104895967 0 0.054325474981519663 -0.09874344750828612 0 0.053083608058422521 -0.095517062104895967 0 0.054325474981519663 -0.09874344750828612 0 0.052353888994254874 -0.098220646732479447 0 0.042576344279381811 -0.086438085840120457 0 0.044535986329394421 -0.087567396957162216 0 0.044204197245327703 -0.089258265534161191 0 0.044535986329394421 -0.087567396957162216 0 0.050789235164701442 -0.097411632299120129 0 0.048018185563390041 -0.096447810511957693 0 0.051298365533204056 -0.10036423965737248 0 0.052353888994254874 -0.098220646732479447 0 0.050789235164701442 -0.097411632299120129 0 0.051298365533204056 -0.10036423965737248 0 0.03948894654529702 -0.086483481203678506 0 0.039379446909629454 -0.086570653227027616 0 0.03914980747330031 -0.086180186961447594 0 0.053083608058422521 -0.095517062104895967 0 0.052353888994254874 -0.098220646732479447 0 0.050789235164701442 -0.097411632299120129 0 0.050789235164701442 -0.097411632299120129 0 0.04953332561529436 -0.095909931073743404 0 0.050392387442478689 -0.094569813148146942 0 0.050789235164701442 -0.097411632299120129 0 0.04953332561529436 -0.095909931073743404 0 0.048018185563390041 -0.096447810511957693 0 0.048941294384971482 -0.095188874053333594 0 0.04953332561529436 -0.095909931073743404 0 0.048018185563390041 -0.096447810511957693 0 0.048941294384971482 -0.095188874053333594 0 0.04953332561529436 -0.095909931073743404 0 0.050392387442478689 -0.094569813148146942 0 0.053083608058422521 -0.095517062104895967 0 0.050789235164701442 -0.097411632299120129 0 0.050392387442478689 -0.094569813148146942 0 0.039396002714325709 -0.084801596493946141 0 0.039398791904039658 -0.084415111464944653 0 0.03948894654529702 -0.086483481203678506 0 0.039677860156569322 -0.08642102704426341 0 0.039460285042060297 -0.086407697021868693 0 0.039677860156569322 -0.08642102704426341 0 0.03798397189378773 -0.084606255846730705 0 0.035721066474850321 -0.085039124439454605 0 0.039379446909629454 -0.086570653227027616 0 0.039553023809839494 -0.086589573226907218 0 0.039659658714595064 -0.086736177943870049 0 0.03948894654529702 -0.086483481203678506 0 0.039379446909629454 -0.086570653227027616 0 0.039553023809839494 -0.086589573226907218 0 0.03948894654529702 -0.086483481203678506 0 0.039553023809839494 -0.086589573226907218 0 0.039677860156569322 -0.08642102704426341 0 0.039553023809839494 -0.086589573226907218 0 0.039659658714595064 -0.086736177943870049 0 0.039677860156569322 -0.08642102704426341 0 0.039379446909629454 -0.086570653227027616 0 0.039659658714595064 -0.086736177943870049 0 0.03993009348858817 -0.087017447028271841 0 0.048018185563390041 -0.096447810511957693 0 0.047631394419786241 -0.093520103411598665 0 0.04404751574680156 -0.092089409943297978 0 0.044204197245327703 -0.089258265534161191 0 0.04293471771692179 -0.088588665653157567 0 0.048941294384971482 -0.095188874053333594 0 0.048018185563390041 -0.096447810511957693 0 0.047631394419786241 -0.093520103411598665 0 0.047631394419786241 -0.093520103411598665 0 0.04740379086759279 -0.091172915875152749 0 0.04404751574680156 -0.092089409943297978 0 0.05261223121178616 -0.092640403608511931 0 0.053083608058422521 -0.095517062104895967 0 0.050392387442478689 -0.094569813148146942 0 0.048941294384971482 -0.095188874053333594 0 0.047631394419786241 -0.093520103411598665 0 0.050392387442478689 -0.094569813148146942 0 0.047631394419786241 -0.093520103411598665 0 0.050392387442478689 -0.094569813148146942 0 0.050193329356582411 -0.091716045364837476 0 0.047631394419786241 -0.093520103411598665 0 0.04740379086759279 -0.091172915875152749 0 0.050193329356582411 -0.091716045364837476 0 0.054159271122174724 -0.090198727306650031 0 0.05261223121178616 -0.092640403608511931 0 0.050193329356582411 -0.091716045364837476 0 0.05261223121178616 -0.092640403608511931 0 0.050392387442478689 -0.094569813148146942 0 0.050193329356582411 -0.091716045364837476 0 0.050150811874665524 -0.089362451686803332 0 0.04669594463796007 -0.088684909365385506 0 0.052032813809569728 -0.086925703811103885 0 0.054159271122174724 -0.090198727306650031 0 0.050193329356582411 -0.091716045364837476 0 0.050150811874665524 -0.089362451686803332 0 0.054159271122174724 -0.090198727306650031 0 0.050150811874665524 -0.089362451686803332 0 0.052032813809569728 -0.086925703811103885 0 0.04740379086759279 -0.091172915875152749 0 0.050193329356582411 -0.091716045364837476 0 0.050150811874665524 -0.089362451686803332 0 0.04740379086759279 -0.091172915875152749 0 0.04404751574680156 -0.092089409943297978 0 0.04669594463796007 -0.088684909365385506 0 0.04669594463796007 -0.088684909365385506 0 0.043015059689924959 -0.085114236421782771 0 0.052032813809569728 -0.086925703811103885 0 0.04740379086759279 -0.091172915875152749 0 0.050150811874665524 -0.089362451686803332 0 0.04669594463796007 -0.088684909365385506 0 0.04404751574680156 -0.092089409943297978 0 0.043456088895813018 -0.088042028601642799 0 0.04669594463796007 -0.088684909365385506 0 0.043456088895813018 -0.088042028601642799 0 0.04669594463796007 -0.088684909365385506 0 0.043015059689924959 -0.085114236421782771 0 0.049369540990700282 -0.084999983456207115 0 0.047903449403365404 -0.087005989258705507 0 0.052032813809569728 -0.086925703811103885 0 0.045351695678253798 -0.086264800158292659 0 0.048062858727793423 -0.086460162116413664 0 0.053815701258018524 -0.084999162614229115 0 0.049369540990700282 -0.084999983456207115 0 0.052032813809569728 -0.086925703811103885 0 0.040474402957569808 -0.084998719240639606 0 0.044924421202034083 -0.085000279257569603 0 0.043281664517229063 -0.086838406738730348 0 0.043015059689924959 -0.085114236421782771 0 0.037834918839437466 -0.085276725898111472 0 0.03984129454924619 -0.086079291605130309 0 0.047903449403365404 -0.087005989258705507 0 0.044924421202034083 -0.085000279257569603 0 0.043281664517229063 -0.086838406738730348 0 0.045351695678253798 -0.086264800158292659 0 0.04171433436182604 -0.086065031439625073 0 0.049369540990700282 -0.084999983456207115 0 0.047903449403365404 -0.087005989258705507 0 0.044924421202034083 -0.085000279257569603 0 0.04293471771692179 -0.088588665653157567 0 0.042154223080652531 -0.087805962650369579 0 0.04404751574680156 -0.092089409943297978 0 0.043456088895813018 -0.088042028601642799 0 0.040269787412930719 -0.086349883729005192 0 0.038564272419390346 -0.086013759057203848 0 0.038259065299382687 -0.085915301105383202 0 0.043015059689924959 -0.085114236421782771 0 0.03984129454924619 -0.086079291605130309 0 0.040269787412930719 -0.086349883729005192 0 0.03984129454924619 -0.086079291605130309 0 0.040269787412930719 -0.086349883729005192 0 0.040105498372737684 -0.086699590402347912 0 0.03993009348858817 -0.087017447028271841 0 0.040269787412930719 -0.086349883729005192 0 0.040105498372737684 -0.086699590402347912 0 0.03984129454924619 -0.086079291605130309 0 0.038699987206046907 -0.086130521777820004 0 0.038671588881540715 -0.086201709869919027 0 0.03984129454924619 -0.086079291605130309 0 0.040105498372737684 -0.086699590402347912 0 0.040058865727926753 -0.087229848957913969 0 0.043456088895813018 -0.088042028601642799 0 0.043015059689924959 -0.085114236421782771 0 0.040269787412930719 -0.086349883729005192 0 0.037834918839437466 -0.085276725898111472 0 0.03984129454924619 -0.086079291605130309 0 0.038440678993896263 -0.085928043637716667 0 0.03984129454924619 -0.086079291605130309 0 0.038699987206046907 -0.086130521777820004 0 0.038440678993896263 -0.085928043637716667 0 0.038001546668662269 -0.085680135429940019 0 0.037834918839437466 -0.085276725898111472 0 0.038440678993896263 -0.085928043637716667 0 0.038001546668662269 -0.085680135429940019 0 0.038440678993896263 -0.085928043637716667 0 0.038239804536690132 -0.085932984786373567 0 0.038699987206046907 -0.086130521777820004 0 0.038440678993896263 -0.085928043637716667 0 0.038239804536690132 -0.085932984786373567 0 0.038699987206046907 -0.086130521777820004 0 0.038239804536690132 -0.085932984786373567 0 0.0384089853236943 -0.08613262685105133 0 0.038699987206046907 -0.086130521777820004 0 0.0384089853236943 -0.08613262685105133 0 0.038671588881540715 -0.086201709869919027 0 0.0384089853236943 -0.08613262685105133 0 0.038671588881540715 -0.086201709869919027 0 0.038427556019424783 -0.0864148126212409 0 0.039659658714595064 -0.086736177943870049 0 0.03993009348858817 -0.087017447028271841 0 0.040058865727926753 -0.087229848957913969 0 0.039659658714595064 -0.086736177943870049 0 0.040058865727926753 -0.087229848957913969 0 0.039677860156569322 -0.08642102704426341 0 0.03993009348858817 -0.087017447028271841 0 0.040105498372737684 -0.086699590402347912 0 0.040058865727926753 -0.087229848957913969 0 0.038259065299382687 -0.085915301105383202 0 0.037187162145789932 -0.084474813661145454 0 0.038671588881540715 -0.086201709869919027 0 0.038427556019424783 -0.0864148126212409 0 0.038692675093835428 -0.086621770524965488 0 0.040058865727926753 -0.087229848957913969 0 0.039677860156569322 -0.08642102704426341 0 0.040102675279280339 -0.085006134443771988 0 0.039677860156569322 -0.08642102704426341 0 0.040102675279280339 -0.085006134443771988 0 0.03798397189378773 -0.084606255846730705 0 0.038185345935838784 -0.086229289073259927 0 0.0384089853236943 -0.08613262685105133 0 0.038427556019424783 -0.0864148126212409 0 0.03794922046036138 -0.086538509414352108 0 0.038427556019424783 -0.0864148126212409 0 0.038421077022290515 -0.08681712805888972 0 0.036391181000484059 -0.083414360555362069 0 0.035596065285056384 -0.081860285434560656 0 0.038427556019424783 -0.0864148126212409 0 0.038421077022290515 -0.08681712805888972 0 0.038692675093835428 -0.086621770524965488 0 0.031343119369462415 -0.078662408196539219 0 0.029328796083327596 -0.075641518719945844 0 0.031958173733839891 -0.07528668955959418 0 0.034344152395592027 -0.077990250902404121 0 0.031343119369462415 -0.078662408196539219 0 0.031958173733839891 -0.07528668955959418 0 0.034581065280145117 -0.079399100413137705 0 0.037187162145789932 -0.084474813661145454 0 0.035596065285056384 -0.081860285434560656 0 0.034581065280145117 -0.079399100413137705 0 0.038421077022290515 -0.08681712805888972 0 0.038727689122711122 -0.087071253764800988 0 0.038692675093835428 -0.086621770524965488 0 0.039765534966346654 -0.079964340130471781 0 0.040102675279280339 -0.085006134443771988 0 0.038018659568843954 -0.082739665024743406 0 0.040102675279280339 -0.085006134443771988 0 0.03798397189378773 -0.084606255846730705 0 0.038018659568843954 -0.082739665024743406 0 0.03798397189378773 -0.084606255846730705 0 0.035721066474850321 -0.085039124439454605 0 0.036282338187223782 -0.083191310262999002 0 0.03798397189378773 -0.084606255846730705 0 0.036282338187223782 -0.083191310262999002 0 0.038018659568843954 -0.082739665024743406 0 0.042063219164882371 -0.08464848849286831 0 0.039398791904039658 -0.084415111464944653 0 0.031234887359552717 -0.082510827177923449 0 0.035721066474850321 -0.085039124439454605 0 0.034223145366405222 -0.08262952568118638 0 0.03948894654529702 -0.086483481203678506 0 0.039460285042060297 -0.086407697021868693 0 0.039405142764473253 -0.086380092473277756 0 0.039378519584055423 -0.086314987007568567 0 0.039460285042060297 -0.086407697021868693 0 0.039405142764473253 -0.086380092473277756 0 0.035721066474850321 -0.085039124439454605 0 0.036282338187223782 -0.083191310262999002 0 0.034223145366405222 -0.08262952568118638 0 0.042063219164882371 -0.08464848849286831 0 0.044535986329394421 -0.087567396957162216 0 0.034223145366405222 -0.08262952568118638 0 0.032107827076435481 -0.081411690169374412 0 0.033899766429469541 -0.079629485974590949 0 0.031234887359552717 -0.082510827177923449 0 0.034223145366405222 -0.08262952568118638 0 0.032107827076435481 -0.081411690169374412 0 0.034223145366405222 -0.08262952568118638 0 0.033899766429469541 -0.079629485974590949 0 0.036510115311060375 -0.080581757616498009 0 0.031816207208379223 -0.079654235986021768 0 0.032107827076435481 -0.081411690169374412 0 0.033899766429469541 -0.079629485974590949 0 0.039765534966346654 -0.079964340130471781 0 0.038018659568843954 -0.082739665024743406 0 0.036510115311060375 -0.080581757616498009 0 0.036282338187223782 -0.083191310262999002 0 0.038018659568843954 -0.082739665024743406 0 0.036510115311060375 -0.080581757616498009 0 0.036282338187223782 -0.083191310262999002 0 0.034223145366405222 -0.08262952568118638 0 0.036510115311060375 -0.080581757616498009 0 0.029804718458881049 -0.074084008506022106 0 0.02852764835590936 -0.072448082526278379 0 0.029672167933866716 -0.072903725076343642 0 0.034581065280145117 -0.079399100413137705 0 0.031797021803781494 -0.075307720612525039 0 0.033899766429469541 -0.079629485974590949 0 0.036510115311060375 -0.080581757616498009 0 0.035707551864951045 -0.076114383083267942 0 0.039765534966346654 -0.079964340130471781 0 0.036510115311060375 -0.080581757616498009 0 0.035707551864951045 -0.076114383083267942 0 0.030766615539701243 -0.074883330667652528 0 0.031758353868979301 -0.077511570014248188 0 0.035707551864951045 -0.076114383083267942 0 0.031758353868979301 -0.077511570014248188 0 0.033899766429469541 -0.079629485974590949 0 0.035707551864951045 -0.076114383083267942 0 0.031758353868979301 -0.077511570014248188 0 0.031816207208379223 -0.079654235986021768 0 0.033899766429469541 -0.079629485974590949 0 0.02852764835590936 -0.072448082526278379 0 0.028355307272009106 -0.070992028516872335 0 0.027394627319872016 -0.070368029342336366 0 0.030766615539701243 -0.074883330667652528 0 0.035707551864951045 -0.076114383083267942 0 0.03125993193659491 -0.072245512559085692 0 0.031797021803781494 -0.075307720612525039 0 0.029504733951156381 -0.072468845734685455 0 0.02852764835590936 -0.072448082526278379 0 0.028355307272009106 -0.070992028516872335 0 0.029656531570481117 -0.071176674437495244 0 0.02852764835590936 -0.072448082526278379 0 0.029656531570481117 -0.071176674437495244 0 0.029672167933866716 -0.072903725076343642 0 0.029656531570481117 -0.071176674437495244 0 0.031110123063404431 -0.070901341306319601 0 0.029672167933866716 -0.072903725076343642 0 0.031110123063404431 -0.070901341306319601 0 0.031232151358984415 -0.073153047862646134 0 0.029672167933866716 -0.072903725076343642 0 0.032997539839427638 -0.072486057553100461 0 0.031110123063404431 -0.070901341306319601 0 0.031232151358984415 -0.073153047862646134 0 0.032997539839427638 -0.072486057553100461 0 0.031110123063404431 -0.070901341306319601 0 0.032751566694327161 -0.069106175015422447 0 0.029328796083327596 -0.075641518719945844 0 0.031958173733839891 -0.07528668955959418 0 0.031232151358984415 -0.073153047862646134 0 0.032997539839427638 -0.072486057553100461 0 0.031958173733839891 -0.07528668955959418 0 0.031232151358984415 -0.073153047862646134 0 0.029328796083327596 -0.075641518719945844 0 0.031232151358984415 -0.073153047862646134 0 0.029672167933866716 -0.072903725076343642 0 0.034581065280145117 -0.079399100413137705 0 0.033945316748988957 -0.077478711186679525 0 0.030617431323971503 -0.068750069382197479 0 0.032751566694327161 -0.069106175015422447 0 0.032231494666371117 -0.067057625760997566 0 0.031110123063404431 -0.070901341306319601 0 0.030617431323971503 -0.068750069382197479 0 0.032751566694327161 -0.069106175015422447 0 0.029656531570481117 -0.071176674437495244 0 0.031110123063404431 -0.070901341306319601 0 0.030617431323971503 -0.068750069382197479 0 0.028355307272009106 -0.070992028516872335 0 0.029656531570481117 -0.071176674437495244 0 0.028940513330623044 -0.07003585917478837 0 0.029656531570481117 -0.071176674437495244 0 0.030617431323971503 -0.068750069382197479 0 0.028940513330623044 -0.07003585917478837 0 0.028355307272009106 -0.070992028516872335 0 0.028049530346870889 -0.070080745838194985 0 0.027394627319872016 -0.070368029342336366 0 0.028049530346870889 -0.070080745838194985 0 0.027484100432990786 -0.069557162159001526 0 0.027394627319872016 -0.070368029342336366 0 0.028355307272009106 -0.070992028516872335 0 0.028940513330623044 -0.07003585917478837 0 0.028049530346870889 -0.070080745838194985 0 0.028940513330623044 -0.07003585917478837 0 0.028049530346870889 -0.070080745838194985 0 0.028143546521702489 -0.069274921696262634 0 0.028940513330623044 -0.07003585917478837 0 0.028143546521702489 -0.069274921696262634 0 0.029056993001405608 -0.068639307063064939 0 0.028049530346870889 -0.070080745838194985 0 0.028143546521702489 -0.069274921696262634 0 0.027484100432990786 -0.069557162159001526 0 0.028143546521702489 -0.069274921696262634 0 0.029056993001405608 -0.068639307063064939 0 0.028046730974482594 -0.067956082270429735 0 0.028143546521702489 -0.069274921696262634 0 0.028046730974482594 -0.067956082270429735 0 0.02740723320551983 -0.068938626019813487 0 0.028143546521702489 -0.069274921696262634 0 0.02740723320551983 -0.068938626019813487 0 0.027484100432990786 -0.069557162159001526 0 0.030617431323971503 -0.068750069382197479 0 0.028940513330623044 -0.07003585917478837 0 0.029056993001405608 -0.068639307063064939 0 0.030617431323971503 -0.068750069382197479 0 0.029056993001405608 -0.068639307063064939 0 0.02961753794434082 -0.067217150409664361 0 0.029056993001405608 -0.068639307063064939 0 0.02961753794434082 -0.067217150409664361 0 0.028046730974482594 -0.067956082270429735 0 0.02961753794434082 -0.067217150409664361 0 0.030298511965722454 -0.065728937914210556 0 0.031091037522505419 -0.066813431485812314 0 0.031281613807111711 -0.066510314113547894 0 0.0322699593409543 -0.065365097130346161 0 0.028046730974482594 -0.067956082270429735 0 0.028187615886510135 -0.066137006101292223 0 0.0271549328334562 -0.06734764894158321 0 0.02961753794434082 -0.067217150409664361 0 0.028046730974482594 -0.067956082270429735 0 0.027960337879322946 -0.065381478810313629 0 0.02961753794434082 -0.067217150409664361 0 0.027960337879322946 -0.065381478810313629 0 0.030298511965722454 -0.065728937914210556 0 0.027960337879322946 -0.065381478810313629 0 0.030298511965722454 -0.065728937914210556 0 0.029905935773852057 -0.064200716368217808 0 0.030298511965722454 -0.065728937914210556 0 0.032037076085734494 -0.065642999299125357 0 0.031091037522505419 -0.066813431485812314 0 0.030298511965722454 -0.065728937914210556 0 0.032037076085734494 -0.065642999299125357 0 0.029905935773852057 -0.064200716368217808 0 0.030617431323971503 -0.068750069382197479 0 0.02961753794434082 -0.067217150409664361 0 0.031091037522505419 -0.066813431485812314 0 0.030617431323971503 -0.068750069382197479 0 0.031091037522505419 -0.066813431485812314 0 0.032231494666371117 -0.067057625760997566 0 0.032037076085734494 -0.065642999299125357 0 0.031091037522505419 -0.066813431485812314 0 0.032231494666371117 -0.067057625760997566 0 0.032927712298033374 -0.06588146183477768 0 0.032037076085734494 -0.065642999299125357 0 0.032231494666371117 -0.067057625760997566 0 0.032927712298033374 -0.06588146183477768 0 0.032037076085734494 -0.065642999299125357 0 0.032580060939791863 -0.065362392568467473 0 0.032037076085734494 -0.065642999299125357 0 0.032580060939791863 -0.065362392568467473 0 0.032355728058548229 -0.065270792729253152 0 0.032037076085734494 -0.065642999299125357 0 0.032355728058548229 -0.065270792729253152 0 0.032387060772797717 -0.065201914818441051 0 0.032884761668980342 -0.063812716191940053 0 0.033101163831041676 -0.063317824059845276 0 0.032355728058548229 -0.065270792729253152 0 0.032413409059087246 -0.065172319760568809 0 0.032387060772797717 -0.065201914818441051 0 0.032355728058548229 -0.065270792729253152 0 0.032413409059087246 -0.065172319760568809 0 0.032453387088266575 -0.065077648781040373 0 0.032580060939791863 -0.065362392568467473 0 0.032355728058548229 -0.065270792729253152 0 0.032453387088266575 -0.065077648781040373 0 0.032580060939791863 -0.065362392568467473 0 0.032689166315207178 -0.065071174428140088 0 0.032665725058321299 -0.065136683436548118 0 0.032689166315207178 -0.065071174428140088 0 0.032665725058321299 -0.065136683436548118 0 0.032702043106093717 -0.065091015812620834 0 0.032413409059087246 -0.065172319760568809 0 0.032453387088266575 -0.065077648781040373 0 0.032471389798145261 -0.065103903977606264 0 0.032653804666395773 -0.065233386769620413 0 0.032638754427164497 -0.065145932325649858 0 0.033015778158082501 -0.065234895589579192 0 0.032580060939791863 -0.065362392568467473 0 0.032665725058321299 -0.065136683436548118 0 0.032692001563644102 -0.065034945451132073 0 0.032665725058321299 -0.065136683436548118 0 0.032702043106093717 -0.065091015812620834 0 0.032778516877945064 -0.06517881802869302 0 0.032720237623995028 -0.065161446661982161 0 0.032692001563644102 -0.065034945451132073 0 0.032716352014905539 -0.065108864782671666 0 0.032702043106093717 -0.065091015812620834 0 0.032716352014905539 -0.065108864782671666 0 0.032702043106093717 -0.065091015812620834 0 0.032749661190445797 -0.065112547307875288 0 0.032638754427164497 -0.065145932325649858 0 0.032681054193395585 -0.065117930126000437 0 0.032689166315207178 -0.065071174428140088 0 0.032749661190445797 -0.065112547307875288 0 0.032831322517110476 -0.065138837292686602 0 0.032689166315207178 -0.065071174428140088 0 0.032702043106093717 -0.065091015812620834 0 0.032749661190445797 -0.065112547307875288 0 0.032453387088266575 -0.065077648781040373 0 0.03253959359141128 -0.065073653390644123 0 0.032471389798145261 -0.065103903977606264 0 0.032749661190445797 -0.065112547307875288 0 0.032765216778596985 -0.065141445267132572 0 0.032831322517110476 -0.065138837292686602 0 0.032716352014905539 -0.065108864782671666 0 0.032749661190445797 -0.065112547307875288 0 0.032765216778596985 -0.065141445267132572 0 0.032715851254514657 -0.065150286652082487 0 0.032716352014905539 -0.065108864782671666 0 0.032765216778596985 -0.065141445267132572 0 0.032762338029698107 -0.065073723332981143 0 0.032629560244727927 -0.065054515905563007 0 0.032729450664976373 -0.065006802091706978 0 0.032762338029698107 -0.065073723332981143 0 0.032729450664976373 -0.065006802091706978 0 0.03285914205490939 -0.065044488997131153 0 0.032729450664976373 -0.065006802091706978 0 0.03285914205490939 -0.065044488997131153 0 0.032858066824203287 -0.064997419423011127 0 0.032762338029698107 -0.065073723332981143 0 0.03285914205490939 -0.065044488997131153 0 0.032921605191434292 -0.065078141730042047 0 0.032762338029698107 -0.065073723332981143 0 0.032609561744473367 -0.065087682305718195 0 0.032629560244727927 -0.065054515905563007 0 0.032629560244727927 -0.065054515905563007 0 0.032571216052516297 -0.065066721772532921 0 0.032618059168954293 -0.065049121530587284 0 0.032453387088266575 -0.065077648781040373 0 0.032609561744473367 -0.065087682305718195 0 0.03253959359141128 -0.065073653390644123 0 0.032629560244727927 -0.065054515905563007 0 0.03253959359141128 -0.065073653390644123 0 0.032571216052516297 -0.065066721772532921 0 0.032609561744473367 -0.065087682305718195 0 0.032629560244727927 -0.065054515905563007 0 0.03253959359141128 -0.065073653390644123 0 0.03253959359141128 -0.065073653390644123 0 0.032471389798145261 -0.065103903977606264 0 0.032511399034132603 -0.065095457762573097 0 0.03253959359141128 -0.065073653390644123 0 0.032571216052516297 -0.065066721772532921 0 0.032511399034132603 -0.065095457762573097 0 0.032571216052516297 -0.065066721772532921 0 0.032557512091876066 -0.065079237513921834 0 0.032511399034132603 -0.065095457762573097 0 0.032557512091876066 -0.065079237513921834 0 0.032597295644231881 -0.065064130662285627 0 0.032563278027996009 -0.065079652303934657 0 0.032597295644231881 -0.065064130662285627 0 0.032610457863315963 -0.065059184349333318 0 0.032563278027996009 -0.065079652303934657 0 0.032597295644231881 -0.065064130662285627 0 0.032618059168954293 -0.065049121530587284 0 0.032640173748093311 -0.065041557473612191 0 0.032557512091876066 -0.065079237513921834 0 0.032597295644231881 -0.065064130662285627 0 0.032618059168954293 -0.065049121530587284 0 0.032571216052516297 -0.065066721772532921 0 0.032557512091876066 -0.065079237513921834 0 0.032618059168954293 -0.065049121530587284 0 0.032629560244727927 -0.065054515905563007 0 0.032618059168954293 -0.065049121530587284 0 0.032729450664976373 -0.065006802091706978 0 0.032729450664976373 -0.065006802091706978 0 0.032744809905359218 -0.064856645649866429 0 0.032878626570477083 -0.064916385173952873 0 0.032729450664976373 -0.065006802091706978 0 0.032640173748093311 -0.065041557473612191 0 0.032618317667583399 -0.065049468072904806 0 0.0369872396017756 -0.064265922384975555 0 0.037095333272154876 -0.064182465191332985 0 0.032618059168954293 -0.065049121530587284 0 0.032729450664976373 -0.065006802091706978 0 0.032640173748093311 -0.065041557473612191 0 0.037095333272154876 -0.064182465191332985 0 0.039822104269479311 -0.062836847450046793 0 0.032597295644231881 -0.065064130662285627 0 0.032640173748093311 -0.065041557473612191 0 0.032610457863315963 -0.065059184349333318 0 0.037076728473635259 -0.064198115350865725 0 0.037095333272154876 -0.064182465191332985 0 0.037095333272154876 -0.064182465191332985 0 0.035839953848030709 -0.063019994899255194 0 0.036630406723619315 -0.061498320445096899 0 0.036660744574020292 -0.065818131997044088 0 0.034484959406531165 -0.064312457196650907 0 0.032503365987089819 -0.065110748399062723 0 0.032544062173731216 -0.065084276925131315 0 0.032387060772797717 -0.065201914818441051 0 0.032610457863315963 -0.065059184349333318 0 0.032563278027996009 -0.065079652303934657 0 0.032544062173731216 -0.065084276925131315 0 0.035839953848030709 -0.063019994899255194 0 0.039822104269479311 -0.062836847450046793 0 0.032563278027996009 -0.065079652303934657 0 0.032503365987089819 -0.065110748399062723 0 0.032544062173731216 -0.065084276925131315 0 0.032557512091876066 -0.065079237513921834 0 0.032563278027996009 -0.065079652303934657 0 0.032503365987089819 -0.065110748399062723 0 0.032471389798145261 -0.065103903977606264 0 0.032511399034132603 -0.065095457762573097 0 0.032455393369509575 -0.065140034389880128 0 0.032557512091876066 -0.065079237513921834 0 0.032503365987089819 -0.065110748399062723 0 0.032511399034132603 -0.065095457762573097 0 0.032503365987089819 -0.065110748399062723 0 0.032511399034132603 -0.065095457762573097 0 0.032455393369509575 -0.065140034389880128 0 0.032503365987089819 -0.065110748399062723 0 0.032455393369509575 -0.065140034389880128 0 0.032387060772797717 -0.065201914818441051 0 0.032413409059087246 -0.065172319760568809 0 0.032455393369509575 -0.065140034389880128 0 0.032387060772797717 -0.065201914818441051 0 0.032413409059087246 -0.065172319760568809 0 0.032471389798145261 -0.065103903977606264 0 0.032455393369509575 -0.065140034389880128 0 0.028187615886510135 -0.066137006101292223 0 0.028242350351483977 -0.064262244032534957 0 0.027504388812928316 -0.065331805369991447 0 0.0322699593409543 -0.065365097130346161 0 0.035839953848030709 -0.063019994899255194 0 0.035839953848030709 -0.063019994899255194 0 0.033101163831041676 -0.063317824059845276 0 0.027960337879322946 -0.065381478810313629 0 0.027958484774994852 -0.062854689134342528 0 0.029905935773852057 -0.064200716368217808 0 0.049057181923395629 -0.063185352492867386 0 0.042530717931265519 -0.061677074476733908 0 0.027504388812928316 -0.065331805369991447 0 0.026601204524605827 -0.065315195117765096 0 0.026995849541904125 -0.066202391997911059 0 0.027504388812928316 -0.065331805369991447 0 0.026601204524605827 -0.065315195117765096 0 0.027624779243026403 -0.064490723878676007 0 0.067795536521706334 -0.057502040916790863 0 0.066673658662367283 -0.057190065731102913 0 0.066753223460993563 -0.058885800814776464 0 0.067795536521706334 -0.057502040916790863 0 0.06733996016996345 -0.056298257843411248 0 0.066673658662367283 -0.057190065731102913 0 0.067795536521706334 -0.057502040916790863 0 0.06733996016996345 -0.056298257843411248 0 0.06800332093714466 -0.056118975763067847 0 0.06733996016996345 -0.056298257843411248 0 0.06673370264493772 -0.055614451134232211 0 0.066673658662367283 -0.057190065731102913 0 0.06800332093714466 -0.056118975763067847 0 0.067466493770031527 -0.055537938456603125 0 0.068342611235764752 -0.055328907822531991 0 0.06733996016996345 -0.056298257843411248 0 0.06800332093714466 -0.056118975763067847 0 0.067466493770031527 -0.055537938456603125 0 0.06733996016996345 -0.056298257843411248 0 0.067466493770031527 -0.055537938456603125 0 0.06673370264493772 -0.055614451134232211 0 0.067795536521706334 -0.057502040916790863 0 0.06800332093714466 -0.056118975763067847 0 0.068772558148377586 -0.056192908337122614 0 0.026601204524605827 -0.065315195117765096 0 0.027463753710336776 -0.064180944578389909 0 0.027624779243026403 -0.064490723878676007 0 0.027461439011652451 -0.06417655555280663 0 0.027624779243026403 -0.064490723878676007 0 0.027695136263342114 -0.063872316665224957 0 0.028242350351483977 -0.064262244032534957 0 0.027504388812928316 -0.065331805369991447 0 0.027624779243026403 -0.064490723878676007 0 0.028242350351483977 -0.064262244032534957 0 0.027624779243026403 -0.064490723878676007 0 0.027695136263342114 -0.063872316665224957 0 0.042530717931265519 -0.061677074476733908 0 0.042319853465251758 -0.061584087242870303 0 0.06800332093714466 -0.056118975763067847 0 0.068772558148377586 -0.056192908337122614 0 0.068342611235764752 -0.055328907822531991 0 0.042530717931265519 -0.061677074476733908 0 0.045975266415827824 -0.062341773034037248 0 0.039822104269479311 -0.062836847450046793 0 0.045975266415827824 -0.062341773034037248 0 0.045878091568547046 -0.064295180215718742 0 0.047568551629144432 -0.062077948253185203 0 0.042930825455445923 -0.058867364159049168 0 0.042530717931265519 -0.061677074476733908 0 0.039822104269479311 -0.062836847450046793 0 0.032744809905359218 -0.064856645649866429 0 0.032879334238880197 -0.064705184116714276 0 0.03288887970426526 -0.064830727091932314 0 0.032879334238880197 -0.064705184116714276 0 0.03288887970426526 -0.064830727091932314 0 0.033009937138273465 -0.064802929036568285 0 0.032744809905359218 -0.064856645649866429 0 0.03288887970426526 -0.064830727091932314 0 0.032878626570477083 -0.064916385173952873 0 0.032973919101293173 -0.06493090919050698 0 0.033009937138273465 -0.064802929036568285 0 0.033115157424135386 -0.065097375430312104 0 0.032729450664976373 -0.065006802091706978 0 0.032878626570477083 -0.064916385173952873 0 0.032858066824203287 -0.064997419423011127 0 0.03288887970426526 -0.064830727091932314 0 0.032878626570477083 -0.064916385173952873 0 0.032973919101293173 -0.06493090919050698 0 0.032878626570477083 -0.064916385173952873 0 0.032858066824203287 -0.064997419423011127 0 0.032956278429949713 -0.06500525929205514 0 0.032878626570477083 -0.064916385173952873 0 0.032973919101293173 -0.06493090919050698 0 0.032956278429949713 -0.06500525929205514 0 0.03288887970426526 -0.064830727091932314 0 0.032973919101293173 -0.06493090919050698 0 0.033009937138273465 -0.064802929036568285 0 0.045975266415827824 -0.062341773034037248 0 0.049195905346222576 -0.060306959135347567 0 0.045975266415827824 -0.062341773034037248 0 0.051814157217095841 -0.06342675832649472 0 0.067466493770031527 -0.055537938456603125 0 0.068342611235764752 -0.055328907822531991 0 0.066869366557068308 -0.054348194974513223 0 0.067023492739455987 -0.054533556849371494 0 0.066869366557068308 -0.054348194974513223 0 0.06681826045603334 -0.054127418295309204 0 0.067466493770031527 -0.055537938456603125 0 0.066869366557068308 -0.054348194974513223 0 0.06673370264493772 -0.055614451134232211 0 0.06681826045603334 -0.054127418295309204 0 0.066491057575599394 -0.054066617348820914 0 0.066438266445283736 -0.054179966934126404 0 0.06681826045603334 -0.054127418295309204 0 0.066491057575599394 -0.054066617348820914 0 0.066578908545893226 -0.054105995146548166 0 0.066869366557068308 -0.054348194974513223 0 0.06681826045603334 -0.054127418295309204 0 0.066578908545893226 -0.054105995146548166 0 0.033115157424135386 -0.065097375430312104 0 0.033021484975001854 -0.065053190057488414 0 0.033115113373677042 -0.064945584307427653 0 0.033021484975001854 -0.065053190057488414 0 0.03285914205490939 -0.065044488997131153 0 0.032921605191434292 -0.065078141730042047 0 0.033021484975001854 -0.065053190057488414 0 0.03285914205490939 -0.065044488997131153 0 0.032956278429949713 -0.06500525929205514 0 0.03285914205490939 -0.065044488997131153 0 0.032858066824203287 -0.064997419423011127 0 0.032956278429949713 -0.06500525929205514 0 0.032973919101293173 -0.06493090919050698 0 0.033115157424135386 -0.065097375430312104 0 0.032956278429949713 -0.06500525929205514 0 0.033115157424135386 -0.065097375430312104 0 0.033021484975001854 -0.065053190057488414 0 0.032956278429949713 -0.06500525929205514 0 0.06688562819759486 -0.053854411728820072 0 0.066528815778267039 -0.054080736435410469 0 0.06606576113668236 -0.053930429041654286 0 0.06688562819759486 -0.053854411728820072 0 0.066988960997842392 -0.054093425050445267 0 0.066528815778267039 -0.054080736435410469 0 0.066988960997842392 -0.054093425050445267 0 0.066528815778267039 -0.054080736435410469 0 0.066659172926209834 -0.054207702095057514 0 0.066528815778267039 -0.054080736435410469 0 0.066491057575599394 -0.054066617348820914 0 0.066659172926209834 -0.054207702095057514 0 0.066491057575599394 -0.054066617348820914 0 0.066578908545893226 -0.054105995146548166 0 0.06606576113668236 -0.053930429041654286 0 0.066528815778267039 -0.054080736435410469 0 0.066491057575599394 -0.054066617348820914 0 0.06606576113668236 -0.053930429041654286 0 0.06606576113668236 -0.053930429041654286 0 0.066193580251955833 -0.054929628266117518 0 0.063067411490292227 -0.056650814579428742 0 0.066578908545893226 -0.054105995146548166 0 0.06606576113668236 -0.053930429041654286 0 0.066193580251955833 -0.054929628266117518 0 0.066869366557068308 -0.054348194974513223 0 0.066578908545893226 -0.054105995146548166 0 0.066193580251955833 -0.054929628266117518 0 0.066869366557068308 -0.054348194974513223 0 0.066193580251955833 -0.054929628266117518 0 0.06673370264493772 -0.055614451134232211 0 0.066354964909701733 -0.055474518038560627 0 0.066454262054578273 -0.055905699674519221 0 0.06606576113668236 -0.053930429041654286 0 0.066619572332863225 -0.053201712398725176 0 0.067147722653964001 -0.053430303560621235 0 0.06688562819759486 -0.053854411728820072 0 0.06606576113668236 -0.053930429041654286 0 0.067147722653964001 -0.053430303560621235 0 0.066619572332863225 -0.053201712398725176 0 0.067328649698545975 -0.053014606173455527 0 0.067147722653964001 -0.053430303560621235 0 0.063067411490292227 -0.056650814579428742 0 0.065566016052274009 -0.056991028284975612 0 0.063922818085519348 -0.059895264421461938 0 0.066619572332863225 -0.053201712398725176 0 0.067795568439506043 -0.052079139777428639 0 0.067328649698545975 -0.053014606173455527 0 0.060305448095964505 -0.059290968924658974 0 0.059331706099872226 -0.060966532994785508 0 0.06673370264493772 -0.055614451134232211 0 0.065566016052274009 -0.056991028284975612 0 0.067507433112169779 -0.059585311724374208 0 0.066193580251955833 -0.054929628266117518 0 0.06673370264493772 -0.055614451134232211 0 0.065566016052274009 -0.056991028284975612 0 0.066193580251955833 -0.054929628266117518 0 0.063067411490292227 -0.056650814579428742 0 0.065566016052274009 -0.056991028284975612 0 0.067507433112169779 -0.059585311724374208 0 0.065373889952719894 -0.062095052885389475 0 0.063922818085519348 -0.059895264421461938 0 0.065566016052274009 -0.056991028284975612 0 0.067507433112169779 -0.059585311724374208 0 0.063922818085519348 -0.059895264421461938 0 0.059331706099872226 -0.060966532994785508 0 0.055997285325582971 -0.065586046579616322 0 0.067507433112169779 -0.059585311724374208 0 0.065373889952719894 -0.062095052885389475 0 0.068068107099057737 -0.064510981746034396 0 0.065373889952719894 -0.062095052885389475 0 0.063922818085519348 -0.059895264421461938 0 0.062822971478142434 -0.06248623872805599 0 0.063067411490292227 -0.056650814579428742 0 0.063922818085519348 -0.059895264421461938 0 0.06014817112577274 -0.061532714018533448 0 0.066454262054578273 -0.055905699674519221 0 0.067328049827915168 -0.05662058115942932 0 0.066619572332863225 -0.053201712398725176 0 0.067671909934932897 -0.049901663511650908 0 0.067795568439506043 -0.052079139777428639 0 0.063922818085519348 -0.059895264421461938 0 0.06014817112577274 -0.061532714018533448 0 0.062822971478142434 -0.06248623872805599 0 0.06014817112577274 -0.061532714018533448 0 0.062822971478142434 -0.06248623872805599 0 0.061121139055547891 -0.064658234042419174 0 0.062822971478142434 -0.06248623872805599 0 0.063788154755387086 -0.064832221787035807 0 0.061121139055547891 -0.064658234042419174 0 0.063788154755387086 -0.064832221787035807 0 0.061121139055547891 -0.064658234042419174 0 0.061265411653775012 -0.067227529425891219 0 0.061121139055547891 -0.064658234042419174 0 0.061265411653775012 -0.067227529425891219 0 0.057484071385990897 -0.067273601691197185 0 0.063788154755387086 -0.064832221787035807 0 0.061265411653775012 -0.067227529425891219 0 0.064291411666385759 -0.069542952997666149 0 0.061265411653775012 -0.067227529425891219 0 0.060008660894334258 -0.070415982249882755 0 0.057484071385990897 -0.067273601691197185 0 0.061265411653775012 -0.067227529425891219 0 0.060008660894334258 -0.070415982249882755 0 0.064291411666385759 -0.069542952997666149 0 0.058766552382124686 -0.067615318756706649 0 0.055997285325582971 -0.065586046579616322 0 0.062392175555759162 -0.07113366679404115 0 0.064979144179301992 -0.067692670600033616 0 0.065405321603089456 -0.072983385020605682 0 0.063788154755387086 -0.064832221787035807 0 0.064291411666385759 -0.069542952997666149 0 0.068068107099057737 -0.064510981746034396 0 0.065373889952719894 -0.062095052885389475 0 0.063788154755387086 -0.064832221787035807 0 0.068068107099057737 -0.064510981746034396 0 0.065373889952719894 -0.062095052885389475 0 0.062822971478142434 -0.06248623872805599 0 0.063788154755387086 -0.064832221787035807 0 0.049057181923395629 -0.063185352492867386 0 0.055997285325582971 -0.065586046579616322 0 0.026601204524605827 -0.065315195117765096 0 0.025776336621725758 -0.066409728915519189 0 0.026995849541904125 -0.066202391997911059 0 0.025776336621725758 -0.066409728915519189 0 0.026995849541904125 -0.066202391997911059 0 0.0271549328334562 -0.06734764894158321 0 0.028187615886510135 -0.066137006101292223 0 0.027504388812928316 -0.065331805369991447 0 0.026995849541904125 -0.066202391997911059 0 0.028187615886510135 -0.066137006101292223 0 0.026995849541904125 -0.066202391997911059 0 0.0271549328334562 -0.06734764894158321 0 0.025776336621725758 -0.066409728915519189 0 0.026560161596446748 -0.067954579087041139 0 0.025700717251309405 -0.068317836193905718 0 0.025776336621725758 -0.066409728915519189 0 0.0271549328334562 -0.06734764894158321 0 0.026560161596446748 -0.067954579087041139 0 0.055997285325582971 -0.065586046579616322 0 0.050666868149014527 -0.070729853760347558 0 0.025700717251309405 -0.068317836193905718 0 0.026737731972541159 -0.069166981813773579 0 0.02711824901292334 -0.071188629562433436 0 0.026560161596446748 -0.067954579087041139 0 0.025700717251309405 -0.068317836193905718 0 0.026737731972541159 -0.069166981813773579 0 0.0271549328334562 -0.06734764894158321 0 0.026560161596446748 -0.067954579087041139 0 0.02740723320551983 -0.068938626019813487 0 0.028046730974482594 -0.067956082270429735 0 0.0271549328334562 -0.06734764894158321 0 0.02740723320551983 -0.068938626019813487 0 0.026737731972541159 -0.069166981813773579 0 0.02740723320551983 -0.068938626019813487 0 0.027484100432990786 -0.069557162159001526 0 0.026560161596446748 -0.067954579087041139 0 0.026737731972541159 -0.069166981813773579 0 0.02740723320551983 -0.068938626019813487 0 0.026737731972541159 -0.069166981813773579 0 0.027484100432990786 -0.069557162159001526 0 0.027394627319872016 -0.070368029342336366 0 0.028282517224649622 -0.071148548269107617 0 0.029504733951156381 -0.072468845734685455 0 0.026737731972541159 -0.069166981813773579 0 0.029775371369852029 -0.072365662883016574 0 0.03125993193659491 -0.072245512559085692 0 0.027772388080342821 -0.073094482478513259 0 0.029775371369852029 -0.072365662883016574 0 0.02711824901292334 -0.071188629562433436 0 0.025977590595373662 -0.073109935291766098 0 0.025700717251309405 -0.068317836193905718 0 0.02711824901292334 -0.071188629562433436 0 0.026737731972541159 -0.069166981813773579 0 0.029775371369852029 -0.072365662883016574 0 0.02711824901292334 -0.071188629562433436 0 0.04914761726229569 -0.076222746155005822 0 0.050666868149014527 -0.070729853760347558 0 0.025977590595373662 -0.073109935291766098 0 0.027772388080342821 -0.073094482478513259 0 0.02711824901292334 -0.071188629562433436 0 0.06585623367759566 -0.078574842863225081 0 0.065405321603089456 -0.072983385020605682 0 0.063025905591763728 -0.075859092831489269 0 0.062646825517654395 -0.07849961188600528 0 0.06585623367759566 -0.078574842863225081 0 0.063025905591763728 -0.075859092831489269 0 0.062646825517654395 -0.07849961188600528 0 0.063025905591763728 -0.075859092831489269 0 0.060738892503074578 -0.076900818999101561 0 0.063025905591763728 -0.075859092831489269 0 0.060738892503074578 -0.076900818999101561 0 0.059867725888508361 -0.074466481264994625 0 0.059278750688266622 -0.078862240035793937 0 0.060738892503074578 -0.076900818999101561 0 0.058623464838938995 -0.076427960438050807 0 0.060738892503074578 -0.076900818999101561 0 0.059867725888508361 -0.074466481264994625 0 0.058623464838938995 -0.076427960438050807 0 0.063025905591763728 -0.075859092831489269 0 0.059867725888508361 -0.074466481264994625 0 0.062649378871716108 -0.073609340190283312 0 0.060008660894334258 -0.070415982249882755 0 0.064291411666385759 -0.069542952997666149 0 0.059867725888508361 -0.074466481264994625 0 0.062392175555759162 -0.07113366679404115 0 0.059867725888508361 -0.074466481264994625 0 0.062649378871716108 -0.073609340190283312 0 0.058766552382124686 -0.067615318756706649 0 0.058591999442789006 -0.069448601812747257 0 0.062392175555759162 -0.07113366679404115 0 0.065405321603089456 -0.072983385020605682 0 0.062649378871716108 -0.073609340190283312 0 0.065405321603089456 -0.072983385020605682 0 0.063025905591763728 -0.075859092831489269 0 0.062649378871716108 -0.073609340190283312 0 0.076665939463421331 -0.045498588182943521 0 0.079204098540779574 -0.044488893500979537 0 0.078948515474236203 -0.046858641708543224 0 0.060008660894334258 -0.070415982249882755 0 0.059867725888508361 -0.074466481264994625 0 0.055336410848262359 -0.073024619996791995 0 0.074754135682651587 -0.070165119778859669 0 0.075462828183197925 -0.058169562196521446 0 0.057287615789301256 -0.078430933141044365 0 0.055336410848262359 -0.073024619996791995 0 0.058623464838938995 -0.076427960438050807 0 0.059867725888508361 -0.074466481264994625 0 0.055336410848262359 -0.073024619996791995 0 0.058623464838938995 -0.076427960438050807 0 0.057287615789301256 -0.078430933141044365 0 0.059278750688266622 -0.078862240035793937 0 0.058623464838938995 -0.076427960438050807 0 0.082086296391956845 -0.057374543792318593 0 0.075462828183197925 -0.058169562196521446 0 0.08662717001374913 -0.068726854378196992 0 0.086842761360209908 -0.068704110324194462 0 0.086691817533065416 -0.068317482157768533 0 0.078019479714003262 -0.042200999534446101 0 0.076665939463421331 -0.045498588182943521 0 0.079204098540779574 -0.044488893500979537 0 0.081532324760119484 -0.042027276706247153 0 0.078019479714003262 -0.042200999534446101 0 0.079204098540779574 -0.044488893500979537 0 0.081532324760119484 -0.042027276706247153 0 0.079204098540779574 -0.044488893500979537 0 0.081480925170129961 -0.044453093171984308 0 0.081532324760119484 -0.042027276706247153 0 0.081480925170129961 -0.044453093171984308 0 0.084035711283147324 -0.045172747296985456 0 0.086158469245662589 -0.055320755537939331 0 0.087315363906384558 -0.053628998460717649 0 0.080936291719883299 -0.046276269813694038 0 0.083200521932309451 -0.04834867719108113 0 0.084035711283147324 -0.045172747296985456 0 0.081480925170129961 -0.044453093171984308 0 0.080936291719883299 -0.046276269813694038 0 0.084035711283147324 -0.045172747296985456 0 0.079204098540779574 -0.044488893500979537 0 0.080936291719883299 -0.046276269813694038 0 0.078948515474236203 -0.046858641708543224 0 0.079204098540779574 -0.044488893500979537 0 0.081480925170129961 -0.044453093171984308 0 0.080936291719883299 -0.046276269813694038 0 0.078948515474236203 -0.046858641708543224 0 0.080302843850822078 -0.048824340827759237 0 0.077690574170758114 -0.049268031449453922 0 0.080936291719883299 -0.046276269813694038 0 0.078948515474236203 -0.046858641708543224 0 0.080302843850822078 -0.048824340827759237 0 0.080936291719883299 -0.046276269813694038 0 0.080302843850822078 -0.048824340827759237 0 0.083200521932309451 -0.04834867719108113 0 0.080302843850822078 -0.048824340827759237 0 0.083200521932309451 -0.04834867719108113 0 0.08257446423647942 -0.051280605740660436 0 0.080302843850822078 -0.048824340827759237 0 0.079588719565887298 -0.050838305197110904 0 0.077690574170758114 -0.049268031449453922 0 0.080302843850822078 -0.048824340827759237 0 0.079588719565887298 -0.050838305197110904 0 0.08257446423647942 -0.051280605740660436 0 0.075248009969476864 -0.04503094461711403 0 0.072923517251997999 -0.048866018248123859 0 0.074651712328776099 -0.05068402872638534 0 0.075248009969476864 -0.04503094461711403 0 0.070982760648248461 -0.047319577322047494 0 0.072923517251997999 -0.048866018248123859 0 0.072524236835999664 -0.037014199773479639 0 0.075248009969476864 -0.04503094461711403 0 0.070153099357411181 -0.043211448863114905 0 0.076665939463421331 -0.045498588182943521 0 0.078948515474236203 -0.046858641708543224 0 0.077690574170758114 -0.049268031449453922 0 0.075462828183197925 -0.058169562196521446 0 0.075059255316678883 -0.049871271480012067 0 0.075462828183197925 -0.058169562196521446 0 0.069905017217849835 -0.057262027238843397 0 0.060008660894334258 -0.070415982249882755 0 0.055336410848262359 -0.073024619996791995 0 0.057484071385990897 -0.067273601691197185 0 0.06014817112577274 -0.061532714018533448 0 0.061121139055547891 -0.064658234042419174 0 0.057484071385990897 -0.067273601691197185 0 0.067328049827915168 -0.05662058115942932 0 0.069905017217849835 -0.057262027238843397 0 0.075248009969476864 -0.04503094461711403 0 0.070153099357411181 -0.043211448863114905 0 0.070982760648248461 -0.047319577322047494 0 0.067671909934932897 -0.049901663511650908 0 0.070153099357411181 -0.043211448863114905 0 0.070982760648248461 -0.047319577322047494 0 0.067671909934932897 -0.049901663511650908 0 0.070982760648248461 -0.047319577322047494 0 0.071246285678723043 -0.050633320463039581 0 0.067671909934932897 -0.049901663511650908 0 0.071246285678723043 -0.050633320463039581 0 0.067795568439506043 -0.052079139777428639 0 0.071246285678723043 -0.050633320463039581 0 0.067795568439506043 -0.052079139777428639 0 0.076686741164292041 -0.055010366026482412 0 0.070982760648248461 -0.047319577322047494 0 0.071246285678723043 -0.050633320463039581 0 0.072923517251997999 -0.048866018248123859 0 0.075248009969476864 -0.04503094461711403 0 0.074651712328776099 -0.05068402872638534 0 0.078222242476385803 -0.053524341424953555 0 0.075059255316678883 -0.049871271480012067 0 0.076134471471898862 -0.051379773586487099 0 0.071246285678723043 -0.050633320463039581 0 0.074651712328776099 -0.05068402872638534 0 0.076686741164292041 -0.055010366026482412 0 0.071246285678723043 -0.050633320463039581 0 0.072923517251997999 -0.048866018248123859 0 0.074651712328776099 -0.05068402872638534 0 0.074651712328776099 -0.05068402872638534 0 0.076686741164292041 -0.055010366026482412 0 0.078222242476385803 -0.053524341424953555 0 0.068136603346217045 -0.052945570154500923 0 0.067908199141070449 -0.052876866631109236 0 0.06800412550901927 -0.053226849936815028 0 0.067680433510195953 -0.053098053602919408 0 0.067908199141070449 -0.052876866631109236 0 0.06800412550901927 -0.053226849936815028 0 0.068136603346217045 -0.052945570154500923 0 0.06800412550901927 -0.053226849936815028 0 0.068331169835993077 -0.053228923781034304 0 0.070503063911571087 -0.051993111185148641 0 0.072798431545956513 -0.052222524896950458 0 0.067795568439506043 -0.052079139777428639 0 0.068136603346217045 -0.052945570154500923 0 0.067908199141070449 -0.052876866631109236 0 0.067795568439506043 -0.052079139777428639 0 0.067680433510195953 -0.053098053602919408 0 0.067328649698545975 -0.053014606173455527 0 0.067795568439506043 -0.052079139777428639 0 0.067680433510195953 -0.053098053602919408 0 0.067908199141070449 -0.052876866631109236 0 0.067680433510195953 -0.053098053602919408 0 0.067328649698545975 -0.053014606173455527 0 0.067147722653964001 -0.053430303560621235 0 0.067680433510195953 -0.053098053602919408 0 0.067147722653964001 -0.053430303560621235 0 0.06747127926110999 -0.053656670723755226 0 0.067680433510195953 -0.053098053602919408 0 0.06747127926110999 -0.053656670723755226 0 0.06800412550901927 -0.053226849936815028 0 0.06688562819759486 -0.053854411728820072 0 0.067147722653964001 -0.053430303560621235 0 0.06747127926110999 -0.053656670723755226 0 0.06800412550901927 -0.053226849936815028 0 0.067871938374750126 -0.053702910699837771 0 0.068223526146792682 -0.053531880142794593 0 0.06747127926110999 -0.053656670723755226 0 0.06800412550901927 -0.053226849936815028 0 0.067871938374750126 -0.053702910699837771 0 0.067871938374750126 -0.053702910699837771 0 0.067554478023546999 -0.054022075268480983 0 0.068098674205728543 -0.054011126709737158 0 0.067871938374750126 -0.053702910699837771 0 0.068223526146792682 -0.053531880142794593 0 0.068098674205728543 -0.054011126709737158 0 0.066988960997842392 -0.054093425050445267 0 0.06747127926110999 -0.053656670723755226 0 0.067554478023546999 -0.054022075268480983 0 0.06747127926110999 -0.053656670723755226 0 0.067871938374750126 -0.053702910699837771 0 0.067554478023546999 -0.054022075268480983 0 0.06688562819759486 -0.053854411728820072 0 0.066988960997842392 -0.054093425050445267 0 0.06747127926110999 -0.053656670723755226 0 0.068527335890301841 -0.053775884584852898 0 0.068989159722733798 -0.053617692244700775 0 0.068808735782369415 -0.054150578325639381 0 0.068527335890301841 -0.053775884584852898 0 0.068557432746700328 -0.053420832414610112 0 0.068989159722733798 -0.053617692244700775 0 0.068527335890301841 -0.053775884584852898 0 0.068223526146792682 -0.053531880142794593 0 0.068098674205728543 -0.054011126709737158 0 0.068527335890301841 -0.053775884584852898 0 0.068223526146792682 -0.053531880142794593 0 0.068557432746700328 -0.053420832414610112 0 0.068331169835993077 -0.053228923781034304 0 0.068557432746700328 -0.053420832414610112 0 0.068768411233040755 -0.053115452683287254 0 0.068223526146792682 -0.053531880142794593 0 0.068331169835993077 -0.053228923781034304 0 0.068557432746700328 -0.053420832414610112 0 0.06800412550901927 -0.053226849936815028 0 0.068223526146792682 -0.053531880142794593 0 0.068331169835993077 -0.053228923781034304 0 0.068557432746700328 -0.053420832414610112 0 0.068768411233040755 -0.053115452683287254 0 0.068989159722733798 -0.053617692244700775 0 0.08245306525765482 -0.055939300386678381 0 0.081513680352909984 -0.053245123567630233 0 0.084578669659077899 -0.054911875604198447 0 0.072798431545956513 -0.052222524896950458 0 0.076716869353704975 -0.051639706752605263 0 0.068136603346217045 -0.052945570154500923 0 0.068331169835993077 -0.053228923781034304 0 0.068768411233040755 -0.053115452683287254 0 0.08245306525765482 -0.055939300386678381 0 0.078222242476385803 -0.053524341424953555 0 0.081513680352909984 -0.053245123567630233 0 0.076686741164292041 -0.055010366026482412 0 0.08245306525765482 -0.055939300386678381 0 0.078222242476385803 -0.053524341424953555 0 0.079588719565887298 -0.050838305197110904 0 0.077690574170758114 -0.049268031449453922 0 0.078222242476385803 -0.053524341424953555 0 0.079588719565887298 -0.050838305197110904 0 0.078222242476385803 -0.053524341424953555 0 0.081513680352909984 -0.053245123567630233 0 0.079588719565887298 -0.050838305197110904 0 0.081513680352909984 -0.053245123567630233 0 0.08257446423647942 -0.051280605740660436 0 0.081513680352909984 -0.053245123567630233 0 0.08257446423647942 -0.051280605740660436 0 0.084578669659077899 -0.054911875604198447 0 0.08257446423647942 -0.051280605740660436 0 0.086023499125318689 -0.052105050181379856 0 0.085443807285423612 -0.050455534474461175 0 0.084842160902497327 -0.050982727673914395 0 0.085931881209591651 -0.051231634427741007 0 0.08257446423647942 -0.051280605740660436 0 0.085978113013443533 -0.053075359017970933 0 0.084578669659077899 -0.054911875604198447 0 0.086023499125318689 -0.052105050181379856 0 0.087856689813573918 -0.05104916905467459 0 0.088077003769130191 -0.052035863701802444 0 0.086023499125318689 -0.052105050181379856 0 0.088077003769130191 -0.052035863701802444 0 0.085443807285423612 -0.050455534474461175 0 0.08671344270815784 -0.055536248687445319 0 0.08791490722974378 -0.055991353717203297 0 0.088975502832937495 -0.054695326865516113 0 0.085931881209591651 -0.051231634427741007 0 0.087106593860396916 -0.05095919397955459 0 0.085978113013443533 -0.053075359017970933 0 0.08671344270815784 -0.055536248687445319 0 0.088975502832937495 -0.054695326865516113 0 0.08671344270815784 -0.055536248687445319 0 0.08791490722974378 -0.055991353717203297 0 0.08685094442269338 -0.056686983966296234 0 0.08245306525765482 -0.055939300386678381 0 0.084578669659077899 -0.054911875604198447 0 0.086854120642662874 -0.056847115813946789 0 0.085978113013443533 -0.053075359017970933 0 0.08671344270815784 -0.055536248687445319 0 0.084578669659077899 -0.054911875604198447 0 0.08671344270815784 -0.055536248687445319 0 0.084578669659077899 -0.054911875604198447 0 0.086854120642662874 -0.056847115813946789 0 0.076716869353704975 -0.051639706752605263 0 0.083567970179595524 -0.049484071162813476 0 0.068768411233040755 -0.053115452683287254 0 0.069456220504147403 -0.05328190466321904 0 0.068989159722733798 -0.053617692244700775 0 0.083707209368741792 -0.050185526669150125 0 0.083567970179595524 -0.049484071162813476 0 0.08791490722974378 -0.055991353717203297 0 0.08685094442269338 -0.056686983966296234 0 0.089038835284220047 -0.056460643863897549 0 0.083567970179595524 -0.049484071162813476 0 0.082154758615985327 -0.048138168104496608 0 0.09203483472779872 -0.047086899110225962 0 0.091663412965717672 -0.043104389597954346 0 0.089931021766641819 -0.045217250153961483 0 0.091663412965717672 -0.043104389597954346 0 0.089187113160444767 -0.043046190743307858 0 0.089931021766641819 -0.045217250153961483 0 0.069487677305307735 -0.053844320017644831 0 0.068989159722733798 -0.053617692244700775 0 0.069212437910460375 -0.05413234031774216 0 0.069456220504147403 -0.05328190466321904 0 0.069487677305307735 -0.053844320017644831 0 0.068989159722733798 -0.053617692244700775 0 0.086513722636717444 -0.044485403868589832 0 0.08499998492097624 -0.043176294259870199 0 0.086208404715647016 -0.046090263265733913 0 0.086513722636717444 -0.044485403868589832 0 0.087199022431389342 -0.043310831385108745 0 0.087645543595276335 -0.045365484029998772 0 0.086513722636717444 -0.044485403868589832 0 0.08499998492097624 -0.043176294259870199 0 0.087199022431389342 -0.043310831385108745 0 0.08759016535325323 -0.046291728534581161 0 0.086877266506723741 -0.047449223555038736 0 0.089187113160444767 -0.043046190743307858 0 0.087600603318069251 -0.045388866961010965 0 0.089931021766641819 -0.045217250153961483 0 0.087199022431389342 -0.043310831385108745 0 0.089187113160444767 -0.043046190743307858 0 0.087645543595276335 -0.045365484029998772 0 0.09203483472779872 -0.047086899110225962 0 0.089931021766641819 -0.045217250153961483 0 0.087307056970569202 -0.045824895905784084 0 0.083567970179595524 -0.049484071162813476 0 0.086616926464386873 -0.047877123071311339 0 0.08685094442269338 -0.056686983966296234 0 0.089038835284220047 -0.056460643863897549 0 0.090767403754268741 -0.057675497458720471 0 0.087600603318069251 -0.045388866961010965 0 0.089931021766641819 -0.045217250153961483 0 0.087307056970569202 -0.045824895905784084 0 0.08791490722974378 -0.055991353717203297 0 0.089038835284220047 -0.056460643863897549 0 0.089149150629046742 -0.055812673651954109 0 0.089038835284220047 -0.056460643863897549 0 0.090325565799307492 -0.056234990213274542 0 0.089149150629046742 -0.055812673651954109 0 0.089038835284220047 -0.056460643863897549 0 0.090325565799307492 -0.056234990213274542 0 0.090767403754268741 -0.057675497458720471 0 0.086616926464386873 -0.047877123071311339 0 0.085887502356284173 -0.048894470277333575 0 0.0873552520171193 -0.04580314309643474 0 0.086208404715647016 -0.046090263265733913 0 0.086087056905356049 -0.047701733954873898 0 0.090325565799307492 -0.056234990213274542 0 0.090767403754268741 -0.057675497458720471 0 0.091797451633848851 -0.056129282346371767 0 0.08499998492097624 -0.043176294259870199 0 0.086208404715647016 -0.046090263265733913 0 0.084999988258931361 -0.047162125366571099 0 0.087645543595276335 -0.045365484029998772 0 0.0873552520171193 -0.04580314309643474 0 0.086208404715647016 -0.046090263265733913 0 0.086513722636717444 -0.044485403868589832 0 0.087645543595276335 -0.045365484029998772 0 0.086208404715647016 -0.046090263265733913 0 0.086877266506723741 -0.047449223555038736 0 0.086616926464386873 -0.047877123071311339 0 0.086208404715647016 -0.046090263265733913 0 0.086087056905356049 -0.047701733954873898 0 0.084999988258931361 -0.047162125366571099 0 0.085887502356284173 -0.048894470277333575 0 0.085001294612147074 -0.047171643667804089 0 0.086092021342366473 -0.047709470962811432 0 0.084999997424522536 -0.047162167646653305 0 0.084999999415144176 -0.04933176110352587 0 0.085680230264005064 -0.048684436488441493 0 0.084999602225015125 -0.049334702978433238 0 0.087856689813573918 -0.05104916905467459 0 0.085887502356284173 -0.048894470277333575 0 0.085002797990563164 -0.049331364022959956 0 0.084999602225015125 -0.049334702978433238 0 0.087856689813573918 -0.05104916905467459 0 0.088077003769130191 -0.052035863701802444 0 0.085887502356284173 -0.048894470277333575 0 0.087106593860396916 -0.05095919397955459 0 0.090325565799307492 -0.056234990213274542 0 0.091797451633848851 -0.056129282346371767 0 0.088975502832937495 -0.054695326865516113 0 0.08791490722974378 -0.055991353717203297 0 0.089149150629046742 -0.055812673651954109 0 0.088975502832937495 -0.054695326865516113 0 0.090325565799307492 -0.056234990213274542 0 0.089149150629046742 -0.055812673651954109 0 0.088975502832937495 -0.054695326865516113 0 0.084999602225015125 -0.049334702978433238 0 0.088077003769130191 -0.052035863701802444 0 0.084999070529269236 -0.061884570839546661 0 0.088077003769130191 -0.052035863701802444 0 0.090911381870914812 -0.056442657572766751 0 0.084999070529269236 -0.061884570839546661 0 0.087799287433554016 -0.052466508784927736 0 0.087822005840242079 -0.052867245852057786 0 0.088077003769130191 -0.052035863701802444 0 0.085443807285423612 -0.050455534474461175 0 0.086577371624018198 -0.048663776972669721 0 0.083200521932309451 -0.04834867719108113 0 0.08257446423647942 -0.051280605740660436 0 0.085443807285423612 -0.050455534474461175 0 0.083200521932309451 -0.04834867719108113 0 0.085443807285423612 -0.050455534474461175 0 0.086577371624018198 -0.048663776972669721 0 0.087822005840242079 -0.052867245852057786 0 0.087315363906384558 -0.053628998460717649 0 0.083200521932309451 -0.04834867719108113 0 0.086577371624018198 -0.048663776972669721 0 0.084035711283147324 -0.045172747296985456 0 0.090911381870914812 -0.056442657572766751 0 0.090108565915018951 -0.060262892651693635 0 0.093103649818920706 -0.060748381025337785 0 0.092638036668860876 -0.064059650761588274 0 0.093103649818920706 -0.060748381025337785 0 0.091271448069257494 -0.06295692345386425 0 0.092638036668860876 -0.064059650761588274 0 0.094190043867167644 -0.063697839261607631 0 0.093103649818920706 -0.060748381025337785 0 0.090108565915018951 -0.060262892651693635 0 0.093103649818920706 -0.060748381025337785 0 0.091271448069257494 -0.06295692345386425 0 0.090108565915018951 -0.060262892651693635 0 0.091271448069257494 -0.06295692345386425 0 0.088523813957272796 -0.062826699637044806 0 0.090911381870914812 -0.056442657572766751 0 0.090108565915018951 -0.060262892651693635 0 0.084999070529269236 -0.061884570839546661 0 0.087814636593440312 -0.066362511051393611 0 0.088523813957272796 -0.062826699637044806 0 0.084999070529269236 -0.061884570839546661 0 0.090108565915018951 -0.060262892651693635 0 0.088523813957272796 -0.062826699637044806 0 0.084999070529269236 -0.061884570839546661 0 0.090116541575900863 -0.023281928495219047 0 0.089349043954663906 -0.025271801209343345 0 0.090280625570679243 -0.026705248290796738 0 0.084514427027808439 -0.028629322781676042 0 0.083982725852896414 -0.030529116115012255 0 0.088902715645098135 -0.024222771410727172 0 0.088077858884059945 -0.025149434516623669 0 0.088091129633614623 -0.02311673988537323 0 0.088077858884059945 -0.025149434516623669 0 0.086471728270010845 -0.024121114877134482 0 0.088091129633614623 -0.02311673988537323 0 0.088902715645098135 -0.024222771410727172 0 0.090116541575900863 -0.023281928495219047 0 0.089349043954663906 -0.025271801209343345 0 0.088902715645098135 -0.024222771410727172 0 0.090116541575900863 -0.023281928495219047 0 0.088091129633614623 -0.02311673988537323 0 0.089349043954663906 -0.025271801209343345 0 0.088774947568707158 -0.026505380018090888 0 0.090280625570679243 -0.026705248290796738 0 0.089349043954663906 -0.025271801209343345 0 0.088077858884059945 -0.025149434516623669 0 0.088774947568707158 -0.026505380018090888 0 0.088902715645098135 -0.024222771410727172 0 0.089349043954663906 -0.025271801209343345 0 0.088077858884059945 -0.025149434516623669 0 0.088077858884059945 -0.025149434516623669 0 0.087732332812978792 -0.026334303708085136 0 0.088774947568707158 -0.026505380018090888 0 0.088077858884059945 -0.025149434516623669 0 0.087732332812978792 -0.026334303708085136 0 0.087041617036973773 -0.02550682588581565 0 0.087732332812978792 -0.026334303708085136 0 0.087041617036973773 -0.02550682588581565 0 0.086111467203803443 -0.026339315976596507 0 0.088077858884059945 -0.025149434516623669 0 0.087041617036973773 -0.02550682588581565 0 0.086471728270010845 -0.024121114877134482 0 0.087041617036973773 -0.02550682588581565 0 0.086111467203803443 -0.026339315976596507 0 0.086471728270010845 -0.024121114877134482 0 0.084999750068269528 -0.026271501627672691 0 0.086471728270010845 -0.024121114877134482 0 0.084999064489321444 -0.021321154592514383 0 0.084999750068269528 -0.026271501627672691 0 0.086111467203803443 -0.026339315976596507 0 0.086471728270010845 -0.024121114877134482 0 0.086471728270010845 -0.024121114877134482 0 0.084999064489321444 -0.021321154592514383 0 0.086926867892021489 -0.021422068378851904 0 0.086471728270010845 -0.024121114877134482 0 0.086926867892021489 -0.021422068378851904 0 0.088091129633614623 -0.02311673988537323 0 0.086926867892021489 -0.021422068378851904 0 0.088609677489883923 -0.020553925132400088 0 0.08715432287488388 -0.017787010270815203 0 0.088609677489883923 -0.020553925132400088 0 0.091889357370100969 -0.023247703534032806 0 0.089947155653681943 -0.016214465435203912 0 0.086926867892021489 -0.021422068378851904 0 0.088091129633614623 -0.02311673988537323 0 0.088609677489883923 -0.020553925132400088 0 0.090116541575900863 -0.023281928495219047 0 0.088091129633614623 -0.02311673988537323 0 0.088609677489883923 -0.020553925132400088 0 0.090116541575900863 -0.023281928495219047 0 0.088609677489883923 -0.020553925132400088 0 0.091889357370100969 -0.023247703534032806 0 0.089237858651216306 -0.013990218177854039 0 0.090783886844264056 -0.010799789102272401 0 0.089947155653681943 -0.016214465435203912 0 0.085724443440262116 -0.019616953365736291 0 0.086305351757753043 -0.018290275811219791 0 0.089237858651216306 -0.013990218177854039 0 0.089468177383076872 -0.011705608325618922 0 0.088787525199812284 -0.011764502701808703 0 0.089468177383076872 -0.011705608325618922 0 0.088787525199812284 -0.011764502701808703 0 0.089226249840825778 -0.010436842289056119 0 0.089468177383076872 -0.011705608325618922 0 0.090783886844264056 -0.010799789102272401 0 0.089226249840825778 -0.010436842289056119 0 0.089237858651216306 -0.013990218177854039 0 0.089468177383076872 -0.011705608325618922 0 0.090783886844264056 -0.010799789102272401 0 0.089237858651216306 -0.013990218177854039 0 0.088787525199812284 -0.011764502701808703 0 0.088296496256677154 -0.012305325285757309 0 0.088787525199812284 -0.011764502701808703 0 0.087858165543928626 -0.010386701031750073 0 0.088526567458087374 -0.010507843317025424 0 0.088787525199812284 -0.011764502701808703 0 0.088526567458087374 -0.010507843317025424 0 0.089226249840825778 -0.010436842289056119 0 0.087858165543928626 -0.010386701031750073 0 0.087104279282726099 -0.010271350390695905 0 0.088296496256677154 -0.012305325285757309 0 0.088787525199812284 -0.011764502701808703 0 0.087858165543928626 -0.010386701031750073 0 0.088296496256677154 -0.012305325285757309 0 0.087858165543928626 -0.010386701031750073 0 0.088367815606908665 -0.009517683298799701 0 0.087554604384220816 -0.0091468889539329783 0 0.088367815606908665 -0.009517683298799701 0 0.089226249840825778 -0.010436842289056119 0 0.089229105576324103 -0.0091487948944320354 0 0.087858165543928626 -0.010386701031750073 0 0.088526567458087374 -0.010507843317025424 0 0.088367815606908665 -0.009517683298799701 0 0.088526567458087374 -0.010507843317025424 0 0.088367815606908665 -0.009517683298799701 0 0.089226249840825778 -0.010436842289056119 0 0.088367815606908665 -0.009517683298799701 0 0.089229105576324103 -0.0091487948944320354 0 0.088253746822928233 -0.0084228995412478219 0 0.087554604384220816 -0.0091468889539329783 0 0.088253746822928233 -0.0084228995412478219 0 0.087085516266071195 -0.0081316918044524889 0 0.088367815606908665 -0.009517683298799701 0 0.087554604384220816 -0.0091468889539329783 0 0.088253746822928233 -0.0084228995412478219 0 0.091889357370100969 -0.023247703534032806 0 0.092601504701598503 -0.029011657733580061 0 0.090523028052114887 -0.028077394580721601 0 0.090116541575900863 -0.023281928495219047 0 0.091889357370100969 -0.023247703534032806 0 0.090523028052114887 -0.028077394580721601 0 0.085724443440262116 -0.019616953365736291 0 0.083586455352405123 -0.024221422001046093 0 0.090783886844264056 -0.010799789102272401 0 0.089229105576324103 -0.0091487948944320354 0 0.089997783492526975 -0.0080709226487200875 0 0.090783886844264056 -0.010799789102272401 0 0.089226249840825778 -0.010436842289056119 0 0.089229105576324103 -0.0091487948944320354 0 0.089997783492526975 -0.0080709226487200875 0 0.0883904057061667 -0.0072758219685267154 0 0.08947840524746653 -0.0061126364056375585 0 0.083586455352405123 -0.024221422001046093 0 0.079584391083829864 -0.036767048286113685 0 0.092601504701598503 -0.029011657733580061 0 0.09093926165102674 -0.032710608681812227 0 0.090523028052114887 -0.028077394580721601 0 0.089229105576324103 -0.0091487948944320354 0 0.089997783492526975 -0.0080709226487200875 0 0.088956674890027496 -0.0082067779565745368 0 0.089997783492526975 -0.0080709226487200875 0 0.088956674890027496 -0.0082067779565745368 0 0.0883904057061667 -0.0072758219685267154 0 0.088253746822928233 -0.0084228995412478219 0 0.0883904057061667 -0.0072758219685267154 0 0.087085516266071195 -0.0081316918044524889 0 0.089229105576324103 -0.0091487948944320354 0 0.088956674890027496 -0.0082067779565745368 0 0.088253746822928233 -0.0084228995412478219 0 0.088956674890027496 -0.0082067779565745368 0 0.088253746822928233 -0.0084228995412478219 0 0.0883904057061667 -0.0072758219685267154 0 0.079168566951289127 -0.03795854248822518 0 0.078005801598248423 -0.034487495142836395 0 0.069715890461826399 -0.0555658294011089 0 0.069158951678088859 -0.055211112302012255 0 0.068879258116866016 -0.055624486671802191 0 0.0883904057061667 -0.0072758219685267154 0 0.089271520557324777 -0.0059707621257070551 0 0.086735444181784679 -0.0061894225915526627 0 0.092601504701598503 -0.029011657733580061 0 0.09093926165102674 -0.032710608681812227 0 0.093383238901989171 -0.034612914318296009 0 0.082144748463820971 -0.035302537048674726 0 0.079584391083829864 -0.036767048286113685 0 0.082144748463820971 -0.035302537048674726 0 0.081253734685524936 -0.037659354664404329 0 0.0883904057061667 -0.0072758219685267154 0 0.08947840524746653 -0.0061126364056375585 0 0.089271520557324777 -0.0059707621257070551 0 0.079584391083829864 -0.036767048286113685 0 0.079168566951289127 -0.03795854248822518 0 0.084352106389610867 -0.041071075057189897 0 0.083655883571193163 -0.036510271524775616 0 0.078515957310226064 -0.036592285386111638 0 0.079584391083829864 -0.036767048286113685 0 0.079450176054027405 -0.038004565059167397 0 0.079450176054027405 -0.038004565059167397 0 0.079168566951289127 -0.03795854248822518 0 0.082306882765383449 -0.037910243890367484 0 0.080745879517230529 -0.036719125465709553 0 0.0821621664247007 -0.036428383115702206 0 0.079450176054027405 -0.038004565059167397 0 0.081253734685524936 -0.037659354664404329 0 0.080745879517230529 -0.036719125465709553 0 0.080704759189878392 -0.036452475393308224 0 0.0821621664247007 -0.036428383115702206 0 0.09051005980934787 -0.031184196174418342 0 0.087758476062819696 -0.031211927638670822 0 0.089019763767506685 -0.033198789518192266 0 0.081253734685524936 -0.037659354664404329 0 0.084685974847930751 -0.034097641148435338 0 0.090501646643979416 -0.031119026740653428 0 0.087742640008702855 -0.031159146877751665 0 0.088667988105973025 -0.029716791762280492 0 0.090366848619432213 -0.029670162434833659 0 0.090501646643979416 -0.031119026740653428 0 0.088667988105973025 -0.029716791762280492 0 0.082144748463820971 -0.035302537048674726 0 0.083982725852896414 -0.030529116115012255 0 0.082144748463820971 -0.035302537048674726 0 0.083446527151347302 -0.033571592997458793 0 0.090546878021132371 -0.029824815994555182 0 0.088224133793958465 -0.028009862314342295 0 0.090280625570679243 -0.026705248290796738 0 0.090366848619432213 -0.029670162434833659 0 0.088667988105973025 -0.029716791762280492 0 0.088287307849156893 -0.028034015158179212 0 0.088667988105973025 -0.029716791762280492 0 0.088287307849156893 -0.028034015158179212 0 0.086165798596225654 -0.028877022299345863 0 0.087732332812978792 -0.026334303708085136 0 0.088224133793958465 -0.028009862314342295 0 0.088774947568707158 -0.026505380018090888 0 0.088224133793958465 -0.028009862314342295 0 0.088774947568707158 -0.026505380018090888 0 0.090280625570679243 -0.026705248290796738 0 0.084999750068269528 -0.026271501627672691 0 0.086165798596225654 -0.028877022299345863 0 0.084999991496887389 -0.031218576510235192 0 0.084999750068269528 -0.026271501627672691 0 0.086111467203803443 -0.026339315976596507 0 0.086165798596225654 -0.028877022299345863 0 0.086111467203803443 -0.026339315976596507 0 0.088287307849156893 -0.028034015158179212 0 0.086165798596225654 -0.028877022299345863 0 0.083519713248775107 -0.032773810506008694 0 0.083446527151347302 -0.033571592997458793 0 0.087732332812978792 -0.026334303708085136 0 0.086111467203803443 -0.026339315976596507 0 0.088224133793958465 -0.028009862314342295 0 0.084685974847930751 -0.034097641148435338 0 0.085000253900176223 -0.03122707385070397 0 0.087742640008702855 -0.031159146877751665 0 0.086165798596225654 -0.028877022299345863 0 0.084999991496887389 -0.031218576510235192 0 0.087742640008702855 -0.031159146877751665 0 0.088667988105973025 -0.029716791762280492 0 0.086165798596225654 -0.028877022299345863 0 0.087758476062819696 -0.031211927638670822 0 0.084999984845633883 -0.031218758161388346 0 0.087211422509396619 -0.033758220475564316 0 0.084999984845633883 -0.031218758161388346 0 0.087211422509396619 -0.033758220475564316 0 0.084999980175533854 -0.035204552969458333 0 0.09051005980934787 -0.031184196174418342 0 0.089019763767506685 -0.033198789518192266 0 0.09090481676968544 -0.035142802399590618 0 0.087758476062819696 -0.031211927638670822 0 0.087211422509396619 -0.033758220475564316 0 0.089019763767506685 -0.033198789518192266 0 0.087211422509396619 -0.033758220475564316 0 0.089019763767506685 -0.033198789518192266 0 0.088866097518480666 -0.035166274100309328 0 0.089019763767506685 -0.033198789518192266 0 0.088866097518480666 -0.035166274100309328 0 0.09090481676968544 -0.035142802399590618 0 0.087211422509396619 -0.033758220475564316 0 0.088866097518480666 -0.035166274100309328 0 0.087273107647405632 -0.036705297954723812 0 0.088866097518480666 -0.035166274100309328 0 0.089566107266518827 -0.037166779322257995 0 0.09090481676968544 -0.035142802399590618 0 0.088866097518480666 -0.035166274100309328 0 0.089566107266518827 -0.037166779322257995 0 0.087273107647405632 -0.036705297954723812 0 0.084999980175533854 -0.035204552969458333 0 0.087273107647405632 -0.036705297954723812 0 0.084999976960060092 -0.039190436118700156 0 0.087211422509396619 -0.033758220475564316 0 0.084999980175533854 -0.035204552969458333 0 0.087273107647405632 -0.036705297954723812 0 0.087273107647405632 -0.036705297954723812 0 0.084999976960060092 -0.039190436118700156 0 0.087787090777247265 -0.040353850177542325 0 0.089566107266518827 -0.037166779322257995 0 0.087787090777247265 -0.040353850177542325 0 0.09129037605156709 -0.039123391800061927 0 0.089566107266518827 -0.037166779322257995 0 0.087273107647405632 -0.036705297954723812 0 0.087787090777247265 -0.040353850177542325 0 0.087199022431389342 -0.043310831385108745 0 0.089187113160444767 -0.043046190743307858 0 0.087787090777247265 -0.040353850177542325 0 0.089187113160444767 -0.043046190743307858 0 0.087787090777247265 -0.040353850177542325 0 0.09129037605156709 -0.039123391800061927 0 0.08499998492097624 -0.043176294259870199 0 0.084999976960060092 -0.039190436118700156 0 0.087787090777247265 -0.040353850177542325 0 0.08499998492097624 -0.043176294259870199 0 0.087199022431389342 -0.043310831385108745 0 0.087787090777247265 -0.040353850177542325 0 0.068989159722733798 -0.053617692244700775 0 0.069212437910460375 -0.05413234031774216 0 0.068808735782369415 -0.054150578325639381 0 0.069212437910460375 -0.05413234031774216 0 0.069051494885773029 -0.054505112449351939 0 0.068808735782369415 -0.054150578325639381 0 0.082154758615985327 -0.048138168104496608 0 0.081466461178246782 -0.046291478075086191 0 0.069487677305307735 -0.053844320017644831 0 0.069212437910460375 -0.05413234031774216 0 0.069500804296019819 -0.054380612423604244 0 0.091663412965717672 -0.043104389597954346 0 0.089187113160444767 -0.043046190743307858 0 0.09129037605156709 -0.039123391800061927 0 0.069212437910460375 -0.05413234031774216 0 0.069500804296019819 -0.054380612423604244 0 0.069051494885773029 -0.054505112449351939 0 0.069500804296019819 -0.054380612423604244 0 0.069051494885773029 -0.054505112449351939 0 0.069308800360815437 -0.05467951323344937 0 0.069051494885773029 -0.054505112449351939 0 0.069088199961097024 -0.054802953137587658 0 0.069308800360815437 -0.05467951323344937 0 0.069088199961097024 -0.054802953137587658 0 0.069308800360815437 -0.05467951323344937 0 0.069373633479353325 -0.054830321723705361 0 0.069500804296019819 -0.054380612423604244 0 0.069308800360815437 -0.05467951323344937 0 0.069455445830876247 -0.054799201922929607 0 0.089566107266518827 -0.037166779322257995 0 0.09129037605156709 -0.039123391800061927 0 0.09090481676968544 -0.035142802399590618 0 0.081466461178246782 -0.046291478075086191 0 0.081230866211417826 -0.043570111121386208 0 0.069308800360815437 -0.05467951323344937 0 0.069373633479353325 -0.054830321723705361 0 0.069455445830876247 -0.054799201922929607 0 0.069464179982555663 -0.055269748195884039 0 0.069425036772942317 -0.055272555929470654 0 0.069373633479353325 -0.054830321723705361 0 0.079450176054027405 -0.038004565059167397 0 0.078560065974589963 -0.045699455549558302 0 0.069448665538037677 -0.054774092484474499 0 0.069373633479353325 -0.054830321723705361 0 0.069455445830876247 -0.054799201922929607 0 0.06944718743385582 -0.054769412563535826 0 0.069448665538037677 -0.054774092484474499 0 0.069373633479353325 -0.054830321723705361 0 0.081253734685524936 -0.037659354664404329 0 0.081230866211417826 -0.043570111121386208 0 0.079168566951289127 -0.03795854248822518 0 0.076369402408863113 -0.044321859512204256 0 0.069425036772942317 -0.055272555929470654 0 0.069373633479353325 -0.054830321723705361 0 0.069037092974684605 -0.055052786965423567 0 0.069088199961097024 -0.054802953137587658 0 0.069373633479353325 -0.054830321723705361 0 0.069037092974684605 -0.055052786965423567 0 0.076369402408863113 -0.044321859512204256 0 0.07531034820937553 -0.046047524688867823 0 0.069158951678088859 -0.055211112302012255 0 0.068555342177645973 -0.055297965564211557 0 0.068879258116866016 -0.055624486671802191 0 0.069158951678088859 -0.055211112302012255 0 0.068555342177645973 -0.055297965564211557 0 0.068615216667891263 -0.054892683893187501 0 0.068555342177645973 -0.055297965564211557 0 0.068615216667891263 -0.054892683893187501 0 0.068066210815192443 -0.055105300099284146 0 0.068555342177645973 -0.055297965564211557 0 0.068066210815192443 -0.055105300099284146 0 0.068097240281530066 -0.055655234477022669 0 0.068615216667891263 -0.054892683893187501 0 0.06807879356509465 -0.054578625925442117 0 0.068066210815192443 -0.055105300099284146 0 0.069088199961097024 -0.054802953137587658 0 0.069037092974684605 -0.055052786965423567 0 0.068615216667891263 -0.054892683893187501 0 0.069051494885773029 -0.054505112449351939 0 0.069088199961097024 -0.054802953137587658 0 0.068615216667891263 -0.054892683893187501 0 0.069051494885773029 -0.054505112449351939 0 0.068615216667891263 -0.054892683893187501 0 0.06861479751165625 -0.054496800099962425 0 0.069051494885773029 -0.054505112449351939 0 0.06861479751165625 -0.054496800099962425 0 0.068808735782369415 -0.054150578325639381 0 0.068615216667891263 -0.054892683893187501 0 0.06861479751165625 -0.054496800099962425 0 0.06807879356509465 -0.054578625925442117 0 0.06861479751165625 -0.054496800099962425 0 0.06807879356509465 -0.054578625925442117 0 0.068407139066740508 -0.054233050922940257 0 0.068527335890301841 -0.053775884584852898 0 0.068407139066740508 -0.054233050922940257 0 0.068098674205728543 -0.054011126709737158 0 0.06807879356509465 -0.054578625925442117 0 0.068407139066740508 -0.054233050922940257 0 0.068098674205728543 -0.054011126709737158 0 0.068527335890301841 -0.053775884584852898 0 0.068407139066740508 -0.054233050922940257 0 0.068808735782369415 -0.054150578325639381 0 0.06861479751165625 -0.054496800099962425 0 0.068407139066740508 -0.054233050922940257 0 0.068808735782369415 -0.054150578325639381 0 0.067183950803270498 -0.054290454597546202 0 0.067700122248911254 -0.054295320263023326 0 0.067451856481129099 -0.054576878596900254 0 0.067554478023546999 -0.054022075268480983 0 0.067183950803270498 -0.054290454597546202 0 0.067700122248911254 -0.054295320263023326 0 0.066988960997842392 -0.054093425050445267 0 0.067554478023546999 -0.054022075268480983 0 0.067183950803270498 -0.054290454597546202 0 0.067554478023546999 -0.054022075268480983 0 0.068098674205728543 -0.054011126709737158 0 0.067700122248911254 -0.054295320263023326 0 0.06807879356509465 -0.054578625925442117 0 0.068098674205728543 -0.054011126709737158 0 0.067700122248911254 -0.054295320263023326 0 0.06807879356509465 -0.054578625925442117 0 0.067451856481129099 -0.054576878596900254 0 0.067550131245010234 -0.054935544483552534 0 0.06807879356509465 -0.054578625925442117 0 0.067700122248911254 -0.054295320263023326 0 0.067451856481129099 -0.054576878596900254 0 0.067451856481129099 -0.054576878596900254 0 0.06718376549763691 -0.054759688819881629 0 0.066917512527117487 -0.054471490221582902 0 0.067183950803270498 -0.054290454597546202 0 0.067451856481129099 -0.054576878596900254 0 0.066917512527117487 -0.054471490221582902 0 0.067451856481129099 -0.054576878596900254 0 0.06718376549763691 -0.054759688819881629 0 0.067550131245010234 -0.054935544483552534 0 0.06718376549763691 -0.054759688819881629 0 0.067550131245010234 -0.054935544483552534 0 0.067022163561395481 -0.054969986703379527 0 0.067550131245010234 -0.054935544483552534 0 0.067123612610147432 -0.055298456868789099 0 0.067022163561395481 -0.054969986703379527 0 0.06807879356509465 -0.054578625925442117 0 0.067550131245010234 -0.054935544483552534 0 0.068066210815192443 -0.055105300099284146 0 0.068066210815192443 -0.055105300099284146 0 0.067636050651933025 -0.055331720015700817 0 0.068097240281530066 -0.055655234477022669 0 0.067550131245010234 -0.054935544483552534 0 0.068066210815192443 -0.055105300099284146 0 0.067636050651933025 -0.055331720015700817 0 0.067550131245010234 -0.054935544483552534 0 0.067636050651933025 -0.055331720015700817 0 0.067123612610147432 -0.055298456868789099 0 0.067636050651933025 -0.055331720015700817 0 0.067355775269941104 -0.055675773847693434 0 0.067123612610147432 -0.055298456868789099 0 0.084575066140935087 -0.0075490419883132692 0 0.084536356341999894 -0.0074935058089255699 0 0.084809392417527538 -0.0075354205133587619 0 0.084536356341999894 -0.0074935058089255699 0 0.084731733040270124 -0.0074273583134504524 0 0.084437711114793867 -0.0075548673274478543 0 0.084536356341999894 -0.0074935058089255699 0 0.084731733040270124 -0.0074273583134504524 0 0.084809392417527538 -0.0075354205133587619 0 0.084536356341999894 -0.0074935058089255699 0 0.085071358538841374 -0.0074040265963061253 0 0.084683085482753828 -0.0076778086711821632 0 0.084536356341999894 -0.0074935058089255699 0 0.0849003272928502 -0.0068246734328729075 0 0.085071358538841374 -0.0074040265963061253 0 0.084536356341999894 -0.0074935058089255699 0 0.084437711114793867 -0.0075548673274478543 0 0.084683085482753828 -0.0076778086711821632 0 0.084575066140935087 -0.0075490419883132692 0 0.084536356341999894 -0.0074935058089255699 0 0.0849003272928502 -0.0068246734328729075 0 0.07578339653414097 -0.032485501499294432 0 0.076843979588521641 -0.032997712465298597 0 0.067636050651933025 -0.055331720015700817 0 0.067355775269941104 -0.055675773847693434 0 0.068097240281530066 -0.055655234477022669 0 0.076843979588521641 -0.032997712465298597 0 0.078005801598248423 -0.034487495142836395 0 0.0849003272928502 -0.0068246734328729075 0 0.086154514264832713 -0.0072284679936481669 0 0.085071358538841374 -0.0074040265963061253 0 0.068555342177645973 -0.055297965564211557 0 0.068097240281530066 -0.055655234477022669 0 0.068879258116866016 -0.055624486671802191 0 0.0849003272928502 -0.0068246734328729075 0 0.086735444181784679 -0.0061894225915526627 0 0.086154514264832713 -0.0072284679936481669 0 0.0883904057061667 -0.0072758219685267154 0 0.086735444181784679 -0.0061894225915526627 0 0.086154514264832713 -0.0072284679936481669 0 0.0883904057061667 -0.0072758219685267154 0 0.086154514264832713 -0.0072284679936481669 0 0.087085516266071195 -0.0081316918044524889 0 0.086154514264832713 -0.0072284679936481669 0 0.087085516266071195 -0.0081316918044524889 0 0.08564432137440374 -0.0079719342152251502 0 0.086154514264832713 -0.0072284679936481669 0 0.085071358538841374 -0.0074040265963061253 0 0.08564432137440374 -0.0079719342152251502 0 0.085071358538841374 -0.0074040265963061253 0 0.08564432137440374 -0.0079719342152251502 0 0.084683085482753828 -0.0076778086711821632 0 0.08564432137440374 -0.0079719342152251502 0 0.085016463190213332 -0.0080447966223814067 0 0.084683085482753828 -0.0076778086711821632 0 0.08564432137440374 -0.0079719342152251502 0 0.085681299311657369 -0.0085213701429771201 0 0.086654711400777851 -0.0090909540214579986 0 0.08564432137440374 -0.0079719342152251502 0 0.085681299311657369 -0.0085213701429771201 0 0.085016463190213332 -0.0080447966223814067 0 0.085681299311657369 -0.0085213701429771201 0 0.085016463190213332 -0.0080447966223814067 0 0.085075948421414124 -0.0084095616259405748 0 0.087085516266071195 -0.0081316918044524889 0 0.08564432137440374 -0.0079719342152251502 0 0.086654711400777851 -0.0090909540214579986 0 0.087554604384220816 -0.0091468889539329783 0 0.087085516266071195 -0.0081316918044524889 0 0.086654711400777851 -0.0090909540214579986 0 0.085681299311657369 -0.0085213701429771201 0 0.086654711400777851 -0.0090909540214579986 0 0.086167695974763869 -0.0094377808461423296 0 0.087858165543928626 -0.010386701031750073 0 0.087554604384220816 -0.0091468889539329783 0 0.086654711400777851 -0.0090909540214579986 0 0.087104279282726099 -0.010271350390695905 0 0.087057474067875493 -0.010954825701800725 0 0.088296496256677154 -0.012305325285757309 0 0.087858165543928626 -0.010386701031750073 0 0.086654711400777851 -0.0090909540214579986 0 0.087104279282726099 -0.010271350390695905 0 0.086654711400777851 -0.0090909540214579986 0 0.087104279282726099 -0.010271350390695905 0 0.086167695974763869 -0.0094377808461423296 0 0.087104279282726099 -0.010271350390695905 0 0.086167695974763869 -0.0094377808461423296 0 0.087057474067875493 -0.010954825701800725 0 0.085075948421414124 -0.0084095616259405748 0 0.086167695974763869 -0.0094377808461423296 0 0.085433696511300131 -0.0095095245651851262 0 0.085681299311657369 -0.0085213701429771201 0 0.085075948421414124 -0.0084095616259405748 0 0.086167695974763869 -0.0094377808461423296 0 0.086167695974763869 -0.0094377808461423296 0 0.085433696511300131 -0.0095095245651851262 0 0.087057474067875493 -0.010954825701800725 0 0.085075948421414124 -0.0084095616259405748 0 0.085433696511300131 -0.0095095245651851262 0 0.084363262539847259 -0.0078750919743830299 0 0.083243847013379266 -0.0065928842375125671 0 0.084499924857763545 -0.0072376940571170448 0 0.084134874659137618 -0.0076375295332670812 0 0.085433696511300131 -0.0095095245651851262 0 0.084363262539847259 -0.0078750919743830299 0 0.083243847013379266 -0.0065928842375125671 0 0.084363262539847259 -0.0078750919743830299 0 0.083243847013379266 -0.0065928842375125671 0 0.084134874659137618 -0.0076375295332670812 0 0.085075948421414124 -0.0084095616259405748 0 0.084363262539847259 -0.0078750919743830299 0 0.084134874659137618 -0.0076375295332670812 0 0.083243847013379266 -0.0065928842375125671 0 0.084499924857763545 -0.0072376940571170448 0 0.085404745920684297 -0.0061337914626308481 0 0.083243847013379266 -0.0065928842375125671 0 0.085404745920684297 -0.0061337914626308481 0 0.08325039552467077 -0.0039132836563605788 0 0.084499924857763545 -0.0072376940571170448 0 0.084437711114793867 -0.0075548673274478543 0 0.084134874659137618 -0.0076375295332670812 0 0.084499924857763545 -0.0072376940571170448 0 0.084731733040270124 -0.0074273583134504524 0 0.084437711114793867 -0.0075548673274478543 0 0.084437711114793867 -0.0075548673274478543 0 0.084683085482753828 -0.0076778086711821632 0 0.084134874659137618 -0.0076375295332670812 0 0.085016463190213332 -0.0080447966223814067 0 0.084683085482753828 -0.0076778086711821632 0 0.084134874659137618 -0.0076375295332670812 0 0.085016463190213332 -0.0080447966223814067 0 0.085075948421414124 -0.0084095616259405748 0 0.084134874659137618 -0.0076375295332670812 0 0.085595798131708242 -0.0070148855081340351 0 0.085320202894466637 -0.0072927437785806565 0 0.085303242783817498 -0.0069580732204660945 0 0.085595798131708242 -0.0070148855081340351 0 0.085320202894466637 -0.0072927437785806565 0 0.085618220887839866 -0.0072749587096462157 0 0.084499924857763545 -0.0072376940571170448 0 0.084731733040270124 -0.0074273583134504524 0 0.085303242783817498 -0.0069580732204660945 0 0.084731733040270124 -0.0074273583134504524 0 0.085320202894466637 -0.0072927437785806565 0 0.085303242783817498 -0.0069580732204660945 0 0.085303242783817498 -0.0069580732204660945 0 0.085404745920684297 -0.0061337914626308481 0 0.085578707539507526 -0.0066752360659135725 0 0.081730876441610381 -0.0035695887443887866 0 0.080905804425607686 -0.0038572170368624463 0 0.084499924857763545 -0.0072376940571170448 0 0.085303242783817498 -0.0069580732204660945 0 0.085404745920684297 -0.0061337914626308481 0 0.085595798131708242 -0.0070148855081340351 0 0.085303242783817498 -0.0069580732204660945 0 0.085578707539507526 -0.0066752360659135725 0 0.080905804425607686 -0.0038572170368624463 0 0.078097114102411144 -0.004532176041708311 0 0.085595798131708242 -0.0070148855081340351 0 0.085578707539507526 -0.0066752360659135725 0 0.085943867066369029 -0.0068004025053126239 0 0.078681890100470997 0.00200991989109589 0 0.077060224946826392 0.0023289613506253678 0 0.077827517115978698 0.0010826599300769329 0 0.077692100013386445 0.00067871253306897128 0 0.07658286488337597 -0.00025611107277344114 0 0.078223000593052802 -0.00084384065487314193 0 0.077692100013386445 0.00067871253306897128 0 0.078223000593052802 -0.00084384065487314193 0 0.078930276585549353 0.0015227688220871716 0 0.077692100013386445 0.00067871253306897128 0 0.07658286488337597 -0.00025611107277344114 0 0.077045590800367172 0.0016540400001679263 0 0.078097114102411144 -0.004532176041708311 0 0.078118394912360944 -0.0033392616416137054 0 0.075660869697186078 -0.00073999849435418591 0 0.078223000593052802 -0.00084384065487314193 0 0.076559323037098864 -0.0023365314776556136 0 0.078097114102411144 -0.004532176041708311 0 0.077924135857949425 -0.0042591038876680608 0 0.076559323037098864 -0.0023365314776556136 0 0.076163404248188363 -0.0042398030621748541 0 0.080779592461170904 -0.0026653236313449666 0 0.075660869697186078 -0.00073999849435418591 0 0.076559323037098864 -0.0023365314776556136 0 0.075714216752592586 -0.0046347965945127785 0 0.078097114102411144 -0.004532176041708311 0 0.073363425980731659 -0.010856667598068212 0 0.076559323037098864 -0.0023365314776556136 0 0.076163404248188363 -0.0042398030621748541 0 0.075714216752592586 -0.0046347965945127785 0 0.076163404248188363 -0.0042398030621748541 0 0.07504900233443984 -0.0041444653969110491 0 0.074106995660569538 -0.0048574017732142295 0 0.085595798131708242 -0.0070148855081340351 0 0.085943867066369029 -0.0068004025053126239 0 0.085761663696744386 -0.007098760317985133 0 0.085943867066369029 -0.0068004025053126239 0 0.085761663696744386 -0.007098760317985133 0 0.085879556415311892 -0.0073233617111658654 0 0.085761663696744386 -0.007098760317985133 0 0.085618220887839866 -0.0072749587096462157 0 0.085879556415311892 -0.0073233617111658654 0 0.085595798131708242 -0.0070148855081340351 0 0.085761663696744386 -0.007098760317985133 0 0.085618220887839866 -0.0072749587096462157 0 0.073363425980731659 -0.010856667598068212 0 0.0636170224476445 -0.033017390956375389 0 0.085618220887839866 -0.0072749587096462157 0 0.085879556415311892 -0.0073233617111658654 0 0.085525291488664459 -0.0075810496452514689 0 0.085879556415311892 -0.0073233617111658654 0 0.085525291488664459 -0.0075810496452514689 0 0.085777701968988374 -0.0079409206429124166 0 0.075714216752592586 -0.0046347965945127785 0 0.075493843015116607 -0.0031522814198586937 0 0.076458099590554135 -0.002016478397069726 0 0.07504900233443984 -0.0041444653969110491 0 0.075019890966065428 -0.0036180968367159386 0 0.074137885390514066 -0.0037150190410230495 0 0.076163404248188363 -0.0042398030621748541 0 0.07504900233443984 -0.0041444653969110491 0 0.075536128067080044 -0.0041319823540687424 0 0.07504900233443984 -0.0041444653969110491 0 0.075536128067080044 -0.0041319823540687424 0 0.075019890966065428 -0.0036180968367159386 0 0.075714216752592586 -0.0046347965945127785 0 0.075536128067080044 -0.0041319823540687424 0 0.075493843015116607 -0.0031522814198586937 0 0.076163404248188363 -0.0042398030621748541 0 0.075714216752592586 -0.0046347965945127785 0 0.075536128067080044 -0.0041319823540687424 0 0.075019890966065428 -0.0036180968367159386 0 0.074272329893984745 -0.0026113636900634146 0 0.074137885390514066 -0.0037150190410230495 0 0.075493843015116607 -0.0031522814198586937 0 0.075019890966065428 -0.0036180968367159386 0 0.074272329893984745 -0.0026113636900634146 0 0.075536128067080044 -0.0041319823540687424 0 0.075493843015116607 -0.0031522814198586937 0 0.075019890966065428 -0.0036180968367159386 0 0.058700397307137137 -0.035659308976480106 0 0.062592471916746675 -0.030904926874936907 0 0.075493843015116607 -0.0031522814198586937 0 0.075091914403458457 -0.0019783308863962263 0 0.074272329893984745 -0.0026113636900634146 0 0.075493843015116607 -0.0031522814198586937 0 0.075091914403458457 -0.0019783308863962263 0 0.076458099590554135 -0.002016478397069726 0 0.058700397307137137 -0.035659308976480106 0 0.051275602539372411 -0.051837511852891517 0 0.058700397307137137 -0.035659308976480106 0 0.0636170224476445 -0.033017390956375389 0 0.058562081706205707 -0.037158848640248134 0 0.060235581003994038 -0.037144896467717348 0 0.060379516424081209 -0.035365975888663165 0 0.0636170224476445 -0.033017390956375389 0 0.073490345885235647 -0.032496472777892992 0 0.065792113520966852 -0.055682193608538891 0 0.066607817373744521 -0.055686454419512012 0 0.065976347936022792 -0.055347244023136628 0 0.085525291488664459 -0.0075810496452514689 0 0.085777701968988374 -0.0079409206429124166 0 0.085146462811678356 -0.0078809229104686677 0 0.0636170224476445 -0.033017390956375389 0 0.051275602539372411 -0.051837511852891517 0 0.085320202894466637 -0.0072927437785806565 0 0.085525291488664459 -0.0075810496452514689 0 0.085146462811678356 -0.0078809229104686677 0 0.085320202894466637 -0.0072927437785806565 0 0.085618220887839866 -0.0072749587096462157 0 0.085525291488664459 -0.0075810496452514689 0 0.084731733040270124 -0.0074273583134504524 0 0.085320202894466637 -0.0072927437785806565 0 0.084809392417527538 -0.0075354205133587619 0 0.085320202894466637 -0.0072927437785806565 0 0.085146462811678356 -0.0078809229104686677 0 0.084809392417527538 -0.0075354205133587619 0 0.07578339653414097 -0.032485501499294432 0 0.073490345885235647 -0.032496472777892992 0 0.067355775269941104 -0.055675773847693434 0 0.066607817373744521 -0.055686454419512012 0 0.067123612610147432 -0.055298456868789099 0 0.084575066140935087 -0.0075490419883132692 0 0.085146462811678356 -0.0078809229104686677 0 0.084809392417527538 -0.0075354205133587619 0 0.066607817373744521 -0.055686454419512012 0 0.067123612610147432 -0.055298456868789099 0 0.066680150363674667 -0.055169667153441737 0 0.067123612610147432 -0.055298456868789099 0 0.066680150363674667 -0.055169667153441737 0 0.067022163561395481 -0.054969986703379527 0 0.066607817373744521 -0.055686454419512012 0 0.066378146954021985 -0.055291639085001988 0 0.065976347936022792 -0.055347244023136628 0 0.066607817373744521 -0.055686454419512012 0 0.066378146954021985 -0.055291639085001988 0 0.066680150363674667 -0.055169667153441737 0 0.066378146954021985 -0.055291639085001988 0 0.066680150363674667 -0.055169667153441737 0 0.066247448160863601 -0.054971401140088659 0 0.066247448160863601 -0.054971401140088659 0 0.066753454440405341 -0.054858443662156961 0 0.066628351018502549 -0.054644664006783243 0 0.066680150363674667 -0.055169667153441737 0 0.066247448160863601 -0.054971401140088659 0 0.066753454440405341 -0.054858443662156961 0 0.057363082635973874 -0.058388476337269596 0 0.057055451537499483 -0.058387265293508017 0 0.033117451836010808 -0.063100463658233574 0 0.032537616405014187 -0.063775560845450233 0 0.033056589743127807 -0.063895122323208278 0 0.052569616855862582 -0.056717121860218767 0 0.057055451537499483 -0.058387265293508017 0 0.066680150363674667 -0.055169667153441737 0 0.067022163561395481 -0.054969986703379527 0 0.066753454440405341 -0.054858443662156961 0 0.066753454440405341 -0.054858443662156961 0 0.066911688715092441 -0.054696627026612273 0 0.066679485957906626 -0.054712385779818705 0 0.067022163561395481 -0.054969986703379527 0 0.066753454440405341 -0.054858443662156961 0 0.066911688715092441 -0.054696627026612273 0 0.06718376549763691 -0.054759688819881629 0 0.067022163561395481 -0.054969986703379527 0 0.066911688715092441 -0.054696627026612273 0 0.06718376549763691 -0.054759688819881629 0 0.066917512527117487 -0.054471490221582902 0 0.066911688715092441 -0.054696627026612273 0 0.066917512527117487 -0.054471490221582902 0 0.066592284475523122 -0.054732908285319092 0 0.066644966454156629 -0.054382648007594452 0 0.066917512527117487 -0.054471490221582902 0 0.066911688715092441 -0.054696627026612273 0 0.066679485957906626 -0.054712385779818705 0 0.059513259536216633 -0.056484365546671716 0 0.057055451537499483 -0.058387265293508017 0 0.032537616405014187 -0.063775560845450233 0 0.033056589743127807 -0.063895122323208278 0 0.032996312688573531 -0.064684739868682367 0 0.057055451537499483 -0.058387265293508017 0 0.052273200421823589 -0.058925627325862338 0 0.066592284475523122 -0.054732908285319092 0 0.066644966454156629 -0.054382648007594452 0 0.066438266445283736 -0.054179966934126404 0 0.066644966454156629 -0.054382648007594452 0 0.066438266445283736 -0.054179966934126404 0 0.066659172926209834 -0.054207702095057514 0 0.066491057575599394 -0.054066617348820914 0 0.066438266445283736 -0.054179966934126404 0 0.066659172926209834 -0.054207702095057514 0 0.066988960997842392 -0.054093425050445267 0 0.067183950803270498 -0.054290454597546202 0 0.066659172926209834 -0.054207702095057514 0 0.067183950803270498 -0.054290454597546202 0 0.066917512527117487 -0.054471490221582902 0 0.066659172926209834 -0.054207702095057514 0 0.066917512527117487 -0.054471490221582902 0 0.066644966454156629 -0.054382648007594452 0 0.066659172926209834 -0.054207702095057514 0 0.032999537465519438 -0.065092542823592184 0 0.032921605191434292 -0.065078141730042047 0 0.032850365857905607 -0.065157412338038789 0 0.032999537465519438 -0.065092542823592184 0 0.032921605191434292 -0.065078141730042047 0 0.033020787957077941 -0.065035376107380694 0 0.033021484975001854 -0.065053190057488414 0 0.032921605191434292 -0.065078141730042047 0 0.033020787957077941 -0.065035376107380694 0 0.039753090896021276 -0.06447400741730544 0 0.042075073188630081 -0.06289647487495699 0 0.033021484975001854 -0.065053190057488414 0 0.033020787957077941 -0.065035376107380694 0 0.033115113373677042 -0.064945584307427653 0 0.049195905346222576 -0.060306959135347567 0 0.052273200421823589 -0.058925627325862338 0 0.032999537465519438 -0.065092542823592184 0 0.033020787957077941 -0.065035376107380694 0 0.033115113373677042 -0.064945584307427653 0 0.033115157424135386 -0.065097375430312104 0 0.032996312688573531 -0.064684739868682367 0 0.033115113373677042 -0.064945584307427653 0 0.032999537465519438 -0.065092542823592184 0 0.033115113373677042 -0.064945584307427653 0 0.033053826057557086 -0.065175856397618442 0 0.032996312688573531 -0.064684739868682367 0 0.033115113373677042 -0.064945584307427653 0 0.033581249339077621 -0.063917725669009273 0 0.033056589743127807 -0.063895122323208278 0 0.032996312688573531 -0.064684739868682367 0 0.033581249339077621 -0.063917725669009273 0 0.032999537465519438 -0.065092542823592184 0 0.032960040190418601 -0.065173311369994325 0 0.032850365857905607 -0.065157412338038789 0 0.032999537465519438 -0.065092542823592184 0 0.033053826057557086 -0.065175856397618442 0 0.032960040190418601 -0.065173311369994325 0 0.032960040190418601 -0.065173311369994325 0 0.033001229332267158 -0.065203278270060963 0 0.03293246662387992 -0.065205991654863446 0 0.033053826057557086 -0.065175856397618442 0 0.032960040190418601 -0.065173311369994325 0 0.033001229332267158 -0.065203278270060963 0 0.033053826057557086 -0.065175856397618442 0 0.033001229332267158 -0.065203278270060963 0 0.033055519550093081 -0.065225012913104438 0 0.042075073188630081 -0.06289647487495699 0 0.051275602539372411 -0.051837511852891517 0 0.033117451836010808 -0.063100463658233574 0 0.033581249339077621 -0.063917725669009273 0 0.033876011934950039 -0.062348901739309209 0 0.033117451836010808 -0.063100463658233574 0 0.033056589743127807 -0.063895122323208278 0 0.033581249339077621 -0.063917725669009273 0 0.066247448160863601 -0.054971401140088659 0 0.065832900370446146 -0.055306494381275516 0 0.065976347936022792 -0.055347244023136628 0 0.052569616855862582 -0.056717121860218767 0 0.051275602539372411 -0.051837511852891517 0 0.066378146954021985 -0.055291639085001988 0 0.066247448160863601 -0.054971401140088659 0 0.065976347936022792 -0.055347244023136628 0 0.065792113520966852 -0.055682193608538891 0 0.065818448742418045 -0.055299333610652653 0 0.065976347936022792 -0.055347244023136628 0 0.051275602539372411 -0.051837511852891517 0 0.051788148651243454 -0.051975332221428146 0 0.037746398318405421 -0.067017370647336677 0 0.03888886319253148 -0.065899342710360298 0 0.036747147043067391 -0.065398734263215741 0 0.033001229332267158 -0.065203278270060963 0 0.033055519550093081 -0.065225012913104438 0 0.03293246662387992 -0.065205991654863446 0 0.051275602539372411 -0.051837511852891517 0 0.039521871710944512 -0.057529795464899086 0 0.03293246662387992 -0.065205991654863446 0 0.032861674538737472 -0.065155325050660462 0 0.032850365857905607 -0.065157412338038789 0 0.032960040190418601 -0.065173311369994325 0 0.03293246662387992 -0.065205991654863446 0 0.032850365857905607 -0.065157412338038789 0 0.036747147043067391 -0.065398734263215741 0 0.034744423686729344 -0.065052616294330276 0 0.035431760022354868 -0.067012576043293567 0 0.034744423686729344 -0.065052616294330276 0 0.034017122068406971 -0.066042105412392485 0 0.035431760022354868 -0.067012576043293567 0 0.039521871710944512 -0.057529795464899086 0 0.035919948663167105 -0.060521684680401838 0 0.032861674538737472 -0.065155325050660462 0 0.032850365857905607 -0.065157412338038789 0 0.03287154701537634 -0.065174827384769499 0 0.032850365857905607 -0.065157412338038789 0 0.032847851206536757 -0.065160724728563241 0 0.03287154701537634 -0.065174827384769499 0 0.032831322517110476 -0.065138837292686602 0 0.032850365857905607 -0.065157412338038789 0 0.032847851206536757 -0.065160724728563241 0 0.032681054193395585 -0.065117930126000437 0 0.032720442555239204 -0.065134036041170601 0 0.032762338029698107 -0.065073723332981143 0 0.032609561744473367 -0.065087682305718195 0 0.032850365857905607 -0.065157412338038789 0 0.032762338029698107 -0.065073723332981143 0 0.032921605191434292 -0.065078141730042047 0 0.032850365857905607 -0.065157412338038789 0 0.032765216778596985 -0.065141445267132572 0 0.03282831462278802 -0.065165878545412559 0 0.032747175559674414 -0.065166467881174125 0 0.03282831462278802 -0.065165878545412559 0 0.032860622082523182 -0.065165863516458991 0 0.032747175559674414 -0.065166467881174125 0 0.032715851254514657 -0.065150286652082487 0 0.032765216778596985 -0.065141445267132572 0 0.032747175559674414 -0.065166467881174125 0 0.032831322517110476 -0.065138837292686602 0 0.032847851206536757 -0.065160724728563241 0 0.03282831462278802 -0.065165878545412559 0 0.032765216778596985 -0.065141445267132572 0 0.032831322517110476 -0.065138837292686602 0 0.03282831462278802 -0.065165878545412559 0 0.03282831462278802 -0.065165878545412559 0 0.03287154701537634 -0.065174827384769499 0 0.032860622082523182 -0.065165863516458991 0 0.032847851206536757 -0.065160724728563241 0 0.03282831462278802 -0.065165878545412559 0 0.03287154701537634 -0.065174827384769499 0 0.032860622082523182 -0.065165863516458991 0 0.032752608721623166 -0.06518253673901829 0 0.032747175559674414 -0.065166467881174125 0 0.03287154701537634 -0.065174827384769499 0 0.032860622082523182 -0.065165863516458991 0 0.033008584150008236 -0.065136812791796769 0 0.032860622082523182 -0.065165863516458991 0 0.033008584150008236 -0.065136812791796769 0 0.032752608721623166 -0.06518253673901829 0 0.033008584150008236 -0.065136812791796769 0 0.033131485539555465 -0.065752337979209263 0 0.032618137041052243 -0.065355064128774093 0 0.033008584150008236 -0.065136812791796769 0 0.033531908564560689 -0.065623869451811714 0 0.033131485539555465 -0.065752337979209263 0 0.035919948663167105 -0.060521684680401838 0 0.034950823316969519 -0.061399891695189376 0 0.032861674538737472 -0.065155325050660462 0 0.03287154701537634 -0.065174827384769499 0 0.033008584150008236 -0.065136812791796769 0 0.034744423686729344 -0.065052616294330276 0 0.033008584150008236 -0.065136812791796769 0 0.033531908564560689 -0.065623869451811714 0 0.034744423686729344 -0.065052616294330276 0 0.033531908564560689 -0.065623869451811714 0 0.034017122068406971 -0.066042105412392485 0 0.033531908564560689 -0.065623869451811714 0 0.034017122068406971 -0.066042105412392485 0 0.03346004716098374 -0.066160368409268866 0 0.034017122068406971 -0.066042105412392485 0 0.03346004716098374 -0.066160368409268866 0 0.033480562168673206 -0.066878808359249919 0 0.033131485539555465 -0.065752337979209263 0 0.033214607601950212 -0.066652736154397166 0 0.032618137041052243 -0.065355064128774093 0 0.041776539813393673 -0.0515870546069521 0 0.038438741584115942 -0.058336946424498284 0 0.033131485539555465 -0.065752337979209263 0 0.03346004716098374 -0.066160368409268866 0 0.033214607601950212 -0.066652736154397166 0 0.041776539813393673 -0.0515870546069521 0 0.037806224708392906 -0.061245915877312991 0 0.033531908564560689 -0.065623869451811714 0 0.033131485539555465 -0.065752337979209263 0 0.03346004716098374 -0.066160368409268866 0 0.043754315321643582 -0.046824260485054295 0 0.046616579851044615 -0.040008783634276436 0 0.066508232220575322 -0.0011067636264120195 0 0.065832550846760193 -0.002757176202681432 0 0.061920639381231733 -0.0011781910364561702 0 0.034814943678872723 -0.067343382572307847 0 0.034983972061218047 -0.06743633798822718 0 0.033965430233904595 -0.067505550843751941 0 0.03346004716098374 -0.066160368409268866 0 0.033214607601950212 -0.066652736154397166 0 0.033480562168673206 -0.066878808359249919 0 0.041776539813393673 -0.0515870546069521 0 0.043754315321643582 -0.046824260485054295 0 0.066508232220575322 -0.0011067636264120195 0 0.065832550846760193 -0.002757176202681432 0 0.067297123783674528 -0.0016112742961227446 0 0.065832550846760193 -0.002757176202681432 0 0.067393752667669268 -0.004071383202966559 0 0.064624977005734968 -0.0057515908294861924 0 0.065832550846760193 -0.002757176202681432 0 0.064624977005734968 -0.0057515908294861924 0 0.061920639381231733 -0.0011781910364561702 0 0.067393752667669268 -0.004071383202966559 0 0.069686982004743714 -0.0041464467803528776 0 0.068246397869205694 -0.0057692222905265282 0 0.065832550846760193 -0.002757176202681432 0 0.067393752667669268 -0.004071383202966559 0 0.067242305319577658 -0.0028350416046882252 0 0.067393752667669268 -0.004071383202966559 0 0.067242305319577658 -0.0028350416046882252 0 0.06839741257837037 -0.0030688358186247064 0 0.067393752667669268 -0.004071383202966559 0 0.06839741257837037 -0.0030688358186247064 0 0.069686982004743714 -0.0041464467803528776 0 0.06839741257837037 -0.0030688358186247064 0 0.06994991808524352 -0.0027214293506306344 0 0.069686982004743714 -0.0041464467803528776 0 0.043754315321643582 -0.046824260485054295 0 0.052631693233871915 -0.039491692765535144 0 0.066541041679954463 -0.0011254541050065756 0 0.067297123783674528 -0.0016112742961227446 0 0.071242869264463701 -0.0012169639514637315 0 0.06839741257837037 -0.0030688358186247064 0 0.067297123783674528 -0.0016112742961227446 0 0.06994991808524352 -0.0027214293506306344 0 0.034017122068406971 -0.066042105412392485 0 0.033480562168673206 -0.066878808359249919 0 0.035431760022354868 -0.067012576043293567 0 0.065832550846760193 -0.002757176202681432 0 0.067242305319577658 -0.0028350416046882252 0 0.067297123783674528 -0.0016112742961227446 0 0.067242305319577658 -0.0028350416046882252 0 0.06839741257837037 -0.0030688358186247064 0 0.067297123783674528 -0.0016112742961227446 0 0.043754315321643582 -0.046824260485054295 0 0.043872831850171393 -0.046274058329849432 0 0.067297123783674528 -0.0016112742961227446 0 0.071242869264463701 -0.0012169639514637315 0 0.06994991808524352 -0.0027214293506306344 0 0.071242869264463701 -0.0012169639514637315 0 0.072268263924272921 -0.0036064784251225862 0 0.06994991808524352 -0.0027214293506306344 0 0.058700397307137137 -0.035659308976480106 0 0.052631693233871915 -0.039491692765535144 0 0.075490339758622724 -0.0014438130744861824 0 0.071242869264463701 -0.0012169639514637315 0 0.074272329893984745 -0.0026113636900634146 0 0.071242869264463701 -0.0012169639514637315 0 0.074272329893984745 -0.0026113636900634146 0 0.072268263924272921 -0.0036064784251225862 0 0.037746398318405421 -0.067017370647336677 0 0.036747147043067391 -0.065398734263215741 0 0.035431760022354868 -0.067012576043293567 0 0.072268263924272921 -0.0036064784251225862 0 0.070870775613431802 -0.0055470857087498047 0 0.074106995660569538 -0.0048574017732142295 0 0.074272329893984745 -0.0026113636900634146 0 0.072268263924272921 -0.0036064784251225862 0 0.074137885390514066 -0.0037150190410230495 0 0.072268263924272921 -0.0036064784251225862 0 0.074137885390514066 -0.0037150190410230495 0 0.074106995660569538 -0.0048574017732142295 0 0.07504900233443984 -0.0041444653969110491 0 0.074137885390514066 -0.0037150190410230495 0 0.074106995660569538 -0.0048574017732142295 0 0.072268263924272921 -0.0036064784251225862 0 0.06994991808524352 -0.0027214293506306344 0 0.069686982004743714 -0.0041464467803528776 0 0.072268263924272921 -0.0036064784251225862 0 0.069686982004743714 -0.0041464467803528776 0 0.070870775613431802 -0.0055470857087498047 0 0.075701832515244094 -0.0029682719455935004 0 0.075253480828117641 -0.0017213019510324216 0 0.069686982004743714 -0.0041464467803528776 0 0.070870775613431802 -0.0055470857087498047 0 0.068246397869205694 -0.0057692222905265282 0 0.070870775613431802 -0.0055470857087498047 0 0.07240189267964843 -0.0066366313455088659 0 0.068177869049802373 -0.0080846939739303916 0 0.070870775613431802 -0.0055470857087498047 0 0.07240189267964843 -0.0066366313455088659 0 0.074106995660569538 -0.0048574017732142295 0 0.075683102148416351 -0.0033178854318458816 0 0.075701832515244094 -0.0029682719455935004 0 0.078223000593052802 -0.00084384065487314193 0 0.076559323037098864 -0.0023365314776556136 0 0.080779592461170904 -0.0026653236313449666 0 0.076163404248188363 -0.0042398030621748541 0 0.07240189267964843 -0.0066366313455088659 0 0.074106995660569538 -0.0048574017732142295 0 0.078223000593052802 -0.00084384065487314193 0 0.081232436773023803 0.00074648451985303416 0 0.078930276585549353 0.0015227688220871716 0 0.078223000593052802 -0.00084384065487314193 0 0.080779592461170904 -0.0026653236313449666 0 0.081232436773023803 0.00074648451985303416 0 0.080779592461170904 -0.0026653236313449666 0 0.081232436773023803 0.00074648451985303416 0 0.084693541163672115 -0.0012858087363050385 0 0.081232436773023803 0.00074648451985303416 0 0.084693541163672115 -0.0012858087363050385 0 0.0839857035010243 0.0021072110858530273 0 0.075253480828117641 -0.0017213019510324216 0 0.073696592793619398 0.0010443288754909501 0 0.084693541163672115 -0.0012858087363050385 0 0.087341596705447 0.0025372066824884691 0 0.088475842751113976 7.8154666818898761e-05 0 0.068177869049802373 -0.0080846939739303916 0 0.064624977005734968 -0.0057515908294861924 0 0.063829377971507187 -0.0093676839175363125 0 0.067393752667669268 -0.004071383202966559 0 0.064624977005734968 -0.0057515908294861924 0 0.068246397869205694 -0.0057692222905265282 0 0.068177869049802373 -0.0080846939739303916 0 0.064624977005734968 -0.0057515908294861924 0 0.068246397869205694 -0.0057692222905265282 0 0.070870775613431802 -0.0055470857087498047 0 0.068177869049802373 -0.0080846939739303916 0 0.068246397869205694 -0.0057692222905265282 0 0.085747318796917535 0.0041847746045657911 0 0.083802163128039175 0.0051257991839243231 0 0.0839857035010243 0.0021072110858530273 0 0.085747318796917535 0.0041847746045657911 0 0.083802163128039175 0.0051257991839243231 0 0.085804740204451183 0.0064290727522505337 0 0.085747318796917535 0.0041847746045657911 0 0.087533821924357033 0.005188886080605421 0 0.087341596705447 0.0025372066824884691 0 0.085747318796917535 0.0041847746045657911 0 0.087533821924357033 0.005188886080605421 0 0.085804740204451183 0.0064290727522505337 0 0.087533821924357033 0.005188886080605421 0 0.087341596705447 0.0025372066824884691 0 0.089281388215893459 0.0044868264990746689 0 0.084693541163672115 -0.0012858087363050385 0 0.087341596705447 0.0025372066824884691 0 0.0839857035010243 0.0021072110858530273 0 0.085747318796917535 0.0041847746045657911 0 0.087341596705447 0.0025372066824884691 0 0.0839857035010243 0.0021072110858530273 0 0.081232436773023803 0.00074648451985303416 0 0.080115303075166996 0.0028551610818914868 0 0.081851512193084341 0.0035361931704286378 0 0.081232436773023803 0.00074648451985303416 0 0.0839857035010243 0.0021072110858530273 0 0.081851512193084341 0.0035361931704286378 0 0.081232436773023803 0.00074648451985303416 0 0.078930276585549353 0.0015227688220871716 0 0.080115303075166996 0.0028551610818914868 0 0.078930276585549353 0.0015227688220871716 0 0.080115303075166996 0.0028551610818914868 0 0.078541881056291951 0.0036555581740684425 0 0.080115303075166996 0.0028551610818914868 0 0.078541881056291951 0.0036555581740684425 0 0.080162465990356244 0.0048690976436177019 0 0.080115303075166996 0.0028551610818914868 0 0.080162465990356244 0.0048690976436177019 0 0.081851512193084341 0.0035361931704286378 0 0.080162465990356244 0.0048690976436177019 0 0.081769182404275748 0.0060673830919773389 0 0.080088776972908546 0.0070394277666640968 0 0.078541881056291951 0.0036555581740684425 0 0.080162465990356244 0.0048690976436177019 0 0.078495826726801318 0.0064974640684892062 0 0.083802163128039175 0.0051257991839243231 0 0.0839857035010243 0.0021072110858530273 0 0.081851512193084341 0.0035361931704286378 0 0.080162465990356244 0.0048690976436177019 0 0.081851512193084341 0.0035361931704286378 0 0.081769182404275748 0.0060673830919773389 0 0.083802163128039175 0.0051257991839243231 0 0.081851512193084341 0.0035361931704286378 0 0.081769182404275748 0.0060673830919773389 0 0.083802163128039175 0.0051257991839243231 0 0.081769182404275748 0.0060673830919773389 0 0.083529636662929674 0.0076333557410396997 0 0.081769182404275748 0.0060673830919773389 0 0.083529636662929674 0.0076333557410396997 0 0.081057955417320179 0.0086374700582383859 0 0.081769182404275748 0.0060673830919773389 0 0.081057955417320179 0.0086374700582383859 0 0.080088776972908546 0.0070394277666640968 0 0.083529636662929674 0.0076333557410396997 0 0.081057955417320179 0.0086374700582383859 0 0.081690389147073939 0.011033185935324952 0 0.078495826726801318 0.0064974640684892062 0 0.079002897869406258 0.0092176568980889481 0 0.077083101459163084 0.010198143351576917 0 0.078495826726801318 0.0064974640684892062 0 0.080088776972908546 0.0070394277666640968 0 0.079002897869406258 0.0092176568980889481 0 0.080162465990356244 0.0048690976436177019 0 0.078495826726801318 0.0064974640684892062 0 0.080088776972908546 0.0070394277666640968 0 0.081057955417320179 0.0086374700582383859 0 0.080088776972908546 0.0070394277666640968 0 0.079002897869406258 0.0092176568980889481 0 0.078737112428246797 0.0083918012838068747 0 0.078055634378083633 0.0060124283643971776 0 0.079002897869406258 0.0092176568980889481 0 0.079407356545599078 0.012049188395933986 0 0.077083101459163084 0.010198143351576917 0 0.079407356545599078 0.012049188395933986 0 0.078901937796811192 0.013655769740823142 0 0.077083101459163084 0.010198143351576917 0 0.081057955417320179 0.0086374700582383859 0 0.079002897869406258 0.0092176568980889481 0 0.079407356545599078 0.012049188395933986 0 0.078851354574951044 0.013500043296170831 0 0.077514671868590165 0.01492874404308823 0 0.078301602131494966 0.013745591642234994 0 0.081057955417320179 0.0086374700582383859 0 0.079407356545599078 0.012049188395933986 0 0.081690389147073939 0.011033185935324952 0 0.079265884482557281 0.014538884210179832 0 0.079307554276879133 0.014602227639940487 0 0.079407356545599078 0.012049188395933986 0 0.078851354574951044 0.013500043296170831 0 0.078877155206048627 0.013370037555555174 0 0.083529636662929674 0.0076333557410396997 0 0.081690389147073939 0.011033185935324952 0 0.086054211854416238 0.0090261605659863464 0 0.079307554276879133 0.014602227639940487 0 0.07734145087549793 0.015423948643149785 0 0.079307554276879133 0.014602227639940487 0 0.081117723164422728 0.013852146319159401 0 0.080167647015714744 0.015649476612917039 0 0.078288648910060182 0.015354847999218636 0 0.077981540144417688 0.016203168760192725 0 0.083529636662929674 0.0076333557410396997 0 0.086054211854416238 0.0090261605659863464 0 0.085804740204451183 0.0064290727522505337 0 0.083802163128039175 0.0051257991839243231 0 0.083529636662929674 0.0076333557410396997 0 0.085804740204451183 0.0064290727522505337 0 0.086054211854416238 0.0090261605659863464 0 0.087864977635438893 0.0073930911437609746 0 0.08985439177729837 0.007707902400754617 0 0.081117723164422728 0.013852146319159401 0 0.079853554520502273 0.014460395140118831 0 0.087533821924357033 0.005188886080605421 0 0.087864977635438893 0.0073930911437609746 0 0.08905123096579548 0.0060104905547821528 0 0.087533821924357033 0.005188886080605421 0 0.085804740204451183 0.0064290727522505337 0 0.087864977635438893 0.0073930911437609746 0 0.086054211854416238 0.0090261605659863464 0 0.085804740204451183 0.0064290727522505337 0 0.087864977635438893 0.0073930911437609746 0 0.077981540144417688 0.016203168760192725 0 0.076397829496825539 0.0150599058803966 0 0.075780751694661738 0.016758739406340744 0 0.078288648910060182 0.015354847999218636 0 0.077981540144417688 0.016203168760192725 0 0.076397829496825539 0.0150599058803966 0 0.07734145087549793 0.015423948643149785 0 0.075141004035956055 0.016378466527670631 0 0.077514671868590165 0.01492874404308823 0 0.07715368056837961 0.014360513732285392 0 0.076064474581893859 0.015854488715427013 0 0.07715368056837961 0.014360513732285392 0 0.076064474581893859 0.015854488715427013 0 0.075729159373780289 0.015386923600442106 0 0.077514671868590165 0.01492874404308823 0 0.07715368056837961 0.014360513732285392 0 0.078301602131494966 0.013745591642234994 0 0.07715368056837961 0.014360513732285392 0 0.078413321489063423 0.012615385778901941 0 0.078301602131494966 0.013745591642234994 0 0.07715368056837961 0.014360513732285392 0 0.077262947065748447 0.013858320767533478 0 0.078413321489063423 0.012615385778901941 0 0.07715368056837961 0.014360513732285392 0 0.076441950413519408 0.014635466387729236 0 0.077262947065748447 0.013858320767533478 0 0.07715368056837961 0.014360513732285392 0 0.076441950413519408 0.014635466387729236 0 0.075729159373780289 0.015386923600442106 0 0.076441950413519408 0.014635466387729236 0 0.077262947065748447 0.013858320767533478 0 0.076697176592999711 0.014377168069987515 0 0.077262947065748447 0.013858320767533478 0 0.077389583890262112 0.013785591442228086 0 0.076704815909106411 0.014586028907108013 0 0.077262947065748447 0.013858320767533478 0 0.076697176592999711 0.014377168069987515 0 0.076704815909106411 0.014586028907108013 0 0.076697176592999711 0.014377168069987515 0 0.076699251815479319 0.014839068732587828 0 0.076704815909106411 0.014586028907108013 0 0.076288413325801885 0.014102296075914135 0 0.077389583890262112 0.013785591442228086 0 0.076304007436265156 0.015094231935115932 0 0.077389583890262112 0.013785591442228086 0 0.076304007436265156 0.015094231935115932 0 0.076704815909106411 0.014586028907108013 0 0.077262947065748447 0.013858320767533478 0 0.077389583890262112 0.013785591442228086 0 0.078413321489063423 0.012615385778901941 0 0.076288413325801885 0.014102296075914135 0 0.077389583890262112 0.013785591442228086 0 0.077241060305661607 0.011247564960392215 0 0.077389583890262112 0.013785591442228086 0 0.078413321489063423 0.012615385778901941 0 0.077241060305661607 0.011247564960392215 0 0.078966748806156506 0.0094546162511433152 0 0.078737112428246797 0.0083918012838068747 0 0.078413321489063423 0.012615385778901941 0 0.07966306373062372 0.0068798336189108871 0 0.077241060305661607 0.011247564960392215 0 0.078413321489063423 0.012615385778901941 0 0.078301602131494966 0.013745591642234994 0 0.078901937796811192 0.013655769740823142 0 0.078301602131494966 0.013745591642234994 0 0.078877155206048627 0.013370037555555174 0 0.078901937796811192 0.013655769740823142 0 0.078851354574951044 0.013500043296170831 0 0.078301602131494966 0.013745591642234994 0 0.078877155206048627 0.013370037555555174 0 0.079407356545599078 0.012049188395933986 0 0.078877155206048627 0.013370037555555174 0 0.078901937796811192 0.013655769740823142 0 0.07764457858941394 0.0050234008925576267 0 0.074465445582870091 0.008532991659698683 0 0.078048576714278145 0.00037148217558282391 0 0.07966306373062372 0.0068798336189108871 0 0.07764457858941394 0.0050234008925576267 0 0.077241060305661607 0.011247564960392215 0 0.082140170853322245 -0.0010611400177088421 0 0.080010640696936933 -0.0010109839819691189 0 0.078048576714278145 0.00037148217558282391 0 0.078918230905041839 0.0057958887579946808 0 0.07871372049733559 0.0041208421588058109 0 0.078918230905041839 0.0057958887579946808 0 0.079376190512767952 0.0095484953270043079 0 0.074465445582870091 0.008532991659698683 0 0.077241060305661607 0.011247564960392215 0 0.074613439729646527 0.013277648743493367 0 0.07764457858941394 0.0050234008925576267 0 0.074465445582870091 0.008532991659698683 0 0.077241060305661607 0.011247564960392215 0 0.076288413325801885 0.014102296075914135 0 0.077241060305661607 0.011247564960392215 0 0.074613439729646527 0.013277648743493367 0 0.085541672263029597 0.0042109496435904859 0 0.08243605760995007 0.0089157996918809591 0 0.081043453458393658 0.0012636272460093414 0 0.082140170853322245 -0.0010611400177088421 0 0.085541672263029597 0.0042109496435904859 0 0.081043453458393658 0.0012636272460093414 0 0.085541672263029597 0.0042109496435904859 0 0.08243605760995007 0.0089157996918809591 0 0.084599628129929202 0.01288875749511526 0 0.079376190512767952 0.0095484953270043079 0 0.079527974528049203 0.01451165756831157 0 0.085541672263029597 0.0042109496435904859 0 0.084599628129929202 0.01288875749511526 0 0.086090540852793024 0.013668368941939847 0 0.074613439729646527 0.013277648743493367 0 0.075424534784490918 0.014414003432633628 0 0.074949955034881541 0.015158595437206627 0 0.076288413325801885 0.014102296075914135 0 0.074613439729646527 0.013277648743493367 0 0.075424534784490918 0.014414003432633628 0 0.076288413325801885 0.014102296075914135 0 0.075424534784490918 0.014414003432633628 0 0.07578541928624781 0.014922760390856805 0 0.080266015848458425 0.0052630294287897015 0 0.082256922397881238 0.0041171114285828633 0 0.079960405188300249 0.0088640003124747357 0 0.078110139796214575 2.6386045991244817e-05 0 0.07172313321142558 0.0082763522826228703 0 0.079960405188300249 0.0088640003124747357 0 0.076905731422402757 0.012007079122581454 0 0.078406509203762728 0.013515691514404331 0 0.079960405188300249 0.0088640003124747357 0 0.08243605760995007 0.0089157996918809591 0 0.080871020263767218 0.012651892803057565 0 0.079960405188300249 0.0088640003124747357 0 0.08243605760995007 0.0089157996918809591 0 0.081043453458393658 0.0012636272460093414 0 0.081043453458393658 0.0012636272460093414 0 0.078110139796214575 2.6386045991244817e-05 0 0.079694296729276359 -0.0011736937516214699 0 0.079960405188300249 0.0088640003124747357 0 0.081043453458393658 0.0012636272460093414 0 0.078110139796214575 2.6386045991244817e-05 0 0.081043453458393658 0.0012636272460093414 0 0.079694296729276359 -0.0011736937516214699 0 0.08041123317302161 -0.0013421393569785314 0 0.082140170853322245 -0.0010611400177088421 0 0.081043453458393658 0.0012636272460093414 0 0.08041123317302161 -0.0013421393569785314 0 0.082140170853322245 -0.0010611400177088421 0 0.08041123317302161 -0.0013421393569785314 0 0.080010640696936933 -0.0010109839819691189 0 0.079694296729276359 -0.0011736937516214699 0 0.08041123317302161 -0.0013421393569785314 0 0.08058994528778031 -0.0017161817614591217 0 0.08041123317302161 -0.0013421393569785314 0 0.080547144756503639 -0.0014706029902238757 0 0.08058994528778031 -0.0017161817614591217 0 0.080547144756503639 -0.0014706029902238757 0 0.081037008972028396 -0.0014257896462483218 0 0.08118993215458159 -0.0017725620434215989 0 0.080547144756503639 -0.0014706029902238757 0 0.08118993215458159 -0.0017725620434215989 0 0.08058994528778031 -0.0017161817614591217 0 0.080547144756503639 -0.0014706029902238757 0 0.081037008972028396 -0.0014257896462483218 0 0.079999980368628654 -0.00094405361920229169 0 0.081037008972028396 -0.0014257896462483218 0 0.079999980368628654 -0.00094405361920229169 0 0.080325508672431753 -0.00077694514799861653 0 0.079999980368628654 -0.00094405361920229169 0 0.080010640696936933 -0.0010109839819691189 0 0.078828370736087103 -0.00028012729151082126 0 0.079999980368628654 -0.00094405361920229169 0 0.078828370736087103 -0.00028012729151082126 0 0.079054840702573709 -0.00034857483130341357 0 0.080547144756503639 -0.0014706029902238757 0 0.079999980368628654 -0.00094405361920229169 0 0.080010640696936933 -0.0010109839819691189 0 0.08041123317302161 -0.0013421393569785314 0 0.080547144756503639 -0.0014706029902238757 0 0.080010640696936933 -0.0010109839819691189 0 0.080010640696936933 -0.0010109839819691189 0 0.078048576714278145 0.00037148217558282391 0 0.078828370736087103 -0.00028012729151082126 0 0.07764457858941394 0.0050234008925576267 0 0.078048576714278145 0.00037148217558282391 0 0.078986670107303467 0.0010010222326669932 0 0.07966306373062372 0.0068798336189108871 0 0.07764457858941394 0.0050234008925576267 0 0.078986670107303467 0.0010010222326669932 0 0.078048576714278145 0.00037148217558282391 0 0.078986670107303467 0.0010010222326669932 0 0.078362113772925651 -0.00035314040394572187 0 0.078495826726801318 0.0064974640684892062 0 0.077083101459163084 0.010198143351576917 0 0.076038062955171487 0.0049450674525536292 0 0.078055634378083633 0.0060124283643971776 0 0.077594182831518435 0.0041272050291778191 0 0.078048576714278145 0.00037148217558282391 0 0.078828370736087103 -0.00028012729151082126 0 0.078362113772925651 -0.00035314040394572187 0 0.078828370736087103 -0.00028012729151082126 0 0.078362113772925651 -0.00035314040394572187 0 0.079054840702573709 -0.00034857483130341357 0 0.077594182831518435 0.0041272050291778191 0 0.077535180345186472 0.0035072560956577498 0 0.076038062955171487 0.0049450674525536292 0 0.077156493560802702 0.002665365866874372 0 0.077827517115978698 0.0010826599300769329 0 0.078362113772925651 -0.00035314040394572187 0 0.077827517115978698 0.0010826599300769329 0 0.079054840702573709 -0.00034857483130341357 0 0.078541881056291951 0.0036555581740684425 0 0.078495826726801318 0.0064974640684892062 0 0.076038062955171487 0.0049450674525536292 0 0.078541881056291951 0.0036555581740684425 0 0.076038062955171487 0.0049450674525536292 0 0.077156493560802702 0.002665365866874372 0 0.078541881056291951 0.0036555581740684425 0 0.077881332425083521 0.0023090270987044027 0 0.077156493560802702 0.002665365866874372 0 0.078930276585549353 0.0015227688220871716 0 0.078541881056291951 0.0036555581740684425 0 0.077881332425083521 0.0023090270987044027 0 0.077881332425083521 0.0023090270987044027 0 0.077156493560802702 0.002665365866874372 0 0.077045590800367172 0.0016540400001679263 0 0.077692100013386445 0.00067871253306897128 0 0.077881332425083521 0.0023090270987044027 0 0.077045590800367172 0.0016540400001679263 0 0.077692100013386445 0.00067871253306897128 0 0.078930276585549353 0.0015227688220871716 0 0.077881332425083521 0.0023090270987044027 0 0.077156493560802702 0.002665365866874372 0 0.077045590800367172 0.0016540400001679263 0 0.077827517115978698 0.0010826599300769329 0 0.077060224946826392 0.0023289613506253678 0 0.077045590800367172 0.0016540400001679263 0 0.077827517115978698 0.0010826599300769329 0 0.081467631992536232 0.00033841476816278023 0 0.078681890100470997 0.00200991989109589 0 0.079660718859032198 0.0003240247336087907 0 0.077827517115978698 0.0010826599300769329 0 0.079660718859032198 0.0003240247336087907 0 0.079054840702573709 -0.00034857483130341357 0 0.078681890100470997 0.00200991989109589 0 0.077827517115978698 0.0010826599300769329 0 0.079660718859032198 0.0003240247336087907 0 0.081467631992536232 0.00033841476816278023 0 0.079660718859032198 0.0003240247336087907 0 0.081126436707528227 -0.00077466542212815601 0 0.081467631992536232 0.00033841476816278023 0 0.081126436707528227 -0.00077466542212815601 0 0.082360251654413519 -0.0017402414263842372 0 0.081126436707528227 -0.00077466542212815601 0 0.080325508672431753 -0.00077694514799861653 0 0.081698523525742112 -0.0013933468714423397 0 0.079660718859032198 0.0003240247336087907 0 0.081126436707528227 -0.00077466542212815601 0 0.080325508672431753 -0.00077694514799861653 0 0.081037008972028396 -0.0014257896462483218 0 0.080325508672431753 -0.00077694514799861653 0 0.081698523525742112 -0.0013933468714423397 0 0.079999980368628654 -0.00094405361920229169 0 0.080325508672431753 -0.00077694514799861653 0 0.079054840702573709 -0.00034857483130341357 0 0.079660718859032198 0.0003240247336087907 0 0.080325508672431753 -0.00077694514799861653 0 0.079054840702573709 -0.00034857483130341357 0 0.082462405436027578 -0.0017129799983541508 0 0.082075867929200283 -0.0015462040338826291 0 0.082665573345538798 -0.0019163504623813973 0 0.082462405436027578 -0.0017129799983541508 0 0.081698523525742112 -0.0013933468714423397 0 0.082360251654413519 -0.0017402414263842372 0 0.082462405436027578 -0.0017129799983541508 0 0.081698523525742112 -0.0013933468714423397 0 0.081945038076956619 -0.0018318110391778047 0 0.081126436707528227 -0.00077466542212815601 0 0.081698523525742112 -0.0013933468714423397 0 0.082360251654413519 -0.0017402414263842372 0 0.081467631992536232 0.00033841476816278023 0 0.082360251654413519 -0.0017402414263842372 0 0.08325039552467077 -0.0039132836563605788 0 0.082462405436027578 -0.0017129799983541508 0 0.082360251654413519 -0.0017402414263842372 0 0.08325039552467077 -0.0039132836563605788 0 0.081730876441610381 -0.0035695887443887866 0 0.081746302300120602 -0.003519255065584685 0 0.082462405436027578 -0.0017129799983541508 0 0.08325039552467077 -0.0039132836563605788 0 0.082075867929200283 -0.0015462040338826291 0 0.084877551072655419 -0.0071336651428216312 0 0.085218646162701348 -0.0071425923617862899 0 0.083243847013379266 -0.0065928842375125671 0 0.08325039552467077 -0.0039132836563605788 0 0.082075867929200283 -0.0015462040338826291 0 0.085433696511300131 -0.0095095245651851262 0 0.086108519492266083 -0.01258435005573422 0 0.087057474067875493 -0.010954825701800725 0 0.085433696511300131 -0.0095095245651851262 0 0.083243847013379266 -0.0065928842375125671 0 0.086108519492266083 -0.01258435005573422 0 0.086108519492266083 -0.01258435005573422 0 0.088294926407327362 -0.012721574833434009 0 0.087057474067875493 -0.010954825701800725 0 0.088294926407327362 -0.012721574833434009 0 0.087057474067875493 -0.010954825701800725 0 0.088296496256677154 -0.012305325285757309 0 0.085218646162701348 -0.0071425923617862899 0 0.086149272485405423 -0.0073047718936718933 0 0.086108519492266083 -0.01258435005573422 0 0.088294926407327362 -0.012721574833434009 0 0.089554110897427458 -0.012605443966591488 0 0.082075867929200283 -0.0015462040338826291 0 0.082665573345538798 -0.0019163504623813973 0 0.085032231116377976 -0.0022611435945687976 0 0.082665573345538798 -0.0019163504623813973 0 0.085032231116377976 -0.0022611435945687976 0 0.083244854831455217 -0.0030283116114047447 0 0.085032231116377976 -0.0022611435945687976 0 0.085300564568260837 -0.0048147337662225167 0 0.083244854831455217 -0.0030283116114047447 0 0.085300564568260837 -0.0048147337662225167 0 0.083244854831455217 -0.0030283116114047447 0 0.08368915750042466 -0.0035254000960720424 0 0.083244854831455217 -0.0030283116114047447 0 0.081967116421536243 -0.0023508683306262255 0 0.081945038076956619 -0.0018318110391778047 0 0.082665573345538798 -0.0019163504623813973 0 0.083244854831455217 -0.0030283116114047447 0 0.081945038076956619 -0.0018318110391778047 0 0.082462405436027578 -0.0017129799983541508 0 0.082665573345538798 -0.0019163504623813973 0 0.081945038076956619 -0.0018318110391778047 0 0.081037008972028396 -0.0014257896462483218 0 0.081698523525742112 -0.0013933468714423397 0 0.081945038076956619 -0.0018318110391778047 0 0.081037008972028396 -0.0014257896462483218 0 0.081945038076956619 -0.0018318110391778047 0 0.08118993215458159 -0.0017725620434215989 0 0.081967116421536243 -0.0023508683306262255 0 0.081945038076956619 -0.0018318110391778047 0 0.08118993215458159 -0.0017725620434215989 0 0.081967116421536243 -0.0023508683306262255 0 0.08118993215458159 -0.0017725620434215989 0 0.08058994528778031 -0.0017161817614591217 0 0.079694296729276359 -0.0011736937516214699 0 0.08058994528778031 -0.0017161817614591217 0 0.080997536083967994 -0.0019813246733516748 0 0.081967116421536243 -0.0023508683306262255 0 0.08058994528778031 -0.0017161817614591217 0 0.080997536083967994 -0.0019813246733516748 0 0.081967116421536243 -0.0023508683306262255 0 0.080997536083967994 -0.0019813246733516748 0 0.08368915750042466 -0.0035254000960720424 0 0.080997536083967994 -0.0019813246733516748 0 0.08245252809922797 -0.0032132185256706905 0 0.08368915750042466 -0.0035254000960720424 0 0.078110139796214575 2.6386045991244817e-05 0 0.079694296729276359 -0.0011736937516214699 0 0.080997536083967994 -0.0019813246733516748 0 0.078110139796214575 2.6386045991244817e-05 0 0.080997536083967994 -0.0019813246733516748 0 0.08245252809922797 -0.0032132185256706905 0 0.078110139796214575 2.6386045991244817e-05 0 0.08245252809922797 -0.0032132185256706905 0 0.080558553361885984 -0.0053729042539118338 0 0.08245252809922797 -0.0032132185256706905 0 0.080558553361885984 -0.0053729042539118338 0 0.084046025213922196 -0.0058132015024400961 0 0.082256922397881238 0.0041171114285828633 0 0.086301581035608088 0.0006268242452671872 0 0.081394797400035815 0.0032626368616869121 0 0.082256922397881238 0.0041171114285828633 0 0.086328738650227541 -0.0055959992051263317 0 0.084046025213922196 -0.0058132015024400961 0 0.085640288401567691 -0.0045695090130501836 0 0.087399304430624755 -0.00088371924654673034 0 0.086301581035608088 0.0006268242452671872 0 0.08245252809922797 -0.0032132185256706905 0 0.084046025213922196 -0.0058132015024400961 0 0.085640288401567691 -0.0045695090130501836 0 0.085640288401567691 -0.0045695090130501836 0 0.08368915750042466 -0.0035254000960720424 0 0.086146926498840065 -0.0050654146367186707 0 0.08245252809922797 -0.0032132185256706905 0 0.085640288401567691 -0.0045695090130501836 0 0.08368915750042466 -0.0035254000960720424 0 0.083244854831455217 -0.0030283116114047447 0 0.081967116421536243 -0.0023508683306262255 0 0.08368915750042466 -0.0035254000960720424 0 0.085300564568260837 -0.0048147337662225167 0 0.08368915750042466 -0.0035254000960720424 0 0.086146926498840065 -0.0050654146367186707 0 0.085300564568260837 -0.0048147337662225167 0 0.086146926498840065 -0.0050654146367186707 0 0.088215044096156076 -0.00786910145747792 0 0.087277578399526559 -0.0054147345244079685 0 0.087225252362063077 -0.0075863447778428345 0 0.088215044096156076 -0.00786910145747792 0 0.086146926498840065 -0.0050654146367186707 0 0.087277578399526559 -0.0054147345244079685 0 0.088215044096156076 -0.00786910145747792 0 0.087277578399526559 -0.0054147345244079685 0 0.087357650257703104 -0.0050012646029307488 0 0.087225252362063077 -0.0075863447778428345 0 0.085640288401567691 -0.0045695090130501836 0 0.086146926498840065 -0.0050654146367186707 0 0.087277578399526559 -0.0054147345244079685 0 0.086328738650227541 -0.0055959992051263317 0 0.085640288401567691 -0.0045695090130501836 0 0.087334935600430319 -0.0046673479427591135 0 0.085640288401567691 -0.0045695090130501836 0 0.087277578399526559 -0.0054147345244079685 0 0.087334935600430319 -0.0046673479427591135 0 0.087277578399526559 -0.0054147345244079685 0 0.087334935600430319 -0.0046673479427591135 0 0.087357650257703104 -0.0050012646029307488 0 0.087334935600430319 -0.0046673479427591135 0 0.087466950602717905 -0.0037831398132250355 0 0.087357650257703104 -0.0050012646029307488 0 0.087334935600430319 -0.0046673479427591135 0 0.087582398805607545 -0.0042025655512943419 0 0.087466950602717905 -0.0037831398132250355 0 0.086328738650227541 -0.0055959992051263317 0 0.087334935600430319 -0.0046673479427591135 0 0.087582398805607545 -0.0042025655512943419 0 0.087399304430624755 -0.00088371924654673034 0 0.087265917858625253 -0.0013405640494580961 0 0.084999362675600598 -0.0015380780821129224 0 0.086929172013065562 -0.0010323893527513983 0 0.086507515804281093 -0.003449121805868839 0 0.086929172013065562 -0.0010323893527513983 0 0.087466950602717905 -0.0037831398132250355 0 0.086507515804281093 -0.003449121805868839 0 0.087582398805607545 -0.0042025655512943419 0 0.086929172013065562 -0.0010323893527513983 0 0.087466950602717905 -0.0037831398132250355 0 0.087265917858625253 -0.0013405640494580961 0 0.086764262497469449 -0.0013482974090418564 0 0.089094863653206666 -0.00035874272955232377 0 0.086929172013065562 -0.0010323893527513983 0 0.088130344143798084 -0.00013758008272742804 0 0.087466950602717905 -0.0037831398132250355 0 0.087357650257703104 -0.0050012646029307488 0 0.086507515804281093 -0.003449121805868839 0 0.087357650257703104 -0.0050012646029307488 0 0.086507515804281093 -0.003449121805868839 0 0.084999593990640276 -0.0064825295927716381 0 0.084999362675600598 -0.0015380780821129224 0 0.086507515804281093 -0.003449121805868839 0 0.084999593990640276 -0.0064825295927716381 0 0.087357650257703104 -0.0050012646029307488 0 0.084999593990640276 -0.0064825295927716381 0 0.087225252362063077 -0.0075863447778428345 0 0.084999593990640276 -0.0064825295927716381 0 0.087225252362063077 -0.0075863447778428345 0 0.084998751809076095 -0.011427820127769165 0 0.087225252362063077 -0.0075863447778428345 0 0.084998751809076095 -0.011427820127769165 0 0.086900986638592928 -0.010740160891454751 0 0.084998751809076095 -0.011427820127769165 0 0.086900986638592928 -0.010740160891454751 0 0.084999621125107463 -0.016374185652489506 0 0.086900986638592928 -0.010740160891454751 0 0.084999621125107463 -0.016374185652489506 0 0.087782353491625928 -0.013544935626194398 0 0.087225252362063077 -0.0075863447778428345 0 0.086900986638592928 -0.010740160891454751 0 0.088215044096156076 -0.00786910145747792 0 0.088215044096156076 -0.00786910145747792 0 0.089073018671166612 -0.014119251943197292 0 0.087782353491625928 -0.013544935626194398 0 0.089554110897427458 -0.012605443966591488 0 0.088215044096156076 -0.00786910145747792 0 0.089073018671166612 -0.014119251943197292 0 0.085032231116377976 -0.0022611435945687976 0 0.085300564568260837 -0.0048147337662225167 0 0.088215044096156076 -0.00786910145747792 0 0.086149272485405423 -0.0073047718936718933 0 0.086616232175938238 -0.0074307336920295666 0 0.086900986638592928 -0.010740160891454751 0 0.088215044096156076 -0.00786910145747792 0 0.087782353491625928 -0.013544935626194398 0 0.089073018671166612 -0.014119251943197292 0 0.089947155653681943 -0.016214465435203912 0 0.087782353491625928 -0.013544935626194398 0 0.088294926407327362 -0.012721574833434009 0 0.089554110897427458 -0.012605443966591488 0 0.089073018671166612 -0.014119251943197292 0 0.089237858651216306 -0.013990218177854039 0 0.089073018671166612 -0.014119251943197292 0 0.088296496256677154 -0.012305325285757309 0 0.088294926407327362 -0.012721574833434009 0 0.089073018671166612 -0.014119251943197292 0 0.088296496256677154 -0.012305325285757309 0 0.089237858651216306 -0.013990218177854039 0 0.089073018671166612 -0.014119251943197292 0 0.089947155653681943 -0.016214465435203912 0 0.088609677489883923 -0.020553925132400088 0 0.089947155653681943 -0.016214465435203912 0 0.08715432287488388 -0.017787010270815203 0 0.089947155653681943 -0.016214465435203912 0 0.08715432287488388 -0.017787010270815203 0 0.087782353491625928 -0.013544935626194398 0 0.084999064489321444 -0.021321154592514383 0 0.08715432287488388 -0.017787010270815203 0 0.084999621125107463 -0.016374185652489506 0 0.084999064489321444 -0.021321154592514383 0 0.086926867892021489 -0.021422068378851904 0 0.08715432287488388 -0.017787010270815203 0 0.08715432287488388 -0.017787010270815203 0 0.084999621125107463 -0.016374185652489506 0 0.087782353491625928 -0.013544935626194398 0 0.046045438159217307 0.029430672327836332 0 0.046200866509064145 0.02948204362517173 0 0.046053204054755548 0.02933918732050143 0 0.046200866509064145 0.02948204362517173 0 0.046053204054755548 0.02933918732050143 0 0.046297602092579444 0.029402431397092057 0 0.046053204054755548 0.02933918732050143 0 0.046297602092579444 0.029402431397092057 0 0.04612266516883378 0.029179482920293032 0 0.046053204054755548 0.02933918732050143 0 0.045942575427245676 0.029354432539872605 0 0.045940238231397854 0.029237465359348094 0 0.045942575427245676 0.029354432539872605 0 0.045940238231397854 0.029237465359348094 0 0.045830336061858122 0.029286316243866892 0 0.045942575427245676 0.029354432539872605 0 0.045829983002429325 0.029404728713872934 0 0.045830336061858122 0.029286316243866892 0 0.045970709351483063 0.029430621477615351 0 0.045942575427245676 0.029354432539872605 0 0.045829983002429325 0.029404728713872934 0 0.046045438159217307 0.029430672327836332 0 0.045970709351483063 0.029430621477615351 0 0.045942575427245676 0.029354432539872605 0 0.046045438159217307 0.029430672327836332 0 0.046053204054755548 0.02933918732050143 0 0.045942575427245676 0.029354432539872605 0 0.045829983002429325 0.029404728713872934 0 0.046063972301146512 0.029534075560554054 0 0.045670810501560133 0.029389172838896784 0 0.00079156132304719759 -0.034303705684566553 0 0.0027585953843718559 -0.035038913867498064 0 -0.0010875961479860021 -0.034900701926199186 0 0.024752224959296649 -0.0086569806276210488 0 0.018009922839275626 -0.0021813864076375509 0 0.045970709351483063 0.029430621477615351 0 0.045829983002429325 0.029404728713872934 0 0.046063972301146512 0.029534075560554054 0 0.00079156132304719759 -0.034303705684566553 0 -0.00029221881322759465 -0.033843977106160619 0 0.00044095446021745504 -0.033412558188662747 0 0.00079156132304719759 -0.034303705684566553 0 0.0013726374931887716 -0.033222911575271984 0 0.00044095446021745504 -0.033412558188662747 0 0.00079156132304719759 -0.034303705684566553 0 0.0018373108702190351 -0.034396828748833111 0 0.0027585953843718559 -0.035038913867498064 0 0.00079156132304719759 -0.034303705684566553 0 0.0018373108702190351 -0.034396828748833111 0 0.0013726374931887716 -0.033222911575271984 0 0.0018373108702190351 -0.034396828748833111 0 0.0021250439775982342 -0.033701548056530126 0 0.0013726374931887716 -0.033222911575271984 0 0.0018373108702190351 -0.034396828748833111 0 0.0021250439775982342 -0.033701548056530126 0 0.0024000026067763701 -0.034325373706370836 0 0.0028892059970386953 -0.034211916374837642 0 0.0027585953843718559 -0.035038913867498064 0 0.0075433146372572597 -0.034997548253197092 0 0.0021250439775982342 -0.033701548056530126 0 0.0028892059970386953 -0.034211916374837642 0 0.0024000026067763701 -0.034325373706370836 0 0.0018373108702190351 -0.034396828748833111 0 0.0024000026067763701 -0.034325373706370836 0 0.0027585953843718559 -0.035038913867498064 0 0.0028892059970386953 -0.034211916374837642 0 0.0024000026067763701 -0.034325373706370836 0 0.0027585953843718559 -0.035038913867498064 0 0.046045438159217307 0.029430672327836332 0 0.046200866509064145 0.02948204362517173 0 0.046063972301146512 0.029534075560554054 0 0.046045438159217307 0.029430672327836332 0 0.045970709351483063 0.029430621477615351 0 0.046063972301146512 0.029534075560554054 0 0.024752224959296649 -0.0086569806276210488 0 0.03205082377674854 -0.019719176565747103 0 0.046200866509064145 0.02948204362517173 0 0.046063972301146512 0.029534075560554054 0 0.046601348109156192 0.029746332889053845 0 0.03205082377674854 -0.019719176565747103 0 0.025021511200441451 -0.038128122476471307 0 0.0028892059970386953 -0.034211916374837642 0 0.0075433146372572597 -0.034997548253197092 0 0.0046735035506243316 -0.032244922023867612 0 0.029511112836619738 -0.067688188267038304 0 0.029951661265202059 -0.067275587900912301 0 0.030384568003420785 -0.067675055653586377 0 0.03205082377674854 -0.019719176565747103 0 0.036602830167468077 -0.027727273201651269 0 0.03205082377674854 -0.019719176565747103 0 0.036761325510847209 -0.0010833373200607032 0 0.046601348109156192 0.029746332889053845 0 0.04656992328337653 0.029293492581725901 0 0.047120417330918304 0.029622252682980348 0 0.046601348109156192 0.029746332889053845 0 0.046297602092579444 0.029402431397092057 0 0.04656992328337653 0.029293492581725901 0 0.046200866509064145 0.02948204362517173 0 0.046601348109156192 0.029746332889053845 0 0.046297602092579444 0.029402431397092057 0 0.046297602092579444 0.029402431397092057 0 0.04656992328337653 0.029293492581725901 0 0.04612266516883378 0.029179482920293032 0 0.04656992328337653 0.029293492581725901 0 0.046284661550261286 0.029001081730782335 0 0.04612266516883378 0.029179482920293032 0 0.04656992328337653 0.029293492581725901 0 0.04650221856168172 0.028800207632840222 0 0.047131009869054934 0.029135956641562228 0 0.04656992328337653 0.029293492581725901 0 0.047120417330918304 0.029622252682980348 0 0.047131009869054934 0.029135956641562228 0 0.04650221856168172 0.028800207632840222 0 0.047131009869054934 0.029135956641562228 0 0.047597016554278934 0.028352454576019995 0 0.04650221856168172 0.028800207632840222 0 0.046284661550261286 0.029001081730782335 0 0.046250439204396775 0.028963755913282815 0 0.04656992328337653 0.029293492581725901 0 0.04650221856168172 0.028800207632840222 0 0.046284661550261286 0.029001081730782335 0 0.046284661550261286 0.029001081730782335 0 0.046096007606834667 0.029027288294397869 0 0.046250439204396775 0.028963755913282815 0 0.046284661550261286 0.029001081730782335 0 0.046096007606834667 0.029027288294397869 0 0.04612266516883378 0.029179482920293032 0 0.046053204054755548 0.02933918732050143 0 0.04612266516883378 0.029179482920293032 0 0.045940238231397854 0.029237465359348094 0 0.04612266516883378 0.029179482920293032 0 0.045940238231397854 0.029237465359348094 0 0.045955369854976807 0.029126256252057711 0 0.046096007606834667 0.029027288294397869 0 0.04612266516883378 0.029179482920293032 0 0.045955369854976807 0.029126256252057711 0 0.046096007606834667 0.029027288294397869 0 0.045955369854976807 0.029126256252057711 0 0.045985507997717112 0.029060199073728563 0 0.045955369854976807 0.029126256252057711 0 0.045836093663600939 0.029099236668583058 0 0.045985507997717112 0.029060199073728563 0 0.045634406948671789 0.028468419276273908 0 0.045836804406284654 0.028434402514247271 0 0.045931941467823555 0.028894375077587558 0 0.045634406948671789 0.028468419276273908 0 0.045836804406284654 0.028434402514247271 0 0.045636819314981918 0.028176018763834899 0 0.045836093663600939 0.029099236668583058 0 0.045836463774932605 0.029207072600744038 0 0.045713540184177691 0.029224917867070786 0 0.036087403124132916 0.024855332922841072 0 0.028173576503085926 0.01685675009343772 0 0.045955369854976807 0.029126256252057711 0 0.045836093663600939 0.029099236668583058 0 0.045836463774932605 0.029207072600744038 0 0.045940238231397854 0.029237465359348094 0 0.045955369854976807 0.029126256252057711 0 0.045836463774932605 0.029207072600744038 0 0.0096654287504903541 0.013390273244723696 0 0.0092530126798412732 0.0088169825879962221 0 0.046552392688365592 0.028741783487683338 0 0.045836804406284654 0.028434402514247271 0 0.046166803901392973 0.026967020288087354 0 0.046552392688365592 0.028741783487683338 0 0.045836804406284654 0.028434402514247271 0 0.046154987659548494 0.028934110351056468 0 0.045836804406284654 0.028434402514247271 0 0.046166803901392973 0.026967020288087354 0 0.044072774089425663 0.026124988984007644 0 0.037337585377192575 0.027079909475227901 0 0.028173576503085926 0.01685675009343772 0 -0.026457957789920352 -0.0010872797591249498 0 -0.028706377704776236 -0.0056632490317174303 0 -0.026245433821544976 -0.0049451357203598671 0 -0.028706377704776236 -0.0056632490317174303 0 -0.026245433821544976 -0.0049451357203598671 0 -0.026829568244247204 -0.0076106179693088243 0 -0.02489834779889159 -0.0068152149046899974 0 -0.026245433821544976 -0.0049451357203598671 0 -0.026829568244247204 -0.0076106179693088243 0 -0.028706377704776236 -0.0056632490317174303 0 -0.026829568244247204 -0.0076106179693088243 0 -0.028563621333673676 -0.008723845011162773 0 -0.024828433773928626 -0.008649413897834005 0 -0.026829568244247204 -0.0076106179693088243 0 -0.026946437857125406 -0.010374806199304767 0 -0.026829568244247204 -0.0076106179693088243 0 -0.028563621333673676 -0.008723845011162773 0 -0.026946437857125406 -0.010374806199304767 0 0.0092530126798412732 0.0088169825879962221 0 0.0073370069454865641 -0.00063722723313663844 0 0.046166803901392973 0.026967020288087354 0 0.044873600058175832 0.024340997053828362 0 0.044072774089425663 0.026124988984007644 0 -0.028706377704776236 -0.0056632490317174303 0 -0.028563621333673676 -0.008723845011162773 0 -0.031028211101810581 -0.010353989083316906 0 -0.036786628280604285 -0.010086630679580247 0 -0.030705661799741279 -0.014068156964873528 0 -0.026885258804025761 -0.010233810036180123 0 0.0073370069454865641 -0.00063722723313663844 0 -0.017277806898042453 -0.0044217632681524408 0 -0.028563621333673676 -0.008723845011162773 0 -0.031028211101810581 -0.010353989083316906 0 -0.026946437857125406 -0.010374806199304767 0 -0.036786628280604285 -0.010086630679580247 0 -0.041255789857485681 -0.018711970239903241 0 -0.03460385761923087 -0.01631840127775409 0 -0.036786628280604285 -0.010086630679580247 0 -0.030705661799741279 -0.014068156964873528 0 -0.03460385761923087 -0.01631840127775409 0 -0.030705661799741279 -0.014068156964873528 0 -0.027063082647879093 -0.014705528764225572 0 -0.026885258804025761 -0.010233810036180123 0 -0.023760376714631441 -0.011854376434672327 0 -0.027063082647879093 -0.014705528764225572 0 -0.026885258804025761 -0.010233810036180123 0 0.045836463774932605 0.029207072600744038 0 0.045774813810024642 0.029260082110129822 0 0.045713540184177691 0.029224917867070786 0 0.045774813810024642 0.029260082110129822 0 0.045830336061858122 0.029286316243866892 0 0.045755672671305307 0.029273565169820562 0 0.045829983002429325 0.029404728713872934 0 0.045830336061858122 0.029286316243866892 0 0.045670810501560133 0.029389172838896784 0 0.019154038309237897 0.0020077786383650969 0 0.018009922839275626 -0.0021813864076375509 0 0.045836463774932605 0.029207072600744038 0 0.045774813810024642 0.029260082110129822 0 0.045830336061858122 0.029286316243866892 0 0.045940238231397854 0.029237465359348094 0 0.045836463774932605 0.029207072600744038 0 0.045830336061858122 0.029286316243866892 0 0.028173576503085926 0.01685675009343772 0 0.015799905531812836 0.00076953158613991184 0 0.045774813810024642 0.029260082110129822 0 0.045713540184177691 0.029224917867070786 0 0.045735893225609295 0.029275236806959305 0 0.044873600058175832 0.024340997053828362 0 0.044072774089425663 0.026124988984007644 0 0.044384048570612976 0.024328021410108723 0 0.028173576503085926 0.01685675009343772 0 0.019246817745865265 -0.00083106630069082487 0 0.022825151381986569 0.002172637927544731 0 0.022854951727468924 0.0019629913509210113 0 0.022705069185074551 0.0019540680656189948 0 0.0073370069454865641 -0.00063722723313663844 0 0.0040514821665310584 -0.015506191740899124 0 0.010131711366897366 -0.0036010039963740382 0 0.010639150989629776 -0.0036461335272914264 0 0.010508718725731421 -0.0038681388562946928 0 0.0094920487372290498 -0.0038645033455309268 0 0.0097473644970493354 -0.0038642361880030724 0 0.010034126255099328 -0.0028266409625397199 0 0.0097473644970493354 -0.0038642361880030724 0 0.010131711366897366 -0.0036010039963740382 0 0.010034126255099328 -0.0028266409625397199 0 0.0097473644970493354 -0.0038642361880030724 0 0.010131711366897366 -0.0036010039963740382 0 0.010508718725731421 -0.0038681388562946928 0 0.015799905531812836 0.00076953158613991184 0 0.019246817745865265 -0.00083106630069082487 0 0.0073370069454865641 -0.00063722723313663844 0 0.015799905531812836 0.00076953158613991184 0 0.010131711366897366 -0.0036010039963740382 0 0.010639150989629776 -0.0036461335272914264 0 0.010034126255099328 -0.0028266409625397199 0 -0.0014086975772016834 -0.034404463127498584 0 -0.0010875961479860021 -0.034900701926199186 0 -0.00029221881322759465 -0.033843977106160619 0 0.015322806493844767 -0.0069981949886124368 0 0.019246817745865265 -0.00083106630069082487 0 0.019246817745865265 -0.00083106630069082487 0 0.018009922839275626 -0.0021813864076375509 0 0.045774813810024642 0.029260082110129822 0 0.045735893225609295 0.029275236806959305 0 0.045755672671305307 0.029273565169820562 0 0.012501368542267679 0.011601405329270136 0 0.0032055840213637715 -0.0040793544842276227 0 0.023253683204523274 -0.0037645303168803773 0 0.015322806493844767 -0.0069981949886124368 0 0.018009922839275626 -0.0021813864076375509 0 0.00079156132304719759 -0.034303705684566553 0 -0.0010875961479860021 -0.034900701926199186 0 -0.00029221881322759465 -0.033843977106160619 0 -0.00029221881322759465 -0.033843977106160619 0 -0.00010203542211853584 -0.032318862084304838 0 0.00044095446021745504 -0.033412558188662747 0 -0.0022722409488508621 -0.03485542264162126 0 -0.00095137926203835155 -0.032719200391283225 0 -0.0022835751485192177 -0.032711347648062362 0 -0.0014086975772016834 -0.034404463127498584 0 -0.00029221881322759465 -0.033843977106160619 0 -0.00010203542211853584 -0.032318862084304838 0 0.015322806493844767 -0.0069981949886124368 0 0.0048212839599973837 -0.024295731846504773 0 -0.00095137926203835155 -0.032719200391283225 0 -0.0022835751485192177 -0.032711347648062362 0 -0.0016698152725867263 -0.03156234172336065 0 -0.0022722409488508621 -0.03485542264162126 0 -0.0022835751485192177 -0.032711347648062362 0 -0.0036649569946763452 -0.032953438200685567 0 0.015322806493844767 -0.0069981949886124368 0 0.0040514821665310584 -0.015506191740899124 0 0.0040514821665310584 -0.015506191740899124 0 -0.0055570851088316206 -0.019734726000829327 0 -0.0022835751485192177 -0.032711347648062362 0 -0.0036649569946763452 -0.032953438200685567 0 -0.0029624127229564748 -0.031439546789855145 0 0.0040514821665310584 -0.015506191740899124 0 0.0022220524133785445 -0.019207423092404724 0 -0.0029624127229564748 -0.031439546789855145 0 -0.0038288993566904755 -0.030184651721694329 0 -0.0050004287080982748 -0.031090574867092158 0 -0.0037189653569224372 -0.032878842538417184 0 -0.0029624127229564748 -0.031439546789855145 0 -0.0050004287080982748 -0.031090574867092158 0 -0.0038288993566904755 -0.030184651721694329 0 -0.0050004287080982748 -0.031090574867092158 0 -0.0042743781427103033 -0.028772975826695479 0 -0.0029624127229564748 -0.031439546789855145 0 -0.0038288993566904755 -0.030184651721694329 0 -0.0030564719715970344 -0.029484839309629144 0 -0.0029624127229564748 -0.031439546789855145 0 -0.0015822165993753332 -0.030115658676351163 0 -0.0030564719715970344 -0.029484839309629144 0 -0.0015822165993753332 -0.030115658676351163 0 -0.00087612922699365392 -0.031187425217855613 0 -0.0016698152725867263 -0.03156234172336065 0 -0.0015822165993753332 -0.030115658676351163 0 -0.00087612922699365392 -0.031187425217855613 0 0.00071808384377497936 -0.030343122286099533 0 -0.00095137926203835155 -0.032719200391283225 0 -0.00087612922699365392 -0.031187425217855613 0 -0.0016698152725867263 -0.03156234172336065 0 -0.0022835751485192177 -0.032711347648062362 0 -0.0029624127229564748 -0.031439546789855145 0 -0.0016698152725867263 -0.03156234172336065 0 -0.0029624127229564748 -0.031439546789855145 0 -0.0015822165993753332 -0.030115658676351163 0 -0.0016698152725867263 -0.03156234172336065 0 -0.020604294728486693 -0.020189612721881339 0 -0.028566715034003504 -0.018959153047185932 0 -0.024160956103435525 -0.023899492268783303 0 -0.022802038003287006 -0.016298218174460952 0 -0.027063082647879093 -0.014705528764225572 0 -0.028566715034003504 -0.018959153047185932 0 -0.030705661799741279 -0.014068156964873528 0 -0.027063082647879093 -0.014705528764225572 0 -0.028566715034003504 -0.018959153047185932 0 -0.028566715034003504 -0.018959153047185932 0 -0.033905928244108159 -0.021086688388104794 0 -0.029197705261089238 -0.025471125030468948 0 -0.041255789857485681 -0.018711970239903241 0 -0.033905928244108159 -0.021086688388104794 0 -0.037035858279941519 -0.024947018268042524 0 -0.041255789857485681 -0.018711970239903241 0 -0.033905928244108159 -0.021086688388104794 0 -0.03460385761923087 -0.01631840127775409 0 -0.028566715034003504 -0.018959153047185932 0 -0.033905928244108159 -0.021086688388104794 0 -0.03460385761923087 -0.01631840127775409 0 -0.030705661799741279 -0.014068156964873528 0 -0.028566715034003504 -0.018959153047185932 0 -0.03460385761923087 -0.01631840127775409 0 -0.037035858279941519 -0.024947018268042524 0 -0.029197705261089238 -0.025471125030468948 0 -0.032767110242139269 -0.031241559948562619 0 -0.033905928244108159 -0.021086688388104794 0 -0.037035858279941519 -0.024947018268042524 0 -0.029197705261089238 -0.025471125030468948 0 -0.0055570851088316206 -0.019734726000829327 0 -0.010342318161694793 -0.023371904249553131 0 -0.022140465364138901 -0.028561469767901967 0 -0.029197705261089238 -0.025471125030468948 0 -0.024160956103435525 -0.023899492268783303 0 -0.022140465364138901 -0.028561469767901967 0 -0.029197705261089238 -0.025471125030468948 0 -0.032767110242139269 -0.031241559948562619 0 -0.028566715034003504 -0.018959153047185932 0 -0.029197705261089238 -0.025471125030468948 0 -0.024160956103435525 -0.023899492268783303 0 -0.0090449026531154234 -0.027693520761888614 0 -0.0080960533427239002 -0.028099819094019186 0 -0.0083114504218980111 -0.027637479659133001 0 -0.013956099618897872 -0.025651384050814127 0 -0.010342318161694793 -0.023371904249553131 0 -0.0097646422828648795 -0.027801976045613463 0 -0.0090449026531154234 -0.027693520761888614 0 -0.0080960533427239002 -0.028099819094019186 0 -0.0072693981328011258 -0.029283192802596371 0 -0.0064900503000182609 -0.027243922932273741 0 -0.0083114504218980111 -0.027637479659133001 0 -0.0050004287080982748 -0.031090574867092158 0 -0.0062394694077615616 -0.029322276869260967 0 -0.0042743781427103033 -0.028772975826695479 0 -0.0072693981328011258 -0.029283192802596371 0 -0.0064900503000182609 -0.027243922932273741 0 -0.0051013291933994674 -0.028852124886646263 0 -0.010342318161694793 -0.023371904249553131 0 -0.0097305651833907228 -0.024336068625150493 0 -0.010342318161694793 -0.023371904249553131 0 -0.0075123040596411757 -0.024255895867280552 0 -0.004993750568902295 -0.025924484796096273 0 -0.0079593311513106377 -0.026191491163440175 0 -0.0064900503000182609 -0.027243922932273741 0 -0.0079593311513106377 -0.026191491163440175 0 -0.0064900503000182609 -0.027243922932273741 0 -0.0083114504218980111 -0.027637479659133001 0 -0.0092982445484298855 -0.026148657324486721 0 -0.0079593311513106377 -0.026191491163440175 0 -0.0091476708299869959 -0.027039315389844758 0 -0.0079593311513106377 -0.026191491163440175 0 -0.0083114504218980111 -0.027637479659133001 0 -0.0091476708299869959 -0.027039315389844758 0 -0.0090449026531154234 -0.027693520761888614 0 -0.0083114504218980111 -0.027637479659133001 0 -0.0091476708299869959 -0.027039315389844758 0 -0.0015822165993753332 -0.030115658676351163 0 -0.0015964004179808823 -0.028198879582428022 0 0.00071808384377497936 -0.030343122286099533 0 -0.0025659652131833988 -0.028237538744430791 0 -0.0022171857704302461 -0.029016873970046656 0 -0.0030564719715970344 -0.029484839309629144 0 -0.0025659652131833988 -0.028237538744430791 0 -0.0015964004179808823 -0.028198879582428022 0 -0.0022171857704302461 -0.029016873970046656 0 -0.0015822165993753332 -0.030115658676351163 0 -0.0015964004179808823 -0.028198879582428022 0 -0.0022171857704302461 -0.029016873970046656 0 -0.0015822165993753332 -0.030115658676351163 0 -0.0022171857704302461 -0.029016873970046656 0 -0.0030564719715970344 -0.029484839309629144 0 -0.0038288993566904755 -0.030184651721694329 0 -0.0030564719715970344 -0.029484839309629144 0 -0.0042743781427103033 -0.028772975826695479 0 -0.0025659652131833988 -0.028237538744430791 0 -0.0030564719715970344 -0.029484839309629144 0 -0.0042743781427103033 -0.028772975826695479 0 -0.0064308974985652955 -0.024474836011513512 0 -0.0075123040596411757 -0.024255895867280552 0 -0.004993750568902295 -0.025924484796096273 0 -0.0064900503000182609 -0.027243922932273741 0 -0.0051013291933994674 -0.028852124886646263 0 -0.004993750568902295 -0.025924484796096273 0 -0.0025659652131833988 -0.028237538744430791 0 -0.0051013291933994674 -0.028852124886646263 0 -0.004993750568902295 -0.025924484796096273 0 -0.0025659652131833988 -0.028237538744430791 0 -0.0015964004179808823 -0.028198879582428022 0 0.010689895843654351 -0.045346737073520479 0 0.013699752664712276 -0.045762962787898959 0 0.025578200055015331 -0.065052694931302224 0 0.026228524496395015 -0.065278470529366431 0 0.026243844808501397 -0.065051534446210951 0 0.026228524496395015 -0.065278470529366431 0 0.026243844808501397 -0.065051534446210951 0 0.026358368546247814 -0.065219515356014168 0 0.026487595859398964 -0.064773761415337444 0 0.026243844808501397 -0.065051534446210951 0 0.026358368546247814 -0.065219515356014168 0 0.028269831650709346 -0.065542640308170447 0 0.028019549276135428 -0.066000682932421145 0 0.02854095952410856 -0.06616275783842189 0 0.028269831650709346 -0.065542640308170447 0 0.02854095952410856 -0.06616275783842189 0 0.02892446514978279 -0.065792130686627856 0 0.02854095952410856 -0.06616275783842189 0 0.028284937488965354 -0.066689454370487469 0 0.029003345503864228 -0.066442182962382648 0 0.02854095952410856 -0.06616275783842189 0 0.029003345503864228 -0.066442182962382648 0 0.02892446514978279 -0.065792130686627856 0 0.013699752664712276 -0.045762962787898959 0 0.01820429414536473 -0.046023041046345713 0 0.028019549276135428 -0.066000682932421145 0 0.02854095952410856 -0.06616275783842189 0 0.028284937488965354 -0.066689454370487469 0 0.026228524496395015 -0.065278470529366431 0 0.026358368546247814 -0.065219515356014168 0 0.026337706141241028 -0.065219087134434611 0 -0.0015964004179808823 -0.028198879582428022 0 0.0015896383188908167 -0.030661523350615744 0 0.00071808384377497936 -0.030343122286099533 0 0.023947244911772685 -0.061709711643612386 0 0.01820429414536473 -0.046023041046345713 0 -0.00095137926203835155 -0.032719200391283225 0 -0.00087612922699365392 -0.031187425217855613 0 0.00071808384377497936 -0.030343122286099533 0 -0.00010203542211853584 -0.032318862084304838 0 0.0009964981237946262 -0.031742507884596913 0 0.00071808384377497936 -0.030343122286099533 0 0.0048212839599973837 -0.024295731846504773 0 0.002895911932954155 -0.027416863173215535 0 0.01820429414536473 -0.046023041046345713 0 0.013594411405914504 -0.037929082867198538 0 0.0009964981237946262 -0.031742507884596913 0 0.0015896383188908167 -0.030661523350615744 0 0.0021673416356592923 -0.032379670457889163 0 0.0009964981237946262 -0.031742507884596913 0 0.0015896383188908167 -0.030661523350615744 0 0.00071808384377497936 -0.030343122286099533 0 0.028284937488965354 -0.066689454370487469 0 0.028902615091320229 -0.067184824069515925 0 0.029003345503864228 -0.066442182962382648 0 0.01820429414536473 -0.046023041046345713 0 0.025021511200441451 -0.038128122476471307 0 0.0020840024255180376 -0.029763929940760932 0 0.002539034543181125 -0.031921185083010041 0 0.0046735035506243316 -0.032244922023867612 0 0.0028892059970386953 -0.034211916374837642 0 0.002539034543181125 -0.031921185083010041 0 0.0046735035506243316 -0.032244922023867612 0 0.0021250439775982342 -0.033701548056530126 0 0.0028892059970386953 -0.034211916374837642 0 0.0021673416356592923 -0.032379670457889163 0 0.012327184337266263 -0.036198656449852686 0 0.013594411405914504 -0.037929082867198538 0 0.0021250439775982342 -0.033701548056530126 0 0.0021673416356592923 -0.032379670457889163 0 0.0013726374931887716 -0.033222911575271984 0 -0.00010203542211853584 -0.032318862084304838 0 0.0013726374931887716 -0.033222911575271984 0 0.00044095446021745504 -0.033412558188662747 0 -0.00010203542211853584 -0.032318862084304838 0 0.0009964981237946262 -0.031742507884596913 0 0.0013726374931887716 -0.033222911575271984 0 0.0009964981237946262 -0.031742507884596913 0 0.0021673416356592923 -0.032379670457889163 0 0.0013726374931887716 -0.033222911575271984 0 0.029511112836619738 -0.067688188267038304 0 0.029951661265202059 -0.067275587900912301 0 0.028902615091320229 -0.067184824069515925 0 0.029951661265202059 -0.067275587900912301 0 0.028902615091320229 -0.067184824069515925 0 0.029734807621133924 -0.066748469709674282 0 0.028902615091320229 -0.067184824069515925 0 0.029734807621133924 -0.066748469709674282 0 0.029003345503864228 -0.066442182962382648 0 0.029734807621133924 -0.066748469709674282 0 0.029672070208021813 -0.066029618039300589 0 0.030137844141310894 -0.066342404701057026 0 0.029734807621133924 -0.066748469709674282 0 0.029003345503864228 -0.066442182962382648 0 0.029672070208021813 -0.066029618039300589 0 0.029003345503864228 -0.066442182962382648 0 0.02892446514978279 -0.065792130686627856 0 0.029672070208021813 -0.066029618039300589 0 0.029448359137211763 -0.065533586178043862 0 0.02892446514978279 -0.065792130686627856 0 0.029672070208021813 -0.066029618039300589 0 0.030034864384298036 -0.06529330348496494 0 0.029448359137211763 -0.065533586178043862 0 0.029672070208021813 -0.066029618039300589 0 0.030034864384298036 -0.06529330348496494 0 0.029672070208021813 -0.066029618039300589 0 0.030528165603978055 -0.065945381146775547 0 0.030528165603978055 -0.065945381146775547 0 0.030137844141310894 -0.066342404701057026 0 0.030610231759933007 -0.066638972865531998 0 0.029672070208021813 -0.066029618039300589 0 0.030528165603978055 -0.065945381146775547 0 0.030137844141310894 -0.066342404701057026 0 0.030528165603978055 -0.065945381146775547 0 0.031201124413518039 -0.066188166732523188 0 0.030610231759933007 -0.066638972865531998 0 0.030528165603978055 -0.065945381146775547 0 0.031218801934133917 -0.065655590230651956 0 0.031201124413518039 -0.066188166732523188 0 0.030760531436289342 -0.065349621143573025 0 0.030528165603978055 -0.065945381146775547 0 0.031218801934133917 -0.065655590230651956 0 0.032260612395684368 -0.064846055804965885 0 0.032719553804359515 -0.06475505042781797 0 0.031218801934133917 -0.065655590230651956 0 0.031838312100423663 -0.065936418367364122 0 0.031201124413518039 -0.066188166732523188 0 0.032026095471129862 -0.065223425680695529 0 0.031218801934133917 -0.065655590230651956 0 0.031931066394576574 -0.065899971433934959 0 0.031838312100423663 -0.065936418367364122 0 0.031627088029057969 -0.066788432096220957 0 0.032558155348404144 -0.066263141108098264 0 0.031838312100423663 -0.065936418367364122 0 0.031201124413518039 -0.066188166732523188 0 0.031627088029057969 -0.066788432096220957 0 0.031201124413518039 -0.066188166732523188 0 0.031627088029057969 -0.066788432096220957 0 0.030610231759933007 -0.066638972865531998 0 0.031627088029057969 -0.066788432096220957 0 0.030765239496998841 -0.067210753806018361 0 0.031260512709247963 -0.067633296596911655 0 0.029951661265202059 -0.067275587900912301 0 0.030765239496998841 -0.067210753806018361 0 0.030610231759933007 -0.066638972865531998 0 0.029734807621133924 -0.066748469709674282 0 0.030137844141310894 -0.066342404701057026 0 0.030610231759933007 -0.066638972865531998 0 0.029951661265202059 -0.067275587900912301 0 0.029734807621133924 -0.066748469709674282 0 0.030610231759933007 -0.066638972865531998 0 0.031627088029057969 -0.066788432096220957 0 0.030765239496998841 -0.067210753806018361 0 0.030610231759933007 -0.066638972865531998 0 0.032752608721623166 -0.06518253673901829 0 0.032635030173851914 -0.065209261068588889 0 0.032618137041052243 -0.065355064128774093 0 0.032752608721623166 -0.06518253673901829 0 0.032747175559674414 -0.065166467881174125 0 0.032635030173851914 -0.065209261068588889 0 0.032647722662977691 -0.065200253511875902 0 0.032715851254514657 -0.065150286652082487 0 0.032747175559674414 -0.065166467881174125 0 0.032520483019467653 -0.065327015727265056 0 0.032647722662977691 -0.065200253511875902 0 0.032635030173851914 -0.065209261068588889 0 0.032647722662977691 -0.065200253511875902 0 0.032747175559674414 -0.065166467881174125 0 0.032635030173851914 -0.065209261068588889 0 0.032520483019467653 -0.065327015727265056 0 0.031931066394576574 -0.065899971433934959 0 0.03246899427824318 -0.066137654844323823 0 0.032520483019467653 -0.065327015727265056 0 0.032975992761625876 -0.065885763756808921 0 0.03246899427824318 -0.066137654844323823 0 0.032975992761625876 -0.065885763756808921 0 0.03246899427824318 -0.066137654844323823 0 0.032965813114292808 -0.066327474313628829 0 0.034393331051110622 -0.064019535816216402 0 0.035203171374949126 -0.063561618908789752 0 0.032719553804359515 -0.06475505042781797 0 0.033815240707185105 -0.064149173600453663 0 0.031627088029057969 -0.066788432096220957 0 0.032558155348404144 -0.066263141108098264 0 0.032671280765533321 -0.066981462213392878 0 0.031627088029057969 -0.066788432096220957 0 0.032671280765533321 -0.066981462213392878 0 0.032126403929119904 -0.067583949138327659 0 0.032671280765533321 -0.066981462213392878 0 0.033321696273739834 -0.066610015233303704 0 0.033456512118042209 -0.067118405454283867 0 0.032671280765533321 -0.066981462213392878 0 0.033456512118042209 -0.067118405454283867 0 0.033016294273739089 -0.067545525832503464 0 0.032558155348404144 -0.066263141108098264 0 0.032671280765533321 -0.066981462213392878 0 0.033321696273739834 -0.066610015233303704 0 0.033815240707185105 -0.064149173600453663 0 0.03558887564466378 -0.06241798035660874 0 0.035203171374949126 -0.063561618908789752 0 0.037806224708392906 -0.061245915877312991 0 0.032975992761625876 -0.065885763756808921 0 0.032965813114292808 -0.066327474313628829 0 0.033329491658357607 -0.066289794895272813 0 0.03558887564466378 -0.06241798035660874 0 0.038438741584115942 -0.058336946424498284 0 0.033321696273739834 -0.066610015233303704 0 0.033456512118042209 -0.067118405454283867 0 0.034133353554373955 -0.066992239897094116 0 0.033456512118042209 -0.067118405454283867 0 0.034133353554373955 -0.066992239897094116 0 0.033965430233904595 -0.067505550843751941 0 0.032965813114292808 -0.066327474313628829 0 0.033366491949847782 -0.066460256059293885 0 0.033329491658357607 -0.066289794895272813 0 0.033635874260376765 -0.066558030051458189 0 0.033366491949847782 -0.066460256059293885 0 0.033329491658357607 -0.066289794895272813 0 0.033008584150008236 -0.065136812791796769 0 0.032752608721623166 -0.06518253673901829 0 0.032618137041052243 -0.065355064128774093 0 0.064624977005734968 -0.0057515908294861924 0 0.061920639381231733 -0.0011781910364561702 0 0.060077721551637271 -0.0061567432888930745 0 0.034814943678872723 -0.067343382572307847 0 0.034133353554373955 -0.066992239897094116 0 0.033965430233904595 -0.067505550843751941 0 0.061920639381231733 -0.0011781910364561702 0 0.057827277286663828 -0.0042746821884519174 0 0.057357967274790145 -0.001289455359035057 0 0.033456512118042209 -0.067118405454283867 0 0.033965430233904595 -0.067505550843751941 0 0.033016294273739089 -0.067545525832503464 0 0.046616579851044615 -0.040008783634276436 0 0.044955844960055905 -0.036507987112113144 0 0.061920639381231733 -0.0011781910364561702 0 0.057827277286663828 -0.0042746821884519174 0 0.060077721551637271 -0.0061567432888930745 0 0.057827277286663828 -0.0042746821884519174 0 0.057357967274790145 -0.001289455359035057 0 0.052837472701198838 -0.0014056297560207007 0 0.032671280765533321 -0.066981462213392878 0 0.033016294273739089 -0.067545525832503464 0 0.032126403929119904 -0.067583949138327659 0 0.044955844960055905 -0.036507987112113144 0 0.042421137754783643 -0.034219713992337711 0 0.057827277286663828 -0.0042746821884519174 0 0.052837472701198838 -0.0014056297560207007 0 0.052717305112476485 -0.0050344883455938749 0 0.055999801033180384 -0.0067072881718283298 0 0.052717305112476485 -0.0050344883455938749 0 0.05184234163907258 -0.0083223862317196202 0 0.057827277286663828 -0.0042746821884519174 0 0.055999801033180384 -0.0067072881718283298 0 0.052717305112476485 -0.0050344883455938749 0 0.05184234163907258 -0.0083223862317196202 0 0.051402369730748208 -0.010772741527999206 0 0.055090874805003992 -0.011752514692898394 0 0.055999801033180384 -0.0067072881718283298 0 0.05184234163907258 -0.0083223862317196202 0 0.055090874805003992 -0.011752514692898394 0 0.055999801033180384 -0.0067072881718283298 0 0.05832497732909557 -0.0090162297589454193 0 0.055090874805003992 -0.011752514692898394 0 0.05832497732909557 -0.0090162297589454193 0 0.059474636172870514 -0.010570182371757289 0 0.055090874805003992 -0.011752514692898394 0 0.057827277286663828 -0.0042746821884519174 0 0.055999801033180384 -0.0067072881718283298 0 0.060077721551637271 -0.0061567432888930745 0 0.055999801033180384 -0.0067072881718283298 0 0.060077721551637271 -0.0061567432888930745 0 0.05832497732909557 -0.0090162297589454193 0 0.060077721551637271 -0.0061567432888930745 0 0.05832497732909557 -0.0090162297589454193 0 0.059884340149995947 -0.0084780759861416075 0 0.060077721551637271 -0.0061567432888930745 0 0.059884340149995947 -0.0084780759861416075 0 0.061413977928673931 -0.0084022912652881292 0 0.05832497732909557 -0.0090162297589454193 0 0.059474636172870514 -0.010570182371757289 0 0.059884340149995947 -0.0084780759861416075 0 0.059474636172870514 -0.010570182371757289 0 0.059884340149995947 -0.0084780759861416075 0 0.061413977928673931 -0.0084022912652881292 0 0.059474636172870514 -0.010570182371757289 0 0.061413977928673931 -0.0084022912652881292 0 0.063829377971507187 -0.0093676839175363125 0 0.069043463929447157 0.0064978698659842035 0 0.073696592793619398 0.0010443288754909501 0 0.064624977005734968 -0.0057515908294861924 0 0.060077721551637271 -0.0061567432888930745 0 0.061413977928673931 -0.0084022912652881292 0 0.064624977005734968 -0.0057515908294861924 0 0.061413977928673931 -0.0084022912652881292 0 0.063829377971507187 -0.0093676839175363125 0 0.04601896703369536 -0.0041385424919144218 0 0.042276156269583788 -0.0045128799965066437 0 0.045098506600019191 -0.007290716812281434 0 0.04601896703369536 -0.0041385424919144218 0 0.042276156269583788 -0.0045128799965066437 0 0.043901099906914945 -0.0016315559265687855 0 0.039461524137384608 -0.0017503317586540581 0 0.042276156269583788 -0.0045128799965066437 0 0.043901099906914945 -0.0016315559265687855 0 0.029951661265202059 -0.067275587900912301 0 0.030765239496998841 -0.067210753806018361 0 0.030384568003420785 -0.067675055653586377 0 0.04601896703369536 -0.0041385424919144218 0 0.043901099906914945 -0.0016315559265687855 0 0.048355150659548846 -0.0015189360775485978 0 0.036602830167468077 -0.027727273201651269 0 0.039674623815226469 -0.031775768279929471 0 0.030765239496998841 -0.067210753806018361 0 0.030384568003420785 -0.067675055653586377 0 0.031260512709247963 -0.067633296596911655 0 0.031627088029057969 -0.066788432096220957 0 0.032126403929119904 -0.067583949138327659 0 0.031260512709247963 -0.067633296596911655 0 0.042421137754783643 -0.034219713992337711 0 0.039674623815226469 -0.031775768279929471 0 0.052837472701198838 -0.0014056297560207007 0 0.048355150659548846 -0.0015189360775485978 0 0.052717305112476485 -0.0050344883455938749 0 0.048355150659548846 -0.0015189360775485978 0 0.052717305112476485 -0.0050344883455938749 0 0.048800247974807295 -0.0059677667710891806 0 0.04601896703369536 -0.0041385424919144218 0 0.048355150659548846 -0.0015189360775485978 0 0.048800247974807295 -0.0059677667710891806 0 0.052717305112476485 -0.0050344883455938749 0 0.048800247974807295 -0.0059677667710891806 0 0.05184234163907258 -0.0083223862317196202 0 0.05184234163907258 -0.0083223862317196202 0 0.047928240737449265 -0.010097576255363349 0 0.051402369730748208 -0.010772741527999206 0 0.048800247974807295 -0.0059677667710891806 0 0.05184234163907258 -0.0083223862317196202 0 0.047928240737449265 -0.010097576255363349 0 0.049138455337533693 0.0095816601687310904 0 0.043133024915203509 0.0059994312949860585 0 0.049465976484993381 0.028378577285180884 0 0.048156431572714035 0.029277011551106239 0 0.048567604314579856 0.027903675768686062 0 0.04601896703369536 -0.0041385424919144218 0 0.048800247974807295 -0.0059677667710891806 0 0.045098506600019191 -0.007290716812281434 0 0.048800247974807295 -0.0059677667710891806 0 0.047928240737449265 -0.010097576255363349 0 0.045098506600019191 -0.007290716812281434 0 0.047120417330918304 0.029622252682980348 0 0.048156431572714035 0.029277011551106239 0 0.047131009869054934 0.029135956641562228 0 0.036761325510847209 -0.0010833373200607032 0 0.043133024915203509 0.0059994312949860585 0 0.048156431572714035 0.029277011551106239 0 0.047597016554278934 0.028352454576019995 0 0.048567604314579856 0.027903675768686062 0 0.048156431572714035 0.029277011551106239 0 0.047131009869054934 0.029135956641562228 0 0.047597016554278934 0.028352454576019995 0 0.047597016554278934 0.028352454576019995 0 0.048011540112501104 0.02744907019671125 0 0.047245512630453908 0.02704111556333734 0 0.047597016554278934 0.028352454576019995 0 0.048011540112501104 0.02744907019671125 0 0.048567604314579856 0.027903675768686062 0 0.046261468907319178 0.028996714027133674 0 0.046412406096462563 0.028877380360490919 0 0.046276770973723499 0.028972120752367689 0 0.047245512630453908 0.02704111556333734 0 0.048163881763739126 0.026614894260156164 0 0.0482030721227798 0.02522754113409769 0 0.047482375298618824 0.028170858357221867 0 0.048521239621548286 0.027507729292874854 0 0.048011540112501104 0.02744907019671125 0 0.047245512630453908 0.02704111556333734 0 0.048163881763739126 0.026614894260156164 0 0.048011540112501104 0.02744907019671125 0 0.048163881763739126 0.026614894260156164 0 0.048639558973274752 0.027117465451262666 0 0.049584940115609002 0.026140954113883584 0 0.048692595614797683 0.026157860373049107 0 0.048639558973274752 0.027117465451262666 0 0.048163881763739126 0.026614894260156164 0 0.048692595614797683 0.026157860373049107 0 0.048639558973274752 0.027117465451262666 0 0.049465976484993381 0.028378577285180884 0 0.048567604314579856 0.027903675768686062 0 0.04953027690311982 0.026990338437885238 0 0.048639558973274752 0.027117465451262666 0 0.048567604314579856 0.027903675768686062 0 0.04953027690311982 0.026990338437885238 0 0.048011540112501104 0.02744907019671125 0 0.048639558973274752 0.027117465451262666 0 0.048567604314579856 0.027903675768686062 0 0.047928240737449265 -0.010097576255363349 0 0.051402369730748208 -0.010772741527999206 0 0.050761014857077069 -0.012922584171480447 0 0.055272985777391946 0.013450986782584383 0 0.054305586909003112 0.014922254726049855 0 0.049138455337533693 0.0095816601687310904 0 0.055272985777391946 0.013450986782584383 0 0.049465976484993381 0.028378577285180884 0 0.05063658634588869 0.027277411451334454 0 0.04953027690311982 0.026990338437885238 0 0.051402369730748208 -0.010772741527999206 0 0.050761014857077069 -0.012922584171480447 0 0.055090874805003992 -0.011752514692898394 0 0.050894447768764492 0.027400539859267971 0 0.050253502761660018 0.026545916135359313 0 0.052467274059023482 0.025853440582634023 0 0.052457338441646226 0.022249967444696678 0 0.062602048416461498 0.016547482561735612 0 0.055272985777391946 0.013450986782584383 0 0.062602048416461498 0.016547482561735612 0 0.050701097213725489 0.026779276899910057 0 0.05161440465362039 0.026053262230987015 0 0.052655671562353706 0.02618668503864725 0 0.050701097213725489 0.026779276899910057 0 0.050669063759261855 0.025791406918268527 0 0.05161440465362039 0.026053262230987015 0 0.049584940115609002 0.026140954113883584 0 0.048639558973274752 0.027117465451262666 0 0.050701097213725489 0.026779276899910057 0 0.048639558973274752 0.027117465451262666 0 0.04953027690311982 0.026990338437885238 0 0.050253502761660018 0.026545916135359313 0 0.050894447768764492 0.027400539859267971 0 0.04953027690311982 0.026990338437885238 0 0.050253502761660018 0.026545916135359313 0 0.050377077981318449 0.023533090697357775 0 0.052457338441646226 0.022249967444696678 0 0.049584940115609002 0.026140954113883584 0 0.050701097213725489 0.026779276899910057 0 0.050669063759261855 0.025791406918268527 0 0.049584940115609002 0.026140954113883584 0 0.050669063759261855 0.025791406918268527 0 0.049953465127096697 0.025403496638188111 0 0.050669063759261855 0.025791406918268527 0 0.050533282931627024 0.025032957152153385 0 0.049953465127096697 0.025403496638188111 0 0.050669063759261855 0.025791406918268527 0 0.050533282931627024 0.025032957152153385 0 0.051445630505111688 0.025112332537471544 0 0.050533282931627024 0.025032957152153385 0 0.049953465127096697 0.025403496638188111 0 0.050026587601965745 0.024652257633144211 0 0.052797372539857855 0.026320709982095722 0 0.055275743485145377 0.028623299550984388 0 0.054937829240934433 0.025008132388821432 0 0.058656409803393726 0.019104050596681247 0 0.062602048416461498 0.016547482561735612 0 0.05161440465362039 0.026053262230987015 0 0.051445630505111688 0.025112332537471544 0 0.052655671562353706 0.02618668503864725 0 0.050669063759261855 0.025791406918268527 0 0.05161440465362039 0.026053262230987015 0 0.051445630505111688 0.025112332537471544 0 0.052928856584389589 0.024019771237609365 0 0.051701786758101248 0.024466660261823849 0 0.053864703808162349 0.024715485147125456 0 0.052797372539857855 0.026320709982095722 0 0.051701786758101248 0.024466660261823849 0 0.054937829240934433 0.025008132388821432 0 0.056499845053590257 0.019868512513220474 0 0.058961866363191708 0.019444927605501247 0 0.052928856584389589 0.024019771237609365 0 0.051701786758101248 0.024466660261823849 0 0.051760435191252938 0.023590873151652657 0 0.049953465127096697 0.025403496638188111 0 0.050026587601965745 0.024652257633144211 0 0.04927867029051565 0.024611389763807771 0 0.050533282931627024 0.025032957152153385 0 0.050026587601965745 0.024652257633144211 0 0.050484458312991073 0.02410694268984049 0 0.052797372539857855 0.026320709982095722 0 0.051701786758101248 0.024466660261823849 0 0.050484458312991073 0.02410694268984049 0 0.050533282931627024 0.025032957152153385 0 0.051445630505111688 0.025112332537471544 0 0.050484458312991073 0.02410694268984049 0 0.058656409803393726 0.019104050596681247 0 0.057137343919309559 0.019545609960839799 0 0.051701786758101248 0.024466660261823849 0 0.050709115613000906 0.023509325279035164 0 0.051760435191252938 0.023590873151652657 0 0.051701786758101248 0.024466660261823849 0 0.050484458312991073 0.02410694268984049 0 0.050709115613000906 0.023509325279035164 0 0.050484458312991073 0.02410694268984049 0 0.049932953845913022 0.024022564116076044 0 0.050709115613000906 0.023509325279035164 0 0.050026587601965745 0.024652257633144211 0 0.050484458312991073 0.02410694268984049 0 0.049932953845913022 0.024022564116076044 0 0.048521239621548286 0.027507729292874854 0 0.05050892060103597 0.02692939888681228 0 0.049932953845913022 0.024022564116076044 0 0.04927867029051565 0.024611389763807771 0 0.049242023687921951 0.023055818293123771 0 0.04927867029051565 0.024611389763807771 0 0.0482030721227798 0.02522754113409769 0 0.049242023687921951 0.023055818293123771 0 0.046412406096462563 0.028877380360490919 0 0.046390374701127453 0.028654120803252817 0 0.046574259856732698 0.02861281794451594 0 0.050026587601965745 0.024652257633144211 0 0.049932953845913022 0.024022564116076044 0 0.04927867029051565 0.024611389763807771 0 0.046322625371766221 0.02877058600373714 0 0.046412406096462563 0.028877380360490919 0 0.046259835514682643 0.028851408498815914 0 0.046322625371766221 0.02877058600373714 0 0.046412406096462563 0.028877380360490919 0 0.046390374701127453 0.028654120803252817 0 0.046322625371766221 0.02877058600373714 0 0.046390374701127453 0.028654120803252817 0 0.046230256462505649 0.028695348863680022 0 0.046412406096462563 0.028877380360490919 0 0.046259835514682643 0.028851408498815914 0 0.046276770973723499 0.028972120752367689 0 0.048163881763739126 0.026614894260156164 0 0.048692595614797683 0.026157860373049107 0 0.0482030721227798 0.02522754113409769 0 0.048692595614797683 0.026157860373049107 0 0.0482030721227798 0.02522754113409769 0 0.049065199316368796 0.025470403111793497 0 0.049584940115609002 0.026140954113883584 0 0.049953465127096697 0.025403496638188111 0 0.049065199316368796 0.025470403111793497 0 0.049584940115609002 0.026140954113883584 0 0.048692595614797683 0.026157860373049107 0 0.049065199316368796 0.025470403111793497 0 0.049953465127096697 0.025403496638188111 0 0.04927867029051565 0.024611389763807771 0 0.049065199316368796 0.025470403111793497 0 0.04927867029051565 0.024611389763807771 0 0.0482030721227798 0.02522754113409769 0 0.049065199316368796 0.025470403111793497 0 0.089281388215893459 0.0044868264990746689 0 0.090443335186182083 0.002981815048304302 0 0.090766720688188071 0.0053324534261465113 0 0.087533821924357033 0.005188886080605421 0 0.08905123096579548 0.0060104905547821528 0 0.089281388215893459 0.0044868264990746689 0 0.08905123096579548 0.0060104905547821528 0 0.089281388215893459 0.0044868264990746689 0 0.090766720688188071 0.0053324534261465113 0 0.087341596705447 0.0025372066824884691 0 0.089281388215893459 0.0044868264990746689 0 0.090443335186182083 0.002981815048304302 0 0.087341596705447 0.0025372066824884691 0 0.088475842751113976 7.8154666818898761e-05 0 0.090443335186182083 0.002981815048304302 0 0.091992710184417473 0.0013812843900769696 0 0.088475842751113976 7.8154666818898761e-05 0 0.090443335186182083 0.002981815048304302 0 0.090443335186182083 0.002981815048304302 0 0.092242583312696136 0.0030383393260077548 0 0.092444010454613285 0.0041775452304371402 0 0.091992710184417473 0.0013812843900769696 0 0.092242583312696136 0.0030383393260077548 0 0.093938104676959316 0.0036241160193511389 0 0.091992710184417473 0.0013812843900769696 0 0.090443335186182083 0.002981815048304302 0 0.092242583312696136 0.0030383393260077548 0 0.090443335186182083 0.002981815048304302 0 0.092444010454613285 0.0041775452304371402 0 0.090766720688188071 0.0053324534261465113 0 0.092444010454613285 0.0041775452304371402 0 0.090766720688188071 0.0053324534261465113 0 0.093243932941479521 0.0066208302797023761 0 0.076423160036873036 0.012662285658578175 0 0.074726360259987121 0.014623401662738497 0 0.093647541772654899 0.0048479157477141202 0 0.095700899575260859 0.0054823203478614174 0 0.093050527110309575 0.0060602371904703084 0 0.092444010454613285 0.0041775452304371402 0 0.093647541772654899 0.0048479157477141202 0 0.093050527110309575 0.0060602371904703084 0 0.093647541772654899 0.0048479157477141202 0 0.093938104676959316 0.0036241160193511389 0 0.095700899575260859 0.0054823203478614174 0 0.092444010454613285 0.0041775452304371402 0 0.093647541772654899 0.0048479157477141202 0 0.093938104676959316 0.0036241160193511389 0 0.069043463929447157 0.0064978698659842035 0 0.059362323934494511 0.0070424471132377493 0 0.065581636003848365 0.011473031518120434 0 0.064139270559344916 0.010166618614264699 0 0.063355105434909187 0.010892343442116441 0 0.069043463929447157 0.0064978698659842035 0 0.069830486679614612 0.012096470172632965 0 0.092242583312696136 0.0030383393260077548 0 0.092444010454613285 0.0041775452304371402 0 0.093938104676959316 0.0036241160193511389 0 0.055272985777391946 0.013450986782584383 0 0.059362323934494511 0.0070424471132377493 0 0.064139270559344916 0.010166618614264699 0 0.063355105434909187 0.010892343442116441 0 0.062775428456929142 0.0098161796235078352 0 0.061137169901324367 0.010292038086122179 0 0.063355105434909187 0.010892343442116441 0 0.062775428456929142 0.0098161796235078352 0 0.069830486679614612 0.012096470172632965 0 0.062602048416461498 0.016547482561735612 0 0.064139270559344916 0.010166618614264699 0 0.062775428456929142 0.0098161796235078352 0 0.06264150555203496 0.0087846400679341876 0 0.061137169901324367 0.010292038086122179 0 0.062775428456929142 0.0098161796235078352 0 0.06264150555203496 0.0087846400679341876 0 0.062602048416461498 0.016547482561735612 0 0.067511471423973332 0.018138151547509078 0 0.055275743485145377 0.028623299550984388 0 0.054937829240934433 0.025008132388821432 0 0.05823737381288932 0.025646442433711548 0 0.06683358755305964 0.014789463679365572 0 0.067714281361139023 0.013922419987080163 0 0.067456061782447299 0.014403269822142774 0 0.058961866363191708 0.019444927605501247 0 0.067511471423973332 0.018138151547509078 0 0.053864703808162349 0.024715485147125456 0 0.054210813079727291 0.02439996457659473 0 0.054109701036124377 0.02436380445161232 0 0.052928856584389589 0.024019771237609365 0 0.053864703808162349 0.024715485147125456 0 0.054213309286427203 0.024176323933930408 0 0.053864703808162349 0.024715485147125456 0 0.054213309286427203 0.024176323933930408 0 0.054109701036124377 0.02436380445161232 0 0.054213309286427203 0.024176323933930408 0 0.054109701036124377 0.02436380445161232 0 0.053838880203761291 0.02445459060355281 0 0.054109701036124377 0.02436380445161232 0 0.054213595740391703 0.024369227224412569 0 0.053838880203761291 0.02445459060355281 0 0.06801769120174532 0.01902386793078208 0 0.067640675740754885 0.0194106589801844 0 0.068167733101118066 0.019495945488608109 0 0.06849660209611512 0.018005265741568792 0 0.065644584336340683 0.019890903591629119 0 0.054210813079727291 0.02439996457659473 0 0.054109701036124377 0.02436380445161232 0 0.054213595740391703 0.024369227224412569 0 0.073208147069261736 0.016068696806298757 0 0.073270469419943238 0.016259399962921844 0 0.074501600305600144 0.014767617630754163 0 0.06849660209611512 0.018005265741568792 0 0.069208400985663207 0.017717906050235401 0 0.074982301770563808 0.014308795499498683 0 0.069257746246560517 0.020096353774450963 0 0.066848296843576294 0.012669806673677071 0 0.067511471423973332 0.018138151547509078 0 0.069208400985663207 0.017717906050235401 0 0.067511471423973332 0.018138151547509078 0 0.06849660209611512 0.018005265741568792 0 0.069208400985663207 0.017717906050235401 0 0.074726360259987121 0.014623401662738497 0 0.067833481219183742 0.013946126846451396 0 0.067456061782447299 0.014403269822142774 0 0.068028581506608635 0.014536128279622968 0 0.06683358755305964 0.014789463679365572 0 0.067456061782447299 0.014403269822142774 0 0.068028581506608635 0.014536128279622968 0 0.062602048416461498 0.016547482561735612 0 0.074726360259987121 0.014623401662738497 0 0.067714281361139023 0.013922419987080163 0 0.067833481219183742 0.013946126846451396 0 0.067456061782447299 0.014403269822142774 0 0.069208400985663207 0.017717906050235401 0 0.079853554520502273 0.014460395140118831 0 0.074726360259987121 0.014623401662738497 0 0.079853554520502273 0.014460395140118831 0 0.072190939026916923 0.015957528539268261 0 0.072872750243144185 0.018043300955240503 0 0.077176091571941219 0.016953803444152715 0 0.090766720688188071 0.0053324534261465113 0 0.093243932941479521 0.0066208302797023761 0 0.089708166281708898 0.0076109213165893438 0 0.073270469419943238 0.016259399962921844 0 0.075780751694661738 0.016758739406340744 0 0.074501600305600144 0.014767617630754163 0 0.06849660209611512 0.018005265741568792 0 0.071498455379561496 0.017573231850846558 0 0.076397829496825539 0.0150599058803966 0 0.075780751694661738 0.016758739406340744 0 0.074501600305600144 0.014767617630754163 0 0.081628579940641474 0.014224721441915113 0 0.079853554520502273 0.014460395140118831 0 0.08905123096579548 0.0060104905547821528 0 0.090766720688188071 0.0053324534261465113 0 0.089708166281708898 0.0076109213165893438 0 0.087864977635438893 0.0073930911437609746 0 0.08905123096579548 0.0060104905547821528 0 0.089708166281708898 0.0076109213165893438 0 0.076441950413519408 0.014635466387729236 0 0.07513259758328672 0.015507426808982049 0 0.075729159373780289 0.015386923600442106 0 0.07513259758328672 0.015507426808982049 0 0.075729159373780289 0.015386923600442106 0 0.074680556597825951 0.015859331158532112 0 0.076064474581893859 0.015854488715427013 0 0.075729159373780289 0.015386923600442106 0 0.0749254284145697 0.016068981650912171 0 0.076064474581893859 0.015854488715427013 0 0.0749254284145697 0.016068981650912171 0 0.074648627052011779 0.016383278096530902 0 0.075141004035956055 0.016378466527670631 0 0.071498455379561496 0.017573231850846558 0 0.075729159373780289 0.015386923600442106 0 0.0749254284145697 0.016068981650912171 0 0.074680556597825951 0.015859331158532112 0 0.0749254284145697 0.016068981650912171 0 0.074322771355506453 0.016166367354092864 0 0.074680556597825951 0.015859331158532112 0 0.0749254284145697 0.016068981650912171 0 0.074533772402988141 0.016425027820782454 0 0.074322771355506453 0.016166367354092864 0 0.071688161170727294 0.017418212780299008 0 0.071498455379561496 0.017573231850846558 0 0.074322771355506453 0.016166367354092864 0 0.074680556597825951 0.015859331158532112 0 0.074051036503425829 0.016057253424068531 0 0.074680556597825951 0.015859331158532112 0 0.073994465108001312 0.015912982364470273 0 0.074051036503425829 0.016057253424068531 0 0.07513259758328672 0.015507426808982049 0 0.074680556597825951 0.015859331158532112 0 0.073994465108001312 0.015912982364470273 0 0.07513259758328672 0.015507426808982049 0 0.073994465108001312 0.015912982364470273 0 0.073491784018831635 0.01601420353183642 0 0.073994465108001312 0.015912982364470273 0 0.074051036503425829 0.016057253424068531 0 0.073628028661811132 0.016330375482181685 0 0.074051036503425829 0.016057253424068531 0 0.073847726032344699 0.016254459925874865 0 0.073628028661811132 0.016330375482181685 0 0.074533772402988141 0.016425027820782454 0 0.074322771355506453 0.016166367354092864 0 0.073847726032344699 0.016254459925874865 0 0.071498455379561496 0.017573231850846558 0 0.065644584336340683 0.019890903591629119 0 0.074322771355506453 0.016166367354092864 0 0.074051036503425829 0.016057253424068531 0 0.073847726032344699 0.016254459925874865 0 0.054213309286427203 0.024176323933930408 0 0.053838880203761291 0.02445459060355281 0 0.054773207495526791 0.025218059776130806 0 0.056916754247647264 0.026062567677497966 0 0.05697933549716714 0.026083790645791728 0 0.056968282522536384 0.026217018461433532 0 0.065644584336340683 0.019890903591629119 0 0.060648810501172754 0.020909568709905936 0 0.05697933549716714 0.026083790645791728 0 0.056968282522536384 0.026217018461433532 0 0.057001138946117448 0.026163215001777162 0 0.065644584336340683 0.019890903591629119 0 0.065156176425468504 0.021087281068521261 0 0.065156176425468504 0.021087281068521261 0 0.064486759110843811 0.021698737368103561 0 0.056968282522536384 0.026217018461433532 0 0.057161309264481777 0.026351696014488363 0 0.057118580234718837 0.026301846927182116 0 0.073628028661811132 0.016330375482181685 0 0.072780061017690148 0.018435933444240209 0 0.072965131932284918 0.017721473860202723 0 0.072780061017690148 0.018435933444240209 0 0.072965131932284918 0.017721473860202723 0 0.0721422077506092 0.019111869727967749 0 0.072965131932284918 0.017721473860202723 0 0.071906288604555432 0.018825594960799507 0 0.0721422077506092 0.019111869727967749 0 0.073994465108001312 0.015912982364470273 0 0.073628028661811132 0.016330375482181685 0 0.073491784018831635 0.01601420353183642 0 0.073628028661811132 0.016330375482181685 0 0.072965131932284918 0.017721473860202723 0 0.073491784018831635 0.01601420353183642 0 0.07513259758328672 0.015507426808982049 0 0.073491784018831635 0.01601420353183642 0 0.075842321455657682 0.01492227581665196 0 0.074176369419621593 0.016901144832192454 0 0.07438153504047687 0.017091169539825285 0 0.073491784018831635 0.01601420353183642 0 0.075842321455657682 0.01492227581665196 0 0.076328952608966896 0.014161355454450488 0 0.072965131932284918 0.017721473860202723 0 0.073491784018831635 0.01601420353183642 0 0.071906288604555432 0.018825594960799507 0 0.076697176592999711 0.014377168069987515 0 0.076328952608966896 0.014161355454450488 0 0.076699251815479319 0.014839068732587828 0 0.076697176592999711 0.014377168069987515 0 0.075842321455657682 0.01492227581665196 0 0.076328952608966896 0.014161355454450488 0 0.076441950413519408 0.014635466387729236 0 0.07513259758328672 0.015507426808982049 0 0.075842321455657682 0.01492227581665196 0 0.076441950413519408 0.014635466387729236 0 0.076697176592999711 0.014377168069987515 0 0.075842321455657682 0.01492227581665196 0 0.057144543093512724 0.026277931968878277 0 0.057125289109198715 0.026284021139610255 0 0.057086119118575022 0.026508344310802588 0 0.057144543093512724 0.026277931968878277 0 0.057338732964144309 0.026388212398512894 0 0.057086119118575022 0.026508344310802588 0 0.054075418515684114 0.027150719944634909 0 0.055326660941834874 0.026670790851744338 0 0.054022128297779408 0.026861780495688756 0 0.054075418515684114 0.027150719944634909 0 0.052062644096107766 0.027096180177070307 0 0.051909548727541499 0.027044120554593414 0 0.051971483562915068 0.027129871224658476 0 0.051909548727541499 0.027044120554593414 0 0.051971483562915068 0.027129871224658476 0 0.051899501091879977 0.027142336454958168 0 0.051971483562915068 0.027129871224658476 0 0.051959869883354111 0.027210722269113741 0 0.052043757099418907 0.027145877768739009 0 0.051899501091879977 0.027142336454958168 0 0.051959869883354111 0.027210722269113741 0 0.05183951453677809 0.027237645820413974 0 0.049745395462039273 0.027734297761342879 0 0.049589194913111923 0.028393840636601851 0 0.051971483562915068 0.027129871224658476 0 0.051899501091879977 0.027142336454958168 0 0.051959869883354111 0.027210722269113741 0 0.051959869883354111 0.027210722269113741 0 0.052043757099418907 0.027145877768739009 0 0.052081264061247558 0.027181877328713251 0 0.049745395462039273 0.027734297761342879 0 0.05050892060103597 0.02692939888681228 0 0.052062644096107766 0.027096180177070307 0 0.051971483562915068 0.027129871224658476 0 0.052043757099418907 0.027145877768739009 0 0.052062644096107766 0.027096180177070307 0 0.052043757099418907 0.027145877768739009 0 0.05209637578695455 0.027151802159587839 0 0.052043757099418907 0.027145877768739009 0 0.05209637578695455 0.027151802159587839 0 0.052081264061247558 0.027181877328713251 0 0.050525463448561368 0.026921381030686004 0 0.05050892060103597 0.02692939888681228 0 0.049242023687921951 0.023055818293123771 0 0.050709115613000906 0.023509325279035164 0 0.051364779693115384 0.022515974940131914 0 0.05209637578695455 0.027151802159587839 0 0.052081540917110612 0.027179881755624937 0 0.0522186232496595 0.027145612202663035 0 0.052062644096107766 0.027096180177070307 0 0.05209637578695455 0.027151802159587839 0 0.0522186232496595 0.027145612202663035 0 0.054022128297779408 0.026861780495688756 0 0.052963418885522744 0.026374332441387129 0 0.05050892060103597 0.02692939888681228 0 0.052963418885522744 0.026374332441387129 0 0.049932953845913022 0.024022564116076044 0 0.049242023687921951 0.023055818293123771 0 0.050709115613000906 0.023509325279035164 0 0.050709115613000906 0.023509325279035164 0 0.051364779693115384 0.022515974940131914 0 0.051760435191252938 0.023590873151652657 0 0.057127137792754162 0.02600510881866868 0 0.057067496426069481 0.026110172297641693 0 0.057125289109198715 0.026284021139610255 0 0.057154723721102557 0.025952817319527255 0 0.057127137792754162 0.02600510881866868 0 0.057067496426069481 0.026110172297641693 0 0.052994954474612645 0.026368636148672867 0 0.052963418885522744 0.026374332441387129 0 0.05697933549716714 0.026083790645791728 0 0.056907679480891073 0.025981709293361573 0 0.056967293440930628 0.026093063929464397 0 0.054213309286427203 0.024176323933930408 0 0.054773207495526791 0.025218059776130806 0 0.056907679480891073 0.025981709293361573 0 0.054213309286427203 0.024176323933930408 0 0.057154723721102557 0.025952817319527255 0 0.056907679480891073 0.025981709293361573 0 0.052928856584389589 0.024019771237609365 0 0.054213309286427203 0.024176323933930408 0 0.051364779693115384 0.022515974940131914 0 0.054213309286427203 0.024176323933930408 0 0.057154723721102557 0.025952817319527255 0 0.057431453777204676 0.025922895375563741 0 0.060648810501172754 0.020909568709905936 0 0.059539060716926544 0.021303316529929364 0 0.053311182459949188 0.025851003837609909 0 0.052963418885522744 0.026374332441387129 0 0.052928856584389589 0.024019771237609365 0 0.051364779693115384 0.022515974940131914 0 0.051760435191252938 0.023590873151652657 0 0.057154723721102557 0.025952817319527255 0 0.057067496426069481 0.026110172297641693 0 0.056907679480891073 0.025981709293361573 0 0.057067496426069481 0.026110172297641693 0 0.056907679480891073 0.025981709293361573 0 0.056967293440930628 0.026093063929464397 0 0.05697933549716714 0.026083790645791728 0 0.056967293440930628 0.026093063929464397 0 0.057001138946117448 0.026163215001777162 0 0.056968282522536384 0.026217018461433532 0 0.057001138946117448 0.026163215001777162 0 0.057118580234718837 0.026301846927182116 0 0.056967293440930628 0.026093063929464397 0 0.057001138946117448 0.026163215001777162 0 0.057063052510915487 0.026206769872358128 0 0.057067496426069481 0.026110172297641693 0 0.056967293440930628 0.026093063929464397 0 0.057063052510915487 0.026206769872358128 0 0.057063052510915487 0.026206769872358128 0 0.057114546092306817 0.026290693474824895 0 0.057118580234718837 0.026301846927182116 0 0.057001138946117448 0.026163215001777162 0 0.057063052510915487 0.026206769872358128 0 0.057118580234718837 0.026301846927182116 0 0.057144543093512724 0.026277931968878277 0 0.057127137792754162 0.02600510881866868 0 0.057125289109198715 0.026284021139610255 0 0.057125289109198715 0.026284021139610255 0 0.057114546092306817 0.026290693474824895 0 0.057152637556833079 0.026369948225457133 0 0.057067496426069481 0.026110172297641693 0 0.057063052510915487 0.026206769872358128 0 0.057125289109198715 0.026284021139610255 0 0.057063052510915487 0.026206769872358128 0 0.057125289109198715 0.026284021139610255 0 0.057114546092306817 0.026290693474824895 0 0.057114546092306817 0.026290693474824895 0 0.057152637556833079 0.026369948225457133 0 0.057118580234718837 0.026301846927182116 0 0.057152637556833079 0.026369948225457133 0 0.057118580234718837 0.026301846927182116 0 0.057204860618708726 0.026296582103131953 0 0.057161309264481777 0.026351696014488363 0 0.057118580234718837 0.026301846927182116 0 0.057204860618708726 0.026296582103131953 0 0.057204860618708726 0.026296582103131953 0 0.056947579291009402 0.026189405330775795 0 0.056964005365657405 0.025974968386955573 0 0.057152637556833079 0.026369948225457133 0 0.057204860618708726 0.026296582103131953 0 0.056947579291009402 0.026189405330775795 0 0.057125289109198715 0.026284021139610255 0 0.057152637556833079 0.026369948225457133 0 0.057086119118575022 0.026508344310802588 0 0.057152637556833079 0.026369948225457133 0 0.056947579291009402 0.026189405330775795 0 0.057086119118575022 0.026508344310802588 0 0.056190121936593403 0.027308776809072424 0 0.056439217190175778 0.026334955813795993 0 0.055719664149275136 0.026622572093032586 0 0.056947579291009402 0.026189405330775795 0 0.057086119118575022 0.026508344310802588 0 0.056439217190175778 0.026334955813795993 0 0.056190121936593403 0.027308776809072424 0 0.057086119118575022 0.026508344310802588 0 0.056439217190175778 0.026334955813795993 0 0.056544120197516638 0.026006120304186101 0 0.055678999263626711 0.025661274965911248 0 0.056964005365657405 0.025974968386955573 0 0.056947579291009402 0.026189405330775795 0 0.056544120197516638 0.026006120304186101 0 0.056964005365657405 0.025974968386955573 0 0.056439217190175778 0.026334955813795993 0 0.056544120197516638 0.026006120304186101 0 0.055678999263626711 0.025661274965911248 0 0.056947579291009402 0.026189405330775795 0 0.056439217190175778 0.026334955813795993 0 0.056544120197516638 0.026006120304186101 0 0.055599983023537393 0.028733288774696844 0 0.054632430115925355 0.02858053886903009 0 0.054477051424019832 0.029086510275508994 0 0.055599983023537393 0.028733288774696844 0 0.054632430115925355 0.02858053886903009 0 0.055128987508074496 0.02823805144249256 0 0.055599983023537393 0.028733288774696844 0 0.054477051424019832 0.029086510275508994 0 0.054589752213674542 0.029711040275228934 0 0.053635080626058984 0.026985965827305745 0 0.054895588466086713 0.026365324118761465 0 0.053597132452747824 0.027874510891743216 0 0.054855094233099047 0.027190324426045409 0 0.053049995778838489 0.027731023271036652 0 0.055678999263626711 0.025661274965911248 0 0.053298502762855041 0.026427571605615686 0 0.053904840234114751 0.02644351606142117 0 0.052990257502402535 0.026432290406155075 0 0.053635080626058984 0.026985965827305745 0 0.052743479742077798 0.027515861065040056 0 0.052990257502402535 0.026432290406155075 0 0.053635080626058984 0.026985965827305745 0 0.053904840234114751 0.02644351606142117 0 0.053049995778838489 0.027731023271036652 0 0.053088822383374944 0.027706290947399227 0 0.053635080626058984 0.026985965827305745 0 0.053904840234114751 0.02644351606142117 0 0.054895588466086713 0.026365324118761465 0 0.055719664149275136 0.026622572093032586 0 0.054895588466086713 0.026365324118761465 0 0.055228050691565354 0.027158651409784681 0 0.055678999263626711 0.025661274965911248 0 0.053904840234114751 0.02644351606142117 0 0.054895588466086713 0.026365324118761465 0 0.056439217190175778 0.026334955813795993 0 0.055678999263626711 0.025661274965911248 0 0.055719664149275136 0.026622572093032586 0 0.055678999263626711 0.025661274965911248 0 0.055719664149275136 0.026622572093032586 0 0.054895588466086713 0.026365324118761465 0 0.045205548422248235 0.030009370974506962 0 0.045514464031253497 0.029747972001049564 0 0.045447104379608423 0.030000666040020708 0 0.045372071576042713 0.030147431427748117 0 0.045205548422248235 0.030009370974506962 0 0.045312963154417699 0.030379640598007764 0 0.045372071576042713 0.030147431427748117 0 0.045447104379608423 0.030000666040020708 0 0.045519704787268897 0.030197675261436709 0 0.045372071576042713 0.030147431427748117 0 0.045205548422248235 0.030009370974506962 0 0.045447104379608423 0.030000666040020708 0 0.054632430115925355 0.02858053886903009 0 0.053496923400685216 0.028946557103080525 0 0.054432141660919406 0.027771190873461742 0 0.054632430115925355 0.02858053886903009 0 0.054477051424019832 0.029086510275508994 0 0.053496923400685216 0.028946557103080525 0 0.054477051424019832 0.029086510275508994 0 0.053496923400685216 0.028946557103080525 0 0.05403677904013611 0.029453512739455037 0 0.054589752213674542 0.029711040275228934 0 0.05403677904013611 0.029453512739455037 0 0.053580480391026329 0.02994424129662572 0 0.052688332557308676 0.026131948366020365 0 0.0502486682557284 0.026685346789369242 0 0.051157986533689553 0.027576204152166366 0 0.053496923400685216 0.028946557103080525 0 0.05403677904013611 0.029453512739455037 0 0.053580480391026329 0.02994424129662572 0 0.053049995778838489 0.027731023271036652 0 0.051439000472806341 0.028434680797465528 0 0.054477051424019832 0.029086510275508994 0 0.054589752213674542 0.029711040275228934 0 0.05403677904013611 0.029453512739455037 0 0.053049995778838489 0.027731023271036652 0 0.052783851860197115 0.02779988530246931 0 0.049480268107074107 0.029380519348885949 0 0.049062651548576364 0.029309912337881428 0 0.053496923400685216 0.028946557103080525 0 0.053580480391026329 0.02994424129662572 0 0.052552891982853386 0.030169125641136163 0 0.045205548422248235 0.030009370974506962 0 0.045475837890231824 0.029438893501989933 0 0.045514464031253497 0.029747972001049564 0 0.051439000472806341 0.028434680797465528 0 0.049062651548576364 0.029309912337881428 0 0.0502486682557284 0.026685346789369242 0 0.048955136490206962 0.027614233294257193 0 0.048056626680586668 0.027352032341293693 0 0.048576704224964899 0.028284385882645102 0 0.048955136490206962 0.027614233294257193 0 0.049638895117981967 0.02774931364750095 0 0.048576704224964899 0.028284385882645102 0 0.049638895117981967 0.02774931364750095 0 0.049315700101708007 0.028561909707134327 0 0.048576704224964899 0.028284385882645102 0 0.048955136490206962 0.027614233294257193 0 0.048280581065338696 0.027924199375292565 0 0.0502486682557284 0.026685346789369242 0 0.048955136490206962 0.027614233294257193 0 0.049638895117981967 0.02774931364750095 0 0.049638895117981967 0.02774931364750095 0 0.049315700101708007 0.028561909707134327 0 0.050210596687059697 0.028334403302610899 0 0.049638895117981967 0.02774931364750095 0 0.050210596687059697 0.028334403302610899 0 0.051157986533689553 0.027576204152166366 0 0.050210596687059697 0.028334403302610899 0 0.051157986533689553 0.027576204152166366 0 0.051046467464532751 0.028754365706357414 0 0.0502486682557284 0.026685346789369242 0 0.049638895117981967 0.02774931364750095 0 0.051157986533689553 0.027576204152166366 0 0.052990257502402535 0.026432290406155075 0 0.051157986533689553 0.027576204152166366 0 0.052743479742077798 0.027515861065040056 0 0.051157986533689553 0.027576204152166366 0 0.05238219105609386 0.028514337431878527 0 0.052743479742077798 0.027515861065040056 0 0.051157986533689553 0.027576204152166366 0 0.05238219105609386 0.028514337431878527 0 0.051046467464532751 0.028754365706357414 0 0.05238219105609386 0.028514337431878527 0 0.051500824230495602 0.029972738917850641 0 0.051046467464532751 0.028754365706357414 0 0.051500824230495602 0.029972738917850641 0 0.051046467464532751 0.028754365706357414 0 0.050074399134465646 0.02933214262938115 0 0.050210596687059697 0.028334403302610899 0 0.051046467464532751 0.028754365706357414 0 0.050074399134465646 0.02933214262938115 0 0.050074399134465646 0.02933214262938115 0 0.048076446920188719 0.030283478843889128 0 0.04825058412288534 0.029559773458503531 0 0.051500824230495602 0.029972738917850641 0 0.050074399134465646 0.02933214262938115 0 0.048076446920188719 0.030283478843889128 0 0.049315700101708007 0.028561909707134327 0 0.050210596687059697 0.028334403302610899 0 0.050074399134465646 0.02933214262938115 0 0.049315700101708007 0.028561909707134327 0 0.050074399134465646 0.02933214262938115 0 0.049125605716611169 0.029127651666102684 0 0.050074399134465646 0.02933214262938115 0 0.049125605716611169 0.029127651666102684 0 0.04825058412288534 0.029559773458503531 0 0.049125605716611169 0.029127651666102684 0 0.048385860008772527 0.029044280819001709 0 0.04825058412288534 0.029559773458503531 0 0.049315700101708007 0.028561909707134327 0 0.049125605716611169 0.029127651666102684 0 0.048385860008772527 0.029044280819001709 0 0.048576704224964899 0.028284385882645102 0 0.049315700101708007 0.028561909707134327 0 0.048385860008772527 0.029044280819001709 0 0.052631421337160596 0.027594099597865501 0 0.052158055740401915 0.027992823855460931 0 0.054895588466086713 0.026365324118761465 0 0.055344024948627939 0.027978313493217385 0 0.055228050691565354 0.027158651409784681 0 0.051909548727541499 0.027044120554593414 0 0.051899501091879977 0.027142336454958168 0 0.0518174427374401 0.027090834374550645 0 0.054075418515684114 0.027150719944634909 0 0.052158055740401915 0.027992823855460931 0 0.054075418515684114 0.027150719944634909 0 0.05441845475700989 0.027244320465246274 0 0.056216583839487563 0.02751882929622956 0 0.055344024948627939 0.027978313493217385 0 0.055228050691565354 0.027158651409784681 0 0.056190121936593403 0.027308776809072424 0 0.055719664149275136 0.026622572093032586 0 0.055228050691565354 0.027158651409784681 0 0.054895588466086713 0.026365324118761465 0 0.055053967379155709 0.028573970718498667 0 0.053597132452747824 0.027874510891743216 0 0.05238219105609386 0.028514337431878527 0 0.055053967379155709 0.028573970718498667 0 0.053597132452747824 0.027874510891743216 0 0.05238219105609386 0.028514337431878527 0 0.053597132452747824 0.027874510891743216 0 0.052743479742077798 0.027515861065040056 0 0.053635080626058984 0.026985965827305745 0 0.053597132452747824 0.027874510891743216 0 0.052743479742077798 0.027515861065040056 0 0.05238219105609386 0.028514337431878527 0 0.051500824230495602 0.029972738917850641 0 0.055053967379155709 0.028573970718498667 0 0.05065635654671493 0.029139288317795404 0 0.052158055740401915 0.027992823855460931 0 0.049654244893898337 0.029489699790116047 0 0.051208932026560447 0.02870693542460807 0 0.050599578129017844 0.029431776393759785 0 0.050599578129017844 0.029431776393759785 0 0.050385730458674852 0.029762301833853842 0 0.051417784027080998 0.029895718914929901 0 0.049654244893898337 0.029489699790116047 0 0.050599578129017844 0.029431776393759785 0 0.050385730458674852 0.029762301833853842 0 0.052158055740401915 0.027992823855460931 0 0.049589194913111923 0.028393840636601851 0 0.051899501091879977 0.027142336454958168 0 0.0518174427374401 0.027090834374550645 0 0.05183951453677809 0.027237645820413974 0 0.051208932026560447 0.02870693542460807 0 0.050599578129017844 0.029431776393759785 0 0.051417784027080998 0.029895718914929901 0 0.046322625371766221 0.02877058600373714 0 0.046230256462505649 0.028695348863680022 0 0.046259835514682643 0.028851408498815914 0 0.046276072359047141 0.028964745542517916 0 0.046270103937652053 0.029004533136918236 0 0.046235768729463132 0.029002607317054611 0 0.049589194913111923 0.028393840636601851 0 0.0487671883400786 0.028507445391953545 0 0.0487671883400786 0.028507445391953545 0 0.048514794215626676 0.028555895348146055 0 0.046270103937652053 0.029004533136918236 0 0.046265954201004149 0.028998873154411374 0 0.046276770973723499 0.028972120752367689 0 0.046270103937652053 0.029004533136918236 0 0.046252383447056532 0.029008088076898111 0 0.046265954201004149 0.028998873154411374 0 0.046270103937652053 0.029004533136918236 0 0.046252383447056532 0.029008088076898111 0 0.046235768729463132 0.029002607317054611 0 0.046224465091689516 0.029025526215943624 0 0.046190991707849328 0.029039949792937326 0 0.046174969157528827 0.029049403931763629 0 0.046252383447056532 0.029008088076898111 0 0.046265954201004149 0.028998873154411374 0 0.046224465091689516 0.029025526215943624 0 0.046252383447056532 0.029008088076898111 0 0.046224465091689516 0.029025526215943624 0 0.046235768729463132 0.029002607317054611 0 0.046224465091689516 0.029025526215943624 0 0.046190991707849328 0.029039949792937326 0 0.046235768729463132 0.029002607317054611 0 0.049589194913111923 0.028393840636601851 0 0.04815163969769861 0.029165047736287631 0 0.046190991707849328 0.029039949792937326 0 0.046235768729463132 0.029002607317054611 0 0.046179451789577421 0.028995553737210505 0 0.046276072359047141 0.028964745542517916 0 0.046235768729463132 0.029002607317054611 0 0.046179451789577421 0.028995553737210505 0 0.050385730458674852 0.029762301833853842 0 0.051417784027080998 0.029895718914929901 0 0.049867476367469889 0.030229214488609345 0 0.049654244893898337 0.029489699790116047 0 0.050385730458674852 0.029762301833853842 0 0.049867476367469889 0.030229214488609345 0 0.04815163969769861 0.029165047736287631 0 0.04745188930248901 0.029501098035798867 0 0.049654244893898337 0.029489699790116047 0 0.049867476367469889 0.030229214488609345 0 0.048969477691888232 0.030146468904591054 0 0.049867476367469889 0.030229214488609345 0 0.048969477691888232 0.030146468904591054 0 0.048278185842551578 0.030589158986865084 0 0.049654244893898337 0.029489699790116047 0 0.048969477691888232 0.030146468904591054 0 0.048076446920188719 0.030283478843889128 0 0.046179451789577421 0.028995553737210505 0 0.046007889618905076 0.029204471590900637 0 0.046062228281472301 0.029155525035181123 0 0.05065635654671493 0.029139288317795404 0 0.049553554021127939 0.029717276755012921 0 0.048969477691888232 0.030146468904591054 0 0.048278185842551578 0.030589158986865084 0 0.048076446920188719 0.030283478843889128 0 0.046050596263753282 0.029174007082595675 0 0.046116497110409535 0.029106701953627561 0 0.046138309372780739 0.029042044500224316 0 0.046062228281472301 0.029155525035181123 0 0.046050596263753282 0.029174007082595675 0 0.04604196760127572 0.029265421229863618 0 0.046007889618905076 0.029204471590900637 0 0.046062228281472301 0.029155525035181123 0 0.04604196760127572 0.029265421229863618 0 0.046062228281472301 0.029155525035181123 0 0.046050596263753282 0.029174007082595675 0 0.046116497110409535 0.029106701953627561 0 0.046179451789577421 0.028995553737210505 0 0.046062228281472301 0.029155525035181123 0 0.046116497110409535 0.029106701953627561 0 0.046190991707849328 0.029039949792937326 0 0.046179451789577421 0.028995553737210505 0 0.046116497110409535 0.029106701953627561 0 0.046190991707849328 0.029039949792937326 0 0.046116497110409535 0.029106701953627561 0 0.046174969157528827 0.029049403931763629 0 0.046174969157528827 0.029049403931763629 0 0.046138309372780739 0.029042044500224316 0 0.046252492105088298 0.029002235856042051 0 0.046116497110409535 0.029106701953627561 0 0.046174969157528827 0.029049403931763629 0 0.046138309372780739 0.029042044500224316 0 0.046138309372780739 0.029042044500224316 0 0.046250439204396775 0.028963755913282815 0 0.046252492105088298 0.029002235856042051 0 0.046050596263753282 0.029174007082595675 0 0.046138309372780739 0.029042044500224316 0 0.046032477450439375 0.029078818424329085 0 0.046096007606834667 0.029027288294397869 0 0.046138309372780739 0.029042044500224316 0 0.046032477450439375 0.029078818424329085 0 0.046096007606834667 0.029027288294397869 0 0.046032477450439375 0.029078818424329085 0 0.045985507997717112 0.029060199073728563 0 0.046096007606834667 0.029027288294397869 0 0.046138309372780739 0.029042044500224316 0 0.046250439204396775 0.028963755913282815 0 0.04650221856168172 0.028800207632840222 0 0.046250439204396775 0.028963755913282815 0 0.046252492105088298 0.029002235856042051 0 0.04650221856168172 0.028800207632840222 0 0.047597016554278934 0.028352454576019995 0 0.047245512630453908 0.02704111556333734 0 0.04650221856168172 0.028800207632840222 0 0.046261468907319178 0.028996714027133674 0 0.046301626828706456 0.02898427589697929 0 0.04650221856168172 0.028800207632840222 0 0.046301626828706456 0.02898427589697929 0 0.046252492105088298 0.029002235856042051 0 0.047116479930576473 0.028539182773791687 0 0.047482375298618824 0.028170858357221867 0 0.046261468907319178 0.028996714027133674 0 0.046301626828706456 0.02898427589697929 0 0.046276770973723499 0.028972120752367689 0 0.046265954201004149 0.028998873154411374 0 0.046301626828706456 0.02898427589697929 0 0.046276770973723499 0.028972120752367689 0 0.046265954201004149 0.028998873154411374 0 0.046301626828706456 0.02898427589697929 0 0.046252492105088298 0.029002235856042051 0 0.046265954201004149 0.028998873154411374 0 0.046224465091689516 0.029025526215943624 0 0.046252492105088298 0.029002235856042051 0 0.046224465091689516 0.029025526215943624 0 0.046174969157528827 0.029049403931763629 0 0.046252492105088298 0.029002235856042051 0 0.046192513000591039 0.029210156180985079 0 0.046102905389896323 0.029268242035950683 0 0.046259252574231365 0.029477771892689127 0 0.046192513000591039 0.029210156180985079 0 0.046259252574231365 0.029477771892689127 0 0.046270680624978279 0.029359966089790468 0 0.046192513000591039 0.029210156180985079 0 0.045931941467823555 0.028894375077587558 0 0.046102905389896323 0.029268242035950683 0 0.046192513000591039 0.029210156180985079 0 0.046311232626468836 0.029138862175081843 0 0.046270680624978279 0.029359966089790468 0 0.046355589054090304 0.029248746332670574 0 0.046311232626468836 0.029138862175081843 0 0.046270680624978279 0.029359966089790468 0 0.046192513000591039 0.029210156180985079 0 0.046311232626468836 0.029138862175081843 0 0.046154987659548494 0.028934110351056468 0 0.046355589054090304 0.029248746332670574 0 0.046552392688365592 0.028741783487683338 0 0.046311232626468836 0.029138862175081843 0 0.046552392688365592 0.028741783487683338 0 0.046311232626468836 0.029138862175081843 0 0.046154987659548494 0.028934110351056468 0 0.045836804406284654 0.028434402514247271 0 0.046154987659548494 0.028934110351056468 0 0.045931941467823555 0.028894375077587558 0 0.046192513000591039 0.029210156180985079 0 0.046154987659548494 0.028934110351056468 0 0.045931941467823555 0.028894375077587558 0 0.045931941467823555 0.028894375077587558 0 0.045782189560279539 0.029012325873463998 0 0.046102905389896323 0.029268242035950683 0 0.036087403124132916 0.024855332922841072 0 0.039995550781117446 0.027225535693909512 0 0.045634406948671789 0.028468419276273908 0 0.045931941467823555 0.028894375077587558 0 0.045782189560279539 0.029012325873463998 0 0.045836093663600939 0.029099236668583058 0 0.046016390601967709 0.029058430301163004 0 0.045985507997717112 0.029060199073728563 0 0.046032477450439375 0.029078818424329085 0 0.046016390601967709 0.029058430301163004 0 0.045985507997717112 0.029060199073728563 0 0.039995550781117446 0.027225535693909512 0 0.041154347096867765 0.027808584149076544 0 0.046050596263753282 0.029174007082595675 0 0.046032477450439375 0.029078818424329085 0 0.046060111798346688 0.029289565033149393 0 0.046032477450439375 0.029078818424329085 0 0.046016390601967709 0.029058430301163004 0 0.046060111798346688 0.029289565033149393 0 0.045782189560279539 0.029012325873463998 0 0.046102905389896323 0.029268242035950683 0 0.046060111798346688 0.029289565033149393 0 0.046102905389896323 0.029268242035950683 0 0.046370967941579737 0.029711103039851524 0 0.046259252574231365 0.029477771892689127 0 0.046102905389896323 0.029268242035950683 0 0.046370967941579737 0.029711103039851524 0 0.046060111798346688 0.029289565033149393 0 0.046370967941579737 0.029711103039851524 0 0.046060111798346688 0.029289565033149393 0 0.04604196760127572 0.029265421229863618 0 0.046007889618905076 0.029204471590900637 0 0.046370967941579737 0.029711103039851524 0 0.04604196760127572 0.029265421229863618 0 0.046050596263753282 0.029174007082595675 0 0.046060111798346688 0.029289565033149393 0 0.04604196760127572 0.029265421229863618 0 0.048278185842551578 0.030589158986865084 0 0.046370967941579737 0.029711103039851524 0 0.047442484007054336 0.029996944004283939 0 0.04745188930248901 0.029501098035798867 0 0.047174392107679458 0.029583432832906341 0 0.048278185842551578 0.030589158986865084 0 0.048076446920188719 0.030283478843889128 0 0.047442484007054336 0.029996944004283939 0 0.047442484007054336 0.029996944004283939 0 0.047619648977368735 0.029765494672135403 0 0.04695630673654777 0.029617001138127381 0 0.048076446920188719 0.030283478843889128 0 0.047442484007054336 0.029996944004283939 0 0.047619648977368735 0.029765494672135403 0 0.048076446920188719 0.030283478843889128 0 0.047619648977368735 0.029765494672135403 0 0.04825058412288534 0.029559773458503531 0 0.046370967941579737 0.029711103039851524 0 0.04695630673654777 0.029617001138127381 0 0.046431067421058063 0.029448697421450919 0 0.046370967941579737 0.029711103039851524 0 0.046431067421058063 0.029448697421450919 0 0.046290509043254595 0.029522386717457067 0 0.046370967941579737 0.029711103039851524 0 0.047442484007054336 0.029996944004283939 0 0.04695630673654777 0.029617001138127381 0 0.046431067421058063 0.029448697421450919 0 0.046290509043254595 0.029522386717457067 0 0.046202718519246309 0.029401479240967612 0 0.046290509043254595 0.029522386717457067 0 0.046225247876362618 0.029451124039639592 0 0.046202718519246309 0.029401479240967612 0 0.046370967941579737 0.029711103039851524 0 0.046290509043254595 0.029522386717457067 0 0.046259252574231365 0.029477771892689127 0 0.046290509043254595 0.029522386717457067 0 0.046259252574231365 0.029477771892689127 0 0.046225247876362618 0.029451124039639592 0 0.046259252574231365 0.029477771892689127 0 0.046270680624978279 0.029359966089790468 0 0.046225247876362618 0.029451124039639592 0 0.046270680624978279 0.029359966089790468 0 0.046216469610187057 0.029402055901367536 0 0.046225247876362618 0.029451124039639592 0 0.046248592049566481 0.029360287369198518 0 0.046270680624978279 0.029359966089790468 0 0.046216469610187057 0.029402055901367536 0 0.046216469610187057 0.029402055901367536 0 0.046225247876362618 0.029451124039639592 0 0.046165211328542261 0.029400942073180347 0 0.046165211328542261 0.029400942073180347 0 0.046125488585859367 0.029368583389727053 0 0.046202718519246309 0.029401479240967612 0 0.046225247876362618 0.029451124039639592 0 0.046165211328542261 0.029400942073180347 0 0.046202718519246309 0.029401479240967612 0 0.046125488585859367 0.029368583389727053 0 0.046202718519246309 0.029401479240967612 0 0.04609964076403477 0.029148806914112067 0 0.046125488585859367 0.029368583389727053 0 0.04609964076403477 0.029148806914112067 0 0.046079188916554339 0.029333385935294273 0 0.046431067421058063 0.029448697421450919 0 0.04609964076403477 0.029148806914112067 0 0.046746408870913636 0.029074295398049298 0 0.046431067421058063 0.029448697421450919 0 0.046202718519246309 0.029401479240967612 0 0.04609964076403477 0.029148806914112067 0 0.046955064708342237 0.029361472857790241 0 0.047378973619612803 0.029350627194203466 0 0.04609964076403477 0.029148806914112067 0 0.045803685451308779 0.029320326652695107 0 0.045937533114010672 0.029478506091052216 0 0.04609964076403477 0.029148806914112067 0 0.046070223720797783 0.029420444264977943 0 0.045937533114010672 0.029478506091052216 0 0.04609964076403477 0.029148806914112067 0 0.046103071809473824 0.029358617362398698 0 0.046070223720797783 0.029420444264977943 0 0.046103071809473824 0.029358617362398698 0 0.046059547095451278 0.029377420733545458 0 0.046079188916554339 0.029333385935294273 0 0.046048721863761521 0.029374972207152284 0 0.046103071809473824 0.029358617362398698 0 0.046059547095451278 0.029377420733545458 0 0.04609964076403477 0.029148806914112067 0 0.046103071809473824 0.029358617362398698 0 0.046079188916554339 0.029333385935294273 0 0.048576704224964899 0.028284385882645102 0 0.04787171628154871 0.028727590860348175 0 0.048385860008772527 0.029044280819001709 0 0.04787171628154871 0.028727590860348175 0 0.048385860008772527 0.029044280819001709 0 0.047449667415166187 0.029235150514793577 0 0.047619648977368735 0.029765494672135403 0 0.04825058412288534 0.029559773458503531 0 0.047449667415166187 0.029235150514793577 0 0.048385860008772527 0.029044280819001709 0 0.04825058412288534 0.029559773458503531 0 0.047449667415166187 0.029235150514793577 0 0.047619648977368735 0.029765494672135403 0 0.04695630673654777 0.029617001138127381 0 0.047449667415166187 0.029235150514793577 0 0.04787171628154871 0.028727590860348175 0 0.047449667415166187 0.029235150514793577 0 0.047388558008412865 0.028663823576576767 0 0.047449667415166187 0.029235150514793577 0 0.046746408870913636 0.029074295398049298 0 0.047388558008412865 0.028663823576576767 0 0.04695630673654777 0.029617001138127381 0 0.047449667415166187 0.029235150514793577 0 0.046746408870913636 0.029074295398049298 0 0.04695630673654777 0.029617001138127381 0 0.046431067421058063 0.029448697421450919 0 0.046746408870913636 0.029074295398049298 0 0.04609964076403477 0.029148806914112067 0 0.046746408870913636 0.029074295398049298 0 0.046756740761469143 0.028405109266939992 0 0.046746408870913636 0.029074295398049298 0 0.046756740761469143 0.028405109266939992 0 0.047388558008412865 0.028663823576576767 0 0.047378973619612803 0.029350627194203466 0 0.049062651548576364 0.029309912337881428 0 0.046756740761469143 0.028405109266939992 0 0.047742500850825383 0.028022452002179947 0 0.047955635720519044 0.027657931401307834 0 0.046756740761469143 0.028405109266939992 0 0.047388558008412865 0.028663823576576767 0 0.047742500850825383 0.028022452002179947 0 0.045803685451308779 0.029320326652695107 0 0.045475837890231824 0.029438893501989933 0 0.045632003193902336 0.029526207347326684 0 0.047388558008412865 0.028663823576576767 0 0.047742500850825383 0.028022452002179947 0 0.047979705541400054 0.028328040801553572 0 0.048955136490206962 0.027614233294257193 0 0.048056626680586668 0.027352032341293693 0 0.048280581065338696 0.027924199375292565 0 0.049059537746746935 0.029272025597327597 0 0.049062651548576364 0.029309912337881428 0 0.047742500850825383 0.028022452002179947 0 0.048056626680586668 0.027352032341293693 0 0.048280581065338696 0.027924199375292565 0 0.048576704224964899 0.028284385882645102 0 0.048280581065338696 0.027924199375292565 0 0.047979705541400054 0.028328040801553572 0 0.047742500850825383 0.028022452002179947 0 0.048280581065338696 0.027924199375292565 0 0.047979705541400054 0.028328040801553572 0 0.04787171628154871 0.028727590860348175 0 0.047388558008412865 0.028663823576576767 0 0.047979705541400054 0.028328040801553572 0 0.048576704224964899 0.028284385882645102 0 0.04787171628154871 0.028727590860348175 0 0.047979705541400054 0.028328040801553572 0 0.045475837890231824 0.029438893501989933 0 0.045514464031253497 0.029747972001049564 0 0.045632003193902336 0.029526207347326684 0 0.045514464031253497 0.029747972001049564 0 0.045632003193902336 0.029526207347326684 0 0.045723507095046925 0.029614205600110008 0 0.045514464031253497 0.029747972001049564 0 0.045723507095046925 0.029614205600110008 0 0.045641081827320594 0.029875742273096608 0 0.045723507095046925 0.029614205600110008 0 0.045863320387913631 0.02974314813808332 0 0.045641081827320594 0.029875742273096608 0 0.045803685451308779 0.029320326652695107 0 0.045632003193902336 0.029526207347326684 0 0.045723507095046925 0.029614205600110008 0 0.045803685451308779 0.029320326652695107 0 0.045723507095046925 0.029614205600110008 0 0.045937533114010672 0.029478506091052216 0 0.045723507095046925 0.029614205600110008 0 0.045863320387913631 0.02974314813808332 0 0.045937533114010672 0.029478506091052216 0 0.045863320387913631 0.02974314813808332 0 0.045733814943417238 0.03007161428246577 0 0.046007280760363617 0.030079664461960007 0 0.045863320387913631 0.02974314813808332 0 0.045733814943417238 0.03007161428246577 0 0.045641081827320594 0.029875742273096608 0 0.045733814943417238 0.03007161428246577 0 0.045641081827320594 0.029875742273096608 0 0.045519704787268897 0.030197675261436709 0 0.045641081827320594 0.029875742273096608 0 0.045447104379608423 0.030000666040020708 0 0.045519704787268897 0.030197675261436709 0 0.045514464031253497 0.029747972001049564 0 0.045641081827320594 0.029875742273096608 0 0.045447104379608423 0.030000666040020708 0 0.046084347113627931 0.029451595979119907 0 0.046078960252232376 0.029390289334690581 0 0.046066614541026035 0.029584414398176488 0 0.046084347113627931 0.029451595979119907 0 0.046054183518460634 0.029592807774850228 0 0.046066614541026035 0.029584414398176488 0 0.046084347113627931 0.029451595979119907 0 0.046078960252232376 0.029390289334690581 0 0.046085968934481011 0.029392257559540776 0 0.046048721863761521 0.029374972207152284 0 0.046078960252232376 0.029390289334690581 0 0.046085968934481011 0.029392257559540776 0 0.046048721863761521 0.029374972207152284 0 0.046103071809473824 0.029358617362398698 0 0.046085968934481011 0.029392257559540776 0 0.046103071809473824 0.029358617362398698 0 0.046084347113627931 0.029451595979119907 0 0.046085968934481011 0.029392257559540776 0 0.046103071809473824 0.029358617362398698 0 0.046084347113627931 0.029451595979119907 0 0.046070223720797783 0.029420444264977943 0 0.046070223720797783 0.029420444264977943 0 0.045937533114010672 0.029478506091052216 0 0.046054183518460634 0.029592807774850228 0 0.045863320387913631 0.02974314813808332 0 0.045937533114010672 0.029478506091052216 0 0.046054183518460634 0.029592807774850228 0 0.046084347113627931 0.029451595979119907 0 0.046070223720797783 0.029420444264977943 0 0.046054183518460634 0.029592807774850228 0 0.038676913981058297 0.032752445500077436 0 0.036244270186013075 0.036165738535085784 0 0.017263065514012525 0.054015814736289809 0 0.017531646608182072 0.050795892465988715 0 0.021310072910683917 0.052044774422836511 0 0.045863320387913631 0.02974314813808332 0 0.046054183518460634 0.029592807774850228 0 0.046007280760363617 0.030079664461960007 0 0.030317303193015344 0.03813707688696797 0 0.036244270186013075 0.036165738535085784 0 0.046054183518460634 0.029592807774850228 0 0.046066614541026035 0.029584414398176488 0 0.045991763819945852 0.029670011191513464 0 0.013513244260520656 0.053624220050773733 0 0.017263065514012525 0.054015814736289809 0 0.01421877742357739 0.051804579149787602 0 0.013513244260520656 0.053624220050773733 0 0.013925556752838119 0.0550073401503689 0 0.017263065514012525 0.054015814736289809 0 0.024470650686470745 0.038742494361783703 0 0.030317303193015344 0.03813707688696797 0 0.013238923922214155 0.055808522114538142 0 0.013925556752838119 0.0550073401503689 0 0.017263065514012525 0.054015814736289809 0 0.017263065514012525 0.054015814736289809 0 0.017531646608182072 0.050795892465988715 0 0.01421877742357739 0.051804579149787602 0 0.04607291552152612 0.02932832013927289 0 0.046078960252232376 0.029390289334690581 0 0.046066614541026035 0.029584414398176488 0 0.017531646608182072 0.050795892465988715 0 0.01421877742357739 0.051804579149787602 0 0.0118767432990236 0.049175147751454172 0 0.017531646608182072 0.050795892465988715 0 0.017965625183464045 0.047571126479486713 0 0.0118767432990236 0.049175147751454172 0 0.021310072910683917 0.052044774422836511 0 0.020287917413673199 0.048663951218806262 0 0.023749261196919794 0.047202162889041305 0 0.017531646608182072 0.050795892465988715 0 0.021310072910683917 0.052044774422836511 0 0.020287917413673199 0.048663951218806262 0 0.017531646608182072 0.050795892465988715 0 0.020287917413673199 0.048663951218806262 0 0.017965625183464045 0.047571126479486713 0 0.020287917413673199 0.048663951218806262 0 0.020820781112536837 0.04575778686333478 0 0.017965625183464045 0.047571126479486713 0 0.020287917413673199 0.048663951218806262 0 0.020820781112536837 0.04575778686333478 0 0.023749261196919794 0.047202162889041305 0 0.017965625183464045 0.047571126479486713 0 0.016023264417061239 0.044082568621237071 0 0.0118767432990236 0.049175147751454172 0 0.020820781112536837 0.04575778686333478 0 0.017965625183464045 0.047571126479486713 0 0.016023264417061239 0.044082568621237071 0 0.045519704787268897 0.030197675261436709 0 0.045643848435139238 0.030449770896863196 0 0.045312963154417699 0.030379640598007764 0 0.045733814943417238 0.03007161428246577 0 0.045519704787268897 0.030197675261436709 0 0.045643848435139238 0.030449770896863196 0 0.041246327511966066 0.032938047313734772 0 0.043445547877320009 0.031809637517499219 0 0.042218581844415466 0.030840613347979749 0 0.036244270186013075 0.036165738535085784 0 0.034428758787730815 0.038088769858719722 0 0.045733814943417238 0.03007161428246577 0 0.046007280760363617 0.030079664461960007 0 0.045643848435139238 0.030449770896863196 0 0.036244270186013075 0.036165738535085784 0 0.043125981917277519 0.032188767918929016 0 0.020820781112536837 0.04575778686333478 0 0.023749261196919794 0.047202162889041305 0 0.02284811613387084 0.044025735934610365 0 0.043445547877320009 0.031809637517499219 0 0.042218581844415466 0.030840613347979749 0 0.043433800035890216 0.030967850188358906 0 0.042218581844415466 0.030840613347979749 0 0.043433800035890216 0.030967850188358906 0 0.042532768861585468 0.030237352353804481 0 0.043433800035890216 0.030967850188358906 0 0.044232263794046489 0.030136710564921426 0 0.044857131971081161 0.030982347651579586 0 0.043445547877320009 0.031809637517499219 0 0.043433800035890216 0.030967850188358906 0 0.044857131971081161 0.030982347651579586 0 0.042532768861585468 0.030237352353804481 0 0.042130522944955819 0.030788979877132083 0 0.038350516938138422 0.032416932233313815 0 0.042532768861585468 0.030237352353804481 0 0.045271590221795291 0.02607311915297331 0 0.044951937333626034 0.028577460267431982 0 0.044232263794046489 0.030136710564921426 0 0.042532768861585468 0.030237352353804481 0 0.044951937333626034 0.028577460267431982 0 0.043433800035890216 0.030967850188358906 0 0.044232263794046489 0.030136710564921426 0 0.042532768861585468 0.030237352353804481 0 0.034428758787730815 0.038088769858719722 0 0.0346758843978697 0.036508428027898526 0 0.042218581844415466 0.030840613347979749 0 0.042532768861585468 0.030237352353804481 0 0.042130522944955819 0.030788979877132083 0 0.023749261196919794 0.047202162889041305 0 0.026458587678662913 0.042763202724798957 0 0.02284811613387084 0.044025735934610365 0 0.026458587678662913 0.042763202724798957 0 0.02284811613387084 0.044025735934610365 0 0.023158582190351312 0.041790462150781998 0 0.023158582190351312 0.041790462150781998 0 0.024389768130310675 0.039305500149301481 0 0.025360217783086513 0.041241735745709371 0 0.023158582190351312 0.041790462150781998 0 0.024389768130310675 0.039305500149301481 0 0.020436496971477161 0.039570104981829328 0 0.024389768130310675 0.039305500149301481 0 0.025360217783086513 0.041241735745709371 0 0.026893872822114105 0.039756421005485695 0 0.026458587678662913 0.042763202724798957 0 0.025360217783086513 0.041241735745709371 0 0.026893872822114105 0.039756421005485695 0 0.026458587678662913 0.042763202724798957 0 0.023158582190351312 0.041790462150781998 0 0.025360217783086513 0.041241735745709371 0 0.042130522944955819 0.030788979877132083 0 0.038554024394918979 0.033051409448519198 0 0.038350516938138422 0.032416932233313815 0 0.041984106067977756 0.030334831352778261 0 0.042216911979573557 0.029743962703152035 0 0.0346758843978697 0.036508428027898526 0 0.035173580007991839 0.034798457451471865 0 0.026458587678662913 0.042763202724798957 0 0.026893872822114105 0.039756421005485695 0 0.02998786729707132 0.038616015215820643 0 0.016023264417061239 0.044082568621237071 0 0.016693552797555838 0.04012339446166778 0 0.011354555273588635 0.041750014616385812 0 0.016023264417061239 0.044082568621237071 0 0.019881658117095573 0.042528597294280879 0 0.016693552797555838 0.04012339446166778 0 0.020820781112536837 0.04575778686333478 0 0.016023264417061239 0.044082568621237071 0 0.019881658117095573 0.042528597294280879 0 0.020820781112536837 0.04575778686333478 0 0.02284811613387084 0.044025735934610365 0 0.019881658117095573 0.042528597294280879 0 0.02284811613387084 0.044025735934610365 0 0.023158582190351312 0.041790462150781998 0 0.019881658117095573 0.042528597294280879 0 0.020436496971477161 0.039570104981829328 0 0.016693552797555838 0.04012339446166778 0 0.018594029520646725 0.036316808890950868 0 0.019881658117095573 0.042528597294280879 0 0.020436496971477161 0.039570104981829328 0 0.016693552797555838 0.04012339446166778 0 0.023158582190351312 0.041790462150781998 0 0.019881658117095573 0.042528597294280879 0 0.020436496971477161 0.039570104981829328 0 0.016693552797555838 0.04012339446166778 0 0.018594029520646725 0.036316808890950868 0 0.013802165971354299 0.036579072335643364 0 0.015599639552725144 0.033430716327266866 0 0.018594029520646725 0.036316808890950868 0 0.013802165971354299 0.036579072335643364 0 0.015599639552725144 0.033430716327266866 0 0.014501209901620024 0.030276099844984476 0 0.01978703822490829 0.031216483229638506 0 0.015599639552725144 0.033430716327266866 0 0.018594029520646725 0.036316808890950868 0 0.01978703822490829 0.031216483229638506 0 0.018594029520646725 0.036316808890950868 0 0.023029600296696578 0.036117687417373243 0 0.01978703822490829 0.031216483229638506 0 0.023029600296696578 0.036117687417373243 0 0.024791133641884556 0.033195276109914185 0 0.01978703822490829 0.031216483229638506 0 0.020436496971477161 0.039570104981829328 0 0.018594029520646725 0.036316808890950868 0 0.023029600296696578 0.036117687417373243 0 0.024389768130310675 0.039305500149301481 0 0.020436496971477161 0.039570104981829328 0 0.023029600296696578 0.036117687417373243 0 0.024389768130310675 0.039305500149301481 0 0.026522288333443562 0.037638202893608266 0 0.023029600296696578 0.036117687417373243 0 0.024389768130310675 0.039305500149301481 0 0.026893872822114105 0.039756421005485695 0 0.026522288333443562 0.037638202893608266 0 0.026522288333443562 0.037638202893608266 0 0.023029600296696578 0.036117687417373243 0 0.026812273745136714 0.035165491439258741 0 0.026893872822114105 0.039756421005485695 0 0.026522288333443562 0.037638202893608266 0 0.028034732323421959 0.038186458641149827 0 0.026893872822114105 0.039756421005485695 0 0.02998786729707132 0.038616015215820643 0 0.028034732323421959 0.038186458641149827 0 0.02998786729707132 0.038616015215820643 0 0.028034732323421959 0.038186458641149827 0 0.028720658812363267 0.036637823040110103 0 0.026522288333443562 0.037638202893608266 0 0.028034732323421959 0.038186458641149827 0 0.028720658812363267 0.036637823040110103 0 0.026522288333443562 0.037638202893608266 0 0.028720658812363267 0.036637823040110103 0 0.026812273745136714 0.035165491439258741 0 0.02998786729707132 0.038616015215820643 0 0.028720658812363267 0.036637823040110103 0 0.031248511055314405 0.035198573621373644 0 0.02998786729707132 0.038616015215820643 0 0.031248511055314405 0.035198573621373644 0 0.035422442679582687 0.033303229212655043 0 0.031248511055314405 0.035198573621373644 0 0.029738636930631432 0.034383656608893337 0 0.031722464695722701 0.032595514050630103 0 0.028720658812363267 0.036637823040110103 0 0.029738636930631432 0.034383656608893337 0 0.026812273745136714 0.035165491439258741 0 0.029738636930631432 0.034383656608893337 0 0.028402774031511747 0.032672319388752348 0 0.026812273745136714 0.035165491439258741 0 0.028720658812363267 0.036637823040110103 0 0.031248511055314405 0.035198573621373644 0 0.029738636930631432 0.034383656608893337 0 0.029738636930631432 0.034383656608893337 0 0.028402774031511747 0.032672319388752348 0 0.031722464695722701 0.032595514050630103 0 0.028402774031511747 0.032672319388752348 0 0.031722464695722701 0.032595514050630103 0 0.03106956513030066 0.030138835976383237 0 0.031248511055314405 0.035198573621373644 0 0.031722464695722701 0.032595514050630103 0 0.035422442679582687 0.033303229212655043 0 0.024791133641884556 0.033195276109914185 0 0.026380649820484162 0.03018811028945487 0 0.01978703822490829 0.031216483229638506 0 0.023029600296696578 0.036117687417373243 0 0.026812273745136714 0.035165491439258741 0 0.024791133641884556 0.033195276109914185 0 0.028402774031511747 0.032672319388752348 0 0.026812273745136714 0.035165491439258741 0 0.024791133641884556 0.033195276109914185 0 0.028402774031511747 0.032672319388752348 0 0.024791133641884556 0.033195276109914185 0 0.026380649820484162 0.03018811028945487 0 0.023568673396617654 0.027403727528950768 0 0.026380649820484162 0.03018811028945487 0 0.030955390596465848 0.025422261181998234 0 0.023568673396617654 0.027403727528950768 0 0.026380649820484162 0.03018811028945487 0 0.01978703822490829 0.031216483229638506 0 0.026380649820484162 0.03018811028945487 0 0.03106956513030066 0.030138835976383237 0 0.030955390596465848 0.025422261181998234 0 0.03106956513030066 0.030138835976383237 0 0.030955390596465848 0.025422261181998234 0 0.036239157529955955 0.028690451232982438 0 0.031722464695722701 0.032595514050630103 0 0.03106956513030066 0.030138835976383237 0 0.034444483616379154 0.03134345005044125 0 0.028402774031511747 0.032672319388752348 0 0.026380649820484162 0.03018811028945487 0 0.03106956513030066 0.030138835976383237 0 0.023568673396617654 0.027403727528950768 0 0.02009903957403093 0.024488102085453343 0 0.025717219588299076 0.020754030482672443 0 0.023568673396617654 0.027403727528950768 0 0.030955390596465848 0.025422261181998234 0 0.025717219588299076 0.020754030482672443 0 0.02009903957403093 0.024488102085453343 0 0.014574930982377558 0.026419581073824517 0 0.01978703822490829 0.031216483229638506 0 0.02009903957403093 0.024488102085453343 0 0.014574930982377558 0.026419581073824517 0 0.019369284857718869 0.01753150114087253 0 0.014574930982377558 0.026419581073824517 0 0.014501209901620024 0.030276099844984476 0 0.01978703822490829 0.031216483229638506 0 0.023568673396617654 0.027403727528950768 0 0.02009903957403093 0.024488102085453343 0 0.01978703822490829 0.031216483229638506 0 0.050883230081538659 0.022582828276204791 0 0.051209168632743107 0.021693261219982884 0 0.049714556503765009 0.021561800690665683 0 0.052164601434033994 0.022520920695204793 0 0.05232937555159764 0.021645110113850088 0 0.051209168632743107 0.021693261219982884 0 0.050883230081538659 0.022582828276204791 0 0.052164601434033994 0.022520920695204793 0 0.051209168632743107 0.021693261219982884 0 0.050883230081538659 0.022582828276204791 0 0.052164601434033994 0.022520920695204793 0 0.052203017891706519 0.023684777256460503 0 0.052164601434033994 0.022520920695204793 0 0.053364784685738548 0.022819625695027247 0 0.052203017891706519 0.023684777256460503 0 0.052164601434033994 0.022520920695204793 0 0.053364784685738548 0.022819625695027247 0 0.053378863455268086 0.02202508088746271 0 0.053364784685738548 0.022819625695027247 0 0.053378863455268086 0.02202508088746271 0 0.054462070322191178 0.022165797588546834 0 0.052164601434033994 0.022520920695204793 0 0.053378863455268086 0.02202508088746271 0 0.05232937555159764 0.021645110113850088 0 0.053378863455268086 0.02202508088746271 0 0.05232937555159764 0.021645110113850088 0 0.053177447591838393 0.021082279782227761 0 0.05232937555159764 0.021645110113850088 0 0.053177447591838393 0.021082279782227761 0 0.052037731159719512 0.020978947220884579 0 0.053378863455268086 0.02202508088746271 0 0.053177447591838393 0.021082279782227761 0 0.054077264164121751 0.021410584439767767 0 0.053177447591838393 0.021082279782227761 0 0.05360855374590421 0.020266696691285578 0 0.052758353869119298 0.020402026615307427 0 0.053177447591838393 0.021082279782227761 0 0.053989831863863254 0.020808089722568264 0 0.05360855374590421 0.020266696691285578 0 0.053177447591838393 0.021082279782227761 0 0.053989831863863254 0.020808089722568264 0 0.054077264164121751 0.021410584439767767 0 0.053177447591838393 0.021082279782227761 0 0.052037731159719512 0.020978947220884579 0 0.052758353869119298 0.020402026615307427 0 0.051027621094605576 0.020789405756813088 0 0.051209168632743107 0.021693261219982884 0 0.049714556503765009 0.021561800690665683 0 0.052037731159719512 0.020978947220884579 0 0.051027621094605576 0.020789405756813088 0 0.051760381590768047 0.019980052807264777 0 0.051027621094605576 0.020789405756813088 0 0.049714556503765009 0.021561800690665683 0 0.049738237704171379 0.0192104142086293 0 0.052037731159719512 0.020978947220884579 0 0.051027621094605576 0.020789405756813088 0 0.051209168632743107 0.021693261219982884 0 0.05232937555159764 0.021645110113850088 0 0.052037731159719512 0.020978947220884579 0 0.051209168632743107 0.021693261219982884 0 0.042181318256190342 0.027469341841138431 0 0.038284075845347688 0.024087968138184181 0 0.042657395545362277 0.021116249809800577 0 0.0458041038920661 0.023842877963419693 0 0.047439663215274992 0.021055475140003412 0 0.042181318256190342 0.027469341841138431 0 0.038284075845347688 0.024087968138184181 0 0.036239157529955955 0.028690451232982438 0 0.030955390596465848 0.025422261181998234 0 0.038284075845347688 0.024087968138184181 0 0.036535585046667339 0.019936213294896865 0 0.030955390596465848 0.025422261181998234 0 0.038284075845347688 0.024087968138184181 0 0.036239157529955955 0.028690451232982438 0 0.042181318256190342 0.027469341841138431 0 0.036239157529955955 0.028690451232982438 0 0.036417744794529541 0.033858991807446774 0 0.036239157529955955 0.028690451232982438 0 0.034444483616379154 0.03134345005044125 0 0.036417744794529541 0.033858991807446774 0 0.03106956513030066 0.030138835976383237 0 0.036239157529955955 0.028690451232982438 0 0.034444483616379154 0.03134345005044125 0 0.0458041038920661 0.023842877963419693 0 0.043371977822185263 0.027796750825246522 0 0.049714556503765009 0.021561800690665683 0 0.049535499415176119 0.023054304526091429 0 0.048003023390727255 0.023329537188446426 0 0.050883230081538659 0.022582828276204791 0 0.049714556503765009 0.021561800690665683 0 0.049535499415176119 0.023054304526091429 0 0.050883230081538659 0.022582828276204791 0 0.049535499415176119 0.023054304526091429 0 0.050135531342716255 0.024000678566769865 0 0.049535499415176119 0.023054304526091429 0 0.048917369441618085 0.024098208628893798 0 0.048003023390727255 0.023329537188446426 0 0.049535499415176119 0.023054304526091429 0 0.048917369441618085 0.024098208628893798 0 0.050135531342716255 0.024000678566769865 0 0.038554024394918979 0.033051409448519198 0 0.035422442679582687 0.033303229212655043 0 0.036417744794529541 0.033858991807446774 0 0.034444483616379154 0.03134345005044125 0 0.035422442679582687 0.033303229212655043 0 0.036417744794529541 0.033858991807446774 0 0.031722464695722701 0.032595514050630103 0 0.034444483616379154 0.03134345005044125 0 0.035422442679582687 0.033303229212655043 0 0.038554024394918979 0.033051409448519198 0 0.036417744794529541 0.033858991807446774 0 0.038350516938138422 0.032416932233313815 0 0.035173580007991839 0.034798457451471865 0 0.035564683918269079 0.03373196145303578 0 0.048003023390727255 0.023329537188446426 0 0.047848865393801308 0.025170163921129359 0 0.045271590221795291 0.02607311915297331 0 0.043371977822185263 0.027796750825246522 0 0.042216911979573557 0.029743962703152035 0 0.048917369441618085 0.024098208628893798 0 0.048003023390727255 0.023329537188446426 0 0.047848865393801308 0.025170163921129359 0 0.050135531342716255 0.024000678566769865 0 0.049254262189270058 0.025075479594720809 0 0.050243378975868593 0.025179709349859591 0 0.048917369441618085 0.024098208628893798 0 0.050135531342716255 0.024000678566769865 0 0.049254262189270058 0.025075479594720809 0 0.048917369441618085 0.024098208628893798 0 0.047848865393801308 0.025170163921129359 0 0.049254262189270058 0.025075479594720809 0 0.047848865393801308 0.025170163921129359 0 0.049254262189270058 0.025075479594720809 0 0.048514063227331282 0.026200280019299992 0 0.049254262189270058 0.025075479594720809 0 0.050004166520544492 0.026005314163147993 0 0.048514063227331282 0.026200280019299992 0 0.049254262189270058 0.025075479594720809 0 0.050243378975868593 0.025179709349859591 0 0.050004166520544492 0.026005314163147993 0 0.050243378975868593 0.025179709349859591 0 0.051169144045467692 0.024846807082568555 0 0.051128636133871516 0.025817380545223558 0 0.050243378975868593 0.025179709349859591 0 0.051128636133871516 0.025817380545223558 0 0.050004166520544492 0.026005314163147993 0 0.051169144045467692 0.024846807082568555 0 0.052292454790815235 0.024717952816318656 0 0.052264572223493615 0.025558294815567383 0 0.051169144045467692 0.024846807082568555 0 0.052264572223493615 0.025558294815567383 0 0.051128636133871516 0.025817380545223558 0 0.051169144045467692 0.024846807082568555 0 0.052203017891706519 0.023684777256460503 0 0.052292454790815235 0.024717952816318656 0 0.050135531342716255 0.024000678566769865 0 0.050243378975868593 0.025179709349859591 0 0.051169144045467692 0.024846807082568555 0 0.050883230081538659 0.022582828276204791 0 0.050135531342716255 0.024000678566769865 0 0.052203017891706519 0.023684777256460503 0 0.050135531342716255 0.024000678566769865 0 0.051169144045467692 0.024846807082568555 0 0.052203017891706519 0.023684777256460503 0 0.052203017891706519 0.023684777256460503 0 0.053441828602321828 0.024558216707556157 0 0.053882125588456259 0.023623345014920763 0 0.053364784685738548 0.022819625695027247 0 0.052203017891706519 0.023684777256460503 0 0.053882125588456259 0.023623345014920763 0 0.052203017891706519 0.023684777256460503 0 0.053441828602321828 0.024558216707556157 0 0.052292454790815235 0.024717952816318656 0 0.053441828602321828 0.024558216707556157 0 0.052292454790815235 0.024717952816318656 0 0.052264572223493615 0.025558294815567383 0 0.053441828602321828 0.024558216707556157 0 0.052264572223493615 0.025558294815567383 0 0.053367108182299061 0.025754812900349047 0 0.053441828602321828 0.024558216707556157 0 0.053367108182299061 0.025754812900349047 0 0.054285581806277704 0.025431276772407481 0 0.053367108182299061 0.025754812900349047 0 0.054181669630800358 0.026474582882530247 0 0.052610062118827461 0.026529513500962647 0 0.053367108182299061 0.025754812900349047 0 0.054181669630800358 0.026474582882530247 0 0.054285581806277704 0.025431276772407481 0 0.054181669630800358 0.026474582882530247 0 0.052610062118827461 0.026529513500962647 0 0.052094592842502424 0.027787887765104758 0 0.052264572223493615 0.025558294815567383 0 0.053367108182299061 0.025754812900349047 0 0.052610062118827461 0.026529513500962647 0 0.052264572223493615 0.025558294815567383 0 0.051128636133871516 0.025817380545223558 0 0.051272855331552895 0.026891402394658467 0 0.052264572223493615 0.025558294815567383 0 0.052610062118827461 0.026529513500962647 0 0.051272855331552895 0.026891402394658467 0 0.050004166520544492 0.026005314163147993 0 0.051272855331552895 0.026891402394658467 0 0.049378632235083229 0.027318520710190194 0 0.051128636133871516 0.025817380545223558 0 0.050004166520544492 0.026005314163147993 0 0.051272855331552895 0.026891402394658467 0 0.051272855331552895 0.026891402394658467 0 0.050371644600510974 0.028537839530504424 0 0.049378632235083229 0.027318520710190194 0 0.051272855331552895 0.026891402394658467 0 0.052094592842502424 0.027787887765104758 0 0.050371644600510974 0.028537839530504424 0 0.052610062118827461 0.026529513500962647 0 0.051272855331552895 0.026891402394658467 0 0.052094592842502424 0.027787887765104758 0 0.052094592842502424 0.027787887765104758 0 0.050371644600510974 0.028537839530504424 0 0.052309741928471022 0.029818638940488584 0 0.050371644600510974 0.028537839530504424 0 0.052309741928471022 0.029818638940488584 0 0.048999633141121664 0.030589148256206733 0 0.05166880933047608 0.028103321204185221 0 0.048135447740317812 0.029337153552984361 0 0.054181669630800358 0.026474582882530247 0 0.052094592842502424 0.027787887765104758 0 0.052309741928471022 0.029818638940488584 0 0.05533916037245646 0.026662003235998641 0 0.055996460681707966 0.027110917421869926 0 0.056218886905151019 0.026584679166813611 0 0.054181669630800358 0.026474582882530247 0 0.053206967670924907 0.027940216847460071 0 0.05464571892983397 0.027691879324876999 0 0.05166880933047608 0.028103321204185221 0 0.054010890044934805 0.027597675345607798 0 0.052400754498030749 0.027470389820990274 0 0.05166880933047608 0.028103321204185221 0 0.045271590221795291 0.02607311915297331 0 0.04622643979304656 0.027411897994915505 0 0.044951937333626034 0.028577460267431982 0 0.04622643979304656 0.027411897994915505 0 0.046241606068986307 0.028378813031650442 0 0.044951937333626034 0.028577460267431982 0 0.045271590221795291 0.02607311915297331 0 0.047010787089367893 0.026458805517516809 0 0.04622643979304656 0.027411897994915505 0 0.047848865393801308 0.025170163921129359 0 0.045271590221795291 0.02607311915297331 0 0.047010787089367893 0.026458805517516809 0 0.04622643979304656 0.027411897994915505 0 0.047543630996699733 0.027664713523763193 0 0.046241606068986307 0.028378813031650442 0 0.047010787089367893 0.026458805517516809 0 0.04622643979304656 0.027411897994915505 0 0.047543630996699733 0.027664713523763193 0 0.047543630996699733 0.027664713523763193 0 0.049378632235083229 0.027318520710190194 0 0.048470862218994784 0.028782897411393314 0 0.047543630996699733 0.027664713523763193 0 0.048514063227331282 0.026200280019299992 0 0.049378632235083229 0.027318520710190194 0 0.047848865393801308 0.025170163921129359 0 0.047010787089367893 0.026458805517516809 0 0.048514063227331282 0.026200280019299992 0 0.047010787089367893 0.026458805517516809 0 0.047543630996699733 0.027664713523763193 0 0.048514063227331282 0.026200280019299992 0 0.050004166520544492 0.026005314163147993 0 0.048514063227331282 0.026200280019299992 0 0.049378632235083229 0.027318520710190194 0 0.050371644600510974 0.028537839530504424 0 0.049378632235083229 0.027318520710190194 0 0.048470862218994784 0.028782897411393314 0 0.050371644600510974 0.028537839530504424 0 0.048470862218994784 0.028782897411393314 0 0.048999633141121664 0.030589148256206733 0 0.048470862218994784 0.028782897411393314 0 0.046507028804610426 0.029471237390221505 0 0.048999633141121664 0.030589148256206733 0 0.047543630996699733 0.027664713523763193 0 0.048470862218994784 0.028782897411393314 0 0.046507028804610426 0.029471237390221505 0 0.046507028804610426 0.029471237390221505 0 0.044857131971081161 0.030982347651579586 0 0.048999633141121664 0.030589148256206733 0 0.047543630996699733 0.027664713523763193 0 0.046241606068986307 0.028378813031650442 0 0.046507028804610426 0.029471237390221505 0 0.046241606068986307 0.028378813031650442 0 0.046507028804610426 0.029471237390221505 0 0.045361361355976793 0.029533484313063713 0 0.044232263794046489 0.030136710564921426 0 0.045361361355976793 0.029533484313063713 0 0.044857131971081161 0.030982347651579586 0 0.046507028804610426 0.029471237390221505 0 0.045361361355976793 0.029533484313063713 0 0.044857131971081161 0.030982347651579586 0 0.044232263794046489 0.030136710564921426 0 0.045361361355976793 0.029533484313063713 0 0.044951937333626034 0.028577460267431982 0 0.046241606068986307 0.028378813031650442 0 0.045361361355976793 0.029533484313063713 0 0.044951937333626034 0.028577460267431982 0 0.046904635970161423 0.029731882079628302 0 0.048135447740317812 0.029337153552984361 0 0.043125981917277519 0.032188767918929016 0 0.044371625141541457 0.03145785906126617 0 0.043445547877320009 0.031809637517499219 0 0.044857131971081161 0.030982347651579586 0 0.045204232036192338 0.030866805914904941 0 0.044857131971081161 0.030982347651579586 0 0.045204232036192338 0.030866805914904941 0 0.045411594002823921 0.030678773961653114 0 0.045643848435139238 0.030449770896863196 0 0.045204232036192338 0.030866805914904941 0 0.045333406951577324 0.03058518344519719 0 0.045204232036192338 0.030866805914904941 0 0.045333406951577324 0.03058518344519719 0 0.045239292662871688 0.0306562852161157 0 0.045239292662871688 0.0306562852161157 0 0.045411594002823921 0.030678773961653114 0 0.045195188721499781 0.030565940889461542 0 0.045204232036192338 0.030866805914904941 0 0.045239292662871688 0.0306562852161157 0 0.045411594002823921 0.030678773961653114 0 0.045239292662871688 0.0306562852161157 0 0.045195188721499781 0.030565940889461542 0 0.045312963154417699 0.030379640598007764 0 0.045205548422248235 0.030009370974506962 0 0.045195188721499781 0.030565940889461542 0 0.045312963154417699 0.030379640598007764 0 0.049480268107074107 0.029380519348885949 0 0.050192528544729054 0.029089452349832682 0 0.045643848435139238 0.030449770896863196 0 0.045333406951577324 0.03058518344519719 0 0.045312963154417699 0.030379640598007764 0 0.045333406951577324 0.03058518344519719 0 0.045239292662871688 0.0306562852161157 0 0.045312963154417699 0.030379640598007764 0 0.045372071576042713 0.030147431427748117 0 0.045519704787268897 0.030197675261436709 0 0.045312963154417699 0.030379640598007764 0 0.05533916037245646 0.026662003235998641 0 0.055996460681707966 0.027110917421869926 0 0.05550863479020296 0.027681176901966406 0 0.055996460681707966 0.027110917421869926 0 0.05550863479020296 0.027681176901966406 0 0.056550483410151273 0.027779307867519851 0 0.05533916037245646 0.026662003235998641 0 0.054432141660919406 0.027771190873461742 0 0.05550863479020296 0.027681176901966406 0 0.05166880933047608 0.028103321204185221 0 0.050192528544729054 0.029089452349832682 0 0.045272512950184612 0.030697569457846439 0 0.045411594002823921 0.030678773961653114 0 0.045195188721499781 0.030565940889461542 0 0.054632430115925355 0.02858053886903009 0 0.054432141660919406 0.027771190873461742 0 0.055128987508074496 0.02823805144249256 0 0.054432141660919406 0.027771190873461742 0 0.055128987508074496 0.02823805144249256 0 0.05550863479020296 0.027681176901966406 0 0.055599983023537393 0.028733288774696844 0 0.055128987508074496 0.02823805144249256 0 0.05550863479020296 0.027681176901966406 0 0.055599983023537393 0.028733288774696844 0 0.05550863479020296 0.027681176901966406 0 0.056550483410151273 0.027779307867519851 0 0.054855094233099047 0.027190324426045409 0 0.055989887144749367 0.026817812494457704 0 0.055996460681707966 0.027110917421869926 0 0.056550483410151273 0.027779307867519851 0 0.056595225461397676 0.02692280266221176 0 0.055996460681707966 0.027110917421869926 0 0.056595225461397676 0.02692280266221176 0 0.056218886905151019 0.026584679166813611 0 0.056964005365657405 0.025974968386955573 0 0.05736725881987214 0.026696285209485797 0 0.05730321958156407 0.026402629135284694 0 0.056550483410151273 0.027779307867519851 0 0.056595225461397676 0.02692280266221176 0 0.05736725881987214 0.026696285209485797 0 0.055989887144749367 0.026817812494457704 0 0.056419377009764196 0.026660088054957003 0 0.057204860618708726 0.026296582103131953 0 0.056964005365657405 0.025974968386955573 0 0.05730321958156407 0.026402629135284694 0 0.057161309264481777 0.026351696014488363 0 0.057204860618708726 0.026296582103131953 0 0.05730321958156407 0.026402629135284694 0 0.057161309264481777 0.026351696014488363 0 0.05730321958156407 0.026402629135284694 0 0.057445199892613714 0.026473110744057848 0 0.064486759110843811 0.021698737368103561 0 0.063540178664197894 0.021753276376124335 0 0.05736725881987214 0.026696285209485797 0 0.05730321958156407 0.026402629135284694 0 0.057445199892613714 0.026473110744057848 0 0.05736725881987214 0.026696285209485797 0 0.05825607219227507 0.026277366992236213 0 0.057584962426787338 0.026157010561591969 0 0.05736725881987214 0.026696285209485797 0 0.057445199892613714 0.026473110744057848 0 0.05825607219227507 0.026277366992236213 0 0.063540178664197894 0.021753276376124335 0 0.062362209749790586 0.020831462782540933 0 0.070197448881729615 0.019598081191899493 0 0.066334316549408023 0.018588222641500757 0 0.069288998143952937 0.018783673196031886 0 0.066334316549408023 0.018588222641500757 0 0.06569289584110044 0.017136313025671136 0 0.069288998143952937 0.018783673196031886 0 0.062362209749790586 0.020831462782540933 0 0.061243028912560324 0.019176170541846869 0 0.066334316549408023 0.018588222641500757 0 0.06569289584110044 0.017136313025671136 0 0.06247176654040236 0.01601848925778996 0 0.05825607219227507 0.026277366992236213 0 0.058242278363635651 0.025078244763526242 0 0.057584962426787338 0.026157010561591969 0 0.05825607219227507 0.026277366992236213 0 0.058242278363635651 0.025078244763526242 0 0.059408875511941975 0.023761667309557713 0 0.058242278363635651 0.025078244763526242 0 0.057584962426787338 0.026157010561591969 0 0.057191199809156032 0.025095227212884447 0 0.057584962426787338 0.026157010561591969 0 0.056892671712222627 0.026083281170208927 0 0.057191199809156032 0.025095227212884447 0 0.056892671712222627 0.026083281170208927 0 0.057191199809156032 0.025095227212884447 0 0.055921883254418499 0.026114920968114984 0 0.056892671712222627 0.026083281170208927 0 0.055921883254418499 0.026114920968114984 0 0.056850850285426503 0.026713719735768773 0 0.057191199809156032 0.025095227212884447 0 0.05589720486605948 0.02505901389617882 0 0.055921883254418499 0.026114920968114984 0 0.05589720486605948 0.02505901389617882 0 0.054982765141710702 0.026050585449237138 0 0.055921883254418499 0.026114920968114984 0 0.054181669630800358 0.026474582882530247 0 0.054982765141710702 0.026050585449237138 0 0.054285581806277704 0.025431276772407481 0 0.05589720486605948 0.02505901389617882 0 0.054982765141710702 0.026050585449237138 0 0.054285581806277704 0.025431276772407481 0 0.054181669630800358 0.026474582882530247 0 0.054982765141710702 0.026050585449237138 0 0.055144895919145634 0.026756806312205068 0 0.054982765141710702 0.026050585449237138 0 0.055921883254418499 0.026114920968114984 0 0.055144895919145634 0.026756806312205068 0 0.054010890044934805 0.027597675345607798 0 0.054790353002452365 0.027425440241021636 0 0.055144895919145634 0.026756806312205068 0 0.05464571892983397 0.027691879324876999 0 0.056850850285426503 0.026713719735768773 0 0.056595225461397676 0.02692280266221176 0 0.056218886905151019 0.026584679166813611 0 0.056850850285426503 0.026713719735768773 0 0.055921883254418499 0.026114920968114984 0 0.055144895919145634 0.026756806312205068 0 0.056850850285426503 0.026713719735768773 0 0.054181669630800358 0.026474582882530247 0 0.055144895919145634 0.026756806312205068 0 0.05464571892983397 0.027691879324876999 0 0.056595225461397676 0.02692280266221176 0 0.05736725881987214 0.026696285209485797 0 0.056850850285426503 0.026713719735768773 0 0.05736725881987214 0.026696285209485797 0 0.057584962426787338 0.026157010561591969 0 0.056850850285426503 0.026713719735768773 0 0.057584962426787338 0.026157010561591969 0 0.056892671712222627 0.026083281170208927 0 0.056850850285426503 0.026713719735768773 0 0.072982977829232243 0.019620128866481935 0 0.071906288604555432 0.018825594960799507 0 0.072210139368650256 0.019369142312567134 0 0.074723706904304257 0.017596876488020892 0 0.07438153504047687 0.017091169539825285 0 0.077351496349161025 0.016191925768412187 0 0.076328952608966896 0.014161355454450488 0 0.076699251815479319 0.014839068732587828 0 0.071906288604555432 0.018825594960799507 0 0.072210139368650256 0.019369142312567134 0 0.0721422077506092 0.019111869727967749 0 0.072982977829232243 0.019620128866481935 0 0.072210139368650256 0.019369142312567134 0 0.072443592827972011 0.019135868867300624 0 0.072210139368650256 0.019369142312567134 0 0.0721422077506092 0.019111869727967749 0 0.071440638056479461 0.019184647028473847 0 0.0721422077506092 0.019111869727967749 0 0.071110015972463539 0.019415488497887788 0 0.071440638056479461 0.019184647028473847 0 0.072780061017690148 0.018435933444240209 0 0.0721422077506092 0.019111869727967749 0 0.071110015972463539 0.019415488497887788 0 0.072780061017690148 0.018435933444240209 0 0.070197448881729615 0.019598081191899493 0 0.071110015972463539 0.019415488497887788 0 0.070197448881729615 0.019598081191899493 0 0.071110015972463539 0.019415488497887788 0 0.069288998143952937 0.018783673196031886 0 0.071110015972463539 0.019415488497887788 0 0.069288998143952937 0.018783673196031886 0 0.071440638056479461 0.019184647028473847 0 0.069288998143952937 0.018783673196031886 0 0.069130942983135144 0.017103932127483939 0 0.070927457263441587 0.017919374265590152 0 0.06569289584110044 0.017136313025671136 0 0.069288998143952937 0.018783673196031886 0 0.069130942983135144 0.017103932127483939 0 0.067688790501613472 0.018874459147527761 0 0.06656617008316694 0.019364726159170783 0 0.069130942983135144 0.017103932127483939 0 0.070927457263441587 0.017919374265590152 0 0.070850663088813673 0.015865044512295305 0 0.071437083041925073 0.018502682814776038 0 0.072631005030356147 0.01794543637902633 0 0.07141392147956914 0.017627876664247286 0 0.071437083041925073 0.018502682814776038 0 0.071440638056479461 0.019184647028473847 0 0.072443592827972011 0.019135868867300624 0 0.067688790501613472 0.018874459147527761 0 0.068051198134514782 0.018952361973100917 0 0.069288998143952937 0.018783673196031886 0 0.070927457263441587 0.017919374265590152 0 0.071440638056479461 0.019184647028473847 0 0.072210139368650256 0.019369142312567134 0 0.071440638056479461 0.019184647028473847 0 0.072443592827972011 0.019135868867300624 0 0.072443592827972011 0.019135868867300624 0 0.072631005030356147 0.01794543637902633 0 0.07361286331840998 0.019182643000910413 0 0.071437083041925073 0.018502682814776038 0 0.072443592827972011 0.019135868867300624 0 0.072631005030356147 0.01794543637902633 0 0.069728402918754664 0.020268197127439078 0 0.071424603597149514 0.020663896326872714 0 0.067920544921113712 0.023607492100594367 0 0.071019058985619693 0.023589163923119834 0 0.070869779372392361 0.022481445459154852 0 0.072631005030356147 0.01794543637902633 0 0.07361286331840998 0.019182643000910413 0 0.074716133034081908 0.018633684632523129 0 0.072982977829232243 0.019620128866481935 0 0.072443592827972011 0.019135868867300624 0 0.07361286331840998 0.019182643000910413 0 0.06834061676768674 0.021624280336318278 0 0.069513570268647532 0.022061231884101532 0 0.070109685886140541 0.021352117581615079 0 0.06834061676768674 0.021624280336318278 0 0.069513570268647532 0.022061231884101532 0 0.067192770857864806 0.022187446873077228 0 0.067920544921113712 0.023607492100594367 0 0.069513570268647532 0.022061231884101532 0 0.070869779372392361 0.022481445459154852 0 0.067920544921113712 0.023607492100594367 0 0.069513570268647532 0.022061231884101532 0 0.067192770857864806 0.022187446873077228 0 0.067920544921113712 0.023607492100594367 0 0.067192770857864806 0.022187446873077228 0 0.066114439182902357 0.023224690193680359 0 0.069728402918754664 0.020268197127439078 0 0.06656617008316694 0.019364726159170783 0 0.067192770857864806 0.022187446873077228 0 0.065948350722241311 0.021853657432848464 0 0.066114439182902357 0.023224690193680359 0 0.063734082595772068 0.019688010848435505 0 0.06656617008316694 0.019364726159170783 0 0.057133421222566504 0.017937130705350718 0 0.056959351905136513 0.014903171540097324 0 0.05895477906383445 0.015361081018111754 0 0.06569289584110044 0.017136313025671136 0 0.069130942983135144 0.017103932127483939 0 0.067852347892000356 0.015275227579194738 0 0.06656617008316694 0.019364726159170783 0 0.064483455827693534 0.017973813429756277 0 0.069130942983135144 0.017103932127483939 0 0.070850663088813673 0.015865044512295305 0 0.067852347892000356 0.015275227579194738 0 0.057133421222566504 0.017937130705350718 0 0.05895477906383445 0.015361081018111754 0 0.059441684944270649 0.017386196237428556 0 0.057133421222566504 0.017937130705350718 0 0.059441684944270649 0.017386196237428556 0 0.058857088967712669 0.018776730522612962 0 0.057133421222566504 0.017937130705350718 0 0.057446285866347306 0.0198377699304974 0 0.058857088967712669 0.018776730522612962 0 0.057446285866347306 0.0198377699304974 0 0.058857088967712669 0.018776730522612962 0 0.058198569545510656 0.020155419670763973 0 0.063734082595772068 0.019688010848435505 0 0.062173055599486 0.020067298896420026 0 0.065948350722241311 0.021853657432848464 0 0.065020236931827624 0.021538052230259595 0 0.066476620511036311 0.021392308602678614 0 0.06834061676768674 0.021624280336318278 0 0.067192770857864806 0.022187446873077228 0 0.066476620511036311 0.021392308602678614 0 0.067192770857864806 0.022187446873077228 0 0.065948350722241311 0.021853657432848464 0 0.066476620511036311 0.021392308602678614 0 0.065020236931827624 0.021538052230259595 0 0.066476620511036311 0.021392308602678614 0 0.064347055572205547 0.021646419610852445 0 0.066476620511036311 0.021392308602678614 0 0.066519960546914891 0.021306313726685584 0 0.068567364049746254 0.021024727188852507 0 0.06834061676768674 0.021624280336318278 0 0.066476620511036311 0.021392308602678614 0 0.068567364049746254 0.021024727188852507 0 0.058608805215035288 0.022013762409758879 0 0.056553515360948985 0.021404980007702627 0 0.060101044133257717 0.019084358477988141 0 0.058608805215035288 0.022013762409758879 0 0.056553515360948985 0.021404980007702627 0 0.058084228452828873 0.02364360465834759 0 0.053441828602321828 0.024558216707556157 0 0.053882125588456259 0.023623345014920763 0 0.055110156454368002 0.023918887469929768 0 0.053882125588456259 0.023623345014920763 0 0.055110156454368002 0.023918887469929768 0 0.054855370717424773 0.02282529109259953 0 0.05589720486605948 0.02505901389617882 0 0.054285581806277704 0.025431276772407481 0 0.056553515360948985 0.021404980007702627 0 0.053441828602321828 0.024558216707556157 0 0.054285581806277704 0.025431276772407481 0 0.055110156454368002 0.023918887469929768 0 0.055430977764246839 0.023939889844995146 0 0.056218385497187273 0.022746793012551857 0 0.05589720486605948 0.02505901389617882 0 0.056553515360948985 0.021404980007702627 0 0.056965215370925186 0.023865080290506036 0 0.057191199809156032 0.025095227212884447 0 0.05589720486605948 0.02505901389617882 0 0.056965215370925186 0.023865080290506036 0 0.057191199809156032 0.025095227212884447 0 0.056965215370925186 0.023865080290506036 0 0.058084228452828873 0.02364360465834759 0 0.056553515360948985 0.021404980007702627 0 0.056965215370925186 0.023865080290506036 0 0.058084228452828873 0.02364360465834759 0 0.058242278363635651 0.025078244763526242 0 0.057191199809156032 0.025095227212884447 0 0.058084228452828873 0.02364360465834759 0 0.058242278363635651 0.025078244763526242 0 0.058084228452828873 0.02364360465834759 0 0.059408875511941975 0.023761667309557713 0 0.058608805215035288 0.022013762409758879 0 0.058084228452828873 0.02364360465834759 0 0.059408875511941975 0.023761667309557713 0 0.05895477906383445 0.015361081018111754 0 0.062419742350073699 0.015908211599494709 0 0.059441684944270649 0.017386196237428556 0 0.06569289584110044 0.017136313025671136 0 0.067852347892000356 0.015275227579194738 0 0.062419742350073699 0.015908211599494709 0 0.064483455827693534 0.017973813429756277 0 0.063966064069409592 0.017616585520583612 0 0.06569289584110044 0.017136313025671136 0 0.06247176654040236 0.01601848925778996 0 0.062419742350073699 0.015908211599494709 0 0.059441684944270649 0.017386196237428556 0 0.060751291905973136 0.017835546420365358 0 0.058857088967712669 0.018776730522612962 0 0.062419742350073699 0.015908211599494709 0 0.059441684944270649 0.017386196237428556 0 0.060751291905973136 0.017835546420365358 0 0.058608805215035288 0.022013762409758879 0 0.059408875511941975 0.023761667309557713 0 0.060101044133257717 0.019084358477988141 0 0.06247176654040236 0.01601848925778996 0 0.060751291905973136 0.017835546420365358 0 0.060101044133257717 0.019084358477988141 0 0.06247176654040236 0.01601848925778996 0 0.062419742350073699 0.015908211599494709 0 0.060751291905973136 0.017835546420365358 0 0.061243028912560324 0.019176170541846869 0 0.060769002498616748 0.018414415983115735 0 0.060751291905973136 0.017835546420365358 0 0.05971152974603474 0.018842921114569464 0 0.060101044133257717 0.019084358477988141 0 0.05971152974603474 0.018842921114569464 0 0.06009829048705792 0.018362549056760564 0 0.060101044133257717 0.019084358477988141 0 0.060751291905973136 0.017835546420365358 0 0.05971152974603474 0.018842921114569464 0 0.058857088967712669 0.018776730522612962 0 0.05971152974603474 0.018842921114569464 0 0.058257521040671209 0.02022594857629784 0 0.058198569545510656 0.020155419670763973 0 0.05971152974603474 0.018842921114569464 0 0.058857088967712669 0.018776730522612962 0 0.058198569545510656 0.020155419670763973 0 0.05971152974603474 0.018842921114569464 0 0.06009829048705792 0.018362549056760564 0 0.058257521040671209 0.02022594857629784 0 0.056585470210770816 0.02221129506712758 0 0.056788884916742458 0.020534908661039984 0 0.058257521040671209 0.02022594857629784 0 0.057520687738878189 0.020920579643144869 0 0.057981411123716971 0.020280301793837319 0 0.056153668966636941 0.021492487723370399 0 0.056585470210770816 0.02221129506712758 0 0.056788884916742458 0.020534908661039984 0 0.05566690004298061 0.021181905416379977 0 0.056153668966636941 0.021492487723370399 0 0.056788884916742458 0.020534908661039984 0 0.05566690004298061 0.021181905416379977 0 0.055470697505347888 0.020432913582046311 0 0.056788884916742458 0.020534908661039984 0 0.056153668966636941 0.021492487723370399 0 0.056585470210770816 0.02221129506712758 0 0.055580797755917136 0.022036579774696727 0 0.05566690004298061 0.021181905416379977 0 0.056153668966636941 0.021492487723370399 0 0.055580797755917136 0.022036579774696727 0 0.056218385497187273 0.022746793012551857 0 0.057520687738878189 0.020920579643144869 0 0.056585470210770816 0.02221129506712758 0 0.055580797755917136 0.022036579774696727 0 0.054855370717424773 0.02282529109259953 0 0.055110156454368002 0.023918887469929768 0 0.056585470210770816 0.02221129506712758 0 0.054855370717424773 0.02282529109259953 0 0.056553515360948985 0.021404980007702627 0 0.06009829048705792 0.018362549056760564 0 0.060101044133257717 0.019084358477988141 0 0.053364784685738548 0.022819625695027247 0 0.054855370717424773 0.02282529109259953 0 0.054462070322191178 0.022165797588546834 0 0.053364784685738548 0.022819625695027247 0 0.053882125588456259 0.023623345014920763 0 0.054855370717424773 0.02282529109259953 0 0.055580797755917136 0.022036579774696727 0 0.054855370717424773 0.02282529109259953 0 0.054462070322191178 0.022165797588546834 0 0.055580797755917136 0.022036579774696727 0 0.054462070322191178 0.022165797588546834 0 0.054978031487241549 0.021579368788496586 0 0.053378863455268086 0.02202508088746271 0 0.054462070322191178 0.022165797588546834 0 0.054077264164121751 0.021410584439767767 0 0.054462070322191178 0.022165797588546834 0 0.054077264164121751 0.021410584439767767 0 0.054978031487241549 0.021579368788496586 0 0.054077264164121751 0.021410584439767767 0 0.054978031487241549 0.021579368788496586 0 0.054826063473604449 0.020989791441983919 0 0.05566690004298061 0.021181905416379977 0 0.055580797755917136 0.022036579774696727 0 0.054978031487241549 0.021579368788496586 0 0.05566690004298061 0.021181905416379977 0 0.054826063473604449 0.020989791441983919 0 0.055470697505347888 0.020432913582046311 0 0.05566690004298061 0.021181905416379977 0 0.054978031487241549 0.021579368788496586 0 0.054826063473604449 0.020989791441983919 0 0.053989831863863254 0.020808089722568264 0 0.054077264164121751 0.021410584439767767 0 0.054826063473604449 0.020989791441983919 0 0.053989831863863254 0.020808089722568264 0 0.054826063473604449 0.020989791441983919 0 0.054545025747135649 0.020350098257227008 0 0.054545025747135649 0.020350098257227008 0 0.054335011341838185 0.019809112398935031 0 0.05360855374590421 0.020266696691285578 0 0.054545025747135649 0.020350098257227008 0 0.055030708017393883 0.01990384801379597 0 0.054335011341838185 0.019809112398935031 0 0.054545025747135649 0.020350098257227008 0 0.055470697505347888 0.020432913582046311 0 0.055030708017393883 0.01990384801379597 0 0.054826063473604449 0.020989791441983919 0 0.054545025747135649 0.020350098257227008 0 0.055470697505347888 0.020432913582046311 0 0.055030708017393883 0.01990384801379597 0 0.054792942252194207 0.019195537443856135 0 0.055876812131255373 0.019760455121204522 0 0.055470697505347888 0.020432913582046311 0 0.055030708017393883 0.01990384801379597 0 0.055876812131255373 0.019760455121204522 0 0.055030708017393883 0.01990384801379597 0 0.054335011341838185 0.019809112398935031 0 0.054792942252194207 0.019195537443856135 0 0.054792942252194207 0.019195537443856135 0 0.055945221651928299 0.018947177620583924 0 0.054748289267437134 0.018541973866376384 0 0.054792942252194207 0.019195537443856135 0 0.055876812131255373 0.019760455121204522 0 0.055945221651928299 0.018947177620583924 0 0.055876812131255373 0.019760455121204522 0 0.056981839945769136 0.019767228526043731 0 0.055945221651928299 0.018947177620583924 0 0.056981839945769136 0.019767228526043731 0 0.056613350654319557 0.019721297726859995 0 0.055945221651928299 0.018947177620583924 0 0.055876812131255373 0.019760455121204522 0 0.056788884916742458 0.020534908661039984 0 0.056981839945769136 0.019767228526043731 0 0.055470697505347888 0.020432913582046311 0 0.055876812131255373 0.019760455121204522 0 0.056788884916742458 0.020534908661039984 0 0.056788884916742458 0.020534908661039984 0 0.058257521040671209 0.02022594857629784 0 0.056981839945769136 0.019767228526043731 0 0.058257521040671209 0.02022594857629784 0 0.058198569545510656 0.020155419670763973 0 0.057505304446547549 0.02051827815112307 0 0.058257521040671209 0.02022594857629784 0 0.057505304446547549 0.02051827815112307 0 0.056981839945769136 0.019767228526043731 0 0.057505304446547549 0.02051827815112307 0 0.056981839945769136 0.019767228526043731 0 0.056613350654319557 0.019721297726859995 0 0.056613350654319557 0.019721297726859995 0 0.056450458868823036 0.020205059619437256 0 0.056102059019925286 0.019385712396739446 0 0.057505304446547549 0.02051827815112307 0 0.056613350654319557 0.019721297726859995 0 0.056450458868823036 0.020205059619437256 0 0.057505304446547549 0.02051827815112307 0 0.056450458868823036 0.020205059619437256 0 0.05644436612142284 0.020729212554536584 0 0.056450458868823036 0.020205059619437256 0 0.05644436612142284 0.020729212554536584 0 0.055658902172787961 0.020423494772280542 0 0.056450458868823036 0.020205059619437256 0 0.056102059019925286 0.019385712396739446 0 0.055658902172787961 0.020423494772280542 0 0.056102059019925286 0.019385712396739446 0 0.05630802806505357 0.020181814923914285 0 0.055658902172787961 0.020423494772280542 0 0.056102059019925286 0.019385712396739446 0 0.056509151961265547 0.019440780992090064 0 0.05630802806505357 0.020181814923914285 0 0.056102059019925286 0.019385712396739446 0 0.056509151961265547 0.019440780992090064 0 0.055642544689304095 0.018154371479253369 0 0.055945221651928299 0.018947177620583924 0 0.055642544689304095 0.018154371479253369 0 0.054748289267437134 0.018541973866376384 0 0.056102059019925286 0.019385712396739446 0 0.055945221651928299 0.018947177620583924 0 0.055642544689304095 0.018154371479253369 0 0.056613350654319557 0.019721297726859995 0 0.056102059019925286 0.019385712396739446 0 0.055945221651928299 0.018947177620583924 0 0.065361242774526443 0.021587738440132415 0 0.064347055572205547 0.021646419610852445 0 0.06278856301070701 0.021759100910259351 0 0.065361242774526443 0.021587738440132415 0 0.066519960546914891 0.021306313726685584 0 0.064347055572205547 0.021646419610852445 0 0.066476620511036311 0.021392308602678614 0 0.066519960546914891 0.021306313726685584 0 0.064347055572205547 0.021646419610852445 0 0.064347055572205547 0.021646419610852445 0 0.06280292063759027 0.021842432076373954 0 0.06278856301070701 0.021759100910259351 0 0.061197907625618039 0.020157395356332746 0 0.060775122707392035 0.020067309747633225 0 0.065020236931827624 0.021538052230259595 0 0.064347055572205547 0.021646419610852445 0 0.06280292063759027 0.021842432076373954 0 0.062173055599486 0.020067298896420026 0 0.061197907625618039 0.020157395356332746 0 0.057446285866347306 0.0198377699304974 0 0.058198569545510656 0.020155419670763973 0 0.057888679018749403 0.020679211016836372 0 0.057505304446547549 0.02051827815112307 0 0.057888679018749403 0.020679211016836372 0 0.058795021621414083 0.021230945302184306 0 0.058198569545510656 0.020155419670763973 0 0.057505304446547549 0.02051827815112307 0 0.057888679018749403 0.020679211016836372 0 0.057505304446547549 0.02051827815112307 0 0.05644436612142284 0.020729212554536584 0 0.058795021621414083 0.021230945302184306 0 0.05644436612142284 0.020729212554536584 0 0.058795021621414083 0.021230945302184306 0 0.057529945057945432 0.02107701101145738 0 0.058795021621414083 0.021230945302184306 0 0.061017203491329684 0.021337298770104013 0 0.057529945057945432 0.02107701101145738 0 0.06280292063759027 0.021842432076373954 0 0.058795021621414083 0.021230945302184306 0 0.06278856301070701 0.021759100910259351 0 0.058795021621414083 0.021230945302184306 0 0.06278856301070701 0.021759100910259351 0 0.061017203491329684 0.021337298770104013 0 0.061017203491329684 0.021337298770104013 0 0.058780509512987744 0.021192605867546167 0 0.057529945057945432 0.02107701101145738 0 0.061017203491329684 0.021337298770104013 0 0.062003027712924874 0.021185413618968814 0 0.060111029678892917 0.021147596679433001 0 0.061017203491329684 0.021337298770104013 0 0.062003027712924874 0.021185413618968814 0 0.063678147840839278 0.021727713796670722 0 0.06278856301070701 0.021759100910259351 0 0.061017203491329684 0.021337298770104013 0 0.063678147840839278 0.021727713796670722 0 0.065361242774526443 0.021587738440132415 0 0.06278856301070701 0.021759100910259351 0 0.063678147840839278 0.021727713796670722 0 0.060421899946556799 0.020430735852193554 0 0.060338350022025637 0.020987172499612454 0 0.059866053638328684 0.019812570926446959 0 0.053304069140185581 0.024787701084364924 0 0.051499246722696006 0.027973029046461984 0 0.060421899946556799 0.020430735852193554 0 0.060338350022025637 0.020987172499612454 0 0.061037891242843374 0.021028570726590336 0 0.062003027712924874 0.021185413618968814 0 0.060338350022025637 0.020987172499612454 0 0.061037891242843374 0.021028570726590336 0 0.062003027712924874 0.021185413618968814 0 0.060111029678892917 0.021147596679433001 0 0.060338350022025637 0.020987172499612454 0 0.061017203491329684 0.021337298770104013 0 0.060111029678892917 0.021147596679433001 0 0.058780509512987744 0.021192605867546167 0 0.060111029678892917 0.021147596679433001 0 0.060338350022025637 0.020987172499612454 0 0.057797405603462478 0.02132474216461519 0 0.060111029678892917 0.021147596679433001 0 0.058780509512987744 0.021192605867546167 0 0.057797405603462478 0.02132474216461519 0 0.060338350022025637 0.020987172499612454 0 0.057797405603462478 0.02132474216461519 0 0.057344449410589048 0.021069486992914083 0 0.058780509512987744 0.021192605867546167 0 0.057797405603462478 0.02132474216461519 0 0.055988811610971335 0.021503204196501091 0 0.057797405603462478 0.02132474216461519 0 0.055988811610971335 0.021503204196501091 0 0.054457202048338919 0.022132273467755419 0 0.058780509512987744 0.021192605867546167 0 0.055988811610971335 0.021503204196501091 0 0.057529945057945432 0.02107701101145738 0 0.05644436612142284 0.020729212554536584 0 0.057529945057945432 0.02107701101145738 0 0.055009400685723457 0.021334665043618271 0 0.055988811610971335 0.021503204196501091 0 0.057529945057945432 0.02107701101145738 0 0.055009400685723457 0.021334665043618271 0 0.055988811610971335 0.021503204196501091 0 0.055009400685723457 0.021334665043618271 0 0.052959627117716367 0.02232882514393655 0 0.055988811610971335 0.021503204196501091 0 0.054457202048338919 0.022132273467755419 0 0.052959627117716367 0.02232882514393655 0 0.049044978523439399 0.023778112230326828 0 0.054457202048338919 0.022132273467755419 0 0.052959627117716367 0.02232882514393655 0 0.047868589114732185 0.028455438977557222 0 0.04646515904474699 0.030292374830652568 0 0.049044978523439399 0.023778112230326828 0 0.054457202048338919 0.022132273467755419 0 0.054543599769058163 0.020035667721159858 0 0.057797405603462478 0.02132474216461519 0 0.054457202048338919 0.022132273467755419 0 0.057344449410589048 0.021069486992914083 0 0.051499246722696006 0.027973029046461984 0 0.04646515904474699 0.030292374830652568 0 0.04940574828370764 0.030058581240124779 0 0.048750206035386788 0.02822848959056198 0 0.048068870347812369 0.028425166984047817 0 0.051499246722696006 0.027973029046461984 0 0.044775331804780875 0.032967851239645948 0 0.053479669685119094 0.03334898185013626 0 0.053181432191399779 0.034031108672591091 0 0.053829843778736196 0.034429744285118004 0 0.054457202048338919 0.022132273467755419 0 0.057344449410589048 0.021069486992914083 0 0.054543599769058163 0.020035667721159858 0 0.053181432191399779 0.034031108672591091 0 0.052518073061832773 0.033624383383143365 0 0.05284259962006474 0.034751230221943062 0 0.053479669685119094 0.03334898185013626 0 0.053181432191399779 0.034031108672591091 0 0.052518073061832773 0.033624383383143365 0 0.052992800773505704 0.03271203284448785 0 0.053479669685119094 0.03334898185013626 0 0.052518073061832773 0.033624383383143365 0 0.055114760222432807 0.026847595316768696 0 0.051499246722696006 0.027973029046461984 0 0.056075021685985237 0.021530413083231167 0 0.058512957223515863 0.02332318663870088 0 0.05791373313916718 0.020867180629821264 0 0.056509151961265547 0.019440780992090064 0 0.05630802806505357 0.020181814923914285 0 0.05791373313916718 0.020867180629821264 0 0.056075021685985237 0.021530413083231167 0 0.05630802806505357 0.020181814923914285 0 0.05791373313916718 0.020867180629821264 0 0.056075021685985237 0.021530413083231167 0 0.05630802806505357 0.020181814923914285 0 0.055658902172787961 0.020423494772280542 0 0.05644436612142284 0.020729212554536584 0 0.055009400685723457 0.021334665043618271 0 0.055658902172787961 0.020423494772280542 0 0.055009400685723457 0.021334665043618271 0 0.055658902172787961 0.020423494772280542 0 0.054611464639401038 0.021546457826487498 0 0.055009400685723457 0.021334665043618271 0 0.054611464639401038 0.021546457826487498 0 0.052959627117716367 0.02232882514393655 0 0.056075021685985237 0.021530413083231167 0 0.054611464639401038 0.021546457826487498 0 0.054077146232718025 0.022990048893584889 0 0.056075021685985237 0.021530413083231167 0 0.055658902172787961 0.020423494772280542 0 0.054611464639401038 0.021546457826487498 0 0.054611464639401038 0.021546457826487498 0 0.054077146232718025 0.022990048893584889 0 0.052959627117716367 0.02232882514393655 0 0.054077146232718025 0.022990048893584889 0 0.052959627117716367 0.02232882514393655 0 0.051910716913444635 0.024164490062691762 0 0.049044978523439399 0.023778112230326828 0 0.052959627117716367 0.02232882514393655 0 0.051910716913444635 0.024164490062691762 0 0.049044978523439399 0.023778112230326828 0 0.051910716913444635 0.024164490062691762 0 0.050395113936005327 0.028188839601850972 0 0.054077146232718025 0.022990048893584889 0 0.053293252926138311 0.026876113884299897 0 0.056354461143489812 0.025142991299609146 0 0.051910716913444635 0.024164490062691762 0 0.053293252926138311 0.026876113884299897 0 0.050395113936005327 0.028188839601850972 0 0.054077146232718025 0.022990048893584889 0 0.051910716913444635 0.024164490062691762 0 0.053293252926138311 0.026876113884299897 0 0.053293252926138311 0.026876113884299897 0 0.055369364613452883 0.028041900597202019 0 0.056354461143489812 0.025142991299609146 0 0.055369364613452883 0.028041900597202019 0 0.056354461143489812 0.025142991299609146 0 0.057706084356008928 0.027957662147883238 0 0.056075021685985237 0.021530413083231167 0 0.054077146232718025 0.022990048893584889 0 0.056354461143489812 0.025142991299609146 0 0.056075021685985237 0.021530413083231167 0 0.056354461143489812 0.025142991299609146 0 0.058512957223515863 0.02332318663870088 0 0.049767648232360955 0.029719029218640874 0 0.051415842767125436 0.034508898012730126 0 0.056354461143489812 0.025142991299609146 0 0.058512957223515863 0.02332318663870088 0 0.058751567233853427 0.027794681299318572 0 0.056354461143489812 0.025142991299609146 0 0.057706084356008928 0.027957662147883238 0 0.058751567233853427 0.027794681299318572 0 0.040542134344046583 0.034065024726446992 0 0.040640895084310631 0.034187990146122581 0 0.040500640199851994 0.034311447697119794 0 0.040640895084310631 0.034187990146122581 0 0.040639516101512625 0.034322497186586073 0 0.040500640199851994 0.034311447697119794 0 0.040640895084310631 0.034187990146122581 0 0.040787667092298779 0.034347242809225798 0 0.040639516101512625 0.034322497186586073 0 0.040640895084310631 0.034187990146122581 0 0.04076610978887351 0.034137910251649008 0 0.040787667092298779 0.034347242809225798 0 0.04076610978887351 0.034137910251649008 0 0.040669098239895715 0.033990328717307734 0 0.040814926054031565 0.034000919704598044 0 0.040640895084310631 0.034187990146122581 0 0.04076610978887351 0.034137910251649008 0 0.040669098239895715 0.033990328717307734 0 0.040542134344046583 0.034065024726446992 0 0.040640895084310631 0.034187990146122581 0 0.040669098239895715 0.033990328717307734 0 0.040669098239895715 0.033990328717307734 0 0.040637390474514395 0.03380287881163252 0 0.040617740239987134 0.033822128112960467 0 0.040542134344046583 0.034065024726446992 0 0.040669098239895715 0.033990328717307734 0 0.040617740239987134 0.033822128112960467 0 0.049767648232360955 0.029719029218640874 0 0.047998116121109775 0.026388795521945525 0 0.040637390474514395 0.03380287881163252 0 0.040441816931782545 0.033652496845445766 0 0.040470573890157319 0.033394438744942578 0 0.036265654261815397 0.037377380675019473 0 0.035847929011144641 0.039231803962632275 0 0.040669098239895715 0.033990328717307734 0 0.040637390474514395 0.03380287881163252 0 0.040814926054031565 0.034000919704598044 0 0.040637390474514395 0.03380287881163252 0 0.040434135917536911 0.033868264818283589 0 0.040685900479822068 0.033875647971529706 0 0.047998116121109775 0.026388795521945525 0 0.046205861743972315 0.019901329582196221 0 0.040637390474514395 0.03380287881163252 0 0.040617740239987134 0.033822128112960467 0 0.040685900479822068 0.033875647971529706 0 0.0392880962197978 0.02094130317708974 0 0.031747548682086887 0.027029258794713223 0 0.035798403086591275 -0.0025286433713777108 0 0.044875128908153143 -0.0030039438994858979 0 0.035999194112816109 -0.0094375550410908567 0 0.040434135917536911 0.033868264818283589 0 0.040216363080071364 0.033517572056090308 0 0.040441816931782545 0.033652496845445766 0 0.040637390474514395 0.03380287881163252 0 0.040434135917536911 0.033868264818283589 0 0.040441816931782545 0.033652496845445766 0 0.040434135917536911 0.033868264818283589 0 0.040216363080071364 0.033517572056090308 0 0.039874957043063743 0.033567600298838998 0 0.040216363080071364 0.033517572056090308 0 0.040441816931782545 0.033652496845445766 0 0.040470573890157319 0.033394438744942578 0 0.040216363080071364 0.033517572056090308 0 0.040470573890157319 0.033394438744942578 0 0.040081860804045501 0.033182029542699172 0 0.040216363080071364 0.033517572056090308 0 0.039874957043063743 0.033567600298838998 0 0.040081860804045501 0.033182029542699172 0 0.031747548682086887 0.027029258794713223 0 0.032926273740555879 0.028291736831112885 0 0.039568543290241523 0.033940433538396847 0 0.039784791052935829 0.033185100519358565 0 0.039188598166471397 0.033669710322272707 0 0.029209646244736494 0.043481371545607932 0 0.027134713224782218 0.034229834567568632 0 0.039568543290241523 0.033940433538396847 0 0.039784791052935829 0.033185100519358565 0 0.040081860804045501 0.033182029542699172 0 0.013079986249105235 0.064883407364653381 0 0.017985184733717553 0.064185254068835809 0 0.02024608893984902 0.058105600698012315 0 0.039784791052935829 0.033185100519358565 0 0.040081860804045501 0.033182029542699172 0 0.040250633480624444 0.03286712104663557 0 0.013079986249105235 0.064883407364653381 0 0.006258155434034917 0.071300352750262891 0 0.013262995237825339 0.071638424907394915 0 0.029209646244736494 0.043481371545607932 0 0.035590096203458453 0.048104756801049003 0 0.013079986249105235 0.064883407364653381 0 0.016358398439456152 0.068903306607984507 0 0.017985184733717553 0.064185254068835809 0 0.013079986249105235 0.064883407364653381 0 0.016358398439456152 0.068903306607984507 0 0.013262995237825339 0.071638424907394915 0 0.04076610978887351 0.034137910251649008 0 0.040814926054031565 0.034000919704598044 0 0.040924408784666286 0.034223540348269244 0 0.040470573890157319 0.033394438744942578 0 0.040081860804045501 0.033182029542699172 0 0.040250633480624444 0.03286712104663557 0 0.035847929011144641 0.039231803962632275 0 0.035590096203458453 0.048104756801049003 0 0.035590096203458453 0.048104756801049003 0 0.046425941313469977 0.044664524485191426 0 0.036434185572421195 0.051990300936966674 0 0.035553577286089946 0.050126304347503058 0 0.038409244375317335 0.050215268179000641 0 0.04076610978887351 0.034137910251649008 0 0.040924408784666286 0.034223540348269244 0 0.040787667092298779 0.034347242809225798 0 0.035590096203458453 0.048104756801049003 0 0.035411177399122765 0.056025143463531879 0 0.016259734948943137 0.072457132854367085 0 0.013262995237825339 0.071638424907394915 0 0.015510642135625179 0.075546611429060828 0 0.016358398439456152 0.068903306607984507 0 0.016259734948943137 0.072457132854367085 0 0.018803709062902445 0.071500032706742822 0 0.016358398439456152 0.068903306607984507 0 0.016259734948943137 0.072457132854367085 0 0.013262995237825339 0.071638424907394915 0 0.006258155434034917 0.071300352750262891 0 0.013262995237825339 0.071638424907394915 0 0.011949363522128947 0.075086282362252774 0 0.011949363522128947 0.075086282362252774 0 0.013954685992678413 0.077321187908371655 0 0.010224522989721211 0.079489237750661107 0 0.006258155434034917 0.071300352750262891 0 0.011949363522128947 0.075086282362252774 0 0.010224522989721211 0.079489237750661107 0 0.013954685992678413 0.077321187908371655 0 0.016730660180752338 0.07742920918099816 0 0.01487713342350132 0.079549885044505705 0 0.013262995237825339 0.071638424907394915 0 0.011949363522128947 0.075086282362252774 0 0.015510642135625179 0.075546611429060828 0 0.011949363522128947 0.075086282362252774 0 0.013954685992678413 0.077321187908371655 0 0.015510642135625179 0.075546611429060828 0 0.016259734948943137 0.072457132854367085 0 0.015510642135625179 0.075546611429060828 0 0.017425895090985733 0.074603297487669307 0 0.015510642135625179 0.075546611429060828 0 0.017113984669294171 0.076207654414795087 0 0.017425895090985733 0.074603297487669307 0 0.015510642135625179 0.075546611429060828 0 0.017113984669294171 0.076207654414795087 0 0.016730660180752338 0.07742920918099816 0 0.013954685992678413 0.077321187908371655 0 0.015510642135625179 0.075546611429060828 0 0.016730660180752338 0.07742920918099816 0 0.018767022203698698 0.077204302414096093 0 0.017425895090985733 0.074603297487669307 0 0.018803709062902445 0.071500032706742822 0 0.018767022203698698 0.077204302414096093 0 0.02104501905874517 0.07668093990768228 0 0.020283276700098815 0.073588708254730101 0 0.018767022203698698 0.077204302414096093 0 0.018803709062902445 0.071500032706742822 0 0.022835418167253499 0.067705196348237934 0 0.013035990365261993 0.064693148698456382 0 0.013388154563194251 0.06023953283441412 0 0.016730660180752338 0.07742920918099816 0 0.018767022203698698 0.077204302414096093 0 0.018569098723863239 0.079161434646378967 0 0.017113984669294171 0.076207654414795087 0 0.016730660180752338 0.07742920918099816 0 0.018767022203698698 0.077204302414096093 0 0.017113984669294171 0.076207654414795087 0 0.018767022203698698 0.077204302414096093 0 0.017425895090985733 0.074603297487669307 0 0.016259734948943137 0.072457132854367085 0 0.017425895090985733 0.074603297487669307 0 0.018803709062902445 0.071500032706742822 0 0.02104501905874517 0.07668093990768228 0 0.023360809420176359 0.075570527489710854 0 0.020283276700098815 0.073588708254730101 0 0.018767022203698698 0.077204302414096093 0 0.02104501905874517 0.07668093990768228 0 0.020315735981976835 0.0784169497751082 0 0.02104501905874517 0.07668093990768228 0 0.022373685952195303 0.078630243381791615 0 0.020315735981976835 0.0784169497751082 0 0.023360809420176359 0.075570527489710854 0 0.027852493800311136 0.073847190414677424 0 0.025087883614818427 0.078336482083174869 0 0.023360809420176359 0.075570527489710854 0 0.025087883614818427 0.078336482083174869 0 0.022373685952195303 0.078630243381791615 0 0.02104501905874517 0.07668093990768228 0 0.023360809420176359 0.075570527489710854 0 0.022373685952195303 0.078630243381791615 0 0.023612982573878779 0.072419922757907318 0 0.027852493800311136 0.073847190414677424 0 0.023507199115245642 0.068410845441163395 0 0.023360809420176359 0.075570527489710854 0 0.023612982573878779 0.072419922757907318 0 0.027852493800311136 0.073847190414677424 0 0.023612982573878779 0.072419922757907318 0 0.020283276700098815 0.073588708254730101 0 0.021792039830776096 0.069608162421217007 0 0.023360809420176359 0.075570527489710854 0 0.023612982573878779 0.072419922757907318 0 0.020283276700098815 0.073588708254730101 0 0.013388154563194251 0.06023953283441412 0 0.01390353387338013 0.047254031488775723 0 0.017985184733717553 0.064185254068835809 0 0.022835418167253499 0.067705196348237934 0 0.026510794503601724 0.058267344029540619 0 0.014137351328396178 0.0494949020968658 0 0.01390353387338013 0.047254031488775723 0 0.016358398439456152 0.068903306607984507 0 0.017985184733717553 0.064185254068835809 0 0.019152746492689932 0.067989719944557964 0 0.017985184733717553 0.064185254068835809 0 0.019152746492689932 0.067989719944557964 0 0.022835418167253499 0.067705196348237934 0 0.016358398439456152 0.068903306607984507 0 0.018803709062902445 0.071500032706742822 0 0.019152746492689932 0.067989719944557964 0 0.018803709062902445 0.071500032706742822 0 0.019152746492689932 0.067989719944557964 0 0.022835418167253499 0.067705196348237934 0 -0.02922787481816547 0.035288828331622314 0 -0.03148967579846864 0.035554932346828258 0 -0.031558183078187634 0.032656793430481008 0 0.027852493800311136 0.073847190414677424 0 0.028208600949456358 0.080720617785006332 0 0.032208890299187942 0.07934794727820324 0 -0.03148967579846864 0.035554932346828258 0 -0.031558183078187634 0.032656793430481008 0 -0.032729278933761381 0.034224446490443081 0 0.00048340082417227398 0.057127054657596918 0 -0.0044370822682039636 0.081448288586513595 0 0.027852493800311136 0.073847190414677424 0 0.028208600949456358 0.080720617785006332 0 0.025087883614818427 0.078336482083174869 0 0.00048340082417227398 0.057127054657596918 0 0.013155249726146826 0.043166829244746949 0 -0.03148967579846864 0.035554932346828258 0 -0.030733124012911395 0.037622445658441472 0 -0.032320879774001485 0.037566325954433918 0 -0.02922787481816547 0.035288828331622314 0 -0.03148967579846864 0.035554932346828258 0 -0.030733124012911395 0.037622445658441472 0 -0.030733124012911395 0.037622445658441472 0 -0.031590604479491337 0.039383984302174276 0 -0.032320879774001485 0.037566325954433918 0 -0.030733124012911395 0.037622445658441472 0 -0.030300970264553726 0.038892067822544001 0 -0.029002933763532694 0.038311305976608118 0 -0.030733124012911395 0.037622445658441472 0 -0.030300970264553726 0.038892067822544001 0 -0.031590604479491337 0.039383984302174276 0 -0.02922787481816547 0.035288828331622314 0 -0.029002933763532694 0.038311305976608118 0 -0.026715275585909661 0.038143776274698143 0 -0.02922787481816547 0.035288828331622314 0 -0.030733124012911395 0.037622445658441472 0 -0.029002933763532694 0.038311305976608118 0 -0.029002933763532694 0.038311305976608118 0 -0.029880402058622236 0.04026350269924097 0 -0.026715275585909661 0.038143776274698143 0 0.014131014691002921 0.018682950002021487 0 0.016408822194290254 0.018286755095940469 0 0.014592430777373173 0.019954243489604256 0 0.017459860296264371 0.03328439801970421 0 0.019273921995134176 0.027627702555408473 0 -0.0016115257690793939 0.037173213958276281 0 0.013155249726146826 0.043166829244746949 0 -0.030300970264553726 0.038892067822544001 0 -0.029002933763532694 0.038311305976608118 0 -0.029880402058622236 0.04026350269924097 0 -0.029880402058622236 0.04026350269924097 0 -0.031590604479491337 0.039383984302174276 0 -0.033116967619837935 0.042481451769380209 0 -0.030300970264553726 0.038892067822544001 0 -0.029880402058622236 0.04026350269924097 0 -0.031590604479491337 0.039383984302174276 0 0.027134713224782218 0.034229834567568632 0 0.016688525989851922 0.03663974161294925 0 0.017531550099747946 0.019149263399821845 0 0.016828989486950437 0.01974055625845297 0 0.017288920504563331 0.019781623655130903 0 0.02024608893984902 0.058105600698012315 0 0.026646468479810698 0.058099116607052879 0 0.027638668439598918 0.051297650803708031 0 0.01798037781030315 0.019473320684085235 0 0.017531550099747946 0.019149263399821845 0 0.017288920504563331 0.019781623655130903 0 0.017985184733717553 0.064185254068835809 0 0.02024608893984902 0.058105600698012315 0 0.026646468479810698 0.058099116607052879 0 0.031747548682086887 0.027029258794713223 0 0.027134713224782218 0.034229834567568632 0 0.023612982573878779 0.072419922757907318 0 0.021792039830776096 0.069608162421217007 0 0.023507199115245642 0.068410845441163395 0 0.01390353387338013 0.047254031488775723 0 0.013155249726146826 0.043166829244746949 0 0.026646468479810698 0.058099116607052879 0 0.028758604053933622 0.052672596816848272 0 0.027638668439598918 0.051297650803708031 0 0.016317473761575513 0.017369250965609106 0 0.016625664042763159 0.01774637686131952 0 0.016408822194290254 0.018286755095940469 0 0.01390353387338013 0.047254031488775723 0 0.015493653138456243 0.038888550405348492 0 0.019801947598171023 0.042992629202753874 0 0.01555862025168041 0.045897066363272197 0 0.017641711480593476 0.048451581238697035 0 0.013155249726146826 0.043166829244746949 0 0.015493653138456243 0.038888550405348492 0 0.015493653138456243 0.038888550405348492 0 0.016688525989851922 0.03663974161294925 0 0.017459860296264371 0.03328439801970421 0 0.018183962624460748 0.024935495225297376 0 0.016804457926110825 0.019708956309006397 0 0.016547837611717436 0.019917864500836428 0 0.016958317985692875 0.019895910881955758 0 0.016547837611717436 0.019917864500836428 0 0.01680461355601039 0.020336477621928899 0 0.016958317985692875 0.019895910881955758 0 0.016688525989851922 0.03663974161294925 0 0.016523533487179672 0.036318442478137272 0 0.014131014691002921 0.018682950002021487 0 0.016317473761575513 0.017369250965609106 0 0.016408822194290254 0.018286755095940469 0 0.016547837611717436 0.019917864500836428 0 0.01680461355601039 0.020336477621928899 0 0.016520537569012398 0.020795347852998837 0 0.014062322754510989 0.031270386522747794 0 0.016118576151498778 0.033793827383135799 0 0.011371487557764692 0.038078315428392955 0 0.015493653138456243 0.038888550405348492 0 0.017459860296264371 0.03328439801970421 0 0.016688525989851922 0.03663974161294925 0 0.017459860296264371 0.03328439801970421 0 0.031747548682086887 0.027029258794713223 0 0.02832442295012871 0.016401064321606366 0 0.017288920504563331 0.019781623655130903 0 0.016958317985692875 0.019895910881955758 0 0.017158967835408288 0.020668503292450055 0 0.01798037781030315 0.019473320684085235 0 0.017288920504563331 0.019781623655130903 0 0.017158967835408288 0.020668503292450055 0 0.035798403086591275 -0.0025286433713777108 0 0.035999194112816109 -0.0094375550410908567 0 0.030117450264814244 -0.00028960687550890672 0 0.01680461355601039 0.020336477621928899 0 0.016958317985692875 0.019895910881955758 0 0.017158967835408288 0.020668503292450055 0 0.016828989486950437 0.01974055625845297 0 0.017288920504563331 0.019781623655130903 0 0.016958317985692875 0.019895910881955758 0 0.033891522879354367 0.0027457164872357913 0 0.030117450264814244 -0.00028960687550890672 0 0.030825845781803328 0.0067446986548988898 0 0.035798403086591275 -0.0025286433713777108 0 0.033891522879354367 0.0027457164872357913 0 0.030117450264814244 -0.00028960687550890672 0 0.016520537569012398 0.020795347852998837 0 0.015936034646825643 0.021098551342969729 0 0.016189859950359913 0.022115997816641825 0 0.01680461355601039 0.020336477621928899 0 0.017158967835408288 0.020668503292450055 0 0.016520537569012398 0.020795347852998837 0 0.017158967835408288 0.020668503292450055 0 0.016520537569012398 0.020795347852998837 0 0.016189859950359913 0.022115997816641825 0 0.016547837611717436 0.019917864500836428 0 0.016520537569012398 0.020795347852998837 0 0.015936034646825643 0.021098551342969729 0 0.02832442295012871 0.016401064321606366 0 0.023083941034076495 0.017619982855770547 0 0.024496647103114659 0.0088687442816164277 0 0.030825845781803328 0.0067446986548988898 0 0.028484970210827142 0.011337459137384974 0 0.030117450264814244 -0.00028960687550890672 0 0.024496647103114659 0.0088687442816164277 0 0.030825845781803328 0.0067446986548988898 0 0.030825845781803328 0.0067446986548988898 0 0.032689195067899371 0.011455506442038259 0 0.028484970210827142 0.011337459137384974 0 0.030825845781803328 0.0067446986548988898 0 0.032689195067899371 0.011455506442038259 0 0.036510824433222948 0.0074160843080539511 0 0.033891522879354367 0.0027457164872357913 0 0.030825845781803328 0.0067446986548988898 0 0.036510824433222948 0.0074160843080539511 0 0.014592430777373173 0.019954243489604256 0 0.013356302532929137 0.021493063661195421 0 0.011319874924564282 0.020157754410435633 0 -0.0016115257690793939 0.037173213958276281 0 -0.0086545227485739784 0.034782541376124854 0 0.014131014691002921 0.018682950002021487 0 0.014592430777373173 0.019954243489604256 0 0.011319874924564282 0.020157754410435633 0 0.01670484734271285 0.018173519055625736 0 0.015838362747725359 0.020278767063268359 0 0.014592430777373173 0.019954243489604256 0 0.015838362747725359 0.020278767063268359 0 0.014592430777373173 0.019954243489604256 0 0.014695287370946676 0.021134736101147425 0 0.018183962624460748 0.024935495225297376 0 0.017858592988140128 0.023862181541650415 0 0.015936034646825643 0.021098551342969729 0 0.016189859950359913 0.022115997816641825 0 0.015081096495765806 0.022605025119477339 0 0.015838362747725359 0.020278767063268359 0 0.014695287370946676 0.021134736101147425 0 0.015081096495765806 0.022605025119477339 0 0.014695287370946676 0.021134736101147425 0 0.013356302532929137 0.021493063661195421 0 0.015081096495765806 0.022605025119477339 0 0.014592430777373173 0.019954243489604256 0 0.014695287370946676 0.021134736101147425 0 0.013356302532929137 0.021493063661195421 0 0.013356302532929137 0.021493063661195421 0 0.013850826956166337 0.02328960012556024 0 0.012362517325635446 0.022630473707764762 0 0.013356302532929137 0.021493063661195421 0 0.013850826956166337 0.02328960012556024 0 0.015081096495765806 0.022605025119477339 0 0.013850826956166337 0.02328960012556024 0 0.013101887628457994 0.024682928361705558 0 0.012362517325635446 0.022630473707764762 0 0.013850826956166337 0.02328960012556024 0 0.014946107703418785 0.024216408418314756 0 0.013101887628457994 0.024682928361705558 0 0.023083941034076495 0.017619982855770547 0 0.018980578334715233 0.021331797798156429 0 0.013850826956166337 0.02328960012556024 0 0.015081096495765806 0.022605025119477339 0 0.014946107703418785 0.024216408418314756 0 0.016189859950359913 0.022115997816641825 0 0.015081096495765806 0.022605025119477339 0 0.014946107703418785 0.024216408418314756 0 0.02009903957403093 0.024488102085453343 0 0.019369284857718869 0.01753150114087253 0 0.025717219588299076 0.020754030482672443 0 0.017030195510720679 0.023788505986255672 0 0.018980578334715233 0.021331797798156429 0 0.014574930982377558 0.026419581073824517 0 0.014946107703418785 0.024216408418314756 0 0.013101887628457994 0.024682928361705558 0 0.029067001145166891 0.016065689761287315 0 0.034174526614194511 0.016088790563862587 0 0.032689195067899371 0.011455506442038259 0 0.029067001145166891 0.016065689761287315 0 0.032689195067899371 0.011455506442038259 0 0.028484970210827142 0.011337459137384974 0 0.024496647103114659 0.0088687442816164277 0 0.019369284857718869 0.01753150114087253 0 0.025413864075222906 0.014953368402185811 0 0.024496647103114659 0.0088687442816164277 0 0.028484970210827142 0.011337459137384974 0 0.025413864075222906 0.014953368402185811 0 0.029067001145166891 0.016065689761287315 0 0.028484970210827142 0.011337459137384974 0 0.025413864075222906 0.014953368402185811 0 0.029067001145166891 0.016065689761287315 0 0.025413864075222906 0.014953368402185811 0 0.025717219588299076 0.020754030482672443 0 0.019369284857718869 0.01753150114087253 0 0.025413864075222906 0.014953368402185811 0 0.025717219588299076 0.020754030482672443 0 0.030955390596465848 0.025422261181998234 0 0.025717219588299076 0.020754030482672443 0 0.031260464952990036 0.019717740508429612 0 0.030955390596465848 0.025422261181998234 0 0.031260464952990036 0.019717740508429612 0 0.036535585046667339 0.019936213294896865 0 0.029067001145166891 0.016065689761287315 0 0.025717219588299076 0.020754030482672443 0 0.031260464952990036 0.019717740508429612 0 0.029067001145166891 0.016065689761287315 0 0.034174526614194511 0.016088790563862587 0 0.031260464952990036 0.019717740508429612 0 0.034174526614194511 0.016088790563862587 0 0.031260464952990036 0.019717740508429612 0 0.036535585046667339 0.019936213294896865 0 0.038284075845347688 0.024087968138184181 0 0.036535585046667339 0.019936213294896865 0 0.040129322793964826 0.018923545699731051 0 0.036535585046667339 0.019936213294896865 0 0.040129322793964826 0.018923545699731051 0 0.038451124350396784 0.016101007208078062 0 0.034174526614194511 0.016088790563862587 0 0.036535585046667339 0.019936213294896865 0 0.038451124350396784 0.016101007208078062 0 0.034174526614194511 0.016088790563862587 0 0.038451124350396784 0.016101007208078062 0 0.037058995082551491 0.012415905195441456 0 0.038451124350396784 0.016101007208078062 0 0.039995667545079577 0.013572283688141111 0 0.042685550645557339 0.015258061550568594 0 0.040129322793964826 0.018923545699731051 0 0.038451124350396784 0.016101007208078062 0 0.042685550645557339 0.015258061550568594 0 0.038451124350396784 0.016101007208078062 0 0.039995667545079577 0.013572283688141111 0 0.037058995082551491 0.012415905195441456 0 0.039995667545079577 0.013572283688141111 0 0.037058995082551491 0.012415905195441456 0 0.041566030910355718 0.010795846628327046 0 0.034174526614194511 0.016088790563862587 0 0.032689195067899371 0.011455506442038259 0 0.037058995082551491 0.012415905195441456 0 0.044959995915567659 0.013319713844867513 0 0.048241469610957474 0.014333724965030463 0 0.046698446743124539 0.010379713778407912 0 0.044959995915567659 0.013319713844867513 0 0.041566030910355718 0.010795846628327046 0 0.046698446743124539 0.010379713778407912 0 0.039995667545079577 0.013572283688141111 0 0.042685550645557339 0.015258061550568594 0 0.041566030910355718 0.010795846628327046 0 0.044959995915567659 0.013319713844867513 0 0.042685550645557339 0.015258061550568594 0 0.041566030910355718 0.010795846628327046 0 0.042685550645557339 0.015258061550568594 0 0.045808887977820782 0.015911967366022343 0 0.04483226651960432 0.017992225874873754 0 0.044959995915567659 0.013319713844867513 0 0.042685550645557339 0.015258061550568594 0 0.045808887977820782 0.015911967366022343 0 0.045808887977820782 0.015911967366022343 0 0.047885587446968643 0.017118599441376871 0 0.048241469610957474 0.014333724965030463 0 0.044959995915567659 0.013319713844867513 0 0.045808887977820782 0.015911967366022343 0 0.048241469610957474 0.014333724965030463 0 0.045808887977820782 0.015911967366022343 0 0.04483226651960432 0.017992225874873754 0 0.047885587446968643 0.017118599441376871 0 0.04483226651960432 0.017992225874873754 0 0.049738237704171379 0.0192104142086293 0 0.047885587446968643 0.017118599441376871 0 0.04483226651960432 0.017992225874873754 0 0.042657395545362277 0.021116249809800577 0 0.049738237704171379 0.0192104142086293 0 0.042181318256190342 0.027469341841138431 0 0.042657395545362277 0.021116249809800577 0 0.049738237704171379 0.0192104142086293 0 0.040129322793964826 0.018923545699731051 0 0.04483226651960432 0.017992225874873754 0 0.042657395545362277 0.021116249809800577 0 0.040129322793964826 0.018923545699731051 0 0.042685550645557339 0.015258061550568594 0 0.04483226651960432 0.017992225874873754 0 0.038284075845347688 0.024087968138184181 0 0.040129322793964826 0.018923545699731051 0 0.042657395545362277 0.021116249809800577 0 0.051027621094605576 0.020789405756813088 0 0.051760381590768047 0.019980052807264777 0 0.049738237704171379 0.0192104142086293 0 0.051760381590768047 0.019980052807264777 0 0.05138239373289686 0.018944153160321324 0 0.049738237704171379 0.0192104142086293 0 0.051760381590768047 0.019980052807264777 0 0.052111114434614275 0.019267348067539155 0 0.05138239373289686 0.018944153160321324 0 0.052111114434614275 0.019267348067539155 0 0.05138239373289686 0.018944153160321324 0 0.052147619821020216 0.018354662473517285 0 0.05138239373289686 0.018944153160321324 0 0.049738237704171379 0.0192104142086293 0 0.050721408247443624 0.017832720694317124 0 0.049738237704171379 0.0192104142086293 0 0.047885587446968643 0.017118599441376871 0 0.050721408247443624 0.017832720694317124 0 0.05360855374590421 0.020266696691285578 0 0.052750203555989507 0.019771935187475189 0 0.053607631966216839 0.019422190925338777 0 0.053989831863863254 0.020808089722568264 0 0.054545025747135649 0.020350098257227008 0 0.05360855374590421 0.020266696691285578 0 0.052037731159719512 0.020978947220884579 0 0.051760381590768047 0.019980052807264777 0 0.052758353869119298 0.020402026615307427 0 0.05360855374590421 0.020266696691285578 0 0.052758353869119298 0.020402026615307427 0 0.052750203555989507 0.019771935187475189 0 0.051760381590768047 0.019980052807264777 0 0.052758353869119298 0.020402026615307427 0 0.052750203555989507 0.019771935187475189 0 0.052805437257541651 0.019071847142409351 0 0.053607631966216839 0.019422190925338777 0 0.053438162385193902 0.018642298094212417 0 0.052111114434614275 0.019267348067539155 0 0.052750203555989507 0.019771935187475189 0 0.052805437257541651 0.019071847142409351 0 0.051760381590768047 0.019980052807264777 0 0.052111114434614275 0.019267348067539155 0 0.052750203555989507 0.019771935187475189 0 0.052111114434614275 0.019267348067539155 0 0.052805437257541651 0.019071847142409351 0 0.052147619821020216 0.018354662473517285 0 0.052750203555989507 0.019771935187475189 0 0.052805437257541651 0.019071847142409351 0 0.053607631966216839 0.019422190925338777 0 0.054335011341838185 0.019809112398935031 0 0.054792942252194207 0.019195537443856135 0 0.053607631966216839 0.019422190925338777 0 0.054335011341838185 0.019809112398935031 0 0.05360855374590421 0.020266696691285578 0 0.053607631966216839 0.019422190925338777 0 0.053438162385193902 0.018642298094212417 0 0.054748289267437134 0.018541973866376384 0 0.052697415027328456 0.017863604279649649 0 0.054792942252194207 0.019195537443856135 0 0.053607631966216839 0.019422190925338777 0 0.053438162385193902 0.018642298094212417 0 0.054792942252194207 0.019195537443856135 0 0.053438162385193902 0.018642298094212417 0 0.054748289267437134 0.018541973866376384 0 0.052805437257541651 0.019071847142409351 0 0.053438162385193902 0.018642298094212417 0 0.052147619821020216 0.018354662473517285 0 0.053438162385193902 0.018642298094212417 0 0.052147619821020216 0.018354662473517285 0 0.052697415027328456 0.017863604279649649 0 0.048613614102856653 0.016770436296728204 0 0.048313604155409272 0.016675797675237081 0 0.050721408247443624 0.017832720694317124 0 0.052147619821020216 0.018354662473517285 0 0.052697415027328456 0.017863604279649649 0 0.050721408247443624 0.017832720694317124 0 0.048241469610957474 0.014333724965030463 0 0.052158197096221812 0.010106374343920184 0 0.047885587446968643 0.017118599441376871 0 0.050721408247443624 0.017832720694317124 0 0.048241469610957474 0.014333724965030463 0 0.05138239373289686 0.018944153160321324 0 0.050721408247443624 0.017832720694317124 0 0.052147619821020216 0.018354662473517285 0 0.048241469610957474 0.014333724965030463 0 0.052158197096221812 0.010106374343920184 0 0.046698446743124539 0.010379713778407912 0 0.048313604155409272 0.016675797675237081 0 0.046205861743972315 0.019901329582196221 0 0.052158197096221812 0.010106374343920184 0 0.04806314829708902 0.0052828212089851478 0 0.046698446743124539 0.010379713778407912 0 0.052158197096221812 0.010106374343920184 0 0.04806314829708902 0.0052828212089851478 0 0.053936130555226516 0.0034968808469660337 0 0.055642544689304095 0.018154371479253369 0 0.052697415027328456 0.017863604279649649 0 0.053504854681625663 0.016128222525209839 0 0.055642544689304095 0.018154371479253369 0 0.054748289267437134 0.018541973866376384 0 0.052697415027328456 0.017863604279649649 0 0.048739344163182395 0.020706504811700076 0 0.046205861743972315 0.019901329582196221 0 0.056509151961265547 0.019440780992090064 0 0.055642544689304095 0.018154371479253369 0 0.057663561790161147 0.019050311050810217 0 0.056509151961265547 0.019440780992090064 0 0.05791373313916718 0.020867180629821264 0 0.057663561790161147 0.019050311050810217 0 0.044875128908153143 -0.0030039438994858979 0 0.04806314829708902 0.0052828212089851478 0 0.053936130555226516 0.0034968808469660337 0 0.0392880962197978 0.02094130317708974 0 0.046205861743972315 0.019901329582196221 0 0.044875128908153143 -0.0030039438994858979 0 0.038103838851652992 0.0018998325068914274 0 0.042683384849255226 0.0055868063658340104 0 0.044875128908153143 -0.0030039438994858979 0 0.04806314829708902 0.0052828212089851478 0 0.042683384849255226 0.0055868063658340104 0 0.035798403086591275 -0.0025286433713777108 0 0.044875128908153143 -0.0030039438994858979 0 0.038103838851652992 0.0018998325068914274 0 0.035798403086591275 -0.0025286433713777108 0 0.033891522879354367 0.0027457164872357913 0 0.038103838851652992 0.0018998325068914274 0 0.033891522879354367 0.0027457164872357913 0 0.038103838851652992 0.0018998325068914274 0 0.036510824433222948 0.0074160843080539511 0 0.038103838851652992 0.0018998325068914274 0 0.036510824433222948 0.0074160843080539511 0 0.042683384849255226 0.0055868063658340104 0 0.032689195067899371 0.011455506442038259 0 0.037058995082551491 0.012415905195441456 0 0.036510824433222948 0.0074160843080539511 0 0.037058995082551491 0.012415905195441456 0 0.036510824433222948 0.0074160843080539511 0 0.041566030910355718 0.010795846628327046 0 0.036510824433222948 0.0074160843080539511 0 0.041566030910355718 0.010795846628327046 0 0.042683384849255226 0.0055868063658340104 0 0.041566030910355718 0.010795846628327046 0 0.046698446743124539 0.010379713778407912 0 0.042683384849255226 0.0055868063658340104 0 0.04806314829708902 0.0052828212089851478 0 0.046698446743124539 0.010379713778407912 0 0.042683384849255226 0.0055868063658340104 0 0.0851653551887772 0.017831842581941745 0 0.085057365038813865 0.019414213959324061 0 0.084676999657196578 0.019395284619168961 0 0.0851653551887772 0.017831842581941745 0 0.084676999657196578 0.019395284619168961 0 0.084599948361704091 0.018192734212415917 0 0.0851653551887772 0.017831842581941745 0 0.084996944623461287 0.018327838616494625 0 0.085000732592210776 0.013318858288690351 0 0.0851653551887772 0.017831842581941745 0 0.084996944623461287 0.018327838616494625 0 0.085057365038813865 0.019414213959324061 0 0.084996944623461287 0.018327838616494625 0 0.085141638485865201 0.020881960002341913 0 0.085057365038813865 0.019414213959324061 0 0.085141638485865201 0.020881960002341913 0 0.085057365038813865 0.019414213959324061 0 0.084634887204362824 0.020378189283826963 0 0.084996944623461287 0.018327838616494625 0 0.085141638485865201 0.020881960002341913 0 0.084999232952901682 0.023354439144770697 0 0.085057365038813865 0.019414213959324061 0 0.084676999657196578 0.019395284619168961 0 0.084634887204362824 0.020378189283826963 0 0.084676999657196578 0.019395284619168961 0 0.084519466756949824 0.0204682962705614 0 0.084634887204362824 0.020378189283826963 0 0.084676999657196578 0.019395284619168961 0 0.084422350078042538 0.020328576899252375 0 0.084166304885947493 0.018868293983087786 0 0.084676999657196578 0.019395284619168961 0 0.084422350078042538 0.020328576899252375 0 0.084519466756949824 0.0204682962705614 0 0.084422350078042538 0.020328576899252375 0 0.084166304885947493 0.018868293983087786 0 0.084414744112453366 0.020881605078074343 0 0.084166304885947493 0.018868293983087786 0 0.084599948361704091 0.018192734212415917 0 0.084061357788804622 0.017961567526510361 0 0.084676999657196578 0.019395284619168961 0 0.084166304885947493 0.018868293983087786 0 0.084599948361704091 0.018192734212415917 0 0.084061357788804622 0.017961567526510361 0 0.084325096406670866 0.017841582950732449 0 0.084869464697528305 0.016746306129445748 0 0.084599948361704091 0.018192734212415917 0 0.084061357788804622 0.017961567526510361 0 0.084869464697528305 0.016746306129445748 0 0.084061357788804622 0.017961567526510361 0 0.082838607215080268 0.018478407888778112 0 0.083358014311970152 0.018518964004869621 0 0.084166304885947493 0.018868293983087786 0 0.084061357788804622 0.017961567526510361 0 0.082838607215080268 0.018478407888778112 0 0.084166304885947493 0.018868293983087786 0 0.082838607215080268 0.018478407888778112 0 0.08136654127845111 0.017880481899774276 0 0.083358014311970152 0.018518964004869621 0 0.082655516622772415 0.019422108869163665 0 0.082076700789522172 0.018994523621967001 0 0.082838607215080268 0.018478407888778112 0 0.083358014311970152 0.018518964004869621 0 0.082076700789522172 0.018994523621967001 0 0.083358014311970152 0.018518964004869621 0 0.084325096406670866 0.017841582950732449 0 0.083719710029505956 0.018949392912063066 0 0.084061357788804622 0.017961567526510361 0 0.083358014311970152 0.018518964004869621 0 0.084325096406670866 0.017841582950732449 0 0.084325096406670866 0.017841582950732449 0 0.084869464697528305 0.016746306129445748 0 0.085103955605297502 0.017675264786774014 0 0.084325096406670866 0.017841582950732449 0 0.085103955605297502 0.017675264786774014 0 0.083719710029505956 0.018949392912063066 0 0.0851653551887772 0.017831842581941745 0 0.084599948361704091 0.018192734212415917 0 0.084869464697528305 0.016746306129445748 0 0.0851653551887772 0.017831842581941745 0 0.084869464697528305 0.016746306129445748 0 0.085000732592210776 0.013318858288690351 0 0.084999963571775597 0.013305476524790624 0 0.08500003516821579 0.0083583849493200201 0 0.087843901912228198 0.010467704333736179 0 0.084869464697528305 0.016746306129445748 0 0.085000732592210776 0.013318858288690351 0 0.085103955605297502 0.017675264786774014 0 0.084999749301908498 0.01330567347773148 0 0.085221601687313908 0.012865479096479565 0 0.08500003516821579 0.0083583849493200201 0 0.087843901912228198 0.010467704333736179 0 0.087852408053831196 0.0064501040076198951 0 0.085103955605297502 0.017675264786774014 0 0.084194691359695109 0.020004973083593249 0 0.083719710029505956 0.018949392912063066 0 0.085221601687313908 0.012865479096479565 0 0.085722490783224248 0.011075948111589858 0 0.087843901912228198 0.010467704333736179 0 0.087852408053831196 0.0064501040076198951 0 0.090762393582928785 0.0076111611594366253 0 0.087852408053831196 0.0064501040076198951 0 0.090275312765703455 0.004921256002703221 0 0.090762393582928785 0.0076111611594366253 0 0.08500003516821579 0.0083583849493200201 0 0.087852408053831196 0.0064501040076198951 0 0.084999588344139176 0.0034109294329547893 0 0.087852408053831196 0.0064501040076198951 0 0.084999588344139176 0.0034109294329547893 0 0.088095020422150463 0.003414923789000452 0 0.087852408053831196 0.0064501040076198951 0 0.090275312765703455 0.004921256002703221 0 0.088095020422150463 0.003414923789000452 0 0.090275312765703455 0.004921256002703221 0 0.088095020422150463 0.003414923789000452 0 0.090869951878660593 0.0023772720675232038 0 0.088095020422150463 0.003414923789000452 0 0.087491220625698793 -0.00019536360034639526 0 0.090869951878660593 0.0023772720675232038 0 0.086933954366247804 0.0036095487928316447 0 0.087233283504235273 0.0046181879663597008 0 0.088130344143798084 -0.00013758008272742804 0 0.087491220625698793 -0.00019536360034639526 0 0.088745649069446597 0.00058689046316545701 0 0.086929172013065562 -0.0010323893527513983 0 0.088130344143798084 -0.00013758008272742804 0 0.087491220625698793 -0.00019536360034639526 0 0.084999588344139176 0.0034109294329547893 0 0.088095020422150463 0.003414923789000452 0 0.087491220625698793 -0.00019536360034639526 0 0.084999362675600598 -0.0015380780821129224 0 0.086929172013065562 -0.0010323893527513983 0 0.084999588344139176 0.0034109294329547893 0 0.086929172013065562 -0.0010323893527513983 0 0.084999588344139176 0.0034109294329547893 0 0.087491220625698793 -0.00019536360034639526 0 0.089921389733805951 -0.00010862390133269867 0 0.089094863653206666 -0.00035874272955232377 0 0.089435228963040805 0.00029363631093022146 0 0.089921389733805951 -0.00010862390133269867 0 0.089435228963040805 0.00029363631093022146 0 0.0898312514529062 0.00057009422834422595 0 0.089094863653206666 -0.00035874272955232377 0 0.089435228963040805 0.00029363631093022146 0 0.088745649069446597 0.00058689046316545701 0 0.089094863653206666 -0.00035874272955232377 0 0.088130344143798084 -0.00013758008272742804 0 0.088745649069446597 0.00058689046316545701 0 0.089435228963040805 0.00029363631093022146 0 0.088745649069446597 0.00058689046316545701 0 0.089477441468174851 0.0010167461770285639 0 0.090275312765703455 0.004921256002703221 0 0.090869951878660593 0.0023772720675232038 0 0.093797502016683437 0.0046609588108665135 0 0.087233283504235273 0.0046181879663597008 0 0.086589505693404942 0.0067888585320983194 0 0.089435228963040805 0.00029363631093022146 0 0.089477441468174851 0.0010167461770285639 0 0.0898312514529062 0.00057009422834422595 0 0.089515398644335345 0.00087760471683636331 0 0.0898312514529062 0.00057009422834422595 0 0.089893174210737697 0.0011614043081212642 0 0.086589505693404942 0.0067888585320983194 0 0.08774459288769379 0.0054058516939221443 0 0.082921220833958476 0.021490879843763386 0 0.082873240517861921 0.020142576490653354 0 0.081920548681671868 0.020817464174271494 0 0.086589505693404942 0.0067888585320983194 0 0.086276933100714978 0.0098504364008888609 0 0.082873240517861921 0.020142576490653354 0 0.08192038423139443 0.020093995101256829 0 0.081920548681671868 0.020817464174271494 0 0.090275312765703455 0.004921256002703221 0 0.093797502016683437 0.0046609588108665135 0 0.090762393582928785 0.0076111611594366253 0 0.082921220833958476 0.021490879843763386 0 0.082873240517861921 0.020142576490653354 0 0.084194691359695109 0.020004973083593249 0 0.086589505693404942 0.0067888585320983194 0 0.085722490783224248 0.011075948111589858 0 0.082873240517861921 0.020142576490653354 0 0.084194691359695109 0.020004973083593249 0 0.083719710029505956 0.018949392912063066 0 0.082873240517861921 0.020142576490653354 0 0.082655516622772415 0.019422108869163665 0 0.08192038423139443 0.020093995101256829 0 0.082873240517861921 0.020142576490653354 0 0.083719710029505956 0.018949392912063066 0 0.082655516622772415 0.019422108869163665 0 0.083358014311970152 0.018518964004869621 0 0.083719710029505956 0.018949392912063066 0 0.082655516622772415 0.019422108869163665 0 0.082655516622772415 0.019422108869163665 0 0.081892483226348983 0.019564771006942604 0 0.082076700789522172 0.018994523621967001 0 0.082655516622772415 0.019422108869163665 0 0.081892483226348983 0.019564771006942604 0 0.08192038423139443 0.020093995101256829 0 0.081892483226348983 0.019564771006942604 0 0.081160003880923259 0.019942773782096343 0 0.080632721451870129 0.019266204624625898 0 0.081160003880923259 0.019942773782096343 0 0.080922431135616327 0.020282190416033231 0 0.08192038423139443 0.020093995101256829 0 0.085387250408092363 0.0131482877382293 0 0.085833030459768256 0.012493117172454328 0 0.081892483226348983 0.019564771006942604 0 0.081160003880923259 0.019942773782096343 0 0.08192038423139443 0.020093995101256829 0 0.077673495788890295 0.018913997016210257 0 0.078913962127682369 0.019559470087011449 0 0.078298658283256203 0.018617961224952174 0 0.078913962127682369 0.019559470087011449 0 0.078890328586006336 0.019305535662313633 0 0.079402755497102767 0.019370858199522167 0 0.081160003880923259 0.019942773782096343 0 0.078913962127682369 0.019559470087011449 0 0.080632721451870129 0.019266204624625898 0 0.085833030459768256 0.012493117172454328 0 0.085262223940338444 0.012808210685108066 0 0.081160003880923259 0.019942773782096343 0 0.080480421884624231 0.020869535853658906 0 0.078913962127682369 0.019559470087011449 0 0.078913962127682369 0.019559470087011449 0 0.078298658283256203 0.018617961224952174 0 0.078890328586006336 0.019305535662313633 0 0.077673495788890295 0.018913997016210257 0 0.077374353749354918 0.017453560208628528 0 0.078298658283256203 0.018617961224952174 0 0.090265261020831281 0.0014566336660829825 0 0.090232824223164684 0.0010908729835266107 0 0.090608630859120257 0.00092864568652548324 0 0.085833030459768256 0.012493117172454328 0 0.084712229504441142 0.0094104251994499566 0 0.080922431135616327 0.020282190416033231 0 0.08192038423139443 0.020093995101256829 0 0.081920548681671868 0.020817464174271494 0 0.085833030459768256 0.012493117172454328 0 0.086276933100714978 0.0098504364008888609 0 0.090265261020831281 0.0014566336660829825 0 0.090232824223164684 0.0010908729835266107 0 0.089893174210737697 0.0011614043081212642 0 0.090232824223164684 0.0010908729835266107 0 0.089893174210737697 0.0011614043081212642 0 0.090160427353508821 0.00081895054632881697 0 0.0898312514529062 0.00057009422834422595 0 0.090160427353508821 0.00081895054632881697 0 0.090356783684268471 0.0004328845668243872 0 0.0898312514529062 0.00057009422834422595 0 0.089893174210737697 0.0011614043081212642 0 0.090160427353508821 0.00081895054632881697 0 0.090608630859120257 0.00092864568652548324 0 0.090356783684268471 0.0004328845668243872 0 0.090912318625877411 0.00042329522204204503 0 0.090160427353508821 0.00081895054632881697 0 0.090608630859120257 0.00092864568652548324 0 0.090356783684268471 0.0004328845668243872 0 0.090232824223164684 0.0010908729835266107 0 0.090160427353508821 0.00081895054632881697 0 0.090608630859120257 0.00092864568652548324 0 0.090584975411021673 -3.2534678951286107e-05 0 0.090356783684268471 0.0004328845668243872 0 0.090912318625877411 0.00042329522204204503 0 0.089921389733805951 -0.00010862390133269867 0 0.0898312514529062 0.00057009422834422595 0 0.090356783684268471 0.0004328845668243872 0 0.089921389733805951 -0.00010862390133269867 0 0.090584975411021673 -3.2534678951286107e-05 0 0.090356783684268471 0.0004328845668243872 0 0.076905731422402757 0.012007079122581454 0 0.076714560750526503 0.015125072827540314 0 0.078406509203762728 0.013515691514404331 0 0.076714560750526503 0.015125072827540314 0 0.078451863783528919 0.016607916219004908 0 0.078406509203762728 0.013515691514404331 0 0.082256922397881238 0.0041171114285828633 0 0.083587246887674715 0.0068629944387002548 0 0.091193978559735114 -2.0837932909400803e-05 0 0.090584975411021673 -3.2534678951286107e-05 0 0.090912318625877411 0.00042329522204204503 0 0.084712229504441142 0.0094104251994499566 0 0.083587246887674715 0.0068629944387002548 0 0.077374353749354918 0.017453560208628528 0 0.076714560750526503 0.015125072827540314 0 0.077847946246595107 0.017220680877681416 0 0.076714560750526503 0.015125072827540314 0 0.077847946246595107 0.017220680877681416 0 0.078451863783528919 0.016607916219004908 0 0.078451863783528919 0.016607916219004908 0 0.078573072153283047 0.018655188988648597 0 0.079395887288492686 0.018882880182267674 0 0.077847946246595107 0.017220680877681416 0 0.078451863783528919 0.016607916219004908 0 0.078573072153283047 0.018655188988648597 0 0.077374353749354918 0.017453560208628528 0 0.077847946246595107 0.017220680877681416 0 0.078298658283256203 0.018617961224952174 0 0.077847946246595107 0.017220680877681416 0 0.078573072153283047 0.018655188988648597 0 0.078298658283256203 0.018617961224952174 0 0.078573072153283047 0.018655188988648597 0 0.078890328586006336 0.019305535662313633 0 0.079280677909372252 0.019622688429191577 0 0.078573072153283047 0.018655188988648597 0 0.078298658283256203 0.018617961224952174 0 0.078890328586006336 0.019305535662313633 0 0.078573072153283047 0.018655188988648597 0 0.079280677909372252 0.019622688429191577 0 0.079395887288492686 0.018882880182267674 0 0.079280677909372252 0.019622688429191577 0 0.080271165602890993 0.020214105198053854 0 0.079395887288492686 0.018882880182267674 0 0.079280677909372252 0.019622688429191577 0 0.080596978504786379 0.020809268397849242 0 0.080271165602890993 0.020214105198053854 0 0.082862573877951914 0.021550637852999856 0 0.081887655997435027 0.021100075480216685 0 0.080596978504786379 0.020809268397849242 0 0.079280677909372252 0.019622688429191577 0 0.079441205164977213 0.01928030078296452 0 0.080596978504786379 0.020809268397849242 0 0.081795087313905251 0.020011916774869073 0 0.081564711099069931 0.02015977840022808 0 0.079280677909372252 0.019622688429191577 0 0.079441205164977213 0.01928030078296452 0 0.079402755497102767 0.019370858199522167 0 0.078890328586006336 0.019305535662313633 0 0.079280677909372252 0.019622688429191577 0 0.079402755497102767 0.019370858199522167 0 0.078913962127682369 0.019559470087011449 0 0.079402755497102767 0.019370858199522167 0 0.080632721451870129 0.019266204624625898 0 0.079402755497102767 0.019370858199522167 0 0.080754703468056147 0.018885498452469042 0 0.080632721451870129 0.019266204624625898 0 0.082838607215080268 0.018478407888778112 0 0.080754703468056147 0.018885498452469042 0 0.082076700789522172 0.018994523621967001 0 0.081892483226348983 0.019564771006942604 0 0.082076700789522172 0.018994523621967001 0 0.080632721451870129 0.019266204624625898 0 0.080754703468056147 0.018885498452469042 0 0.082076700789522172 0.018994523621967001 0 0.080632721451870129 0.019266204624625898 0 0.082838607215080268 0.018478407888778112 0 0.080754703468056147 0.018885498452469042 0 0.08136654127845111 0.017880481899774276 0 0.079441205164977213 0.01928030078296452 0 0.079402755497102767 0.019370858199522167 0 0.080754703468056147 0.018885498452469042 0 0.081795087313905251 0.020011916774869073 0 0.082343313412390845 0.019694864860804431 0 0.079441205164977213 0.01928030078296452 0 0.080754703468056147 0.018885498452469042 0 0.08136654127845111 0.017880481899774276 0 0.082862573877951914 0.021550637852999856 0 0.08411903980106307 0.020715869595908355 0 0.083305164111005706 0.021099566179853285 0 0.084166304885947493 0.018868293983087786 0 0.08411903980106307 0.020715869595908355 0 0.084414744112453366 0.020881605078074343 0 0.082711130961515056 0.019531510841008938 0 0.082343313412390845 0.019694864860804431 0 0.08411903980106307 0.020715869595908355 0 0.084414744112453366 0.020881605078074343 0 0.083305164111005706 0.021099566179853285 0 0.083305164111005706 0.021099566179853285 0 0.082296654980524825 0.02125630945868295 0 0.083040099790639005 0.0217021418195718 0 0.082296654980524825 0.02125630945868295 0 0.081887655997435027 0.021100075480216685 0 0.081232400790956671 0.021099188385100817 0 0.083305164111005706 0.021099566179853285 0 0.082296654980524825 0.02125630945868295 0 0.081887655997435027 0.021100075480216685 0 0.081887655997435027 0.021100075480216685 0 0.081232400790956671 0.021099188385100817 0 0.080596978504786379 0.020809268397849242 0 0.082862573877951914 0.021550637852999856 0 0.083305164111005706 0.021099566179853285 0 0.081887655997435027 0.021100075480216685 0 0.081232400790956671 0.021099188385100817 0 0.080514242370186187 0.020828350855148333 0 0.080401859869573142 0.020850214347191958 0 0.081232400790956671 0.021099188385100817 0 0.080401859869573142 0.020850214347191958 0 0.080596978504786379 0.020809268397849242 0 0.082296654980524825 0.02125630945868295 0 0.081232400790956671 0.021099188385100817 0 0.081738657995392386 0.021330031422684533 0 0.081232400790956671 0.021099188385100817 0 0.080514242370186187 0.020828350855148333 0 0.081738657995392386 0.021330031422684533 0 0.080514242370186187 0.020828350855148333 0 0.078400310235686471 0.020397085286812212 0 0.079945737413924467 0.020347050999447426 0 0.080514242370186187 0.020828350855148333 0 0.079620754796054558 0.020739594343385456 0 0.078400310235686471 0.020397085286812212 0 0.079620754796054558 0.020739594343385456 0 0.0789609743874711 0.020882778598287272 0 0.078400310235686471 0.020397085286812212 0 0.080514242370186187 0.020828350855148333 0 0.079620754796054558 0.020739594343385456 0 0.080401859869573142 0.020850214347191958 0 0.0789609743874711 0.020882778598287272 0 0.080059014327495112 0.020596425944927912 0 0.080401859869573142 0.020850214347191958 0 0.079620754796054558 0.020739594343385456 0 0.0789609743874711 0.020882778598287272 0 0.080401859869573142 0.020850214347191958 0 0.0789609743874711 0.020882778598287272 0 0.079290766646122501 0.020621743746627952 0 0.077208512522270428 0.021091204987995514 0 0.0789609743874711 0.020882778598287272 0 0.079290766646122501 0.020621743746627952 0 0.080059014327495112 0.020596425944927912 0 0.079290766646122501 0.020621743746627952 0 0.080059014327495112 0.020596425944927912 0 0.080421575511067572 0.02005307003095028 0 0.080059014327495112 0.020596425944927912 0 0.080271165602890993 0.020214105198053854 0 0.080421575511067572 0.02005307003095028 0 0.080059014327495112 0.020596425944927912 0 0.080401859869573142 0.020850214347191958 0 0.080271165602890993 0.020214105198053854 0 0.080401859869573142 0.020850214347191958 0 0.080596978504786379 0.020809268397849242 0 0.080271165602890993 0.020214105198053854 0 0.080271165602890993 0.020214105198053854 0 0.080389628435076882 0.019290591781308319 0 0.079395887288492686 0.018882880182267674 0 0.080271165602890993 0.020214105198053854 0 0.080389628435076882 0.019290591781308319 0 0.080421575511067572 0.02005307003095028 0 0.080389628435076882 0.019290591781308319 0 0.080264052746232328 0.016483349190328699 0 0.081277859480092626 0.019182886331964591 0 0.080389628435076882 0.019290591781308319 0 0.081277859480092626 0.019182886331964591 0 0.080421575511067572 0.02005307003095028 0 0.080389628435076882 0.019290591781308319 0 0.079395887288492686 0.018882880182267674 0 0.080264052746232328 0.016483349190328699 0 0.078451863783528919 0.016607916219004908 0 0.080264052746232328 0.016483349190328699 0 0.078406509203762728 0.013515691514404331 0 0.078451863783528919 0.016607916219004908 0 0.079395887288492686 0.018882880182267674 0 0.080264052746232328 0.016483349190328699 0 0.080264052746232328 0.016483349190328699 0 0.082596392838617083 0.01650206624901587 0 0.081277859480092626 0.019182886331964591 0 0.080264052746232328 0.016483349190328699 0 0.08207232358555297 0.013888066297542081 0 0.082596392838617083 0.01650206624901587 0 0.080264052746232328 0.016483349190328699 0 0.08207232358555297 0.013888066297542081 0 0.080871020263767218 0.012651892803057565 0 0.08243605760995007 0.0089157996918809591 0 0.08207232358555297 0.013888066297542081 0 0.080871020263767218 0.012651892803057565 0 0.080264052746232328 0.016483349190328699 0 0.080871020263767218 0.012651892803057565 0 0.078406509203762728 0.013515691514404331 0 0.079960405188300249 0.0088640003124747357 0 0.080871020263767218 0.012651892803057565 0 0.078406509203762728 0.013515691514404331 0 0.079527974528049203 0.01451165756831157 0 0.07808869844659945 0.016611513219976851 0 0.07578541928624781 0.014922760390856805 0 0.074949955034881541 0.015158595437206627 0 0.075861756195042776 0.015536480881930761 0 0.075424534784490918 0.014414003432633628 0 0.07578541928624781 0.014922760390856805 0 0.074949955034881541 0.015158595437206627 0 0.079661338797760342 0.014542762330781323 0 0.079527974528049203 0.01451165756831157 0 0.08243605760995007 0.0089157996918809591 0 0.08207232358555297 0.013888066297542081 0 0.084599628129929202 0.01288875749511526 0 0.08207232358555297 0.013888066297542081 0 0.084599628129929202 0.01288875749511526 0 0.082596392838617083 0.01650206624901587 0 0.084599628129929202 0.01288875749511526 0 0.085441017800017102 0.013832410741932409 0 0.082596392838617083 0.01650206624901587 0 0.085441017800017102 0.013832410741932409 0 0.082137116114687173 0.01925757583549112 0 0.082596392838617083 0.01650206624901587 0 0.079527974528049203 0.01451165756831157 0 0.079864240532597996 0.015580675268630885 0 0.082137116114687173 0.01925757583549112 0 0.082596392838617083 0.01650206624901587 0 0.081277859480092626 0.019182886331964591 0 0.08221887365588576 0.02234351209907947 0 0.082137116114687173 0.01925757583549112 0 0.078599076023045694 0.021453002175366432 0 0.082137116114687173 0.01925757583549112 0 0.078263361933639683 0.02064819764019336 0 0.078599076023045694 0.021453002175366432 0 0.082137116114687173 0.01925757583549112 0 0.080024866885700402 0.020101143747143016 0 0.078263361933639683 0.02064819764019336 0 0.082137116114687173 0.01925757583549112 0 0.080024866885700402 0.020101143747143016 0 0.081277859480092626 0.019182886331964591 0 0.080024866885700402 0.020101143747143016 0 0.081277859480092626 0.019182886331964591 0 0.080421575511067572 0.02005307003095028 0 0.079290766646122501 0.020621743746627952 0 0.080024866885700402 0.020101143747143016 0 0.080421575511067572 0.02005307003095028 0 0.079290766646122501 0.020621743746627952 0 0.080024866885700402 0.020101143747143016 0 0.077789465341797467 0.020784451596878358 0 0.077789465341797467 0.020784451596878358 0 0.07625469680587825 0.021002556599904604 0 0.078263361933639683 0.02064819764019336 0 0.077789465341797467 0.020784451596878358 0 0.07625469680587825 0.021002556599904604 0 0.075259710681172418 0.021488117321550093 0 0.07625469680587825 0.021002556599904604 0 0.074894614186104019 0.021076371991813829 0 0.075259710681172418 0.021488117321550093 0 0.07625469680587825 0.021002556599904604 0 0.075966359147047607 0.02140784478876321 0 0.078263361933639683 0.02064819764019336 0 0.07625469680587825 0.021002556599904604 0 0.075966359147047607 0.02140784478876321 0 0.074894614186104019 0.021076371991813829 0 0.080024866885700402 0.020101143747143016 0 0.077789465341797467 0.020784451596878358 0 0.078263361933639683 0.02064819764019336 0 0.075966359147047607 0.02140784478876321 0 0.078263361933639683 0.02064819764019336 0 0.078599076023045694 0.021453002175366432 0 0.077238702032642728 0.017677364477632792 0 0.07808869844659945 0.016611513219976851 0 0.075572451644089281 0.016346355613086849 0 0.075861756195042776 0.015536480881930761 0 0.076304007436265156 0.015094231935115932 0 0.075572451644089281 0.016346355613086849 0 0.076304007436265156 0.015094231935115932 0 0.076005261151153178 0.015912099681174352 0 0.076288413325801885 0.014102296075914135 0 0.07578541928624781 0.014922760390856805 0 0.076304007436265156 0.015094231935115932 0 0.07578541928624781 0.014922760390856805 0 0.075861756195042776 0.015536480881930761 0 0.076304007436265156 0.015094231935115932 0 0.076699251815479319 0.014839068732587828 0 0.076704815909106411 0.014586028907108013 0 0.076005261151153178 0.015912099681174352 0 0.076304007436265156 0.015094231935115932 0 0.076704815909106411 0.014586028907108013 0 0.076005261151153178 0.015912099681174352 0 0.077351496349161025 0.016191925768412187 0 0.076699251815479319 0.014839068732587828 0 0.076005261151153178 0.015912099681174352 0 0.077351496349161025 0.016191925768412187 0 0.076005261151153178 0.015912099681174352 0 0.075311278335642912 0.019110744445279656 0 0.072982977829232243 0.019620128866481935 0 0.07361286331840998 0.019182643000910413 0 0.075115827167602928 0.019498667774702712 0 0.074723706904304257 0.017596876488020892 0 0.07479047326916631 0.018034639468798425 0 0.077351496349161025 0.016191925768412187 0 0.075311278335642912 0.019110744445279656 0 0.075115827167602928 0.019498667774702712 0 0.077238702032642728 0.017677364477632792 0 0.077106000541894787 0.018100407872710833 0 0.075572451644089281 0.016346355613086849 0 0.076005261151153178 0.015912099681174352 0 0.075311278335642912 0.019110744445279656 0 0.075966359147047607 0.02140784478876321 0 0.075311278335642912 0.019110744445279656 0 0.074894614186104019 0.021076371991813829 0 0.074894614186104019 0.021076371991813829 0 0.073232407986035697 0.02196232045081262 0 0.075259710681172418 0.021488117321550093 0 0.075311278335642912 0.019110744445279656 0 0.074894614186104019 0.021076371991813829 0 0.075115827167602928 0.019498667774702712 0 0.074894614186104019 0.021076371991813829 0 0.071019058985619693 0.023589163923119834 0 0.073232407986035697 0.02196232045081262 0 0.074894614186104019 0.021076371991813829 0 0.075115827167602928 0.019498667774702712 0 0.074716133034081908 0.018633684632523129 0 0.07361286331840998 0.019182643000910413 0 0.075115827167602928 0.019498667774702712 0 0.074716133034081908 0.018633684632523129 0 0.072070475841283663 0.020775961402700497 0 0.071424603597149514 0.020663896326872714 0 0.069513570268647532 0.022061231884101532 0 0.070869779372392361 0.022481445459154852 0 0.072576460401053033 0.021643580780466711 0 0.070869779372392361 0.022481445459154852 0 0.072576460401053033 0.021643580780466711 0 0.073232407986035697 0.02196232045081262 0 0.071019058985619693 0.023589163923119834 0 0.070869779372392361 0.022481445459154852 0 0.073232407986035697 0.02196232045081262 0 0.069513570268647532 0.022061231884101532 0 0.072576460401053033 0.021643580780466711 0 0.070109685886140541 0.021352117581615079 0 0.072576460401053033 0.021643580780466711 0 0.073232407986035697 0.02196232045081262 0 0.075259710681172418 0.021488117321550093 0 0.072576460401053033 0.021643580780466711 0 0.075259710681172418 0.021488117321550093 0 0.076295702015565334 0.021197040614038497 0 0.075259710681172418 0.021488117321550093 0 0.077208512522270428 0.021091204987995514 0 0.076295702015565334 0.021197040614038497 0 0.077789465341797467 0.020784451596878358 0 0.075259710681172418 0.021488117321550093 0 0.077208512522270428 0.021091204987995514 0 0.079290766646122501 0.020621743746627952 0 0.077789465341797467 0.020784451596878358 0 0.077208512522270428 0.021091204987995514 0 0.0789609743874711 0.020882778598287272 0 0.076295702015565334 0.021197040614038497 0 0.078400310235686471 0.020397085286812212 0 0.0789609743874711 0.020882778598287272 0 0.077208512522270428 0.021091204987995514 0 0.076295702015565334 0.021197040614038497 0 0.072576460401053033 0.021643580780466711 0 0.076295702015565334 0.021197040614038497 0 0.071808428321934167 0.020495672183722627 0 0.076295702015565334 0.021197040614038497 0 0.078400310235686471 0.020397085286812212 0 0.071808428321934167 0.020495672183722627 0 0.078400310235686471 0.020397085286812212 0 0.071808428321934167 0.020495672183722627 0 0.076970977353920791 0.019198501041776655 0 0.071569526832109473 0.021883243641414481 0 0.071882210919514994 0.021709153031942437 0 0.068567364049746254 0.021024727188852507 0 0.071808428321934167 0.020495672183722627 0 0.067784164326807422 0.021079876524882555 0 0.066519960546914891 0.021306313726685584 0 0.068567364049746254 0.021024727188852507 0 0.067784164326807422 0.021079876524882555 0 0.06834061676768674 0.021624280336318278 0 0.068567364049746254 0.021024727188852507 0 0.070109685886140541 0.021352117581615079 0 0.068567364049746254 0.021024727188852507 0 0.070109685886140541 0.021352117581615079 0 0.071808428321934167 0.020495672183722627 0 0.072576460401053033 0.021643580780466711 0 0.070109685886140541 0.021352117581615079 0 0.071808428321934167 0.020495672183722627 0 0.067784164326807422 0.021079876524882555 0 0.066411269383172086 0.021637157757463499 0 0.065791934776582087 0.02172256151214565 0 0.065361242774526443 0.021587738440132415 0 0.067784164326807422 0.021079876524882555 0 0.065791934776582087 0.02172256151214565 0 0.065361242774526443 0.021587738440132415 0 0.066519960546914891 0.021306313726685584 0 0.067784164326807422 0.021079876524882555 0 0.071808428321934167 0.020495672183722627 0 0.067784164326807422 0.021079876524882555 0 0.067184197141282015 0.021077936811641027 0 0.078400310235686471 0.020397085286812212 0 0.076970977353920791 0.019198501041776655 0 0.079945737413924467 0.020347050999447426 0 0.076970977353920791 0.019198501041776655 0 0.079894285979674948 0.020354202172060545 0 0.079945737413924467 0.020347050999447426 0 0.071882210919514994 0.021709153031942437 0 0.0722724787931944 0.022146024344104284 0 0.067184197141282015 0.021077936811641027 0 0.066411269383172086 0.021637157757463499 0 0.065595158542949089 0.021494980596821301 0 0.067784164326807422 0.021079876524882555 0 0.067184197141282015 0.021077936811641027 0 0.066411269383172086 0.021637157757463499 0 0.066411269383172086 0.021637157757463499 0 0.066009838525611694 0.022002550886362653 0 0.065595158542949089 0.021494980596821301 0 0.066411269383172086 0.021637157757463499 0 0.066009838525611694 0.022002550886362653 0 0.065736452547087307 0.021889002664219351 0 0.066009838525611694 0.022002550886362653 0 0.065595158542949089 0.021494980596821301 0 0.065683618248081652 0.022457127127840162 0 0.065595158542949089 0.021494980596821301 0 0.065683618248081652 0.022457127127840162 0 0.06499165938540126 0.02376548906888935 0 0.065683618248081652 0.022457127127840162 0 0.065377968622782931 0.02293012950954483 0 0.065471082263032318 0.022419117846439997 0 0.065683618248081652 0.022457127127840162 0 0.065377968622782931 0.02293012950954483 0 0.06499165938540126 0.02376548906888935 0 0.066009838525611694 0.022002550886362653 0 0.065737453191301948 0.022120678901597121 0 0.065736452547087307 0.021889002664219351 0 0.066009838525611694 0.022002550886362653 0 0.065683618248081652 0.022457127127840162 0 0.065737453191301948 0.022120678901597121 0 0.065683618248081652 0.022457127127840162 0 0.065737453191301948 0.022120678901597121 0 0.065471082263032318 0.022419117846439997 0 0.065737453191301948 0.022120678901597121 0 0.065434231846147731 0.021791574931670631 0 0.065471082263032318 0.022419117846439997 0 0.06530227270373562 0.021635575180603769 0 0.065736452547087307 0.021889002664219351 0 0.065434231846147731 0.021791574931670631 0 0.065737453191301948 0.022120678901597121 0 0.065736452547087307 0.021889002664219351 0 0.065434231846147731 0.021791574931670631 0 0.06530227270373562 0.021635575180603769 0 0.065736452547087307 0.021889002664219351 0 0.064680621618943002 0.021748859406334684 0 0.065736452547087307 0.021889002664219351 0 0.065791934776582087 0.02172256151214565 0 0.064680621618943002 0.021748859406334684 0 0.066411269383172086 0.021637157757463499 0 0.065736452547087307 0.021889002664219351 0 0.065791934776582087 0.02172256151214565 0 0.063678147840839278 0.021727713796670722 0 0.065791934776582087 0.02172256151214565 0 0.064680621618943002 0.021748859406334684 0 0.065361242774526443 0.021587738440132415 0 0.063678147840839278 0.021727713796670722 0 0.065791934776582087 0.02172256151214565 0 0.062003027712924874 0.021185413618968814 0 0.063678147840839278 0.021727713796670722 0 0.064680621618943002 0.021748859406334684 0 0.062003027712924874 0.021185413618968814 0 0.064680621618943002 0.021748859406334684 0 0.065166094968189009 0.021144409881274764 0 0.06530227270373562 0.021635575180603769 0 0.064680621618943002 0.021748859406334684 0 0.065166094968189009 0.021144409881274764 0 0.062003027712924874 0.021185413618968814 0 0.065166094968189009 0.021144409881274764 0 0.063995592250462002 0.019593077419114192 0 0.059162152005964364 0.02348733548919819 0 0.057719761356939223 0.025127732247406612 0 0.065166094968189009 0.021144409881274764 0 0.065593137463677467 0.02171569528755837 0 0.065259687214505535 0.021768225020908399 0 0.05817367034721415 0.025057994872371599 0 0.057719761356939223 0.025127732247406612 0 0.065166094968189009 0.021144409881274764 0 0.065434231846147731 0.021791574931670631 0 0.065259687214505535 0.021768225020908399 0 0.06530227270373562 0.021635575180603769 0 0.065166094968189009 0.021144409881274764 0 0.065434231846147731 0.021791574931670631 0 0.065434231846147731 0.021791574931670631 0 0.065259687214505535 0.021768225020908399 0 0.065267907617011151 0.022094197789028724 0 0.065259687214505535 0.021768225020908399 0 0.065290573880440975 0.022200033934419789 0 0.065267907617011151 0.022094197789028724 0 0.065290573880440975 0.022200033934419789 0 0.065267907617011151 0.022094197789028724 0 0.065257190438801044 0.022253325400069888 0 0.052992800773505704 0.03271203284448785 0 0.052494786216488384 0.032067476176530101 0 0.051910257267849244 0.032809694030992119 0 0.057719761356939223 0.025127732247406612 0 0.058642906305181493 0.027740357412642778 0 0.065593137463677467 0.02171569528755837 0 0.065259687214505535 0.021768225020908399 0 0.065290573880440975 0.022200033934419789 0 0.055114760222432807 0.026847595316768696 0 0.057719761356939223 0.025127732247406612 0 0.052992800773505704 0.03271203284448785 0 0.051910257267849244 0.032809694030992119 0 0.052518073061832773 0.033624383383143365 0 0.051910257267849244 0.032809694030992119 0 0.052518073061832773 0.033624383383143365 0 0.05133374331683855 0.033551593524432599 0 0.065290573880440975 0.022200033934419789 0 0.065271320355576895 0.022256391823808865 0 0.065257190438801044 0.022253325400069888 0 0.058642906305181493 0.027740357412642778 0 0.059390467699334329 0.030687061654192414 0 0.052518073061832773 0.033624383383143365 0 0.05133374331683855 0.033551593524432599 0 0.051978047786507275 0.034275165373720475 0 0.05133374331683855 0.033551593524432599 0 0.05135962337527613 0.034655929209808735 0 0.051978047786507275 0.034275165373720475 0 0.052518073061832773 0.033624383383143365 0 0.051978047786507275 0.034275165373720475 0 0.05284259962006474 0.034751230221943062 0 0.061663426775039561 0.031217834239432869 0 0.059113957226816394 0.036530490504720854 0 0.064041035031432297 0.040665823664386529 0 0.06631267123747249 0.03701800239543282 0 0.062732590269241176 0.038462861203588945 0 0.064041035031432297 0.040665823664386529 0 0.06631267123747249 0.03701800239543282 0 0.066789666971631495 0.04123693205752544 0 0.065271320355576895 0.022256391823808865 0 0.065317333224296004 0.022239399111337699 0 0.06527898014727615 0.022281756959218874 0 0.059390467699334329 0.030687061654192414 0 0.059113957226816394 0.036530490504720854 0 0.05133374331683855 0.033551593524432599 0 0.05135962337527613 0.034655929209808735 0 0.050757895865597598 0.034293756288535739 0 0.065271320355576895 0.022256391823808865 0 0.065317333224296004 0.022239399111337699 0 0.065257190438801044 0.022253325400069888 0 0.061663426775039561 0.031217834239432869 0 0.062814347021474357 0.028059123349721184 0 0.06631267123747249 0.03701800239543282 0 0.066668447240526271 0.031963582430499959 0 0.063380939359786989 0.035171144277045985 0 0.065473745386858795 0.022403805942848926 0 0.065257190438801044 0.022253325400069888 0 0.065297891137973629 0.022428155450631496 0 0.065317333224296004 0.022239399111337699 0 0.065473745386858795 0.022403805942848926 0 0.065257190438801044 0.022253325400069888 0 0.065267907617011151 0.022094197789028724 0 0.065257190438801044 0.022253325400069888 0 0.065297891137973629 0.022428155450631496 0 0.065267907617011151 0.022094197789028724 0 0.065297891137973629 0.022428155450631496 0 0.065471082263032318 0.022419117846439997 0 0.065297891137973629 0.022428155450631496 0 0.065471082263032318 0.022419117846439997 0 0.06529495083415579 0.02285449040732785 0 0.065434231846147731 0.021791574931670631 0 0.065267907617011151 0.022094197789028724 0 0.065471082263032318 0.022419117846439997 0 0.062814347021474357 0.028059123349721184 0 0.063001217676347532 0.026535840283657967 0 0.065473745386858795 0.022403805942848926 0 0.06529495083415579 0.02285449040732785 0 0.06499165938540126 0.02376548906888935 0 0.065473745386858795 0.022403805942848926 0 0.065297891137973629 0.022428155450631496 0 0.06529495083415579 0.02285449040732785 0 0.065377968622782931 0.02293012950954483 0 0.065471082263032318 0.022419117846439997 0 0.06529495083415579 0.02285449040732785 0 0.065377968622782931 0.02293012950954483 0 0.06529495083415579 0.02285449040732785 0 0.06499165938540126 0.02376548906888935 0 0.063712702828062392 0.029523865688587937 0 0.06499165938540126 0.02376548906888935 0 0.063247991458293101 0.023759135582996964 0 0.066668447240526271 0.031963582430499959 0 0.063712702828062392 0.029523865688587937 0 0.06499165938540126 0.02376548906888935 0 0.063712702828062392 0.029523865688587937 0 0.059246723417469893 0.0341619907524503 0 0.063247991458293101 0.023759135582996964 0 0.071456002731517809 0.027192895716974131 0 0.072086572871550514 0.024028528690255232 0 0.081394043202080102 0.022517415082576177 0 0.081482668068556627 0.023039734782555887 0 0.081335532628951754 0.021943353369488661 0 0.066668447240526271 0.031963582430499959 0 0.063712702828062392 0.029523865688587937 0 0.063380939359786989 0.035171144277045985 0 0.063712702828062392 0.029523865688587937 0 0.059246723417469893 0.0341619907524503 0 0.063380939359786989 0.035171144277045985 0 0.063380939359786989 0.035171144277045985 0 0.061408099278972075 0.03709353747621099 0 0.062732590269241176 0.038462861203588945 0 0.06631267123747249 0.03701800239543282 0 0.063380939359786989 0.035171144277045985 0 0.062732590269241176 0.038462861203588945 0 0.059246723417469893 0.0341619907524503 0 0.063380939359786989 0.035171144277045985 0 0.061408099278972075 0.03709353747621099 0 0.059246723417469893 0.0341619907524503 0 0.061177327926329343 0.037418358755325232 0 0.061408099278972075 0.03709353747621099 0 0.059246723417469893 0.0341619907524503 0 0.061177327926329343 0.037418358755325232 0 0.063647221700046649 0.038772342421415425 0 0.061177327926329343 0.037418358755325232 0 0.061408099278972075 0.03709353747621099 0 0.060068490939836211 0.038669869312493284 0 0.061177327926329343 0.037418358755325232 0 0.060068490939836211 0.038669869312493284 0 0.063647221700046649 0.038772342421415425 0 0.064041035031432297 0.040665823664386529 0 0.062732590269241176 0.038462861203588945 0 0.061590583086473277 0.042015177049577128 0 0.060068490939836211 0.038669869312493284 0 0.062732590269241176 0.038462861203588945 0 0.061590583086473277 0.042015177049577128 0 0.061408099278972075 0.03709353747621099 0 0.060068490939836211 0.038669869312493284 0 0.062732590269241176 0.038462861203588945 0 0.079274276838030885 0.02664599317154491 0 0.078945770746186514 0.027372032527359945 0 0.076587490034206854 0.025955709333401317 0 0.079486635093116723 0.02352107546438699 0 0.071272843143002584 0.025776150157894421 0 0.073861326185072199 0.027772874894729148 0 0.076587490034206854 0.025955709333401317 0 0.071272843143002584 0.025776150157894421 0 0.073861326185072199 0.027772874894729148 0 0.071272843143002584 0.025776150157894421 0 0.071343478670564842 0.028861686225506358 0 0.076587490034206854 0.025955709333401317 0 0.08019830319630783 0.024210128907410849 0 0.070972940218073793 0.031272898075780292 0 0.060068490939836211 0.038669869312493284 0 0.063647221700046649 0.038772342421415425 0 0.068460360605317641 0.031668333284609974 0 0.076587490034206854 0.025955709333401317 0 0.08019830319630783 0.024210128907410849 0 0.079486635093116723 0.02352107546438699 0 0.081482668068556627 0.023039734782555887 0 0.08019830319630783 0.024210128907410849 0 0.080745304625344627 0.02329225190060406 0 0.08019830319630783 0.024210128907410849 0 0.079486635093116723 0.02352107546438699 0 0.080745304625344627 0.02329225190060406 0 0.071456002731517809 0.027192895716974131 0 0.071534771603122646 0.029080924298681695 0 0.079486635093116723 0.02352107546438699 0 0.081429807384415784 0.023401811633027746 0 0.082463627588084981 0.021770785354519581 0 0.079486635093116723 0.02352107546438699 0 0.081429807384415784 0.023401811633027746 0 0.080745304625344627 0.02329225190060406 0 0.081429807384415784 0.023401811633027746 0 0.082001343059645654 0.023732824393279523 0 0.083031331010899087 0.023863789901046491 0 0.081429807384415784 0.023401811633027746 0 0.082001343059645654 0.023732824393279523 0 0.080745304625344627 0.02329225190060406 0 0.082001343059645654 0.023732824393279523 0 0.080745304625344627 0.02329225190060406 0 0.081406724469817643 0.023111500859215716 0 0.081482668068556627 0.023039734782555887 0 0.080745304625344627 0.02329225190060406 0 0.081406724469817643 0.023111500859215716 0 0.081394043202080102 0.022517415082576177 0 0.081406724469817643 0.023111500859215716 0 0.081840968719520152 0.022736074310539638 0 0.081394043202080102 0.022517415082576177 0 0.081482668068556627 0.023039734782555887 0 0.081406724469817643 0.023111500859215716 0 0.082001343059645654 0.023732824393279523 0 0.081406724469817643 0.023111500859215716 0 0.082473488777552909 0.023545804705711521 0 0.082001343059645654 0.023732824393279523 0 0.082473488777552909 0.023545804705711521 0 0.083541298100364092 0.024479736169858064 0 0.081406724469817643 0.023111500859215716 0 0.082473488777552909 0.023545804705711521 0 0.081840968719520152 0.022736074310539638 0 0.082473488777552909 0.023545804705711521 0 0.082549453456385466 0.022779851398923332 0 0.081840968719520152 0.022736074310539638 0 0.082549453456385466 0.022779851398923332 0 0.081639817490566188 0.022068151877928908 0 0.081840968719520152 0.022736074310539638 0 0.082549453456385466 0.022779851398923332 0 0.081639817490566188 0.022068151877928908 0 0.0816747560489689 0.021623677362217941 0 0.082549453456385466 0.022779851398923332 0 0.0816747560489689 0.021623677362217941 0 0.082722024602941147 0.022113571423519707 0 0.081639817490566188 0.022068151877928908 0 0.081032283029713423 0.021287691007508065 0 0.0816747560489689 0.021623677362217941 0 0.081639817490566188 0.022068151877928908 0 0.081840968719520152 0.022736074310539638 0 0.081267685317936197 0.021977564574379858 0 0.081394043202080102 0.022517415082576177 0 0.081840968719520152 0.022736074310539638 0 0.081267685317936197 0.021977564574379858 0 0.081267685317936197 0.021977564574379858 0 0.081335532628951754 0.021943353369488661 0 0.080747831679113993 0.021149925785845371 0 0.081394043202080102 0.022517415082576177 0 0.081267685317936197 0.021977564574379858 0 0.081335532628951754 0.021943353369488661 0 0.0722724787931944 0.022146024344104284 0 0.072086572871550514 0.024028528690255232 0 0.065595158542949089 0.021494980596821301 0 0.06499165938540126 0.02376548906888935 0 0.063247991458293101 0.023759135582996964 0 0.079894285979674948 0.020354202172060545 0 0.081335532628951754 0.021943353369488661 0 0.080747831679113993 0.021149925785845371 0 0.081267685317936197 0.021977564574379858 0 0.080747831679113993 0.021149925785845371 0 0.081032283029713423 0.021287691007508065 0 0.081639817490566188 0.022068151877928908 0 0.081267685317936197 0.021977564574379858 0 0.081032283029713423 0.021287691007508065 0 0.080747831679113993 0.021149925785845371 0 0.081032283029713423 0.021287691007508065 0 0.079945737413924467 0.020347050999447426 0 0.081032283029713423 0.021287691007508065 0 0.079945737413924467 0.020347050999447426 0 0.08096562306374136 0.021019228839619739 0 0.079894285979674948 0.020354202172060545 0 0.080747831679113993 0.021149925785845371 0 0.079945737413924467 0.020347050999447426 0 0.080514242370186187 0.020828350855148333 0 0.079945737413924467 0.020347050999447426 0 0.08096562306374136 0.021019228839619739 0 0.080514242370186187 0.020828350855148333 0 0.08096562306374136 0.021019228839619739 0 0.081738657995392386 0.021330031422684533 0 0.081738657995392386 0.021330031422684533 0 0.0816747560489689 0.021623677362217941 0 0.082722024602941147 0.022113571423519707 0 0.08096562306374136 0.021019228839619739 0 0.081738657995392386 0.021330031422684533 0 0.0816747560489689 0.021623677362217941 0 0.081032283029713423 0.021287691007508065 0 0.08096562306374136 0.021019228839619739 0 0.0816747560489689 0.021623677362217941 0 0.083923485933097702 0.022514308219165256 0 0.083040099790639005 0.0217021418195718 0 0.083974110589209866 0.021821752555810241 0 0.083923485933097702 0.022514308219165256 0 0.082722024602941147 0.022113571423519707 0 0.083040099790639005 0.0217021418195718 0 0.081738657995392386 0.021330031422684533 0 0.082722024602941147 0.022113571423519707 0 0.083040099790639005 0.0217021418195718 0 0.082296654980524825 0.02125630945868295 0 0.081738657995392386 0.021330031422684533 0 0.083040099790639005 0.0217021418195718 0 0.083305164111005706 0.021099566179853285 0 0.083040099790639005 0.0217021418195718 0 0.083974110589209866 0.021821752555810241 0 0.084414744112453366 0.020881605078074343 0 0.083974110589209866 0.021821752555810241 0 0.084550117010800119 0.02190219769040444 0 0.084414744112453366 0.020881605078074343 0 0.083305164111005706 0.021099566179853285 0 0.083974110589209866 0.021821752555810241 0 0.084414744112453366 0.020881605078074343 0 0.084550117010800119 0.02190219769040444 0 0.084535214618996934 0.021283975612141581 0 0.084550117010800119 0.02190219769040444 0 0.085045830544025952 0.023520258704145959 0 0.084645715810805919 0.022215387070895924 0 0.084550117010800119 0.02190219769040444 0 0.084526817972963381 0.022719535950981185 0 0.085045830544025952 0.023520258704145959 0 0.084550117010800119 0.02190219769040444 0 0.084645715810805919 0.022215387070895924 0 0.084535214618996934 0.021283975612141581 0 0.083974110589209866 0.021821752555810241 0 0.084550117010800119 0.02190219769040444 0 0.084526817972963381 0.022719535950981185 0 0.083923485933097702 0.022514308219165256 0 0.083974110589209866 0.021821752555810241 0 0.084526817972963381 0.022719535950981185 0 0.084526817972963381 0.022719535950981185 0 0.08479974081788437 0.023796329962582616 0 0.085045830544025952 0.023520258704145959 0 0.083923485933097702 0.022514308219165256 0 0.084526817972963381 0.022719535950981185 0 0.08479974081788437 0.023796329962582616 0 0.085045830544025952 0.023520258704145959 0 0.085476633799475621 0.025309027349446379 0 0.084932534683618777 0.023588486032026984 0 0.085045830544025952 0.023520258704145959 0 0.085539672873679057 0.025226337706647485 0 0.085476633799475621 0.025309027349446379 0 0.08479974081788437 0.023796329962582616 0 0.085045830544025952 0.023520258704145959 0 0.085539672873679057 0.025226337706647485 0 0.08479974081788437 0.023796329962582616 0 0.085539672873679057 0.025226337706647485 0 0.084699593797407102 0.024467823598477927 0 0.08479974081788437 0.023796329962582616 0 0.084699593797407102 0.024467823598477927 0 0.083793508315669563 0.023274729131755698 0 0.084699593797407102 0.024467823598477927 0 0.083793508315669563 0.023274729131755698 0 0.08368572850624631 0.023993159169870014 0 0.083923485933097702 0.022514308219165256 0 0.08479974081788437 0.023796329962582616 0 0.083793508315669563 0.023274729131755698 0 0.083923485933097702 0.022514308219165256 0 0.082722024602941147 0.022113571423519707 0 0.083793508315669563 0.023274729131755698 0 0.082549453456385466 0.022779851398923332 0 0.082722024602941147 0.022113571423519707 0 0.083793508315669563 0.023274729131755698 0 0.082549453456385466 0.022779851398923332 0 0.083793508315669563 0.023274729131755698 0 0.08368572850624631 0.023993159169870014 0 0.082473488777552909 0.023545804705711521 0 0.082549453456385466 0.022779851398923332 0 0.08368572850624631 0.023993159169870014 0 0.08368572850624631 0.023993159169870014 0 0.083541298100364092 0.024479736169858064 0 0.084620123420598589 0.024933474994069831 0 0.082473488777552909 0.023545804705711521 0 0.08368572850624631 0.023993159169870014 0 0.083541298100364092 0.024479736169858064 0 0.084620123420598589 0.024933474994069831 0 0.08525561849740565 0.025385211443336525 0 0.085617883785508164 0.025914078744080391 0 0.084699593797407102 0.024467823598477927 0 0.084620123420598589 0.024933474994069831 0 0.085617883785508164 0.025914078744080391 0 0.084699593797407102 0.024467823598477927 0 0.08368572850624631 0.023993159169870014 0 0.084620123420598589 0.024933474994069831 0 0.083541298100364092 0.024479736169858064 0 0.084620123420598589 0.024933474994069831 0 0.08525561849740565 0.025385211443336525 0 0.082001343059645654 0.023732824393279523 0 0.083541298100364092 0.024479736169858064 0 0.083031331010899087 0.023863789901046491 0 0.083541298100364092 0.024479736169858064 0 0.08525561849740565 0.025385211443336525 0 0.083031331010899087 0.023863789901046491 0 0.081429807384415784 0.023401811633027746 0 0.083031331010899087 0.023863789901046491 0 0.082463627588084981 0.021770785354519581 0 0.083031331010899087 0.023863789901046491 0 0.084585977468988424 0.02296547102694697 0 0.082463627588084981 0.021770785354519581 0 0.08525561849740565 0.025385211443336525 0 0.083031331010899087 0.023863789901046491 0 0.084585977468988424 0.02296547102694697 0 0.08525561849740565 0.025385211443336525 0 0.084585977468988424 0.02296547102694697 0 0.086850011703718907 0.0228321467667572 0 0.086145091327486406 0.028052779529551378 0 0.08595969113856923 0.028877120142055221 0 0.084585977468988424 0.02296547102694697 0 0.085382926439145107 0.021055787119033029 0 0.086850011703718907 0.0228321467667572 0 0.079731721410149656 0.029490378396784343 0 0.078945770746186514 0.027372032527359945 0 0.084585977468988424 0.02296547102694697 0 0.085382926439145107 0.021055787119033029 0 0.082463627588084981 0.021770785354519581 0 0.069342623376906207 0.027449088179743855 0 0.071272843143002584 0.025776150157894421 0 0.070229029376868521 0.028642892650285221 0 0.071272843143002584 0.025776150157894421 0 0.071343478670564842 0.028861686225506358 0 0.070229029376868521 0.028642892650285221 0 0.083528462861892638 0.033710872764112797 0 0.085837753634910849 0.034208307353367488 0 0.092404160310859226 0.038983537461133158 0 0.096277085559907119 0.037849107617127641 0 0.088125100021302971 0.031985325960097379 0 0.086642286637382368 0.028549029246543959 0 0.086772897457520953 0.029627900563430405 0 0.088125100021302971 0.031985325960097379 0 0.084905708711792205 0.033662297907077927 0 0.083528462861892638 0.033710872764112797 0 0.079731721410149656 0.029490378396784343 0 0.083528462861892638 0.033710872764112797 0 0.086642286637382368 0.028549029246543959 0 0.086323366082944872 0.028667169713270834 0 0.086772897457520953 0.029627900563430405 0 0.083528462861892638 0.033710872764112797 0 0.08595969113856923 0.028877120142055221 0 0.085382926439145107 0.021055787119033029 0 0.088471969193486363 0.020611075566163276 0 0.086850011703718907 0.0228321467667572 0 0.08525561849740565 0.025385211443336525 0 0.086323366082944872 0.028667169713270834 0 0.086241052440927168 0.027702462639066075 0 0.086323366082944872 0.028667169713270834 0 0.086772897457520953 0.029627900563430405 0 0.086241052440927168 0.027702462639066075 0 0.086772897457520953 0.029627900563430405 0 0.086872047033658042 0.029450873788097902 0 0.088125100021302971 0.031985325960097379 0 0.086772897457520953 0.029627900563430405 0 0.086872047033658042 0.029450873788097902 0 0.086241052440927168 0.027702462639066075 0 0.086872047033658042 0.029450873788097902 0 0.086224415389593356 0.027329307694419585 0 0.086579747468693097 0.029634397843337924 0 0.086872047033658042 0.029450873788097902 0 0.086241052440927168 0.027702462639066075 0 0.086224415389593356 0.027329307694419585 0 0.086241052440927168 0.027702462639066075 0 0.085617883785508164 0.025914078744080391 0 0.086224415389593356 0.027329307694419585 0 0.08525561849740565 0.025385211443336525 0 0.086241052440927168 0.027702462639066075 0 0.085617883785508164 0.025914078744080391 0 0.085539672873679057 0.025226337706647485 0 0.085617883785508164 0.025914078744080391 0 0.086224415389593356 0.027329307694419585 0 0.085539672873679057 0.025226337706647485 0 0.084699593797407102 0.024467823598477927 0 0.085617883785508164 0.025914078744080391 0 0.085539672873679057 0.025226337706647485 0 0.086224415389593356 0.027329307694419585 0 0.085476633799475621 0.025309027349446379 0 0.086224415389593356 0.027329307694419585 0 0.085452622463122033 0.027749397284805914 0 0.086579747468693097 0.029634397843337924 0 0.086224415389593356 0.027329307694419585 0 0.085452622463122033 0.027749397284805914 0 0.085476633799475621 0.025309027349446379 0 0.085452622463122033 0.027749397284805914 0 0.085608479840945287 0.031409996576147438 0 0.082885156995305118 0.028163127868773206 0 0.085452622463122033 0.027749397284805914 0 0.082885156995305118 0.028163127868773206 0 0.084271207974811274 0.026340361719275868 0 0.085608479840945287 0.031409996576147438 0 0.086579747468693097 0.029634397843337924 0 0.088125100021302971 0.031985325960097379 0 0.085452622463122033 0.027749397284805914 0 0.085608479840945287 0.031409996576147438 0 0.086579747468693097 0.029634397843337924 0 0.086872047033658042 0.029450873788097902 0 0.086579747468693097 0.029634397843337924 0 0.088125100021302971 0.031985325960097379 0 0.088125100021302971 0.031985325960097379 0 0.085735464890677238 0.034720847928487265 0 0.08673143740437117 0.037107813223593147 0 0.085608479840945287 0.031409996576147438 0 0.085735464890677238 0.034720847928487265 0 0.084356522734356718 0.034488302462187474 0 0.085608479840945287 0.031409996576147438 0 0.088125100021302971 0.031985325960097379 0 0.085735464890677238 0.034720847928487265 0 0.08673143740437117 0.037107813223593147 0 0.084980224129405993 0.037709356148707969 0 0.085671040706658666 0.04026568728155442 0 0.085735464890677238 0.034720847928487265 0 0.08673143740437117 0.037107813223593147 0 0.084980224129405993 0.037709356148707969 0 0.08673143740437117 0.037107813223593147 0 0.085671040706658666 0.04026568728155442 0 0.08686706907587366 0.040605975120861983 0 0.08673143740437117 0.037107813223593147 0 0.088284629984172899 0.039842396680426231 0 0.08686706907587366 0.040605975120861983 0 0.088125100021302971 0.031985325960097379 0 0.08673143740437117 0.037107813223593147 0 0.08891308501406793 0.037772619122113757 0 0.092404160310859226 0.038983537461133158 0 0.088125100021302971 0.031985325960097379 0 0.08891308501406793 0.037772619122113757 0 0.08673143740437117 0.037107813223593147 0 0.08891308501406793 0.037772619122113757 0 0.088284629984172899 0.039842396680426231 0 0.085061506212537941 0.041109558495299861 0 0.084980224129405993 0.037709356148707969 0 0.084991256273017624 0.039694684954453496 0 0.085061506212537941 0.041109558495299861 0 0.084991256273017624 0.039694684954453496 0 0.085000640002956568 0.042809259714998202 0 0.085061506212537941 0.041109558495299861 0 0.084980224129405993 0.037709356148707969 0 0.085671040706658666 0.04026568728155442 0 0.084980224129405993 0.037709356148707969 0 0.084356522734356718 0.034488302462187474 0 0.084991256273017624 0.039694684954453496 0 0.085735464890677238 0.034720847928487265 0 0.084980224129405993 0.037709356148707969 0 0.084356522734356718 0.034488302462187474 0 0.085000011101254991 0.03969982143310008 0 0.086859979931417142 0.036167891706981911 0 0.084999974507595416 0.036894898684908167 0 0.084999568550304813 0.039692572986198271 0 0.08572607077698001 0.034680787947341016 0 0.084356522734356718 0.034488302462187474 0 0.084991256273017624 0.039694684954453496 0 0.082706215204001135 0.033259328991674844 0 0.086859979931417142 0.036167891706981911 0 0.084999974507595416 0.036894898684908167 0 0.085000011891599378 0.034090124170037248 0 0.085608479840945287 0.031409996576147438 0 0.084356522734356718 0.034488302462187474 0 0.082885156995305118 0.028163127868773206 0 0.084356522734356718 0.034488302462187474 0 0.082706215204001135 0.033259328991674844 0 0.082885156995305118 0.028163127868773206 0 0.08572607077698001 0.034680787947341016 0 0.08613254448623317 0.030859969784900326 0 0.086859979931417142 0.036167891706981911 0 0.085000011891599378 0.034090124170037248 0 0.086579211133142639 0.032828462429253621 0 0.086859979931417142 0.036167891706981911 0 0.088669137834870543 0.032683633779067495 0 0.086579211133142639 0.032828462429253621 0 0.084999063865943039 0.03410818060545736 0 0.086292131189624671 0.031213167546629783 0 0.085000011891599378 0.034090124170037248 0 0.086579211133142639 0.032828462429253621 0 0.085244084762040345 0.031331367459095302 0 0.088669137834870543 0.032683633779067495 0 0.086579211133142639 0.032828462429253621 0 0.087376467425032342 0.030842787185539951 0 0.085244084762040345 0.031331367459095302 0 0.087376467425032342 0.030842787185539951 0 0.085475734283251156 0.028593380052877197 0 0.086292131189624671 0.031213167546629783 0 0.085117971514537955 0.028148529695926249 0 0.084764755084638696 0.031266844535620834 0 0.084999772310732413 0.028380285583367845 0 0.085447216595600312 0.028444134745434141 0 0.086579211133142639 0.032828462429253621 0 0.085244084762040345 0.031331367459095302 0 0.087376467425032342 0.030842787185539951 0 0.087376467425032342 0.030842787185539951 0 0.085475734283251156 0.028593380052877197 0 0.087974986751434087 0.028932159170692931 0 0.083606284783391271 0.022345257054849941 0 0.084003294275043314 0.022009172644063907 0 0.083872037788456519 0.021440250810516839 0 0.085117971514537955 0.028148529695926249 0 0.085170093420964182 0.024708941788092811 0 0.08500048911801239 0.028380803928075026 0 0.085471664902247405 0.028444213241700204 0 0.085839488713882098 0.024850985191055195 0 0.085001343379759661 0.028376100315190462 0 0.085117971514537955 0.028148529695926249 0 0.085117971514537955 0.028148529695926249 0 0.085656653942450728 0.027993225994710241 0 0.083606284783391271 0.022345257054849941 0 0.084003294275043314 0.022009172644063907 0 0.084047358164215741 0.022415643732046867 0 0.084083937563930594 0.022432597131427229 0 0.084094621008815276 0.022348222276725831 0 0.084142873042406627 0.021935177617960842 0 0.084003294275043314 0.022009172644063907 0 0.084083937563930594 0.022432597131427229 0 0.084142873042406627 0.021935177617960842 0 0.084003294275043314 0.022009172644063907 0 0.084083937563930594 0.022432597131427229 0 0.084047358164215741 0.022415643732046867 0 0.085656653942450728 0.027993225994710241 0 0.086098620385159433 0.02828113204341226 0 0.084083937563930594 0.022432597131427229 0 0.084047358164215741 0.022415643732046867 0 0.0840431949160199 0.022587341354515702 0 0.087376467425032342 0.030842787185539951 0 0.087974986751434087 0.028932159170692931 0 0.090469576949556305 0.02926620354372135 0 0.088669137834870543 0.032683633779067495 0 0.087376467425032342 0.030842787185539951 0 0.090469576949556305 0.02926620354372135 0 0.08613254448623317 0.030859969784900326 0 0.086098620385159433 0.02828113204341226 0 0.085452622463122033 0.027749397284805914 0 0.084271207974811274 0.026340361719275868 0 0.084747317405332159 0.024532848852478559 0 0.082885156995305118 0.028163127868773206 0 0.084271207974811274 0.026340361719275868 0 0.083551487480404085 0.024834238926434753 0 0.084271207974811274 0.026340361719275868 0 0.084747317405332159 0.024532848852478559 0 0.083551487480404085 0.024834238926434753 0 0.085628157567593427 0.027907983513382702 0 0.086098620385159433 0.02828113204341226 0 0.085452622463122033 0.027749397284805914 0 0.085476633799475621 0.025309027349446379 0 0.084747317405332159 0.024532848852478559 0 0.085476633799475621 0.025309027349446379 0 0.084747317405332159 0.024532848852478559 0 0.084932534683618777 0.023588486032026984 0 0.084747317405332159 0.024532848852478559 0 0.084932534683618777 0.023588486032026984 0 0.084556870888712624 0.022785884934887545 0 0.084932534683618777 0.023588486032026984 0 0.084556870888712624 0.022785884934887545 0 0.084645715810805919 0.022215387070895924 0 0.085045830544025952 0.023520258704145959 0 0.084932534683618777 0.023588486032026984 0 0.084645715810805919 0.022215387070895924 0 0.084083937563930594 0.022432597131427229 0 0.083935930887226881 0.022884921838419715 0 0.0840431949160199 0.022587341354515702 0 0.086152691677099644 0.027993589674184031 0 0.086098620385159433 0.02828113204341226 0 0.084747317405332159 0.024532848852478559 0 0.083935930887226881 0.022884921838419715 0 0.083528782724465581 0.023638923417923834 0 0.084747317405332159 0.024532848852478559 0 0.084556870888712624 0.022785884934887545 0 0.083935930887226881 0.022884921838419715 0 0.084556870888712624 0.022785884934887545 0 0.083935930887226881 0.022884921838419715 0 0.08422911610334928 0.022505208140799364 0 0.084083937563930594 0.022432597131427229 0 0.083935930887226881 0.022884921838419715 0 0.084094621008815276 0.022348222276725831 0 0.083935930887226881 0.022884921838419715 0 0.08422911610334928 0.022505208140799364 0 0.084094621008815276 0.022348222276725831 0 0.084270976352108576 0.021890006621015253 0 0.084645715810805919 0.022215387070895924 0 0.084444182451686389 0.021146180034914926 0 0.08422911610334928 0.022505208140799364 0 0.084094621008815276 0.022348222276725831 0 0.084270976352108576 0.021890006621015253 0 0.084094621008815276 0.022348222276725831 0 0.084270976352108576 0.021890006621015253 0 0.084142873042406627 0.021935177617960842 0 0.084556870888712624 0.022785884934887545 0 0.08422911610334928 0.022505208140799364 0 0.084270976352108576 0.021890006621015253 0 0.084270976352108576 0.021890006621015253 0 0.084444182451686389 0.021146180034914926 0 0.084406261682744024 0.021044227307711015 0 0.084556870888712624 0.022785884934887545 0 0.084270976352108576 0.021890006621015253 0 0.084645715810805919 0.022215387070895924 0 0.084645715810805919 0.022215387070895924 0 0.084535214618996934 0.021283975612141581 0 0.084444182451686389 0.021146180034914926 0 0.084422350078042538 0.020328576899252375 0 0.084414744112453366 0.020881605078074343 0 0.084535214618996934 0.021283975612141581 0 0.084422350078042538 0.020328576899252375 0 0.084535214618996934 0.021283975612141581 0 0.084444182451686389 0.021146180034914926 0 0.084444182451686389 0.021146180034914926 0 0.084519466756949824 0.0204682962705614 0 0.084406261682744024 0.021044227307711015 0 0.084422350078042538 0.020328576899252375 0 0.084444182451686389 0.021146180034914926 0 0.084519466756949824 0.0204682962705614 0 0.084519466756949824 0.0204682962705614 0 0.084634887204362824 0.020378189283826963 0 0.084406261682744024 0.021044227307711015 0 0.084634887204362824 0.020378189283826963 0 0.084406261682744024 0.021044227307711015 0 0.084423226638467463 0.021020602571418415 0 0.084406261682744024 0.021044227307711015 0 0.084423226638467463 0.021020602571418415 0 0.084277892355577616 0.021408436131512582 0 0.085141638485865201 0.020881960002341913 0 0.084423226638467463 0.021020602571418415 0 0.083872037788456519 0.021440250810516839 0 0.085206231043947395 0.023539814048462736 0 0.085170093420964182 0.024708941788092811 0 0.085141638485865201 0.020881960002341913 0 0.084634887204362824 0.020378189283826963 0 0.084423226638467463 0.021020602571418415 0 0.085141638485865201 0.020881960002341913 0 0.084999232952901682 0.023354439144770697 0 0.085839488713882098 0.024850985191055195 0 0.084423226638467463 0.021020602571418415 0 0.083872037788456519 0.021440250810516839 0 0.084164162308359644 0.021555613601858235 0 0.08500048911801239 0.028380803928075026 0 0.084999232952901682 0.023354439144770697 0 0.085839488713882098 0.024850985191055195 0 0.084003294275043314 0.022009172644063907 0 0.083872037788456519 0.021440250810516839 0 0.084164162308359644 0.021555613601858235 0 0.084003294275043314 0.022009172644063907 0 0.084142873042406627 0.021935177617960842 0 0.084164162308359644 0.021555613601858235 0 0.084270976352108576 0.021890006621015253 0 0.084142873042406627 0.021935177617960842 0 0.084277892355577616 0.021408436131512582 0 0.084270976352108576 0.021890006621015253 0 0.084406261682744024 0.021044227307711015 0 0.084277892355577616 0.021408436131512582 0 0.084423226638467463 0.021020602571418415 0 0.084277892355577616 0.021408436131512582 0 0.084164162308359644 0.021555613601858235 0 0.084142873042406627 0.021935177617960842 0 0.084277892355577616 0.021408436131512582 0 0.084164162308359644 0.021555613601858235 0 0.088159149244325455 0.06136929504607077 0 0.090536505359934849 0.059201226947855581 0 0.087712870556998529 0.057555325200215876 0 0.088159149244325455 0.06136929504607077 0 0.084999616354934443 0.060946696144392819 0 0.087712870556998529 0.057555325200215876 0 0.084999616354934443 0.060946696144392819 0 0.087945297450196996 0.064639192274152296 0 0.084999979483337554 0.065955650400284505 0 0.088159149244325455 0.06136929504607077 0 0.084999616354934443 0.060946696144392819 0 0.087945297450196996 0.064639192274152296 0 0.088159149244325455 0.06136929504607077 0 0.09067406523469565 0.064070554276393313 0 0.087945297450196996 0.064639192274152296 0 0.09067406523469565 0.064070554276393313 0 0.091425957850552575 0.063254317349984004 0 0.092070612619201533 0.064649823496114478 0 0.088159149244325455 0.06136929504607077 0 0.09067406523469565 0.064070554276393313 0 0.090536505359934849 0.059201226947855581 0 0.09067406523469565 0.064070554276393313 0 0.091425957850552575 0.063254317349984004 0 0.090501469989994615 0.063246240671978218 0 0.090308333045296174 0.061925246897925453 0 0.089992245352086137 0.060587917713251921 0 0.090501469989994615 0.063246240671978218 0 0.09092906105897601 0.062578388313422828 0 0.090164067878643908 0.062105452691208596 0 0.091425957850552575 0.063254317349984004 0 0.090501469989994615 0.063246240671978218 0 0.09092906105897601 0.062578388313422828 0 0.089992245352086137 0.060587917713251921 0 0.089164733015357822 0.05771316955577338 0 0.091425957850552575 0.063254317349984004 0 0.09092906105897601 0.062578388313422828 0 0.091589995238322203 0.062235029928016682 0 0.091425957850552575 0.063254317349984004 0 0.091589995238322203 0.062235029928016682 0 0.092102508578779843 0.062808231552893029 0 0.088183123601092386 0.052678268166781811 0 0.085040523542650848 0.051248594725834561 0 0.09092906105897601 0.062578388313422828 0 0.091589995238322203 0.062235029928016682 0 0.091143239630302172 0.061521761743578728 0 0.091589995238322203 0.062235029928016682 0 0.091143239630302172 0.061521761743578728 0 0.092354907860115826 0.062118734937948922 0 0.09092906105897601 0.062578388313422828 0 0.090164067878643908 0.062105452691208596 0 0.091143239630302172 0.061521761743578728 0 0.089787767189990902 0.054902955195749406 0 0.087712870556998529 0.057555325200215876 0 0.087012385245786528 0.053366012621004016 0 0.090536505359934849 0.059201226947855581 0 0.089787767189990902 0.054902955195749406 0 0.087712870556998529 0.057555325200215876 0 0.084999616354934443 0.060946696144392819 0 0.087712870556998529 0.057555325200215876 0 0.084999922536969141 0.055936872176820578 0 0.084999922536969141 0.055936872176820578 0 0.087012385245786528 0.053366012621004016 0 0.084999827988457372 0.050927127099832152 0 0.087712870556998529 0.057555325200215876 0 0.084999922536969141 0.055936872176820578 0 0.087012385245786528 0.053366012621004016 0 0.087012385245786528 0.053366012621004016 0 0.086865110486345473 0.051223722795642163 0 0.084999827988457372 0.050927127099832152 0 0.087012385245786528 0.053366012621004016 0 0.086865110486345473 0.051223722795642163 0 0.088941276922650747 0.050792878104310435 0 0.086865110486345473 0.051223722795642163 0 0.084999827988457372 0.050927127099832152 0 0.085756398032635531 0.049161636096723013 0 0.089164733015357822 0.05771316955577338 0 0.08747472878302226 0.052466002295763155 0 0.089787767189990902 0.054902955195749406 0 0.087012385245786528 0.053366012621004016 0 0.088941276922650747 0.050792878104310435 0 0.089350535364894831 0.050561646136556164 0 0.088659976575709898 0.047564766029719416 0 0.085756398032635531 0.049161636096723013 0 0.088807440158627904 0.045838697360541546 0 0.08838685644132889 0.046544462688924329 0 0.087993918297025742 0.045717339116588589 0 0.088807440158627904 0.045838697360541546 0 0.08838685644132889 0.046544462688924329 0 0.088659976575709898 0.047564766029719416 0 0.08747472878302226 0.052466002295763155 0 0.087376623761058328 0.051132009000107302 0 0.08838685644132889 0.046544462688924329 0 0.088659976575709898 0.047564766029719416 0 0.088810424635865359 0.047169748006141363 0 0.088659976575709898 0.047564766029719416 0 0.085756398032635531 0.049161636096723013 0 0.085000402003631778 0.045917368521564375 0 0.084999827988457372 0.050927127099832152 0 0.085756398032635531 0.049161636096723013 0 0.085000402003631778 0.045917368521564375 0 0.086865110486345473 0.051223722795642163 0 0.088941276922650747 0.050792878104310435 0 0.085756398032635531 0.049161636096723013 0 0.08747472878302226 0.052466002295763155 0 0.086835178487866038 0.051770804395538779 0 0.088659976575709898 0.047564766029719416 0 0.085000402003631778 0.045917368521564375 0 0.088810424635865359 0.047169748006141363 0 0.084997358147337082 0.045911906206892616 0 0.085306406248654973 0.044179748470375577 0 0.085136466452807577 0.043668708360601403 0 0.084997358147337082 0.045911906206892616 0 0.085332126109728956 0.044371713779959153 0 0.085306406248654973 0.044179748470375577 0 0.085001481708716034 0.045917825708286369 0 0.086396293019121689 0.046149778572790942 0 0.085332126109728956 0.044371713779959153 0 0.085483374082611849 0.044061177547696555 0 0.085306406248654973 0.044179748470375577 0 0.085332126109728956 0.044371713779959153 0 0.085483374082611849 0.044061177547696555 0 0.086272976081084002 0.044452304793419446 0 0.085684230055239133 0.043492539032267782 0 0.085483374082611849 0.044061177547696555 0 0.086272976081084002 0.044452304793419446 0 0.085684230055239133 0.043492539032267782 0 0.085306406248654973 0.044179748470375577 0 0.085386291635053568 0.042569197893952658 0 0.085684230055239133 0.043492539032267782 0 0.085483374082611849 0.044061177547696555 0 0.085306406248654973 0.044179748470375577 0 0.085061506212537941 0.041109558495299861 0 0.085386291635053568 0.042569197893952658 0 0.085671040706658666 0.04026568728155442 0 0.085684230055239133 0.043492539032267782 0 0.085386291635053568 0.042569197893952658 0 0.086169456534003347 0.042246613809473463 0 0.085386291635053568 0.042569197893952658 0 0.085671040706658666 0.04026568728155442 0 0.086169456534003347 0.042246613809473463 0 0.084997358147337082 0.045911906206892616 0 0.085000640002956568 0.042809259714998202 0 0.085136466452807577 0.043668708360601403 0 0.085061506212537941 0.041109558495299861 0 0.085386291635053568 0.042569197893952658 0 0.085136466452807577 0.043668708360601403 0 0.085061506212537941 0.041109558495299861 0 0.085000640002956568 0.042809259714998202 0 0.085136466452807577 0.043668708360601403 0 0.085306406248654973 0.044179748470375577 0 0.085386291635053568 0.042569197893952658 0 0.085136466452807577 0.043668708360601403 0 0.087828889956758457 0.042800035907586992 0 0.090144102589998568 0.04052378585904242 0 0.091650248657048475 0.042432653319886174 0 0.092404160310859226 0.038983537461133158 0 0.08891308501406793 0.037772619122113757 0 0.090144102589998568 0.04052378585904242 0 0.08891308501406793 0.037772619122113757 0 0.090144102589998568 0.04052378585904242 0 0.088284629984172899 0.039842396680426231 0 0.087828889956758457 0.042800035907586992 0 0.090144102589998568 0.04052378585904242 0 0.088284629984172899 0.039842396680426231 0 0.087828889956758457 0.042800035907586992 0 0.088284629984172899 0.039842396680426231 0 0.08686706907587366 0.040605975120861983 0 0.085671040706658666 0.04026568728155442 0 0.08686706907587366 0.040605975120861983 0 0.086169456534003347 0.042246613809473463 0 0.087828889956758457 0.042800035907586992 0 0.08686706907587366 0.040605975120861983 0 0.086169456534003347 0.042246613809473463 0 0.087828889956758457 0.042800035907586992 0 0.086592208144953206 0.043927426501750501 0 0.087288699354672358 0.044965904273842491 0 0.087828889956758457 0.042800035907586992 0 0.086169456534003347 0.042246613809473463 0 0.086592208144953206 0.043927426501750501 0 0.085684230055239133 0.043492539032267782 0 0.086592208144953206 0.043927426501750501 0 0.086272976081084002 0.044452304793419446 0 0.085684230055239133 0.043492539032267782 0 0.086169456534003347 0.042246613809473463 0 0.086592208144953206 0.043927426501750501 0 0.086592208144953206 0.043927426501750501 0 0.086272976081084002 0.044452304793419446 0 0.087288699354672358 0.044965904273842491 0 0.086272976081084002 0.044452304793419446 0 0.087288699354672358 0.044965904273842491 0 0.08758931976540453 0.046093879856331531 0 0.084255875257333121 0.04087676537634017 0 0.084067263750370769 0.039415158627438052 0 0.087828889956758457 0.042800035907586992 0 0.088157498668467171 0.0460425329731479 0 0.091650248657048475 0.042432653319886174 0 0.087828889956758457 0.042800035907586992 0 0.087288699354672358 0.044965904273842491 0 0.088157498668467171 0.0460425329731479 0 0.088157498668467171 0.0460425329731479 0 0.087380169081032966 0.04574710183144954 0 0.085927836779777028 0.046578476375400024 0 0.087288699354672358 0.044965904273842491 0 0.088157498668467171 0.0460425329731479 0 0.08758931976540453 0.046093879856331531 0 0.088157498668467171 0.0460425329731479 0 0.087380169081032966 0.04574710183144954 0 0.08758931976540453 0.046093879856331531 0 0.087380169081032966 0.04574710183144954 0 0.08758931976540453 0.046093879856331531 0 0.087573725919705039 0.045505402574017542 0 0.085332126109728956 0.044371713779959153 0 0.086272976081084002 0.044452304793419446 0 0.08758931976540453 0.046093879856331531 0 0.08838685644132889 0.046544462688924329 0 0.088810424635865359 0.047169748006141363 0 0.08758931976540453 0.046093879856331531 0 0.086396293019121689 0.046149778572790942 0 0.087066703834525611 0.046312606585015452 0 0.08758931976540453 0.046093879856331531 0 0.087993918297025742 0.045717339116588589 0 0.087573725919705039 0.045505402574017542 0 0.08838685644132889 0.046544462688924329 0 0.08758931976540453 0.046093879856331531 0 0.087993918297025742 0.045717339116588589 0 0.088807440158627904 0.045838697360541546 0 0.087993918297025742 0.045717339116588589 0 0.087751324403651382 0.044593546348645458 0 0.08747472878302226 0.052466002295763155 0 0.088183123601092386 0.052678268166781811 0 0.090164067878643908 0.062105452691208596 0 0.089873784200558762 0.060880303933486583 0 0.091143239630302172 0.061521761743578728 0 0.087993918297025742 0.045717339116588589 0 0.087573725919705039 0.045505402574017542 0 0.087751324403651382 0.044593546348645458 0 0.087114256342859991 0.045132854073898131 0 0.087751324403651382 0.044593546348645458 0 0.086398093582881669 0.044326387462221388 0 0.087380169081032966 0.04574710183144954 0 0.087114256342859991 0.045132854073898131 0 0.086103756802572262 0.045363412754188828 0 0.087380169081032966 0.04574710183144954 0 0.087114256342859991 0.045132854073898131 0 0.087573725919705039 0.045505402574017542 0 0.087114256342859991 0.045132854073898131 0 0.087573725919705039 0.045505402574017542 0 0.087751324403651382 0.044593546348645458 0 0.086398093582881669 0.044326387462221388 0 0.086103756802572262 0.045363412754188828 0 0.084809902908715068 0.044429956429989904 0 0.086103756802572262 0.045363412754188828 0 0.084809902908715068 0.044429956429989904 0 0.084464808527254631 0.04590851148440496 0 0.087114256342859991 0.045132854073898131 0 0.086398093582881669 0.044326387462221388 0 0.086103756802572262 0.045363412754188828 0 0.084809902908715068 0.044429956429989904 0 0.082802948419902114 0.045850380485531771 0 0.081258198386641223 0.041537657047649362 0 0.084809902908715068 0.044429956429989904 0 0.082802948419902114 0.045850380485531771 0 0.084464808527254631 0.04590851148440496 0 0.082802948419902114 0.045850380485531771 0 0.083237859876871823 0.046368364250045979 0 0.084464808527254631 0.04590851148440496 0 0.083237859876871823 0.046368364250045979 0 0.084464808527254631 0.04590851148440496 0 0.084145052491041511 0.046846355028195112 0 0.084464808527254631 0.04590851148440496 0 0.084145052491041511 0.046846355028195112 0 0.085927836779777028 0.046578476375400024 0 0.083237859876871823 0.046368364250045979 0 0.084145052491041511 0.046846355028195112 0 0.082943703964382443 0.04715590103029229 0 0.086103756802572262 0.045363412754188828 0 0.084464808527254631 0.04590851148440496 0 0.085927836779777028 0.046578476375400024 0 0.087380169081032966 0.04574710183144954 0 0.086103756802572262 0.045363412754188828 0 0.085927836779777028 0.046578476375400024 0 0.085927836779777028 0.046578476375400024 0 0.084449590396885627 0.04798692665724142 0 0.086440821583324834 0.048705999045826426 0 0.088157498668467171 0.0460425329731479 0 0.085927836779777028 0.046578476375400024 0 0.086440821583324834 0.048705999045826426 0 0.084449590396885627 0.04798692665724142 0 0.082790933737177122 0.048616038787551226 0 0.082943703964382443 0.04715590103029229 0 0.084145052491041511 0.046846355028195112 0 0.085927836779777028 0.046578476375400024 0 0.084449590396885627 0.04798692665724142 0 0.084145052491041511 0.046846355028195112 0 0.084449590396885627 0.04798692665724142 0 0.082943703964382443 0.04715590103029229 0 0.0849851893681971 0.050507088749897087 0 0.084829925496350364 0.049604396941706527 0 0.082790933737177122 0.048616038787551226 0 0.084449590396885627 0.04798692665724142 0 0.084829925496350364 0.049604396941706527 0 0.082790933737177122 0.048616038787551226 0 0.083528462861892638 0.033710872764112797 0 0.076812740139136387 0.038366786617042549 0 0.069342623376906207 0.027449088179743855 0 0.067038234791049242 0.027867689736369151 0 0.069522835659238225 0.029770611056555887 0 0.092404160310859226 0.038983537461133158 0 0.09504048116537038 0.038241103023769651 0 0.091650248657048475 0.042432653319886174 0 0.0849851893681971 0.050507088749897087 0 0.084829925496350364 0.049604396941706527 0 0.086440821583324834 0.048705999045826426 0 0.083528462861892638 0.033710872764112797 0 0.084067263750370769 0.039415158627438052 0 0.084449590396885627 0.04798692665724142 0 0.084829925496350364 0.049604396941706527 0 0.086440821583324834 0.048705999045826426 0 0.092404160310859226 0.038983537461133158 0 0.090144102589998568 0.04052378585904242 0 0.091650248657048475 0.042432653319886174 0 0.071437953485909436 0.029943484947518102 0 0.070229029376868521 0.028642892650285221 0 0.069522835659238225 0.029770611056555887 0 0.071437953485909436 0.029943484947518102 0 0.071343478670564842 0.028861686225506358 0 0.071788061259432101 0.029653179409707964 0 0.071437953485909436 0.029943484947518102 0 0.071343478670564842 0.028861686225506358 0 0.070229029376868521 0.028642892650285221 0 0.069342623376906207 0.027449088179743855 0 0.070229029376868521 0.028642892650285221 0 0.069522835659238225 0.029770611056555887 0 0.082790933737177122 0.048616038787551226 0 0.082943703964382443 0.04715590103029229 0 0.081132629432510317 0.04714215273597161 0 0.071437953485909436 0.029943484947518102 0 0.072483325393086925 0.029582862863615274 0 0.070972940218073793 0.031272898075780292 0 0.076812740139136387 0.038366786617042549 0 0.071519921994508226 0.042936101777929017 0 0.071437953485909436 0.029943484947518102 0 0.069522835659238225 0.029770611056555887 0 0.072483325393086925 0.029582862863615274 0 0.072095577186453347 0.056424793019386896 0 0.07769451497608576 0.051584490972809788 0 0.071873273851382091 0.049034466368468033 0 0.071519921994508226 0.042936101777929017 0 0.074701116288141439 0.043834423059202723 0 0.082943703964382443 0.04715590103029229 0 0.081132629432510317 0.04714215273597161 0 0.082331233626916994 0.046274293505420047 0 0.083237859876871823 0.046368364250045979 0 0.082943703964382443 0.04715590103029229 0 0.082331233626916994 0.046274293505420047 0 0.082802948419902114 0.045850380485531771 0 0.083237859876871823 0.046368364250045979 0 0.082331233626916994 0.046274293505420047 0 0.082802948419902114 0.045850380485531771 0 0.077219352292529089 0.045691667362972491 0 0.081258198386641223 0.041537657047649362 0 0.076148042436516725 0.043687235015553535 0 0.074701116288141439 0.043834423059202723 0 0.082802948419902114 0.045850380485531771 0 0.07769451497608576 0.051584490972809788 0 0.077219352292529089 0.045691667362972491 0 0.077219352292529089 0.045691667362972491 0 0.071873273851382091 0.049034466368468033 0 0.0718704092641443 0.041925210441224263 0 0.07769451497608576 0.051584490972809788 0 0.077219352292529089 0.045691667362972491 0 0.071873273851382091 0.049034466368468033 0 0.066656735085773938 0.044236178848443587 0 0.068452264498419013 0.041932798584981973 0 0.071254925623356488 0.043787086509038217 0 0.066656735085773938 0.044236178848443587 0 0.068452264498419013 0.041932798584981973 0 0.06424681888054995 0.041018166204098525 0 0.068452264498419013 0.041932798584981973 0 0.067686029549181265 0.039386639260870528 0 0.06424681888054995 0.041018166204098525 0 0.068452264498419013 0.041932798584981973 0 0.067686029549181265 0.039386639260870528 0 0.071773066609626429 0.041213979956636164 0 0.08128350020302666 0.052170442390511697 0 0.082957775334569162 0.051711982542230257 0 0.09464702226837865 0.063364766235520315 0 0.093505167093637445 0.062744098581182461 0 0.093349050977745915 0.063540735782904742 0 0.07081902773366533 0.04624449868306281 0 0.076910659584091864 0.047646142267030143 0 0.068452264498419013 0.041932798584981973 0 0.071773066609626429 0.041213979956636164 0 0.071254925623356488 0.043787086509038217 0 0.077219352292529089 0.045691667362972491 0 0.0718704092641443 0.041925210441224263 0 0.081258198386641223 0.041537657047649362 0 0.076910659584091864 0.047646142267030143 0 0.085040523542650848 0.051248594725834561 0 0.084809902908715068 0.044429956429989904 0 0.081258198386641223 0.041537657047649362 0 0.085728178222198234 0.042312001081755611 0 0.071773066609626429 0.041213979956636164 0 0.071254925623356488 0.043787086509038217 0 0.076023720418304574 0.0432160482603186 0 0.082957775334569162 0.051711982542230257 0 0.085040523542650848 0.051248594725834561 0 0.086899529372682707 0.052152015189380008 0 0.085040523542650848 0.051248594725834561 0 0.087751324403651382 0.044593546348645458 0 0.086398093582881669 0.044326387462221388 0 0.085728178222198234 0.042312001081755611 0 0.091589995238322203 0.062235029928016682 0 0.092404500847853149 0.062155994991215352 0 0.092102508578779843 0.062808231552893029 0 0.086398093582881669 0.044326387462221388 0 0.084809902908715068 0.044429956429989904 0 0.085728178222198234 0.042312001081755611 0 0.091425957850552575 0.063254317349984004 0 0.092102508578779843 0.062808231552893029 0 0.09245412397578355 0.063542599003139869 0 0.092404500847853149 0.062155994991215352 0 0.092102508578779843 0.062808231552893029 0 0.092730637913305852 0.062928457835451992 0 0.092102508578779843 0.062808231552893029 0 0.092730637913305852 0.062928457835451992 0 0.09245412397578355 0.063542599003139869 0 0.093505167093637445 0.062744098581182461 0 0.092404500847853149 0.062155994991215352 0 0.092730637913305852 0.062928457835451992 0 0.093505167093637445 0.062744098581182461 0 0.092730637913305852 0.062928457835451992 0 0.093349050977745915 0.063540735782904742 0 0.092730637913305852 0.062928457835451992 0 0.093349050977745915 0.063540735782904742 0 0.09245412397578355 0.063542599003139869 0 0.093349050977745915 0.063540735782904742 0 0.09245412397578355 0.063542599003139869 0 0.093016249292960443 0.064470375536254884 0 0.093349050977745915 0.063540735782904742 0 0.093016249292960443 0.064470375536254884 0 0.093838991098699795 0.064169933033064369 0 0.091425957850552575 0.063254317349984004 0 0.09245412397578355 0.063542599003139869 0 0.092070612619201533 0.064649823496114478 0 0.09245412397578355 0.063542599003139869 0 0.092070612619201533 0.064649823496114478 0 0.093016249292960443 0.064470375536254884 0 0.092070612619201533 0.064649823496114478 0 0.093016249292960443 0.064470375536254884 0 0.093151706816338969 0.065794922952338283 0 0.093016249292960443 0.064470375536254884 0 0.09409260223471376 0.065203978787479799 0 0.093151706816338969 0.065794922952338283 0 0.09409260223471376 0.065203978787479799 0 0.094827198455307599 0.064434203007281574 0 0.093838991098699795 0.064169933033064369 0 0.093016249292960443 0.064470375536254884 0 0.09409260223471376 0.065203978787479799 0 0.093838991098699795 0.064169933033064369 0 0.09409260223471376 0.065203978787479799 0 0.094827198455307599 0.064434203007281574 0 0.095557846750164988 0.065376144249136889 0 0.09464702226837865 0.063364766235520315 0 0.094827198455307599 0.064434203007281574 0 0.093838991098699795 0.064169933033064369 0 0.09464702226837865 0.063364766235520315 0 0.094827198455307599 0.064434203007281574 0 0.095881059413274849 0.064040178439627823 0 0.09464702226837865 0.063364766235520315 0 0.093349050977745915 0.063540735782904742 0 0.093838991098699795 0.064169933033064369 0 0.080372741384140328 0.053337574051833515 0 0.082448987333814575 0.056991014286480263 0 0.061838313642567699 0.038043608917379783 0 0.063903582667138525 0.037656592899093753 0 0.060392772036641916 0.035643048560784062 0 0.061838313642567699 0.038043608917379783 0 0.060606861980838506 0.037789185240488993 0 0.060392772036641916 0.035643048560784062 0 0.061838313642567699 0.038043608917379783 0 0.060606861980838506 0.037789185240488993 0 0.060660070642454801 0.039496822900644726 0 0.061838313642567699 0.038043608917379783 0 0.063903582667138525 0.037656592899093753 0 0.06424681888054995 0.041018166204098525 0 0.08128350020302666 0.052170442390511697 0 0.080372741384140328 0.053337574051833515 0 0.094827198455307599 0.064434203007281574 0 0.095881059413274849 0.064040178439627823 0 0.095557846750164988 0.065376144249136889 0 0.095881059413274849 0.064040178439627823 0 0.095557846750164988 0.065376144249136889 0 0.096323584606555879 0.064740106481852105 0 0.095557846750164988 0.065376144249136889 0 0.096409566622698117 0.065333310039486892 0 0.096323584606555879 0.064740106481852105 0 0.095881059413274849 0.064040178439627823 0 0.096323584606555879 0.064740106481852105 0 0.097146530139197745 0.064804168715054164 0 0.096409566622698117 0.065333310039486892 0 0.096323584606555879 0.064740106481852105 0 0.096882409670735761 0.065130060282652252 0 0.096323584606555879 0.064740106481852105 0 0.096882409670735761 0.065130060282652252 0 0.097146530139197745 0.064804168715054164 0 0.096882409670735761 0.065130060282652252 0 0.097146530139197745 0.064804168715054164 0 0.09710911778246567 0.064993238755706784 0 0.096409566622698117 0.065333310039486892 0 0.096882409670735761 0.065130060282652252 0 0.096866174995356116 0.065529753319721384 0 0.096866174995356116 0.065529753319721384 0 0.09708687092954485 0.065400060768513998 0 0.097158500988500318 0.065662264977875404 0 0.096882409670735761 0.065130060282652252 0 0.096866174995356116 0.065529753319721384 0 0.09708687092954485 0.065400060768513998 0 0.059003556885092158 0.035727815210833555 0 0.060392772036641916 0.035643048560784062 0 0.057222138380790225 0.034843113066678116 0 0.09708687092954485 0.065400060768513998 0 0.097177053275782105 0.065196084097889767 0 0.097342552551582834 0.065482573218089216 0 0.09708687092954485 0.065400060768513998 0 0.097342552551582834 0.065482573218089216 0 0.097158500988500318 0.065662264977875404 0 0.082448987333814575 0.056991014286480263 0 0.073413175671548953 0.05799116377940728 0 0.097445326138136334 0.06512438700795288 0 0.097146530139197745 0.064804168715054164 0 0.098303037484022207 0.065543864454735382 0 0.097445326138136334 0.06512438700795288 0 0.097610910452074512 0.065263806809557345 0 0.098303037484022207 0.065543864454735382 0 0.082448987333814575 0.056991014286480263 0 0.091939321788542 0.061717680478394384 0 0.060392772036641916 0.035643048560784062 0 0.055229126141453547 0.033183415183288767 0 0.057222138380790225 0.034843113066678116 0 0.096882409670735761 0.065130060282652252 0 0.097177053275782105 0.065196084097889767 0 0.09710911778246567 0.064993238755706784 0 0.096882409670735761 0.065130060282652252 0 0.09708687092954485 0.065400060768513998 0 0.097177053275782105 0.065196084097889767 0 0.097177053275782105 0.065196084097889767 0 0.09710911778246567 0.064993238755706784 0 0.09726026045595898 0.065075287894340306 0 0.097177053275782105 0.065196084097889767 0 0.097392840409721279 0.065265545766686806 0 0.09726026045595898 0.065075287894340306 0 0.097177053275782105 0.065196084097889767 0 0.097392840409721279 0.065265545766686806 0 0.097342552551582834 0.065482573218089216 0 0.097445326138136334 0.06512438700795288 0 0.097392840409721279 0.065265545766686806 0 0.09726026045595898 0.065075287894340306 0 0.097392840409721279 0.065265545766686806 0 0.097342552551582834 0.065482573218089216 0 0.097557103940599355 0.065406456990330472 0 0.097557103940599355 0.065406456990330472 0 0.097810623154767642 0.065431274996272645 0 0.09762021642611042 0.06559193050274495 0 0.097342552551582834 0.065482573218089216 0 0.097557103940599355 0.065406456990330472 0 0.09762021642611042 0.06559193050274495 0 0.097557103940599355 0.065406456990330472 0 0.097810623154767642 0.065431274996272645 0 0.097610910452074512 0.065263806809557345 0 0.097810623154767642 0.065431274996272645 0 0.097891206686289908 0.065632948890865711 0 0.09762021642611042 0.06559193050274495 0 0.097392840409721279 0.065265545766686806 0 0.097557103940599355 0.065406456990330472 0 0.097610910452074512 0.065263806809557345 0 0.097445326138136334 0.06512438700795288 0 0.097392840409721279 0.065265545766686806 0 0.097610910452074512 0.065263806809557345 0 0.058195227373955043 0.035606920703847758 0 0.059003556885092158 0.035727815210833555 0 0.057222138380790225 0.034843113066678116 0 0.057767268767473956 0.03550167769837443 0 0.058195227373955043 0.035606920703847758 0 0.057222138380790225 0.034843113066678116 0 0.057767268767473956 0.03550167769837443 0 0.057236886904206891 0.035791891687012307 0 0.058042741230086646 0.036226037290716787 0 0.058195227373955043 0.035606920703847758 0 0.058804915393913748 0.036174222684191001 0 0.058042741230086646 0.036226037290716787 0 0.057767268767473956 0.03550167769837443 0 0.058195227373955043 0.035606920703847758 0 0.058042741230086646 0.036226037290716787 0 0.058195227373955043 0.035606920703847758 0 0.059003556885092158 0.035727815210833555 0 0.058804915393913748 0.036174222684191001 0 0.059003556885092158 0.035727815210833555 0 0.059490947000755835 0.036047282031255554 0 0.058804915393913748 0.036174222684191001 0 0.059003556885092158 0.035727815210833555 0 0.059490947000755835 0.036047282031255554 0 0.060392772036641916 0.035643048560784062 0 0.059490947000755835 0.036047282031255554 0 0.060392772036641916 0.035643048560784062 0 0.059686552835502858 0.036426978858901192 0 0.097146530139197745 0.064804168715054164 0 0.09710911778246567 0.064993238755706784 0 0.09726026045595898 0.065075287894340306 0 0.097445326138136334 0.06512438700795288 0 0.097146530139197745 0.064804168715054164 0 0.09726026045595898 0.065075287894340306 0 0.094899060218814238 0.063748175129782911 0 0.098303037484022207 0.065543864454735382 0 0.098615811949590529 0.065119047425305165 0 0.055229126141453547 0.033183415183288767 0 0.054795479940345386 0.034135899959295286 0 0.053794174937775843 0.03398819367232607 0 0.098591046175284178 0.065568691090405695 0 0.098615811949590529 0.065119047425305165 0 0.098915250565875593 0.06567726585244045 0 0.098591046175284178 0.065568691090405695 0 0.098303037484022207 0.065543864454735382 0 0.098615811949590529 0.065119047425305165 0 0.055229126141453547 0.033183415183288767 0 0.05593325656081289 0.034139583806108535 0 0.055415538526137363 0.034216876475022626 0 0.055229126141453547 0.033183415183288767 0 0.055415538526137363 0.034216876475022626 0 0.054795479940345386 0.034135899959295286 0 0.097810623154767642 0.065431274996272645 0 0.097610910452074512 0.065263806809557345 0 0.098303037484022207 0.065543864454735382 0 0.097810623154767642 0.065431274996272645 0 0.098303037484022207 0.065543864454735382 0 0.098046626101058618 0.065599389172604855 0 0.097810623154767642 0.065431274996272645 0 0.097891206686289908 0.065632948890865711 0 0.098046626101058618 0.065599389172604855 0 0.055229126141453547 0.033183415183288767 0 0.057222138380790225 0.034843113066678116 0 0.05593325656081289 0.034139583806108535 0 0.057222138380790225 0.034843113066678116 0 0.057236886904206891 0.035791891687012307 0 0.056531426179865597 0.035405477538690458 0 0.057767268767473956 0.03550167769837443 0 0.057222138380790225 0.034843113066678116 0 0.057236886904206891 0.035791891687012307 0 0.056531426179865597 0.035405477538690458 0 0.056003249086475707 0.034849444475826261 0 0.055667248090305099 0.035722154956832584 0 0.057222138380790225 0.034843113066678116 0 0.056531426179865597 0.035405477538690458 0 0.056003249086475707 0.034849444475826261 0 0.057222138380790225 0.034843113066678116 0 0.056003249086475707 0.034849444475826261 0 0.05593325656081289 0.034139583806108535 0 0.056003249086475707 0.034849444475826261 0 0.05593325656081289 0.034139583806108535 0 0.055415538526137363 0.034216876475022626 0 0.055415538526137363 0.034216876475022626 0 0.055169276094144862 0.034784929523076609 0 0.054795479940345386 0.034135899959295286 0 0.056003249086475707 0.034849444475826261 0 0.055415538526137363 0.034216876475022626 0 0.055169276094144862 0.034784929523076609 0 0.056003249086475707 0.034849444475826261 0 0.055169276094144862 0.034784929523076609 0 0.055667248090305099 0.035722154956832584 0 0.055169276094144862 0.034784929523076609 0 0.055667248090305099 0.035722154956832584 0 0.054343357777684911 0.035821193106367617 0 0.055169276094144862 0.034784929523076609 0 0.05427556546135575 0.034743680635802167 0 0.054343357777684911 0.035821193106367617 0 0.05427556546135575 0.034743680635802167 0 0.054795479940345386 0.034135899959295286 0 0.053794174937775843 0.03398819367232607 0 0.055169276094144862 0.034784929523076609 0 0.05427556546135575 0.034743680635802167 0 0.054795479940345386 0.034135899959295286 0 0.054343357777684911 0.035821193106367617 0 0.055296629486313649 0.036745569695108726 0 0.054067432234541364 0.037671976274206653 0 0.055296629486313649 0.036745569695108726 0 0.055819758139587436 0.037988465646075067 0 0.054067432234541364 0.037671976274206653 0 0.055667248090305099 0.035722154956832584 0 0.054343357777684911 0.035821193106367617 0 0.055296629486313649 0.036745569695108726 0 0.055667248090305099 0.035722154956832584 0 0.055296629486313649 0.036745569695108726 0 0.0563895902493146 0.036445911405467303 0 0.055296629486313649 0.036745569695108726 0 0.0563895902493146 0.036445911405467303 0 0.055819758139587436 0.037988465646075067 0 0.0563895902493146 0.036445911405467303 0 0.05714231759430298 0.037861328413932811 0 0.055819758139587436 0.037988465646075067 0 0.057236886904206891 0.035791891687012307 0 0.056531426179865597 0.035405477538690458 0 0.0563895902493146 0.036445911405467303 0 0.056531426179865597 0.035405477538690458 0 0.055667248090305099 0.035722154956832584 0 0.0563895902493146 0.036445911405467303 0 0.057236886904206891 0.035791891687012307 0 0.0563895902493146 0.036445911405467303 0 0.057365459144786204 0.03662185959881676 0 0.057236886904206891 0.035791891687012307 0 0.057365459144786204 0.03662185959881676 0 0.058042741230086646 0.036226037290716787 0 0.057365459144786204 0.03662185959881676 0 0.05714231759430298 0.037861328413932811 0 0.058145634374650784 0.037176357609249977 0 0.0563895902493146 0.036445911405467303 0 0.057365459144786204 0.03662185959881676 0 0.05714231759430298 0.037861328413932811 0 0.05714231759430298 0.037861328413932811 0 0.05779930803582007 0.039056370867285542 0 0.056731053900815613 0.039561918988523487 0 0.05714231759430298 0.037861328413932811 0 0.055819758139587436 0.037988465646075067 0 0.056731053900815613 0.039561918988523487 0 0.055819758139587436 0.037988465646075067 0 0.055143015944948401 0.039128514453524867 0 0.054067432234541364 0.037671976274206653 0 0.055819758139587436 0.037988465646075067 0 0.055143015944948401 0.039128514453524867 0 0.056731053900815613 0.039561918988523487 0 0.060606861980838506 0.037789185240488993 0 0.060392772036641916 0.035643048560784062 0 0.059947133419228041 0.036956802351839957 0 0.059123546628823909 0.037433090482248604 0 0.059947133419228041 0.036956802351839957 0 0.059297337003710121 0.036691656069878925 0 0.059794171006807881 0.037660762227717623 0 0.059123546628823909 0.037433090482248604 0 0.059947133419228041 0.036956802351839957 0 0.060606861980838506 0.037789185240488993 0 0.059794171006807881 0.037660762227717623 0 0.059947133419228041 0.036956802351839957 0 0.060392772036641916 0.035643048560784062 0 0.059947133419228041 0.036956802351839957 0 0.059686552835502858 0.036426978858901192 0 0.059947133419228041 0.036956802351839957 0 0.059686552835502858 0.036426978858901192 0 0.059297337003710121 0.036691656069878925 0 0.059490947000755835 0.036047282031255554 0 0.059686552835502858 0.036426978858901192 0 0.059297337003710121 0.036691656069878925 0 0.059490947000755835 0.036047282031255554 0 0.059297337003710121 0.036691656069878925 0 0.058804915393913748 0.036174222684191001 0 0.058804915393913748 0.036174222684191001 0 0.058708078593231565 0.036705445697453341 0 0.058042741230086646 0.036226037290716787 0 0.059297337003710121 0.036691656069878925 0 0.058804915393913748 0.036174222684191001 0 0.058708078593231565 0.036705445697453341 0 0.057365459144786204 0.03662185959881676 0 0.058042741230086646 0.036226037290716787 0 0.058145634374650784 0.037176357609249977 0 0.058708078593231565 0.036705445697453341 0 0.058042741230086646 0.036226037290716787 0 0.058145634374650784 0.037176357609249977 0 0.059123546628823909 0.037433090482248604 0 0.058708078593231565 0.036705445697453341 0 0.058145634374650784 0.037176357609249977 0 0.059123546628823909 0.037433090482248604 0 0.058145634374650784 0.037176357609249977 0 0.058440829162955649 0.038193272489920667 0 0.059123546628823909 0.037433090482248604 0 0.059297337003710121 0.036691656069878925 0 0.058708078593231565 0.036705445697453341 0 0.059123546628823909 0.037433090482248604 0 0.058440829162955649 0.038193272489920667 0 0.059615705183371392 0.038489831193455143 0 0.05714231759430298 0.037861328413932811 0 0.058440829162955649 0.038193272489920667 0 0.05779930803582007 0.039056370867285542 0 0.05714231759430298 0.037861328413932811 0 0.058145634374650784 0.037176357609249977 0 0.058440829162955649 0.038193272489920667 0 0.058440829162955649 0.038193272489920667 0 0.05779930803582007 0.039056370867285542 0 0.05876997630810317 0.03913283433542214 0 0.058440829162955649 0.038193272489920667 0 0.05876997630810317 0.03913283433542214 0 0.059615705183371392 0.038489831193455143 0 0.05876997630810317 0.03913283433542214 0 0.059615705183371392 0.038489831193455143 0 0.059430271666149941 0.039960283646687064 0 0.060606861980838506 0.037789185240488993 0 0.059615705183371392 0.038489831193455143 0 0.060660070642454801 0.039496822900644726 0 0.059794171006807881 0.037660762227717623 0 0.059123546628823909 0.037433090482248604 0 0.059615705183371392 0.038489831193455143 0 0.060606861980838506 0.037789185240488993 0 0.059794171006807881 0.037660762227717623 0 0.059615705183371392 0.038489831193455143 0 0.059430271666149941 0.039960283646687064 0 0.060314232377764822 0.041341252316786037 0 0.060660070642454801 0.039496822900644726 0 0.059615705183371392 0.038489831193455143 0 0.059430271666149941 0.039960283646687064 0 0.060660070642454801 0.039496822900644726 0 0.05876997630810317 0.03913283433542214 0 0.059430271666149941 0.039960283646687064 0 0.058133511033788415 0.04024027975967872 0 0.05779930803582007 0.039056370867285542 0 0.05876997630810317 0.03913283433542214 0 0.058133511033788415 0.04024027975967872 0 0.059430271666149941 0.039960283646687064 0 0.058133511033788415 0.04024027975967872 0 0.058778018798496555 0.041537757461523876 0 0.058133511033788415 0.04024027975967872 0 0.058778018798496555 0.041537757461523876 0 0.057280568317419622 0.041286286436311423 0 0.058778018798496555 0.041537757461523876 0 0.057280568317419622 0.041286286436311423 0 0.057939508131143624 0.043137289678002691 0 0.059430271666149941 0.039960283646687064 0 0.058778018798496555 0.041537757461523876 0 0.060314232377764822 0.041341252316786037 0 0.058778018798496555 0.041537757461523876 0 0.060314232377764822 0.041341252316786037 0 0.059553273025068909 0.0427304782074516 0 0.055143015944948401 0.039128514453524867 0 0.055675775162127523 0.040722630917844171 0 0.053287964532666848 0.039835400641556794 0 0.055143015944948401 0.039128514453524867 0 0.055675775162127523 0.040722630917844171 0 0.056731053900815613 0.039561918988523487 0 0.058133511033788415 0.04024027975967872 0 0.056731053900815613 0.039561918988523487 0 0.057280568317419622 0.041286286436311423 0 0.055675775162127523 0.040722630917844171 0 0.056731053900815613 0.039561918988523487 0 0.057280568317419622 0.041286286436311423 0 0.05779930803582007 0.039056370867285542 0 0.058133511033788415 0.04024027975967872 0 0.056731053900815613 0.039561918988523487 0 0.055675775162127523 0.040722630917844171 0 0.057280568317419622 0.041286286436311423 0 0.05624938696846582 0.04234134822642073 0 0.057280568317419622 0.041286286436311423 0 0.05624938696846582 0.04234134822642073 0 0.057939508131143624 0.043137289678002691 0 0.055675775162127523 0.040722630917844171 0 0.05624938696846582 0.04234134822642073 0 0.054198974875835006 0.0428600260807043 0 0.056287518413790455 0.043930419640648394 0 0.055131626970550615 0.045396955304471936 0 0.054198974875835006 0.0428600260807043 0 0.05624938696846582 0.04234134822642073 0 0.056287518413790455 0.043930419640648394 0 0.054198974875835006 0.0428600260807043 0 0.056287518413790455 0.043930419640648394 0 0.057757999144843773 0.0450023298920771 0 0.057939508131143624 0.043137289678002691 0 0.05624938696846582 0.04234134822642073 0 0.056287518413790455 0.043930419640648394 0 0.057939508131143624 0.043137289678002691 0 0.056287518413790455 0.043930419640648394 0 0.057757999144843773 0.0450023298920771 0 0.055131626970550615 0.045396955304471936 0 0.059553273025068909 0.0427304782074516 0 0.057939508131143624 0.043137289678002691 0 0.059216154905115663 0.044342699623673279 0 0.059553273025068909 0.0427304782074516 0 0.059216154905115663 0.044342699623673279 0 0.060998411407699273 0.043041081691586179 0 0.058778018798496555 0.041537757461523876 0 0.059553273025068909 0.0427304782074516 0 0.057939508131143624 0.043137289678002691 0 0.057757999144843773 0.0450023298920771 0 0.059216154905115663 0.044342699623673279 0 0.059247217033208788 0.04626058196655438 0 0.057757999144843773 0.0450023298920771 0 0.057939508131143624 0.043137289678002691 0 0.059216154905115663 0.044342699623673279 0 0.059216154905115663 0.044342699623673279 0 0.060198868735106791 0.044971262208196541 0 0.060998411407699273 0.043041081691586179 0 0.060198868735106791 0.044971262208196541 0 0.062129316804453188 0.044375202989650649 0 0.060998411407699273 0.043041081691586179 0 0.060998411407699273 0.043041081691586179 0 0.061827726090279735 0.041003844346800676 0 0.063120671127880057 0.042720004215393924 0 0.062129316804453188 0.044375202989650649 0 0.060998411407699273 0.043041081691586179 0 0.063120671127880057 0.042720004215393924 0 0.060314232377764822 0.041341252316786037 0 0.059553273025068909 0.0427304782074516 0 0.060998411407699273 0.043041081691586179 0 0.061838313642567699 0.038043608917379783 0 0.061827726090279735 0.041003844346800676 0 0.06424681888054995 0.041018166204098525 0 0.060314232377764822 0.041341252316786037 0 0.060998411407699273 0.043041081691586179 0 0.061827726090279735 0.041003844346800676 0 0.061838313642567699 0.038043608917379783 0 0.061827726090279735 0.041003844346800676 0 0.060660070642454801 0.039496822900644726 0 0.060314232377764822 0.041341252316786037 0 0.061827726090279735 0.041003844346800676 0 0.060660070642454801 0.039496822900644726 0 0.067686029549181265 0.039386639260870528 0 0.063903582667138525 0.037656592899093753 0 0.06424681888054995 0.041018166204098525 0 0.061827726090279735 0.041003844346800676 0 0.06424681888054995 0.041018166204098525 0 0.063120671127880057 0.042720004215393924 0 0.066656735085773938 0.044236178848443587 0 0.06424681888054995 0.041018166204098525 0 0.063120671127880057 0.042720004215393924 0 0.066656735085773938 0.044236178848443587 0 0.062129316804453188 0.044375202989650649 0 0.063120671127880057 0.042720004215393924 0 0.07081902773366533 0.04624449868306281 0 0.067639756648729912 0.046043357537145627 0 0.0718704092641443 0.041925210441224263 0 0.062129316804453188 0.044375202989650649 0 0.066274167105586548 0.046719380709521627 0 0.071873273851382091 0.049034466368468033 0 0.0718704092641443 0.041925210441224263 0 0.066274167105586548 0.046719380709521627 0 0.066274167105586548 0.046719380709521627 0 0.06013019204870057 0.047150535594202424 0 0.06616926033235182 0.051854419803349511 0 0.071873273851382091 0.049034466368468033 0 0.066274167105586548 0.046719380709521627 0 0.06616926033235182 0.051854419803349511 0 0.060198868735106791 0.044971262208196541 0 0.06013019204870057 0.047150535594202424 0 0.059247217033208788 0.04626058196655438 0 0.060198868735106791 0.044971262208196541 0 0.062129316804453188 0.044375202989650649 0 0.06013019204870057 0.047150535594202424 0 0.062129316804453188 0.044375202989650649 0 0.066274167105586548 0.046719380709521627 0 0.06013019204870057 0.047150535594202424 0 0.06572548185426505 0.043640205085624072 0 0.067323638668958116 0.043713243088397538 0 0.06013019204870057 0.047150535594202424 0 0.059325664977270369 0.047147223218626161 0 0.058677217376141413 0.046933807902764767 0 0.06013019204870057 0.047150535594202424 0 0.059325664977270369 0.047147223218626161 0 0.059247217033208788 0.04626058196655438 0 0.059325664977270369 0.047147223218626161 0 0.058677217376141413 0.046933807902764767 0 0.059005413300122204 0.047142950439291342 0 0.06013019204870057 0.047150535594202424 0 0.058677217376141413 0.046933807902764767 0 0.05722669310189505 0.047069730415508007 0 0.058677217376141413 0.046933807902764767 0 0.05722669310189505 0.047069730415508007 0 0.057534019307583742 0.046019053894760929 0 0.058677217376141413 0.046933807902764767 0 0.057534019307583742 0.046019053894760929 0 0.058715592960453304 0.046567198649073188 0 0.058677217376141413 0.046933807902764767 0 0.058715592960453304 0.046567198649073188 0 0.059005413300122204 0.047142950439291342 0 0.055812083369935948 0.046129315672623725 0 0.05722669310189505 0.047069730415508007 0 0.057534019307583742 0.046019053894760929 0 0.072095577186453347 0.056424793019386896 0 0.071873273851382091 0.049034466368468033 0 0.06616926033235182 0.051854419803349511 0 0.071519921994508226 0.042936101777929017 0 0.067323638668958116 0.043713243088397538 0 0.055812083369935948 0.046129315672623725 0 0.057534019307583742 0.046019053894760929 0 0.056734162236612699 0.044204343674195602 0 0.071519921994508226 0.042936101777929017 0 0.06583932089247381 0.041153562359223746 0 0.072483325393086925 0.029582862863615274 0 0.068460360605317641 0.031668333284609974 0 0.070972940218073793 0.031272898075780292 0 0.057534019307583742 0.046019053894760929 0 0.057997898890046737 0.045243580756028266 0 0.056734162236612699 0.044204343674195602 0 0.057534019307583742 0.046019053894760929 0 0.057997898890046737 0.045243580756028266 0 0.058715592960453304 0.046567198649073188 0 0.064029220012969956 0.040752919154962652 0 0.06583932089247381 0.041153562359223746 0 0.057997898890046737 0.045243580756028266 0 0.056734162236612699 0.044204343674195602 0 0.059207642490150474 0.043775559763848552 0 0.063647221700046649 0.038772342421415425 0 0.068460360605317641 0.031668333284609974 0 0.070972940218073793 0.031272898075780292 0 0.071534771603122646 0.029080924298681695 0 0.071550827357550584 0.029582580892790537 0 0.073861326185072199 0.027772874894729148 0 0.076587490034206854 0.025955709333401317 0 0.070972940218073793 0.031272898075780292 0 0.073861326185072199 0.027772874894729148 0 0.071788061259432101 0.029653179409707964 0 0.070972940218073793 0.031272898075780292 0 0.073861326185072199 0.027772874894729148 0 0.071343478670564842 0.028861686225506358 0 0.071788061259432101 0.029653179409707964 0 0.071437953485909436 0.029943484947518102 0 0.071788061259432101 0.029653179409707964 0 0.070972940218073793 0.031272898075780292 0 0.064041035031432297 0.040665823664386529 0 0.061590583086473277 0.042015177049577128 0 0.062618012354820493 0.044813653939284714 0 0.061590583086473277 0.042015177049577128 0 0.059207642490150474 0.043775559763848552 0 0.060661831319577954 0.044682352368457454 0 0.061590583086473277 0.042015177049577128 0 0.060661831319577954 0.044682352368457454 0 0.062618012354820493 0.044813653939284714 0 0.060068490939836211 0.038669869312493284 0 0.061590583086473277 0.042015177049577128 0 0.059207642490150474 0.043775559763848552 0 0.060068490939836211 0.038669869312493284 0 0.056734162236612699 0.044204343674195602 0 0.059207642490150474 0.043775559763848552 0 0.059207642490150474 0.043775559763848552 0 0.058850575307127548 0.04557206768334874 0 0.059363961105434009 0.046253035211228172 0 0.059207642490150474 0.043775559763848552 0 0.059363961105434009 0.046253035211228172 0 0.060661831319577954 0.044682352368457454 0 0.057997898890046737 0.045243580756028266 0 0.059207642490150474 0.043775559763848552 0 0.058850575307127548 0.04557206768334874 0 0.057997898890046737 0.045243580756028266 0 0.058850575307127548 0.04557206768334874 0 0.058715592960453304 0.046567198649073188 0 0.058850575307127548 0.04557206768334874 0 0.058715592960453304 0.046567198649073188 0 0.059363961105434009 0.046253035211228172 0 0.058715592960453304 0.046567198649073188 0 0.059363961105434009 0.046253035211228172 0 0.059002613843475299 0.047437850867623664 0 0.059363961105434009 0.046253035211228172 0 0.060661831319577954 0.044682352368457454 0 0.059171123101075099 0.048924928334205753 0 0.059363961105434009 0.046253035211228172 0 0.059171123101075099 0.048924928334205753 0 0.059002613843475299 0.047437850867623664 0 0.060661831319577954 0.044682352368457454 0 0.059171123101075099 0.048924928334205753 0 0.062618012354820493 0.044813653939284714 0 0.059171123101075099 0.048924928334205753 0 0.058507984519319933 0.047685853418481465 0 0.055513685006777232 0.047562902929365602 0 0.059171123101075099 0.048924928334205753 0 0.058507984519319933 0.047685853418481465 0 0.059002613843475299 0.047437850867623664 0 0.058715592960453304 0.046567198649073188 0 0.059002613843475299 0.047437850867623664 0 0.059005413300122204 0.047142950439291342 0 0.058507984519319933 0.047685853418481465 0 0.059002613843475299 0.047437850867623664 0 0.058921457836818056 0.047225991934576314 0 0.059325664977270369 0.047147223218626161 0 0.058921457836818056 0.047225991934576314 0 0.059005413300122204 0.047142950439291342 0 0.059002613843475299 0.047437850867623664 0 0.058921457836818056 0.047225991934576314 0 0.059005413300122204 0.047142950439291342 0 0.059325664977270369 0.047147223218626161 0 0.058921457836818056 0.047225991934576314 0 0.059247217033208788 0.04626058196655438 0 0.058921457836818056 0.047225991934576314 0 0.059247217033208788 0.04626058196655438 0 0.057823241273110823 0.046480303770920925 0 0.058507984519319933 0.047685853418481465 0 0.058921457836818056 0.047225991934576314 0 0.057823241273110823 0.046480303770920925 0 0.057757999144843773 0.0450023298920771 0 0.059247217033208788 0.04626058196655438 0 0.057823241273110823 0.046480303770920925 0 0.059216154905115663 0.044342699623673279 0 0.060198868735106791 0.044971262208196541 0 0.059247217033208788 0.04626058196655438 0 0.057823241273110823 0.046480303770920925 0 0.055513685006777232 0.047562902929365602 0 0.055131626970550615 0.045396955304471936 0 0.058507984519319933 0.047685853418481465 0 0.057823241273110823 0.046480303770920925 0 0.055513685006777232 0.047562902929365602 0 0.057757999144843773 0.0450023298920771 0 0.057823241273110823 0.046480303770920925 0 0.055131626970550615 0.045396955304471936 0 0.052839687053901338 0.046489414427551438 0 0.055513685006777232 0.047562902929365602 0 0.055131626970550615 0.045396955304471936 0 0.052839687053901338 0.046489414427551438 0 0.049797112263114111 0.047914832587334845 0 0.055513685006777232 0.047562902929365602 0 0.052839687053901338 0.046489414427551438 0 0.049797112263114111 0.047914832587334845 0 0.050872582563279339 0.045144155300431157 0 0.049797112263114111 0.047914832587334845 0 0.055513685006777232 0.047562902929365602 0 0.052103170032379721 0.05216130157869487 0 0.04376306657180707 0.057565973488872005 0 0.044318950737256592 0.063531479578258845 0 0.03967119917924989 0.061145533926684446 0 0.049499097723836656 0.04914730302899678 0 0.052119871834765352 0.04587765170160487 0 0.059171123101075099 0.048924928334205753 0 0.055513685006777232 0.047562902929365602 0 0.052103170032379721 0.05216130157869487 0 0.059171123101075099 0.048924928334205753 0 0.062618012354820493 0.044813653939284714 0 0.069650653452570654 0.046948072080720452 0 0.056481118610585954 0.045941037261226711 0 0.052119871834765352 0.04587765170160487 0 0.052119871834765352 0.04587765170160487 0 0.059113957226816394 0.036530490504720854 0 0.051013665896172677 0.035312770942731553 0 0.05135962337527613 0.034655929209808735 0 0.050757895865597598 0.034293756288535739 0 0.062618012354820493 0.044813653939284714 0 0.069650653452570654 0.046948072080720452 0 0.067485775785656246 0.038704782064625666 0 0.059626625234365994 0.038102426368839815 0 0.059113957226816394 0.036530490504720854 0 0.064041035031432297 0.040665823664386529 0 0.062618012354820493 0.044813653939284714 0 0.066789666971631495 0.04123693205752544 0 0.051978047786507275 0.034275165373720475 0 0.05195581833282769 0.03501759772921078 0 0.05284259962006474 0.034751230221943062 0 0.045787360343827861 0.04496735025680134 0 0.042580300588224908 0.041455702590502373 0 0.05135962337527613 0.034655929209808735 0 0.051978047786507275 0.034275165373720475 0 0.05195581833282769 0.03501759772921078 0 0.044318950737256592 0.063531479578258845 0 0.03890241781896521 0.064650512739891128 0 0.03967119917924989 0.061145533926684446 0 0.051013665896172677 0.035312770942731553 0 0.05135962337527613 0.034655929209808735 0 0.05195581833282769 0.03501759772921078 0 0.052119871834765352 0.04587765170160487 0 0.045787360343827861 0.04496735025680134 0 0.03890241781896521 0.064650512739891128 0 0.03524168728609537 0.061194458596982387 0 0.033978463841219921 0.065404241105640665 0 0.03890241781896521 0.064650512739891128 0 0.03524168728609537 0.061194458596982387 0 0.03967119917924989 0.061145533926684446 0 0.03524168728609537 0.061194458596982387 0 0.03967119917924989 0.061145533926684446 0 0.03637645521308841 0.057831177722751058 0 0.03524168728609537 0.061194458596982387 0 0.03637645521308841 0.057831177722751058 0 0.032834827494541988 0.056583980635584404 0 0.04376306657180707 0.057565973488872005 0 0.03967119917924989 0.061145533926684446 0 0.03637645521308841 0.057831177722751058 0 0.04376306657180707 0.057565973488872005 0 0.03637645521308841 0.057831177722751058 0 0.033619301217806666 0.052755210573859644 0 0.03637645521308841 0.057831177722751058 0 0.033619301217806666 0.052755210573859644 0 0.032834827494541988 0.056583980635584404 0 0.033619301217806666 0.052755210573859644 0 0.031788863215559522 0.056511966054454667 0 0.032571731472537467 0.05504939061161896 0 0.033619301217806666 0.052755210573859644 0 0.03019367079495831 0.057431104160346753 0 0.026320751370926501 0.058590702966290917 0 0.039566892621535232 0.054847467361862315 0 0.041347924119086853 0.054488502765183307 0 0.033619301217806666 0.052755210573859644 0 0.03019367079495831 0.057431104160346753 0 0.031788863215559522 0.056511966054454667 0 0.03019367079495831 0.057431104160346753 0 0.026320751370926501 0.058590702966290917 0 0.028333281293603674 0.06014084358476654 0 0.03019367079495831 0.057431104160346753 0 0.030286915041444016 0.059523817165600137 0 0.031788863215559522 0.056511966054454667 0 0.03019367079495831 0.057431104160346753 0 0.030286915041444016 0.059523817165600137 0 0.028333281293603674 0.06014084358476654 0 0.033619301217806666 0.052755210573859644 0 0.039850379549842885 0.040226193707544045 0 0.044311058575783158 0.046075863797138981 0 0.039850379549842885 0.040226193707544045 0 0.044311058575783158 0.046075863797138981 0 0.046047090248078799 0.040247195997152138 0 0.049499097723836656 0.04914730302899678 0 0.047908031680111582 0.046952251717980849 0 0.04376306657180707 0.057565973488872005 0 0.033619301217806666 0.052755210573859644 0 0.044311058575783158 0.046075863797138981 0 0.044311058575783158 0.046075863797138981 0 0.050872582563279339 0.045144155300431157 0 0.048463110945117668 0.042859931207998123 0 0.049797112263114111 0.047914832587334845 0 0.044311058575783158 0.046075863797138981 0 0.050872582563279339 0.045144155300431157 0 0.050872582563279339 0.045144155300431157 0 0.055131626970550615 0.045396955304471936 0 0.054198974875835006 0.0428600260807043 0 0.052839687053901338 0.046489414427551438 0 0.050872582563279339 0.045144155300431157 0 0.055131626970550615 0.045396955304471936 0 0.054198974875835006 0.0428600260807043 0 0.051055287316114181 0.041844984950444079 0 0.053287964532666848 0.039835400641556794 0 0.050872582563279339 0.045144155300431157 0 0.054198974875835006 0.0428600260807043 0 0.051055287316114181 0.041844984950444079 0 0.051055287316114181 0.041844984950444079 0 0.051301549163952104 0.039621213060451244 0 0.053287964532666848 0.039835400641556794 0 0.055675775162127523 0.040722630917844171 0 0.054198974875835006 0.0428600260807043 0 0.053287964532666848 0.039835400641556794 0 0.044311058575783158 0.046075863797138981 0 0.048463110945117668 0.042859931207998123 0 0.046047090248078799 0.040247195997152138 0 0.050872582563279339 0.045144155300431157 0 0.051055287316114181 0.041844984950444079 0 0.048463110945117668 0.042859931207998123 0 0.051055287316114181 0.041844984950444079 0 0.048463110945117668 0.042859931207998123 0 0.049420044132304261 0.039198796292210472 0 0.051055287316114181 0.041844984950444079 0 0.051301549163952104 0.039621213060451244 0 0.049420044132304261 0.039198796292210472 0 0.048463110945117668 0.042859931207998123 0 0.046047090248078799 0.040247195997152138 0 0.049420044132304261 0.039198796292210472 0 0.046047090248078799 0.040247195997152138 0 0.047695018165213918 0.03748352345145884 0 0.049420044132304261 0.039198796292210472 0 0.046047090248078799 0.040247195997152138 0 0.047695018165213918 0.03748352345145884 0 0.045316089443964987 0.036564616013756365 0 0.049420044132304261 0.039198796292210472 0 0.049610228061213159 0.036762624257654433 0 0.051711287987044802 0.037844949713960852 0 0.047695018165213918 0.03748352345145884 0 0.049420044132304261 0.039198796292210472 0 0.049610228061213159 0.036762624257654433 0 0.047695018165213918 0.03748352345145884 0 0.049610228061213159 0.036762624257654433 0 0.047956102865180615 0.035646785664288402 0 0.049610228061213159 0.036762624257654433 0 0.051204303786362274 0.035692583416792337 0 0.049595195935828097 0.034913167487817962 0 0.049610228061213159 0.036762624257654433 0 0.047956102865180615 0.035646785664288402 0 0.049595195935828097 0.034913167487817962 0 0.047695018165213918 0.03748352345145884 0 0.047956102865180615 0.035646785664288402 0 0.045316089443964987 0.036564616013756365 0 0.047956102865180615 0.035646785664288402 0 0.046706827872647946 0.034603330020334701 0 0.045316089443964987 0.036564616013756365 0 0.055143015944948401 0.039128514453524867 0 0.053287964532666848 0.039835400641556794 0 0.054067432234541364 0.037671976274206653 0 0.053287964532666848 0.039835400641556794 0 0.054067432234541364 0.037671976274206653 0 0.051711287987044802 0.037844949713960852 0 0.051301549163952104 0.039621213060451244 0 0.049420044132304261 0.039198796292210472 0 0.051711287987044802 0.037844949713960852 0 0.051301549163952104 0.039621213060451244 0 0.053287964532666848 0.039835400641556794 0 0.051711287987044802 0.037844949713960852 0 0.051711287987044802 0.037844949713960852 0 0.051204303786362274 0.035692583416792337 0 0.052800102435857248 0.036080500429593036 0 0.049610228061213159 0.036762624257654433 0 0.051711287987044802 0.037844949713960852 0 0.051204303786362274 0.035692583416792337 0 0.054067432234541364 0.037671976274206653 0 0.051711287987044802 0.037844949713960852 0 0.052800102435857248 0.036080500429593036 0 0.054343357777684911 0.035821193106367617 0 0.054067432234541364 0.037671976274206653 0 0.052800102435857248 0.036080500429593036 0 0.073413175671548953 0.05799116377940728 0 0.061358537690796515 0.064368360231816399 0 0.055229126141453547 0.033183415183288767 0 0.051066118826311686 0.032577470315337018 0 0.052553149084493218 0.03335261406717837 0 0.098615811949590529 0.065119047425305165 0 0.10013424697965374 0.065786955297338121 0 0.098915250565875593 0.06567726585244045 0 0.055229126141453547 0.033183415183288767 0 0.051066118826311686 0.032577470315337018 0 0.048676053579480641 0.030743967669057595 0 0.053794174937775843 0.03398819367232607 0 0.05334189442117597 0.034909780795972595 0 0.052700975772678314 0.034097295757808892 0 0.05427556546135575 0.034743680635802167 0 0.053794174937775843 0.03398819367232607 0 0.05334189442117597 0.034909780795972595 0 0.05427556546135575 0.034743680635802167 0 0.054343357777684911 0.035821193106367617 0 0.05334189442117597 0.034909780795972595 0 0.054343357777684911 0.035821193106367617 0 0.052800102435857248 0.036080500429593036 0 0.05334189442117597 0.034909780795972595 0 0.052800102435857248 0.036080500429593036 0 0.05334189442117597 0.034909780795972595 0 0.052095640527995792 0.034704479536376905 0 0.053794174937775843 0.03398819367232607 0 0.052700975772678314 0.034097295757808892 0 0.052553149084493218 0.03335261406717837 0 0.05334189442117597 0.034909780795972595 0 0.052700975772678314 0.034097295757808892 0 0.052095640527995792 0.034704479536376905 0 0.052700975772678314 0.034097295757808892 0 0.051944038806598015 0.033871464470822558 0 0.052553149084493218 0.03335261406717837 0 0.051944038806598015 0.033871464470822558 0 0.052095640527995792 0.034704479536376905 0 0.05097668952838063 0.033905153264371886 0 0.051944038806598015 0.033871464470822558 0 0.05097668952838063 0.033905153264371886 0 0.051383378195829991 0.033299181241131737 0 0.052700975772678314 0.034097295757808892 0 0.051944038806598015 0.033871464470822558 0 0.052095640527995792 0.034704479536376905 0 0.051204303786362274 0.035692583416792337 0 0.052800102435857248 0.036080500429593036 0 0.052095640527995792 0.034704479536376905 0 0.051204303786362274 0.035692583416792337 0 0.052095640527995792 0.034704479536376905 0 0.05097668952838063 0.033905153264371886 0 0.051204303786362274 0.035692583416792337 0 0.05097668952838063 0.033905153264371886 0 0.049595195935828097 0.034913167487817962 0 0.05057016844053687 0.033117392977411446 0 0.051066118826311686 0.032577470315337018 0 0.049943187013395063 0.032720865490809554 0 0.05097668952838063 0.033905153264371886 0 0.05057016844053687 0.033117392977411446 0 0.049518360058435747 0.03337319724635416 0 0.05097668952838063 0.033905153264371886 0 0.05057016844053687 0.033117392977411446 0 0.051383378195829991 0.033299181241131737 0 0.05057016844053687 0.033117392977411446 0 0.051066118826311686 0.032577470315337018 0 0.051383378195829991 0.033299181241131737 0 0.051066118826311686 0.032577470315337018 0 0.051383378195829991 0.033299181241131737 0 0.052553149084493218 0.03335261406717837 0 0.051944038806598015 0.033871464470822558 0 0.051383378195829991 0.033299181241131737 0 0.052553149084493218 0.03335261406717837 0 0.055229126141453547 0.033183415183288767 0 0.053794174937775843 0.03398819367232607 0 0.052553149084493218 0.03335261406717837 0 0.04694190569315141 0.033069984732686519 0 0.044932417107165001 0.034767742192585938 0 0.046877790997745097 0.030308560766148768 0 0.046706827872647946 0.034603330020334701 0 0.04694190569315141 0.033069984732686519 0 0.044932417107165001 0.034767742192585938 0 0.048271724658770998 0.034060833017140912 0 0.048407519699081268 0.032886741919004335 0 0.04694190569315141 0.033069984732686519 0 0.046706827872647946 0.034603330020334701 0 0.048271724658770998 0.034060833017140912 0 0.04694190569315141 0.033069984732686519 0 0.047956102865180615 0.035646785664288402 0 0.046706827872647946 0.034603330020334701 0 0.048271724658770998 0.034060833017140912 0 0.047956102865180615 0.035646785664288402 0 0.049595195935828097 0.034913167487817962 0 0.048271724658770998 0.034060833017140912 0 0.05097668952838063 0.033905153264371886 0 0.049595195935828097 0.034913167487817962 0 0.049518360058435747 0.03337319724635416 0 0.049595195935828097 0.034913167487817962 0 0.048271724658770998 0.034060833017140912 0 0.049518360058435747 0.03337319724635416 0 0.048271724658770998 0.034060833017140912 0 0.048407519699081268 0.032886741919004335 0 0.049518360058435747 0.03337319724635416 0 0.048407519699081268 0.032886741919004335 0 0.049173977172363242 0.03264508103585919 0 0.049518360058435747 0.03337319724635416 0 0.051066118826311686 0.032577470315337018 0 0.049342719266738576 0.0319549743734555 0 0.048676053579480641 0.030743967669057595 0 0.048407519699081268 0.032886741919004335 0 0.049173977172363242 0.03264508103585919 0 0.048596486371351943 0.032097195090531827 0 0.05057016844053687 0.033117392977411446 0 0.049518360058435747 0.03337319724635416 0 0.049943187013395063 0.032720865490809554 0 0.049173977172363242 0.03264508103585919 0 0.049518360058435747 0.03337319724635416 0 0.049943187013395063 0.032720865490809554 0 0.051066118826311686 0.032577470315337018 0 0.049943187013395063 0.032720865490809554 0 0.049342719266738576 0.0319549743734555 0 0.049173977172363242 0.03264508103585919 0 0.049943187013395063 0.032720865490809554 0 0.049342719266738576 0.0319549743734555 0 0.048407519699081268 0.032886741919004335 0 0.048596486371351943 0.032097195090531827 0 0.047897091911270256 0.031837596253685402 0 0.049342719266738576 0.0319549743734555 0 0.048596486371351943 0.032097195090531827 0 0.048676053579480641 0.030743967669057595 0 0.048596486371351943 0.032097195090531827 0 0.047897091911270256 0.031837596253685402 0 0.048676053579480641 0.030743967669057595 0 0.049173977172363242 0.03264508103585919 0 0.049342719266738576 0.0319549743734555 0 0.048596486371351943 0.032097195090531827 0 0.047897091911270256 0.031837596253685402 0 0.04694190569315141 0.033069984732686519 0 0.046877790997745097 0.030308560766148768 0 0.048407519699081268 0.032886741919004335 0 0.047897091911270256 0.031837596253685402 0 0.04694190569315141 0.033069984732686519 0 0.046666113252141331 0.056187256541648106 0 0.054557442885513147 0.063750202016446184 0 0.023705699153389683 0.064170001162229526 0 0.026813990117835206 0.066982861083614925 0 0.026546323894872676 0.062253130244370694 0 0.046666113252141331 0.056187256541648106 0 0.046005643158538098 0.065636096293447715 0 0.023705699153389683 0.064170001162229526 0 0.026813990117835206 0.066982861083614925 0 0.02678230744549024 0.071304207486992108 0 0.026546323894872676 0.062253130244370694 0 0.02617809957843269 0.069164281460501964 0 0.028094401453813301 0.066743803997319356 0 0.026813990117835206 0.066982861083614925 0 0.026546323894872676 0.062253130244370694 0 0.03022903693819063 0.070293269051139598 0 0.026546323894872676 0.062253130244370694 0 0.028094401453813301 0.066743803997319356 0 0.028936739573666197 0.064311355132155842 0 0.027450297108014828 0.067068490722662841 0 0.028583362147072258 0.070752357040333294 0 0.026546323894872676 0.062253130244370694 0 0.028947499053813872 0.061711619996413815 0 0.028936739573666197 0.064311355132155842 0 0.030286915041444016 0.059523817165600137 0 0.028947499053813872 0.061711619996413815 0 0.028333281293603674 0.06014084358476654 0 0.026320751370926501 0.058590702966290917 0 0.026546323894872676 0.062253130244370694 0 0.028333281293603674 0.06014084358476654 0 0.026546323894872676 0.062253130244370694 0 0.028947499053813872 0.061711619996413815 0 0.028333281293603674 0.06014084358476654 0 0.041347924119086853 0.054488502765183307 0 0.046666113252141331 0.056187256541648106 0 0.026320751370926501 0.058590702966290917 0 0.023705699153389683 0.064170001162229526 0 0.026546323894872676 0.062253130244370694 0 0.039850379549842885 0.040226193707544045 0 0.044191359274729246 0.033381201912004277 0 0.045316089443964987 0.036564616013756365 0 0.039850379549842885 0.040226193707544045 0 0.046047090248078799 0.040247195997152138 0 0.045316089443964987 0.036564616013756365 0 0.046706827872647946 0.034603330020334701 0 0.044932417107165001 0.034767742192585938 0 0.045316089443964987 0.036564616013756365 0 0.046666113252141331 0.056187256541648106 0 0.045897308364574868 0.053628793146197111 0 0.055732291539586261 0.070266693085546894 0 0.055772622697773132 0.070142194122679677 0 0.055841110508532979 0.070347011456353623 0 0.055732291539586261 0.070266693085546894 0 0.055771713851980258 0.070357066006316277 0 0.055841110508532979 0.070347011456353623 0 0.055732291539586261 0.070266693085546894 0 0.055772622697773132 0.070142194122679677 0 0.055715830678138907 0.070189789186193355 0 0.055732291539586261 0.070266693085546894 0 0.055715830678138907 0.070189789186193355 0 0.055675376084473441 0.070220374103329958 0 0.055732291539586261 0.070266693085546894 0 0.055672236414501933 0.070293141286153618 0 0.055699401600462224 0.070353879759070856 0 0.055732291539586261 0.070266693085546894 0 0.055771713851980258 0.070357066006316277 0 0.055699401600462224 0.070353879759070856 0 0.055732291539586261 0.070266693085546894 0 0.055675376084473441 0.070220374103329958 0 0.055672236414501933 0.070293141286153618 0 0.03033190628941683 0.072059827113951203 0 0.03022903693819063 0.070293269051139598 0 0.033115391437933205 0.077578683553588143 0 0.046005643158538098 0.065636096293447715 0 0.046330746278945539 0.074325911863545924 0 0.03033190628941683 0.072059827113951203 0 0.030119622565670259 0.077246752349413902 0 0.033115391437933205 0.077578683553588143 0 0.03033190628941683 0.072059827113951203 0 0.027457780422034728 0.071214429417926051 0 0.030119622565670259 0.077246752349413902 0 0.028583362147072258 0.070752357040333294 0 0.030536413447486029 0.076813139977585501 0 0.03033190628941683 0.072059827113951203 0 0.03022903693819063 0.070293269051139598 0 0.02678230744549024 0.071304207486992108 0 0.043238651324692762 0.065402468658028665 0 0.046005643158538098 0.065636096293447715 0 0.02617809957843269 0.069164281460501964 0 0.028094401453813301 0.066743803997319356 0 0.028450967627974982 0.069265865116598505 0 0.026813990117835206 0.066982861083614925 0 0.03022903693819063 0.070293269051139598 0 0.02678230744549024 0.071304207486992108 0 0.047005003336075893 0.061733457657191626 0 0.048564076774536974 0.065734790532343379 0 0.045736912544177034 0.064905755390001901 0 0.055772622697773132 0.070142194122679677 0 0.055715830678138907 0.070189789186193355 0 0.055656223399444919 0.070109041865199395 0 0.046005643158538098 0.065636096293447715 0 0.054557442885513147 0.063750202016446184 0 0.055715830678138907 0.070189789186193355 0 0.055656223399444919 0.070109041865199395 0 0.055675376084473441 0.070220374103329958 0 0.055863261365577614 0.069662349280978406 0 0.055680218417466926 0.06961401494074064 0 0.055612232672953336 0.070263807109292725 0 0.061358537690796515 0.064368360231816399 0 0.067866953496956359 0.067671206123997352 0 0.054557442885513147 0.063750202016446184 0 0.061358537690796515 0.064368360231816399 0 0.047897091911270256 0.031837596253685402 0 0.046877790997745097 0.030308560766148768 0 0.048676053579480641 0.030743967669057595 0 0.10013424697965374 0.065786955297338121 0 0.098915250565875593 0.06567726585244045 0 0.099339179218543724 0.066297096016287388 0 0.10013424697965374 0.065786955297338121 0 0.099339179218543724 0.066297096016287388 0 0.09949313214641399 0.067358583620484525 0 0.098915250565875593 0.06567726585244045 0 0.099339179218543724 0.066297096016287388 0 0.098812983731756232 0.066397855159709057 0 0.099339179218543724 0.066297096016287388 0 0.09949313214641399 0.067358583620484525 0 0.098812983731756232 0.066397855159709057 0 0.09949313214641399 0.067358583620484525 0 0.098260292850983894 0.066910852894973893 0 0.098812983731756232 0.066397855159709057 0 0.054557442885513147 0.063750202016446184 0 0.054005407476634522 0.067035830921690506 0 0.055656223399444919 0.070109041865199395 0 0.055675376084473441 0.070220374103329958 0 0.055612232672953336 0.070263807109292725 0 0.055680218417466926 0.06961401494074064 0 0.055462420650572268 0.070268861730523255 0 0.055612232672953336 0.070263807109292725 0 0.055462420650572268 0.070268861730523255 0 0.055612232672953336 0.070263807109292725 0 0.055597775076435769 0.070376656849087518 0 0.055612232672953336 0.070263807109292725 0 0.055672236414501933 0.070293141286153618 0 0.055597775076435769 0.070376656849087518 0 0.055675376084473441 0.070220374103329958 0 0.055612232672953336 0.070263807109292725 0 0.055672236414501933 0.070293141286153618 0 0.055672236414501933 0.070293141286153618 0 0.055597775076435769 0.070376656849087518 0 0.055699401600462224 0.070353879759070856 0 0.055597775076435769 0.070376656849087518 0 0.05540228894540606 0.070588310435331245 0 0.055672152905530008 0.070481119499660322 0 0.055597775076435769 0.070376656849087518 0 0.055672152905530008 0.070481119499660322 0 0.055699401600462224 0.070353879759070856 0 0.055462420650572268 0.070268861730523255 0 0.055597775076435769 0.070376656849087518 0 0.05540228894540606 0.070588310435331245 0 0.09949313214641399 0.067358583620484525 0 0.098838302918671836 0.068923792488840632 0 0.098248449951317998 0.068057832065036003 0 0.067866953496956359 0.067671206123997352 0 0.064477270431673256 0.078563796636752281 0 0.064477270431673256 0.078563796636752281 0 0.052590785880973663 0.080355330010227127 0 0.053058687775417966 0.096997437400244246 0 0.048199972007195079 0.097908256760128307 0 0.048898906962927584 0.094778302314847379 0 0.048199972007195079 0.097908256760128307 0 0.046032370849300876 0.096576991477005325 0 0.048898906962927584 0.094778302314847379 0 0.048199972007195079 0.097908256760128307 0 0.046032370849300876 0.096576991477005325 0 0.043315543292015875 0.098818074105128134 0 0.046032370849300876 0.096576991477005325 0 0.045009889281336375 0.095469185044921787 0 0.046043238680043445 0.094350938265246612 0 0.055672152905530008 0.070481119499660322 0 0.055771713851980258 0.070357066006316277 0 0.055861151191540184 0.070418402658281101 0 0.052590785880973663 0.080355330010227127 0 0.047073727750599821 0.077975803938228574 0 0.055672152905530008 0.070481119499660322 0 0.055771713851980258 0.070357066006316277 0 0.055699401600462224 0.070353879759070856 0 0.030119622565670259 0.077246752349413902 0 0.031292591499793042 0.079265290904594166 0 0.033115391437933205 0.077578683553588143 0 0.046330746278945539 0.074325911863545924 0 0.047073727750599821 0.077975803938228574 0 0.055771713851980258 0.070357066006316277 0 0.055841110508532979 0.070347011456353623 0 0.055861151191540184 0.070418402658281101 0 0.043775860054887081 0.09701020136967102 0 0.04269046888467961 0.092941188760288368 0 0.04234759398594419 0.096452369100105517 0 0.043315543292015875 0.098818074105128134 0 0.043775860054887081 0.09701020136967102 0 0.04234759398594419 0.096452369100105517 0 0.046032370849300876 0.096576991477005325 0 0.043315543292015875 0.098818074105128134 0 0.043775860054887081 0.09701020136967102 0 0.047073727750599821 0.077975803938228574 0 0.044342216406185471 0.083265925022805318 0 0.043775860054887081 0.09701020136967102 0 0.045009889281336375 0.095469185044921787 0 0.044357160116414718 0.094212296813833418 0 0.046032370849300876 0.096576991477005325 0 0.043775860054887081 0.09701020136967102 0 0.045009889281336375 0.095469185044921787 0 0.043063884621104886 0.094396908395187065 0 0.042574719035472962 0.092464434739668894 0 0.043775860054887081 0.09701020136967102 0 0.044357160116414718 0.094212296813833418 0 0.042804519942771187 0.093048595766226094 0 0.045009889281336375 0.095469185044921787 0 0.044357160116414718 0.094212296813833418 0 0.046043238680043445 0.094350938265246612 0 0.044357160116414718 0.094212296813833418 0 0.046043238680043445 0.094350938265246612 0 0.044951860891187523 0.092481999970941142 0 0.044357160116414718 0.094212296813833418 0 0.042804519942771187 0.093048595766226094 0 0.044951860891187523 0.092481999970941142 0 0.046043238680043445 0.094350938265246612 0 0.046940094602752877 0.092540070399058316 0 0.048898906962927584 0.094778302314847379 0 0.046032370849300876 0.096576991477005325 0 0.046043238680043445 0.094350938265246612 0 0.048898906962927584 0.094778302314847379 0 0.046043238680043445 0.094350938265246612 0 0.046940094602752877 0.092540070399058316 0 0.044951860891187523 0.092481999970941142 0 0.046940094602752877 0.092540070399058316 0 0.046158406061903225 0.090566482826942185 0 0.049010835882521267 0.091352532734364639 0 0.046940094602752877 0.092540070399058316 0 0.046158406061903225 0.090566482826942185 0 0.044951860891187523 0.092481999970941142 0 0.042804519942771187 0.093048595766226094 0 0.043979804844501598 0.090588640810814844 0 0.041750503822075784 0.089047228731156614 0 0.042804519942771187 0.093048595766226094 0 0.044951860891187523 0.092481999970941142 0 0.043979804844501598 0.090588640810814844 0 0.046158406061903225 0.090566482826942185 0 0.044951860891187523 0.092481999970941142 0 0.043979804844501598 0.090588640810814844 0 0.046158406061903225 0.090566482826942185 0 0.043979804844501598 0.090588640810814844 0 0.044239043424420026 0.087779687223950853 0 0.043979804844501598 0.090588640810814844 0 0.044239043424420026 0.087779687223950853 0 0.041750503822075784 0.089047228731156614 0 0.046158406061903225 0.090566482826942185 0 0.044239043424420026 0.087779687223950853 0 0.047837942567736137 0.088114728683836796 0 0.046158406061903225 0.090566482826942185 0 0.047837942567736137 0.088114728683836796 0 0.049010835882521267 0.091352532734364639 0 0.045341338155930229 0.084999966331009286 0 0.050015955551047736 0.084999974921025706 0 0.047837942567736137 0.088114728683836796 0 0.044239043424420026 0.087779687223950853 0 0.045341338155930229 0.084999966331009286 0 0.047837942567736137 0.088114728683836796 0 0.044239043424420026 0.087779687223950853 0 0.045341338155930229 0.084999966331009286 0 0.040666761074639533 0.084999987338125638 0 0.050015955551047736 0.084999974921025706 0 0.052249414821898585 0.089088575824167862 0 0.054690659182335392 0.084999936972328202 0 0.050015955551047736 0.084999974921025706 0 0.047837942567736137 0.088114728683836796 0 0.052249414821898585 0.089088575824167862 0 0.047837942567736137 0.088114728683836796 0 0.052249414821898585 0.089088575824167862 0 0.049010835882521267 0.091352532734364639 0 0.052249414821898585 0.089088575824167862 0 0.051634883147853083 0.092979596423952107 0 0.054956525597837008 0.092651247323292968 0 0.052249414821898585 0.089088575824167862 0 0.049010835882521267 0.091352532734364639 0 0.051634883147853083 0.092979596423952107 0 0.049010835882521267 0.091352532734364639 0 0.048898906962927584 0.094778302314847379 0 0.051634883147853083 0.092979596423952107 0 0.046940094602752877 0.092540070399058316 0 0.049010835882521267 0.091352532734364639 0 0.048898906962927584 0.094778302314847379 0 0.053058687775417966 0.096997437400244246 0 0.048898906962927584 0.094778302314847379 0 0.051634883147853083 0.092979596423952107 0 0.053592988477147732 0.096672611469448153 0 0.055306566104216054 0.092535543279953739 0 0.057846415035524394 0.095934726316218397 0 0.053058687775417966 0.096997437400244246 0 0.051634883147853083 0.092979596423952107 0 0.054956525597837008 0.092651247323292968 0 0.064477270431673256 0.078563796636752281 0 0.057715375759386914 0.090453091192667479 0 0.055306566104216054 0.092535543279953739 0 0.059081191660409871 0.091665565791137202 0 0.057846415035524394 0.095934726316218397 0 0.057715375759386914 0.090453091192667479 0 0.057387363574000212 0.090146037704013124 0 0.055306566104216054 0.092535543279953739 0 0.056944008786488129 0.08824493233370416 0 0.059081191660409871 0.091665565791137202 0 0.052249414821898585 0.089088575824167862 0 0.054956525597837008 0.092651247323292968 0 0.056944008786488129 0.08824493233370416 0 0.056944008786488129 0.08824493233370416 0 0.054690659182335392 0.084999936972328202 0 0.059365359242742333 0.084999969748964774 0 0.052249414821898585 0.089088575824167862 0 0.056944008786488129 0.08824493233370416 0 0.054690659182335392 0.084999936972328202 0 0.059365359242742333 0.084999969748964774 0 0.059916643523818126 0.087911076667564467 0 0.064039944753595535 0.084999956593835815 0 0.056944008786488129 0.08824493233370416 0 0.059365359242742333 0.084999969748964774 0 0.059916643523818126 0.087911076667564467 0 0.059916643523818126 0.087911076667564467 0 0.062309186563572372 0.09002852955028276 0 0.059081191660409871 0.091665565791137202 0 0.056944008786488129 0.08824493233370416 0 0.059916643523818126 0.087911076667564467 0 0.059081191660409871 0.091665565791137202 0 0.059916643523818126 0.087911076667564467 0 0.062309186563572372 0.09002852955028276 0 0.064039944753595535 0.084999956593835815 0 0.062309186563572372 0.09002852955028276 0 0.062270287211880028 0.095204036914223342 0 0.065095117332131899 0.091884491448569763 0 0.062309186563572372 0.09002852955028276 0 0.059081191660409871 0.091665565791137202 0 0.062270287211880028 0.095204036914223342 0 0.059081191660409871 0.091665565791137202 0 0.062270287211880028 0.095204036914223342 0 0.057846415035524394 0.095934726316218397 0 0.096036174946341243 0.069681130201390176 0 0.096251366958267998 0.068464284185732763 0 0.095378166807230103 0.069072469293533736 0 0.095676649810956249 0.067817554892333681 0 0.094917020054854542 0.067255995035982993 0 0.096251366958267998 0.068464284185732763 0 0.096198395874827161 0.067305310877731298 0 0.094525403484014711 0.06705290015682859 0 0.096251366958267998 0.068464284185732763 0 0.09737225857116355 0.067789551700620287 0 0.096198395874827161 0.067305310877731298 0 0.096251366958267998 0.068464284185732763 0 0.097318846014339266 0.069276511016094652 0 0.09737225857116355 0.067789551700620287 0 0.096036174946341243 0.069681130201390176 0 0.096251366958267998 0.068464284185732763 0 0.097318846014339266 0.069276511016094652 0 0.078598086813560064 0.080676486935761377 0 0.075265938750256653 0.07994242344547485 0 0.064477270431673256 0.078563796636752281 0 0.075265938750256653 0.07994242344547485 0 0.098838302918671836 0.068923792488840632 0 0.097318846014339266 0.069276511016094652 0 0.098248449951317998 0.068057832065036003 0 0.097318846014339266 0.069276511016094652 0 0.098248449951317998 0.068057832065036003 0 0.09737225857116355 0.067789551700620287 0 0.09737225857116355 0.067789551700620287 0 0.097522351620283929 0.06677603125695912 0 0.096823078263845438 0.066653195916005145 0 0.09737225857116355 0.067789551700620287 0 0.097522351620283929 0.06677603125695912 0 0.098260292850983894 0.066910852894973893 0 0.097522351620283929 0.06677603125695912 0 0.098260292850983894 0.066910852894973893 0 0.097848083307971762 0.06612233542658591 0 0.097522351620283929 0.06677603125695912 0 0.097332305963393526 0.066288459766610922 0 0.096823078263845438 0.066653195916005145 0 0.098248449951317998 0.068057832065036003 0 0.09737225857116355 0.067789551700620287 0 0.098260292850983894 0.066910852894973893 0 0.09949313214641399 0.067358583620484525 0 0.098248449951317998 0.068057832065036003 0 0.098260292850983894 0.066910852894973893 0 0.098260292850983894 0.066910852894973893 0 0.098812983731756232 0.066397855159709057 0 0.098325102828908537 0.066209418987593874 0 0.098812983731756232 0.066397855159709057 0 0.098325102828908537 0.066209418987593874 0 0.098530307822089408 0.065847295712375076 0 0.098260292850983894 0.066910852894973893 0 0.098325102828908537 0.066209418987593874 0 0.097848083307971762 0.06612233542658591 0 0.098325102828908537 0.066209418987593874 0 0.098178378204494765 0.065793953045779133 0 0.097848083307971762 0.06612233542658591 0 0.097891206686289908 0.065632948890865711 0 0.098178378204494765 0.065793953045779133 0 0.097848083307971762 0.06612233542658591 0 0.097891206686289908 0.065632948890865711 0 0.098046626101058618 0.065599389172604855 0 0.098178378204494765 0.065793953045779133 0 0.098303037484022207 0.065543864454735382 0 0.098046626101058618 0.065599389172604855 0 0.098178378204494765 0.065793953045779133 0 0.098915250565875593 0.06567726585244045 0 0.098812983731756232 0.066397855159709057 0 0.098530307822089408 0.065847295712375076 0 0.098325102828908537 0.066209418987593874 0 0.098178378204494765 0.065793953045779133 0 0.098530307822089408 0.065847295712375076 0 0.098303037484022207 0.065543864454735382 0 0.098178378204494765 0.065793953045779133 0 0.098530307822089408 0.065847295712375076 0 0.098591046175284178 0.065568691090405695 0 0.098303037484022207 0.065543864454735382 0 0.098530307822089408 0.065847295712375076 0 0.098591046175284178 0.065568691090405695 0 0.098915250565875593 0.06567726585244045 0 0.098530307822089408 0.065847295712375076 0 0.097332305963393526 0.066288459766610922 0 0.097455376027566168 0.065855304832041939 0 0.097000093968326803 0.0660433004598001 0 0.097522351620283929 0.06677603125695912 0 0.097332305963393526 0.066288459766610922 0 0.097848083307971762 0.06612233542658591 0 0.097332305963393526 0.066288459766610922 0 0.097848083307971762 0.06612233542658591 0 0.097455376027566168 0.065855304832041939 0 0.097891206686289908 0.065632948890865711 0 0.097848083307971762 0.06612233542658591 0 0.097709395009103375 0.065807740674569723 0 0.097848083307971762 0.06612233542658591 0 0.097709395009103375 0.065807740674569723 0 0.097455376027566168 0.065855304832041939 0 0.097891206686289908 0.065632948890865711 0 0.097709395009103375 0.065807740674569723 0 0.09762021642611042 0.06559193050274495 0 0.097709395009103375 0.065807740674569723 0 0.09762021642611042 0.06559193050274495 0 0.097455376027566168 0.065855304832041939 0 0.097342552551582834 0.065482573218089216 0 0.097455376027566168 0.065855304832041939 0 0.097158500988500318 0.065662264977875404 0 0.097455376027566168 0.065855304832041939 0 0.097158500988500318 0.065662264977875404 0 0.097000093968326803 0.0660433004598001 0 0.097342552551582834 0.065482573218089216 0 0.09762021642611042 0.06559193050274495 0 0.097455376027566168 0.065855304832041939 0 0.096406315449856922 0.06589075501881976 0 0.095783893857726357 0.06647743779612432 0 0.096823078263845438 0.066653195916005145 0 0.096866174995356116 0.065529753319721384 0 0.097158500988500318 0.065662264977875404 0 0.097000093968326803 0.0660433004598001 0 0.096866174995356116 0.065529753319721384 0 0.097000093968326803 0.0660433004598001 0 0.096406315449856922 0.06589075501881976 0 0.097000093968326803 0.0660433004598001 0 0.096406315449856922 0.06589075501881976 0 0.096823078263845438 0.066653195916005145 0 0.097332305963393526 0.066288459766610922 0 0.097000093968326803 0.0660433004598001 0 0.096823078263845438 0.066653195916005145 0 0.096409566622698117 0.065333310039486892 0 0.096866174995356116 0.065529753319721384 0 0.096406315449856922 0.06589075501881976 0 0.095557846750164988 0.065376144249136889 0 0.096406315449856922 0.06589075501881976 0 0.095783893857726357 0.06647743779612432 0 0.095557846750164988 0.065376144249136889 0 0.095783893857726357 0.06647743779612432 0 0.094525403484014711 0.06705290015682859 0 0.095557846750164988 0.065376144249136889 0 0.096409566622698117 0.065333310039486892 0 0.096406315449856922 0.06589075501881976 0 0.095783893857726357 0.06647743779612432 0 0.096198395874827161 0.067305310877731298 0 0.094525403484014711 0.06705290015682859 0 0.095783893857726357 0.06647743779612432 0 0.096198395874827161 0.067305310877731298 0 0.096823078263845438 0.066653195916005145 0 0.09737225857116355 0.067789551700620287 0 0.096198395874827161 0.067305310877731298 0 0.096823078263845438 0.066653195916005145 0 0.094917020054854542 0.067255995035982993 0 0.09360903998358594 0.066239001786755874 0 0.095389717153362724 0.067896281854415305 0 0.09409382631852814 0.066529109724772481 0 0.094373562227360791 0.068754326536985946 0 0.09409260223471376 0.065203978787479799 0 0.095557846750164988 0.065376144249136889 0 0.094525403484014711 0.06705290015682859 0 0.09409260223471376 0.065203978787479799 0 0.094525403484014711 0.06705290015682859 0 0.093151706816338969 0.065794922952338283 0 0.092753863461876807 0.065579773832390428 0 0.09360903998358594 0.066239001786755874 0 0.092070612619201533 0.064649823496114478 0 0.09409382631852814 0.066529109724772481 0 0.092524672219323562 0.066570869546096589 0 0.092524672219323562 0.066570869546096589 0 0.09314655307922029 0.067902052810018695 0 0.092002139200528951 0.067506548773440103 0 0.09314655307922029 0.067902052810018695 0 0.092376329519859801 0.0686925350175914 0 0.092002139200528951 0.067506548773440103 0 0.09409382631852814 0.066529109724772481 0 0.092524672219323562 0.066570869546096589 0 0.09314655307922029 0.067902052810018695 0 0.09409382631852814 0.066529109724772481 0 0.09314655307922029 0.067902052810018695 0 0.094373562227360791 0.068754326536985946 0 0.09314655307922029 0.067902052810018695 0 0.093074505284194309 0.069405618017158596 0 0.094373562227360791 0.068754326536985946 0 0.09314655307922029 0.067902052810018695 0 0.092376329519859801 0.0686925350175914 0 0.093074505284194309 0.069405618017158596 0 0.092376329519859801 0.0686925350175914 0 0.093074505284194309 0.069405618017158596 0 0.091815437886405837 0.069700507969611095 0 0.093074505284194309 0.069405618017158596 0 0.092069974960654472 0.070748207318773224 0 0.091815437886405837 0.069700507969611095 0 0.093074505284194309 0.069405618017158596 0 0.092069974960654472 0.070748207318773224 0 0.093224354081335947 0.070481686516974867 0 0.093074505284194309 0.069405618017158596 0 0.093938444944781319 0.069703577615810336 0 0.094373562227360791 0.068754326536985946 0 0.093074505284194309 0.069405618017158596 0 0.093938444944781319 0.069703577615810336 0 0.093224354081335947 0.070481686516974867 0 0.093938444944781319 0.069703577615810336 0 0.093224354081335947 0.070481686516974867 0 0.094175043152850149 0.070399567618374431 0 0.094579409188570315 0.069650497153403046 0 0.095378166807230103 0.069072469293533736 0 0.094872838013602995 0.070369883649645651 0 0.094579409188570315 0.069650497153403046 0 0.094373562227360791 0.068754326536985946 0 0.095378166807230103 0.069072469293533736 0 0.093938444944781319 0.069703577615810336 0 0.094579409188570315 0.069650497153403046 0 0.094175043152850149 0.070399567618374431 0 0.093938444944781319 0.069703577615810336 0 0.094579409188570315 0.069650497153403046 0 0.094373562227360791 0.068754326536985946 0 0.096251366958267998 0.068464284185732763 0 0.095389717153362724 0.067896281854415305 0 0.095378166807230103 0.069072469293533736 0 0.095389717153362724 0.067896281854415305 0 0.094373562227360791 0.068754326536985946 0 0.095378166807230103 0.069072469293533736 0 0.096036174946341243 0.069681130201390176 0 0.095378166807230103 0.069072469293533736 0 0.094872838013602995 0.070369883649645651 0 0.078598086813560064 0.080676486935761377 0 0.080991029682341259 0.080328814923668154 0 0.062270287211880028 0.095204036914223342 0 0.066807064269429728 0.094411575906091311 0 0.065095117332131899 0.091884491448569763 0 0.066807064269429728 0.094411575906091311 0 0.068655122520119141 0.091854015744051429 0 0.071353462394124031 0.093561318739573476 0 0.080991029682341259 0.080328814923668154 0 0.08563612122587963 0.078201774998120824 0 0.094579409188570315 0.069650497153403046 0 0.094872838013602995 0.070369883649645651 0 0.094175043152850149 0.070399567618374431 0 0.066807064269429728 0.094411575906091311 0 0.068655122520119141 0.091854015744051429 0 0.065095117332131899 0.091884491448569763 0 0.068655122520119141 0.091854015744051429 0 0.065095117332131899 0.091884491448569763 0 0.066406255480023907 0.08878675948459179 0 0.062309186563572372 0.09002852955028276 0 0.065095117332131899 0.091884491448569763 0 0.066406255480023907 0.08878675948459179 0 0.062309186563572372 0.09002852955028276 0 0.066406255480023907 0.08878675948459179 0 0.064039944753595535 0.084999956593835815 0 0.066406255480023907 0.08878675948459179 0 0.068714625469806251 0.084999950804287489 0 0.070532746880713953 0.08943448565845008 0 0.068655122520119141 0.091854015744051429 0 0.066406255480023907 0.08878675948459179 0 0.070532746880713953 0.08943448565845008 0 0.066406255480023907 0.08878675948459179 0 0.068714625469806251 0.084999950804287489 0 0.064039944753595535 0.084999956593835815 0 0.072363203656640188 0.087412880494509321 0 0.073389124605570219 0.084999943139884057 0 0.07505495855127664 0.087476607765415174 0 0.07339996401925282 0.08499653539763484 0 0.07796877698372022 0.084455467259851175 0 0.068714625469806251 0.084999950804287489 0 0.072363203656640188 0.087412880494509321 0 0.070532746880713953 0.08943448565845008 0 0.068714625469806251 0.084999950804287489 0 0.072363203656640188 0.087412880494509321 0 0.073389124605570219 0.084999943139884057 0 0.072363203656640188 0.087412880494509321 0 0.073756407986572167 0.089208057274668753 0 0.07505495855127664 0.087476607765415174 0 0.070532746880713953 0.08943448565845008 0 0.073756407986572167 0.089208057274668753 0 0.074060927886573452 0.091763665653559867 0 0.072363203656640188 0.087412880494509321 0 0.070532746880713953 0.08943448565845008 0 0.073756407986572167 0.089208057274668753 0 0.08354491329082013 0.080883455433053045 0 0.08563612122587963 0.078201774998120824 0 0.070532746880713953 0.08943448565845008 0 0.074060927886573452 0.091763665653559867 0 0.071353462394124031 0.093561318739573476 0 0.091925005987940928 0.072678484833540946 0 0.093162182794476953 0.071816044054477432 0 0.091914346090639365 0.072052647558903476 0 0.068655122520119141 0.091854015744051429 0 0.070532746880713953 0.08943448565845008 0 0.071353462394124031 0.093561318739573476 0 0.094872838013602995 0.070369883649645651 0 0.093475734429541796 0.071019461995900146 0 0.094175043152850149 0.070399567618374431 0 0.093224354081335947 0.070481686516974867 0 0.093281161287115819 0.071502519656226268 0 0.094175043152850149 0.070399567618374431 0 0.08563612122587963 0.078201774998120824 0 0.088461202490734997 0.076124013786227129 0 0.093281161287115819 0.071502519656226268 0 0.091914346090639365 0.072052647558903476 0 0.092481862419867888 0.071254395746109339 0 0.08563612122587963 0.078201774998120824 0 0.088138285330656096 0.07720082626596185 0 0.091914346090639365 0.072052647558903476 0 0.092481862419867888 0.071254395746109339 0 0.091794871924005567 0.071492741377142455 0 0.093224354081335947 0.070481686516974867 0 0.093281161287115819 0.071502519656226268 0 0.092481862419867888 0.071254395746109339 0 0.092069974960654472 0.070748207318773224 0 0.093224354081335947 0.070481686516974867 0 0.092481862419867888 0.071254395746109339 0 0.092069974960654472 0.070748207318773224 0 0.092481862419867888 0.071254395746109339 0 0.091794871924005567 0.071492741377142455 0 0.092069974960654472 0.070748207318773224 0 0.091794871924005567 0.071492741377142455 0 0.091159290374587976 0.071458866292146789 0 0.092069974960654472 0.070748207318773224 0 0.091159290374587976 0.071458866292146789 0 0.09096582737242119 0.070698266085809314 0 0.091159290374587976 0.071458866292146789 0 0.090351446049010978 0.071377323860393443 0 0.09096582737242119 0.070698266085809314 0 0.091159290374587976 0.071458866292146789 0 0.090629664673293989 0.072208803010323813 0 0.091326931820474452 0.072131176470654937 0 0.091159290374587976 0.071458866292146789 0 0.090629664673293989 0.072208803010323813 0 0.090351446049010978 0.071377323860393443 0 0.091794871924005567 0.071492741377142455 0 0.091159290374587976 0.071458866292146789 0 0.091326931820474452 0.072131176470654937 0 0.091914346090639365 0.072052647558903476 0 0.091794871924005567 0.071492741377142455 0 0.091326931820474452 0.072131176470654937 0 0.090629664673293989 0.072208803010323813 0 0.089376606094732539 0.07173404813729696 0 0.090351446049010978 0.071377323860393443 0 0.089376606094732539 0.07173404813729696 0 0.090351446049010978 0.071377323860393443 0 0.089741529449956295 0.07079295198182417 0 0.083640346033499 0.08213218374124906 0 0.084738634381739064 0.080408625943883053 0 0.090629664673293989 0.072208803010323813 0 0.089376606094732539 0.07173404813729696 0 0.090642935878220324 0.073523279936609495 0 0.0934456296921089 0.080201478957830169 0 0.092689103356267941 0.080704906658033995 0 0.089699689973848529 0.078920194803270116 0 0.09045572919457201 0.075652379971112668 0 0.0934456296921089 0.080201478957830169 0 0.089699689973848529 0.078920194803270116 0 0.085688618224923227 0.076638283160723353 0 0.082823673772628947 0.08234404337426264 0 0.08354491329082013 0.080883455433053045 0 0.082823673772628947 0.08234404337426264 0 0.091925005987940928 0.072678484833540946 0 0.091099819897193915 0.072698668733459662 0 0.090642935878220324 0.073523279936609495 0 0.073756407986572167 0.089208057274668753 0 0.074060927886573452 0.091763665653559867 0 0.076754437161540415 0.089960759998755593 0 0.090629664673293989 0.072208803010323813 0 0.091099819897193915 0.072698668733459662 0 0.090642935878220324 0.073523279936609495 0 0.091925005987940928 0.072678484833540946 0 0.091326931820474452 0.072131176470654937 0 0.091099819897193915 0.072698668733459662 0 0.091925005987940928 0.072678484833540946 0 0.091914346090639365 0.072052647558903476 0 0.091326931820474452 0.072131176470654937 0 0.090629664673293989 0.072208803010323813 0 0.091326931820474452 0.072131176470654937 0 0.091099819897193915 0.072698668733459662 0 0.073756407986572167 0.089208057274668753 0 0.076754437161540415 0.089960759998755593 0 0.07505495855127664 0.087476607765415174 0 0.076693368292166844 0.088039752657714299 0 0.077080401770691892 0.089275214080975163 0 0.07512629219602357 0.087518854988170136 0 0.082823673772628947 0.08234404337426264 0 0.07796877698372022 0.084455467259851175 0 0.076852235855836962 0.090018647722451536 0 0.077080401770691892 0.089275214080975163 0 0.07512629219602357 0.087518854988170136 0 0.083280918577658306 0.081164161108346872 0 0.084005181019774375 0.080680457773259717 0 0.084333096959860063 0.081783249344657832 0 0.082823673772628947 0.08234404337426264 0 0.083640346033499 0.08213218374124906 0 0.076852235855836962 0.090018647722451536 0 0.077080401770691892 0.089275214080975163 0 0.077551406529066946 0.089549116347384092 0 0.077080401770691892 0.089275214080975163 0 0.077550525715303228 0.089552190607030818 0 0.077619822772753061 0.088437631143760131 0 0.083593702996579908 0.082151096818988065 0 0.083640346033499 0.08213218374124906 0 0.083640346033499 0.08213218374124906 0 0.082336288909190203 0.083155265520599417 0 0.077550525715303228 0.089552190607030818 0 0.079473246023043523 0.08826992166062915 0 0.077619822772753061 0.088437631143760131 0 0.076693368292166844 0.088039752657714299 0 0.077619822772753061 0.088437631143760131 0 0.077300722792388782 0.087049223780307314 0 0.079473246023043523 0.08826992166062915 0 0.077619822772753061 0.088437631143760131 0 0.077300722792388782 0.087049223780307314 0 0.076693368292166844 0.088039752657714299 0 0.077080401770691892 0.089275214080975163 0 0.077619822772753061 0.088437631143760131 0 0.079473246023043523 0.08826992166062915 0 0.077300722792388782 0.087049223780307314 0 0.078510884238620529 0.084999967122202369 0 0.082336288909190203 0.083155265520599417 0 0.078520324215067994 0.084997485900601244 0 0.073389329558943492 0.084999990445294438 0 0.077300722792388782 0.087049223780307314 0 0.078510884238620529 0.084999967122202369 0 0.073389329558943492 0.084999990445294438 0 0.077300722792388782 0.087049223780307314 0 0.07512629219602357 0.087518854988170136 0 0.076693368292166844 0.088039752657714299 0 0.077300722792388782 0.087049223780307314 0 0.07512629219602357 0.087518854988170136 0 0.078513430821184546 0.084998872991335309 0 0.08499941680445347 0.084999670562999979 0 0.084249809659763988 0.084968305144844103 0 0.08499941680445347 0.084999670562999979 0 0.086412618642761826 0.080992142489518512 0 0.084998632125212387 0.07597562752845155 0 0.08499941680445347 0.084999670562999979 0 0.084249809659763988 0.084968305144844103 0 0.086412618642761826 0.080992142489518512 0 0.084249809659763988 0.084968305144844103 0 0.08735490777503635 0.083509248135191616 0 0.086412618642761826 0.080992142489518512 0 0.083238308112887002 0.083515888831948146 0 0.083051258441997303 0.083421220613718289 0 0.079607820698501253 0.088316086664182322 0 0.078513430821184546 0.084998872991335309 0 0.081887918055269099 0.086767223228239571 0 0.078513430821184546 0.084998872991335309 0 0.084249809659763988 0.084968305144844103 0 0.081887918055269099 0.086767223228239571 0 0.082336288909190203 0.083155265520599417 0 0.083051258441997303 0.083421220613718289 0 0.082336288909190203 0.083155265520599417 0 0.084738634381739064 0.080408625943883053 0 0.08735490777503635 0.083509248135191616 0 0.088113975322865287 0.081330130991392982 0 0.086412618642761826 0.080992142489518512 0 0.089768089753305885 0.081975885585498523 0 0.088113975322865287 0.081330130991392982 0 0.088911543008422078 0.078912426063783889 0 0.089768089753305885 0.081975885585498523 0 0.08735490777503635 0.083509248135191616 0 0.088113975322865287 0.081330130991392982 0 0.088113975322865287 0.081330130991392982 0 0.086412618642761826 0.080992142489518512 0 0.088911543008422078 0.078912426063783889 0 0.086412618642761826 0.080992142489518512 0 0.086799568319750747 0.07751576565090372 0 0.084998632125212387 0.07597562752845155 0 0.086412618642761826 0.080992142489518512 0 0.086799568319750747 0.07751576565090372 0 0.088911543008422078 0.078912426063783889 0 0.085339302721955626 0.078274523486278086 0 0.084738634381739064 0.080408625943883053 0 0.084738634381739064 0.080408625943883053 0 0.085372164852237239 0.077757887793965835 0 0.09045572919457201 0.075652379971112668 0 0.089699689973848529 0.078920194803270116 0 0.088312859955115702 0.073955839122207476 0 0.087325260799718973 0.077309999871374477 0 0.089747879115228732 0.078750101302384384 0 0.088312859955115702 0.073955839122207476 0 0.087325260799718973 0.077309999871374477 0 0.084999961026816825 0.075974183073613005 0 0.088312859955115702 0.073955839122207476 0 0.085339302721955626 0.078274523486278086 0 0.084999269754530593 0.07597982591511078 0 0.087506875701515163 0.070907262451303785 0 0.084999927015191254 0.07096300892560381 0 0.088312859955115702 0.073955839122207476 0 0.084999961026816825 0.075974183073613005 0 0.084999927015191254 0.07096300892560381 0 0.088312859955115702 0.073955839122207476 0 0.087506875701515163 0.070907262451303785 0 0.084999927015191254 0.07096300892560381 0 0.087331046175666158 0.068046520412761241 0 0.087506875701515163 0.070907262451303785 0 0.088556156220110219 0.069104966210647434 0 0.087331046175666158 0.068046520412761241 0 0.087506875701515163 0.070907262451303785 0 0.088556156220110219 0.069104966210647434 0 0.089420857524285607 0.069809376000481052 0 0.089376606094732539 0.07173404813729696 0 0.087506875701515163 0.070907262451303785 0 0.089741529449956295 0.07079295198182417 0 0.09045572919457201 0.075652379971112668 0 0.087506875701515163 0.070907262451303785 0 0.088312859955115702 0.073955839122207476 0 0.085688618224923227 0.076638283160723353 0 0.085713669185641439 0.074153554277305328 0 0.087506875701515163 0.070907262451303785 0 0.089741529449956295 0.07079295198182417 0 0.089420857524285607 0.069809376000481052 0 0.090351446049010978 0.071377323860393443 0 0.089741529449956295 0.07079295198182417 0 0.09096582737242119 0.070698266085809314 0 0.089741529449956295 0.07079295198182417 0 0.09096582737242119 0.070698266085809314 0 0.090641039346738408 0.069721067241966 0 0.089741529449956295 0.07079295198182417 0 0.089420857524285607 0.069809376000481052 0 0.090641039346738408 0.069721067241966 0 0.092069974960654472 0.070748207318773224 0 0.09096582737242119 0.070698266085809314 0 0.091815437886405837 0.069700507969611095 0 0.09096582737242119 0.070698266085809314 0 0.091815437886405837 0.069700507969611095 0 0.090641039346738408 0.069721067241966 0 0.092376329519859801 0.0686925350175914 0 0.091815437886405837 0.069700507969611095 0 0.091467671678554935 0.068778589973959539 0 0.091815437886405837 0.069700507969611095 0 0.091467671678554935 0.068778589973959539 0 0.090641039346738408 0.069721067241966 0 0.091467671678554935 0.068778589973959539 0 0.090641039346738408 0.069721067241966 0 0.090328456773991095 0.068307992625981334 0 0.092376329519859801 0.0686925350175914 0 0.091467671678554935 0.068778589973959539 0 0.092002139200528951 0.067506548773440103 0 0.088556156220110219 0.069104966210647434 0 0.089420857524285607 0.069809376000481052 0 0.090328456773991095 0.068307992625981334 0 0.089420857524285607 0.069809376000481052 0 0.090641039346738408 0.069721067241966 0 0.090328456773991095 0.068307992625981334 0 0.088556156220110219 0.069104966210647434 0 0.090328456773991095 0.068307992625981334 0 0.089338893513738707 0.067043738876276113 0 0.090328456773991095 0.068307992625981334 0 0.091292256602362676 0.066220281213815554 0 0.089338893513738707 0.067043738876276113 0 0.090328456773991095 0.068307992625981334 0 0.092002139200528951 0.067506548773440103 0 0.091292256602362676 0.066220281213815554 0 0.092524672219323562 0.066570869546096589 0 0.092002139200528951 0.067506548773440103 0 0.091292256602362676 0.066220281213815554 0 0.091467671678554935 0.068778589973959539 0 0.090328456773991095 0.068307992625981334 0 0.092002139200528951 0.067506548773440103 0 0.09067406523469565 0.064070554276393313 0 0.092070612619201533 0.064649823496114478 0 0.091292256602362676 0.066220281213815554 0 0.092070612619201533 0.064649823496114478 0 0.092524672219323562 0.066570869546096589 0 0.091292256602362676 0.066220281213815554 0 0.09067406523469565 0.064070554276393313 0 0.091292256602362676 0.066220281213815554 0 0.089338893513738707 0.067043738876276113 0 0.09067406523469565 0.064070554276393313 0 0.087945297450196996 0.064639192274152296 0 0.089338893513738707 0.067043738876276113 0 0.087945297450196996 0.064639192274152296 0 0.084999979483337554 0.065955650400284505 0 0.087331046175666158 0.068046520412761241 0 0.084999927015191254 0.07096300892560381 0 0.084999979483337554 0.065955650400284505 0 0.087331046175666158 0.068046520412761241 0 0.088556156220110219 0.069104966210647434 0 0.087331046175666158 0.068046520412761241 0 0.089338893513738707 0.067043738876276113 0 0.087945297450196996 0.064639192274152296 0 0.087331046175666158 0.068046520412761241 0 0.089338893513738707 0.067043738876276113 0 0.023563799087881955 0.09053586995455748 0 0.024402600320424826 0.088775471602750011 0 0.023603145298724131 0.090278416620233601 0 0.032084579588139171 0.078108263421451676 0 0.03932236893849797 0.076040760659966941 0 0.023563799087881955 0.09053586995455748 0 0.023603145298724131 0.090278416620233601 0 0.023375530581209374 0.09042105602941411 0 0.023563799087881955 0.09053586995455748 0 0.020524708746864486 0.091315749265454188 0 0.022496140077837557 0.090380713095833426 0 0.023563799087881955 0.09053586995455748 0 0.020524708746864486 0.091315749265454188 0 0.020423578158846985 0.092707102192109259 0 0.023563799087881955 0.09053586995455748 0 0.020423578158846985 0.092707102192109259 0 0.021216790813003646 0.093321528086503777 0 0.019611724131392016 0.092628030990654447 0 0.020423578158846985 0.092707102192109259 0 0.021216790813003646 0.093321528086503777 0 0.065560137451447037 0.054656596078096184 0 0.062827179984372983 0.053265525213437442 0 0.061720052860230856 0.060811768838570923 0 0.065560137451447037 0.054656596078096184 0 0.062827179984372983 0.053265525213437442 0 0.063557607516411999 0.049430012000349945 0 0.030828750122609088 0.081736007596020968 0 0.032084579588139171 0.078108263421451676 0 0.062827179984372983 0.053265525213437442 0 0.060187506762050494 0.053932166233562631 0 0.061720052860230856 0.060811768838570923 0 0.062827179984372983 0.053265525213437442 0 0.060187506762050494 0.053932166233562631 0 0.060719747142096443 0.050023723181997479 0 0.060187506762050494 0.053932166233562631 0 0.057254725941404266 0.05059978853863565 0 0.060719747142096443 0.050023723181997479 0 0.057344083651869 0.055338459523042061 0 0.057254725941404266 0.05059978853863565 0 0.052823802201924744 0.052422692358106586 0 0.060187506762050494 0.053932166233562631 0 0.057344083651869 0.055338459523042061 0 0.057254725941404266 0.05059978853863565 0 0.056317236214728804 0.059299944281274712 0 0.061720052860230856 0.060811768838570923 0 0.054774710481635083 0.063754788066063842 0 0.057344083651869 0.055338459523042061 0 0.056317236214728804 0.059299944281274712 0 0.061720052860230856 0.060811768838570923 0 0.057344083651869 0.055338459523042061 0 0.056317236214728804 0.059299944281274712 0 0.05243717637138727 0.057738766166085059 0 0.056317236214728804 0.059299944281274712 0 0.054774710481635083 0.063754788066063842 0 0.05243717637138727 0.057738766166085059 0 0.060187506762050494 0.053932166233562631 0 0.057344083651869 0.055338459523042061 0 0.061720052860230856 0.060811768838570923 0 0.023603145298724131 0.090278416620233601 0 0.023678451341449306 0.090912556891415697 0 0.023379402755661798 0.092090518887544298 0 0.03932236893849797 0.076040760659966941 0 0.038670754097732365 0.080436748086151769 0 0.023603145298724131 0.090278416620233601 0 0.023678451341449306 0.090912556891415697 0 0.023375530581209374 0.09042105602941411 0 0.061720052860230856 0.060811768838570923 0 0.054774710481635083 0.063754788066063842 0 0.056921411206754743 0.069543793312947452 0 0.023379402755661798 0.092090518887544298 0 0.023929330813211854 0.091246858823235341 0 0.023872258185981349 0.093765776440053142 0 0.023678451341449306 0.090912556891415697 0 0.023379402755661798 0.092090518887544298 0 0.023929330813211854 0.091246858823235341 0 0.023678451341449306 0.090912556891415697 0 0.023929330813211854 0.091246858823235341 0 0.023356660289089292 0.090435921680934797 0 0.019703719068351919 0.095092443682214575 0 0.016335606754311744 0.09373221275430392 0 0.017213636111268627 0.093747370690072884 0 0.023929330813211854 0.091246858823235341 0 0.023356660289089292 0.090435921680934797 0 0.022123721054204432 0.089054097683240574 0 0.019703719068351919 0.095092443682214575 0 0.015707260163908505 0.093442100256007049 0 0.016335606754311744 0.09373221275430392 0 0.021062545768123379 0.092334408560908521 0 0.019630956123593696 0.091882091350740658 0 0.023678451341449306 0.090912556891415697 0 0.023356660289089292 0.090435921680934797 0 0.023375530581209374 0.09042105602941411 0 0.023356660289089292 0.090435921680934797 0 0.022935770941860487 0.090075765575237152 0 0.022123721054204432 0.089054097683240574 0 0.023563799087881955 0.09053586995455748 0 0.023375530581209374 0.09042105602941411 0 0.022496140077837557 0.090380713095833426 0 0.023356660289089292 0.090435921680934797 0 0.022935770941860487 0.090075765575237152 0 0.023375530581209374 0.09042105602941411 0 0.022935770941860487 0.090075765575237152 0 0.023375530581209374 0.09042105602941411 0 0.022496140077837557 0.090380713095833426 0 0.020524708746864486 0.091315749265454188 0 0.022496140077837557 0.090380713095833426 0 0.022123721054204432 0.089054097683240574 0 0.015781935136816257 0.093170749784861534 0 0.015707260163908505 0.093442100256007049 0 0.016690913422983688 0.090008630441164431 0 0.022935770941860487 0.090075765575237152 0 0.022496140077837557 0.090380713095833426 0 0.022123721054204432 0.089054097683240574 0 0.015781935136816257 0.093170749784861534 0 0.015707260163908505 0.093442100256007049 0 0.016335606754311744 0.09373221275430392 0 0.016335606754311744 0.09373221275430392 0 0.015616690142786185 0.093669327224566626 0 0.017213636111268627 0.093747370690072884 0 0.015781935136816257 0.093170749784861534 0 0.016335606754311744 0.09373221275430392 0 0.015653319218761768 0.093560379169020491 0 0.016335606754311744 0.09373221275430392 0 0.015653319218761768 0.093560379169020491 0 0.015616690142786185 0.093669327224566626 0 0.015781935136816257 0.093170749784861534 0 0.015653319218761768 0.093560379169020491 0 0.014994426491100211 0.093652603818125887 0 0.015653319218761768 0.093560379169020491 0 0.014994426491100211 0.093652603818125887 0 0.015616690142786185 0.093669327224566626 0 0.015781935136816257 0.093170749784861534 0 0.014994426491100211 0.093652603818125887 0 0.014316568655461071 0.093886528032708833 0 0.015781935136816257 0.093170749784861534 0 0.015487010109390395 0.087594542600246628 0 0.016690913422983688 0.090008630441164431 0 0.013750994845063666 0.091393442991741874 0 0.012570965020702277 0.090900006076935769 0 0.015487010109390395 0.087594542600246628 0 0.013638309295235644 0.089355338037722692 0 0.011341422592890827 0.087828934866519562 0 0.015487010109390395 0.087594542600246628 0 0.013638309295235644 0.089355338037722692 0 0.016690913422983688 0.090008630441164431 0 0.013638309295235644 0.089355338037722692 0 0.016690913422983688 0.090008630441164431 0 0.012569533947670004 0.093577835138253573 0 0.019630956123593696 0.091882091350740658 0 0.018788891550461082 0.091664951402706626 0 0.020524708746864486 0.091315749265454188 0 0.022123721054204432 0.089054097683240574 0 0.016690913422983688 0.090008630441164431 0 0.011341422592890827 0.087828934866519562 0 0.007612506492951086 0.088305978654287562 0 0.0086471808691594172 0.08364145170263361 0 0.007612506492951086 0.088305978654287562 0 0.0086471808691594172 0.08364145170263361 0 0.004608680574536647 0.086408015852620521 0 0.007612506492951086 0.088305978654287562 0 0.004608680574536647 0.086408015852620521 0 0.0041488183777785301 0.089146724281234338 0 0.015487010109390395 0.087594542600246628 0 0.011341422592890827 0.087828934866519562 0 0.0086471808691594172 0.08364145170263361 0 0.012570965020702277 0.090900006076935769 0 0.0072722091121099593 0.08979299708998853 0 0.013638309295235644 0.089355338037722692 0 0.010449172678985128 0.090184109393688608 0 0.012569533947670004 0.093577835138253573 0 0.013638309295235644 0.089355338037722692 0 0.011341422592890827 0.087828934866519562 0 0.010449172678985128 0.090184109393688608 0 0.011341422592890827 0.087828934866519562 0 0.010449172678985128 0.090184109393688608 0 0.007612506492951086 0.088305978654287562 0 0.007612506492951086 0.088305978654287562 0 0.0059970640235124011 0.093089692966262877 0 0.0041488183777785301 0.089146724281234338 0 0.010449172678985128 0.090184109393688608 0 0.007612506492951086 0.088305978654287562 0 0.0059970640235124011 0.093089692966262877 0 0.0059970640235124011 0.093089692966262877 0 0.012569533947670004 0.093577835138253573 0 0.0055824999096129105 0.1009454344398318 0 0.010449172678985128 0.090184109393688608 0 0.0059970640235124011 0.093089692966262877 0 0.012569533947670004 0.093577835138253573 0 0.012569533947670004 0.093577835138253573 0 0.019212551147353919 0.094445931228470517 0 0.014516542933560023 0.10171526610314054 0 0.020524708746864486 0.091315749265454188 0 0.020423578158846985 0.092707102192109259 0 0.019212551147353919 0.094445931228470517 0 0.020524708746864486 0.091315749265454188 0 0.016690913422983688 0.090008630441164431 0 0.019212551147353919 0.094445931228470517 0 0.016690913422983688 0.090008630441164431 0 0.012569533947670004 0.093577835138253573 0 0.019212551147353919 0.094445931228470517 0 0.019611724131392016 0.092628030990654447 0 0.020423578158846985 0.092707102192109259 0 0.019212551147353919 0.094445931228470517 0 0.019611724131392016 0.092628030990654447 0 0.019212551147353919 0.094445931228470517 0 0.018715014166231697 0.090454479183118094 0 0.019212551147353919 0.094445931228470517 0 0.018715014166231697 0.090454479183118094 0 0.023964361330395197 0.090440279578726052 0 0.01568622075834615 0.092536836650332313 0 0.014054238166822362 0.09220054737907063 0 0.023964361330395197 0.090440279578726052 0 0.022441400912986541 0.086470304778423171 0 0.028279997024857277 0.085009261849776724 0 0.018715014166231697 0.090454479183118094 0 0.023964361330395197 0.090440279578726052 0 0.022441400912986541 0.086470304778423171 0 0.018715014166231697 0.090454479183118094 0 0.022441400912986541 0.086470304778423171 0 0.018786336119166452 0.08630785710699708 0 0.012569533947670004 0.093577835138253573 0 0.014516542933560023 0.10171526610314054 0 0.0055824999096129105 0.1009454344398318 0 0.014054238166822362 0.09220054737907063 0 0.0085453543908428822 0.089486741791930821 0 0.014516542933560023 0.10171526610314054 0 0.0055824999096129105 0.1009454344398318 0 0.010114635452889934 0.10853555622040177 0 0.0055824999096129105 0.1009454344398318 0 0.010114635452889934 0.10853555622040177 0 0.003635055896180133 0.1087441023196368 0 0.0085453543908428822 0.089486741791930821 0 -0.0044370822682039636 0.081448288586513595 0 0.010114635452889934 0.10853555622040177 0 0.0037098208543588553 0.11432576688094316 0 0.003635055896180133 0.1087441023196368 0 0.028279997024857277 0.085009261849776724 0 0.028208600949456358 0.080720617785006332 0 0.023819887656904005 0.08185571279038896 0 0.028208600949456358 0.080720617785006332 0 0.023819887656904005 0.08185571279038896 0 0.025087883614818427 0.078336482083174869 0 0.028279997024857277 0.085009261849776724 0 0.028208600949456358 0.080720617785006332 0 0.032208890299187942 0.07934794727820324 0 0.010114635452889934 0.10853555622040177 0 0.0052534105301190997 0.11620454356851395 0 0.0037098208543588553 0.11432576688094316 0 -0.0044370822682039636 0.081448288586513595 0 -0.0029370094872204137 0.083833340600576192 0 0.018786336119166452 0.08630785710699708 0 0.020037261565348973 0.083193711366614853 0 0.01642560637798219 0.0819919968674548 0 0.022441400912986541 0.086470304778423171 0 0.018786336119166452 0.08630785710699708 0 0.020037261565348973 0.083193711366614853 0 0.022441400912986541 0.086470304778423171 0 0.028279997024857277 0.085009261849776724 0 0.023819887656904005 0.08185571279038896 0 0.022441400912986541 0.086470304778423171 0 0.020037261565348973 0.083193711366614853 0 0.023819887656904005 0.08185571279038896 0 0.023819887656904005 0.08185571279038896 0 0.022373685952195303 0.078630243381791615 0 0.02052361652941238 0.080390765174294013 0 0.023819887656904005 0.08185571279038896 0 0.025087883614818427 0.078336482083174869 0 0.022373685952195303 0.078630243381791615 0 0.022373685952195303 0.078630243381791615 0 0.020315735981976835 0.0784169497751082 0 0.02052361652941238 0.080390765174294013 0 0.020037261565348973 0.083193711366614853 0 0.023819887656904005 0.08185571279038896 0 0.02052361652941238 0.080390765174294013 0 0.020037261565348973 0.083193711366614853 0 0.02052361652941238 0.080390765174294013 0 0.018453900926111849 0.080770989927000672 0 0.020037261565348973 0.083193711366614853 0 0.018453900926111849 0.080770989927000672 0 0.01642560637798219 0.0819919968674548 0 0.02052361652941238 0.080390765174294013 0 0.018453900926111849 0.080770989927000672 0 0.018569098723863239 0.079161434646378967 0 0.020315735981976835 0.0784169497751082 0 0.02052361652941238 0.080390765174294013 0 0.018569098723863239 0.079161434646378967 0 0.018767022203698698 0.077204302414096093 0 0.020315735981976835 0.0784169497751082 0 0.018569098723863239 0.079161434646378967 0 0.016730660180752338 0.07742920918099816 0 0.018569098723863239 0.079161434646378967 0 0.01487713342350132 0.079549885044505705 0 0.029070537100282578 0.060245208386950799 0 0.030076716687242669 0.059860306980511917 0 0.018453900926111849 0.080770989927000672 0 0.018569098723863239 0.079161434646378967 0 0.016961491590822757 0.079087143237423163 0 0.030076716687242669 0.059860306980511917 0 0.035411177399122765 0.056025143463531879 0 0.013954685992678413 0.077321187908371655 0 0.01487713342350132 0.079549885044505705 0 0.010224522989721211 0.079489237750661107 0 0.035217209661653572 0.055022007860076841 0 0.032191368420068471 0.054907337621078169 0 0.034328153200632185 0.059465771029405597 0 0.066346388687962027 0.0381313305130822 0 0.067673867155801634 0.04100258130857886 0 0.064340245279768934 0.040634021625087141 0 0.035411177399122765 0.056025143463531879 0 0.032173640481656829 0.062545974466102147 0 0.018453900926111849 0.080770989927000672 0 0.016961491590822757 0.079087143237423163 0 0.01642560637798219 0.0819919968674548 0 0.030076716687242669 0.059860306980511917 0 0.032173640481656829 0.062545974466102147 0 0.066346388687962027 0.0381313305130822 0 0.064340245279768934 0.040634021625087141 0 0.061419358603768417 0.037884567093155838 0 0.035411177399122765 0.056025143463531879 0 0.046425941313469977 0.044664524485191426 0 0.064340245279768934 0.040634021625087141 0 0.063094478566374332 0.043019957713307681 0 0.061429998404744814 0.040913418673761706 0 0.064340245279768934 0.040634021625087141 0 0.065298665140672216 0.043384213133704191 0 0.063094478566374332 0.043019957713307681 0 0.067673867155801634 0.04100258130857886 0 0.064340245279768934 0.040634021625087141 0 0.065298665140672216 0.043384213133704191 0 0.065298665140672216 0.043384213133704191 0 0.063094478566374332 0.043019957713307681 0 0.064048507365407306 0.045704189878969202 0 0.018786336119166452 0.08630785710699708 0 0.016615515745844755 0.080898479666137502 0 0.015494882837691942 0.088655375176968351 0 0.067673867155801634 0.04100258130857886 0 0.065298665140672216 0.043384213133704191 0 0.066878898687515162 0.047108255920701642 0 0.031892196416087017 0.069606445216089802 0 0.032173640481656829 0.062545974466102147 0 0.032173640481656829 0.062545974466102147 0 0.034821411028832086 0.067932415278256636 0 0.018715014166231697 0.090454479183118094 0 0.018786336119166452 0.08630785710699708 0 0.015494882837691942 0.088655375176968351 0 0.065298665140672216 0.043384213133704191 0 0.066878898687515162 0.047108255920701642 0 0.064048507365407306 0.045704189878969202 0 0.063094478566374332 0.043019957713307681 0 0.064048507365407306 0.045704189878969202 0 0.06142859047607635 0.046001298022658975 0 0.064048507365407306 0.045704189878969202 0 0.063557607516411999 0.049430012000349945 0 0.06142859047607635 0.046001298022658975 0 0.066878898687515162 0.047108255920701642 0 0.064048507365407306 0.045704189878969202 0 0.063557607516411999 0.049430012000349945 0 0.065560137451447037 0.054656596078096184 0 0.066878898687515162 0.047108255920701642 0 0.063557607516411999 0.049430012000349945 0 0.032084579588139171 0.078108263421451676 0 0.034821411028832086 0.067932415278256636 0 0.014564477243783095 0.094565069698364299 0 0.018715014166231697 0.090454479183118094 0 0.015494882837691942 0.088655375176968351 0 0.032084579588139171 0.078108263421451676 0 0.023603066543812157 0.087292444541493472 0 0.019611724131392016 0.092628030990654447 0 0.021216790813003646 0.093321528086503777 0 0.018715014166231697 0.090454479183118094 0 0.058934114843383165 0.047490281862656109 0 0.057254725941404266 0.05059978853863565 0 0.056558632828345841 0.045807185715945796 0 0.057254725941404266 0.05059978853863565 0 0.056558632828345841 0.045807185715945796 0 0.054159675458471584 0.047539943517571945 0 0.058934114843383165 0.047490281862656109 0 0.057254725941404266 0.05059978853863565 0 0.060719747142096443 0.050023723181997479 0 0.063557607516411999 0.049430012000349945 0 0.060719747142096443 0.050023723181997479 0 0.06142859047607635 0.046001298022658975 0 0.058934114843383165 0.047490281862656109 0 0.060719747142096443 0.050023723181997479 0 0.06142859047607635 0.046001298022658975 0 0.062827179984372983 0.053265525213437442 0 0.063557607516411999 0.049430012000349945 0 0.060719747142096443 0.050023723181997479 0 0.058934114843383165 0.047490281862656109 0 0.06142859047607635 0.046001298022658975 0 0.058526332745657932 0.044858057703821966 0 0.06142859047607635 0.046001298022658975 0 0.058526332745657932 0.044858057703821966 0 0.059619291312243895 0.042716600408686155 0 0.058934114843383165 0.047490281862656109 0 0.058526332745657932 0.044858057703821966 0 0.056558632828345841 0.045807185715945796 0 0.058526332745657932 0.044858057703821966 0 0.056558632828345841 0.045807185715945796 0 0.056802195188429251 0.043093817786846622 0 0.056802195188429251 0.043093817786846622 0 0.057288109741305535 0.041384574425691566 0 0.059619291312243895 0.042716600408686155 0 0.058526332745657932 0.044858057703821966 0 0.056802195188429251 0.043093817786846622 0 0.059619291312243895 0.042716600408686155 0 0.057288109741305535 0.041384574425691566 0 0.059619291312243895 0.042716600408686155 0 0.058832552620157498 0.040237031427928595 0 0.063094478566374332 0.043019957713307681 0 0.059619291312243895 0.042716600408686155 0 0.061429998404744814 0.040913418673761706 0 0.063094478566374332 0.043019957713307681 0 0.06142859047607635 0.046001298022658975 0 0.059619291312243895 0.042716600408686155 0 0.059619291312243895 0.042716600408686155 0 0.061429998404744814 0.040913418673761706 0 0.058832552620157498 0.040237031427928595 0 0.046425941313469977 0.044664524485191426 0 0.049041544044966232 0.039237427342448332 0 0.060644959178561164 0.038555020153687301 0 0.058832552620157498 0.040237031427928595 0 0.058020546906482839 0.038439067175686521 0 0.064340245279768934 0.040634021625087141 0 0.061429998404744814 0.040913418673761706 0 0.061419358603768417 0.037884567093155838 0 0.061429998404744814 0.040913418673761706 0 0.061419358603768417 0.037884567093155838 0 0.058832552620157498 0.040237031427928595 0 0.046425941313469977 0.044664524485191426 0 0.050097153625790918 0.04204242106911199 0 0.049041544044966232 0.039237427342448332 0 0.051415842767125436 0.034508898012730126 0 0.056822268086761003 0.039902448294327146 0 0.058020546906482839 0.038439067175686521 0 0.05534963860728874 0.038394694112801386 0 0.057288109741305535 0.041384574425691566 0 0.056822268086761003 0.039902448294327146 0 0.058832552620157498 0.040237031427928595 0 0.056822268086761003 0.039902448294327146 0 0.058832552620157498 0.040237031427928595 0 0.058020546906482839 0.038439067175686521 0 0.057288109741305535 0.041384574425691566 0 0.056822268086761003 0.039902448294327146 0 0.054687921860055236 0.040868656397896483 0 0.056822268086761003 0.039902448294327146 0 0.05534963860728874 0.038394694112801386 0 0.054687921860055236 0.040868656397896483 0 0.051415842767125436 0.034508898012730126 0 0.052536286635615666 0.035959847272233607 0 0.060403714072806966 0.028108514563538335 0 0.058630054382402021 0.034293642467991249 0 0.057085863997899139 0.030336277594906817 0 0.057706084356008928 0.027957662147883238 0 0.060403714072806966 0.028108514563538335 0 0.057085863997899139 0.030336277594906817 0 0.0519115312119642 0.034392424773109428 0 0.051415842767125436 0.034508898012730126 0 0.052536286635615666 0.035959847272233607 0 0.052664095119631597 0.037048382646292857 0 0.054687921860055236 0.040868656397896483 0 0.055263516448927637 0.043402237525137062 0 0.054688879038552643 0.041875129937081548 0 0.056802195188429251 0.043093817786846622 0 0.057288109741305535 0.041384574425691566 0 0.054687921860055236 0.040868656397896483 0 0.056802195188429251 0.043093817786846622 0 0.054687921860055236 0.040868656397896483 0 0.055263516448927637 0.043402237525137062 0 0.058630054382402021 0.034293642467991249 0 0.052762187420637173 0.037399840236394873 0 0.054365513755832623 0.031620631245368125 0 0.058630054382402021 0.034293642467991249 0 0.052762187420637173 0.037399840236394873 0 0.054688879038552643 0.041875129937081548 0 0.058630054382402021 0.034293642467991249 0 0.054365513755832623 0.031620631245368125 0 0.057085863997899139 0.030336277594906817 0 0.055369364613452883 0.028041900597202019 0 0.057706084356008928 0.027957662147883238 0 0.057085863997899139 0.030336277594906817 0 0.053293252926138311 0.026876113884299897 0 0.055369364613452883 0.028041900597202019 0 0.054365513755832623 0.031620631245368125 0 0.055369364613452883 0.028041900597202019 0 0.054365513755832623 0.031620631245368125 0 0.057085863997899139 0.030336277594906817 0 0.053293252926138311 0.026876113884299897 0 0.050395113936005327 0.028188839601850972 0 0.050524640227449957 0.033664903877244828 0 0.053293252926138311 0.026876113884299897 0 0.054365513755832623 0.031620631245368125 0 0.050524640227449957 0.033664903877244828 0 0.049044978523439399 0.023778112230326828 0 0.050395113936005327 0.028188839601850972 0 0.046663464976571443 0.033427984004953372 0 0.050395113936005327 0.028188839601850972 0 0.046663464976571443 0.033427984004953372 0 0.050524640227449957 0.033664903877244828 0 0.046668752719224556 0.037604403781032011 0 0.050524640227449957 0.033664903877244828 0 0.048555326127998705 0.04023910295999597 0 0.046663464976571443 0.033427984004953372 0 0.046668752719224556 0.037604403781032011 0 0.050524640227449957 0.033664903877244828 0 0.052762187420637173 0.037399840236394873 0 0.054365513755832623 0.031620631245368125 0 0.050524640227449957 0.033664903877244828 0 0.052762187420637173 0.037399840236394873 0 0.050524640227449957 0.033664903877244828 0 0.048555326127998705 0.04023910295999597 0 0.052762187420637173 0.037399840236394873 0 0.048555326127998705 0.04023910295999597 0 0.050660462507673171 0.043143325981739519 0 0.048555326127998705 0.04023910295999597 0 0.04823630653693025 0.043328928412288706 0 0.050660462507673171 0.043143325981739519 0 0.04823630653693025 0.043328928412288706 0 0.050660462507673171 0.043143325981739519 0 0.048351434748329848 0.045525660961449485 0 0.048555326127998705 0.04023910295999597 0 0.044145544918945602 0.04117178625802103 0 0.045897569855468827 0.04447870627801942 0 0.046668752719224556 0.037604403781032011 0 0.048555326127998705 0.04023910295999597 0 0.044145544918945602 0.04117178625802103 0 0.048555326127998705 0.04023910295999597 0 0.04823630653693025 0.043328928412288706 0 0.045897569855468827 0.04447870627801942 0 0.044145544918945602 0.04117178625802103 0 0.045897569855468827 0.04447870627801942 0 0.041957093855859134 0.045057584780655718 0 0.045897569855468827 0.04447870627801942 0 0.043633704888122044 0.047897420325188178 0 0.041957093855859134 0.045057584780655718 0 0.045897569855468827 0.04447870627801942 0 0.046258878986233584 0.048161266001253138 0 0.048351434748329848 0.045525660961449485 0 0.045897569855468827 0.04447870627801942 0 0.046258878986233584 0.048161266001253138 0 0.043633704888122044 0.047897420325188178 0 0.048351434748329848 0.045525660961449485 0 0.049808865106201465 0.046814366448129363 0 0.044234529946073124 0.053713042767739909 0 0.050660462507673171 0.043143325981739519 0 0.048351434748329848 0.045525660961449485 0 0.049808865106201465 0.046814366448129363 0 0.04823630653693025 0.043328928412288706 0 0.045897569855468827 0.04447870627801942 0 0.048351434748329848 0.045525660961449485 0 0.050660462507673171 0.043143325981739519 0 0.049808865106201465 0.046814366448129363 0 0.052771875141598965 0.045140948579831655 0 0.049808865106201465 0.046814366448129363 0 0.051471630846220098 0.048640921487530263 0 0.052771875141598965 0.045140948579831655 0 0.049808865106201465 0.046814366448129363 0 0.051471630846220098 0.048640921487530263 0 0.048793620600411508 0.052202567467994662 0 0.051471630846220098 0.048640921487530263 0 0.054159675458471584 0.047539943517571945 0 0.052823802201924744 0.052422692358106586 0 0.057254725941404266 0.05059978853863565 0 0.054159675458471584 0.047539943517571945 0 0.052823802201924744 0.052422692358106586 0 0.051471630846220098 0.048640921487530263 0 0.054159675458471584 0.047539943517571945 0 0.052771875141598965 0.045140948579831655 0 0.056558632828345841 0.045807185715945796 0 0.054159675458471584 0.047539943517571945 0 0.055263516448927637 0.043402237525137062 0 0.054159675458471584 0.047539943517571945 0 0.055263516448927637 0.043402237525137062 0 0.052771875141598965 0.045140948579831655 0 0.056558632828345841 0.045807185715945796 0 0.056802195188429251 0.043093817786846622 0 0.055263516448927637 0.043402237525137062 0 0.055263516448927637 0.043402237525137062 0 0.054688879038552643 0.041875129937081548 0 0.052771875141598965 0.045140948579831655 0 0.052762187420637173 0.037399840236394873 0 0.050660462507673171 0.043143325981739519 0 0.054688879038552643 0.041875129937081548 0 0.050660462507673171 0.043143325981739519 0 0.054688879038552643 0.041875129937081548 0 0.052771875141598965 0.045140948579831655 0 0.03524168728609537 0.061194458596982387 0 0.033978463841219921 0.065404241105640665 0 0.031623987553059403 0.05977655308843869 0 0.027413410642637109 0.036095213742139087 0 0.030783153786212738 0.037625496996244991 0 0.030634891008236242 0.041517809308324508 0 0.042580300588224908 0.041455702590502373 0 0.037747714405501551 0.047470739002462826 0 0.053181432191399779 0.034031108672591091 0 0.05284259962006474 0.034751230221943062 0 0.053829843778736196 0.034429744285118004 0 0.027413410642637109 0.036095213742139087 0 0.033061849142288734 0.034366721639025308 0 0.030783153786212738 0.037625496996244991 0 0.042580300588224908 0.041455702590502373 0 0.044775331804780875 0.032967851239645948 0 0.044775331804780875 0.032967851239645948 0 0.04646515904474699 0.030292374830652568 0 0.044775331804780875 0.032967851239645948 0 0.041028095790845723 0.037421540578957815 0 0.033061849142288734 0.034366721639025308 0 0.030783153786212738 0.037625496996244991 0 0.035145882301316288 0.040247046899658828 0 0.030783153786212738 0.037625496996244991 0 0.035145882301316288 0.040247046899658828 0 0.030634891008236242 0.041517809308324508 0 0.032338349828296788 0.029801658602488363 0 0.035281114916102724 0.038511058250798105 0 0.03976920484453654 0.033899888218263854 0 0.035281114916102724 0.038511058250798105 0 0.03976920484453654 0.033899888218263854 0 0.041904988802138027 0.037713632046508745 0 0.049044978523439399 0.023778112230326828 0 0.03976920484453654 0.033899888218263854 0 0.034169343789964772 0.026653114429814523 0 0.032338349828296788 0.029801658602488363 0 0.03976920484453654 0.033899888218263854 0 0.035693447844550329 0.028834039741645653 0 0.044817843767264949 0.029666962633929334 0 0.04646515904474699 0.030292374830652568 0 0.049044978523439399 0.023778112230326828 0 0.046663464976571443 0.033427984004953372 0 0.03976920484453654 0.033899888218263854 0 0.046663464976571443 0.033427984004953372 0 0.03976920484453654 0.033899888218263854 0 0.041904988802138027 0.037713632046508745 0 0.046668752719224556 0.037604403781032011 0 0.044145544918945602 0.04117178625802103 0 0.041904988802138027 0.037713632046508745 0 0.046663464976571443 0.033427984004953372 0 0.046668752719224556 0.037604403781032011 0 0.041904988802138027 0.037713632046508745 0 0.044145544918945602 0.04117178625802103 0 0.041904988802138027 0.037713632046508745 0 0.040077863013058677 0.041778381654520705 0 0.044145544918945602 0.04117178625802103 0 0.040077863013058677 0.041778381654520705 0 0.041957093855859134 0.045057584780655718 0 0.043633704888122044 0.047897420325188178 0 0.041957093855859134 0.045057584780655718 0 0.040236884240195073 0.048655607300597405 0 0.041957093855859134 0.045057584780655718 0 0.040236884240195073 0.048655607300597405 0 0.037399951838113066 0.046374685701886929 0 0.040077863013058677 0.041778381654520705 0 0.041957093855859134 0.045057584780655718 0 0.037399951838113066 0.046374685701886929 0 0.041028095790845723 0.037421540578957815 0 0.040710772839070902 0.0408105246495995 0 0.035145882301316288 0.040247046899658828 0 0.037399951838113066 0.046374685701886929 0 0.033862234309157607 0.0471621103605342 0 0.035281114916102724 0.038511058250798105 0 0.041904988802138027 0.037713632046508745 0 0.040077863013058677 0.041778381654520705 0 0.035281114916102724 0.038511058250798105 0 0.040077863013058677 0.041778381654520705 0 0.037399951838113066 0.046374685701886929 0 0.036606796818152279 0.051329303124048438 0 0.037747714405501551 0.047470739002462826 0 0.035145882301316288 0.040247046899658828 0 0.033862234309157607 0.0471621103605342 0 0.030634891008236242 0.041517809308324508 0 0.032257977553732747 0.05583411487146387 0 0.032834827494541988 0.056583980635584404 0 0.031623987553059403 0.05977655308843869 0 0.032257977553732747 0.05583411487146387 0 0.032834827494541988 0.056583980635584404 0 0.032535386946383159 0.055777767654874182 0 0.03524168728609537 0.061194458596982387 0 0.032834827494541988 0.056583980635584404 0 0.031623987553059403 0.05977655308843869 0 0.030286915041444016 0.059523817165600137 0 0.031939298079431411 0.059334450718779679 0 0.031788863215559522 0.056511966054454667 0 0.031939298079431411 0.059334450718779679 0 0.032539667757005918 0.056849602654927819 0 0.031788863215559522 0.056511966054454667 0 0.032539667757005918 0.056849602654927819 0 0.031788863215559522 0.056511966054454667 0 0.032571731472537467 0.05504939061161896 0 0.033619301217806666 0.052755210573859644 0 0.032834827494541988 0.056583980635584404 0 0.032571731472537467 0.05504939061161896 0 0.032834827494541988 0.056583980635584404 0 0.032571731472537467 0.05504939061161896 0 0.032535386946383159 0.055777767654874182 0 0.032539667757005918 0.056849602654927819 0 0.032571731472537467 0.05504939061161896 0 0.032535386946383159 0.055777767654874182 0 0.032539667757005918 0.056849602654927819 0 0.032535386946383159 0.055777767654874182 0 0.03331078153703354 0.056586509086912706 0 0.032257977553732747 0.05583411487146387 0 0.032535386946383159 0.055777767654874182 0 0.03331078153703354 0.056586509086912706 0 0.032539667757005918 0.056849602654927819 0 0.03331078153703354 0.056586509086912706 0 0.033616433668924799 0.058888832943341095 0 0.031939298079431411 0.059334450718779679 0 0.032539667757005918 0.056849602654927819 0 0.033616433668924799 0.058888832943341095 0 0.03331078153703354 0.056586509086912706 0 0.033616433668924799 0.058888832943341095 0 0.036028438443816459 0.057092799730239195 0 0.033616433668924799 0.058888832943341095 0 0.036028438443816459 0.057092799730239195 0 0.035491171725220552 0.061757444902605846 0 0.036028438443816459 0.057092799730239195 0 0.039887397743202713 0.061506605422278773 0 0.035491171725220552 0.061757444902605846 0 0.032257977553732747 0.05583411487146387 0 0.03331078153703354 0.056586509086912706 0 0.036028438443816459 0.057092799730239195 0 0.040236884240195073 0.048655607300597405 0 0.037399951838113066 0.046374685701886929 0 0.036900200850765487 0.053704372217117692 0 0.037399951838113066 0.046374685701886929 0 0.033862234309157607 0.0471621103605342 0 0.036900200850765487 0.053704372217117692 0 0.036606796818152279 0.051329303124048438 0 0.03779540703255363 0.055375280918459786 0 0.036900200850765487 0.053704372217117692 0 0.041979760556146779 0.051012978710668379 0 0.042046814429117646 0.055400687700580174 0 0.040236884240195073 0.048655607300597405 0 0.036900200850765487 0.053704372217117692 0 0.041979760556146779 0.051012978710668379 0 0.043633704888122044 0.047897420325188178 0 0.040236884240195073 0.048655607300597405 0 0.041979760556146779 0.051012978710668379 0 0.036900200850765487 0.053704372217117692 0 0.042046814429117646 0.055400687700580174 0 0.039887397743202713 0.061506605422278773 0 0.03779540703255363 0.055375280918459786 0 0.039045785005069014 0.057998403046670803 0 0.042046814429117646 0.055400687700580174 0 0.039887397743202713 0.061506605422278773 0 0.044103354696864355 0.063281932931274515 0 0.039887397743202713 0.061506605422278773 0 0.037262889298845393 0.063947773972483038 0 0.035491171725220552 0.061757444902605846 0 0.039887397743202713 0.061506605422278773 0 0.039174026969294055 0.065490730298252003 0 0.037262889298845393 0.063947773972483038 0 0.039887397743202713 0.061506605422278773 0 0.039174026969294055 0.065490730298252003 0 0.044103354696864355 0.063281932931274515 0 0.039174026969294055 0.065490730298252003 0 0.044103354696864355 0.063281932931274515 0 0.039363080094121809 0.071414434351446815 0 0.039174026969294055 0.065490730298252003 0 0.035782373744712659 0.06676579046294534 0 0.039363080094121809 0.071414434351446815 0 0.039174026969294055 0.065490730298252003 0 0.035782373744712659 0.06676579046294534 0 0.037262889298845393 0.063947773972483038 0 0.035782373744712659 0.06676579046294534 0 0.034284072756337047 0.064431080132593702 0 0.037262889298845393 0.063947773972483038 0 0.035782373744712659 0.06676579046294534 0 0.034284072756337047 0.064431080132593702 0 0.032323859026562318 0.067409847923163249 0 0.034284072756337047 0.064431080132593702 0 0.037262889298845393 0.063947773972483038 0 0.035491171725220552 0.061757444902605846 0 0.031939298079431411 0.059334450718779679 0 0.033616433668924799 0.058888832943341095 0 0.032636648590095969 0.062684987897593414 0 0.034284072756337047 0.064431080132593702 0 0.035491171725220552 0.061757444902605846 0 0.032636648590095969 0.062684987897593414 0 0.033616433668924799 0.058888832943341095 0 0.035491171725220552 0.061757444902605846 0 0.032636648590095969 0.062684987897593414 0 0.034284072756337047 0.064431080132593702 0 0.032636648590095969 0.062684987897593414 0 0.032323859026562318 0.067409847923163249 0 0.032636648590095969 0.062684987897593414 0 0.032323859026562318 0.067409847923163249 0 0.030628411475852723 0.065352081999610234 0 0.032323859026562318 0.067409847923163249 0 0.030628411475852723 0.065352081999610234 0 0.029726360000757502 0.06795031557173474 0 0.030628411475852723 0.065352081999610234 0 0.028094401453813301 0.066743803997319356 0 0.029726360000757502 0.06795031557173474 0 0.030628411475852723 0.065352081999610234 0 0.028094401453813301 0.066743803997319356 0 0.028936739573666197 0.064311355132155842 0 0.030628411475852723 0.065352081999610234 0 0.028936739573666197 0.064311355132155842 0 0.030634716516919184 0.062151538972908572 0 0.028947499053813872 0.061711619996413815 0 0.028936739573666197 0.064311355132155842 0 0.030634716516919184 0.062151538972908572 0 0.032636648590095969 0.062684987897593414 0 0.030628411475852723 0.065352081999610234 0 0.030634716516919184 0.062151538972908572 0 0.031939298079431411 0.059334450718779679 0 0.032636648590095969 0.062684987897593414 0 0.030634716516919184 0.062151538972908572 0 0.030286915041444016 0.059523817165600137 0 0.031939298079431411 0.059334450718779679 0 0.030634716516919184 0.062151538972908572 0 0.030286915041444016 0.059523817165600137 0 0.028947499053813872 0.061711619996413815 0 0.030634716516919184 0.062151538972908572 0 0.047955414598371958 0.057247283452350181 0 0.048793620600411508 0.052202567467994662 0 0.042080846653286402 0.056970196894853213 0 0.047955414598371958 0.057247283452350181 0 0.042080846653286402 0.056970196894853213 0 0.044228028880277014 0.063079742176306491 0 0.047955414598371958 0.057247283452350181 0 0.044228028880277014 0.063079742176306491 0 0.049703473110147618 0.062251649700681144 0 0.047955414598371958 0.057247283452350181 0 0.05243717637138727 0.057738766166085059 0 0.049703473110147618 0.062251649700681144 0 0.054774710481635083 0.063754788066063842 0 0.05243717637138727 0.057738766166085059 0 0.049703473110147618 0.062251649700681144 0 0.047955414598371958 0.057247283452350181 0 0.05243717637138727 0.057738766166085059 0 0.052823802201924744 0.052422692358106586 0 0.057344083651869 0.055338459523042061 0 0.05243717637138727 0.057738766166085059 0 0.052823802201924744 0.052422692358106586 0 0.051471630846220098 0.048640921487530263 0 0.052823802201924744 0.052422692358106586 0 0.048793620600411508 0.052202567467994662 0 0.049808865106201465 0.046814366448129363 0 0.048793620600411508 0.052202567467994662 0 0.042080846653286402 0.056970196894853213 0 0.047955414598371958 0.057247283452350181 0 0.052823802201924744 0.052422692358106586 0 0.048793620600411508 0.052202567467994662 0 0.045669661205120879 0.053208071534035443 0 0.044217969250741271 0.058478104379209556 0 0.049808865106201465 0.046814366448129363 0 0.044234529946073124 0.053713042767739909 0 0.048770755746445363 0.055447153582490367 0 0.046530328504582073 0.050494249813241111 0 0.045230865228316999 0.05476993171134549 0 0.046258878986233584 0.048161266001253138 0 0.048351434748329848 0.045525660961449485 0 0.047379637365647854 0.053514258077845253 0 0.046258878986233584 0.048161266001253138 0 0.044612604558593234 0.050958542551212391 0 0.047379637365647854 0.053514258077845253 0 0.042046814429117646 0.055400687700580174 0 0.044612604558593234 0.050958542551212391 0 0.047379637365647854 0.053514258077845253 0 0.046258878986233584 0.048161266001253138 0 0.043633704888122044 0.047897420325188178 0 0.044612604558593234 0.050958542551212391 0 0.043633704888122044 0.047897420325188178 0 0.041979760556146779 0.051012978710668379 0 0.044612604558593234 0.050958542551212391 0 0.041979760556146779 0.051012978710668379 0 0.042046814429117646 0.055400687700580174 0 0.044612604558593234 0.050958542551212391 0 0.044234529946073124 0.053713042767739909 0 0.04510439913054845 0.059326183329180958 0 0.040972697869995411 0.063296171895501518 0 0.042046814429117646 0.055400687700580174 0 0.047379637365647854 0.053514258077845253 0 0.044103354696864355 0.063281932931274515 0 0.045230865228316999 0.05476993171134549 0 0.042928469959182002 0.062132592814032814 0 0.044234529946073124 0.053713042767739909 0 0.048770755746445363 0.055447153582490367 0 0.04510439913054845 0.059326183329180958 0 0.048770755746445363 0.055447153582490367 0 0.04510439913054845 0.059326183329180958 0 0.047072669596915244 0.065232938712549371 0 0.04510439913054845 0.059326183329180958 0 0.040972697869995411 0.063296171895501518 0 0.047072669596915244 0.065232938712549371 0 0.044217969250741271 0.058478104379209556 0 0.041439282209867825 0.068397319485668434 0 0.040972697869995411 0.063296171895501518 0 0.042801263655778778 0.068370347703722467 0 0.039363080094121809 0.071414434351446815 0 0.042928469959182002 0.062132592814032814 0 0.041555735841452258 0.066446202121259776 0 0.040972697869995411 0.063296171895501518 0 0.042801263655778778 0.068370347703722467 0 0.047072669596915244 0.065232938712549371 0 0.036034612588192474 0.069932233028504431 0 0.047581032872501858 0.0711843353491797 0 0.039735380863030148 0.077628862549143612 0 0.036034612588192474 0.069932233028504431 0 0.044228028880277014 0.063079742176306491 0 0.047581032872501858 0.0711843353491797 0 0.044228028880277014 0.063079742176306491 0 0.049703473110147618 0.062251649700681144 0 0.047581032872501858 0.0711843353491797 0 0.042080846653286402 0.056970196894853213 0 0.036034612588192474 0.069932233028504431 0 0.044228028880277014 0.063079742176306491 0 0.054774710481635083 0.063754788066063842 0 0.049703473110147618 0.062251649700681144 0 0.047581032872501858 0.0711843353491797 0 0.054774710481635083 0.063754788066063842 0 0.056921411206754743 0.069543793312947452 0 0.047581032872501858 0.0711843353491797 0 0.056921411206754743 0.069543793312947452 0 0.047581032872501858 0.0711843353491797 0 0.046935655582290001 0.082030652563401141 0 0.038670754097732365 0.080436748086151769 0 0.03608875219816101 0.085460126862826113 0 0.023379402755661798 0.092090518887544298 0 0.025211314980896217 0.094751320831339123 0 0.023872258185981349 0.093765776440053142 0 0.025211314980896217 0.094751320831339123 0 0.024199396110522402 0.093382530105838746 0 0.023872258185981349 0.093765776440053142 0 0.025211314980896217 0.094751320831339123 0 0.024199396110522402 0.093382530105838746 0 0.026326398384067213 0.092447000206455465 0 0.024199396110522402 0.093382530105838746 0 0.026326398384067213 0.092447000206455465 0 0.024055529394038658 0.092242650152395259 0 0.03608875219816101 0.085460126862826113 0 0.034466960621007188 0.087800794235841598 0 0.025211314980896217 0.094751320831339123 0 0.026326398384067213 0.092447000206455465 0 0.031696933873924867 0.09170750983800581 0 0.046935655582290001 0.082030652563401141 0 0.030423509934727953 0.086620180281574186 0 0.031696933873924867 0.09170750983800581 0 0.047581032872501858 0.0711843353491797 0 0.046935655582290001 0.082030652563401141 0 0.039735380863030148 0.077628862549143612 0 0.046935655582290001 0.082030652563401141 0 0.039735380863030148 0.077628862549143612 0 0.030423509934727953 0.086620180281574186 0 0.041439282209867825 0.068397319485668434 0 0.038657067898840013 0.078189295376740395 0 0.036034612588192474 0.069932233028504431 0 0.039735380863030148 0.077628862549143612 0 0.030423509934727953 0.086620180281574186 0 0.042801263655778778 0.068370347703722467 0 0.047072669596915244 0.065232938712549371 0 0.044618315964295475 0.073416323998292704 0 0.042801263655778778 0.068370347703722467 0 0.044618315964295475 0.073416323998292704 0 0.039363080094121809 0.071414434351446815 0 0.03966695732916229 0.077086187715869822 0 0.044618315964295475 0.073416323998292704 0 0.039363080094121809 0.071414434351446815 0 0.030423509934727953 0.086620180281574186 0 0.030816227568256766 0.092943508012356846 0 0.031696933873924867 0.09170750983800581 0 0.03966695732916229 0.077086187715869822 0 0.044618315964295475 0.073416323998292704 0 0.041130961505873039 0.081104035640926983 0 0.030816227568256766 0.092943508012356846 0 0.031696933873924867 0.09170750983800581 0 0.028948883384658865 0.09151638477097844 0 0.038657067898840013 0.078189295376740395 0 0.036790778726243048 0.083818069188104791 0 0.03966695732916229 0.077086187715869822 0 0.041130961505873039 0.081104035640926983 0 0.037247788400803658 0.082696895499710307 0 0.03966695732916229 0.077086187715869822 0 0.037247788400803658 0.082696895499710307 0 0.036279243684155686 0.08066387434265633 0 0.041130961505873039 0.081104035640926983 0 0.037247788400803658 0.082696895499710307 0 0.033123811611424005 0.087623797593888886 0 0.037247788400803658 0.082696895499710307 0 0.036279243684155686 0.08066387434265633 0 0.035174040033813685 0.08461689856857306 0 0.036790778726243048 0.083818069188104791 0 0.03600071889911298 0.085131085800084424 0 0.030816227568256766 0.092943508012356846 0 0.029813606577665814 0.090306290467101549 0 0.027819321969243693 0.090970862552447254 0 0.030816227568256766 0.092943508012356846 0 0.029813606577665814 0.090306290467101549 0 0.033123811611424005 0.087623797593888886 0 0.029813606577665814 0.090306290467101549 0 0.027819321969243693 0.090970862552447254 0 0.026585736107787368 0.089690123401713368 0 0.027819321969243693 0.090970862552447254 0 0.024090274613864534 0.090491215751539303 0 0.02584236918455662 0.091395653367359192 0 0.027819321969243693 0.090970862552447254 0 0.024090274613864534 0.090491215751539303 0 0.026585736107787368 0.089690123401713368 0 0.024090274613864534 0.090491215751539303 0 0.02584236918455662 0.091395653367359192 0 0.023618758317693497 0.091363480015856049 0 0.02584236918455662 0.091395653367359192 0 0.023618758317693497 0.091363480015856049 0 0.024055529394038658 0.092242650152395259 0 0.026326398384067213 0.092447000206455465 0 0.02584236918455662 0.091395653367359192 0 0.024055529394038658 0.092242650152395259 0 0.026326398384067213 0.092447000206455465 0 0.02584236918455662 0.091395653367359192 0 0.028948883384658865 0.09151638477097844 0 0.030816227568256766 0.092943508012356846 0 0.027819321969243693 0.090970862552447254 0 0.028948883384658865 0.09151638477097844 0 0.026326398384067213 0.092447000206455465 0 0.031696933873924867 0.09170750983800581 0 0.028948883384658865 0.09151638477097844 0 0.027819321969243693 0.090970862552447254 0 0.02584236918455662 0.091395653367359192 0 0.028948883384658865 0.09151638477097844 0 0.028605853218997716 0.072258696023494676 0 0.030767306152917975 0.075495114680038472 0 0.027199555857327251 0.076752715802883092 0 0.02617809957843269 0.069164281460501964 0 0.028605853218997716 0.072258696023494676 0 0.027199555857327251 0.076752715802883092 0 0.02617809957843269 0.069164281460501964 0 0.028605853218997716 0.072258696023494676 0 0.028450967627974982 0.069265865116598505 0 0.028094401453813301 0.066743803997319356 0 0.028450967627974982 0.069265865116598505 0 0.029726360000757502 0.06795031557173474 0 0.032323859026562318 0.067409847923163249 0 0.029726360000757502 0.06795031557173474 0 0.029629668601853412 0.070336240215245385 0 0.028450967627974982 0.069265865116598505 0 0.029726360000757502 0.06795031557173474 0 0.029629668601853412 0.070336240215245385 0 0.028605853218997716 0.072258696023494676 0 0.028450967627974982 0.069265865116598505 0 0.029629668601853412 0.070336240215245385 0 0.028605853218997716 0.072258696023494676 0 0.029629668601853412 0.070336240215245385 0 0.031497246575459714 0.071579215608175317 0 0.032323859026562318 0.067409847923163249 0 0.029629668601853412 0.070336240215245385 0 0.031497246575459714 0.071579215608175317 0 0.032323859026562318 0.067409847923163249 0 0.031497246575459714 0.071579215608175317 0 0.034552057355752085 0.0706364590941823 0 0.031497246575459714 0.071579215608175317 0 0.032954568622189505 0.074011839969123666 0 0.034552057355752085 0.0706364590941823 0 0.031497246575459714 0.071579215608175317 0 0.032954568622189505 0.074011839969123666 0 0.030767306152917975 0.075495114680038472 0 0.028605853218997716 0.072258696023494676 0 0.031497246575459714 0.071579215608175317 0 0.030767306152917975 0.075495114680038472 0 0.032954568622189505 0.074011839969123666 0 0.030767306152917975 0.075495114680038472 0 0.033161653589280971 0.0776916693432219 0 0.035329796341632802 0.074107478385486272 0 0.036847813068665435 0.076712455929080506 0 0.033161653589280971 0.0776916693432219 0 0.032954568622189505 0.074011839969123666 0 0.035329796341632802 0.074107478385486272 0 0.033161653589280971 0.0776916693432219 0 0.032954568622189505 0.074011839969123666 0 0.035329796341632802 0.074107478385486272 0 0.034552057355752085 0.0706364590941823 0 0.035782373744712659 0.06676579046294534 0 0.032323859026562318 0.067409847923163249 0 0.034552057355752085 0.0706364590941823 0 0.035782373744712659 0.06676579046294534 0 0.034552057355752085 0.0706364590941823 0 0.039363080094121809 0.071414434351446815 0 0.035329796341632802 0.074107478385486272 0 0.034552057355752085 0.0706364590941823 0 0.039363080094121809 0.071414434351446815 0 0.035329796341632802 0.074107478385486272 0 0.039363080094121809 0.071414434351446815 0 0.036847813068665435 0.076712455929080506 0 0.03966695732916229 0.077086187715869822 0 0.039363080094121809 0.071414434351446815 0 0.036847813068665435 0.076712455929080506 0 0.036847813068665435 0.076712455929080506 0 0.036279243684155686 0.08066387434265633 0 0.034153686648073021 0.081239459700565106 0 0.03966695732916229 0.077086187715869822 0 0.036847813068665435 0.076712455929080506 0 0.036279243684155686 0.08066387434265633 0 0.036279243684155686 0.08066387434265633 0 0.034153686648073021 0.081239459700565106 0 0.035174040033813685 0.08461689856857306 0 0.034153686648073021 0.081239459700565106 0 0.033720121789444689 0.084504137237163643 0 0.035174040033813685 0.08461689856857306 0 0.034153686648073021 0.081239459700565106 0 0.032213176606253585 0.082115785858017737 0 0.033720121789444689 0.084504137237163643 0 0.034153686648073021 0.081239459700565106 0 0.033161653589280971 0.0776916693432219 0 0.032213176606253585 0.082115785858017737 0 0.036847813068665435 0.076712455929080506 0 0.034153686648073021 0.081239459700565106 0 0.033161653589280971 0.0776916693432219 0 0.033161653589280971 0.0776916693432219 0 0.030639598950909751 0.079125597099127878 0 0.032213176606253585 0.082115785858017737 0 0.030767306152917975 0.075495114680038472 0 0.033161653589280971 0.0776916693432219 0 0.030639598950909751 0.079125597099127878 0 0.032213176606253585 0.082115785858017737 0 0.029532550772858886 0.083240683483367814 0 0.032469299640990268 0.084767367573192948 0 0.030639598950909751 0.079125597099127878 0 0.032213176606253585 0.082115785858017737 0 0.029532550772858886 0.083240683483367814 0 0.035041515939390734 0.083028497641159618 0 0.032722761905947237 0.082107407202772723 0 0.033115391437933205 0.077578683553588143 0 0.032453762883052462 0.081946302922171435 0 0.030536413447486029 0.076813139977585501 0 0.030639598950909751 0.079125597099127878 0 0.029532550772858886 0.083240683483367814 0 0.027199555857327251 0.076752715802883092 0 0.031292591499793042 0.079265290904594166 0 0.032722761905947237 0.082107407202772723 0 0.033115391437933205 0.077578683553588143 0 0.030767306152917975 0.075495114680038472 0 0.030639598950909751 0.079125597099127878 0 0.027199555857327251 0.076752715802883092 0 0.04269046888467961 0.092941188760288368 0 0.040773849425198662 0.092580199194993482 0 0.041650031270974254 0.088984306336309923 0 0.042574719035472962 0.092464434739668894 0 0.041663222523066361 0.088893588681097147 0 0.0411624897605622 0.086288090012298382 0 0.039120656771314335 0.086187315390020322 0 0.04269046888467961 0.092941188760288368 0 0.04234759398594419 0.096452369100105517 0 0.040773849425198662 0.092580199194993482 0 0.035041515939390734 0.083028497641159618 0 0.032722761905947237 0.082107407202772723 0 0.034785899136371215 0.085321651645791308 0 0.044342216406185471 0.083265925022805318 0 0.0411624897605622 0.086288090012298382 0 0.032453762883052462 0.081946302922171435 0 0.033909016918015775 0.084865594099665667 0 0.029532550772858886 0.083240683483367814 0 0.032469299640990268 0.084767367573192948 0 0.032696559074518218 0.086777489650341072 0 0.035041515939390734 0.083028497641159618 0 0.034785899136371215 0.085321651645791308 0 0.036174254352539674 0.086164948867671856 0 0.032469299640990268 0.084767367573192948 0 0.032696559074518218 0.086777489650341072 0 0.033699738712129883 0.086202315672095714 0 0.034785899136371215 0.085321651645791308 0 0.036174254352539674 0.086164948867671856 0 0.036223253285777288 0.086478386224785667 0 0.032696559074518218 0.086777489650341072 0 0.033699738712129883 0.086202315672095714 0 0.034180814922151873 0.086717397085232448 0 0.033699738712129883 0.086202315672095714 0 0.033768542555693185 0.086710898984355175 0 0.034180814922151873 0.086717397085232448 0 0.032469299640990268 0.084767367573192948 0 0.033699738712129883 0.086202315672095714 0 0.033720121789444689 0.084504137237163643 0 0.032213176606253585 0.082115785858017737 0 0.032469299640990268 0.084767367573192948 0 0.033720121789444689 0.084504137237163643 0 0.033699738712129883 0.086202315672095714 0 0.033720121789444689 0.084504137237163643 0 0.034250587966941963 0.086102529396225355 0 0.033720121789444689 0.084504137237163643 0 0.035174040033813685 0.08461689856857306 0 0.034250587966941963 0.086102529396225355 0 0.033699738712129883 0.086202315672095714 0 0.034250587966941963 0.086102529396225355 0 0.033768542555693185 0.086710898984355175 0 0.034250587966941963 0.086102529396225355 0 0.033768542555693185 0.086710898984355175 0 0.033123811611424005 0.087623797593888886 0 0.033768542555693185 0.086710898984355175 0 0.033823024815546131 0.086308392408119342 0 0.031485512957986315 0.086548383648719376 0 0.033768542555693185 0.086710898984355175 0 0.033823024815546131 0.086308392408119342 0 0.034180814922151873 0.086717397085232448 0 0.033823024815546131 0.086308392408119342 0 0.03305267737254515 0.084999248991961804 0 0.031485512957986315 0.086548383648719376 0 0.033823024815546131 0.086308392408119342 0 0.03305267737254515 0.084999248991961804 0 0.036156916802291626 0.086033756895464719 0 0.03305267737254515 0.084999248991961804 0 0.036156916802291626 0.086033756895464719 0 0.03765120532675325 0.085000235563844367 0 0.033823024815546131 0.086308392408119342 0 0.036156916802291626 0.086033756895464719 0 0.034180814922151873 0.086717397085232448 0 0.032696559074518218 0.086777489650341072 0 0.036156916802291626 0.086033756895464719 0 0.034180814922151873 0.086717397085232448 0 0.033909016918015775 0.084865594099665667 0 0.034454796749087871 0.085464177848313796 0 0.036174254352539674 0.086164948867671856 0 0.036156916802291626 0.086033756895464719 0 0.036223253285777288 0.086478386224785667 0 0.039239990445719658 0.088813719752818848 0 0.037657168415262524 0.084999977069077526 0 0.040666488071932995 0.084999977817569738 0 0.036156916802291626 0.086033756895464719 0 0.036223253285777288 0.086478386224785667 0 0.03765120532675325 0.085000235563844367 0 0.039120656771314335 0.086187315390020322 0 0.037658969875142501 0.085000769641190174 0 0.040667684602648572 0.085003916148800499 0 0.041663222523066361 0.088893588681097147 0 0.044239043424420026 0.087779687223950853 0 0.040666761074639533 0.084999987338125638 0 0.041750503822075784 0.089047228731156614 0 0.039239990445719658 0.088813719752818848 0 0.040666488071932995 0.084999977817569738 0 0.041650031270974254 0.088984306336309923 0 0.040773849425198662 0.092580199194993482 0 0.039239990445719658 0.088813719752818848 0 0.041650031270974254 0.088984306336309923 0 0.025912238165467377 0.087970595372174179 0 0.033123811611424005 0.087623797593888886 0 0.027524266246991159 0.086538972490452656 0 0.025912238165467377 0.087970595372174179 0 0.02224283436529547 0.08711680735398214 0 0.022906173402201777 0.089327736172383404 0 0.025912238165467377 0.087970595372174179 0 0.026585736107787368 0.089690123401713368 0 0.022906173402201777 0.089327736172383404 0 0.024090274613864534 0.090491215751539303 0 0.026585736107787368 0.089690123401713368 0 0.022906173402201777 0.089327736172383404 0 0.025912238165467377 0.087970595372174179 0 0.026585736107787368 0.089690123401713368 0 0.033123811611424005 0.087623797593888886 0 0.029813606577665814 0.090306290467101549 0 0.026585736107787368 0.089690123401713368 0 0.033123811611424005 0.087623797593888886 0 0.037247788400803658 0.082696895499710307 0 0.035174040033813685 0.08461689856857306 0 0.033123811611424005 0.087623797593888886 0 0.035174040033813685 0.08461689856857306 0 0.034250587966941963 0.086102529396225355 0 0.033123811611424005 0.087623797593888886 0 0.033768542555693185 0.086710898984355175 0 0.033123811611424005 0.087623797593888886 0 0.031485512957986315 0.086548383648719376 0 0.033123811611424005 0.087623797593888886 0 0.031485512957986315 0.086548383648719376 0 0.027524266246991159 0.086538972490452656 0 0.03305267737254515 0.084999248991961804 0 0.031485512957986315 0.086548383648719376 0 0.028448132813393968 0.084998608914382365 0 0.031485512957986315 0.086548383648719376 0 0.028448132813393968 0.084998608914382365 0 0.027524266246991159 0.086538972490452656 0 0.028448132813393968 0.084998608914382365 0 0.027524266246991159 0.086538972490452656 0 0.023842945177265557 0.084998581739275061 0 0.025912238165467377 0.087970595372174179 0 0.027524266246991159 0.086538972490452656 0 0.02224283436529547 0.08711680735398214 0 0.023842945177265557 0.084998581739275061 0 0.019237153468031103 0.08499898135582927 0 0.02224283436529547 0.08711680735398214 0 0.027524266246991159 0.086538972490452656 0 0.023842945177265557 0.084998581739275061 0 0.02224283436529547 0.08711680735398214 0 0.019237153468031103 0.08499898135582927 0 0.017401540427092656 0.086861126114402415 0 0.02224283436529547 0.08711680735398214 0 0.019237153468031103 0.08499898135582927 0 0.017401540427092656 0.086861126114402415 0 0.01463159526231989 0.084999086315503722 0 0.017401540427092656 0.086861126114402415 0 0.015057258139559927 0.088745601900016652 0 0.019764307417460797 0.089115477928348508 0 0.017401540427092656 0.086861126114402415 0 0.02224283436529547 0.08711680735398214 0 0.019764307417460797 0.089115477928348508 0 0.01463159526231989 0.084999086315503722 0 0.012591677979719955 0.08703593083576884 0 0.010026090615136006 0.084999369828958032 0 0.017401540427092656 0.086861126114402415 0 0.01463159526231989 0.084999086315503722 0 0.012591677979719955 0.08703593083576884 0 0.017401540427092656 0.086861126114402415 0 0.012591677979719955 0.08703593083576884 0 0.015057258139559927 0.088745601900016652 0 0.012591677979719955 0.08703593083576884 0 0.011551458076321929 0.089557152843089932 0 0.015057258139559927 0.088745601900016652 0 0.010350559990483054 0.088999432035330908 0 0.011580681380770298 0.090133497084762024 0 0.011551458076321929 0.089557152843089932 0 0.015057258139559927 0.088745601900016652 0 0.014010288405969826 0.091506654936093404 0 0.015057258139559927 0.088745601900016652 0 0.014010288405969826 0.091506654936093404 0 0.019764307417460797 0.089115477928348508 0 0.014010288405969826 0.091506654936093404 0 0.019764307417460797 0.089115477928348508 0 0.01566245314370172 0.093016459350505704 0 0.014010288405969826 0.091506654936093404 0 0.01566245314370172 0.093016459350505704 0 0.012609298291437945 0.093306228798700763 0 0.014010288405969826 0.091506654936093404 0 0.012609298291437945 0.093306228798700763 0 0.010629106431821383 0.09111968993445313 0 0.010836960162625888 0.088234734245602298 0 0.014010288405969826 0.091506654936093404 0 0.010629106431821383 0.09111968993445313 0 0.02224283436529547 0.08711680735398214 0 0.019764307417460797 0.089115477928348508 0 0.022906173402201777 0.089327736172383404 0 0.018448312019613472 0.089600410268313752 0 0.017149644838725157 0.09082550586839537 0 0.019764307417460797 0.089115477928348508 0 0.021759711311010663 0.090182372263747576 0 0.021065846105026664 0.090414138800853805 0 0.019764307417460797 0.089115477928348508 0 0.021065846105026664 0.090414138800853805 0 0.020502910419323384 0.090254132595183556 0 0.024090274613864534 0.090491215751539303 0 0.022906173402201777 0.089327736172383404 0 0.021759711311010663 0.090182372263747576 0 0.019764307417460797 0.089115477928348508 0 0.022906173402201777 0.089327736172383404 0 0.021759711311010663 0.090182372263747576 0 0.024090274613864534 0.090491215751539303 0 0.021759711311010663 0.090182372263747576 0 0.022190279557515642 0.090922946090340032 0 0.024090274613864534 0.090491215751539303 0 0.022190279557515642 0.090922946090340032 0 0.023618758317693497 0.091363480015856049 0 0.022190279557515642 0.090922946090340032 0 0.023618758317693497 0.091363480015856049 0 0.022254782612777874 0.091757596763862012 0 0.023618758317693497 0.091363480015856049 0 0.022254782612777874 0.091757596763862012 0 0.024055529394038658 0.092242650152395259 0 0.022254782612777874 0.091757596763862012 0 0.021140209762459207 0.091328669831158907 0 0.020968359645765031 0.092236561021742033 0 0.021140209762459207 0.091328669831158907 0 0.020420933742546301 0.091701641374908285 0 0.020968359645765031 0.092236561021742033 0 0.022190279557515642 0.090922946090340032 0 0.022254782612777874 0.091757596763862012 0 0.021140209762459207 0.091328669831158907 0 0.021140209762459207 0.091328669831158907 0 0.021065846105026664 0.090414138800853805 0 0.020485357136330363 0.091067426940117199 0 0.022190279557515642 0.090922946090340032 0 0.021140209762459207 0.091328669831158907 0 0.021065846105026664 0.090414138800853805 0 0.021759711311010663 0.090182372263747576 0 0.022190279557515642 0.090922946090340032 0 0.021065846105026664 0.090414138800853805 0 0.020502910419323384 0.090254132595183556 0 0.020485357136330363 0.091067426940117199 0 0.01938653990850036 0.091631468486806589 0 0.017149644838725157 0.09082550586839537 0 0.014696059649604397 0.092016654057625533 0 0.021065846105026664 0.090414138800853805 0 0.020502910419323384 0.090254132595183556 0 0.020485357136330363 0.091067426940117199 0 0.012609298291437945 0.093306228798700763 0 0.012524981854947912 0.096684430965097018 0 0.0099158338439822285 0.093946413419896319 0 0.01566245314370172 0.093016459350505704 0 0.012609298291437945 0.093306228798700763 0 0.012524981854947912 0.096684430965097018 0 0.020485357136330363 0.091067426940117199 0 0.01938653990850036 0.091631468486806589 0 0.020420933742546301 0.091701641374908285 0 0.01938653990850036 0.091631468486806589 0 0.020420933742546301 0.091701641374908285 0 0.020074251920962381 0.092341894783819559 0 0.021140209762459207 0.091328669831158907 0 0.020485357136330363 0.091067426940117199 0 0.020420933742546301 0.091701641374908285 0 0.020420933742546301 0.091701641374908285 0 0.020074251920962381 0.092341894783819559 0 0.020968359645765031 0.092236561021742033 0 0.020074251920962381 0.092341894783819559 0 0.020081670008484903 0.092906026744499853 0 0.020968359645765031 0.092236561021742033 0 0.016622043259290127 0.092698516543646928 0 0.017411542883101198 0.093104325727954115 0 0.01512832594302551 0.088444246027786111 0 0.01533053085544114 0.091560913083514522 0 0.012645843740313878 0.091970824265701176 0 0.014696059649604397 0.092016654057625533 0 0.014364172630465768 0.092067693754130153 0 0.014696059649604397 0.092016654057625533 0 0.016622043259290127 0.092698516543646928 0 0.01512832594302551 0.088444246027786111 0 0.017486164060420147 0.090856611510603466 0 0.01533053085544114 0.091560913083514522 0 0.017486164060420147 0.090856611510603466 0 0.01533053085544114 0.091560913083514522 0 0.016247275297873509 0.092994821754771279 0 0.01533053085544114 0.091560913083514522 0 0.014236250658031071 0.093750217294663582 0 0.012645843740313878 0.091970824265701176 0 0.01533053085544114 0.091560913083514522 0 0.016247275297873509 0.092994821754771279 0 0.014236250658031071 0.093750217294663582 0 0.016247275297873509 0.092994821754771279 0 0.015616690142786185 0.093669327224566626 0 0.017213636111268627 0.093747370690072884 0 0.014994426491100211 0.093652603818125887 0 0.015616690142786185 0.093669327224566626 0 0.014236250658031071 0.093750217294663582 0 0.016247275297873509 0.092994821754771279 0 0.015616690142786185 0.093669327224566626 0 0.014236250658031071 0.093750217294663582 0 0.017486164060420147 0.090856611510603466 0 0.01816397296198085 0.093210746729828625 0 0.020081670008484903 0.092906026744499853 0 0.017486164060420147 0.090856611510603466 0 0.016247275297873509 0.092994821754771279 0 0.01816397296198085 0.093210746729828625 0 0.019703719068351919 0.095092443682214575 0 0.01816397296198085 0.093210746729828625 0 0.020081670008484903 0.092906026744499853 0 0.016247275297873509 0.092994821754771279 0 0.01816397296198085 0.093210746729828625 0 0.017213636111268627 0.093747370690072884 0 0.019703719068351919 0.095092443682214575 0 0.01816397296198085 0.093210746729828625 0 0.017213636111268627 0.093747370690072884 0 0.021062545768123379 0.092334408560908521 0 0.021851307374746547 0.09251195609991017 0 0.019703719068351919 0.095092443682214575 0 0.020081670008484903 0.092906026744499853 0 0.022016986235906862 0.093053571832446211 0 0.019703719068351919 0.095092443682214575 0 0.022016986235906862 0.093053571832446211 0 0.023872258185981349 0.093765776440053142 0 0.024199396110522402 0.093382530105838746 0 0.022016986235906862 0.093053571832446211 0 0.023872258185981349 0.093765776440053142 0 0.024199396110522402 0.093382530105838746 0 0.022016986235906862 0.093053571832446211 0 0.022618656417326764 0.092608276729535657 0 0.024199396110522402 0.093382530105838746 0 0.024055529394038658 0.092242650152395259 0 0.022618656417326764 0.092608276729535657 0 0.022254782612777874 0.091757596763862012 0 0.024055529394038658 0.092242650152395259 0 0.022618656417326764 0.092608276729535657 0 0.022254782612777874 0.091757596763862012 0 0.022618656417326764 0.092608276729535657 0 0.020968359645765031 0.092236561021742033 0 0.020081670008484903 0.092906026744499853 0 0.022016986235906862 0.093053571832446211 0 0.020968359645765031 0.092236561021742033 0 0.022016986235906862 0.093053571832446211 0 0.022618656417326764 0.092608276729535657 0 0.020968359645765031 0.092236561021742033 0 0.0076273094406996578 0.093722610039703447 0 0.0073984852781952409 0.092456453160463206 0 0.0062058425704352898 0.093379784861730056 0 0.0076273094406996578 0.093722610039703447 0 0.0073984852781952409 0.092456453160463206 0 0.0085394152842824082 0.092814389709070022 0 0.0073984852781952409 0.092456453160463206 0 0.0085394152842824082 0.092814389709070022 0 0.008803076330691554 0.09195616751739609 0 0.0073984852781952409 0.092456453160463206 0 0.0062058425704352898 0.093379784861730056 0 0.0061560396625826175 0.092222802144640043 0 0.0051822883426123631 0.092924079400468332 0 0.0062058425704352898 0.093379784861730056 0 0.0061560396625826175 0.092222802144640043 0 0.0051822883426123631 0.092924079400468332 0 0.0050962547368675086 0.091968566855940875 0 0.0042490225083532205 0.092577732795249126 0 0.0051822883426123631 0.092924079400468332 0 0.0050962547368675086 0.091968566855940875 0 0.0061560396625826175 0.092222802144640043 0 0.0051822883426123631 0.092924079400468332 0 0.0051177413184382318 0.093979806756732481 0 0.004324333857579658 0.093490110534647411 0 0.0051822883426123631 0.092924079400468332 0 0.0062058425704352898 0.093379784861730056 0 0.0051177413184382318 0.093979806756732481 0 0.0072722091121099593 0.08979299708998853 0 0.0025141179052503974 0.089811992406179639 0 0.0060452084989804505 0.095258263294582049 0 0.0051177413184382318 0.093979806756732481 0 0.0039540506692022602 0.094664939159309042 0 0.0062058425704352898 0.093379784861730056 0 0.0060452084989804505 0.095258263294582049 0 0.0051177413184382318 0.093979806756732481 0 0.0076273094406996578 0.093722610039703447 0 0.0060452084989804505 0.095258263294582049 0 0.0089952672676006373 0.095161936579441192 0 0.0072722091121099593 0.08979299708998853 0 0.010704449391692667 0.091515501464891652 0 0.014316568655461071 0.093886528032708833 0 0.014024412260245053 0.093834935131742972 0 0.014279285202335882 0.093827257408077555 0 0.0076273094406996578 0.093722610039703447 0 0.0062058425704352898 0.093379784861730056 0 0.0060452084989804505 0.095258263294582049 0 0.014316568655461071 0.093886528032708833 0 0.014279285202335882 0.093827257408077555 0 0.014236250658031071 0.093750217294663582 0 0.0076273094406996578 0.093722610039703447 0 0.0089952672676006373 0.095161936579441192 0 0.0090447384969938507 0.093567379387263769 0 0.0089952672676006373 0.095161936579441192 0 0.010563441375768669 0.093642316977489787 0 0.0090447384969938507 0.093567379387263769 0 0.010563441375768669 0.093642316977489787 0 0.014236250658031071 0.093750217294663582 0 0.011768412996300702 0.092980028197153439 0 0.014994426491100211 0.093652603818125887 0 0.014316568655461071 0.093886528032708833 0 0.014236250658031071 0.093750217294663582 0 0.0089952672676006373 0.095161936579441192 0 0.010563441375768669 0.093642316977489787 0 0.014236250658031071 0.093750217294663582 0 0.010704449391692667 0.091515501464891652 0 0.012013870735119251 0.091943150211754324 0 0.014236250658031071 0.093750217294663582 0 0.012645843740313878 0.091970824265701176 0 0.011768412996300702 0.092980028197153439 0 0.012394590700508851 0.091187376933838965 0 0.012645843740313878 0.091970824265701176 0 0.010774595131394097 0.091438403600258497 0 0.012645843740313878 0.091970824265701176 0 0.011768412996300702 0.092980028197153439 0 0.010217758408594617 0.092604625468143686 0 0.012645843740313878 0.091970824265701176 0 0.010217758408594617 0.092604625468143686 0 0.010774595131394097 0.091438403600258497 0 0.0090447384969938507 0.093567379387263769 0 0.0085394152842824082 0.092814389709070022 0 0.010217758408594617 0.092604625468143686 0 0.0076273094406996578 0.093722610039703447 0 0.0090447384969938507 0.093567379387263769 0 0.0085394152842824082 0.092814389709070022 0 0.010563441375768669 0.093642316977489787 0 0.0090447384969938507 0.093567379387263769 0 0.010217758408594617 0.092604625468143686 0 0.010563441375768669 0.093642316977489787 0 0.011768412996300702 0.092980028197153439 0 0.010217758408594617 0.092604625468143686 0 0.010217758408594617 0.092604625468143686 0 0.008803076330691554 0.09195616751739609 0 0.010774595131394097 0.091438403600258497 0 0.0085394152842824082 0.092814389709070022 0 0.010217758408594617 0.092604625468143686 0 0.008803076330691554 0.09195616751739609 0 0.008803076330691554 0.09195616751739609 0 0.0091784990679708318 0.091092621881569039 0 0.0072008410389671007 0.091417970124129444 0 0.0091784990679708318 0.091092621881569039 0 0.0078717296950017654 0.090605091801786081 0 0.0072008410389671007 0.091417970124129444 0 0.008803076330691554 0.09195616751739609 0 0.0091784990679708318 0.091092621881569039 0 0.010774595131394097 0.091438403600258497 0 0.012394590700508851 0.091187376933838965 0 0.010774595131394097 0.091438403600258497 0 0.010379039977810584 0.090289542653543206 0 0.0091784990679708318 0.091092621881569039 0 0.010774595131394097 0.091438403600258497 0 0.010379039977810584 0.090289542653543206 0 0.014696059649604397 0.092016654057625533 0 0.012348221350624466 0.091402018909408203 0 0.012609298291437945 0.093306228798700763 0 0.0099158338439822285 0.093946413419896319 0 0.010629106431821383 0.09111968993445313 0 0.0091784990679708318 0.091092621881569039 0 0.010379039977810584 0.090289542653543206 0 0.0078717296950017654 0.090605091801786081 0 0.010379039977810584 0.090289542653543206 0 0.0078717296950017654 0.090605091801786081 0 0.0078235825495418469 0.090339145561558962 0 0.012348221350624466 0.091402018909408203 0 0.011310295048936408 0.09091924469589123 0 0.0078717296950017654 0.090605091801786081 0 0.0067445505721083392 0.090230694910263157 0 0.0078235825495418469 0.090339145561558962 0 0.0078717296950017654 0.090605091801786081 0 0.0072008410389671007 0.091417970124129444 0 0.0059952694617192879 0.09072943936226438 0 0.0067445505721083392 0.090230694910263157 0 0.0059952694617192879 0.09072943936226438 0 0.005672771186734555 0.089550360224073644 0 0.0078717296950017654 0.090605091801786081 0 0.0067445505721083392 0.090230694910263157 0 0.0059952694617192879 0.09072943936226438 0 0.0072008410389671007 0.091417970124129444 0 0.0058374862474850769 0.091452789711254714 0 0.0059952694617192879 0.09072943936226438 0 0.0072008410389671007 0.091417970124129444 0 0.0061560396625826175 0.092222802144640043 0 0.0058374862474850769 0.091452789711254714 0 0.0073984852781952409 0.092456453160463206 0 0.0072008410389671007 0.091417970124129444 0 0.0061560396625826175 0.092222802144640043 0 0.0073984852781952409 0.092456453160463206 0 0.008803076330691554 0.09195616751739609 0 0.0072008410389671007 0.091417970124129444 0 0.0050962547368675086 0.091968566855940875 0 0.0061560396625826175 0.092222802144640043 0 0.0058374862474850769 0.091452789711254714 0 0.0058374862474850769 0.091452789711254714 0 0.0048122860035787057 0.091008308133870217 0 0.0059952694617192879 0.09072943936226438 0 0.0050962547368675086 0.091968566855940875 0 0.0058374862474850769 0.091452789711254714 0 0.0048122860035787057 0.091008308133870217 0 0.0048122860035787057 0.091008308133870217 0 0.0059952694617192879 0.09072943936226438 0 0.0043174118997449402 0.089886879449365756 0 0.0059952694617192879 0.09072943936226438 0 0.005672771186734555 0.089550360224073644 0 0.0043174118997449402 0.089886879449365756 0 0.0045157999400523476 0.089070923315479195 0 0.005672771186734555 0.089550360224073644 0 0.0043174118997449402 0.089886879449365756 0 0.0045157999400523476 0.089070923315479195 0 0.005672771186734555 0.089550360224073644 0 0.0054186126705557808 0.088731332052483181 0 0.0067445505721083392 0.090230694910263157 0 0.0065194173347844671 0.089374403408690892 0 0.005672771186734555 0.089550360224073644 0 0.0067445505721083392 0.090230694910263157 0 0.0065194173347844671 0.089374403408690892 0 0.0078235825495418469 0.090339145561558962 0 0.0065194173347844671 0.089374403408690892 0 0.005672771186734555 0.089550360224073644 0 0.0054186126705557808 0.088731332052483181 0 0.0065194173347844671 0.089374403408690892 0 0.0054186126705557808 0.088731332052483181 0 0.0059936798060065523 0.088179856376213589 0 0.0054186126705557808 0.088731332052483181 0 0.0059936798060065523 0.088179856376213589 0 0.0047023557942097588 0.087727660823567449 0 0.0054186126705557808 0.088731332052483181 0 0.0043892478568639121 0.088350979855831749 0 0.0047023557942097588 0.087727660823567449 0 0.0043892478568639121 0.088350979855831749 0 0.0039454687997220366 0.087627652276652243 0 0.0036773092371268526 0.088756119532348104 0 0.0043892478568639121 0.088350979855831749 0 0.0039454687997220366 0.087627652276652243 0 0.0047023557942097588 0.087727660823567449 0 0.0045157999400523476 0.089070923315479195 0 0.0043892478568639121 0.088350979855831749 0 0.0036773092371268526 0.088756119532348104 0 0.0045157999400523476 0.089070923315479195 0 0.0054186126705557808 0.088731332052483181 0 0.0043892478568639121 0.088350979855831749 0 0.0099158338439822285 0.093946413419896319 0 0.010629106431821383 0.09111968993445313 0 0.0078235825495418469 0.090339145561558962 0 0.010629106431821383 0.09111968993445313 0 0.0078235825495418469 0.090339145561558962 0 0.0079479753880067217 0.088644767606448682 0 0.0065194173347844671 0.089374403408690892 0 0.0078235825495418469 0.090339145561558962 0 0.0079479753880067217 0.088644767606448682 0 0.0065194173347844671 0.089374403408690892 0 0.0059936798060065523 0.088179856376213589 0 0.0079479753880067217 0.088644767606448682 0 0.0059936798060065523 0.088179856376213589 0 0.0079479753880067217 0.088644767606448682 0 0.0065888869452272875 0.087153575180493548 0 0.010836960162625888 0.088234734245602298 0 0.010629106431821383 0.09111968993445313 0 0.0079479753880067217 0.088644767606448682 0 0.012591677979719955 0.08703593083576884 0 0.011551458076321929 0.089557152843089932 0 0.0085064068660831091 0.087504305591631221 0 0.010836960162625888 0.088234734245602298 0 0.0079479753880067217 0.088644767606448682 0 0.0080957483314171071 0.086425432974798849 0 0.010350559990483054 0.088999432035330908 0 0.0080417321138590153 0.087077232410017705 0 0.0079479753880067217 0.088644767606448682 0 0.0080957483314171071 0.086425432974798849 0 0.0065888869452272875 0.087153575180493548 0 0.0080417321138590153 0.087077232410017705 0 0.0054233878384145036 0.085001799856049928 0 0.0085064068660831091 0.087504305591631221 0 0.005420499756526264 0.085000032139788878 0 0.010026090615136006 0.084999369828958032 0 0.0080957483314171071 0.086425432974798849 0 0.0065888869452272875 0.087153575180493548 0 0.0054190883844446721 0.084998865500484716 0 0.012591677979719955 0.08703593083576884 0 0.0085064068660831091 0.087504305591631221 0 0.010026090615136006 0.084999369828958032 0 0.0033657733491043104 0.087014061788313085 0 0.0039454687997220366 0.087627652276652243 0 0.0036773092371268526 0.088756119532348104 0 0.0039563563011454118 0.086981497343833869 0 0.0033941691988310088 0.087057752726153487 0 0.0039454687997220366 0.087627652276652243 0 0.0033941691988310088 0.087057752726153487 0 0.0029791703037200354 0.087011832617237231 0 0.0033170226153674083 0.086211329130867626 0 0.0039563563011454118 0.086981497343833869 0 0.0033941691988310088 0.087057752726153487 0 0.0033170226153674083 0.086211329130867626 0 0.0033941691988310088 0.087057752726153487 0 0.0033657733491043104 0.087014061788313085 0 0.0039454687997220366 0.087627652276652243 0 0.00031856237269892786 0.086985969460019394 0 0.00023504331258948473 0.086973129413419559 0 0.0039563563011454118 0.086981497343833869 0 0.0039454687997220366 0.087627652276652243 0 0.0047023557942097588 0.087727660823567449 0 0.0059936798060065523 0.088179856376213589 0 0.0047023557942097588 0.087727660823567449 0 0.0049617486532383915 0.08690145848052995 0 0.0059936798060065523 0.088179856376213589 0 0.0065888869452272875 0.087153575180493548 0 0.0049617486532383915 0.08690145848052995 0 0.0039563563011454118 0.086981497343833869 0 0.0047023557942097588 0.087727660823567449 0 0.0049617486532383915 0.08690145848052995 0 0.0039563563011454118 0.086981497343833869 0 0.0049617486532383915 0.08690145848052995 0 0.0033170226153674083 0.086211329130867626 0 0.0054190883844446721 0.084998865500484716 0 0.0016362805919697854 0.085000035015251371 0 0.0033170226153674083 0.086211329130867626 0 0.0065888869452272875 0.087153575180493548 0 0.0054190883844446721 0.084998865500484716 0 0.0049617486532383915 0.08690145848052995 0 0.0054190883844446721 0.084998865500484716 0 0.0049617486532383915 0.08690145848052995 0 0.0033170226153674083 0.086211329130867626 0 0.0029791703037200354 0.087011832617237231 0 0.0016362805919697854 0.085000035015251371 0 0.0033170226153674083 0.086211329130867626 0 0.00023504331258948473 0.086973129413419559 0 0.0016292607807276678 0.08500185374733614 0 0.00041251125804875956 0.08809604119313906 0 0.0016313369928115874 0.084999995159122599 0 -0.0026415421459570687 0.084999993048373371 0 0.00041251125804875956 0.08809604119313906 0 -0.0026415421459570687 0.084999993048373371 0 -0.0042042268012829195 0.087164669133679928 0 0.00023504331258948473 0.086973129413419559 0 -0.0043936578938842787 0.086639644042068073 0 -0.00099048772747891193 0.087913974466677022 0 -0.0045603622103662029 0.089720605951188095 0 -0.0025124021997683724 0.091761654673802651 0 -0.00099048772747891193 0.087913974466677022 0 -0.0045603622103662029 0.089720605951188095 0 -0.0049609781488886805 0.08709616985377977 0 -0.0045603622103662029 0.089720605951188095 0 -0.0049609781488886805 0.08709616985377977 0 -0.0072304931629865836 0.089204314052295355 0 -0.0026415421459570687 0.084999993048373371 0 -0.0042042268012829195 0.087164669133679928 0 -0.006914424042578117 0.085000005690752514 0 -0.0049609781488886805 0.08709616985377977 0 -0.0090691020139543055 0.086206444678225511 0 -0.0088049409949840923 0.088121124251292177 0 -0.0043936578938842787 0.086639644042068073 0 -0.0085043658071439401 0.086050720885760365 0 -0.0042042268012829195 0.087164669133679928 0 -0.006914424042578117 0.085000005690752514 0 -0.0088250718696286506 0.086235051439270641 0 -0.006914424042578117 0.085000005690752514 0 -0.0088250718696286506 0.086235051439270641 0 -0.011187363507697591 0.084999968232971485 0 -0.0090691020139543055 0.086206444678225511 0 -0.010705625751979961 0.087598503779559439 0 -0.0088049409949840923 0.088121124251292177 0 -0.0088049409949840923 0.088121124251292177 0 -0.010423844318829659 0.089706374342543152 0 -0.0072304931629865836 0.089204314052295355 0 -0.0083835837418884899 0.089087461159231607 0 -0.0083456681686316456 0.089126146100120984 0 -0.010705625751979961 0.087598503779559439 0 -0.0088049409949840923 0.088121124251292177 0 -0.010423844318829659 0.089706374342543152 0 -0.0049609781488886805 0.08709616985377977 0 -0.0088049409949840923 0.088121124251292177 0 -0.0072304931629865836 0.089204314052295355 0 -0.0045603622103662029 0.089720605951188095 0 -0.0072304931629865836 0.089204314052295355 0 -0.0071165457956920827 0.092593515293395309 0 -0.010190847042431584 0.089601322646576734 0 -0.0072304931629865836 0.089204314052295355 0 -0.0071165457956920827 0.092593515293395309 0 -0.0083835837418884899 0.089087461159231607 0 -0.0040491126834242006 0.090642727994301647 0 -0.0014460577519239872 0.085859826537471345 0 -0.0008773291371642416 0.089064321447786837 0 0.00078636355782850192 0.088013625549976035 0 -0.0008773291371642416 0.089064321447786837 0 0.00078636355782850192 0.088013625549976035 0 0.00046224553742412681 0.09066769359523226 0 -0.0045603622103662029 0.089720605951188095 0 -0.0071165457956920827 0.092593515293395309 0 -0.0025124021997683724 0.091761654673802651 0 -0.0040491126834242006 0.090642727994301647 0 -0.0016887093435443809 0.091225361368923397 0 -0.0071165457956920827 0.092593515293395309 0 -0.0025124021997683724 0.091761654673802651 0 -0.0040179268262591347 0.095589486984846664 0 -0.00046560630607830016 0.089573830511211247 0 -0.0016887093435443809 0.091225361368923397 0 0.0045157999400523476 0.089070923315479195 0 0.0043174118997449402 0.089886879449365756 0 0.0036773092371268526 0.088756119532348104 0 0.0043174118997449402 0.089886879449365756 0 0.0036773092371268526 0.088756119532348104 0 0.0031723581260470167 0.090488977487650363 0 0.00023504331258948473 0.086973129413419559 0 -0.00046560630607830016 0.089573830511211247 0 -0.020830107341888032 0.089763795739723068 0 -0.019624184080110536 0.08972355312709504 0 -0.020712358133469756 0.088191865180848747 0 -0.019624184080110536 0.08972355312709504 0 -0.020712358133469756 0.088191865180848747 0 -0.018187366432114913 0.088589179312009381 0 -0.020712358133469756 0.088191865180848747 0 -0.019426775249236139 0.086794132898405665 0 -0.018187366432114913 0.088589179312009381 0 -0.01907749151989303 0.084999960073495015 0 -0.019426775249236139 0.086794132898405665 0 -0.022694713410970787 0.08499999502061896 0 -0.020712358133469756 0.088191865180848747 0 -0.019426775249236139 0.086794132898405665 0 -0.022694713410970787 0.08499999502061896 0 -0.01907749151989303 0.084999960073495015 0 -0.019426775249236139 0.086794132898405665 0 -0.016646171148379307 0.086951052173757565 0 -0.019426775249236139 0.086794132898405665 0 -0.016646171148379307 0.086951052173757565 0 -0.018187366432114913 0.088589179312009381 0 -0.01907749151989303 0.084999960073495015 0 -0.016646171148379307 0.086951052173757565 0 -0.015460412911390426 0.084999960491108181 0 -0.015626378098224425 0.088905831027833837 0 -0.014776812030118516 0.090542496448804702 0 -0.017662197747425626 0.090916067824405297 0 -0.016646171148379307 0.086951052173757565 0 -0.018187366432114913 0.088589179312009381 0 -0.015626378098224425 0.088905831027833837 0 -0.019624184080110536 0.08972355312709504 0 -0.018187366432114913 0.088589179312009381 0 -0.017662197747425626 0.090916067824405297 0 -0.018187366432114913 0.088589179312009381 0 -0.015626378098224425 0.088905831027833837 0 -0.017662197747425626 0.090916067824405297 0 -0.016646171148379307 0.086951052173757565 0 -0.015626378098224425 0.088905831027833837 0 -0.012959191384848263 0.087464697467737593 0 -0.015626378098224425 0.088905831027833837 0 -0.012959191384848263 0.087464697467737593 0 -0.014780275707149159 0.090526707596545464 0 -0.01237458475051411 0.08855390580837999 0 -0.012189943773948069 0.08858962583644571 0 -0.015460112660111323 0.08500000676283298 0 -0.013446182735936443 0.085293996824121684 0 -0.011187363507697591 0.084999968232971485 0 -0.016646171148379307 0.086951052173757565 0 -0.015460412911390426 0.084999960491108181 0 -0.012959191384848263 0.087464697467737593 0 -0.015455833540044438 0.085001653882691222 0 -0.012196079152352927 0.086994700923906182 0 -0.015460112660111323 0.08500000676283298 0 -0.013446182735936443 0.085293996824121684 0 -0.012879826611193201 0.087403978158289417 0 -0.0085043658071439401 0.086050720885760365 0 -0.010813647980427268 0.085647063598935952 0 -0.010705625751979961 0.087598503779559439 0 -0.013446182735936443 0.085293996824121684 0 -0.012879826611193201 0.087403978158289417 0 -0.0090691020139543055 0.086206444678225511 0 -0.010705625751979961 0.087598503779559439 0 -0.013446182735936443 0.085293996824121684 0 -0.0088250718696286506 0.086235051439270641 0 -0.013446182735936443 0.085293996824121684 0 -0.011187363507697591 0.084999968232971485 0 -0.0083835837418884899 0.089087461159231607 0 -0.012196079152352927 0.086994700923906182 0 -0.010414703039621765 0.08993955410077982 0 -0.012959191384848263 0.087464697467737593 0 -0.014780275707149159 0.090526707596545464 0 -0.010705625751979961 0.087598503779559439 0 -0.010423844318829659 0.089706374342543152 0 -0.012879826611193201 0.087403978158289417 0 -0.0083835837418884899 0.089087461159231607 0 -0.012189943773948069 0.08858962583644571 0 -0.0014460577519239872 0.085859826537471345 0 -0.0028428936128174092 0.088770083265096209 0 -0.0041888402221430887 0.086228224030955369 0 -0.0014460577519239872 0.085859826537471345 0 -0.0008773291371642416 0.089064321447786837 0 -0.0028428936128174092 0.088770083265096209 0 -0.015002105122172748 0.093522406016016996 0 -0.016646373733076217 0.090483799278637506 0 -0.017581393642929072 0.092682845378850007 0 -0.015002105122172748 0.093522406016016996 0 -0.017581393642929072 0.092682845378850007 0 -0.01823625133688557 0.095345101809810817 0 -0.00954608677863426 0.091182656717561303 0 -0.012189943773948069 0.08858962583644571 0 -0.016646373733076217 0.090483799278637506 0 -0.018746835038152797 0.090820595577317739 0 -0.017581393642929072 0.092682845378850007 0 -0.012189943773948069 0.08858962583644571 0 -0.016011999251560272 0.089481720314356389 0 -0.018746835038152797 0.090820595577317739 0 -0.017581393642929072 0.092682845378850007 0 -0.01966970759968802 0.093273279825917682 0 -0.017581393642929072 0.092682845378850007 0 -0.01966970759968802 0.093273279825917682 0 -0.01823625133688557 0.095345101809810817 0 -0.01966970759968802 0.093273279825917682 0 -0.021846251723667186 0.09047984597308581 0 -0.021859681898416063 0.091979363975712658 0 -0.01966970759968802 0.093273279825917682 0 -0.021137912480849827 0.095261018670256062 0 -0.021846105639724202 0.093260971488139541 0 -0.01966970759968802 0.093273279825917682 0 -0.021859681898416063 0.091979363975712658 0 -0.021846105639724202 0.093260971488139541 0 -0.01966970759968802 0.093273279825917682 0 -0.020646087512818111 0.091170317473631496 0 -0.021254569888747417 0.091145319156274149 0 -0.016011999251560272 0.089481720314356389 0 -0.017371357578369814 0.089780437927216156 0 -0.018746835038152797 0.090820595577317739 0 -0.01966970759968802 0.093273279825917682 0 -0.020646087512818111 0.091170317473631496 0 -0.021064002659752144 0.091529658586978424 0 -0.022048468112786216 0.090292520385663252 0 -0.019624184080110536 0.08972355312709504 0 -0.017662197747425626 0.090916067824405297 0 -0.020646087512818111 0.091170317473631496 0 -0.020830107341888032 0.089763795739723068 0 -0.020646087512818111 0.091170317473631496 0 -0.021254569888747417 0.091145319156274149 0 -0.020830107341888032 0.089763795739723068 0 -0.019624184080110536 0.08972355312709504 0 -0.020646087512818111 0.091170317473631496 0 -0.01966970759968802 0.093273279825917682 0 -0.021137912480849827 0.095261018670256062 0 -0.01823625133688557 0.095345101809810817 0 -0.020975731187221371 0.09766770565672131 0 -0.021137912480849827 0.095261018670256062 0 -0.01823625133688557 0.095345101809810817 0 -0.022683690867567084 0.088853797964341175 0 -0.01847841156034653 0.089308276093471237 0 -0.020975731187221371 0.09766770565672131 0 -0.01823625133688557 0.095345101809810817 0 -0.017806011607530505 0.098337554574657537 0 -0.01823625133688557 0.095345101809810817 0 -0.015823315418053686 0.096577248257326817 0 -0.017806011607530505 0.098337554574657537 0 -0.015823315418053686 0.096577248257326817 0 -0.014752082492743663 0.099029495598472003 0 -0.017806011607530505 0.098337554574657537 0 -0.015002105122172748 0.093522406016016996 0 -0.01823625133688557 0.095345101809810817 0 -0.015823315418053686 0.096577248257326817 0 -0.00954608677863426 0.091182656717561303 0 -0.0077242107438171368 0.09301549923035364 0 -0.0008773291371642416 0.089064321447786837 0 -0.0028428936128174092 0.088770083265096209 0 -0.0014837700768909692 0.091291172364802511 0 -0.015002105122172748 0.093522406016016996 0 -0.015823315418053686 0.096577248257326817 0 -0.013352192414311473 0.096658799598678999 0 -0.015823315418053686 0.096577248257326817 0 -0.014752082492743663 0.099029495598472003 0 -0.013352192414311473 0.096658799598678999 0 -0.014114943119794584 0.079893241070225926 0 -0.010252606422046517 0.082579119768688286 0 -0.012915069972278021 0.085977478996754203 0 -0.014114943119794584 0.079893241070225926 0 -0.018246811731802124 0.085094006393984289 0 -0.012915069972278021 0.085977478996754203 0 -0.014114943119794584 0.079893241070225926 0 -0.018246811731802124 0.085094006393984289 0 -0.020042130948746725 0.079394374143657284 0 -0.013783885752350207 0.090032748312592281 0 -0.01847841156034653 0.089308276093471237 0 -0.020042130948746725 0.079394374143657284 0 -0.022796380091624571 0.083082155807168726 0 -0.024870631122000605 0.081926060288986663 0 -0.018246811731802124 0.085094006393984289 0 -0.020042130948746725 0.079394374143657284 0 -0.022796380091624571 0.083082155807168726 0 -0.018246811731802124 0.085094006393984289 0 -0.022796380091624571 0.083082155807168726 0 -0.02227272848255344 0.08550763998242196 0 -0.022796380091624571 0.083082155807168726 0 -0.02227272848255344 0.08550763998242196 0 -0.026490146130175779 0.085063221461546074 0 -0.022796380091624571 0.083082155807168726 0 -0.026490146130175779 0.085063221461546074 0 -0.026970324306266995 0.084246678225597102 0 -0.022796380091624571 0.083082155807168726 0 -0.024870631122000605 0.081926060288986663 0 -0.026970324306266995 0.084246678225597102 0 -0.025212987052413604 0.07953091307492792 0 -0.024870631122000605 0.081926060288986663 0 -0.02802888989723748 0.081778551153264725 0 -0.025212987052413604 0.07953091307492792 0 -0.020042130948746725 0.079394374143657284 0 -0.024870631122000605 0.081926060288986663 0 0.0026607240848695464 0.09112956786776874 0 0.00194781974988277 0.091718552032437728 0 0.0029724570273969224 0.091775798820517299 0 0.0026607240848695464 0.09112956786776874 0 0.0029724570273969224 0.091775798820517299 0 0.0032739176278120149 0.091239607139753195 0 0.0026607240848695464 0.09112956786776874 0 0.0032739176278120149 0.091239607139753195 0 0.003407305966238667 0.090722922923042279 0 0.0026607240848695464 0.09112956786776874 0 0.00194781974988277 0.091718552032437728 0 0.0017726192158781762 0.090342018284509468 0 0.00194781974988277 0.091718552032437728 0 0.0027935631511158405 0.092567984905505954 0 0.001868303172586101 0.093048905356234751 0 0.00194781974988277 0.091718552032437728 0 0.0029724570273969224 0.091775798820517299 0 0.0027935631511158405 0.092567984905505954 0 0.0029724570273969224 0.091775798820517299 0 0.0035267254451050618 0.09227558864225438 0 0.0027935631511158405 0.092567984905505954 0 0.0035267254451050618 0.09227558864225438 0 0.0042050653899453807 0.091755591950019366 0 0.0035920957859286408 0.091630076530162682 0 0.0029724570273969224 0.091775798820517299 0 0.0035267254451050618 0.09227558864225438 0 0.0035920957859286408 0.091630076530162682 0 0.0050962547368675086 0.091968566855940875 0 0.0042050653899453807 0.091755591950019366 0 0.0042490225083532205 0.092577732795249126 0 0.0035267254451050618 0.09227558864225438 0 0.0042050653899453807 0.091755591950019366 0 0.0042490225083532205 0.092577732795249126 0 0.0050962547368675086 0.091968566855940875 0 0.0048122860035787057 0.091008308133870217 0 0.0042050653899453807 0.091755591950019366 0 0.0048122860035787057 0.091008308133870217 0 0.0042050653899453807 0.091755591950019366 0 0.0039176553238079639 0.091096435062204162 0 0.0029724570273969224 0.091775798820517299 0 0.0035920957859286408 0.091630076530162682 0 0.0032739176278120149 0.091239607139753195 0 0.0042050653899453807 0.091755591950019366 0 0.0035920957859286408 0.091630076530162682 0 0.0039176553238079639 0.091096435062204162 0 0.0035920957859286408 0.091630076530162682 0 0.0039176553238079639 0.091096435062204162 0 0.0032739176278120149 0.091239607139753195 0 0.003407305966238667 0.090722922923042279 0 0.0039283607642882426 0.090558899298844114 0 0.0031723581260470167 0.090488977487650363 0 0.0043174118997449402 0.089886879449365756 0 0.0039283607642882426 0.090558899298844114 0 0.0031723581260470167 0.090488977487650363 0 0.0039176553238079639 0.091096435062204162 0 0.0032739176278120149 0.091239607139753195 0 0.003407305966238667 0.090722922923042279 0 0.0048122860035787057 0.091008308133870217 0 0.0043174118997449402 0.089886879449365756 0 0.0039283607642882426 0.090558899298844114 0 0.0039176553238079639 0.091096435062204162 0 0.003407305966238667 0.090722922923042279 0 0.0039283607642882426 0.090558899298844114 0 0.0048122860035787057 0.091008308133870217 0 0.0039176553238079639 0.091096435062204162 0 0.0039283607642882426 0.090558899298844114 0 0.00078636355782850192 0.088013625549976035 0 0.0030212757221920595 0.090171032965680881 0 0.0017726192158781762 0.090342018284509468 0 0.0026607240848695464 0.09112956786776874 0 0.0030212757221920595 0.090171032965680881 0 0.0017726192158781762 0.090342018284509468 0 0.0026607240848695464 0.09112956786776874 0 0.003407305966238667 0.090722922923042279 0 0.0030471157048927644 0.090371611981791111 0 -0.0014583988009437502 0.091036733084534457 0 -0.0016887093435443809 0.091225361368923397 0 -0.0015626072349798461 0.091288825997246845 0 -0.0016887093435443809 0.091225361368923397 0 0.00078636355782850192 0.088013625549976035 0 0.0017726192158781762 0.090342018284509468 0 0.00046224553742412681 0.09066769359523226 0 0.00194781974988277 0.091718552032437728 0 0.0017726192158781762 0.090342018284509468 0 0.00046224553742412681 0.09066769359523226 0 -0.0008773291371642416 0.089064321447786837 0 0.00046224553742412681 0.09066769359523226 0 -0.0014837700768909692 0.091291172364802511 0 -0.0014837700768909692 0.091291172364802511 0 -4.0883307318391148e-05 0.092001540419126671 0 -0.00014436879288585875 0.093742333002335379 0 0.00046224553742412681 0.09066769359523226 0 -0.0014837700768909692 0.091291172364802511 0 -4.0883307318391148e-05 0.092001540419126671 0 0.00194781974988277 0.091718552032437728 0 0.00046224553742412681 0.09066769359523226 0 0.0010049250995702453 0.09229681621104685 0 0.00046224553742412681 0.09066769359523226 0 -4.0883307318391148e-05 0.092001540419126671 0 0.0010049250995702453 0.09229681621104685 0 0.00194781974988277 0.091718552032437728 0 0.0010049250995702453 0.09229681621104685 0 0.001868303172586101 0.093048905356234751 0 -4.0883307318391148e-05 0.092001540419126671 0 0.0010049250995702453 0.09229681621104685 0 -0.00014436879288585875 0.093742333002335379 0 0.0010049250995702453 0.09229681621104685 0 -0.00014436879288585875 0.093742333002335379 0 0.001868303172586101 0.093048905356234751 0 -0.0076035459914575165 0.091318810187288726 0 -0.0019109609062862292 0.090258848558196214 0 -0.00014436879288585875 0.093742333002335379 0 0.0019415253632140668 0.094205546390822209 0 0.001868303172586101 0.093048905356234751 0 -0.014114943119794584 0.079893241070225926 0 -0.0081469533376983608 0.080800091271791608 0 -0.010252606422046517 0.082579119768688286 0 -0.0077242107438171368 0.09301549923035364 0 -0.0076035459914575165 0.091318810187288726 0 -0.013783885752350207 0.090032748312592281 0 -0.0076035459914575165 0.091318810187288726 0 -0.014752082492743663 0.099029495598472003 0 -0.013352192414311473 0.096658799598678999 0 -0.011727415477167063 0.099753069755803073 0 -0.0076035459914575165 0.091318810187288726 0 -0.0077405978508365376 0.090941597338852015 0 -0.010252606422046517 0.082579119768688286 0 -0.0085140629453534719 0.084337984997348736 0 -0.012915069972278021 0.085977478996754203 0 -0.010252606422046517 0.082579119768688286 0 -0.0085140629453534719 0.084337984997348736 0 -0.0074989706844179578 0.081934663474075867 0 -0.0081469533376983608 0.080800091271791608 0 -0.010252606422046517 0.082579119768688286 0 -0.0074989706844179578 0.081934663474075867 0 -0.0080676978382703494 0.080849036783331441 0 -0.0074989706844179578 0.081934663474075867 0 -0.0034160657108860118 0.081971179973108044 0 -0.0054198085049794367 0.083115929885556439 0 -0.0074989706844179578 0.081934663474075867 0 -0.0034160657108860118 0.081971179973108044 0 -0.0085140629453534719 0.084337984997348736 0 -0.0054198085049794367 0.083115929885556439 0 -0.0074989706844179578 0.081934663474075867 0 -0.0085140629453534719 0.084337984997348736 0 -0.0054198085049794367 0.083115929885556439 0 -0.0061029007526982931 0.085190883417747762 0 -0.0019109609062862292 0.090258848558196214 0 0.0025141179052503974 0.089811992406179639 0 -0.0054198085049794367 0.083115929885556439 0 -0.00032211329066700924 0.084755880650615553 0 -0.0061029007526982931 0.085190883417747762 0 -0.0054198085049794367 0.083115929885556439 0 -0.0034160657108860118 0.081971179973108044 0 -0.00032211329066700924 0.084755880650615553 0 -0.0034160657108860118 0.081971179973108044 0 -0.00032211329066700924 0.084755880650615553 0 0.0010464593509672748 0.083111556461972907 0 0.0019415253632140668 0.094205546390822209 0 0.0033201076629680673 0.093395427999849179 0 0.0039540506692022602 0.094664939159309042 0 0.0019415253632140668 0.094205546390822209 0 0.001868303172586101 0.093048905356234751 0 0.0033201076629680673 0.093395427999849179 0 0.0027935631511158405 0.092567984905505954 0 0.001868303172586101 0.093048905356234751 0 0.0033201076629680673 0.093395427999849179 0 0.0035267254451050618 0.09227558864225438 0 0.0027935631511158405 0.092567984905505954 0 0.0033201076629680673 0.093395427999849179 0 0.0051822883426123631 0.092924079400468332 0 0.0042490225083532205 0.092577732795249126 0 0.004324333857579658 0.093490110534647411 0 0.0035267254451050618 0.09227558864225438 0 0.0042490225083532205 0.092577732795249126 0 0.0033201076629680673 0.093395427999849179 0 0.0042490225083532205 0.092577732795249126 0 0.0033201076629680673 0.093395427999849179 0 0.004324333857579658 0.093490110534647411 0 0.0033201076629680673 0.093395427999849179 0 0.004324333857579658 0.093490110534647411 0 0.0039540506692022602 0.094664939159309042 0 0.0051177413184382318 0.093979806756732481 0 0.004324333857579658 0.093490110534647411 0 0.0039540506692022602 0.094664939159309042 0 0.0072722091121099593 0.08979299708998853 0 0.0014386361127184516 0.087531415493804152 0 0.0055503179953161367 0.084265921667150273 0 -0.00032211329066700924 0.084755880650615553 0 0.0010464593509672748 0.083111556461972907 0 0.0012293527560402224 0.083896656554958426 0 0.004608680574536647 0.086408015852620521 0 0.0012346990127139841 0.088443012119683612 0 0.0086471808691594172 0.08364145170263361 0 0.0012293527560402224 0.083896656554958426 0 0.004608680574536647 0.086408015852620521 0 0.004608680574536647 0.086408015852620521 0 0.0041488183777785301 0.089146724281234338 0 0.0012346990127139841 0.088443012119683612 0 0.0014386361127184516 0.087531415493804152 0 -0.0018238648960872534 0.087077195358372883 0 0.0012293527560402224 0.083896656554958426 0 -0.0022523912941333356 0.087214174251963636 0 0.0012346990127139841 0.088443012119683612 0 0.0012293527560402224 0.083896656554958426 0 -0.0022523912941333356 0.087214174251963636 0 -0.0061029007526982931 0.085190883417747762 0 -0.0024230059462600601 0.09113867517486797 0 0.0012346990127139841 0.088443012119683612 0 0.0017807701762749765 0.091775962730764354 0 -0.0022523912941333356 0.087214174251963636 0 -0.0024230059462600601 0.09113867517486797 0 0.0012346990127139841 0.088443012119683612 0 -0.0022523912941333356 0.087214174251963636 0 -0.0024230059462600601 0.09113867517486797 0 -0.0055824653789772775 0.088332778323279279 0 0.0059970640235124011 0.093089692966262877 0 0.0041488183777785301 0.089146724281234338 0 0.0017807701762749765 0.091775962730764354 0 0.0041488183777785301 0.089146724281234338 0 0.0012346990127139841 0.088443012119683612 0 0.0017807701762749765 0.091775962730764354 0 0.0059970640235124011 0.093089692966262877 0 0.0017807701762749765 0.091775962730764354 0 -0.00068336957027097494 0.096117738598992392 0 0.0059970640235124011 0.093089692966262877 0 0.0055824999096129105 0.1009454344398318 0 -0.00068336957027097494 0.096117738598992392 0 -0.0024230059462600601 0.09113867517486797 0 0.0017807701762749765 0.091775962730764354 0 -0.00068336957027097494 0.096117738598992392 0 -0.0024230059462600601 0.09113867517486797 0 -0.00068336957027097494 0.096117738598992392 0 -0.0065594856874432762 0.094228271586388745 0 -0.012045576313682593 0.091429788283968069 0 -0.023330036033206342 0.083317572980535451 0 -0.020815931154673402 0.092642933329345839 0 -0.010768497576937494 0.095065203573343943 0 -0.016532504202624327 0.091010794375272402 0 -0.006407004765028184 0.098803545277922927 0 -0.0065594856874432762 0.094228271586388745 0 -0.011331809408355712 0.095655435434462241 0 -0.00068336957027097494 0.096117738598992392 0 -0.006407004765028184 0.098803545277922927 0 -0.0065594856874432762 0.094228271586388745 0 -0.0065594856874432762 0.094228271586388745 0 -0.010880822136354624 0.092506266007000598 0 -0.0078273650056431259 0.090722981618387946 0 -0.0065594856874432762 0.094228271586388745 0 -0.010880822136354624 0.092506266007000598 0 -0.011331809408355712 0.095655435434462241 0 -0.0078273650056431259 0.090722981618387946 0 -0.009181468694563117 0.087356560675343808 0 -0.012288332865786261 0.089584955015744649 0 -0.010880822136354624 0.092506266007000598 0 -0.0078273650056431259 0.090722981618387946 0 -0.012288332865786261 0.089584955015744649 0 -0.0078273650056431259 0.090722981618387946 0 -0.0055824653789772775 0.088332778323279279 0 -0.009181468694563117 0.087356560675343808 0 -0.0024230059462600601 0.09113867517486797 0 -0.0065594856874432762 0.094228271586388745 0 -0.0078273650056431259 0.090722981618387946 0 -0.0024230059462600601 0.09113867517486797 0 -0.0078273650056431259 0.090722981618387946 0 -0.0055824653789772775 0.088332778323279279 0 -0.0022523912941333356 0.087214174251963636 0 -0.0055824653789772775 0.088332778323279279 0 -0.0061029007526982931 0.085190883417747762 0 -0.0055824653789772775 0.088332778323279279 0 -0.0061029007526982931 0.085190883417747762 0 -0.009181468694563117 0.087356560675343808 0 -0.0085140629453534719 0.084337984997348736 0 -0.009181468694563117 0.087356560675343808 0 -0.012915069972278021 0.085977478996754203 0 -0.0085140629453534719 0.084337984997348736 0 -0.0061029007526982931 0.085190883417747762 0 -0.009181468694563117 0.087356560675343808 0 -0.009181468694563117 0.087356560675343808 0 -0.012915069972278021 0.085977478996754203 0 -0.012288332865786261 0.089584955015744649 0 -0.012915069972278021 0.085977478996754203 0 -0.016296898523352549 0.088388467611709098 0 -0.012288332865786261 0.089584955015744649 0 -0.018246811731802124 0.085094006393984289 0 -0.012915069972278021 0.085977478996754203 0 -0.016296898523352549 0.088388467611709098 0 -0.018246811731802124 0.085094006393984289 0 -0.016296898523352549 0.088388467611709098 0 -0.021517257494033465 0.088954945609798414 0 -0.021214598212669002 0.088166102920644959 0 -0.0239932861116086 0.086557402145316722 0 -0.016296898523352549 0.088388467611709098 0 -0.016455774526919847 0.092325016715975997 0 -0.021517257494033465 0.088954945609798414 0 -0.010880822136354624 0.092506266007000598 0 -0.016455774526919847 0.092325016715975997 0 -0.012288332865786261 0.089584955015744649 0 -0.016296898523352549 0.088388467611709098 0 -0.016455774526919847 0.092325016715975997 0 -0.012288332865786261 0.089584955015744649 0 -0.026490146130175779 0.085063221461546074 0 -0.026610156790967534 0.085373172984890555 0 -0.028045190550066587 0.085046390684515402 0 -0.02227272848255344 0.08550763998242196 0 -0.026490146130175779 0.085063221461546074 0 -0.021517257494033465 0.088954945609798414 0 -0.025164196111836304 0.085769682172831652 0 -0.0239932861116086 0.086557402145316722 0 -0.018246811731802124 0.085094006393984289 0 -0.02227272848255344 0.08550763998242196 0 -0.021517257494033465 0.088954945609798414 0 -0.029457816301022198 0.082822542448673445 0 -0.028045190550066587 0.085046390684515402 0 -0.028668305740304909 0.083419357148536682 0 -0.028045190550066587 0.085046390684515402 0 -0.027510691760609923 0.084310232033040181 0 -0.028668305740304909 0.083419357148536682 0 -0.027505069968690603 0.084271554366541948 0 -0.027702906948219985 0.082341060284338505 0 -0.026610156790967534 0.085373172984890555 0 -0.027510691760609923 0.084310232033040181 0 -0.026735453917433486 0.083335469465318224 0 -0.026610156790967534 0.085373172984890555 0 -0.028045190550066587 0.085046390684515402 0 -0.027510691760609923 0.084310232033040181 0 -0.027510691760609923 0.084310232033040181 0 -0.026735453917433486 0.083335469465318224 0 -0.028668305740304909 0.083419357148536682 0 -0.026735453917433486 0.083335469465318224 0 -0.028668305740304909 0.083419357148536682 0 -0.028588922144613442 0.082296642683024196 0 -0.028668305740304909 0.083419357148536682 0 -0.028588922144613442 0.082296642683024196 0 -0.029855793181748729 0.084288092471459533 0 -0.026735453917433486 0.083335469465318224 0 -0.028588922144613442 0.082296642683024196 0 -0.026456042047760468 0.080747613503206778 0 -0.027702906948219985 0.082341060284338505 0 -0.027817944133721469 0.079781589033202288 0 -0.029457816301022198 0.082822542448673445 0 -0.023330036033206342 0.083317572980535451 0 -0.029855793181748729 0.084288092471459533 0 -0.021214598212669002 0.088166102920644959 0 -0.016532504202624327 0.091010794375272402 0 -0.010880822136354624 0.092506266007000598 0 -0.016455774526919847 0.092325016715975997 0 -0.011331809408355712 0.095655435434462241 0 -0.029457816301022198 0.082822542448673445 0 -0.028668305740304909 0.083419357148536682 0 -0.029855793181748729 0.084288092471459533 0 -0.028588922144613442 0.082296642683024196 0 -0.029855793181748729 0.084288092471459533 0 -0.030018472173451081 0.081458295187172944 0 -0.029689751287611876 0.085876935935994006 0 -0.029466103780615663 0.086598360743448746 0 -0.029855793181748729 0.084288092471459533 0 -0.032728141288470118 0.079695085753273123 0 -0.030018472173451081 0.081458295187172944 0 -0.023330036033206342 0.083317572980535451 0 -0.029855793181748729 0.084288092471459533 0 -0.020815931154673402 0.092642933329345839 0 -0.029855793181748729 0.084288092471459533 0 -0.027991669851993851 0.096614741973846036 0 -0.020815931154673402 0.092642933329345839 0 -0.027991669851993851 0.096614741973846036 0 -0.020815931154673402 0.092642933329345839 0 -0.020342305300876481 0.10172852413351194 0 -0.030018472173451081 0.081458295187172944 0 -0.030568967227121095 0.078283737643877055 0 -0.028900211704954774 0.079784100725620741 0 -0.032728141288470118 0.079695085753273123 0 -0.030018472173451081 0.081458295187172944 0 -0.030568967227121095 0.078283737643877055 0 -0.030568967227121095 0.078283737643877055 0 -0.032413920607754901 0.077090399010091112 0 -0.030799609445587014 0.075449432552961312 0 -0.032728141288470118 0.079695085753273123 0 -0.030568967227121095 0.078283737643877055 0 -0.032413920607754901 0.077090399010091112 0 -0.027991669851993851 0.096614741973846036 0 -0.024844897975007531 0.10790652622183654 0 -0.020342305300876481 0.10172852413351194 0 -0.029466103780615663 0.086598360743448746 0 -0.029391918552422742 0.084585144478704466 0 -0.032728141288470118 0.079695085753273123 0 -0.032413920607754901 0.077090399010091112 0 -0.03389218716963547 0.075795327026143777 0 -0.032413920607754901 0.077090399010091112 0 -0.034182443791141763 0.075770540339407083 0 -0.03256545232302082 0.075514697192762117 0 -0.030349154701417993 0.08347758794071658 0 -0.029391918552422742 0.084585144478704466 0 -0.024844897975007531 0.10790652622183654 0 -0.017530177418520646 0.10804020990559694 0 -0.020342305300876481 0.10172852413351194 0 -0.028588922144613442 0.082296642683024196 0 -0.026456042047760468 0.080747613503206778 0 -0.028900211704954774 0.079784100725620741 0 -0.026456042047760468 0.080747613503206778 0 -0.028900211704954774 0.079784100725620741 0 -0.028836799522554923 0.077080461090175759 0 -0.028588922144613442 0.082296642683024196 0 -0.030018472173451081 0.081458295187172944 0 -0.028900211704954774 0.079784100725620741 0 -0.028836799522554923 0.077080461090175759 0 -0.027597207904975996 0.075631974727296061 0 -0.028677050330407641 0.074629891123741576 0 -0.030568967227121095 0.078283737643877055 0 -0.028836799522554923 0.077080461090175759 0 -0.030799609445587014 0.075449432552961312 0 -0.030568967227121095 0.078283737643877055 0 -0.028900211704954774 0.079784100725620741 0 -0.028836799522554923 0.077080461090175759 0 -0.027817944133721469 0.079781589033202288 0 -0.027861209951679032 0.078263204638354344 0 -0.026456042047760468 0.080747613503206778 0 -0.028836799522554923 0.077080461090175759 0 -0.027597207904975996 0.075631974727296061 0 -0.029226283238624456 0.07779382059924761 0 -0.027597207904975996 0.075631974727296061 0 -0.027925426631779143 0.075450794004508576 0 -0.027597207904975996 0.075631974727296061 0 -0.026948723821293423 0.074298409973200114 0 -0.027925426631779143 0.075450794004508576 0 -0.027597207904975996 0.075631974727296061 0 -0.026948723821293423 0.074298409973200114 0 -0.028677050330407641 0.074629891123741576 0 -0.026948723821293423 0.074298409973200114 0 -0.028677050330407641 0.074629891123741576 0 -0.027833645247862908 0.072726098134991618 0 -0.028836799522554923 0.077080461090175759 0 -0.028677050330407641 0.074629891123741576 0 -0.030799609445587014 0.075449432552961312 0 -0.028677050330407641 0.074629891123741576 0 -0.030799609445587014 0.075449432552961312 0 -0.030552863970207025 0.072852472814598557 0 -0.029431384234336021 0.072050528965034347 0 -0.027833645247862908 0.072726098134991618 0 -0.02617355043442748 0.06940478302087888 0 -0.028677050330407641 0.074629891123741576 0 -0.029431384234336021 0.072050528965034347 0 -0.030552863970207025 0.072852472814598557 0 -0.029431384234336021 0.072050528965034347 0 -0.030945551686019056 0.070994580585242301 0 -0.02968157323246752 0.068823550259152017 0 -0.029431384234336021 0.072050528965034347 0 -0.030552863970207025 0.072852472814598557 0 -0.030945551686019056 0.070994580585242301 0 -0.028677050330407641 0.074629891123741576 0 -0.029431384234336021 0.072050528965034347 0 -0.027833645247862908 0.072726098134991618 0 -0.026948723821293423 0.074298409973200114 0 -0.028006597034232014 0.075014872650135456 0 -0.026428788656729103 0.076514604261694985 0 -0.029047599287494685 0.070687677095116253 0 -0.03048584565505931 0.066377802714558509 0 -0.026948723821293423 0.074298409973200114 0 -0.027833645247862908 0.072726098134991618 0 -0.02617355043442748 0.06940478302087888 0 -0.033360305755628497 0.080090606163501485 0 -0.034854979465159516 0.073410301615397924 0 -0.038819707181533367 0.075029525436863267 0 -0.029391918552422742 0.084585144478704466 0 -0.033049106839697195 0.074182089790736025 0 -0.033006433081138174 0.073698386960073123 0 -0.034182443791141763 0.075770540339407083 0 -0.035349546150864289 0.071519302088128844 0 -0.033006433081138174 0.073698386960073123 0 -0.034182443791141763 0.075770540339407083 0 -0.03256545232302082 0.075514697192762117 0 -0.033006433081138174 0.073698386960073123 0 -0.03256545232302082 0.075514697192762117 0 -0.030799609445587014 0.075449432552961312 0 -0.033006433081138174 0.073698386960073123 0 -0.030799609445587014 0.075449432552961312 0 -0.032531200552314114 0.070172314478417014 0 -0.032413920607754901 0.077090399010091112 0 -0.03256545232302082 0.075514697192762117 0 -0.030799609445587014 0.075449432552961312 0 -0.030799609445587014 0.075449432552961312 0 -0.030552863970207025 0.072852472814598557 0 -0.033505427894365489 0.070854002904235824 0 -0.032133547473084965 0.072221573050524887 0 -0.033316424532934076 0.069492321698538403 0 -0.030552863970207025 0.072852472814598557 0 -0.030945551686019056 0.070994580585242301 0 -0.033505427894365489 0.070854002904235824 0 -0.030945551686019056 0.070994580585242301 0 -0.033505427894365489 0.070854002904235824 0 -0.031671165220708619 0.06946516385540398 0 -0.033006433081138174 0.073698386960073123 0 -0.032531200552314114 0.070172314478417014 0 -0.035349546150864289 0.071519302088128844 0 -0.034854979465159516 0.073410301615397924 0 -0.038819707181533367 0.075029525436863267 0 -0.038981912309553265 0.070477833188435979 0 -0.038819707181533367 0.075029525436863267 0 -0.038981912309553265 0.070477833188435979 0 -0.044116893770742981 0.070018626440916346 0 -0.024844897975007531 0.10790652622183654 0 -0.015944241035810075 0.11451691990876231 0 -0.017530177418520646 0.10804020990559694 0 -0.029391918552422742 0.084585144478704466 0 -0.024721469633221336 0.088388600688076718 0 -0.015944241035810075 0.11451691990876231 0 -0.017530177418520646 0.10804020990559694 0 -0.011944816022006657 0.11028359844276239 0 -0.017530177418520646 0.10804020990559694 0 -0.011944816022006657 0.11028359844276239 0 -0.014912027472311538 0.10518893978961158 0 -0.015944241035810075 0.11451691990876231 0 -0.011944816022006657 0.11028359844276239 0 -0.0088973738981539003 0.11410214919003496 0 -0.011944816022006657 0.11028359844276239 0 -0.0052053022163621098 0.11057746777757854 0 -0.0076187848105445759 0.10576478773143712 0 -0.011944816022006657 0.11028359844276239 0 -0.0088973738981539003 0.11410214919003496 0 -0.0052053022163621098 0.11057746777757854 0 -0.011944816022006657 0.11028359844276239 0 -0.014912027472311538 0.10518893978961158 0 -0.0076187848105445759 0.10576478773143712 0 -0.0088973738981539003 0.11410214919003496 0 -0.0032341660965708881 0.11512200702463236 0 -0.0085582815525167763 0.11983717802773422 0 -0.024721469633221336 0.088388600688076718 0 -0.021555408035336694 0.086544355366689432 0 -0.015944241035810075 0.11451691990876231 0 -0.0088973738981539003 0.11410214919003496 0 -0.0085582815525167763 0.11983717802773422 0 -0.0032341660965708881 0.11512200702463236 0 -0.0085582815525167763 0.11983717802773422 0 -0.0030768047549364005 0.11921834548274374 0 -0.0032341660965708881 0.11512200702463236 0 0.0013581479929396503 0.11631718354636596 0 -0.0030768047549364005 0.11921834548274374 0 -0.0088973738981539003 0.11410214919003496 0 -0.0032341660965708881 0.11512200702463236 0 -0.0052053022163621098 0.11057746777757854 0 0.003057023037591877 0.11628835420273509 0 0.0013581479929396503 0.11631718354636596 0 0.0022577452059318807 0.11881402746260647 0 0.003057023037591877 0.11628835420273509 0 0.0013581479929396503 0.11631718354636596 0 0.0037098208543588553 0.11432576688094316 0 0.0046617259278671653 0.11619508146404839 0 0.003057023037591877 0.11628835420273509 0 0.0037098208543588553 0.11432576688094316 0 -0.0032341660965708881 0.11512200702463236 0 0.0013581479929396503 0.11631718354636596 0 0.0011712912161911746 0.11299211800506399 0 -0.0032341660965708881 0.11512200702463236 0 0.0011712912161911746 0.11299211800506399 0 -0.00017038987607700623 0.11063054160333928 0 0.0013581479929396503 0.11631718354636596 0 0.0011712912161911746 0.11299211800506399 0 0.0037098208543588553 0.11432576688094316 0 0.0011712912161911746 0.11299211800506399 0 0.0037098208543588553 0.11432576688094316 0 0.003635055896180133 0.1087441023196368 0 0.0011712912161911746 0.11299211800506399 0 -0.00017038987607700623 0.11063054160333928 0 0.003635055896180133 0.1087441023196368 0 -0.00017038987607700623 0.11063054160333928 0 0.003635055896180133 0.1087441023196368 0 -0.00022986940276480559 0.10606504135298124 0 -0.0052053022163621098 0.11057746777757854 0 -0.00022986940276480559 0.10606504135298124 0 -0.0076187848105445759 0.10576478773143712 0 -0.0032341660965708881 0.11512200702463236 0 -0.00017038987607700623 0.11063054160333928 0 -0.0052053022163621098 0.11057746777757854 0 -0.00017038987607700623 0.11063054160333928 0 -0.0052053022163621098 0.11057746777757854 0 -0.00022986940276480559 0.10606504135298124 0 -0.00022986940276480559 0.10606504135298124 0 -0.0025323851169395234 0.1016025877621264 0 -0.0076187848105445759 0.10576478773143712 0 0.0055824999096129105 0.1009454344398318 0 -0.00022986940276480559 0.10606504135298124 0 -0.0025323851169395234 0.1016025877621264 0 0.0055824999096129105 0.1009454344398318 0 0.003635055896180133 0.1087441023196368 0 -0.00022986940276480559 0.10606504135298124 0 0.0055824999096129105 0.1009454344398318 0 -0.00068336957027097494 0.096117738598992392 0 -0.0025323851169395234 0.1016025877621264 0 -0.00068336957027097494 0.096117738598992392 0 -0.006407004765028184 0.098803545277922927 0 -0.0025323851169395234 0.1016025877621264 0 -0.012045576313682593 0.091429788283968069 0 -0.0025323851169395234 0.1016025877621264 0 -0.013000761089428778 0.099993477368488431 0 -0.010768497576937494 0.095065203573343943 0 -0.0074310283199150208 0.097652358457536392 0 -0.012045576313682593 0.091429788283968069 0 -0.013000761089428778 0.099993477368488431 0 -0.020815931154673402 0.092642933329345839 0 -0.013000761089428778 0.099993477368488431 0 -0.020815931154673402 0.092642933329345839 0 -0.020342305300876481 0.10172852413351194 0 -0.013000761089428778 0.099993477368488431 0 -0.020342305300876481 0.10172852413351194 0 -0.014912027472311538 0.10518893978961158 0 -0.017530177418520646 0.10804020990559694 0 -0.020342305300876481 0.10172852413351194 0 -0.014912027472311538 0.10518893978961158 0 -0.013000761089428778 0.099993477368488431 0 -0.014912027472311538 0.10518893978961158 0 -0.0076187848105445759 0.10576478773143712 0 -0.0025323851169395234 0.1016025877621264 0 -0.013000761089428778 0.099993477368488431 0 -0.0076187848105445759 0.10576478773143712 0 -0.024268368526281271 0.074875238109983658 0 -0.018802029680979934 0.0766731336399602 0 -0.019688868094982083 0.071245398935160534 0 -0.024268368526281271 0.074875238109983658 0 -0.019688868094982083 0.071245398935160534 0 -0.023837525513411395 0.070956518551026568 0 -0.024268368526281271 0.074875238109983658 0 -0.023837525513411395 0.070956518551026568 0 -0.027138587445145159 0.071446898582487248 0 -0.020735970207876289 0.076892491767958815 0 -0.019867295140026803 0.078601663620555595 0 -0.02259276477343955 0.078504626462846394 0 -0.022755758215951938 0.075590377383022031 0 -0.020137960991630177 0.076364211401773394 0 -0.019867295140026803 0.078601663620555595 0 -0.017729079995940349 0.078193231157619572 0 -0.018694612696814703 0.079748272913262322 0 -0.020735970207876289 0.076892491767958815 0 -0.019867295140026803 0.078601663620555595 0 -0.017729079995940349 0.078193231157619572 0 -0.028328020240860535 0.05449842373825424 0 -0.028940388276537398 0.053672829212352259 0 -0.029050633274102639 0.054279334540164495 0 -0.018802029680979934 0.0766731336399602 0 -0.016660738420180222 0.074960924326447562 0 -0.013705855881493693 0.078436789919567415 0 -0.020137960991630177 0.076364211401773394 0 -0.027996637279864008 0.073066265719102227 0 -0.026012918383269787 0.067822599726221622 0 -0.027996637279864008 0.073066265719102227 0 -0.028328020240860535 0.05449842373825424 0 -0.029050633274102639 0.054279334540164495 0 -0.029032194313034984 0.054857192045236064 0 -0.028328020240860535 0.05449842373825424 0 -0.028441067979878873 0.055087478057057333 0 -0.029032194313034984 0.054857192045236064 0 -0.018802029680979934 0.0766731336399602 0 -0.016660738420180222 0.074960924326447562 0 -0.019688868094982083 0.071245398935160534 0 -0.028328020240860535 0.05449842373825424 0 -0.028441067979878873 0.055087478057057333 0 -0.027939366448993298 0.055274018710706162 0 -0.026012918383269787 0.067822599726221622 0 -0.025760971843314086 0.064602054191312847 0 -0.028311238316142996 0.055402465523285024 0 -0.028441067979878873 0.055087478057057333 0 -0.027939366448993298 0.055274018710706162 0 -0.028311238316142996 0.055402465523285024 0 -0.028016695617758099 0.055724122253283354 0 -0.027939366448993298 0.055274018710706162 0 -0.028441067979878873 0.055087478057057333 0 -0.029032194313034984 0.054857192045236064 0 -0.028802678362630191 0.055239442682477886 0 -0.028311238316142996 0.055402465523285024 0 -0.028441067979878873 0.055087478057057333 0 -0.028802678362630191 0.055239442682477886 0 -0.028311238316142996 0.055402465523285024 0 -0.02835850704426816 0.055569012765731007 0 -0.028802678362630191 0.055239442682477886 0 -0.02835850704426816 0.055569012765731007 0 -0.028016695617758099 0.055724122253283354 0 -0.027990500989397201 0.055762508090975445 0 -0.028311238316142996 0.055402465523285024 0 -0.02835850704426816 0.055569012765731007 0 -0.028016695617758099 0.055724122253283354 0 -0.028016695617758099 0.055724122253283354 0 -0.027939366448993298 0.055274018710706162 0 -0.028053571098840289 0.056090954776491446 0 -0.028016695617758099 0.055724122253283354 0 -0.028053571098840289 0.056090954776491446 0 -0.027833196306274101 0.05597457021810702 0 -0.025760971843314086 0.064602054191312847 0 -0.026642202237114127 0.062073083307627806 0 -0.019688868094982083 0.071245398935160534 0 -0.023837525513411395 0.070956518551026568 0 -0.02270579501321298 0.067344467353751672 0 -0.023837525513411395 0.070956518551026568 0 -0.02270579501321298 0.067344467353751672 0 -0.026847616903297507 0.06894634158213124 0 -0.02270579501321298 0.067344467353751672 0 -0.026847616903297507 0.06894634158213124 0 -0.025882904014172516 0.062709598601862232 0 -0.026847616903297507 0.06894634158213124 0 -0.030531690390357771 0.066582890553462587 0 -0.025882904014172516 0.062709598601862232 0 -0.026847616903297507 0.06894634158213124 0 -0.030531690390357771 0.066582890553462587 0 -0.02992769098296217 0.070559074170298955 0 -0.030531690390357771 0.066582890553462587 0 -0.02992769098296217 0.070559074170298955 0 -0.032307756000786433 0.06893295541322958 0 -0.02992769098296217 0.070559074170298955 0 -0.027138587445145159 0.071446898582487248 0 -0.030580725879334286 0.072390306095265325 0 -0.02992769098296217 0.070559074170298955 0 -0.029721936870364268 0.073214934403772539 0 -0.030580725879334286 0.072390306095265325 0 -0.026847616903297507 0.06894634158213124 0 -0.02992769098296217 0.070559074170298955 0 -0.027138587445145159 0.071446898582487248 0 -0.023837525513411395 0.070956518551026568 0 -0.026847616903297507 0.06894634158213124 0 -0.027138587445145159 0.071446898582487248 0 -0.038076964138385273 0.068421965680056943 0 -0.043089297759533442 0.06332090813260835 0 -0.035496950944201133 0.064963519626812224 0 -0.030899493398902366 0.069135217063846899 0 -0.03048584565505931 0.066377802714558509 0 -0.030531690390357771 0.066582890553462587 0 -0.032307756000786433 0.06893295541322958 0 -0.035496950944201133 0.064963519626812224 0 -0.038076964138385273 0.068421965680056943 0 -0.032307756000786433 0.06893295541322958 0 -0.035496950944201133 0.064963519626812224 0 -0.02992769098296217 0.070559074170298955 0 -0.032307756000786433 0.06893295541322958 0 -0.029721936870364268 0.073214934403772539 0 -0.027576875306727578 0.07395165785593584 0 -0.026285571889095666 0.074363692237919735 0 -0.028006597034232014 0.075014872650135456 0 -0.029721936870364268 0.073214934403772539 0 -0.028350548709398626 0.073956920030374615 0 -0.029721936870364268 0.073214934403772539 0 -0.028350548709398626 0.073956920030374615 0 -0.030580725879334286 0.072390306095265325 0 -0.038076964138385273 0.068421965680056943 0 -0.032307756000786433 0.06893295541322958 0 -0.029721936870364268 0.073214934403772539 0 -0.030899493398902366 0.069135217063846899 0 -0.030444151132955826 0.070348299548904453 0 -0.026948723821293423 0.074298409973200114 0 -0.028350548709398626 0.073956920030374615 0 -0.027925426631779143 0.075450794004508576 0 -0.026948723821293423 0.074298409973200114 0 -0.028006597034232014 0.075014872650135456 0 -0.028350548709398626 0.073956920030374615 0 -0.028350548709398626 0.073956920030374615 0 -0.027925426631779143 0.075450794004508576 0 -0.026665955208771647 0.075728697570484449 0 -0.027925426631779143 0.075450794004508576 0 -0.026665955208771647 0.075728697570484449 0 -0.02722340868773224 0.076833310654410306 0 -0.026665955208771647 0.075728697570484449 0 -0.02722340868773224 0.076833310654410306 0 -0.024806938132513747 0.076917166604463127 0 -0.028350548709398626 0.073956920030374615 0 -0.026665955208771647 0.075728697570484449 0 -0.023839677363716467 0.075371885809658271 0 -0.025911165038613706 0.078333096003732339 0 -0.02722340868773224 0.076833310654410306 0 -0.024806938132513747 0.076917166604463127 0 -0.025911165038613706 0.078333096003732339 0 -0.024806938132513747 0.076917166604463127 0 -0.024314889548839858 0.078935832168392964 0 -0.025911165038613706 0.078333096003732339 0 -0.02722340868773224 0.076833310654410306 0 -0.02762553488737975 0.079485709151097025 0 -0.029226283238624456 0.07779382059924761 0 -0.027925426631779143 0.075450794004508576 0 -0.02722340868773224 0.076833310654410306 0 -0.029226283238624456 0.07779382059924761 0 -0.02722340868773224 0.076833310654410306 0 -0.02762553488737975 0.079485709151097025 0 -0.024268368526281271 0.074875238109983658 0 -0.027138587445145159 0.071446898582487248 0 -0.030580725879334286 0.072390306095265325 0 -0.022755758215951938 0.075590377383022031 0 -0.026285571889095666 0.074363692237919735 0 -0.020735970207876289 0.076892491767958815 0 -0.023839677363716467 0.075371885809658271 0 -0.023162800144393741 0.076947567891787513 0 -0.026665955208771647 0.075728697570484449 0 -0.023839677363716467 0.075371885809658271 0 -0.024806938132513747 0.076917166604463127 0 -0.023839677363716467 0.075371885809658271 0 -0.024806938132513747 0.076917166604463127 0 -0.023162800144393741 0.076947567891787513 0 -0.024806938132513747 0.076917166604463127 0 -0.022241200369408524 0.07868829278442499 0 -0.024314889548839858 0.078935832168392964 0 -0.024806938132513747 0.076917166604463127 0 -0.02259276477343955 0.078504626462846394 0 -0.023162800144393741 0.076947567891787513 0 -0.023172236213532291 0.078179846731287805 0 -0.022170893077031958 0.078884298636472602 0 -0.020735970207876289 0.076892491767958815 0 -0.02259276477343955 0.078504626462846394 0 -0.023162800144393741 0.076947567891787513 0 -0.022241200369408524 0.07868829278442499 0 -0.023508185041642028 0.081259531405566104 0 -0.020915686345207782 0.082296697493743326 0 -0.022170893077031958 0.078884298636472602 0 -0.020398968116264155 0.080151630269974378 0 -0.024314889548839858 0.078935832168392964 0 -0.023508185041642028 0.081259531405566104 0 -0.025394418729995448 0.080098065123622636 0 -0.022241200369408524 0.07868829278442499 0 -0.024314889548839858 0.078935832168392964 0 -0.023508185041642028 0.081259531405566104 0 -0.023508185041642028 0.081259531405566104 0 -0.025614694339480073 0.082927810872413577 0 -0.022601658864384314 0.083763237860704221 0 -0.023508185041642028 0.081259531405566104 0 -0.022601658864384314 0.083763237860704221 0 -0.020915686345207782 0.082296697493743326 0 -0.029288177506731863 0.081861770128117975 0 -0.029226283238624456 0.07779382059924761 0 -0.02762553488737975 0.079485709151097025 0 -0.025911165038613706 0.078333096003732339 0 -0.02762553488737975 0.079485709151097025 0 -0.025394418729995448 0.080098065123622636 0 -0.025911165038613706 0.078333096003732339 0 -0.024314889548839858 0.078935832168392964 0 -0.025394418729995448 0.080098065123622636 0 -0.023508185041642028 0.081259531405566104 0 -0.025394418729995448 0.080098065123622636 0 -0.025614694339480073 0.082927810872413577 0 -0.02762553488737975 0.079485709151097025 0 -0.025394418729995448 0.080098065123622636 0 -0.025614694339480073 0.082927810872413577 0 -0.029288177506731863 0.081861770128117975 0 -0.02762553488737975 0.079485709151097025 0 -0.025614694339480073 0.082927810872413577 0 -0.028457387300956993 0.086389905036961909 0 -0.029288177506731863 0.081861770128117975 0 -0.02726553774905123 0.084908963491453576 0 -0.029288177506731863 0.081861770128117975 0 -0.025614694339480073 0.082927810872413577 0 -0.02726553774905123 0.084908963491453576 0 -0.025614694339480073 0.082927810872413577 0 -0.02726553774905123 0.084908963491453576 0 -0.024601964612896626 0.086070909907927512 0 -0.02726553774905123 0.084908963491453576 0 -0.028189097173649556 0.086377792485674537 0 -0.024601964612896626 0.086070909907927512 0 -0.028672385267376838 0.086482010656164107 0 -0.028535567882034367 0.086479687266578578 0 -0.028189097173649556 0.086377792485674537 0 -0.032137420259611103 0.087712242261378262 0 -0.029826552150582501 0.085872611689234948 0 -0.028189097173649556 0.086377792485674537 0 -0.02801918208529668 0.085436200536050805 0 -0.029826552150582501 0.085872611689234948 0 -0.028457387300956993 0.086389905036961909 0 -0.028189097173649556 0.086377792485674537 0 -0.02801918208529668 0.085436200536050805 0 -0.028457387300956993 0.086389905036961909 0 -0.02726553774905123 0.084908963491453576 0 -0.028189097173649556 0.086377792485674537 0 -0.022601658864384314 0.083763237860704221 0 -0.02137992249876116 0.085804046716918658 0 -0.019978655131179437 0.084055219022605945 0 -0.022601658864384314 0.083763237860704221 0 -0.019978655131179437 0.084055219022605945 0 -0.020915686345207782 0.082296697493743326 0 -0.025614694339480073 0.082927810872413577 0 -0.022601658864384314 0.083763237860704221 0 -0.024601964612896626 0.086070909907927512 0 -0.028535567882034367 0.086479687266578578 0 -0.028046347319790912 0.086290665545522421 0 -0.022601658864384314 0.083763237860704221 0 -0.024601964612896626 0.086070909907927512 0 -0.02137992249876116 0.085804046716918658 0 -0.032137420259611103 0.087712242261378262 0 -0.034746404416626735 0.087944784324494096 0 -0.034478044052143268 0.087086328363706902 0 -0.034746404416626735 0.087944784324494096 0 -0.035184885273846889 0.088531719805299336 0 -0.035050199007814399 0.088222241193983392 0 -0.028046347319790912 0.086290665545522421 0 -0.027390758175258687 0.085686515989934625 0 -0.02137992249876116 0.085804046716918658 0 -0.018490302313502256 0.085653466726251376 0 -0.019978655131179437 0.084055219022605945 0 -0.018490302313502256 0.085653466726251376 0 -0.018100038027649236 0.083936626274720691 0 -0.019978655131179437 0.084055219022605945 0 -0.018100038027649236 0.083936626274720691 0 -0.019978655131179437 0.084055219022605945 0 -0.018187922131787333 0.081889540216065454 0 -0.019978655131179437 0.084055219022605945 0 -0.020915686345207782 0.082296697493743326 0 -0.018187922131787333 0.081889540216065454 0 -0.020915686345207782 0.082296697493743326 0 -0.018187922131787333 0.081889540216065454 0 -0.020106487211344871 0.080374015607258431 0 -0.018696715610389214 0.081370888877221423 0 -0.020398968116264155 0.080151630269974378 0 -0.018550144153454105 0.081531962840242445 0 -0.018694612696814703 0.079748272913262322 0 -0.02056121667973947 0.080027031927431422 0 -0.019867295140026803 0.078601663620555595 0 -0.018694612696814703 0.079748272913262322 0 -0.02056121667973947 0.080027031927431422 0 -0.022241200369408524 0.07868829278442499 0 -0.020915686345207782 0.082296697493743326 0 -0.020106487211344871 0.080374015607258431 0 -0.019867295140026803 0.078601663620555595 0 -0.02259276477343955 0.078504626462846394 0 -0.02056121667973947 0.080027031927431422 0 -0.016776384629146091 0.080405133818681085 0 -0.015095199500548684 0.081534863232278196 0 -0.014733142293426546 0.079420922692630305 0 -0.017729079995940349 0.078193231157619572 0 -0.016776384629146091 0.080405133818681085 0 -0.014733142293426546 0.079420922692630305 0 -0.017729079995940349 0.078193231157619572 0 -0.018694612696814703 0.079748272913262322 0 -0.016776384629146091 0.080405133818681085 0 -0.018550144153454105 0.081531962840242445 0 -0.018694612696814703 0.079748272913262322 0 -0.016776384629146091 0.080405133818681085 0 -0.018550144153454105 0.081531962840242445 0 -0.016776384629146091 0.080405133818681085 0 -0.016468091082419381 0.083058685681773561 0 -0.018696715610389214 0.081370888877221423 0 -0.017809374713204148 0.081997839825881769 0 -0.016776384629146091 0.080405133818681085 0 -0.015095199500548684 0.081534863232278196 0 -0.016468091082419381 0.083058685681773561 0 -0.015095199500548684 0.081534863232278196 0 -0.016468091082419381 0.083058685681773561 0 -0.014422790512811477 0.08332843603678719 0 -0.016468091082419381 0.083058685681773561 0 -0.015612716688804732 0.084289757838753185 0 -0.014422790512811477 0.08332843603678719 0 -0.016468091082419381 0.083058685681773561 0 -0.016943465876754962 0.08456694138299102 0 -0.015612716688804732 0.084289757838753185 0 -0.018100038027649236 0.083936626274720691 0 -0.016468091082419381 0.083058685681773561 0 -0.016943465876754962 0.08456694138299102 0 -0.018100038027649236 0.083936626274720691 0 -0.018187922131787333 0.081889540216065454 0 -0.016468091082419381 0.083058685681773561 0 -0.018490302313502256 0.085653466726251376 0 -0.018100038027649236 0.083936626274720691 0 -0.016943465876754962 0.08456694138299102 0 -0.035184885273846889 0.088531719805299336 0 -0.036278110019287699 0.088551784748667803 0 -0.035547051817167094 0.08848586127142756 0 -0.027390758175258687 0.085686515989934625 0 -0.028561789835172494 0.084013459471691421 0 -0.018490302313502256 0.085653466726251376 0 -0.016943465876754962 0.08456694138299102 0 -0.015791098598121847 0.085689854682044958 0 -0.015612716688804732 0.084289757838753185 0 -0.015791098598121847 0.085689854682044958 0 -0.01441702285448495 0.084749093301611719 0 -0.016943465876754962 0.08456694138299102 0 -0.015612716688804732 0.084289757838753185 0 -0.015791098598121847 0.085689854682044958 0 -0.036278110019287699 0.088551784748667803 0 -0.036086116420815738 0.087665296046134669 0 -0.036869186850657279 0.087932175177392075 0 -0.035888305873671443 0.088750726764570215 0 -0.036781564287544102 0.088950279808389168 0 -0.036106855417141287 0.08878157192989973 0 -0.038041804445988828 0.089163583695456669 0 -0.039603259597889413 0.089279248097397637 0 -0.036086116420815738 0.087665296046134669 0 -0.036869186850657279 0.087932175177392075 0 -0.036867429954655702 0.087481624376183856 0 -0.036086116420815738 0.087665296046134669 0 -0.036776423152603904 0.086750559897434285 0 -0.036867429954655702 0.087481624376183856 0 -0.035711808384178943 0.088627891327710512 0 -0.035590266978642295 0.088568678280024349 0 -0.035343148365809679 0.088487069489690817 0 -0.035711808384178943 0.088627891327710512 0 -0.035590266978642295 0.088568678280024349 0 -0.036106855417141287 0.08878157192989973 0 -0.035888305873671443 0.088750726764570215 0 -0.035590266978642295 0.088568678280024349 0 -0.036106855417141287 0.08878157192989973 0 -0.036278110019287699 0.088551784748667803 0 -0.036086116420815738 0.087665296046134669 0 -0.035547051817167094 0.08848586127142756 0 -0.035590266978642295 0.088568678280024349 0 -0.035547051817167094 0.08848586127142756 0 -0.035333854547448008 0.088401596185618728 0 -0.038041804445988828 0.089163583695456669 0 -0.037514653309796267 0.089190274481928303 0 -0.035888305873671443 0.088750726764570215 0 -0.035590266978642295 0.088568678280024349 0 -0.035547051817167094 0.08848586127142756 0 -0.035184885273846889 0.088531719805299336 0 -0.035547051817167094 0.08848586127142756 0 -0.035333854547448008 0.088401596185618728 0 -0.035184885273846889 0.088531719805299336 0 -0.035050199007814399 0.088222241193983392 0 -0.035333854547448008 0.088401596185618728 0 -0.035050199007814399 0.088222241193983392 0 -0.034808275424972196 0.087841307934608093 0 -0.035259164809924727 0.08834918634500509 0 -0.035050199007814399 0.088222241193983392 0 -0.035333854547448008 0.088401596185618728 0 -0.035259164809924727 0.08834918634500509 0 -0.035590266978642295 0.088568678280024349 0 -0.035333854547448008 0.088401596185618728 0 -0.035259164809924727 0.08834918634500509 0 -0.034746404416626735 0.087944784324494096 0 -0.035050199007814399 0.088222241193983392 0 -0.034808275424972196 0.087841307934608093 0 -0.034808275424972196 0.087841307934608093 0 -0.034502069931908852 0.087969048510297618 0 -0.034443990905424895 0.087330798641545707 0 -0.034808275424972196 0.087841307934608093 0 -0.034833704826224249 0.088225801463483536 0 -0.035037952502850772 0.088243335310553631 0 -0.034808275424972196 0.087841307934608093 0 -0.034833704826224249 0.088225801463483536 0 -0.034502069931908852 0.087969048510297618 0 -0.034808275424972196 0.087841307934608093 0 -0.035259164809924727 0.08834918634500509 0 -0.035037952502850772 0.088243335310553631 0 -0.035259164809924727 0.08834918634500509 0 -0.035037952502850772 0.088243335310553631 0 -0.035343148365809679 0.088487069489690817 0 -0.035590266978642295 0.088568678280024349 0 -0.035259164809924727 0.08834918634500509 0 -0.035343148365809679 0.088487069489690817 0 -0.034833704826224249 0.088225801463483536 0 -0.035037952502850772 0.088243335310553631 0 -0.035343148365809679 0.088487069489690817 0 -0.035343148365809679 0.088487069489690817 0 -0.035136913276166373 0.088560881325880914 0 -0.035798740270114794 0.088686829655468688 0 -0.034833704826224249 0.088225801463483536 0 -0.035343148365809679 0.088487069489690817 0 -0.035136913276166373 0.088560881325880914 0 -0.035136913276166373 0.088560881325880914 0 -0.035571666522503889 0.08865197594849733 0 -0.035798740270114794 0.088686829655468688 0 -0.034502069931908852 0.087969048510297618 0 -0.034683936723449695 0.088416374895436953 0 -0.034325378721091565 0.088298797204768686 0 -0.034833704826224249 0.088225801463483536 0 -0.035136913276166373 0.088560881325880914 0 -0.034683936723449695 0.088416374895436953 0 -0.034833704826224249 0.088225801463483536 0 -0.034502069931908852 0.087969048510297618 0 -0.034683936723449695 0.088416374895436953 0 -0.035136913276166373 0.088560881325880914 0 -0.034683936723449695 0.088416374895436953 0 -0.03461686784818814 0.088631827234426613 0 -0.034683936723449695 0.088416374895436953 0 -0.03444611556103009 0.088505287641269803 0 -0.03461686784818814 0.088631827234426613 0 -0.03444611556103009 0.088505287641269803 0 -0.034325378721091565 0.088298797204768686 0 -0.034208747966300107 0.088639471552946866 0 -0.034683936723449695 0.088416374895436953 0 -0.03444611556103009 0.088505287641269803 0 -0.034325378721091565 0.088298797204768686 0 -0.03461686784818814 0.088631827234426613 0 -0.033990247461082576 0.08867304964044298 0 -0.034967763544766259 0.088583356326329396 0 -0.03444611556103009 0.088505287641269803 0 -0.03461686784818814 0.088631827234426613 0 -0.034208747966300107 0.088639471552946866 0 -0.03461686784818814 0.088631827234426613 0 -0.034208747966300107 0.088639471552946866 0 -0.033990247461082576 0.08867304964044298 0 -0.03461686784818814 0.088631827234426613 0 -0.035340009683548987 0.08864772061604613 0 -0.034967763544766259 0.088583356326329396 0 -0.035136913276166373 0.088560881325880914 0 -0.035571666522503889 0.08865197594849733 0 -0.035340009683548987 0.08864772061604613 0 -0.035571666522503889 0.08865197594849733 0 -0.035340009683548987 0.08864772061604613 0 -0.036066291455027003 0.088662459963255447 0 -0.035136913276166373 0.088560881325880914 0 -0.03461686784818814 0.088631827234426613 0 -0.035340009683548987 0.08864772061604613 0 -0.035340009683548987 0.08864772061604613 0 -0.036066291455027003 0.088662459963255447 0 -0.035794472071474508 0.088567588958396878 0 -0.035571666522503889 0.08865197594849733 0 -0.036066291455027003 0.088662459963255447 0 -0.035798740270114794 0.088686829655468688 0 -0.036066291455027003 0.088662459963255447 0 -0.036963315698897735 0.088605194742163607 0 -0.036464207216868126 0.088744054723722376 0 -0.036066291455027003 0.088662459963255447 0 -0.036464207216868126 0.088744054723722376 0 -0.035798740270114794 0.088686829655468688 0 -0.036066291455027003 0.088662459963255447 0 -0.036963315698897735 0.088605194742163607 0 -0.036679044528164929 0.08847740833866749 0 -0.036963315698897735 0.088605194742163607 0 -0.037122909110065203 0.088716695500281245 0 -0.037578386831594597 0.08853571865065063 0 -0.036963315698897735 0.088605194742163607 0 -0.037122909110065203 0.088716695500281245 0 -0.036464207216868126 0.088744054723722376 0 -0.037122909110065203 0.088716695500281245 0 -0.036464207216868126 0.088744054723722376 0 -0.036781564287544102 0.088950279808389168 0 -0.036464207216868126 0.088744054723722376 0 -0.036781564287544102 0.088950279808389168 0 -0.036106855417141287 0.08878157192989973 0 -0.035711808384178943 0.088627891327710512 0 -0.036106855417141287 0.08878157192989973 0 -0.035798740270114794 0.088686829655468688 0 -0.035711808384178943 0.088627891327710512 0 -0.035343148365809679 0.088487069489690817 0 -0.035798740270114794 0.088686829655468688 0 -0.036464207216868126 0.088744054723722376 0 -0.036106855417141287 0.08878157192989973 0 -0.035798740270114794 0.088686829655468688 0 -0.024870631122000605 0.081926060288986663 0 -0.02802888989723748 0.081778551153264725 0 -0.026970324306266995 0.084246678225597102 0 -0.02802888989723748 0.081778551153264725 0 -0.026970324306266995 0.084246678225597102 0 -0.029133038689013072 0.084266418113277286 0 -0.026970324306266995 0.084246678225597102 0 -0.02801918208529668 0.085436200536050805 0 -0.029133038689013072 0.084266418113277286 0 -0.026490146130175779 0.085063221461546074 0 -0.026610156790967534 0.085373172984890555 0 -0.026970324306266995 0.084246678225597102 0 -0.028457387300956993 0.086389905036961909 0 -0.026970324306266995 0.084246678225597102 0 -0.02801918208529668 0.085436200536050805 0 -0.027505069968690603 0.084271554366541948 0 -0.027427980960774669 0.084328792664116414 0 -0.02801918208529668 0.085436200536050805 0 -0.029133038689013072 0.084266418113277286 0 -0.029826552150582501 0.085872611689234948 0 -0.032137420259611103 0.087712242261378262 0 -0.029826552150582501 0.085872611689234948 0 -0.031422983855012215 0.085572954171857882 0 -0.029133038689013072 0.084266418113277286 0 -0.029826552150582501 0.085872611689234948 0 -0.031422983855012215 0.085572954171857882 0 -0.02802888989723748 0.081778551153264725 0 -0.030852517430843229 0.08320723576766581 0 -0.029559411422002583 0.079348767149629934 0 -0.02802888989723748 0.081778551153264725 0 -0.029133038689013072 0.084266418113277286 0 -0.030852517430843229 0.08320723576766581 0 -0.029133038689013072 0.084266418113277286 0 -0.031422983855012215 0.085572954171857882 0 -0.030852517430843229 0.08320723576766581 0 -0.030852517430843229 0.08320723576766581 0 -0.034086216915679216 0.085928744715492791 0 -0.034203477558366252 0.081676590000030969 0 -0.030681752900565008 0.086445327556724794 0 -0.030314962520565751 0.086760007022627803 0 -0.031422983855012215 0.085572954171857882 0 -0.030852517430843229 0.08320723576766581 0 -0.034086216915679216 0.085928744715492791 0 -0.034086216915679216 0.085928744715492791 0 -0.03431119151165174 0.087639279878980278 0 -0.03483107108038537 0.087720545941372088 0 -0.032137420259611103 0.087712242261378262 0 -0.031422983855012215 0.085572954171857882 0 -0.034086216915679216 0.085928744715492791 0 -0.032137420259611103 0.087712242261378262 0 -0.034086216915679216 0.085928744715492791 0 -0.034478044052143268 0.087086328363706902 0 -0.034086216915679216 0.085928744715492791 0 -0.034478044052143268 0.087086328363706902 0 -0.034443990905424895 0.087330798641545707 0 -0.034808275424972196 0.087841307934608093 0 -0.034478044052143268 0.087086328363706902 0 -0.034443990905424895 0.087330798641545707 0 -0.034746404416626735 0.087944784324494096 0 -0.034808275424972196 0.087841307934608093 0 -0.034478044052143268 0.087086328363706902 0 -0.034086216915679216 0.085928744715492791 0 -0.034443990905424895 0.087330798641545707 0 -0.03431119151165174 0.087639279878980278 0 -0.034502069931908852 0.087969048510297618 0 -0.034443990905424895 0.087330798641545707 0 -0.03431119151165174 0.087639279878980278 0 -0.034502069931908852 0.087969048510297618 0 -0.03431119151165174 0.087639279878980278 0 -0.034325378721091565 0.088298797204768686 0 -0.03431119151165174 0.087639279878980278 0 -0.034313840212702187 0.088226138132316209 0 -0.034325378721091565 0.088298797204768686 0 -0.03431119151165174 0.087639279878980278 0 -0.034313840212702187 0.088226138132316209 0 -0.03483107108038537 0.087720545941372088 0 -0.034313840212702187 0.088226138132316209 0 -0.034006575096896849 0.088811026961536602 0 -0.034687455654721519 0.088674561891292664 0 -0.034313840212702187 0.088226138132316209 0 -0.034167192168639164 0.088557848932294347 0 -0.034006575096896849 0.088811026961536602 0 -0.034313840212702187 0.088226138132316209 0 -0.034167192168639164 0.088557848932294347 0 -0.034325378721091565 0.088298797204768686 0 -0.034167192168639164 0.088557848932294347 0 -0.034325378721091565 0.088298797204768686 0 -0.034208747966300107 0.088639471552946866 0 -0.033913161553275797 0.088750317411021254 0 -0.034006575096896849 0.088811026961536602 0 -0.032476092350750885 0.088574061443942143 0 -0.034167192168639164 0.088557848932294347 0 -0.034208747966300107 0.088639471552946866 0 -0.033913161553275797 0.088750317411021254 0 -0.034208747966300107 0.088639471552946866 0 -0.033913161553275797 0.088750317411021254 0 -0.033990247461082576 0.08867304964044298 0 -0.034167192168639164 0.088557848932294347 0 -0.033913161553275797 0.088750317411021254 0 -0.034006575096896849 0.088811026961536602 0 -0.034006575096896849 0.088811026961536602 0 -0.033675080893558987 0.088904557073991253 0 -0.032476092350750885 0.088574061443942143 0 -0.027756069682077979 0.096115166276600966 0 -0.025599138970070334 0.094673045997379066 0 -0.027548908336196304 0.09246709137078056 0 -0.029154340596261867 0.088834142804911864 0 -0.029082475446170191 0.089333316439597035 0 -0.02966397794605681 0.088740886738419289 0 -0.029154340596261867 0.088834142804911864 0 -0.034023293267116776 0.078482598475041646 0 -0.034203477558366252 0.081676590000030969 0 -0.029559411422002583 0.079348767149629934 0 -0.034313840212702187 0.088226138132316209 0 -0.034687455654721519 0.088674561891292664 0 -0.03483107108038537 0.087720545941372088 0 -0.029154340596261867 0.088834142804911864 0 -0.030314962520565751 0.086760007022627803 0 -0.029154340596261867 0.088834142804911864 0 -0.026498470277067938 0.088596976622986282 0 -0.030852517430843229 0.08320723576766581 0 -0.034203477558366252 0.081676590000030969 0 -0.029559411422002583 0.079348767149629934 0 -0.024351396907482805 0.096940349567610676 0 -0.025599138970070334 0.094673045997379066 0 -0.023356346966086624 0.094073370819975355 0 -0.027756069682077979 0.096115166276600966 0 -0.024351396907482805 0.096940349567610676 0 -0.025599138970070334 0.094673045997379066 0 -0.021137912480849827 0.095261018670256062 0 -0.024351396907482805 0.096940349567610676 0 -0.023356346966086624 0.094073370819975355 0 -0.021137912480849827 0.095261018670256062 0 -0.021846105639724202 0.093260971488139541 0 -0.023356346966086624 0.094073370819975355 0 -0.020975731187221371 0.09766770565672131 0 -0.021137912480849827 0.095261018670256062 0 -0.024351396907482805 0.096940349567610676 0 -0.025212987052413604 0.07953091307492792 0 -0.02802888989723748 0.081778551153264725 0 -0.029559411422002583 0.079348767149629934 0 -0.022683690867567084 0.088853797964341175 0 -0.026498470277067938 0.088596976622986282 0 -0.021846251723667186 0.09047984597308581 0 -0.023474293142924138 0.090309023766290186 0 -0.02265877933700251 0.091071260758939371 0 -0.023474293142924138 0.090309023766290186 0 -0.02265877933700251 0.091071260758939371 0 -0.023203235788051793 0.09191664452484001 0 -0.023474293142924138 0.090309023766290186 0 -0.023203235788051793 0.09191664452484001 0 -0.025011759624596959 0.09066970096775985 0 -0.021846251723667186 0.09047984597308581 0 -0.02265877933700251 0.091071260758939371 0 -0.021859681898416063 0.091979363975712658 0 -0.02265877933700251 0.091071260758939371 0 -0.021859681898416063 0.091979363975712658 0 -0.023203235788051793 0.09191664452484001 0 -0.021859681898416063 0.091979363975712658 0 -0.021846105639724202 0.093260971488139541 0 -0.023203235788051793 0.09191664452484001 0 -0.021846105639724202 0.093260971488139541 0 -0.023356346966086624 0.094073370819975355 0 -0.023203235788051793 0.09191664452484001 0 -0.023356346966086624 0.094073370819975355 0 -0.023203235788051793 0.09191664452484001 0 -0.024947254803886442 0.09276103579574739 0 -0.025599138970070334 0.094673045997379066 0 -0.024947254803886442 0.09276103579574739 0 -0.027548908336196304 0.09246709137078056 0 -0.024947254803886442 0.09276103579574739 0 -0.025011759624596959 0.09066970096775985 0 -0.027548908336196304 0.09246709137078056 0 -0.025599138970070334 0.094673045997379066 0 -0.023356346966086624 0.094073370819975355 0 -0.024947254803886442 0.09276103579574739 0 -0.023203235788051793 0.09191664452484001 0 -0.024947254803886442 0.09276103579574739 0 -0.025011759624596959 0.09066970096775985 0 -0.025011759624596959 0.09066970096775985 0 -0.027548908336196304 0.09246709137078056 0 -0.027418789346927687 0.088802631121533596 0 -0.032476092350750885 0.088574061443942143 0 -0.032289150971517147 0.087814817924162236 0 -0.030454452802062704 0.087527951320225311 0 -0.029082475446170191 0.089333316439597035 0 -0.028386618998021289 0.087327085549429931 0 -0.033913161553275797 0.088750317411021254 0 -0.032476092350750885 0.088574061443942143 0 -0.033990247461082576 0.08867304964044298 0 -0.032476092350750885 0.088574061443942143 0 -0.033990247461082576 0.08867304964044298 0 -0.033797400461257426 0.088352241128187167 0 -0.032476092350750885 0.088574061443942143 0 -0.032289150971517147 0.087814817924162236 0 -0.033797400461257426 0.088352241128187167 0 -0.032289150971517147 0.087814817924162236 0 -0.031355619005570302 0.086711979793857571 0 -0.030454452802062704 0.087527951320225311 0 -0.032289150971517147 0.087814817924162236 0 -0.031355619005570302 0.086711979793857571 0 -0.034013802011358479 0.08719148053636866 0 -0.031355619005570302 0.086711979793857571 0 -0.027423973370343219 0.084999616374689557 0 -0.032401763130007269 0.084999227190331955 0 -0.027418610186050362 0.084999812519068491 0 -0.027418789346927687 0.088802631121533596 0 -0.02631273063594505 0.085000115014294345 0 -0.031355619005570302 0.086711979793857571 0 -0.027423973370343219 0.084999616374689557 0 -0.030454452802062704 0.087527951320225311 0 -0.027421312109207958 0.085001726713325232 0 -0.028386618998021289 0.087327085549429931 0 -0.025011759624596959 0.09066970096775985 0 -0.027418789346927687 0.088802631121533596 0 -0.024039823926182008 0.087769986105907055 0 -0.023474293142924138 0.090309023766290186 0 -0.025011759624596959 0.09066970096775985 0 -0.024039823926182008 0.087769986105907055 0 -0.026309525804208176 0.085002971603025765 0 -0.024039911732037577 0.087815451115816207 0 -0.026311939279879418 0.084999987796259863 0 -0.022694713410970787 0.08499999502061896 0 -0.023772819665773878 0.088139020704838644 0 -0.027418789346927687 0.088802631121533596 0 -0.02631273063594505 0.085000115014294345 0 -0.024039823926182008 0.087769986105907055 0 -0.020712358133469756 0.088191865180848747 0 -0.022694713410970787 0.08499999502061896 0 -0.023772819665773878 0.088139020704838644 0 -0.022048468112786216 0.090292520385663252 0 -0.024039911732037577 0.087815451115816207 0 -0.021846251723667186 0.09047984597308581 0 -0.023474293142924138 0.090309023766290186 0 -0.024039823926182008 0.087769986105907055 0 -0.020830107341888032 0.089763795739723068 0 -0.020712358133469756 0.088191865180848747 0 -0.023772819665773878 0.088139020704838644 0 -0.020830107341888032 0.089763795739723068 0 -0.021254569888747417 0.091145319156274149 0 -0.023772819665773878 0.088139020704838644 0 -0.03732600922862709 0.087975095353972022 0 -0.03608104314215474 0.088355259121985039 0 -0.035498846971075353 0.088074880131840186 0 -0.03732600922862709 0.087975095353972022 0 -0.035498846971075353 0.088074880131840186 0 -0.037612875389769582 0.087031008384257633 0 -0.03732600922862709 0.087975095353972022 0 -0.037683437233523222 0.088344868394663129 0 -0.039869084727088965 0.087316110096676031 0 -0.03732600922862709 0.087975095353972022 0 -0.037683437233523222 0.088344868394663129 0 -0.036679044528164929 0.08847740833866749 0 -0.036963315698897735 0.088605194742163607 0 -0.037683437233523222 0.088344868394663129 0 -0.037578386831594597 0.08853571865065063 0 -0.036963315698897735 0.088605194742163607 0 -0.037683437233523222 0.088344868394663129 0 -0.036679044528164929 0.08847740833866749 0 -0.03732600922862709 0.087975095353972022 0 -0.036679044528164929 0.08847740833866749 0 -0.03608104314215474 0.088355259121985039 0 -0.036679044528164929 0.08847740833866749 0 -0.03608104314215474 0.088355259121985039 0 -0.035794472071474508 0.088567588958396878 0 -0.036066291455027003 0.088662459963255447 0 -0.036679044528164929 0.08847740833866749 0 -0.035794472071474508 0.088567588958396878 0 -0.03608104314215474 0.088355259121985039 0 -0.034967763544766259 0.088583356326329396 0 -0.035498846971075353 0.088074880131840186 0 -0.035340009683548987 0.08864772061604613 0 -0.035794472071474508 0.088567588958396878 0 -0.034967763544766259 0.088583356326329396 0 -0.03608104314215474 0.088355259121985039 0 -0.035794472071474508 0.088567588958396878 0 -0.034967763544766259 0.088583356326329396 0 -0.033990247461082576 0.08867304964044298 0 -0.034967763544766259 0.088583356326329396 0 -0.033797400461257426 0.088352241128187167 0 -0.032289150971517147 0.087814817924162236 0 -0.033797400461257426 0.088352241128187167 0 -0.034013802011358479 0.08719148053636866 0 -0.034967763544766259 0.088583356326329396 0 -0.033797400461257426 0.088352241128187167 0 -0.035498846971075353 0.088074880131840186 0 -0.033797400461257426 0.088352241128187167 0 -0.035498846971075353 0.088074880131840186 0 -0.034013802011358479 0.08719148053636866 0 -0.035498846971075353 0.088074880131840186 0 -0.034013802011358479 0.08719148053636866 0 -0.037612875389769582 0.087031008384257633 0 -0.031355619005570302 0.086711979793857571 0 -0.034013802011358479 0.08719148053636866 0 -0.032401763130007269 0.084999227190331955 0 -0.034013802011358479 0.08719148053636866 0 -0.032401763130007269 0.084999227190331955 0 -0.037383474456997808 0.084999086620469816 0 -0.034013802011358479 0.08719148053636866 0 -0.037383474456997808 0.084999086620469816 0 -0.037612875389769582 0.087031008384257633 0 -0.037383474456997808 0.084999086620469816 0 -0.037612875389769582 0.087031008384257633 0 -0.042358006182099409 0.084999967766249476 0 -0.03732600922862709 0.087975095353972022 0 -0.037612875389769582 0.087031008384257633 0 -0.039869084727088965 0.087316110096676031 0 -0.037612875389769582 0.087031008384257633 0 -0.042358006182099409 0.084999967766249476 0 -0.039869084727088965 0.087316110096676031 0 -0.04236514481265425 0.084999975386931839 0 -0.04361198532949969 0.086385799700781835 0 -0.046190413126775832 0.084999916704251222 0 -0.04236514481265425 0.084999975386931839 0 -0.04361198532949969 0.086385799700781835 0 -0.043475617552639019 0.08928617931446664 0 -0.042364115002815422 0.08500191698932083 0 -0.042392407264040671 0.087477993906323825 0 -0.04361198532949969 0.086385799700781835 0 -0.046235869574001338 0.087788899865431494 0 -0.044898106163322148 0.088285056715404278 0 -0.04361198532949969 0.086385799700781835 0 -0.046190413126775832 0.084999916704251222 0 -0.046235869574001338 0.087788899865431494 0 -0.046190413126775832 0.084999916704251222 0 -0.046235869574001338 0.087788899865431494 0 -0.048398363148544551 0.086713778310227696 0 -0.046235869574001338 0.087788899865431494 0 -0.048672673597620904 0.089104562072064145 0 -0.048398363148544551 0.086713778310227696 0 -0.046235869574001338 0.087788899865431494 0 -0.045462870743359578 0.089129819335709154 0 -0.044898106163322148 0.088285056715404278 0 -0.046235869574001338 0.087788899865431494 0 -0.045462870743359578 0.089129819335709154 0 -0.046846711325647793 0.08969759648601601 0 -0.045462870743359578 0.089129819335709154 0 -0.046846711325647793 0.08969759648601601 0 -0.045906289010755996 0.090799849184339879 0 -0.046235869574001338 0.087788899865431494 0 -0.046846711325647793 0.08969759648601601 0 -0.048672673597620904 0.089104562072064145 0 -0.043339785534646715 0.088531553769580343 0 -0.043334469353138373 0.089582265774974412 0 -0.04361198532949969 0.086385799700781835 0 -0.043475617552639019 0.08928617931446664 0 -0.04404386239025769 0.089965654964494379 0 -0.04361198532949969 0.086385799700781835 0 -0.044898106163322148 0.088285056715404278 0 -0.044289315915444799 0.08982129014882155 0 -0.045462870743359578 0.089129819335709154 0 -0.044898106163322148 0.088285056715404278 0 -0.044289315915444799 0.08982129014882155 0 -0.045462870743359578 0.089129819335709154 0 -0.044289315915444799 0.08982129014882155 0 -0.045906289010755996 0.090799849184339879 0 -0.044289315915444799 0.08982129014882155 0 -0.045906289010755996 0.090799849184339879 0 -0.044704959945935367 0.093228201597214067 0 -0.037683437233523222 0.088344868394663129 0 -0.039869084727088965 0.087316110096676031 0 -0.038266826219688757 0.088300345230718544 0 -0.042392407264040671 0.087477993906323825 0 -0.042934727150747337 0.089947390552815518 0 -0.043334469353138373 0.089582265774974412 0 -0.042934727150747337 0.089947390552815518 0 -0.043475617552639019 0.08928617931446664 0 -0.04404386239025769 0.089965654964494379 0 -0.044443107726734404 0.093469449192541049 0 -0.046846711325647793 0.08969759648601601 0 -0.048216965164230505 0.092172388350489853 0 -0.048672673597620904 0.089104562072064145 0 -0.046846711325647793 0.08969759648601601 0 -0.045906289010755996 0.090799849184339879 0 -0.048216965164230505 0.092172388350489853 0 -0.045906289010755996 0.090799849184339879 0 -0.044704959945935367 0.093228201597214067 0 -0.048216965164230505 0.092172388350489853 0 -0.044386157197072229 0.090909543097157847 0 -0.043199746837167707 0.09007980318510532 0 -0.048216965164230505 0.092172388350489853 0 -0.046519343462587071 0.094723274081458878 0 -0.048411522535885078 0.094189944439845796 0 -0.044704959945935367 0.093228201597214067 0 -0.048216965164230505 0.092172388350489853 0 -0.045323810104956536 0.096026686010140833 0 -0.042934727150747337 0.089947390552815518 0 -0.0426305608357909 0.089628059452822803 0 -0.037683437233523222 0.088344868394663129 0 -0.038266826219688757 0.088300345230718544 0 -0.037578386831594597 0.08853571865065063 0 -0.038266826219688757 0.088300345230718544 0 -0.037728992804523444 0.08873405924900353 0 -0.037578386831594597 0.08853571865065063 0 -0.042934727150747337 0.089947390552815518 0 -0.043199746837167707 0.09007980318510532 0 -0.050954948656811327 0.092719460976876125 0 -0.052377536638180566 0.093322922259515551 0 -0.051249557801184363 0.094698208964553512 0 -0.050954948656811327 0.092719460976876125 0 -0.04972407396084258 0.093844945692492382 0 -0.051249557801184363 0.094698208964553512 0 -0.04972407396084258 0.093844945692492382 0 -0.048216965164230505 0.092172388350489853 0 -0.048411522535885078 0.094189944439845796 0 -0.050954948656811327 0.092719460976876125 0 -0.04972407396084258 0.093844945692492382 0 -0.048216965164230505 0.092172388350489853 0 -0.048216965164230505 0.092172388350489853 0 -0.050691949183726041 0.090420246723911968 0 -0.048672673597620904 0.089104562072064145 0 -0.050954948656811327 0.092719460976876125 0 -0.048216965164230505 0.092172388350489853 0 -0.050691949183726041 0.090420246723911968 0 -0.053229637791181159 0.090482031847373731 0 -0.054668349339125427 0.090822061476724933 0 -0.050954948656811327 0.092719460976876125 0 -0.050691949183726041 0.090420246723911968 0 -0.052994860837398405 0.09141362465495724 0 -0.050691949183726041 0.090420246723911968 0 -0.052143782178453175 0.087619675980974671 0 -0.054309812457624305 0.091741809310498051 0 -0.050691949183726041 0.090420246723911968 0 -0.052143782178453175 0.087619675980974671 0 -0.048672673597620904 0.089104562072064145 0 -0.052143782178453175 0.087619675980974671 0 -0.048672673597620904 0.089104562072064145 0 -0.048398363148544551 0.086713778310227696 0 -0.052143782178453175 0.087619675980974671 0 -0.050015846005403007 0.085000013565605062 0 -0.048398363148544551 0.086713778310227696 0 -0.046190413126775832 0.084999916704251222 0 -0.050015846005403007 0.085000013565605062 0 -0.048398363148544551 0.086713778310227696 0 -0.052143782178453175 0.087619675980974671 0 -0.050015846005403007 0.085000013565605062 0 -0.053840876420785527 0.084999682993289832 0 -0.052143782178453175 0.087619675980974671 0 -0.053840876420785527 0.084999682993289832 0 -0.055328932307842096 0.087118998114496832 0 -0.053845155117006265 0.085001425721734553 0 -0.057397655976347349 0.086384768491995015 0 -0.053840876420785527 0.084999682993289832 0 -0.055328932307842096 0.087118998114496832 0 -0.057424989511376819 0.086320984118340438 0 -0.053841302750570613 0.08499999233862196 0 -0.058402894427364543 0.08500000030423728 0 -0.057538681275470946 0.086511686772223345 0 -0.055328932307842096 0.087118998114496832 0 -0.057424989511376819 0.086320984118340438 0 -0.057008828162234119 0.088164672205817127 0 -0.055328932307842096 0.087118998114496832 0 -0.057008828162234119 0.088164672205817127 0 -0.055380262867850576 0.088903742134031072 0 -0.057008828162234119 0.088164672205817127 0 -0.057695999887858326 0.09007083026475339 0 -0.055380262867850576 0.088903742134031072 0 -0.052143782178453175 0.087619675980974671 0 -0.055328932307842096 0.087118998114496832 0 -0.055380262867850576 0.088903742134031072 0 -0.052143782178453175 0.087619675980974671 0 -0.055380262867850576 0.088903742134031072 0 -0.054309812457624305 0.091741809310498051 0 -0.06296473618722849 0.084999881852154013 0 -0.063629822289212518 0.087508371897808246 0 -0.061283069875512408 0.087983320846636612 0 -0.058402894427364543 0.08500000030423728 0 -0.057538681275470946 0.086511686772223345 0 -0.061283069875512408 0.087983320846636612 0 -0.057424989511376819 0.086320984118340438 0 -0.057008828162234119 0.088164672205817127 0 -0.061220167308414807 0.0877171040964147 0 -0.058402894427364543 0.08500000030423728 0 -0.06296473618722849 0.084999881852154013 0 -0.061283069875512408 0.087983320846636612 0 -0.057397655976347349 0.086384768491995015 0 -0.060623534395146908 0.08763828176294633 0 -0.057008828162234119 0.088164672205817127 0 -0.057695999887858326 0.09007083026475339 0 -0.061220167308414807 0.0877171040964147 0 -0.057695999887858326 0.09007083026475339 0 -0.061220167308414807 0.0877171040964147 0 -0.060867422146494349 0.091270164198768614 0 -0.060623534395146908 0.08763828176294633 0 -0.062337867801411019 0.088302900407622203 0 -0.061220167308414807 0.0877171040964147 0 -0.063558805649674241 0.090250514622186653 0 -0.065087970511452903 0.089188919828348312 0 -0.063629822289212518 0.087508371897808246 0 -0.061283069875512408 0.087983320846636612 0 -0.065087970511452903 0.089188919828348312 0 -0.061220167308414807 0.0877171040964147 0 -0.063558805649674241 0.090250514622186653 0 -0.060867422146494349 0.091270164198768614 0 -0.063451754700881158 0.092170005261442173 0 -0.060867422146494349 0.091270164198768614 0 -0.061504453878434381 0.094387243895788384 0 -0.063451754700881158 0.092170005261442173 0 -0.063558805649674241 0.090250514622186653 0 -0.060867422146494349 0.091270164198768614 0 -0.057695999887858326 0.09007083026475339 0 -0.060867422146494349 0.091270164198768614 0 -0.057874511076173321 0.093051356584996567 0 -0.056121079159567336 0.093656751343856467 0 -0.057763718534652481 0.093167427945035533 0 -0.055359375197073284 0.092296965944436524 0 -0.061978676617732362 0.091439344413305451 0 -0.057689033538237497 0.091273447745432598 0 -0.060867422146494349 0.091270164198768614 0 -0.061504453878434381 0.094387243895788384 0 -0.057874511076173321 0.093051356584996567 0 -0.06646019561133458 0.091310068874159336 0 -0.066169100284795612 0.090781509105703137 0 -0.065675047110381066 0.091006493339523847 0 -0.065299353816542116 0.09052776019430317 0 -0.065115815850017592 0.090900106306991413 0 -0.065600583881141192 0.090828461049651019 0 -0.061978676617732362 0.091439344413305451 0 -0.063129013805255541 0.091674651935719234 0 -0.065115815850017592 0.090900106306991413 0 -0.065675047110381066 0.091006493339523847 0 -0.065600583881141192 0.090828461049651019 0 -0.063090828249567688 0.090803034024368748 0 -0.061978676617732362 0.091439344413305451 0 -0.057695999887858326 0.09007083026475339 0 -0.054309812457624305 0.091741809310498051 0 -0.057874511076173321 0.093051356584996567 0 -0.054668349339125427 0.090822061476724933 0 -0.057689033538237497 0.091273447745432598 0 -0.057695999887858326 0.09007083026475339 0 -0.055380262867850576 0.088903742134031072 0 -0.054309812457624305 0.091741809310498051 0 -0.056121079159567336 0.093656751343856467 0 -0.055359375197073284 0.092296965944436524 0 -0.054697655247556397 0.09411629161868669 0 -0.055359375197073284 0.092296965944436524 0 -0.053645970391941196 0.093052783302652806 0 -0.054697655247556397 0.09411629161868669 0 -0.052994860837398405 0.09141362465495724 0 -0.055359375197073284 0.092296965944436524 0 -0.053645970391941196 0.093052783302652806 0 -0.052994860837398405 0.09141362465495724 0 -0.053645970391941196 0.093052783302652806 0 -0.052377536638180566 0.093322922259515551 0 -0.053645970391941196 0.093052783302652806 0 -0.052377536638180566 0.093322922259515551 0 -0.05304180704993143 0.094722259591754954 0 -0.050954948656811327 0.092719460976876125 0 -0.052994860837398405 0.09141362465495724 0 -0.052377536638180566 0.093322922259515551 0 -0.052377536638180566 0.093322922259515551 0 -0.05304180704993143 0.094722259591754954 0 -0.051249557801184363 0.094698208964553512 0 -0.05304180704993143 0.094722259591754954 0 -0.052189186018217565 0.096013694113149931 0 -0.05313896734364227 0.096212670682973539 0 -0.05304180704993143 0.094722259591754954 0 -0.052189186018217565 0.096013694113149931 0 -0.051249557801184363 0.094698208964553512 0 -0.05304180704993143 0.094722259591754954 0 -0.054026310679119359 0.095851676446394349 0 -0.05313896734364227 0.096212670682973539 0 -0.053645970391941196 0.093052783302652806 0 -0.05304180704993143 0.094722259591754954 0 -0.054697655247556397 0.09411629161868669 0 -0.054697655247556397 0.09411629161868669 0 -0.054026310679119359 0.095851676446394349 0 -0.055873960656529775 0.095330786211260468 0 -0.056121079159567336 0.093656751343856467 0 -0.054697655247556397 0.09411629161868669 0 -0.055873960656529775 0.095330786211260468 0 -0.05304180704993143 0.094722259591754954 0 -0.054697655247556397 0.09411629161868669 0 -0.054026310679119359 0.095851676446394349 0 -0.067806577857017519 0.089407638733780506 0 -0.067317231589453436 0.090212677673991173 0 -0.067299354870869937 0.089575421360495788 0 -0.054026310679119359 0.095851676446394349 0 -0.053966336863723569 0.097479223650324562 0 -0.055873960656529775 0.095330786211260468 0 -0.062112083809573476 0.087496334601934039 0 -0.061222761585905394 0.09100475866548928 0 -0.054026310679119359 0.095851676446394349 0 -0.053966336863723569 0.097479223650324562 0 -0.053430249567284892 0.09727712482763716 0 -0.062112083809573476 0.087496334601934039 0 -0.061917872693798566 0.08754546580659818 0 -0.0539512410303171 0.097468808677219423 0 -0.053430249567284892 0.09727712482763716 0 -0.052794323889644765 0.09753257007320848 0 -0.053430249567284892 0.09727712482763716 0 -0.052690614859529333 0.096836737708281342 0 -0.05313896734364227 0.096212670682973539 0 -0.053430249567284892 0.09727712482763716 0 -0.052690614859529333 0.096836737708281342 0 -0.052794323889644765 0.09753257007320848 0 -0.052690614859529333 0.096836737708281342 0 -0.052189186018217565 0.096013694113149931 0 -0.051901717916800962 0.097145836589559054 0 -0.052690614859529333 0.096836737708281342 0 -0.052794323889644765 0.09753257007320848 0 -0.051901717916800962 0.097145836589559054 0 -0.052690614859529333 0.096836737708281342 0 -0.052189186018217565 0.096013694113149931 0 -0.05313896734364227 0.096212670682973539 0 -0.054026310679119359 0.095851676446394349 0 -0.053430249567284892 0.09727712482763716 0 -0.05313896734364227 0.096212670682973539 0 -0.06646019561133458 0.091310068874159336 0 -0.066169100284795612 0.090781509105703137 0 -0.066598321612795441 0.090404538225871425 0 -0.065926845833636255 0.090327922614671499 0 -0.066169100284795612 0.090781509105703137 0 -0.065675047110381066 0.091006493339523847 0 -0.065926845833636255 0.090327922614671499 0 -0.066169100284795612 0.090781509105703137 0 -0.066598321612795441 0.090404538225871425 0 -0.061978676617732362 0.091439344413305451 0 -0.061222761585905394 0.09100475866548928 0 -0.056121079159567336 0.093656751343856467 0 -0.057763718534652481 0.093167427945035533 0 -0.055873960656529775 0.095330786211260468 0 -0.06646019561133458 0.091310068874159336 0 -0.066598321612795441 0.090404538225871425 0 -0.067317231589453436 0.090212677673991173 0 -0.066598321612795441 0.090404538225871425 0 -0.067317231589453436 0.090212677673991173 0 -0.066918468419382343 0.089456560574668137 0 -0.067317231589453436 0.090212677673991173 0 -0.067299354870869937 0.089575421360495788 0 -0.066918468419382343 0.089456560574668137 0 -0.067299354870869937 0.089575421360495788 0 -0.066918468419382343 0.089456560574668137 0 -0.067205532253322556 0.089304719763219839 0 -0.065926845833636255 0.090327922614671499 0 -0.066598321612795441 0.090404538225871425 0 -0.066918468419382343 0.089456560574668137 0 -0.067156161282538762 0.089030901872231491 0 -0.066918468419382343 0.089456560574668137 0 -0.067153596980922547 0.089380488374355582 0 -0.067277354078767851 0.089910148573928733 0 -0.067194322074457455 0.089864835005711033 0 -0.067187270452842882 0.089497731885486084 0 -0.066993460780644526 0.089518802078298432 0 -0.067390714835237286 0.089687404215413949 0 -0.066918468419382343 0.089456560574668137 0 -0.067153596980922547 0.089380488374355582 0 -0.067015140232068227 0.089438192030893329 0 -0.067153596980922547 0.089380488374355582 0 -0.067187270452842882 0.089497731885486084 0 -0.067015140232068227 0.089438192030893329 0 -0.070538875198823278 0.082814641833131072 0 -0.071363669799505605 0.082384744051634304 0 -0.069395802154710459 0.081670003431898633 0 -0.067233035805581765 0.080841419563845066 0 -0.06602515394932422 0.082223200329812049 0 -0.071363669799505605 0.082384744051634304 0 -0.07118624118405685 0.078838969457253841 0 -0.071363669799505605 0.082384744051634304 0 -0.066939660629950146 0.085012544252756922 0 -0.066918468419382343 0.089456560574668137 0 -0.067015140232068227 0.089438192030893329 0 -0.067205532253322556 0.089304719763219839 0 -0.08393025517353786 0.062735077007070303 0 -0.080921070134779116 0.063098154143374358 0 -0.082475860823481892 0.064993652542714705 0 -0.071363669799505605 0.082384744051634304 0 -0.074085809943703118 0.08068243766586998 0 -0.08393025517353786 0.062735077007070303 0 -0.08638672832723604 0.063852766519620768 0 -0.085319649017882526 0.06565444916108254 0 -0.08393025517353786 0.062735077007070303 0 -0.085319649017882526 0.06565444916108254 0 -0.082475860823481892 0.064993652542714705 0 -0.0539512410303171 0.097468808677219423 0 -0.052794323889644765 0.09753257007320848 0 -0.051958325491515772 0.09837650263545844 0 -0.065076957736898283 0.080026192806933238 0 -0.06602515394932422 0.082223200329812049 0 -0.062669092201980761 0.082775937508350272 0 -0.062112083809573476 0.087496334601934039 0 -0.061266551704700224 0.080252387087790242 0 -0.0539512410303171 0.097468808677219423 0 -0.051856348190310098 0.099799709445568055 0 -0.051958325491515772 0.09837650263545844 0 -0.052794323889644765 0.09753257007320848 0 -0.051958325491515772 0.09837650263545844 0 -0.051901717916800962 0.097145836589559054 0 -0.065076957736898283 0.080026192806933238 0 -0.067233035805581765 0.080841419563845066 0 -0.06602515394932422 0.082223200329812049 0 -0.062112083809573476 0.087496334601934039 0 -0.066939660629950146 0.085012544252756922 0 -0.067806577857017519 0.089407638733780506 0 -0.067299354870869937 0.089575421360495788 0 -0.067205532253322556 0.089304719763219839 0 -0.080921070134779116 0.063098154143374358 0 -0.079852093062789717 0.065437587789739307 0 -0.082475860823481892 0.064993652542714705 0 -0.080921070134779116 0.063098154143374358 0 -0.077867148512103398 0.063562538945621166 0 -0.079852093062789717 0.065437587789739307 0 -0.07118624118405685 0.078838969457253841 0 -0.061266551704700224 0.080252387087790242 0 -0.056153336163399639 0.078101234075544576 0 -0.053372819919861994 0.078561667580095307 0 -0.054163173442589509 0.080352372466574673 0 -0.061266551704700224 0.080252387087790242 0 -0.052844059461601839 0.082563326987467586 0 -0.061266551704700224 0.080252387087790242 0 -0.059917253497160095 0.074656494069753263 0 -0.051856348190310098 0.099799709445568055 0 -0.049781827668753297 0.098646208242852959 0 -0.049834083000582313 0.10012159365833057 0 -0.051958325491515772 0.09837650263545844 0 -0.050757262424868471 0.097539093012788639 0 -0.049781827668753297 0.098646208242852959 0 -0.051856348190310098 0.099799709445568055 0 -0.051958325491515772 0.09837650263545844 0 -0.049781827668753297 0.098646208242852959 0 -0.051958325491515772 0.09837650263545844 0 -0.050757262424868471 0.097539093012788639 0 -0.051901717916800962 0.097145836589559054 0 -0.049781827668753297 0.098646208242852959 0 -0.047176763861719463 0.097571970696484642 0 -0.049337104944975313 0.096869424965565082 0 -0.050757262424868471 0.097539093012788639 0 -0.049781827668753297 0.098646208242852959 0 -0.049337104944975313 0.096869424965565082 0 -0.052844059461601839 0.082563326987467586 0 -0.046973561996389267 0.082696355240142586 0 -0.049781827668753297 0.098646208242852959 0 -0.049834083000582313 0.10012159365833057 0 -0.047840193778524817 0.10043953770663448 0 -0.053372819919861994 0.078561667580095307 0 -0.051865412628122602 0.079269506190570355 0 -0.050590342203489382 0.079036264581914081 0 -0.052909114412928032 0.079697978232075403 0 -0.053372819919861994 0.078561667580095307 0 -0.054163173442589509 0.080352372466574673 0 -0.052909114412928032 0.079697978232075403 0 -0.053372819919861994 0.078561667580095307 0 -0.051865412628122602 0.079269506190570355 0 -0.051865412628122602 0.079269506190570355 0 -0.050590342203489382 0.079036264581914081 0 -0.050661661197189324 0.079363301236862846 0 -0.047328705846827898 0.080838624974632789 0 -0.049406160238193268 0.080685724171277867 0 -0.047045720021609123 0.079549667053749051 0 -0.051865412628122602 0.079269506190570355 0 -0.050681597264101659 0.079355386599739342 0 -0.050845414982496777 0.080079938430466124 0 -0.038115997228165548 0.088305277498530357 0 -0.037638272019836175 0.087898322900146902 0 -0.037799363499348114 0.08746828521012355 0 -0.046973561996389267 0.082696355240142586 0 -0.044336770696542231 0.085327803090109067 0 -0.04697623011788872 0.08091751146980819 0 -0.046541278420182235 0.080979674273904553 0 -0.046541278420182235 0.080979674273904553 0 -0.047525275380157196 0.078531382181983578 0 -0.038115997228165548 0.088305277498530357 0 -0.038140520011890271 0.088406736837659275 0 -0.037753381663055377 0.08844133395938461 0 -0.046973561996389267 0.082696355240142586 0 -0.046541278420182235 0.080979674273904553 0 -0.038115997228165548 0.088305277498530357 0 -0.037683306354934505 0.08836447048016921 0 -0.037552258400591329 0.088143658156030161 0 -0.038115997228165548 0.088305277498530357 0 -0.037753381663055377 0.08844133395938461 0 -0.037683306354934505 0.08836447048016921 0 -0.046541278420182235 0.080979674273904553 0 -0.041071838123145792 0.079462450997203712 0 -0.041071838123145792 0.079462450997203712 0 -0.041081576701582648 0.079496506123460986 0 -0.038115997228165548 0.088305277498530357 0 -0.037638272019836175 0.087898322900146902 0 -0.037552258400591329 0.088143658156030161 0 -0.036278110019287699 0.088551784748667803 0 -0.037754807569596774 0.088446900839811812 0 -0.037255553520390616 0.088234121125153761 0 -0.028561789835172494 0.084013459471691421 0 -0.041071838123145792 0.079462450997203712 0 -0.036278110019287699 0.088551784748667803 0 -0.037255553520390616 0.088234121125153761 0 -0.036869186850657279 0.087932175177392075 0 -0.037683306354934505 0.08836447048016921 0 -0.037255553520390616 0.088234121125153761 0 -0.037552258400591329 0.088143658156030161 0 -0.037754807569596774 0.088446900839811812 0 -0.037683306354934505 0.08836447048016921 0 -0.037255553520390616 0.088234121125153761 0 -0.037255553520390616 0.088234121125153761 0 -0.037397702034275497 0.087971646853117924 0 -0.037552258400591329 0.088143658156030161 0 -0.037638272019836175 0.087898322900146902 0 -0.037397702034275497 0.087971646853117924 0 -0.037552258400591329 0.088143658156030161 0 -0.037638272019836175 0.087898322900146902 0 -0.037451781711815207 0.087810687950731589 0 -0.037527823156363431 0.087641052047395848 0 -0.037638272019836175 0.087898322900146902 0 -0.037397702034275497 0.087971646853117924 0 -0.037451781711815207 0.087810687950731589 0 -0.037397702034275497 0.087971646853117924 0 -0.037451781711815207 0.087810687950731589 0 -0.03724328309449907 0.087731667614381628 0 -0.037397702034275497 0.087971646853117924 0 -0.036869186850657279 0.087932175177392075 0 -0.03724328309449907 0.087731667614381628 0 -0.037255553520390616 0.088234121125153761 0 -0.037397702034275497 0.087971646853117924 0 -0.036869186850657279 0.087932175177392075 0 -0.037407897391799491 0.087136104191819302 0 -0.03761649166159596 0.087436561998254031 0 -0.037533047722353462 0.086624130671994454 0 -0.041918843546283641 0.0870251439202884 0 -0.04241792236950858 0.087125837223094499 0 -0.036869186850657279 0.087932175177392075 0 -0.036867429954655702 0.087481624376183856 0 -0.03724328309449907 0.087731667614381628 0 -0.036867429954655702 0.087481624376183856 0 -0.037309210119411025 0.087442453750842059 0 -0.03724328309449907 0.087731667614381628 0 -0.037309210119411025 0.087442453750842059 0 -0.03724328309449907 0.087731667614381628 0 -0.037527823156363431 0.087641052047395848 0 -0.037451781711815207 0.087810687950731589 0 -0.03724328309449907 0.087731667614381628 0 -0.037527823156363431 0.087641052047395848 0 -0.037309210119411025 0.087442453750842059 0 -0.037527823156363431 0.087641052047395848 0 -0.03761649166159596 0.087436561998254031 0 -0.037309210119411025 0.087442453750842059 0 -0.037407897391799491 0.087136104191819302 0 -0.03761649166159596 0.087436561998254031 0 -0.037407897391799491 0.087136104191819302 0 -0.037154978119577693 0.087166655736541046 0 -0.0372627830461085 0.086796403474831474 0 -0.037309210119411025 0.087442453750842059 0 -0.037407897391799491 0.087136104191819302 0 -0.037154978119577693 0.087166655736541046 0 -0.036867429954655702 0.087481624376183856 0 -0.037309210119411025 0.087442453750842059 0 -0.037154978119577693 0.087166655736541046 0 -0.036776423152603904 0.086750559897434285 0 -0.036867429954655702 0.087481624376183856 0 -0.037154978119577693 0.087166655736541046 0 -0.044750877271052474 0.087284863061276363 0 -0.044805761707806924 0.086396719513685688 0 -0.04532123861047703 0.088126662682675203 0 -0.044234563407611956 0.084673693692751253 0 -0.044750877271052474 0.087284863061276363 0 -0.044805761707806924 0.086396719513685688 0 -0.03761649166159596 0.087436561998254031 0 -0.037799363499348114 0.08746828521012355 0 -0.037565941872647841 0.086634186085425224 0 -0.046973561996389267 0.082696355240142586 0 -0.045824031055852865 0.090200426102798062 0 -0.044336770696542231 0.085327803090109067 0 -0.04241792236950858 0.087125837223094499 0 -0.049781827668753297 0.098646208242852959 0 -0.047840193778524817 0.10043953770663448 0 -0.047176763861719463 0.097571970696484642 0 -0.037638272019836175 0.087898322900146902 0 -0.037527823156363431 0.087641052047395848 0 -0.037799363499348114 0.08746828521012355 0 -0.037527823156363431 0.087641052047395848 0 -0.03761649166159596 0.087436561998254031 0 -0.037799363499348114 0.08746828521012355 0 -0.044750877271052474 0.087284863061276363 0 -0.04532123861047703 0.088126662682675203 0 -0.045283818007392118 0.08988393591819574 0 -0.045824031055852865 0.090200426102798062 0 -0.043199746837167707 0.09007980318510532 0 -0.047176763861719463 0.097571970696484642 0 -0.048228024309738368 0.0957411754878323 0 -0.049337104944975313 0.096869424965565082 0 -0.047176763861719463 0.097571970696484642 0 -0.048228024309738368 0.0957411754878323 0 -0.046519343462587071 0.094723274081458878 0 -0.036776423152603904 0.086750559897434285 0 -0.03744029710912599 0.086307890154585301 0 -0.037469258594586108 0.085873568143054815 0 -0.039603259597889413 0.089279248097397637 0 -0.0426305608357909 0.089628059452822803 0 -0.036776423152603904 0.086750559897434285 0 -0.037154978119577693 0.087166655736541046 0 -0.0372627830461085 0.086796403474831474 0 -0.036776423152603904 0.086750559897434285 0 -0.0372627830461085 0.086796403474831474 0 -0.03744029710912599 0.086307890154585301 0 -0.037407897391799491 0.087136104191819302 0 -0.0372627830461085 0.086796403474831474 0 -0.037533047722353462 0.086624130671994454 0 -0.037541635115353522 0.086628209650240429 0 -0.03744029710912599 0.086307890154585301 0 -0.037469258594586108 0.085873568143054815 0 -0.0372627830461085 0.086796403474831474 0 -0.037533047722353462 0.086624130671994454 0 -0.03744029710912599 0.086307890154585301 0 -0.04241792236950858 0.087125837223094499 0 -0.0426305608357909 0.089628059452822803 0 -0.04241792236950858 0.087125837223094499 0 -0.042295877233682506 0.087006758725811734 0 -0.037122909110065203 0.088716695500281245 0 -0.036781564287544102 0.088950279808389168 0 -0.037728992804523444 0.08873405924900353 0 -0.042619062999887443 0.090005461986137139 0 -0.042605731057250372 0.089875599166937034 0 -0.042594108333562405 0.089891060014664986 0 -0.04532123861047703 0.088126662682675203 0 -0.04546030003529198 0.089652910667492425 0 -0.045283818007392118 0.08988393591819574 0 -0.0426305608357909 0.089628059452822803 0 -0.043199746837167707 0.09007980318510532 0 -0.037122909110065203 0.088716695500281245 0 -0.037728992804523444 0.08873405924900353 0 -0.037578386831594597 0.08853571865065063 0 -0.048228024309738368 0.0957411754878323 0 -0.046519343462587071 0.094723274081458878 0 -0.048411522535885078 0.094189944439845796 0 -0.048228024309738368 0.0957411754878323 0 -0.048411522535885078 0.094189944439845796 0 -0.049746998147315945 0.095373083445216028 0 -0.04972407396084258 0.093844945692492382 0 -0.048411522535885078 0.094189944439845796 0 -0.049746998147315945 0.095373083445216028 0 -0.04972407396084258 0.093844945692492382 0 -0.049746998147315945 0.095373083445216028 0 -0.051249557801184363 0.094698208964553512 0 -0.052189186018217565 0.096013694113149931 0 -0.051249557801184363 0.094698208964553512 0 -0.050861055060548076 0.096277517652904293 0 -0.049746998147315945 0.095373083445216028 0 -0.051249557801184363 0.094698208964553512 0 -0.050861055060548076 0.096277517652904293 0 -0.052189186018217565 0.096013694113149931 0 -0.050861055060548076 0.096277517652904293 0 -0.051901717916800962 0.097145836589559054 0 -0.050757262424868471 0.097539093012788639 0 -0.050861055060548076 0.096277517652904293 0 -0.051901717916800962 0.097145836589559054 0 -0.050757262424868471 0.097539093012788639 0 -0.050861055060548076 0.096277517652904293 0 -0.049337104944975313 0.096869424965565082 0 -0.048228024309738368 0.0957411754878323 0 -0.049746998147315945 0.095373083445216028 0 -0.049337104944975313 0.096869424965565082 0 -0.049746998147315945 0.095373083445216028 0 -0.050861055060548076 0.096277517652904293 0 -0.049337104944975313 0.096869424965565082 0 -0.084986928275216769 0.084995473154014262 0 -0.082947819871776532 0.081862037774797308 0 -0.085245090360332426 0.074808722252651796 0 -0.084986928275216769 0.084995473154014262 0 -0.084998680174306909 0.070985339118508073 0 -0.085245090360332426 0.074808722252651796 0 -0.082947819871776532 0.081862037774797308 0 -0.084566010958543214 0.077914529400029159 0 -0.085245090360332426 0.074808722252651796 0 -0.085044634275086795 0.074877702736023274 0 -0.084890042219606623 0.07295684299634074 0 -0.084986928275216769 0.084995473154014262 0 -0.082947819871776532 0.081862037774797308 0 -0.075923190364470483 0.08499382692680324 0 -0.082947819871776532 0.081862037774797308 0 -0.081016055150872041 0.081938445185650452 0 -0.083188834680913412 0.078902500774817114 0 -0.082947819871776532 0.081862037774797308 0 -0.075923190364470483 0.08499382692680324 0 -0.081016055150872041 0.081938445185650452 0 -0.075894509787076667 0.084998008468506428 0 -0.077426436521786476 0.083626799523239911 0 -0.075923190364470483 0.08499382692680324 0 -0.081016055150872041 0.081938445185650452 0 -0.085437604110784965 0.081702671208286309 0 -0.081016055150872041 0.081938445185650452 0 -0.083188834680913412 0.078902500774817114 0 -0.085437604110784965 0.081702671208286309 0 -0.083188834680913412 0.078902500774817114 0 -0.084883827195078809 0.074458939290605555 0 -0.086357233787233742 0.077161898292344169 0 -0.085210970932001681 0.075848790256626872 0 -0.085044634275086795 0.074877702736023274 0 -0.082947819871776532 0.081862037774797308 0 -0.083188834680913412 0.078902500774817114 0 -0.084566010958543214 0.077914529400029159 0 -0.083524659812715271 0.074246258007874599 0 -0.084883827195078809 0.074458939290605555 0 -0.084672955638066108 0.072365702759762757 0 -0.083188834680913412 0.078902500774817114 0 -0.083524659812715271 0.074246258007874599 0 -0.084883827195078809 0.074458939290605555 0 -0.084883827195078809 0.074458939290605555 0 -0.088733166720044707 0.074028362327958092 0 -0.086357233787233742 0.077161898292344169 0 -0.084883827195078809 0.074458939290605555 0 -0.088733166720044707 0.074028362327958092 0 -0.085659036397117763 0.072155814358127998 0 -0.088733166720044707 0.074028362327958092 0 -0.089829671827465457 0.076869177954870721 0 -0.086357233787233742 0.077161898292344169 0 -0.076781408581165028 0.083195935668276336 0 -0.072391912467304462 0.084428421879489207 0 -0.088733166720044707 0.074028362327958092 0 -0.089829671827465457 0.076869177954870721 0 -0.092060699348204961 0.072527227259792229 0 -0.070671051945732102 0.091890688855098879 0 -0.069967677012515106 0.090746338107504834 0 -0.073229229502713281 0.088567084591875109 0 -0.070671051945732102 0.091890688855098879 0 -0.069967677012515106 0.090746338107504834 0 -0.068394913381132919 0.092362366553396649 0 -0.083188834680913412 0.078902500774817114 0 -0.086357233787233742 0.077161898292344169 0 -0.085437604110784965 0.081702671208286309 0 -0.089829671827465457 0.076869177954870721 0 -0.086357233787233742 0.077161898292344169 0 -0.085437604110784965 0.081702671208286309 0 -0.076781408581165028 0.083195935668276336 0 -0.077426436521786476 0.083626799523239911 0 -0.075891436953627864 0.084999988129911622 0 -0.073229229502713281 0.088567084591875109 0 -0.071708748934048175 0.084999955654938147 0 -0.071708748934048175 0.084999955654938147 0 -0.070065092380989652 0.087651343407826057 0 -0.067526370812786091 0.084999981797812957 0 -0.073229229502713281 0.088567084591875109 0 -0.071708748934048175 0.084999955654938147 0 -0.070065092380989652 0.087651343407826057 0 -0.069967677012515106 0.090746338107504834 0 -0.073229229502713281 0.088567084591875109 0 -0.070065092380989652 0.087651343407826057 0 -0.069967677012515106 0.090746338107504834 0 -0.070065092380989652 0.087651343407826057 0 -0.067866604713705828 0.088824909767296109 0 -0.067195907073962169 0.088816269854003205 0 -0.065518312790527861 0.08827856644596814 0 -0.066037589885258027 0.089741876447843483 0 -0.067195907073962169 0.088816269854003205 0 -0.067525626726503488 0.085000213223843948 0 -0.065822955431711239 0.087037376406821673 0 -0.070065092380989652 0.087651343407826057 0 -0.067866604713705828 0.088824909767296109 0 -0.067526370812786091 0.084999981797812957 0 -0.068311602057540999 0.087817489103035384 0 -0.067527509325270005 0.08500311062703729 0 -0.06296473618722849 0.084999881852154013 0 -0.067525626726503488 0.085000213223843948 0 -0.065822955431711239 0.087037376406821673 0 -0.06296473618722849 0.084999881852154013 0 -0.063629822289212518 0.087508371897808246 0 -0.065822955431711239 0.087037376406821673 0 -0.063629822289212518 0.087508371897808246 0 -0.065518312790527861 0.08827856644596814 0 -0.065087970511452903 0.089188919828348312 0 -0.063629822289212518 0.087508371897808246 0 -0.065822955431711239 0.087037376406821673 0 -0.065518312790527861 0.08827856644596814 0 -0.067195907073962169 0.088816269854003205 0 -0.065822955431711239 0.087037376406821673 0 -0.065518312790527861 0.08827856644596814 0 -0.065518312790527861 0.08827856644596814 0 -0.065087970511452903 0.089188919828348312 0 -0.066037589885258027 0.089741876447843483 0 -0.065433233309498434 0.089747945500207219 0 -0.065087970511452903 0.089188919828348312 0 -0.066037589885258027 0.089741876447843483 0 -0.063558805649674241 0.090250514622186653 0 -0.065433233309498434 0.089747945500207219 0 -0.065087970511452903 0.089188919828348312 0 -0.063451754700881158 0.092170005261442173 0 -0.063558805649674241 0.090250514622186653 0 -0.065433233309498434 0.089747945500207219 0 -0.063090828249567688 0.090803034024368748 0 -0.063594125890134759 0.090407918204716442 0 -0.065299353816542116 0.09052776019430317 0 -0.065803784607139967 0.090544850732959481 0 -0.065600583881141192 0.090828461049651019 0 -0.065299353816542116 0.09052776019430317 0 -0.065433233309498434 0.089747945500207219 0 -0.065803784607139967 0.090544850732959481 0 -0.065433233309498434 0.089747945500207219 0 -0.065803784607139967 0.090544850732959481 0 -0.066037589885258027 0.089741876447843483 0 -0.069967677012515106 0.090746338107504834 0 -0.067866604713705828 0.088824909767296109 0 -0.068101767759884677 0.092571893589066243 0 -0.068311602057540999 0.087817489103035384 0 -0.069416485596284508 0.089081702473341157 0 -0.067195907073962169 0.088816269854003205 0 -0.066037589885258027 0.089741876447843483 0 -0.066658255625948237 0.09079126638774318 0 -0.069160392554267119 0.089549253388261738 0 -0.069416485596284508 0.089081702473341157 0 -0.065803784607139967 0.090544850732959481 0 -0.066037589885258027 0.089741876447843483 0 -0.066658255625948237 0.09079126638774318 0 -0.070671051945732102 0.091890688855098879 0 -0.068394913381132919 0.092362366553396649 0 -0.068522104611181855 0.094792263614005529 0 -0.069416485596284508 0.089081702473341157 0 -0.072391912467304462 0.084428421879489207 0 -0.067773553446500545 0.088404021196522797 0 -0.067453753151417856 0.088709675791178833 0 -0.067783502522365188 0.088788898550293621 0 -0.069416485596284508 0.089081702473341157 0 -0.067820485783034026 0.089814021642296474 0 -0.065803784607139967 0.090544850732959481 0 -0.065620576295212771 0.091122911779796034 0 -0.065600583881141192 0.090828461049651019 0 -0.065803784607139967 0.090544850732959481 0 -0.066658255625948237 0.09079126638774318 0 -0.065620576295212771 0.091122911779796034 0 -0.065620576295212771 0.091122911779796034 0 -0.065675047110381066 0.091006493339523847 0 -0.065600583881141192 0.090828461049651019 0 -0.067450578531692451 0.088946450329330892 0 -0.067783502522365188 0.088788898550293621 0 -0.067412863358002117 0.089249087382780271 0 -0.067156161282538762 0.089030901872231491 0 -0.067453753151417856 0.088709675791178833 0 -0.067450578531692451 0.088946450329330892 0 -0.065926845833636255 0.090327922614671499 0 -0.065620576295212771 0.091122911779796034 0 -0.065675047110381066 0.091006493339523847 0 -0.067277354078767851 0.089910148573928733 0 -0.067820485783034026 0.089814021642296474 0 -0.067453753151417856 0.088709675791178833 0 -0.067450578531692451 0.088946450329330892 0 -0.067783502522365188 0.088788898550293621 0 -0.072391912467304462 0.084428421879489207 0 -0.069417839358300842 0.088022828951083446 0 -0.072391912467304462 0.084428421879489207 0 -0.074716689852256712 0.080319288881787132 0 -0.067778555790352565 0.088721448025597074 0 -0.067771067977005092 0.089321846323367204 0 -0.067412863358002117 0.089249087382780271 0 -0.067156161282538762 0.089030901872231491 0 -0.067450578531692451 0.088946450329330892 0 -0.067412863358002117 0.089249087382780271 0 -0.067156161282538762 0.089030901872231491 0 -0.067153596980922547 0.089380488374355582 0 -0.067412863358002117 0.089249087382780271 0 -0.067153596980922547 0.089380488374355582 0 -0.067187270452842882 0.089497731885486084 0 -0.067425850183092037 0.089467770324066775 0 -0.067771067977005092 0.089321846323367204 0 -0.067412863358002117 0.089249087382780271 0 -0.067425850183092037 0.089467770324066775 0 -0.067153596980922547 0.089380488374355582 0 -0.067412863358002117 0.089249087382780271 0 -0.067425850183092037 0.089467770324066775 0 -0.067187270452842882 0.089497731885486084 0 -0.067425850183092037 0.089467770324066775 0 -0.067390714835237286 0.089687404215413949 0 -0.067425850183092037 0.089467770324066775 0 -0.067390714835237286 0.089687404215413949 0 -0.067789557172775822 0.089820316799683483 0 -0.074085809943703118 0.08068243766586998 0 -0.073731361544342969 0.07997219319660312 0 -0.08638672832723604 0.063852766519620768 0 -0.08867819619462454 0.065277945973671925 0 -0.087835235156418306 0.066029047768177279 0 -0.073731361544342969 0.07997219319660312 0 -0.074072364217988587 0.079932676607412989 0 -0.088738221996408684 0.065479953387184583 0 -0.088733066448779471 0.065686716589282018 0 -0.089280066715894904 0.066006708638822617 0 -0.073731361544342969 0.07997219319660312 0 -0.073776227060578459 0.079783630260231678 0 -0.067771067977005092 0.089321846323367204 0 -0.067425850183092037 0.089467770324066775 0 -0.067789557172775822 0.089820316799683483 0 -0.074716689852256712 0.080319288881787132 0 -0.073731361544342969 0.07997219319660312 0 -0.090993714019786592 0.068695130014293532 0 -0.089038255906737918 0.066867299347628487 0 -0.088574988701250065 0.068601713498352396 0 -0.090993714019786592 0.068695130014293532 0 -0.089801371726591167 0.06621857545409747 0 -0.089038255906737918 0.066867299347628487 0 -0.089038255906737918 0.066867299347628487 0 -0.088696229844607261 0.066297099090975378 0 -0.088955649843071985 0.066269325948921834 0 -0.089038255906737918 0.066867299347628487 0 -0.089280066715894904 0.066006708638822617 0 -0.088955649843071985 0.066269325948921834 0 -0.089801371726591167 0.06621857545409747 0 -0.089038255906737918 0.066867299347628487 0 -0.089280066715894904 0.066006708638822617 0 -0.089038255906737918 0.066867299347628487 0 -0.088071299544142986 0.067202740431039715 0 -0.088696229844607261 0.066297099090975378 0 -0.089038255906737918 0.066867299347628487 0 -0.088574988701250065 0.068601713498352396 0 -0.088071299544142986 0.067202740431039715 0 -0.088574988701250065 0.068601713498352396 0 -0.089373594976049076 0.070713698514410561 0 -0.087108965575243683 0.07059756767075312 0 -0.092060699348204961 0.072527227259792229 0 -0.090993714019786592 0.068695130014293532 0 -0.089373594976049076 0.070713698514410561 0 -0.090993714019786592 0.068695130014293532 0 -0.088574988701250065 0.068601713498352396 0 -0.089373594976049076 0.070713698514410561 0 -0.088733166720044707 0.074028362327958092 0 -0.092060699348204961 0.072527227259792229 0 -0.089373594976049076 0.070713698514410561 0 -0.088152984550833619 0.072403347731777673 0 -0.087105751008888788 0.071288391333426335 0 -0.088733166720044707 0.074028362327958092 0 -0.089373594976049076 0.070713698514410561 0 -0.087108965575243683 0.07059756767075312 0 -0.084883827195078809 0.074458939290605555 0 -0.085659036397117763 0.072155814358127998 0 -0.084672955638066108 0.072365702759762757 0 -0.085659036397117763 0.072155814358127998 0 -0.084672955638066108 0.072365702759762757 0 -0.08559826007078869 0.070602060137753803 0 -0.087105751008888788 0.071288391333426335 0 -0.085937103781607474 0.069732327656653992 0 -0.087108965575243683 0.07059756767075312 0 -0.08655970059086375 0.068595180000739511 0 -0.087414355582755829 0.068351522600360287 0 -0.088574988701250065 0.068601713498352396 0 -0.087108965575243683 0.07059756767075312 0 -0.087414355582755829 0.068351522600360287 0 -0.088574988701250065 0.068601713498352396 0 -0.087414355582755829 0.068351522600360287 0 -0.088071299544142986 0.067202740431039715 0 -0.087414355582755829 0.068351522600360287 0 -0.088071299544142986 0.067202740431039715 0 -0.087086310369955178 0.067185379319826197 0 -0.088071299544142986 0.067202740431039715 0 -0.087760635285174624 0.066375897346120996 0 -0.088696229844607261 0.066297099090975378 0 -0.088071299544142986 0.067202740431039715 0 -0.087086310369955178 0.067185379319826197 0 -0.087760635285174624 0.066375897346120996 0 -0.087086310369955178 0.067185379319826197 0 -0.086656271296897319 0.065385002427570157 0 -0.087760635285174624 0.066375897346120996 0 -0.08655970059086375 0.068595180000739511 0 -0.087414355582755829 0.068351522600360287 0 -0.087086310369955178 0.067185379319826197 0 -0.085937103781607474 0.069732327656653992 0 -0.085382432607068862 0.068884528293863101 0 -0.08655970059086375 0.068595180000739511 0 -0.087086310369955178 0.067185379319826197 0 -0.085961997384836536 0.067350329510468959 0 -0.087086310369955178 0.067185379319826197 0 -0.085961997384836536 0.067350329510468959 0 -0.086656271296897319 0.065385002427570157 0 -0.084999139864476783 0.063932492339142666 0 -0.085961997384836536 0.067350329510468959 0 -0.086656271296897319 0.065385002427570157 0 -0.084999139864476783 0.063932492339142666 0 -0.084999203678298205 0.067450501672146862 0 -0.085961997384836536 0.067350329510468959 0 -0.084999203678298205 0.067450501672146862 0 -0.085961997384836536 0.067350329510468959 0 -0.084997556296431478 0.070971386201314102 0 -0.08559826007078869 0.070602060137753803 0 -0.084997556296431478 0.070971386201314102 0 -0.084431223083162407 0.072036439705352909 0 -0.08559826007078869 0.070602060137753803 0 -0.085961997384836536 0.067350329510468959 0 -0.084997556296431478 0.070971386201314102 0 -0.084672955638066108 0.072365702759762757 0 -0.08559826007078869 0.070602060137753803 0 -0.084431223083162407 0.072036439705352909 0 -0.083524659812715271 0.074246258007874599 0 -0.084672955638066108 0.072365702759762757 0 -0.084431223083162407 0.072036439705352909 0 -0.084998492220737493 0.070977012343646381 0 -0.084890042219606623 0.07295684299634074 0 -0.084999933061131849 0.054766112787052082 0 -0.089216021639564325 0.057146203443023673 0 -0.088087739606946033 0.052619375391158615 0 -0.089216021639564325 0.057146203443023673 0 -0.091285385696728102 0.053975795189625392 0 -0.088087739606946033 0.052619375391158615 0 -0.084999933061131849 0.054766112787052082 0 -0.089216021639564325 0.057146203443023673 0 -0.08499991209095685 0.059346215778688004 0 -0.084999961422010939 0.063926501393817836 0 -0.08499991209095685 0.059346215778688004 0 -0.089204585878830872 0.061917302560365282 0 -0.085001999845091658 0.063926953555677513 0 -0.087467660696551333 0.063462098975430564 0 -0.089216021639564325 0.057146203443023673 0 -0.08499991209095685 0.059346215778688004 0 -0.089204585878830872 0.061917302560365282 0 -0.089216021639564325 0.057146203443023673 0 -0.089204585878830872 0.061917302560365282 0 -0.093294774303919581 0.059866828624792374 0 -0.087467660696551333 0.063462098975430564 0 -0.090056415016535704 0.062765029960940744 0 -0.086656271296897319 0.065385002427570157 0 -0.087760635285174624 0.066375897346120996 0 -0.088020578619842083 0.065839366676397199 0 -0.087760635285174624 0.066375897346120996 0 -0.088020578619842083 0.065839366676397199 0 -0.088696229844607261 0.066297099090975378 0 -0.093294774303919581 0.059866828624792374 0 -0.093209735643570518 0.056513384730063163 0 -0.097207429045994373 0.057717577814839154 0 -0.089216021639564325 0.057146203443023673 0 -0.093294774303919581 0.059866828624792374 0 -0.093209735643570518 0.056513384730063163 0 -0.089216021639564325 0.057146203443023673 0 -0.093209735643570518 0.056513384730063163 0 -0.091285385696728102 0.053975795189625392 0 -0.093209735643570518 0.056513384730063163 0 -0.091285385696728102 0.053975795189625392 0 -0.095455135660822948 0.054163484284608071 0 -0.091285385696728102 0.053975795189625392 0 -0.095455135660822948 0.054163484284608071 0 -0.093566789419637572 0.051652241299724809 0 -0.095455135660822948 0.054163484284608071 0 -0.099087881996936356 0.053701667279375677 0 -0.09779170131231027 0.050851072360947616 0 -0.099087881996936356 0.053701667279375677 0 -0.097207429045994373 0.057717577814839154 0 -0.10058942143487205 0.05546532444869845 0 -0.092057926961027547 0.062075723209348913 0 -0.092925995705878645 0.061477232260751302 0 -0.093209735643570518 0.056513384730063163 0 -0.095455135660822948 0.054163484284608071 0 -0.097207429045994373 0.057717577814839154 0 -0.095455135660822948 0.054163484284608071 0 -0.099087881996936356 0.053701667279375677 0 -0.097207429045994373 0.057717577814839154 0 -0.088020578619842083 0.065839366676397199 0 -0.089024328804585745 0.066660703651061623 0 -0.088696229844607261 0.066297099090975378 0 -0.090056415016535704 0.062765029960940744 0 -0.092057926961027547 0.062075723209348913 0 -0.088696229844607261 0.066297099090975378 0 -0.088955649843071985 0.066269325948921834 0 -0.088847250668372693 0.066428706019744113 0 -0.088924097350849815 0.066118720215532875 0 -0.088955649843071985 0.066269325948921834 0 -0.088847250668372693 0.066428706019744113 0 -0.089280066715894904 0.066006708638822617 0 -0.088924097350849815 0.066118720215532875 0 -0.088955649843071985 0.066269325948921834 0 -0.088733066448779471 0.065686716589282018 0 -0.089280066715894904 0.066006708638822617 0 -0.088924097350849815 0.066118720215532875 0 -0.088924097350849815 0.066118720215532875 0 -0.088847250668372693 0.066428706019744113 0 -0.088591483777876637 0.066090737682133735 0 -0.089024328804585745 0.066660703651061623 0 -0.088847250668372693 0.066428706019744113 0 -0.088111262860201531 0.067121854480033535 0 -0.089024328804585745 0.066660703651061623 0 -0.088696229844607261 0.066297099090975378 0 -0.088847250668372693 0.066428706019744113 0 -0.089024328804585745 0.066660703651061623 0 -0.088111262860201531 0.067121854480033535 0 -0.08791587967787369 0.06855420631455085 0 -0.088111262860201531 0.067121854480033535 0 -0.086989258707057454 0.067139714138960971 0 -0.08791587967787369 0.06855420631455085 0 -0.088111262860201531 0.067121854480033535 0 -0.087835235156418306 0.066029047768177279 0 -0.086989258707057454 0.067139714138960971 0 -0.088847250668372693 0.066428706019744113 0 -0.087835235156418306 0.066029047768177279 0 -0.088591483777876637 0.066090737682133735 0 -0.088847250668372693 0.066428706019744113 0 -0.088111262860201531 0.067121854480033535 0 -0.087835235156418306 0.066029047768177279 0 -0.088733066448779471 0.065686716589282018 0 -0.087835235156418306 0.066029047768177279 0 -0.088591483777876637 0.066090737682133735 0 -0.08867819619462454 0.065277945973671925 0 -0.088733066448779471 0.065686716589282018 0 -0.087835235156418306 0.066029047768177279 0 -0.088733066448779471 0.065686716589282018 0 -0.088924097350849815 0.066118720215532875 0 -0.088591483777876637 0.066090737682133735 0 -0.08638672832723604 0.063852766519620768 0 -0.087835235156418306 0.066029047768177279 0 -0.085319649017882526 0.06565444916108254 0 -0.087835235156418306 0.066029047768177279 0 -0.086989258707057454 0.067139714138960971 0 -0.085319649017882526 0.06565444916108254 0 -0.086989258707057454 0.067139714138960971 0 -0.08791587967787369 0.06855420631455085 0 -0.085308207608550887 0.068101187633307872 0 -0.086989258707057454 0.067139714138960971 0 -0.085319649017882526 0.06565444916108254 0 -0.085308207608550887 0.068101187633307872 0 -0.092925995705878645 0.061477232260751302 0 -0.092289792280883534 0.060823610391898271 0 -0.08791587967787369 0.06855420631455085 0 -0.085308207608550887 0.068101187633307872 0 -0.085203399185563578 0.070263348782907575 0 -0.099087881996936356 0.053701667279375677 0 -0.10058942143487205 0.05546532444869845 0 -0.10169941803733704 0.052148543222426832 0 -0.10058942143487205 0.05546532444869845 0 -0.10169941803733704 0.052148543222426832 0 -0.10240902745513246 0.053440235061983254 0 -0.10169941803733704 0.052148543222426832 0 -0.10240902745513246 0.053440235061983254 0 -0.10209432597250452 0.0525175448440739 0 -0.10169941803733704 0.052148543222426832 0 -0.10201863643417126 0.052523310131010692 0 -0.10209432597250452 0.0525175448440739 0 -0.099087881996936356 0.053701667279375677 0 -0.10169941803733704 0.052148543222426832 0 -0.09779170131231027 0.050851072360947616 0 -0.10169941803733704 0.052148543222426832 0 -0.10088015324102609 0.049382280720029467 0 -0.09779170131231027 0.050851072360947616 0 -0.10088015324102609 0.049382280720029467 0 -0.10077851567342751 0.047023138004300476 0 -0.09893390484352467 0.048330847520690862 0 -0.10088015324102609 0.049382280720029467 0 -0.10422148361068348 0.049126891446401026 0 -0.10245663469916105 0.04769988511635137 0 -0.10169941803733704 0.052148543222426832 0 -0.10088015324102609 0.049382280720029467 0 -0.10422148361068348 0.049126891446401026 0 -0.099671550798754949 0.047464531961779889 0 -0.10013529488172933 0.045292479702574315 0 -0.10422148361068348 0.049126891446401026 0 -0.10396190522373398 0.046911253963590506 0 -0.10245663469916105 0.04769988511635137 0 -0.10396190522373398 0.046911253963590506 0 -0.10245663469916105 0.04769988511635137 0 -0.10246482431116724 0.046118140110284499 0 -0.10396190522373398 0.046911253963590506 0 -0.10246482431116724 0.046118140110284499 0 -0.10387670185780691 0.045237097789983187 0 -0.10246482431116724 0.046118140110284499 0 -0.10387670185780691 0.045237097789983187 0 -0.10227341083012974 0.044047411995910384 0 -0.10387670185780691 0.045237097789983187 0 -0.10227341083012974 0.044047411995910384 0 -0.10434674480232621 0.042909279869072899 0 -0.10053881645286182 0.043109090477147144 0 -0.10062887568813622 0.045189091516125206 0 -0.098313318716682557 0.043905987549895276 0 -0.10227341083012974 0.044047411995910384 0 -0.10053881645286182 0.043109090477147144 0 -0.10172458340688616 0.041814914456526908 0 -0.10227341083012974 0.044047411995910384 0 -0.10053881645286182 0.043109090477147144 0 -0.10062887568813622 0.045189091516125206 0 -0.10246482431116724 0.046118140110284499 0 -0.10227341083012974 0.044047411995910384 0 -0.10062887568813622 0.045189091516125206 0 -0.10062887568813622 0.045189091516125206 0 -0.10077851567342751 0.047023138004300476 0 -0.098963358053070646 0.046313627948625695 0 -0.10246482431116724 0.046118140110284499 0 -0.10062887568813622 0.045189091516125206 0 -0.10077851567342751 0.047023138004300476 0 -0.10088015324102609 0.049382280720029467 0 -0.10245663469916105 0.04769988511635137 0 -0.10077851567342751 0.047023138004300476 0 -0.10245663469916105 0.04769988511635137 0 -0.10246482431116724 0.046118140110284499 0 -0.10077851567342751 0.047023138004300476 0 -0.10077851567342751 0.047023138004300476 0 -0.098963358053070646 0.046313627948625695 0 -0.09893390484352467 0.048330847520690862 0 -0.098963358053070646 0.046313627948625695 0 -0.098313318716682557 0.043905987549895276 0 -0.096659797059577862 0.046832055659318812 0 -0.098963358053070646 0.046313627948625695 0 -0.096659797059577862 0.046832055659318812 0 -0.09893390484352467 0.048330847520690862 0 -0.10062887568813622 0.045189091516125206 0 -0.098963358053070646 0.046313627948625695 0 -0.098313318716682557 0.043905987549895276 0 -0.10053881645286182 0.043109090477147144 0 -0.098313318716682557 0.043905987549895276 0 -0.098957100436108406 0.042321186127236676 0 -0.098313318716682557 0.043905987549895276 0 -0.095541428985069607 0.043689341078632073 0 -0.09719031043262466 0.042156942607463763 0 -0.098313318716682557 0.043905987549895276 0 -0.095541428985069607 0.043689341078632073 0 -0.096659797059577862 0.046832055659318812 0 -0.095541428985069607 0.043689341078632073 0 -0.096659797059577862 0.046832055659318812 0 -0.09327917645218825 0.045642382597348416 0 -0.096659797059577862 0.046832055659318812 0 -0.09779170131231027 0.050851072360947616 0 -0.094123045459926197 0.048571380226472394 0 -0.09779170131231027 0.050851072360947616 0 -0.093566789419637572 0.051652241299724809 0 -0.094123045459926197 0.048571380226472394 0 -0.10088015324102609 0.049382280720029467 0 -0.09893390484352467 0.048330847520690862 0 -0.09779170131231027 0.050851072360947616 0 -0.096659797059577862 0.046832055659318812 0 -0.09893390484352467 0.048330847520690862 0 -0.09779170131231027 0.050851072360947616 0 -0.095455135660822948 0.054163484284608071 0 -0.09779170131231027 0.050851072360947616 0 -0.093566789419637572 0.051652241299724809 0 -0.091285385696728102 0.053975795189625392 0 -0.093566789419637572 0.051652241299724809 0 -0.09051517703080128 0.049084423777730216 0 -0.093566789419637572 0.051652241299724809 0 -0.09051517703080128 0.049084423777730216 0 -0.094123045459926197 0.048571380226472394 0 -0.096659797059577862 0.046832055659318812 0 -0.094123045459926197 0.048571380226472394 0 -0.09327917645218825 0.045642382597348416 0 -0.09051517703080128 0.049084423777730216 0 -0.094123045459926197 0.048571380226472394 0 -0.09327917645218825 0.045642382597348416 0 -0.095541428985069607 0.043689341078632073 0 -0.09327917645218825 0.045642382597348416 0 -0.092838257867341817 0.041940291477043236 0 -0.09327917645218825 0.045642382597348416 0 -0.090317758951851512 0.044148808606481293 0 -0.092838257867341817 0.041940291477043236 0 -0.09051517703080128 0.049084423777730216 0 -0.09327917645218825 0.045642382597348416 0 -0.090317758951851512 0.044148808606481293 0 -0.09051517703080128 0.049084423777730216 0 -0.090317758951851512 0.044148808606481293 0 -0.088125853023640843 0.046327036470816582 0 -0.090317758951851512 0.044148808606481293 0 -0.088125853023640843 0.046327036470816582 0 -0.087518518052340372 0.043044681721148233 0 -0.090317758951851512 0.044148808606481293 0 -0.087518518052340372 0.043044681721148233 0 -0.089195213731627546 0.040906860446491985 0 -0.087518518052340372 0.043044681721148233 0 -0.084999903445259775 0.045605925948278128 0 -0.084999937392825547 0.041025831723868082 0 -0.088125853023640843 0.046327036470816582 0 -0.087518518052340372 0.043044681721148233 0 -0.084999903445259775 0.045605925948278128 0 -0.088125853023640843 0.046327036470816582 0 -0.084999903445259775 0.045605925948278128 0 -0.084999959063329383 0.050186004473898878 0 -0.09051517703080128 0.049084423777730216 0 -0.088125853023640843 0.046327036470816582 0 -0.084999959063329383 0.050186004473898878 0 -0.09051517703080128 0.049084423777730216 0 -0.084999959063329383 0.050186004473898878 0 -0.088087739606946033 0.052619375391158615 0 -0.091285385696728102 0.053975795189625392 0 -0.09051517703080128 0.049084423777730216 0 -0.088087739606946033 0.052619375391158615 0 -0.084999933061131849 0.054766112787052082 0 -0.084999959063329383 0.050186004473898878 0 -0.088087739606946033 0.052619375391158615 0 -0.070829071782006744 0.066891665781671078 0 -0.074636438579881073 0.066809955845913274 0 -0.069867094686740155 0.061371298042501639 0 -0.070829071782006744 0.066891665781671078 0 -0.070198763778718226 0.068346703712662896 0 -0.068787092410620004 0.062499515188911219 0 -0.05016955562404294 0.065421087234480479 0 -0.048633339344712909 0.074217688402360663 0 -0.05016955562404294 0.065421087234480479 0 -0.053375742239973475 0.064726579498835091 0 -0.070829071782006744 0.066891665781671078 0 -0.070198763778718226 0.068346703712662896 0 -0.072818536785005258 0.067396950081921023 0 -0.070517384003495817 0.068231676399264973 0 -0.072818536785005258 0.067396950081921023 0 -0.07290550749931389 0.069612281971912479 0 -0.077039480594632281 0.069438333183076184 0 -0.076831368127129138 0.067894542954186607 0 -0.078419656254251083 0.06822198564264105 0 -0.074636438579881073 0.066809955845913274 0 -0.072818536785005258 0.067396950081921023 0 -0.074772314035234155 0.0693256973099418 0 -0.070829071782006744 0.066891665781671078 0 -0.074636438579881073 0.066809955845913274 0 -0.072818536785005258 0.067396950081921023 0 -0.07290550749931389 0.069612281971912479 0 -0.074772314035234155 0.0693256973099418 0 -0.075025197672519556 0.070990514593157722 0 -0.074772314035234155 0.0693256973099418 0 -0.075025197672519556 0.070990514593157722 0 -0.078957367364640749 0.072109671745616569 0 -0.074636438579881073 0.066809955845913274 0 -0.074772314035234155 0.0693256973099418 0 -0.078957367364640749 0.072109671745616569 0 -0.072818536785005258 0.067396950081921023 0 -0.07290550749931389 0.069612281971912479 0 -0.074772314035234155 0.0693256973099418 0 -0.075025197672519556 0.070990514593157722 0 -0.071444169406650937 0.07213150024165936 0 -0.074851584452003725 0.072994956819313644 0 -0.07290550749931389 0.069612281971912479 0 -0.075025197672519556 0.070990514593157722 0 -0.071444169406650937 0.07213150024165936 0 -0.03067434191540579 0.05303915890088285 0 -0.030320510884547718 0.053613324758413697 0 -0.030835239579531565 0.053793628307315863 0 -0.070517384003495817 0.068231676399264973 0 -0.07290550749931389 0.069612281971912479 0 -0.071444169406650937 0.07213150024165936 0 -0.05016955562404294 0.065421087234480479 0 -0.057093742367959305 0.061353770842123803 0 -0.05016955562404294 0.065421087234480479 0 -0.037981134260072248 0.068601924781033177 0 -0.03067434191540579 0.05303915890088285 0 -0.030320510884547718 0.053613324758413697 0 -0.029791761653850456 0.053335306317098805 0 -0.030320510884547718 0.053613324758413697 0 -0.029791761653850456 0.053335306317098805 0 -0.029984585253784276 0.054014628837587862 0 -0.029791761653850456 0.053335306317098805 0 -0.029467321482982946 0.053906859757172333 0 -0.029984585253784276 0.054014628837587862 0 -0.037981134260072248 0.068601924781033177 0 -0.027996637279864008 0.073066265719102227 0 -0.029791761653850456 0.053335306317098805 0 -0.028940388276537398 0.053672829212352259 0 -0.029467321482982946 0.053906859757172333 0 -0.039875589840618245 0.072865798451665603 0 -0.035460767723790539 0.07441864056310446 0 -0.039270751380066325 0.070106058928952511 0 -0.027996637279864008 0.073066265719102227 0 -0.0336411902390686 0.076700683170147749 0 -0.015095199500548684 0.081534863232278196 0 -0.013165643280965292 0.081423468474390095 0 -0.014422790512811477 0.08332843603678719 0 -0.015095199500548684 0.081534863232278196 0 -0.014733142293426546 0.079420922692630305 0 -0.013165643280965292 0.081423468474390095 0 -0.044249184603456268 0.071304598527642163 0 -0.039875589840618245 0.072865798451665603 0 -0.039270751380066325 0.070106058928952511 0 -0.0336411902390686 0.076700683170147749 0 -0.048633339344712909 0.074217688402360663 0 -0.044249184603456268 0.071304598527642163 0 -0.039270751380066325 0.070106058928952511 0 -0.043039710751760121 0.065818427282979722 0 -0.013165643280965292 0.081423468474390095 0 -0.012949596858613334 0.083276924930197865 0 -0.011664253307300409 0.083309420628779884 0 -0.012949596858613334 0.083276924930197865 0 -0.011958607308403276 0.084605770762614912 0 -0.011664253307300409 0.083309420628779884 0 -0.047859948049085513 0.076204503211989294 0 -0.048633339344712909 0.074217688402360663 0 -0.013165643280965292 0.081423468474390095 0 -0.012949596858613334 0.083276924930197865 0 -0.014422790512811477 0.08332843603678719 0 -0.012949596858613334 0.083276924930197865 0 -0.014422790512811477 0.08332843603678719 0 -0.013225620752913916 0.084594887181924691 0 -0.015791098598121847 0.085689854682044958 0 -0.013020707087238055 0.085856102181758223 0 -0.01441702285448495 0.084749093301611719 0 -0.015612716688804732 0.084289757838753185 0 -0.014422790512811477 0.08332843603678719 0 -0.01441702285448495 0.084749093301611719 0 -0.014422790512811477 0.08332843603678719 0 -0.01441702285448495 0.084749093301611719 0 -0.013225620752913916 0.084594887181924691 0 -0.013020707087238055 0.085856102181758223 0 -0.01441702285448495 0.084749093301611719 0 -0.013225620752913916 0.084594887181924691 0 -0.048125473609325745 0.077174720170435585 0 -0.047655659946114287 0.076620240288396937 0 -0.047094043736699884 0.072516917078202819 0 -0.048250728964208019 0.076163372674392091 0 -0.047984314553038719 0.075845181747842189 0 -0.048620497837757085 0.077885275222462816 0 -0.047859948049085513 0.076204503211989294 0 -0.048989438496383632 0.075975492730552791 0 -0.012949596858613334 0.083276924930197865 0 -0.011958607308403276 0.084605770762614912 0 -0.013225620752913916 0.084594887181924691 0 -0.013020707087238055 0.085856102181758223 0 -0.011958607308403276 0.084605770762614912 0 -0.013225620752913916 0.084594887181924691 0 -0.047859948049085513 0.076204503211989294 0 -0.047525275380157196 0.078531382181983578 0 -0.049406160238193268 0.080685724171277867 0 -0.046552989194396717 0.077297979453459509 0 -0.047045720021609123 0.079549667053749051 0 -0.041071838123145792 0.079462450997203712 0 -0.047859948049085513 0.076204503211989294 0 -0.048989438496383632 0.075975492730552791 0 -0.047525275380157196 0.078531382181983578 0 -0.051865412628122602 0.079269506190570355 0 -0.050845414982496777 0.080079938430466124 0 -0.052235593354148555 0.080604178820896294 0 -0.07488968030105328 0.066942302126134626 0 -0.076979097808944283 0.066975574931043891 0 -0.076365083984799728 0.065253686584089074 0 -0.051332629024318788 0.081575795572187332 0 -0.050845414982496777 0.080079938430466124 0 -0.052235593354148555 0.080604178820896294 0 -0.052909114412928032 0.079697978232075403 0 -0.051865412628122602 0.079269506190570355 0 -0.052235593354148555 0.080604178820896294 0 -0.052909114412928032 0.079697978232075403 0 -0.052235593354148555 0.080604178820896294 0 -0.054163173442589509 0.080352372466574673 0 -0.052235593354148555 0.080604178820896294 0 -0.052192408685399809 0.082584202061803003 0 -0.054163173442589509 0.080352372466574673 0 -0.053242449298510665 0.073877008280865422 0 -0.059917253497160095 0.074656494069753263 0 -0.051332629024318788 0.081575795572187332 0 -0.052235593354148555 0.080604178820896294 0 -0.052192408685399809 0.082584202061803003 0 -0.048989438496383632 0.075975492730552791 0 -0.053242449298510665 0.073877008280865422 0 -0.048989438496383632 0.075975492730552791 0 -0.050616198161880177 0.073865882889338069 0 -0.053256202672285632 0.072002715178372423 0 -0.050616198161880177 0.073865882889338069 0 -0.070829071782006744 0.066891665781671078 0 -0.069158189880508439 0.062065945544713126 0 -0.068787092410620004 0.062499515188911219 0 -0.047655659946114287 0.076620240288396937 0 -0.046547807853493599 0.073147420095978646 0 -0.047094043736699884 0.072516917078202819 0 -0.066982249443126876 0.073981326610694259 0 -0.053242449298510665 0.073877008280865422 0 -0.048719947851506344 0.077495826862666359 0 -0.047192767313627475 0.07270609277966239 0 -0.045912866067814667 0.074182764012247174 0 -0.070829071782006744 0.066891665781671078 0 -0.069234294050313255 0.062104912189790348 0 -0.069867094686740155 0.061371298042501639 0 -0.050616198161880177 0.073865882889338069 0 -0.053242449298510665 0.073877008280865422 0 -0.050616198161880177 0.073865882889338069 0 -0.048633339344712909 0.074217688402360663 0 -0.076979097808944283 0.066975574931043891 0 -0.078178871556788126 0.066090535742334047 0 -0.078419656254251083 0.06822198564264105 0 -0.07488968030105328 0.066942302126134626 0 -0.076831368127129138 0.067894542954186607 0 -0.076979097808944283 0.066975574931043891 0 -0.077039480594632281 0.069438333183076184 0 -0.07488968030105328 0.066942302126134626 0 -0.076831368127129138 0.067894542954186607 0 -0.076831368127129138 0.067894542954186607 0 -0.076979097808944283 0.066975574931043891 0 -0.078419656254251083 0.06822198564264105 0 -0.077867148512103398 0.063562538945621166 0 -0.076365083984799728 0.065253686584089074 0 -0.078178871556788126 0.066090535742334047 0 -0.076979097808944283 0.066975574931043891 0 -0.076365083984799728 0.065253686584089074 0 -0.078178871556788126 0.066090535742334047 0 -0.077867148512103398 0.063562538945621166 0 -0.078178871556788126 0.066090535742334047 0 -0.079852093062789717 0.065437587789739307 0 -0.078178871556788126 0.066090535742334047 0 -0.079852093062789717 0.065437587789739307 0 -0.079574370909853948 0.067056504352710461 0 -0.079852093062789717 0.065437587789739307 0 -0.081497561978594688 0.066945489284245333 0 -0.079574370909853948 0.067056504352710461 0 -0.079852093062789717 0.065437587789739307 0 -0.081497561978594688 0.066945489284245333 0 -0.082475860823481892 0.064993652542714705 0 -0.081497561978594688 0.066945489284245333 0 -0.082717116321457757 0.068960093170097658 0 -0.080347493807543413 0.068728034868296345 0 -0.081497561978594688 0.066945489284245333 0 -0.079574370909853948 0.067056504352710461 0 -0.080347493807543413 0.068728034868296345 0 -0.078419656254251083 0.06822198564264105 0 -0.079574370909853948 0.067056504352710461 0 -0.080347493807543413 0.068728034868296345 0 -0.078178871556788126 0.066090535742334047 0 -0.078419656254251083 0.06822198564264105 0 -0.079574370909853948 0.067056504352710461 0 -0.085319649017882526 0.06565444916108254 0 -0.082475860823481892 0.064993652542714705 0 -0.083555949915952304 0.066811962169527381 0 -0.081497561978594688 0.066945489284245333 0 -0.082475860823481892 0.064993652542714705 0 -0.083555949915952304 0.066811962169527381 0 -0.081497561978594688 0.066945489284245333 0 -0.083555949915952304 0.066811962169527381 0 -0.082717116321457757 0.068960093170097658 0 -0.083555949915952304 0.066811962169527381 0 -0.085308207608550887 0.068101187633307872 0 -0.082717116321457757 0.068960093170097658 0 -0.085319649017882526 0.06565444916108254 0 -0.083555949915952304 0.066811962169527381 0 -0.085308207608550887 0.068101187633307872 0 -0.085308207608550887 0.068101187633307872 0 -0.082717116321457757 0.068960093170097658 0 -0.085203399185563578 0.070263348782907575 0 -0.10175381765091442 0.052162704813622486 0 -0.10240902745513246 0.053440235061983254 0 -0.10211721890796785 0.052610751464065977 0 -0.089726753272429155 0.059860350214313997 0 -0.092289792280883534 0.060823610391898271 0 -0.082717116321457757 0.068960093170097658 0 -0.082199114006653765 0.071714242383245044 0 -0.085203399185563578 0.070263348782907575 0 -0.10240902745513246 0.053440235061983254 0 -0.10209432597250452 0.0525175448440739 0 -0.10211721890796785 0.052610751464065977 0 -0.078419656254251083 0.06822198564264105 0 -0.079051344516303357 0.069852854819839383 0 -0.080347493807543413 0.068728034868296345 0 -0.077039480594632281 0.069438333183076184 0 -0.078419656254251083 0.06822198564264105 0 -0.079051344516303357 0.069852854819839383 0 -0.082717116321457757 0.068960093170097658 0 -0.080347493807543413 0.068728034868296345 0 -0.080661819315747341 0.070342953420898705 0 -0.079051344516303357 0.069852854819839383 0 -0.080347493807543413 0.068728034868296345 0 -0.080661819315747341 0.070342953420898705 0 -0.082199114006653765 0.071714242383245044 0 -0.080661819315747341 0.070342953420898705 0 -0.078957367364640749 0.072109671745616569 0 -0.082717116321457757 0.068960093170097658 0 -0.082199114006653765 0.071714242383245044 0 -0.080661819315747341 0.070342953420898705 0 -0.079051344516303357 0.069852854819839383 0 -0.080661819315747341 0.070342953420898705 0 -0.078957367364640749 0.072109671745616569 0 -0.066982249443126876 0.073981326610694259 0 -0.071197170323813216 0.074659036885513577 0 -0.075025197672519556 0.070990514593157722 0 -0.078957367364640749 0.072109671745616569 0 -0.076854785576304596 0.072405019376681645 0 -0.077039480594632281 0.069438333183076184 0 -0.079051344516303357 0.069852854819839383 0 -0.078957367364640749 0.072109671745616569 0 -0.078957367364640749 0.072109671745616569 0 -0.078494869847548734 0.073518224316967348 0 -0.076854785576304596 0.072405019376681645 0 -0.078494869847548734 0.073518224316967348 0 -0.076854785576304596 0.072405019376681645 0 -0.074851584452003725 0.072994956819313644 0 -0.10175381765091442 0.052162704813622486 0 -0.099098927956796423 0.052655746534467668 0 -0.1017170149752632 0.052790152534425032 0 -0.099098927956796423 0.052655746534467668 0 -0.099134306424025848 0.053578467083745425 0 -0.1017170149752632 0.052790152534425032 0 -0.082199114006653765 0.071714242383245044 0 -0.078957367364640749 0.072109671745616569 0 -0.078494869847548734 0.073518224316967348 0 -0.092946250303902828 0.051794899985130823 0 -0.09782456810094789 0.05144400248728058 0 -0.089726753272429155 0.059860350214313997 0 -0.08350468739633421 0.058267673549054155 0 -0.10075379033637853 0.052683024053716547 0 -0.10122842588237993 0.052878609780180191 0 -0.1017170149752632 0.052790152534425032 0 -0.10122842588237993 0.052878609780180191 0 -0.10151755375750113 0.052872184198662214 0 -0.1017170149752632 0.052790152534425032 0 -0.10122842588237993 0.052878609780180191 0 -0.10151755375750113 0.052872184198662214 0 -0.10150480859618131 0.053054070722478509 0 -0.10151755375750113 0.052872184198662214 0 -0.10150480859618131 0.053054070722478509 0 -0.10170235842054245 0.052805962703041241 0 -0.10122842588237993 0.052878609780180191 0 -0.10150480859618131 0.053054070722478509 0 -0.10126946124337953 0.053275560154612232 0 -0.10122842588237993 0.052878609780180191 0 -0.10089021248732447 0.053044463516293903 0 -0.10126946124337953 0.053275560154612232 0 -0.10089021248732447 0.053044463516293903 0 -0.10059124474576814 0.052942809840933303 0 -0.10042349391843169 0.05322379325101078 0 -0.10075379033637853 0.052683024053716547 0 -0.10059124474576814 0.052942809840933303 0 -0.10086469037931757 0.052886098019374043 0 -0.10122842588237993 0.052878609780180191 0 -0.10089021248732447 0.053044463516293903 0 -0.10086469037931757 0.052886098019374043 0 -0.10075379033637853 0.052683024053716547 0 -0.10122842588237993 0.052878609780180191 0 -0.10086469037931757 0.052886098019374043 0 -0.10089021248732447 0.053044463516293903 0 -0.10059124474576814 0.052942809840933303 0 -0.10086469037931757 0.052886098019374043 0 -0.10209432597250452 0.0525175448440739 0 -0.10203478323564782 0.052631745006338854 0 -0.10211721890796785 0.052610751464065977 0 -0.10209432597250452 0.0525175448440739 0 -0.10203478323564782 0.052631745006338854 0 -0.10203118920506618 0.052585030139402411 0 -0.10190981564462868 0.052712725938002261 0 -0.10211721890796785 0.052610751464065977 0 -0.1017170149752632 0.052790152534425032 0 -0.10190981564462868 0.052712725938002261 0 -0.10170235842054245 0.052805962703041241 0 -0.10194671978828922 0.052692233967020358 0 -0.10203478323564782 0.052631745006338854 0 -0.10190981564462868 0.052712725938002261 0 -0.10211721890796785 0.052610751464065977 0 -0.10203478323564782 0.052631745006338854 0 -0.10190981564462868 0.052712725938002261 0 -0.10194671978828922 0.052692233967020358 0 -0.10175381765091442 0.052162704813622486 0 -0.10211721890796785 0.052610751464065977 0 -0.1017170149752632 0.052790152534425032 0 -0.10190981564462868 0.052712725938002261 0 -0.1017170149752632 0.052790152534425032 0 -0.10170235842054245 0.052805962703041241 0 -0.10151755375750113 0.052872184198662214 0 -0.1017170149752632 0.052790152534425032 0 -0.10170235842054245 0.052805962703041241 0 -0.10170235842054245 0.052805962703041241 0 -0.10194671978828922 0.052692233967020358 0 -0.10201327007630716 0.052665325537600234 0 -0.10150480859618131 0.053054070722478509 0 -0.10170235842054245 0.052805962703041241 0 -0.10186720104172063 0.053223276981757883 0 -0.10150480859618131 0.053054070722478509 0 -0.10186720104172063 0.053223276981757883 0 -0.10126946124337953 0.053275560154612232 0 -0.10334086100508325 0.046596061737055258 0 -0.10216750450165449 0.043228131180240083 0 -0.10194671978828922 0.052692233967020358 0 -0.10200317503564542 0.052630539824240312 0 -0.10201327007630716 0.052665325537600234 0 -0.10191717543313816 0.043737079820265437 0 -0.10216750450165449 0.043228131180240083 0 -0.10201863643417126 0.052523310131010692 0 -0.10209432597250452 0.0525175448440739 0 -0.10203118920506618 0.052585030139402411 0 -0.10201863643417126 0.052523310131010692 0 -0.10200317503564542 0.052630539824240312 0 -0.10200422087460642 0.052593197720081149 0 -0.10200584866790581 0.052639406753437465 0 -0.10200317503564542 0.052630539824240312 0 -0.10203118920506618 0.052585030139402411 0 -0.10203478323564782 0.052631745006338854 0 -0.10200584866790581 0.052639406753437465 0 -0.10203118920506618 0.052585030139402411 0 -0.10203478323564782 0.052631745006338854 0 -0.10194671978828922 0.052692233967020358 0 -0.10200584866790581 0.052639406753437465 0 -0.10194671978828922 0.052692233967020358 0 -0.10200584866790581 0.052639406753437465 0 -0.10200317503564542 0.052630539824240312 0 -0.10201863643417126 0.052523310131010692 0 -0.10200317503564542 0.052630539824240312 0 -0.10203118920506618 0.052585030139402411 0 -0.10013529488172933 0.045292479702574315 0 -0.10206375907873125 0.037299892860070641 0 -0.10422148361068348 0.049126891446401026 0 -0.10396190522373398 0.046911253963590506 0 -0.10635414693768575 0.046217542620914098 0 -0.10200317503564542 0.052630539824240312 0 -0.10200422087460642 0.052593197720081149 0 -0.10201123704121497 0.052614668966783955 0 -0.10396190522373398 0.046911253963590506 0 -0.10387670185780691 0.045237097789983187 0 -0.10635414693768575 0.046217542620914098 0 -0.10206375907873125 0.037299892860070641 0 -0.10216750450165449 0.043228131180240083 0 -0.10216750450165449 0.043228131180240083 0 -0.1003657336333237 0.036687883194678562 0 -0.10037078077309605 0.02665684208221307 0 -0.10283823922010059 0.030696749473995737 0 -0.1084309350614214 0.023097519723561645 0 -0.10186720104172063 0.053223276981757883 0 -0.10126946124337953 0.053275560154612232 0 -0.10135105295799784 0.053773476505668626 0 -0.10206375907873125 0.037299892860070641 0 -0.10777749813836383 0.024245552575997621 0 -0.10037078077309605 0.02665684208221307 0 -0.10563578557901775 0.019495560815633875 0 -0.1084309350614214 0.023097519723561645 0 -0.10250889700030831 0.0239026459999514 0 -0.10673614660336402 0.01814408520267664 0 -0.10282512691258236 0.016473138734161789 0 -0.10387670185780691 0.045237097789983187 0 -0.10635414693768575 0.046217542620914098 0 -0.10434674480232621 0.042909279869072899 0 -0.10250889700030831 0.0239026459999514 0 -0.10282512691258236 0.016473138734161789 0 -0.098760908050966406 0.017731742498755775 0 -0.10206375907873125 0.037299892860070641 0 -0.10049641557513572 0.03140983872731231 0 -0.10089021248732447 0.053044463516293903 0 -0.10071334881508481 0.053643782175209945 0 -0.10126946124337953 0.053275560154612232 0 -0.10089021248732447 0.053044463516293903 0 -0.10071334881508481 0.053643782175209945 0 -0.10042349391843169 0.05322379325101078 0 -0.10071334881508481 0.053643782175209945 0 -0.10126946124337953 0.053275560154612232 0 -0.10135105295799784 0.053773476505668626 0 -0.1003657336333237 0.036687883194678562 0 -0.094013031893616705 0.031829766652900895 0 -0.10071334881508481 0.053643782175209945 0 -0.10135105295799784 0.053773476505668626 0 -0.10078921686844945 0.054276216946521315 0 -0.10563578557901775 0.019495560815633875 0 -0.1084309350614214 0.023097519723561645 0 -0.11377733693081472 0.015580564687878046 0 -0.10071334881508481 0.053643782175209945 0 -0.10023280177396841 0.05418344315385689 0 -0.10078921686844945 0.054276216946521315 0 -0.067280030805490471 0.053382705340296981 0 -0.069438522978593792 0.050295379024698113 0 -0.029918320067102919 0.055378378962047545 0 -0.030220192188614804 0.055039470679602472 0 -0.030440789924707955 0.055560409434340506 0 -0.10071334881508481 0.053643782175209945 0 -0.10008172803052579 0.053579808398210374 0 -0.10023280177396841 0.05418344315385689 0 -0.029918320067102919 0.055378378962047545 0 -0.02974229983569282 0.055134669685261914 0 -0.030220192188614804 0.055039470679602472 0 -0.029918320067102919 0.055378378962047545 0 -0.02974229983569282 0.055134669685261914 0 -0.029541448242547848 0.055436914500140849 0 -0.02974229983569282 0.055134669685261914 0 -0.02982906999739051 0.054839493737099433 0 -0.030220192188614804 0.055039470679602472 0 -0.02982906999739051 0.054839493737099433 0 -0.030220192188614804 0.055039470679602472 0 -0.030112249591465457 0.054481408358577156 0 -0.02974229983569282 0.055134669685261914 0 -0.02982906999739051 0.054839493737099433 0 -0.029503174492586614 0.054973818892472104 0 -0.10071334881508481 0.053643782175209945 0 -0.10008172803052579 0.053579808398210374 0 -0.10042349391843169 0.05322379325101078 0 -0.10008172803052579 0.053579808398210374 0 -0.10042349391843169 0.05322379325101078 0 -0.099846796634184817 0.05286359454291116 0 -0.067280030805490471 0.053382705340296981 0 -0.066039190582672477 0.054966838935256876 0 -0.092946250303902828 0.051794899985130823 0 -0.066039190582672477 0.054966838935256876 0 -0.10059124474576814 0.052942809840933303 0 -0.10042349391843169 0.05322379325101078 0 -0.099846796634184817 0.05286359454291116 0 -0.10075379033637853 0.052683024053716547 0 -0.10059124474576814 0.052942809840933303 0 -0.099846796634184817 0.05286359454291116 0 -0.099134306424025848 0.053578467083745425 0 -0.095233350175767797 0.054348403506612693 0 -0.095153605544291503 0.053968105021264597 0 -0.02982906999739051 0.054839493737099433 0 -0.029777973992414282 0.05454516334395107 0 -0.030112249591465457 0.054481408358577156 0 -0.02982906999739051 0.054839493737099433 0 -0.029777973992414282 0.05454516334395107 0 -0.029531889557035743 0.054610817352105788 0 -0.054719152566917006 0.057604739234368402 0 -0.065442740331754026 0.056645828939363298 0 -0.030472624576616283 0.054777896918477557 0 -0.031033256116295121 0.054555003060990571 0 -0.030462618499938594 0.054186716865629404 0 -0.057981509219805542 0.056496188050686021 0 -0.065702417779300665 0.054926263057876033 0 -0.065340612361634007 0.053291935975120434 0 -0.054719152566917006 0.057604739234368402 0 -0.066039190582672477 0.054966838935256876 0 -0.066039190582672477 0.054966838935256876 0 -0.065442740331754026 0.056645828939363298 0 -0.065442740331754026 0.056645828939363298 0 -0.057093742367959305 0.061353770842123803 0 -0.031033256116295121 0.054555003060990571 0 -0.030462618499938594 0.054186716865629404 0 -0.030835239579531565 0.053793628307315863 0 -0.072345988728672012 0.076114660604239812 0 -0.071444169406650937 0.07213150024165936 0 -0.074851584452003725 0.072994956819313644 0 -0.030320510884547718 0.053613324758413697 0 -0.030462618499938594 0.054186716865629404 0 -0.030835239579531565 0.053793628307315863 0 -0.078494869847548734 0.073518224316967348 0 -0.072345988728672012 0.076114660604239812 0 -0.074851584452003725 0.072994956819313644 0 -0.099098927956796423 0.052655746534467668 0 -0.099134306424025848 0.053578467083745425 0 -0.095153605544291503 0.053968105021264597 0 -0.08350468739633421 0.058267673549054155 0 -0.065442740331754026 0.056645828939363298 0 -0.075025197672519556 0.070990514593157722 0 -0.076854785576304596 0.072405019376681645 0 -0.074851584452003725 0.072994956819313644 0 -0.02956923499558075 0.054389885173327816 0 -0.029050633274102639 0.054279334540164495 0 -0.029467321482982946 0.053906859757172333 0 -0.028940388276537398 0.053672829212352259 0 -0.029050633274102639 0.054279334540164495 0 -0.029467321482982946 0.053906859757172333 0 -0.02956923499558075 0.054389885173327816 0 -0.029467321482982946 0.053906859757172333 0 -0.029984585253784276 0.054014628837587862 0 -0.030320510884547718 0.053613324758413697 0 -0.030462618499938594 0.054186716865629404 0 -0.029984585253784276 0.054014628837587862 0 -0.030472624576616283 0.054777896918477557 0 -0.030462618499938594 0.054186716865629404 0 -0.030107207059616736 0.054434046198173235 0 -0.030462618499938594 0.054186716865629404 0 -0.029984585253784276 0.054014628837587862 0 -0.030107207059616736 0.054434046198173235 0 -0.02956923499558075 0.054389885173327816 0 -0.029984585253784276 0.054014628837587862 0 -0.030107207059616736 0.054434046198173235 0 -0.02956923499558075 0.054389885173327816 0 -0.030107207059616736 0.054434046198173235 0 -0.03005860055183586 0.054840541651064709 0 -0.054719152566917006 0.057604739234368402 0 -0.046272681183736016 0.058273430249744247 0 -0.030472624576616283 0.054777896918477557 0 -0.030107207059616736 0.054434046198173235 0 -0.03005860055183586 0.054840541651064709 0 -0.046272681183736016 0.058273430249744247 0 -0.038912277710368703 0.058736534542500746 0 -0.02956923499558075 0.054389885173327816 0 -0.03005860055183586 0.054840541651064709 0 -0.029032194313034984 0.054857192045236064 0 -0.02956923499558075 0.054389885173327816 0 -0.029050633274102639 0.054279334540164495 0 -0.029032194313034984 0.054857192045236064 0 -0.029531889557035743 0.054610817352105788 0 -0.029032194313034984 0.054857192045236064 0 -0.02915168851498404 0.05505360276715357 0 -0.029032194313034984 0.054857192045236064 0 -0.02915168851498404 0.05505360276715357 0 -0.028802678362630191 0.055239442682477886 0 -0.02915168851498404 0.05505360276715357 0 -0.028802678362630191 0.055239442682477886 0 -0.029251382048368402 0.055218472947220966 0 -0.02974229983569282 0.055134669685261914 0 -0.029503174492586614 0.054973818892472104 0 -0.029251382048368402 0.055218472947220966 0 -0.029531889557035743 0.054610817352105788 0 -0.02915168851498404 0.05505360276715357 0 -0.029503174492586614 0.054973818892472104 0 -0.02982906999739051 0.054839493737099433 0 -0.029531889557035743 0.054610817352105788 0 -0.029503174492586614 0.054973818892472104 0 -0.02915168851498404 0.05505360276715357 0 -0.029503174492586614 0.054973818892472104 0 -0.029251382048368402 0.055218472947220966 0 -0.02974229983569282 0.055134669685261914 0 -0.029251382048368402 0.055218472947220966 0 -0.029541448242547848 0.055436914500140849 0 -0.029251382048368402 0.055218472947220966 0 -0.029541448242547848 0.055436914500140849 0 -0.028953649389703427 0.055533619109254584 0 -0.02835850704426816 0.055569012765731007 0 -0.028802678362630191 0.055239442682477886 0 -0.028953649389703427 0.055533619109254584 0 -0.028802678362630191 0.055239442682477886 0 -0.029251382048368402 0.055218472947220966 0 -0.028953649389703427 0.055533619109254584 0 -0.02835850704426816 0.055569012765731007 0 -0.028953649389703427 0.055533619109254584 0 -0.0285084532595168 0.055746061100817819 0 -0.028953649389703427 0.055533619109254584 0 -0.029024576787345865 0.055967573413486203 0 -0.0285084532595168 0.055746061100817819 0 -0.028953649389703427 0.055533619109254584 0 -0.029493811430725526 0.055718263433322063 0 -0.029024576787345865 0.055967573413486203 0 -0.029541448242547848 0.055436914500140849 0 -0.028953649389703427 0.055533619109254584 0 -0.029493811430725526 0.055718263433322063 0 -0.029541448242547848 0.055436914500140849 0 -0.029493811430725526 0.055718263433322063 0 -0.029871375031608825 0.055660497046127216 0 -0.029615629420800572 0.056102386894640699 0 -0.029065280630131248 0.056403688482267317 0 -0.030187875545108392 0.056543613491905662 0 -0.029493811430725526 0.055718263433322063 0 -0.029615629420800572 0.056102386894640699 0 -0.029024576787345865 0.055967573413486203 0 -0.029615629420800572 0.056102386894640699 0 -0.029024576787345865 0.055967573413486203 0 -0.029065280630131248 0.056403688482267317 0 -0.029024576787345865 0.055967573413486203 0 -0.028639014221429702 0.056012493020046607 0 -0.0285084532595168 0.055746061100817819 0 -0.029024576787345865 0.055967573413486203 0 -0.028639014221429702 0.056012493020046607 0 -0.029065280630131248 0.056403688482267317 0 -0.032709469280996731 0.057861494287229011 0 -0.036201583788928418 0.055113047045006074 0 -0.035738078922664514 0.06141505513486082 0 -0.035472332321327626 0.049676122410234447 0 -0.032575115628873198 0.050863606621882461 0 -0.028639014221429702 0.056012493020046607 0 -0.029065280630131248 0.056403688482267317 0 -0.028356372670484506 0.056107041037216941 0 -0.032709469280996731 0.057861494287229011 0 -0.036201583788928418 0.055113047045006074 0 -0.029810537764314526 0.056343962512962718 0 -0.036201583788928418 0.055113047045006074 0 -0.029810537764314526 0.056343962512962718 0 -0.028356372670484506 0.056107041037216941 0 -0.032709469280996731 0.057861494287229011 0 -0.035738078922664514 0.06141505513486082 0 -0.028236381926076633 0.058069788015118251 0 -0.042479291045146111 0.036800955976990325 0 -0.036126992469736163 0.043547499031512726 0 -0.035472332321327626 0.049676122410234447 0 -0.044341832590498668 0.045691363310587235 0 -0.036201583788928418 0.055113047045006074 0 -0.042261139977381651 0.057551290510055392 0 -0.044593179902324177 0.054542756839992025 0 -0.036201583788928418 0.055113047045006074 0 -0.042261139977381651 0.057551290510055392 0 -0.041043837488098818 0.06031773108510765 0 -0.036201583788928418 0.055113047045006074 0 -0.041043837488098818 0.06031773108510765 0 -0.035738078922664514 0.06141505513486082 0 -0.042479291045146111 0.036800955976990325 0 -0.055444373423747258 0.030017508584135138 0 -0.039671722341359142 0.021021014587239872 0 -0.041092483151918949 0.021665112012953947 0 -0.039867969350576002 0.021906446851059809 0 -0.041043837488098818 0.06031773108510765 0 -0.035738078922664514 0.06141505513486082 0 -0.043694294483754274 0.064983700145841372 0 -0.039671722341359142 0.021021014587239872 0 -0.038274537190348387 0.020414555942719664 0 -0.038748688091026003 0.021390822172632509 0 -0.039671722341359142 0.021021014587239872 0 -0.039276869436638023 0.021740603998342406 0 -0.039867969350576002 0.021906446851059809 0 -0.039671722341359142 0.021021014587239872 0 -0.039276869436638023 0.021740603998342406 0 -0.038748688091026003 0.021390822172632509 0 -0.039276869436638023 0.021740603998342406 0 -0.038748688091026003 0.021390822172632509 0 -0.038762351733092192 0.021933007412603425 0 -0.068652940268467494 0.020638056423001074 0 -0.06493519904775831 0.018788379032301253 0 -0.067316663051693398 0.017639877102477219 0 -0.068652940268467494 0.020638056423001074 0 -0.067316663051693398 0.017639877102477219 0 -0.069547503330926491 0.017374607553437938 0 -0.068652940268467494 0.020638056423001074 0 -0.06493519904775831 0.018788379032301253 0 -0.064864495185004145 0.022666334733268539 0 -0.06493519904775831 0.018788379032301253 0 -0.064864495185004145 0.022666334733268539 0 -0.062261358792884851 0.020756355259321228 0 -0.06493519904775831 0.018788379032301253 0 -0.065508067162001207 0.015915615559026184 0 -0.061032347625142244 0.015136294025743128 0 -0.06493519904775831 0.018788379032301253 0 -0.065508067162001207 0.015915615559026184 0 -0.067316663051693398 0.017639877102477219 0 -0.065508067162001207 0.015915615559026184 0 -0.067316663051693398 0.017639877102477219 0 -0.067845165622359815 0.015135180431181635 0 -0.067316663051693398 0.017639877102477219 0 -0.069332276870885765 0.016296668435684329 0 -0.069547503330926491 0.017374607553437938 0 -0.067845165622359815 0.015135180431181635 0 -0.069332276870885765 0.016296668435684329 0 -0.069770725313020601 0.014860435518624017 0 -0.067316663051693398 0.017639877102477219 0 -0.067845165622359815 0.015135180431181635 0 -0.069332276870885765 0.016296668435684329 0 -0.060817091161405733 0.035747393843897399 0 -0.056731857826263998 0.029015160660211311 0 -0.068652940268467494 0.020638056423001074 0 -0.069547503330926491 0.017374607553437938 0 -0.072891245123513762 0.014925134605694239 0 -0.069332276870885765 0.016296668435684329 0 -0.069547503330926491 0.017374607553437938 0 -0.072891245123513762 0.014925134605694239 0 -0.069332276870885765 0.016296668435684329 0 -0.072891245123513762 0.014925134605694239 0 -0.069770725313020601 0.014860435518624017 0 -0.055444373423747258 0.030017508584135138 0 -0.052245243028566903 0.035280941306653608 0 -0.043694294483754274 0.064983700145841372 0 -0.043752309073632985 0.061699075404897614 0 -0.046379784315489676 0.061432075495637249 0 -0.043849117407548877 0.064696075266732905 0 -0.046379784315489676 0.061432075495637249 0 -0.044644805224192896 0.065072786603348226 0 -0.055444373423747258 0.030017508584135138 0 -0.056731857826263998 0.029015160660211311 0 -0.041043837488098818 0.06031773108510765 0 -0.043694294483754274 0.064983700145841372 0 -0.043752309073632985 0.061699075404897614 0 -0.043895154259789508 0.060068346119208312 0 -0.046379784315489676 0.061432075495637249 0 -0.045626493646092593 0.058466368865663025 0 -0.043752309073632985 0.061699075404897614 0 -0.043895154259789508 0.060068346119208312 0 -0.046379784315489676 0.061432075495637249 0 -0.041043837488098818 0.06031773108510765 0 -0.043752309073632985 0.061699075404897614 0 -0.043895154259789508 0.060068346119208312 0 -0.048708522851346928 0.059791863401287386 0 -0.046379784315489676 0.061432075495637249 0 -0.044644805224192896 0.065072786603348226 0 -0.048708522851346928 0.059791863401287386 0 -0.046379784315489676 0.061432075495637249 0 -0.045626493646092593 0.058466368865663025 0 -0.048708522851346928 0.059791863401287386 0 -0.045626493646092593 0.058466368865663025 0 -0.047209294438321586 0.057345775796142875 0 -0.045626493646092593 0.058466368865663025 0 -0.047209294438321586 0.057345775796142875 0 -0.044593179902324177 0.054542756839992025 0 -0.048708522851346928 0.059791863401287386 0 -0.047209294438321586 0.057345775796142875 0 -0.048799172112096452 0.056090909688198985 0 -0.042261139977381651 0.057551290510055392 0 -0.045626493646092593 0.058466368865663025 0 -0.044593179902324177 0.054542756839992025 0 -0.042261139977381651 0.057551290510055392 0 -0.043895154259789508 0.060068346119208312 0 -0.045626493646092593 0.058466368865663025 0 -0.042261139977381651 0.057551290510055392 0 -0.041043837488098818 0.06031773108510765 0 -0.043895154259789508 0.060068346119208312 0 -0.047209294438321586 0.057345775796142875 0 -0.044593179902324177 0.054542756839992025 0 -0.048799172112096452 0.056090909688198985 0 -0.044341832590498668 0.045691363310587235 0 -0.068651853059811613 0.036982858014001627 0 -0.044593179902324177 0.054542756839992025 0 -0.048799172112096452 0.056090909688198985 0 -0.052992696512398511 0.054129732074678603 0 -0.048708522851346928 0.059791863401287386 0 -0.048799172112096452 0.056090909688198985 0 -0.052992696512398511 0.054129732074678603 0 -0.060817091161405733 0.035747393843897399 0 -0.068651853059811613 0.036982858014001627 0 -0.064864495185004145 0.022666334733268539 0 -0.063513410807650661 0.026403082288247053 0 -0.062261358792884851 0.020756355259321228 0 -0.068652940268467494 0.020638056423001074 0 -0.064864495185004145 0.022666334733268539 0 -0.064437304508638146 0.02636163105141404 0 -0.064864495185004145 0.022666334733268539 0 -0.064437304508638146 0.02636163105141404 0 -0.063513410807650661 0.026403082288247053 0 -0.068651853059811613 0.036982858014001627 0 -0.072448455282218757 0.034973791531973657 0 -0.084119085972738247 0.026192572444486379 0 -0.070479077673742202 0.026795185111093866 0 -0.073552691767334977 0.040120716050948337 0 -0.071910000609692784 0.03625214586339353 0 -0.069438522978593792 0.050295379024698113 0 -0.031787520348231069 0.056489413947191931 0 -0.031930737467966278 0.056308926773404794 0 -0.030565260150934411 0.055831360579854723 0 -0.071910000609692784 0.03625214586339353 0 -0.048969199966971119 0.038332897804043677 0 -0.030724281897956035 0.056212575201668759 0 -0.030092194060519863 0.056006629755454722 0 -0.030440789924707955 0.055560409434340506 0 -0.072448455282218757 0.034973791531973657 0 -0.071910000609692784 0.03625214586339353 0 -0.068651853059811613 0.036982858014001627 0 -0.071910000609692784 0.03625214586339353 0 -0.043428900691833416 0.039566015902367142 0 -0.048969199966971119 0.038332897804043677 0 -0.029615629420800572 0.056102386894640699 0 -0.030187875545108392 0.056543613491905662 0 -0.030565260150934411 0.055831360579854723 0 -0.029493811430725526 0.055718263433322063 0 -0.029615629420800572 0.056102386894640699 0 -0.030565260150934411 0.055831360579854723 0 -0.030187875545108392 0.056543613491905662 0 -0.031787520348231069 0.056489413947191931 0 -0.030565260150934411 0.055831360579854723 0 -0.029493811430725526 0.055718263433322063 0 -0.030092194060519863 0.056006629755454722 0 -0.029871375031608825 0.055660497046127216 0 -0.029918320067102919 0.055378378962047545 0 -0.029871375031608825 0.055660497046127216 0 -0.030440789924707955 0.055560409434340506 0 -0.030092194060519863 0.056006629755454722 0 -0.029871375031608825 0.055660497046127216 0 -0.030440789924707955 0.055560409434340506 0 -0.029918320067102919 0.055378378962047545 0 -0.029541448242547848 0.055436914500140849 0 -0.029871375031608825 0.055660497046127216 0 -0.10030090866084651 0.054713905931256593 0 -0.10023280177396841 0.05418344315385689 0 -0.10078921686844945 0.054276216946521315 0 -0.10777749813836383 0.024245552575997621 0 -0.10997010823702226 0.019760177413315507 0 -0.10563578557901775 0.019495560815633875 0 -0.11377733693081472 0.015580564687878046 0 -0.11085462150276608 0.012567200510097647 0 -0.11377733693081472 0.015580564687878046 0 -0.11085462150276608 0.012567200510097647 0 -0.11405631626447793 0.01049860665747139 0 -0.11085462150276608 0.012567200510097647 0 -0.10864267047926686 0.0096068480500998647 0 -0.10722839801028436 0.011589647237549617 0 -0.11085462150276608 0.012567200510097647 0 -0.10864267047926686 0.0096068480500998647 0 -0.11077129253151267 0.0091658883250146182 0 -0.10864267047926686 0.0096068480500998647 0 -0.11077129253151267 0.0091658883250146182 0 -0.10811786202315293 0.0072975249264883605 0 -0.11077129253151267 0.0091658883250146182 0 -0.11405631626447793 0.01049860665747139 0 -0.11400939373638452 0.008485863752452253 0 -0.11085462150276608 0.012567200510097647 0 -0.11077129253151267 0.0091658883250146182 0 -0.11405631626447793 0.01049860665747139 0 -0.11824649822142212 0.0090107704193707217 0 -0.11377733693081472 0.015580564687878046 0 -0.11405631626447793 0.01049860665747139 0 -0.071910000609692784 0.03625214586339353 0 -0.094013031893616705 0.031829766652900895 0 -0.11405631626447793 0.01049860665747139 0 -0.11676484542001703 0.0083495938990576033 0 -0.11400939373638452 0.008485863752452253 0 -0.11824649822142212 0.0090107704193707217 0 -0.11405631626447793 0.01049860665747139 0 -0.11676484542001703 0.0083495938990576033 0 -0.071910000609692784 0.03625214586339353 0 -0.077579517945715104 0.033446082515297876 0 -0.10023463453801053 0.014059640998136095 0 -0.10282512691258236 0.016473138734161789 0 -0.098760908050966406 0.017731742498755775 0 -0.10023463453801053 0.014059640998136095 0 -0.10282512691258236 0.016473138734161789 0 -0.10378371245008308 0.01237424822014755 0 -0.10673614660336402 0.01814408520267664 0 -0.11085462150276608 0.012567200510097647 0 -0.10630700674926968 0.014226006143683301 0 -0.10282512691258236 0.016473138734161789 0 -0.10630700674926968 0.014226006143683301 0 -0.10378371245008308 0.01237424822014755 0 -0.10673614660336402 0.01814408520267664 0 -0.10282512691258236 0.016473138734161789 0 -0.10630700674926968 0.014226006143683301 0 -0.11085462150276608 0.012567200510097647 0 -0.10630700674926968 0.014226006143683301 0 -0.10722839801028436 0.011589647237549617 0 -0.10864267047926686 0.0096068480500998647 0 -0.10585396198935815 0.0091706660352952434 0 -0.10811786202315293 0.0072975249264883605 0 -0.10864267047926686 0.0096068480500998647 0 -0.10722839801028436 0.011589647237549617 0 -0.10585396198935815 0.0091706660352952434 0 -0.10585396198935815 0.0091706660352952434 0 -0.10267354861568721 0.0099650945439810536 0 -0.10344784105982872 0.0076786307375246105 0 -0.10585396198935815 0.0091706660352952434 0 -0.10378371245008308 0.01237424822014755 0 -0.10267354861568721 0.0099650945439810536 0 -0.10722839801028436 0.011589647237549617 0 -0.10585396198935815 0.0091706660352952434 0 -0.10378371245008308 0.01237424822014755 0 -0.10630700674926968 0.014226006143683301 0 -0.10722839801028436 0.011589647237549617 0 -0.10378371245008308 0.01237424822014755 0 -0.10378371245008308 0.01237424822014755 0 -0.10267354861568721 0.0099650945439810536 0 -0.10037199206870073 0.011105140507855011 0 -0.10267354861568721 0.0099650945439810536 0 -0.10037199206870073 0.011105140507855011 0 -0.10022954764510314 0.0078192545067173151 0 -0.10037199206870073 0.011105140507855011 0 -0.10022954764510314 0.0078192545067173151 0 -0.097433702879777387 0.0094968932143742971 0 -0.10023463453801053 0.014059640998136095 0 -0.10037199206870073 0.011105140507855011 0 -0.098869655283225152 0.012110577113685225 0 -0.10023463453801053 0.014059640998136095 0 -0.10378371245008308 0.01237424822014755 0 -0.10037199206870073 0.011105140507855011 0 -0.10022954764510314 0.0078192545067173151 0 -0.10207572067579389 0.0047048804944632957 0 -0.098866044204578354 0.004245396050773489 0 -0.10267354861568721 0.0099650945439810536 0 -0.10022954764510314 0.0078192545067173151 0 -0.10344784105982872 0.0076786307375246105 0 -0.10344784105982872 0.0076786307375246105 0 -0.10207572067579389 0.0047048804944632957 0 -0.1057374972469506 0.0060996393320660227 0 -0.10022954764510314 0.0078192545067173151 0 -0.10344784105982872 0.0076786307375246105 0 -0.10207572067579389 0.0047048804944632957 0 -0.094875460796426697 0.0084197383280485791 0 -0.09295430878235264 0.015750012111152109 0 -0.1057374972469506 0.0060996393320660227 0 -0.10471548705966593 0.0024595297950749692 0 -0.1102066049905779 0.0052307987858896 0 -0.10207572067579389 0.0047048804944632957 0 -0.1057374972469506 0.0060996393320660227 0 -0.10471548705966593 0.0024595297950749692 0 -0.10585396198935815 0.0091706660352952434 0 -0.10344784105982872 0.0076786307375246105 0 -0.1057374972469506 0.0060996393320660227 0 -0.1057374972469506 0.0060996393320660227 0 -0.10811786202315293 0.0072975249264883605 0 -0.1102066049905779 0.0052307987858896 0 -0.10585396198935815 0.0091706660352952434 0 -0.1057374972469506 0.0060996393320660227 0 -0.10811786202315293 0.0072975249264883605 0 -0.096485552480824646 -0.0047818821931355652 0 -0.095744088919535397 -0.0045854176759510847 0 -0.096911855315241491 -0.0040329122594625951 0 -0.096485552480824646 -0.0047818821931355652 0 -0.096080747947249634 -0.0053401793844684515 0 -0.096973068196986922 -0.0054567086421673672 0 -0.096485552480824646 -0.0047818821931355652 0 -0.096080747947249634 -0.0053401793844684515 0 -0.095744088919535397 -0.0045854176759510847 0 -0.10207572067579389 0.0047048804944632957 0 -0.098866044204578354 0.004245396050773489 0 -0.099150317598683591 -0.00068133655228927502 0 -0.096080747947249634 -0.0053401793844684515 0 -0.095744088919535397 -0.0045854176759510847 0 -0.094631281602464645 -0.0047527181490147853 0 -0.094875460796426697 0.0084197383280485791 0 -0.093962953506340638 0.0039956146900260985 0 -0.10207572067579389 0.0047048804944632957 0 -0.10471548705966593 0.0024595297950749692 0 -0.099150317598683591 -0.00068133655228927502 0 -0.077579517945715104 0.033446082515297876 0 -0.09295430878235264 0.015750012111152109 0 -0.080785397442293641 0.023931918997363095 0 -0.078195338182263319 0.022727305734590211 0 -0.080902840859243152 0.022152481197502703 0 -0.11659841890063115 0.0083975228164096163 0 -0.11400939373638452 0.008485863752452253 0 -0.11005192463123822 0.0053847680504751031 0 -0.072448455282218757 0.034973791531973657 0 -0.077577229052506219 0.022076426554925574 0 -0.081280715835226641 0.0239141985575923 0 -0.080785397442293641 0.023931918997363095 0 -0.080902840859243152 0.022152481197502703 0 -0.072448455282218757 0.034973791531973657 0 -0.077579517945715104 0.033446082515297876 0 -0.0728712731162863 0.032213093452395626 0 -0.073442516770630475 0.034700269431743001 0 -0.068435579996752399 0.03240761878283642 0 -0.077579517945715104 0.033446082515297876 0 -0.082027081443558372 0.032525884706436699 0 -0.11077129253151267 0.0091658883250146182 0 -0.11400939373638452 0.008485863752452253 0 -0.11005192463123822 0.0053847680504751031 0 -0.11077129253151267 0.0091658883250146182 0 -0.10811786202315293 0.0072975249264883605 0 -0.11005192463123822 0.0053847680504751031 0 -0.09475340787337308 0.014206053868647142 0 -0.09295430878235264 0.015750012111152109 0 -0.096485552480824646 -0.0047818821931355652 0 -0.096911855315241491 -0.0040329122594625951 0 -0.096973068196986922 -0.0054567086421673672 0 -0.09295430878235264 0.015750012111152109 0 -0.084109010546403462 0.010500277548608081 0 -0.096911855315241491 -0.0040329122594625951 0 -0.096973068196986922 -0.0054567086421673672 0 -0.098365839125111404 -0.0055139818442077786 0 -0.078195338182263319 0.022727305734590211 0 -0.080902840859243152 0.022152481197502703 0 -0.080521644395656483 0.02039775857679996 0 -0.077577229052506219 0.022076426554925574 0 -0.084109010546403462 0.010500277548608081 0 -0.06493519904775831 0.018788379032301253 0 -0.062261358792884851 0.020756355259321228 0 -0.061032347625142244 0.015136294025743128 0 -0.098365839125111404 -0.0055139818442077786 0 -0.097405356956931907 -0.0063121529747920497 0 -0.09770825075118747 -0.0075056518536612245 0 -0.097565589766835131 -0.0080448651237825849 0 -0.097502888477207103 -0.0078408115101066961 0 -0.09770825075118747 -0.0075056518536612245 0 -0.084109010546403462 0.010500277548608081 0 -0.085223335185997173 0.0034010502601327826 0 -0.096973068196986922 -0.0054567086421673672 0 -0.098365839125111404 -0.0055139818442077786 0 -0.097405356956931907 -0.0063121529747920497 0 -0.096809649478090412 -0.0066549674083316007 0 -0.097405356956931907 -0.0063121529747920497 0 -0.09770825075118747 -0.0075056518536612245 0 -0.096080747947249634 -0.0053401793844684515 0 -0.096973068196986922 -0.0054567086421673672 0 -0.096809649478090412 -0.0066549674083316007 0 -0.096973068196986922 -0.0054567086421673672 0 -0.096809649478090412 -0.0066549674083316007 0 -0.097405356956931907 -0.0063121529747920497 0 -0.096809649478090412 -0.0066549674083316007 0 -0.09683738727073829 -0.0075727099301396506 0 -0.097544898584397216 -0.0078510289707548128 0 -0.096809649478090412 -0.0066549674083316007 0 -0.09770825075118747 -0.0075056518536612245 0 -0.097544898584397216 -0.0078510289707548128 0 -0.09770825075118747 -0.0075056518536612245 0 -0.097544898584397216 -0.0078510289707548128 0 -0.097490461330417721 -0.008010429508012281 0 -0.097502888477207103 -0.0078408115101066961 0 -0.09770825075118747 -0.0075056518536612245 0 -0.097490461330417721 -0.008010429508012281 0 -0.096080747947249634 -0.0053401793844684515 0 -0.095753987457459541 -0.006006225546677289 0 -0.094631281602464645 -0.0047527181490147853 0 -0.095753987457459541 -0.006006225546677289 0 -0.095070398012936458 -0.0062543124378508386 0 -0.094631281602464645 -0.0047527181490147853 0 -0.095070398012936458 -0.0062543124378508386 0 -0.094631281602464645 -0.0047527181490147853 0 -0.094251643560410506 -0.0058393278675571572 0 -0.096080747947249634 -0.0053401793844684515 0 -0.096809649478090412 -0.0066549674083316007 0 -0.095753987457459541 -0.006006225546677289 0 -0.096809649478090412 -0.0066549674083316007 0 -0.095753987457459541 -0.006006225546677289 0 -0.0960304977055189 -0.0069562330915854858 0 -0.096809649478090412 -0.0066549674083316007 0 -0.0960304977055189 -0.0069562330915854858 0 -0.09683738727073829 -0.0075727099301396506 0 -0.095753987457459541 -0.006006225546677289 0 -0.0960304977055189 -0.0069562330915854858 0 -0.095070398012936458 -0.0062543124378508386 0 -0.0960304977055189 -0.0069562330915854858 0 -0.095147426250876702 -0.0071933711532540436 0 -0.095070398012936458 -0.0062543124378508386 0 -0.095147426250876702 -0.0071933711532540436 0 -0.095070398012936458 -0.0062543124378508386 0 -0.094444567366809645 -0.0067014247162393865 0 -0.09518170868959723 -0.0079586225412174427 0 -0.096086581643782976 -0.008131259376998011 0 -0.094802328931328478 -0.0086594921723992836 0 -0.0960304977055189 -0.0069562330915854858 0 -0.095147426250876702 -0.0071933711532540436 0 -0.096086581643782976 -0.008131259376998011 0 -0.09518170868959723 -0.0079586225412174427 0 -0.094802328931328478 -0.0086594921723992836 0 -0.094185814374628654 -0.0076497395384843266 0 -0.095147426250876702 -0.0071933711532540436 0 -0.09518170868959723 -0.0079586225412174427 0 -0.094185814374628654 -0.0076497395384843266 0 -0.095147426250876702 -0.0071933711532540436 0 -0.09518170868959723 -0.0079586225412174427 0 -0.096086581643782976 -0.008131259376998011 0 -0.09683738727073829 -0.0075727099301396506 0 -0.096086581643782976 -0.008131259376998011 0 -0.097400769539808696 -0.0081979094297453606 0 -0.0960304977055189 -0.0069562330915854858 0 -0.09683738727073829 -0.0075727099301396506 0 -0.096086581643782976 -0.008131259376998011 0 -0.096833619093703541 -0.0085692144826198958 0 -0.095571903536580918 -0.0091569187216503593 0 -0.096522984102420981 -0.0093927679484021899 0 -0.096086581643782976 -0.008131259376998011 0 -0.096833619093703541 -0.0085692144826198958 0 -0.097400769539808696 -0.0081979094297453606 0 -0.096086581643782976 -0.008131259376998011 0 -0.096833619093703541 -0.0085692144826198958 0 -0.095571903536580918 -0.0091569187216503593 0 -0.096833619093703541 -0.0085692144826198958 0 -0.097825150787558143 -0.0086274062693532348 0 -0.096522984102420981 -0.0093927679484021899 0 -0.096086581643782976 -0.008131259376998011 0 -0.095571903536580918 -0.0091569187216503593 0 -0.094802328931328478 -0.0086594921723992836 0 -0.095571903536580918 -0.0091569187216503593 0 -0.094802328931328478 -0.0086594921723992836 0 -0.093967059658519161 -0.0093169703803918247 0 -0.097519529136135458 -0.0082455371419772848 0 -0.097544898584397216 -0.0078510289707548128 0 -0.097490461330417721 -0.008010429508012281 0 -0.097652217326952021 -0.0082207331885707346 0 -0.097519529136135458 -0.0082455371419772848 0 -0.097548738191369458 -0.0083860365589337633 0 -0.097652217326952021 -0.0082207331885707346 0 -0.097519529136135458 -0.0082455371419772848 0 -0.097544898584397216 -0.0078510289707548128 0 -0.09683738727073829 -0.0075727099301396506 0 -0.097544898584397216 -0.0078510289707548128 0 -0.097400769539808696 -0.0081979094297453606 0 -0.097652217326952021 -0.0082207331885707346 0 -0.097544898584397216 -0.0078510289707548128 0 -0.097400769539808696 -0.0081979094297453606 0 -0.097652217326952021 -0.0082207331885707346 0 -0.097400769539808696 -0.0081979094297453606 0 -0.097913318486900464 -0.0084307254923979245 0 -0.097400769539808696 -0.0081979094297453606 0 -0.097825150787558143 -0.0086274062693532348 0 -0.097913318486900464 -0.0084307254923979245 0 -0.096833619093703541 -0.0085692144826198958 0 -0.097400769539808696 -0.0081979094297453606 0 -0.097825150787558143 -0.0086274062693532348 0 -0.097825150787558143 -0.0086274062693532348 0 -0.097913318486900464 -0.0084307254923979245 0 -0.098324468705885293 -0.0082479420526695921 0 -0.097652217326952021 -0.0082207331885707346 0 -0.097913318486900464 -0.0084307254923979245 0 -0.097548738191369458 -0.0083860365589337633 0 -0.097913318486900464 -0.0084307254923979245 0 -0.097606844768294093 -0.0082718859763209716 0 -0.09816372468770268 -0.0080277636183304132 0 -0.097913318486900464 -0.0084307254923979245 0 -0.097548738191369458 -0.0083860365589337633 0 -0.097606844768294093 -0.0082718859763209716 0 -0.097606844768294093 -0.0082718859763209716 0 -0.0970428293157658 -0.0084805273169170532 0 -0.097047978599193646 -0.008109954748730188 0 -0.0970428293157658 -0.0084805273169170532 0 -0.096462440488446322 -0.0084131503580434606 0 -0.097047978599193646 -0.008109954748730188 0 -0.097548738191369458 -0.0083860365589337633 0 -0.097606844768294093 -0.0082718859763209716 0 -0.0970428293157658 -0.0084805273169170532 0 -0.097548738191369458 -0.0083860365589337633 0 -0.0970428293157658 -0.0084805273169170532 0 -0.097258813418997003 -0.0084095318398003781 0 -0.097519529136135458 -0.0082455371419772848 0 -0.097548738191369458 -0.0083860365589337633 0 -0.097258813418997003 -0.0084095318398003781 0 -0.097258813418997003 -0.0084095318398003781 0 -0.097123055327404575 -0.0083772516274669955 0 -0.096862065524867411 -0.0085858973466995843 0 -0.0970428293157658 -0.0084805273169170532 0 -0.097258813418997003 -0.0084095318398003781 0 -0.096862065524867411 -0.0085858973466995843 0 -0.097258813418997003 -0.0084095318398003781 0 -0.097123055327404575 -0.0083772516274669955 0 -0.097490461330417721 -0.008010429508012281 0 -0.097519529136135458 -0.0082455371419772848 0 -0.097258813418997003 -0.0084095318398003781 0 -0.097490461330417721 -0.008010429508012281 0 -0.097123055327404575 -0.0083772516274669955 0 -0.096653479202938944 -0.0087197049384088992 0 -0.096862065524867411 -0.0085858973466995843 0 -0.096653479202938944 -0.0087197049384088992 0 -0.096862065524867411 -0.0085858973466995843 0 -0.096344399162512806 -0.0087080367320783482 0 -0.0970428293157658 -0.0084805273169170532 0 -0.096862065524867411 -0.0085858973466995843 0 -0.096344399162512806 -0.0087080367320783482 0 -0.0970428293157658 -0.0084805273169170532 0 -0.096344399162512806 -0.0087080367320783482 0 -0.096462440488446322 -0.0084131503580434606 0 -0.096344399162512806 -0.0087080367320783482 0 -0.095722657824596907 -0.0086188493951242107 0 -0.096462440488446322 -0.0084131503580434606 0 -0.096653479202938944 -0.0087197049384088992 0 -0.096344399162512806 -0.0087080367320783482 0 -0.095466063030246254 -0.0089074552623145571 0 -0.096696330834515926 -0.016879873599584722 0 -0.094980041665668799 -0.013251445390560784 0 -0.093983119063878393 -0.014242415263370261 0 -0.096344399162512806 -0.0087080367320783482 0 -0.095466063030246254 -0.0089074552623145571 0 -0.095722657824596907 -0.0086188493951242107 0 -0.094980041665668799 -0.013251445390560784 0 -0.093983119063878393 -0.014242415263370261 0 -0.090830656994446479 -0.01137202254697558 0 -0.079091141226761474 -0.0020272626431960062 0 -0.082556168939909219 -0.0031754735349991937 0 -0.083692657315744295 -0.0061539005307560879 0 -0.086854454573515136 -0.0059699740259370861 0 -0.087383646459972014 -0.0073456251178815003 0 -0.079091141226761474 -0.0020272626431960062 0 -0.082556168939909219 -0.0031754735349991937 0 -0.081102975659866433 -8.4455712650860216e-05 0 -0.082556168939909219 -0.0031754735349991937 0 -0.083811844480849759 -0.00013260399350000613 0 -0.081102975659866433 -8.4455712650860216e-05 0 -0.061423360521474353 0.013166621984928564 0 -0.060052652100020004 0.018049695300706606 0 -0.083811844480849759 -0.00013260399350000613 0 -0.080032021014244503 0.002636844524451632 0 -0.078724118979609306 0.0073432502441335944 0 -0.038794993985852524 0.024535008780855665 0 -0.039940894552006202 0.023104194806988252 0 -0.038867410973724099 0.023456435629072746 0 -0.083811844480849759 -0.00013260399350000613 0 -0.081102975659866433 -8.4455712650860216e-05 0 -0.080032021014244503 0.002636844524451632 0 -0.079091141226761474 -0.0020272626431960062 0 -0.081102975659866433 -8.4455712650860216e-05 0 -0.080032021014244503 0.002636844524451632 0 -0.074035640996442553 0.0028521280561603374 0 -0.079091141226761474 -0.0020272626431960062 0 -0.080032021014244503 0.002636844524451632 0 -0.074035640996442553 0.0028521280561603374 0 -0.080032021014244503 0.002636844524451632 0 -0.077937746727017823 0.0047542739906336149 0 -0.08524185303958591 -0.0025275050003841222 0 -0.090633654072688932 -0.0090985846475348311 0 -0.08524185303958591 -0.0025275050003841222 0 -0.086854454573515136 -0.0059699740259370861 0 -0.074035640996442553 0.0028521280561603374 0 -0.076304076339775845 0.0061986456597666519 0 -0.073638318445240672 0.0074902542200838383 0 -0.074035640996442553 0.0028521280561603374 0 -0.076304076339775845 0.0061986456597666519 0 -0.077937746727017823 0.0047542739906336149 0 -0.076304076339775845 0.0061986456597666519 0 -0.077937746727017823 0.0047542739906336149 0 -0.078724118979609306 0.0073432502441335944 0 -0.080032021014244503 0.002636844524451632 0 -0.077937746727017823 0.0047542739906336149 0 -0.078724118979609306 0.0073432502441335944 0 -0.076304076339775845 0.0061986456597666519 0 -0.078724118979609306 0.0073432502441335944 0 -0.076634172392228847 0.0086210064950957878 0 -0.076304076339775845 0.0061986456597666519 0 -0.076634172392228847 0.0086210064950957878 0 -0.073638318445240672 0.0074902542200838383 0 -0.076634172392228847 0.0086210064950957878 0 -0.074138611521040954 0.0091695266533983796 0 -0.073638318445240672 0.0074902542200838383 0 -0.039940894552006202 0.023104194806988252 0 -0.038867410973724099 0.023456435629072746 0 -0.039372212608721778 0.022834637162024638 0 -0.039940894552006202 0.023104194806988252 0 -0.039372212608721778 0.022834637162024638 0 -0.039898169245164913 0.022432545529368214 0 -0.038867410973724099 0.023456435629072746 0 -0.039372212608721778 0.022834637162024638 0 -0.038841315876596519 0.022835567599740651 0 -0.039261239898981039 0.022397335741614437 0 -0.038500798346122571 0.02242576808678361 0 -0.038762351733092192 0.021933007412603425 0 -0.038841315876596519 0.022835567599740651 0 -0.039261239898981039 0.022397335741614437 0 -0.038500798346122571 0.02242576808678361 0 -0.039372212608721778 0.022834637162024638 0 -0.038841315876596519 0.022835567599740651 0 -0.039261239898981039 0.022397335741614437 0 -0.039372212608721778 0.022834637162024638 0 -0.039261239898981039 0.022397335741614437 0 -0.039898169245164913 0.022432545529368214 0 -0.039261239898981039 0.022397335741614437 0 -0.039898169245164913 0.022432545529368214 0 -0.039867969350576002 0.021906446851059809 0 -0.039261239898981039 0.022397335741614437 0 -0.039276869436638023 0.021740603998342406 0 -0.039867969350576002 0.021906446851059809 0 -0.039261239898981039 0.022397335741614437 0 -0.039276869436638023 0.021740603998342406 0 -0.038762351733092192 0.021933007412603425 0 -0.041092483151918949 0.021665112012953947 0 -0.039898169245164913 0.022432545529368214 0 -0.039867969350576002 0.021906446851059809 0 -0.055444373423747258 0.030017508584135138 0 -0.060052652100020004 0.018049695300706606 0 -0.041092483151918949 0.021665112012953947 0 -0.039940894552006202 0.023104194806988252 0 -0.039898169245164913 0.022432545529368214 0 -0.076634172392228847 0.0086210064950957878 0 -0.072365231809454519 0.014473427811257938 0 -0.073525005226577372 0.010795000765506822 0 -0.072480222429406785 0.015798483030991853 0 -0.078724118979609306 0.0073432502441335944 0 -0.076634172392228847 0.0086210064950957878 0 -0.06548606661530855 0.018436828355808125 0 -0.056731857826263998 0.029015160660211311 0 -0.076634172392228847 0.0086210064950957878 0 -0.074138611521040954 0.0091695266533983796 0 -0.073525005226577372 0.010795000765506822 0 -0.072365231809454519 0.014473427811257938 0 -0.071904825182018031 0.012301129042221571 0 -0.073525005226577372 0.010795000765506822 0 -0.072480222429406785 0.015798483030991853 0 -0.076634172392228847 0.0086210064950957878 0 -0.07164308669929928 0.015415750820034239 0 -0.072365231809454519 0.014473427811257938 0 -0.071904825182018031 0.012301129042221571 0 -0.070991775015429776 0.013076779639487324 0 -0.072748554134972748 0.0097695416748607173 0 -0.069786693039256359 0.011626568747048278 0 -0.073638318445240672 0.0074902542200838383 0 -0.071904825182018031 0.012301129042221571 0 -0.073525005226577372 0.010795000765506822 0 -0.07187209619408691 0.01101284297681172 0 -0.073525005226577372 0.010795000765506822 0 -0.07187209619408691 0.01101284297681172 0 -0.072748554134972748 0.0097695416748607173 0 -0.074138611521040954 0.0091695266533983796 0 -0.073525005226577372 0.010795000765506822 0 -0.072748554134972748 0.0097695416748607173 0 -0.07187209619408691 0.01101284297681172 0 -0.072748554134972748 0.0097695416748607173 0 -0.069786693039256359 0.011626568747048278 0 -0.07187209619408691 0.01101284297681172 0 -0.071085612655149483 0.011780582936078206 0 -0.069786693039256359 0.011626568747048278 0 -0.071904825182018031 0.012301129042221571 0 -0.07187209619408691 0.01101284297681172 0 -0.071085612655149483 0.011780582936078206 0 -0.071085612655149483 0.011780582936078206 0 -0.069786693039256359 0.011626568747048278 0 -0.070653626187326818 0.012465054549202258 0 -0.072891245123513762 0.014925134605694239 0 -0.069770725313020601 0.014860435518624017 0 -0.069013823856174161 0.013086492167191479 0 -0.072365231809454519 0.014473427811257938 0 -0.070991775015429776 0.013076779639487324 0 -0.069013823856174161 0.013086492167191479 0 -0.070653626187326818 0.012465054549202258 0 -0.070991775015429776 0.013076779639487324 0 -0.069013823856174161 0.013086492167191479 0 -0.069786693039256359 0.011626568747048278 0 -0.070653626187326818 0.012465054549202258 0 -0.069013823856174161 0.013086492167191479 0 -0.056731857826263998 0.029015160660211311 0 -0.058050860587258675 0.028568710481858321 0 -0.071904825182018031 0.012301129042221571 0 -0.070653626187326818 0.012465054549202258 0 -0.070991775015429776 0.013076779639487324 0 -0.071904825182018031 0.012301129042221571 0 -0.071085612655149483 0.011780582936078206 0 -0.070653626187326818 0.012465054549202258 0 -0.061032347625142244 0.015136294025743128 0 -0.066187609059410804 0.01291819096421643 0 -0.067887025242700461 0.0082197117740716724 0 -0.067845165622359815 0.015135180431181635 0 -0.069770725313020601 0.014860435518624017 0 -0.069013823856174161 0.013086492167191479 0 -0.065508067162001207 0.015915615559026184 0 -0.067845165622359815 0.015135180431181635 0 -0.066187609059410804 0.01291819096421643 0 -0.097565589766835131 -0.0080448651237825849 0 -0.097502888477207103 -0.0078408115101066961 0 -0.097299792377169542 -0.0080593682643366592 0 -0.067845165622359815 0.015135180431181635 0 -0.066187609059410804 0.01291819096421643 0 -0.069013823856174161 0.013086492167191479 0 -0.084109010546403462 0.010500277548608081 0 -0.084520584520429876 0.0027756718009799429 0 -0.069786693039256359 0.011626568747048278 0 -0.069013823856174161 0.013086492167191479 0 -0.068226410060675174 0.011476453833385882 0 -0.066187609059410804 0.01291819096421643 0 -0.069013823856174161 0.013086492167191479 0 -0.068226410060675174 0.011476453833385882 0 -0.065508067162001207 0.015915615559026184 0 -0.061032347625142244 0.015136294025743128 0 -0.066187609059410804 0.01291819096421643 0 -0.066187609059410804 0.01291819096421643 0 -0.068226410060675174 0.011476453833385882 0 -0.067887025242700461 0.0082197117740716724 0 -0.069786693039256359 0.011626568747048278 0 -0.068226410060675174 0.011476453833385882 0 -0.067887025242700461 0.0082197117740716724 0 -0.097502888477207103 -0.0078408115101066961 0 -0.097299792377169542 -0.0080593682643366592 0 -0.097490461330417721 -0.008010429508012281 0 -0.097123055327404575 -0.0083772516274669955 0 -0.097299792377169542 -0.0080593682643366592 0 -0.097490461330417721 -0.008010429508012281 0 -0.075155753705721542 0.0010839001962191382 0 -0.069786693039256359 0.011626568747048278 0 -0.067887025242700461 0.0082197117740716724 0 -0.08524185303958591 -0.0025275050003841222 0 -0.084520584520429876 0.0027756718009799429 0 -0.097123055327404575 -0.0083772516274669955 0 -0.096653479202938944 -0.0087197049384088992 0 -0.097299792377169542 -0.0080593682643366592 0 -0.08524185303958591 -0.0025275050003841222 0 -0.078091703803509702 0.0069678208093666037 0 -0.074035640996442553 0.0028521280561603374 0 -0.069786693039256359 0.011626568747048278 0 -0.073638318445240672 0.0074902542200838383 0 -0.074138611521040954 0.0091695266533983796 0 -0.072748554134972748 0.0097695416748607173 0 -0.073638318445240672 0.0074902542200838383 0 -0.084999910986224766 0.036445437696547983 0 -0.087552293316686208 0.034819870631160654 0 -0.084999985772858375 0.031865108518155216 0 -0.08757009849151301 0.032495303032347309 0 -0.087552293316686208 0.034819870631160654 0 -0.084999985772858375 0.031865108518155216 0 -0.08757009849151301 0.032495303032347309 0 -0.089873094334410403 0.034585219370853432 0 -0.091145707083467212 0.032887712313795198 0 -0.08757009849151301 0.032495303032347309 0 -0.089873094334410403 0.034585219370853432 0 -0.087552293316686208 0.034819870631160654 0 -0.089746768445204128 0.037011127691787174 0 -0.087552293316686208 0.034819870631160654 0 -0.087666871361307241 0.037973006627811778 0 -0.089873094334410403 0.034585219370853432 0 -0.089746768445204128 0.037011127691787174 0 -0.087552293316686208 0.034819870631160654 0 -0.084999910986224766 0.036445437696547983 0 -0.087552293316686208 0.034819870631160654 0 -0.087666871361307241 0.037973006627811778 0 -0.084999910986224766 0.036445437696547983 0 -0.087117909734472046 0.040266772293824429 0 -0.084999937392825547 0.041025831723868082 0 -0.084999910986224766 0.036445437696547983 0 -0.087117909734472046 0.040266772293824429 0 -0.087666871361307241 0.037973006627811778 0 -0.087518518052340372 0.043044681721148233 0 -0.087117909734472046 0.040266772293824429 0 -0.084999937392825547 0.041025831723868082 0 -0.087518518052340372 0.043044681721148233 0 -0.087117909734472046 0.040266772293824429 0 -0.089195213731627546 0.040906860446491985 0 -0.089195213731627546 0.040906860446491985 0 -0.087666871361307241 0.037973006627811778 0 -0.091399685823873492 0.038779435597287748 0 -0.089746768445204128 0.037011127691787174 0 -0.087666871361307241 0.037973006627811778 0 -0.091543260413172997 0.038219031201138738 0 -0.087117909734472046 0.040266772293824429 0 -0.089195213731627546 0.040906860446491985 0 -0.087666871361307241 0.037973006627811778 0 -0.090140660505627065 0.037973318275777497 0 -0.091876142820980056 0.038086277065501217 0 -0.089746768445204128 0.037011127691787174 0 -0.091543260413172997 0.038219031201138738 0 -0.093498336753553041 0.037152528630051772 0 -0.090317758951851512 0.044148808606481293 0 -0.089195213731627546 0.040906860446491985 0 -0.091014245213442924 0.041243238369865293 0 -0.091399685823873492 0.038779435597287748 0 -0.091014245213442924 0.041243238369865293 0 -0.092838257867341817 0.041940291477043236 0 -0.090317758951851512 0.044148808606481293 0 -0.091014245213442924 0.041243238369865293 0 -0.092838257867341817 0.041940291477043236 0 -0.089195213731627546 0.040906860446491985 0 -0.091399685823873492 0.038779435597287748 0 -0.091014245213442924 0.041243238369865293 0 -0.092838257867341817 0.041940291477043236 0 -0.095004031034575123 0.039402955192407198 0 -0.095479323029893454 0.041571459270311847 0 -0.095541428985069607 0.043689341078632073 0 -0.092838257867341817 0.041940291477043236 0 -0.095479323029893454 0.041571459270311847 0 -0.091876142820980056 0.038086277065501217 0 -0.094940637661007007 0.038120463091558213 0 -0.093498336753553041 0.037152528630051772 0 -0.095910673628823953 0.036186564259007917 0 -0.095170900212936949 0.038557469296945493 0 -0.091543260413172997 0.038219031201138738 0 -0.093498336753553041 0.037152528630051772 0 -0.095170900212936949 0.038557469296945493 0 -0.091399685823873492 0.038779435597287748 0 -0.092838257867341817 0.041940291477043236 0 -0.095004031034575123 0.039402955192407198 0 -0.09383765391964205 0.034953287162819507 0 -0.093498336753553041 0.037152528630051772 0 -0.095910673628823953 0.036186564259007917 0 -0.090858194473474235 0.033384160786861856 0 -0.092786976220293305 0.031220902474897699 0 -0.089746768445204128 0.037011127691787174 0 -0.09383765391964205 0.034953287162819507 0 -0.093498336753553041 0.037152528630051772 0 -0.089873094334410403 0.034585219370853432 0 -0.089746768445204128 0.037011127691787174 0 -0.094181074563711345 0.034642041457884264 0 -0.089873094334410403 0.034585219370853432 0 -0.094181074563711345 0.034642041457884264 0 -0.091145707083467212 0.032887712313795198 0 -0.094181074563711345 0.034642041457884264 0 -0.096677642070677985 0.031288774803991913 0 -0.094864903875824538 0.031483964375309439 0 -0.094181074563711345 0.034642041457884264 0 -0.093273058044076054 0.03206844264560034 0 -0.094864903875824538 0.031483964375309439 0 -0.094181074563711345 0.034642041457884264 0 -0.091145707083467212 0.032887712313795198 0 -0.093273058044076054 0.03206844264560034 0 -0.09383765391964205 0.034953287162819507 0 -0.097811569030593223 0.032943316425207654 0 -0.096462307734527769 0.035006970592870744 0 -0.092786976220293305 0.031220902474897699 0 -0.095950542198121561 0.025155922213172571 0 -0.094181074563711345 0.034642041457884264 0 -0.098569102363656111 0.032346655377175633 0 -0.096677642070677985 0.031288774803991913 0 -0.097811569030593223 0.032943316425207654 0 -0.098284342925364448 0.035942682556020678 0 -0.096462307734527769 0.035006970592870744 0 -0.096933463063416048 0.0209018680301187 0 -0.097154688098665329 0.022672407608092887 0 -0.095950542198121561 0.025155922213172571 0 -0.097164950485057425 0.033509465836603337 0 -0.097028640855067405 0.032458448717190225 0 -0.098011804968265961 0.031961611531511086 0 -0.097617156786857534 0.036157462681385262 0 -0.098011804968265961 0.031961611531511086 0 -0.097617156786857534 0.036157462681385262 0 -0.10032963667519895 0.035815401530849361 0 -0.095950542198121561 0.025155922213172571 0 -0.096933463063416048 0.0209018680301187 0 -0.097617156786857534 0.036157462681385262 0 -0.099593849453633115 0.038118800026743851 0 -0.10032963667519895 0.035815401530849361 0 -0.098284342925364448 0.035942682556020678 0 -0.096462307734527769 0.035006970592870744 0 -0.095910673628823953 0.036186564259007917 0 -0.098284342925364448 0.035942682556020678 0 -0.095910673628823953 0.036186564259007917 0 -0.097059546829186452 0.037267622214906218 0 -0.09383765391964205 0.034953287162819507 0 -0.096462307734527769 0.035006970592870744 0 -0.095910673628823953 0.036186564259007917 0 -0.095910673628823953 0.036186564259007917 0 -0.097059546829186452 0.037267622214906218 0 -0.095170900212936949 0.038557469296945493 0 -0.095004031034575123 0.039402955192407198 0 -0.096815636631730789 0.040699381733058482 0 -0.098545970117526707 0.039883349803959717 0 -0.094940637661007007 0.038120463091558213 0 -0.097590295293716753 0.037698143361298495 0 -0.097059546829186452 0.037267622214906218 0 -0.095170900212936949 0.038557469296945493 0 -0.098754950006779044 0.038928689114232619 0 -0.095004031034575123 0.039402955192407198 0 -0.095479323029893454 0.041571459270311847 0 -0.096815636631730789 0.040699381733058482 0 -0.095479323029893454 0.041571459270311847 0 -0.096815636631730789 0.040699381733058482 0 -0.09719031043262466 0.042156942607463763 0 -0.095541428985069607 0.043689341078632073 0 -0.095479323029893454 0.041571459270311847 0 -0.09719031043262466 0.042156942607463763 0 -0.098313318716682557 0.043905987549895276 0 -0.09719031043262466 0.042156942607463763 0 -0.098957100436108406 0.042321186127236676 0 -0.09719031043262466 0.042156942607463763 0 -0.098957100436108406 0.042321186127236676 0 -0.098678785528166613 0.040776529198619814 0 -0.096815636631730789 0.040699381733058482 0 -0.098678785528166613 0.040776529198619814 0 -0.098545970117526707 0.039883349803959717 0 -0.096815636631730789 0.040699381733058482 0 -0.09719031043262466 0.042156942607463763 0 -0.098678785528166613 0.040776529198619814 0 -0.098957100436108406 0.042321186127236676 0 -0.098678785528166613 0.040776529198619814 0 -0.10009864440849904 0.041675927072089718 0 -0.097164950485057425 0.033509465836603337 0 -0.097590295293716753 0.037698143361298495 0 -0.098678785528166613 0.040776529198619814 0 -0.098520123004797691 0.03983038673117216 0 -0.099869048760434551 0.03993343901732873 0 -0.098220184513700598 0.039765628421469315 0 -0.099593849453633115 0.038118800026743851 0 -0.099869048760434551 0.03993343901732873 0 -0.097590295293716753 0.037698143361298495 0 -0.09782330711865829 0.037786582129304025 0 -0.097617156786857534 0.036157462681385262 0 -0.098220184513700598 0.039765628421469315 0 -0.099593849453633115 0.038118800026743851 0 -0.098284342925364448 0.035942682556020678 0 -0.097059546829186452 0.037267622214906218 0 -0.098754950006779044 0.038928689114232619 0 -0.097624594185559202 0.037859127346444907 0 -0.097590295293716753 0.037698143361298495 0 -0.099593849453633115 0.038118800026743851 0 -0.10243542487263836 0.039551353670392829 0 -0.10032963667519895 0.035815401530849361 0 -0.099593849453633115 0.038118800026743851 0 -0.099869048760434551 0.03993343901732873 0 -0.10243542487263836 0.039551353670392829 0 -0.098711363082314499 0.026581201045334041 0 -0.097154688098665329 0.022672407608092887 0 -0.099869048760434551 0.03993343901732873 0 -0.10172458340688616 0.041814914456526908 0 -0.10009864440849904 0.041675927072089718 0 -0.098678785528166613 0.040776529198619814 0 -0.099869048760434551 0.03993343901732873 0 -0.10009864440849904 0.041675927072089718 0 -0.099869048760434551 0.03993343901732873 0 -0.10172458340688616 0.041814914456526908 0 -0.10243542487263836 0.039551353670392829 0 -0.10053881645286182 0.043109090477147144 0 -0.098957100436108406 0.042321186127236676 0 -0.10009864440849904 0.041675927072089718 0 -0.10053881645286182 0.043109090477147144 0 -0.10172458340688616 0.041814914456526908 0 -0.10009864440849904 0.041675927072089718 0 -0.10049641557513572 0.03140983872731231 0 -0.098711363082314499 0.026581201045334041 0 -0.10172458340688616 0.041814914456526908 0 -0.10434674480232621 0.042909279869072899 0 -0.10243542487263836 0.039551353670392829 0 -0.098760908050966406 0.017731742498755775 0 -0.09734166037166285 0.01364316430749931 0 -0.095562402046211178 0.012369755237614095 0 -0.10227341083012974 0.044047411995910384 0 -0.10172458340688616 0.041814914456526908 0 -0.10434674480232621 0.042909279869072899 0 -0.10023463453801053 0.014059640998136095 0 -0.098760908050966406 0.017731742498755775 0 -0.09734166037166285 0.01364316430749931 0 -0.09734166037166285 0.01364316430749931 0 -0.098869655283225152 0.012110577113685225 0 -0.097433702879777387 0.0094968932143742971 0 -0.09734166037166285 0.01364316430749931 0 -0.097433702879777387 0.0094968932143742971 0 -0.09299907631923425 0.005511635395224793 0 -0.09734166037166285 0.01364316430749931 0 -0.095562402046211178 0.012369755237614095 0 -0.094455716258725717 0.0080112553660138582 0 -0.10023463453801053 0.014059640998136095 0 -0.09734166037166285 0.01364316430749931 0 -0.098869655283225152 0.012110577113685225 0 -0.094812427946819322 0.010865089059781414 0 -0.093596123021607983 0.0091499342050978781 0 -0.10037199206870073 0.011105140507855011 0 -0.098869655283225152 0.012110577113685225 0 -0.097433702879777387 0.0094968932143742971 0 -0.10022954764510314 0.0078192545067173151 0 -0.097433702879777387 0.0094968932143742971 0 -0.097051801499815765 0.0060137682577193381 0 -0.10022954764510314 0.0078192545067173151 0 -0.097051801499815765 0.0060137682577193381 0 -0.098866044204578354 0.004245396050773489 0 -0.097051801499815765 0.0060137682577193381 0 -0.098866044204578354 0.004245396050773489 0 -0.095556326248691814 0.0029849018413097826 0 -0.097051801499815765 0.0060137682577193381 0 -0.09299907631923425 0.005511635395224793 0 -0.095556326248691814 0.0029849018413097826 0 -0.097433702879777387 0.0094968932143742971 0 -0.097051801499815765 0.0060137682577193381 0 -0.09299907631923425 0.005511635395224793 0 -0.095562402046211178 0.012369755237614095 0 -0.092936315170562986 0.0078968730689189578 0 -0.094455716258725717 0.0080112553660138582 0 -0.093596123021607983 0.0091499342050978781 0 -0.095537122842277986 0.015812553865209387 0 -0.09299907631923425 0.005511635395224793 0 -0.090760184262211233 -0.00052986234903451622 0 -0.095556326248691814 0.0029849018413097826 0 -0.090550190023637886 0.0040493218226147296 0 -0.094455716258725717 0.0080112553660138582 0 -0.092072150696266425 0.0032872942995793289 0 -0.090760184262211233 -0.00052986234903451622 0 -0.095085759570328818 -0.00025400145241646677 0 -0.095556326248691814 0.0029849018413097826 0 -0.09299907631923425 0.005511635395224793 0 -0.090760184262211233 -0.00052986234903451622 0 -0.088636812654510844 -0.0034128609940508895 0 -0.090550190023637886 0.0040493218226147296 0 -0.092936315170562986 0.0078968730689189578 0 -0.094455716258725717 0.0080112553660138582 0 -0.090760184262211233 -0.00052986234903451622 0 -0.093008583506432638 -0.0016819066169408631 0 -0.095085759570328818 -0.00025400145241646677 0 -0.090760184262211233 -0.00052986234903451622 0 -0.093008583506432638 -0.0016819066169408631 0 -0.09038843043046639 -0.0045003846320147509 0 -0.093008583506432638 -0.0016819066169408631 0 -0.095085759570328818 -0.00025400145241646677 0 -0.092965243766452391 -0.0044646482260444721 0 -0.095085759570328818 -0.00025400145241646677 0 -0.099150317598683591 -0.00068133655228927502 0 -0.092965243766452391 -0.0044646482260444721 0 -0.098866044204578354 0.004245396050773489 0 -0.099150317598683591 -0.00068133655228927502 0 -0.095556326248691814 0.0029849018413097826 0 -0.095085759570328818 -0.00025400145241646677 0 -0.099150317598683591 -0.00068133655228927502 0 -0.095556326248691814 0.0029849018413097826 0 -0.094631281602464645 -0.0047527181490147853 0 -0.093690230823648482 -0.0053368163963522256 0 -0.094251643560410506 -0.0058393278675571572 0 -0.093962953506340638 0.0039956146900260985 0 -0.092933729841268242 0.0023332334190661387 0 -0.094631281602464645 -0.0047527181490147853 0 -0.093690230823648482 -0.0053368163963522256 0 -0.092965243766452391 -0.0044646482260444721 0 -0.093690230823648482 -0.0053368163963522256 0 -0.092750176843109877 -0.005269130031597704 0 -0.09348635215191245 -0.0065380354692699425 0 -0.093690230823648482 -0.0053368163963522256 0 -0.094251643560410506 -0.0058393278675571572 0 -0.09348635215191245 -0.0065380354692699425 0 -0.093690230823648482 -0.0053368163963522256 0 -0.092965243766452391 -0.0044646482260444721 0 -0.092750176843109877 -0.005269130031597704 0 -0.092274623125855423 -0.0050160411085012901 0 -0.092750176843109877 -0.005269130031597704 0 -0.092280725348631604 -0.006994463269529805 0 -0.093008583506432638 -0.0016819066169408631 0 -0.092965243766452391 -0.0044646482260444721 0 -0.09038843043046639 -0.0045003846320147509 0 -0.092965243766452391 -0.0044646482260444721 0 -0.09038843043046639 -0.0045003846320147509 0 -0.092750176843109877 -0.005269130031597704 0 -0.094038349960221423 0.013975699269869741 0 -0.09431984854415168 0.013457116958672593 0 -0.093636743183373949 0.011477646202782804 0 -0.094038349960221423 0.013975699269869741 0 -0.090760184262211233 -0.00052986234903451622 0 -0.088636812654510844 -0.0034128609940508895 0 -0.090239559106844988 -0.0042121333080227209 0 -0.095537122842277986 0.015812553865209387 0 -0.094038349960221423 0.013975699269869741 0 -0.092750176843109877 -0.005269130031597704 0 -0.092280725348631604 -0.006994463269529805 0 -0.09348635215191245 -0.0065380354692699425 0 -0.094038349960221423 0.013975699269869741 0 -0.094945721565836139 0.010464085436342535 0 -0.092280725348631604 -0.006994463269529805 0 -0.09348635215191245 -0.0065380354692699425 0 -0.093119388082575527 -0.0078165113797145618 0 -0.094251643560410506 -0.0058393278675571572 0 -0.09348635215191245 -0.0065380354692699425 0 -0.094444567366809645 -0.0067014247162393865 0 -0.095070398012936458 -0.0062543124378508386 0 -0.094251643560410506 -0.0058393278675571572 0 -0.094444567366809645 -0.0067014247162393865 0 -0.095147426250876702 -0.0071933711532540436 0 -0.094444567366809645 -0.0067014247162393865 0 -0.094185814374628654 -0.0076497395384843266 0 -0.09348635215191245 -0.0065380354692699425 0 -0.094444567366809645 -0.0067014247162393865 0 -0.094185814374628654 -0.0076497395384843266 0 -0.09348635215191245 -0.0065380354692699425 0 -0.094185814374628654 -0.0076497395384843266 0 -0.093119388082575527 -0.0078165113797145618 0 -0.094185814374628654 -0.0076497395384843266 0 -0.093891616070575237 -0.0084994236468204989 0 -0.093119388082575527 -0.0078165113797145618 0 -0.094802328931328478 -0.0086594921723992836 0 -0.094185814374628654 -0.0076497395384843266 0 -0.093891616070575237 -0.0084994236468204989 0 -0.094802328931328478 -0.0086594921723992836 0 -0.093891616070575237 -0.0084994236468204989 0 -0.093967059658519161 -0.0093169703803918247 0 -0.093891616070575237 -0.0084994236468204989 0 -0.093967059658519161 -0.0093169703803918247 0 -0.093064404167539527 -0.0086253702183710125 0 -0.092986564882942616 -0.0092772193566311167 0 -0.093064404167539527 -0.0086253702183710125 0 -0.092203191299336629 -0.0087216616853588343 0 -0.092986564882942616 -0.0092772193566311167 0 -0.092203191299336629 -0.0087216616853588343 0 -0.092107537881379153 -0.0093604820916697272 0 -0.093967059658519161 -0.0093169703803918247 0 -0.092986564882942616 -0.0092772193566311167 0 -0.093064404167539527 -0.0086253702183710125 0 -0.093891616070575237 -0.0084994236468204989 0 -0.093064404167539527 -0.0086253702183710125 0 -0.093119388082575527 -0.0078165113797145618 0 -0.093064404167539527 -0.0086253702183710125 0 -0.093119388082575527 -0.0078165113797145618 0 -0.092157115726902591 -0.0087481701859302829 0 -0.094919609488486295 0.009253769302971256 0 -0.096007874876355787 0.010510045763521816 0 -0.092280725348631604 -0.006994463269529805 0 -0.093119388082575527 -0.0078165113797145618 0 -0.092157115726902591 -0.0087481701859302829 0 -0.094945721565836139 0.010464085436342535 0 -0.096007874876355787 0.010510045763521816 0 -0.098563783814454395 0.025249002031391396 0 -0.097940420685254728 0.024975036144934501 0 -0.098025816980796932 0.024326436413404318 0 -0.098563783814454395 0.025249002031391396 0 -0.098025816980796932 0.024326436413404318 0 -0.098537923776853317 0.023431363309067522 0 -0.097940420685254728 0.024975036144934501 0 -0.097514207688502733 0.024806450501277669 0 -0.098025816980796932 0.024326436413404318 0 -0.097514207688502733 0.024806450501277669 0 -0.09740565814068379 0.025265400079373161 0 -0.097577011197909208 0.025122633275442952 0 -0.097940420685254728 0.024975036144934501 0 -0.097514207688502733 0.024806450501277669 0 -0.097577011197909208 0.025122633275442952 0 -0.097514207688502733 0.024806450501277669 0 -0.098025816980796932 0.024326436413404318 0 -0.096935265067904258 0.024415947476869176 0 -0.098025816980796932 0.024326436413404318 0 -0.098537923776853317 0.023431363309067522 0 -0.097659018995318272 0.023143070945536335 0 -0.098025816980796932 0.024326436413404318 0 -0.097659018995318272 0.023143070945536335 0 -0.096935265067904258 0.024415947476869176 0 -0.096007874876355787 0.010510045763521816 0 -0.094959239231618961 0.013602311628695688 0 -0.092772647582370221 0.018778967844537076 0 -0.094213729969802373 0.017893295031375503 0 -0.093361059636980298 0.016952837279474085 0 -0.094959239231618961 0.013602311628695688 0 -0.096710141246394613 0.010440545088287458 0 -0.0962688117183748 0.012374635822484365 0 -0.097053109710392438 0.012493076275118821 0 -0.096350150187276509 0.012950066190177658 0 -0.096007874876355787 0.010510045763521816 0 -0.096710141246394613 0.010440545088287458 0 -0.097659018995318272 0.023143070945536335 0 -0.096935265067904258 0.024415947476869176 0 -0.094858580907864809 0.024753632413441209 0 -0.094959239231618961 0.013602311628695688 0 -0.091928425385730303 0.017318146065897544 0 -0.092772647582370221 0.018778967844537076 0 -0.089609996572929757 0.018409582772261134 0 -0.090992492751183873 0.016842030190674644 0 -0.094959239231618961 0.013602311628695688 0 -0.093525985689141194 0.017001372877548201 0 -0.098430248223425443 0.022386946774728959 0 -0.094858580907864809 0.024753632413441209 0 -0.093964621710496618 0.021755580062334513 0 -0.097514207688502733 0.024806450501277669 0 -0.096935265067904258 0.024415947476869176 0 -0.09740565814068379 0.025265400079373161 0 -0.097301418972858739 0.025172639250459015 0 -0.09733469858295149 0.025282344384681021 0 -0.096935265067904258 0.024415947476869176 0 -0.096020227893003365 0.026087921932706534 0 -0.094858580907864809 0.024753632413441209 0 -0.096935265067904258 0.024415947476869176 0 -0.096020227893003365 0.026087921932706534 0 -0.097636593113212017 0.027006239907799798 0 -0.096020227893003365 0.026087921932706534 0 -0.096349498803983885 0.027209321491111028 0 -0.09475442707991899 0.028021413830101 0 -0.097657110385713369 0.028988630248024564 0 -0.097636593113212017 0.027006239907799798 0 -0.098169306010832708 0.029778658800264791 0 -0.096020227893003365 0.026087921932706534 0 -0.096349498803983885 0.027209321491111028 0 -0.097636593113212017 0.027006239907799798 0 -0.09733469858295149 0.025282344384681021 0 -0.097233280891789384 0.024556317481162861 0 -0.09656185237229957 0.028118627391142931 0 -0.096152513371249623 0.029630273310659275 0 -0.09475442707991899 0.028021413830101 0 -0.096349498803983885 0.027209321491111028 0 -0.09656185237229957 0.028118627391142931 0 -0.09475442707991899 0.028021413830101 0 -0.09656185237229957 0.028118627391142931 0 -0.097657110385713369 0.028988630248024564 0 -0.096152513371249623 0.029630273310659275 0 -0.09656185237229957 0.028118627391142931 0 -0.097657110385713369 0.028988630248024564 0 -0.097636593113212017 0.027006239907799798 0 -0.096349498803983885 0.027209321491111028 0 -0.09656185237229957 0.028118627391142931 0 -0.097636593113212017 0.027006239907799798 0 -0.097577011197909208 0.025122633275442952 0 -0.098049319236426055 0.02544190010103679 0 -0.098076187486677457 0.025935636761502227 0 -0.09866601040417651 0.026542839905087441 0 -0.098563783814454395 0.025249002031391396 0 -0.098076187486677457 0.025935636761502227 0 -0.09740565814068379 0.025265400079373161 0 -0.097577011197909208 0.025122633275442952 0 -0.097679481408337418 0.025485202413528682 0 -0.097833266818380643 0.022046237125589632 0 -0.097421446797462855 0.020838168814112563 0 -0.09740565814068379 0.025265400079373161 0 -0.097679481408337418 0.025485202413528682 0 -0.097504169053173717 0.025587889261439394 0 -0.097940420685254728 0.024975036144934501 0 -0.097577011197909208 0.025122633275442952 0 -0.098049319236426055 0.02544190010103679 0 -0.098563783814454395 0.025249002031391396 0 -0.097940420685254728 0.024975036144934501 0 -0.098049319236426055 0.02544190010103679 0 -0.098563783814454395 0.025249002031391396 0 -0.098049319236426055 0.02544190010103679 0 -0.098076187486677457 0.025935636761502227 0 -0.097679481408337418 0.025485202413528682 0 -0.097504169053173717 0.025587889261439394 0 -0.097653253522981112 0.02564200895956666 0 -0.095537122842277986 0.015812553865209387 0 -0.097421446797462855 0.020838168814112563 0 -0.098430166845590333 0.026657584401181447 0 -0.09866601040417651 0.026542839905087441 0 -0.098076187486677457 0.025935636761502227 0 -0.097774788776809687 0.025710138902231738 0 -0.097679481408337418 0.025485202413528682 0 -0.097653253522981112 0.02564200895956666 0 -0.096933463063416048 0.0209018680301187 0 -0.095537122842277986 0.015812553865209387 0 -0.097647983572128921 0.025778736143118385 0 -0.097774788776809687 0.025710138902231738 0 -0.097653253522981112 0.02564200895956666 0 -0.096933463063416048 0.0209018680301187 0 -0.097233280891789384 0.024556317481162861 0 -0.095950542198121561 0.025155922213172571 0 -0.097233280891789384 0.024556317481162861 0 -0.097647983572128921 0.025778736143118385 0 -0.097504169053173717 0.025587889261439394 0 -0.097653253522981112 0.02564200895956666 0 -0.098094385976936399 0.019978159931488913 0 -0.09666308777236321 0.020700236550800451 0 -0.098750501099504909 0.024093717972629408 0 -0.098569102363656111 0.032346655377175633 0 -0.098157735362804588 0.029786097280984761 0 -0.096677642070677985 0.031288774803991913 0 -0.096677642070677985 0.031288774803991913 0 -0.096152513371249623 0.029630273310659275 0 -0.094864903875824538 0.031483964375309439 0 -0.096677642070677985 0.031288774803991913 0 -0.096152513371249623 0.029630273310659275 0 -0.097139212190699639 0.02987091274047695 0 -0.097657110385713369 0.028988630248024564 0 -0.096152513371249623 0.029630273310659275 0 -0.097139212190699639 0.02987091274047695 0 -0.098157735362804588 0.029786097280984761 0 -0.096677642070677985 0.031288774803991913 0 -0.097139212190699639 0.02987091274047695 0 -0.097657110385713369 0.028988630248024564 0 -0.098157735362804588 0.029786097280984761 0 -0.097139212190699639 0.02987091274047695 0 -0.097316997509149739 0.024736454575329615 0 -0.097233280891789384 0.024556317481162861 0 -0.094126324937940917 0.030128959529204438 0 -0.091583741396617208 0.029445311283086861 0 -0.09475442707991899 0.028021413830101 0 -0.096152513371249623 0.029630273310659275 0 -0.094126324937940917 0.030128959529204438 0 -0.094864903875824538 0.031483964375309439 0 -0.096152513371249623 0.029630273310659275 0 -0.094126324937940917 0.030128959529204438 0 -0.09475442707991899 0.028021413830101 0 -0.093273058044076054 0.03206844264560034 0 -0.094126324937940917 0.030128959529204438 0 -0.094864903875824538 0.031483964375309439 0 -0.093273058044076054 0.03206844264560034 0 -0.094126324937940917 0.030128959529204438 0 -0.091583741396617208 0.029445311283086861 0 -0.091145707083467212 0.032887712313795198 0 -0.093273058044076054 0.03206844264560034 0 -0.091583741396617208 0.029445311283086861 0 -0.091145707083467212 0.032887712313795198 0 -0.091583741396617208 0.029445311283086861 0 -0.08806705351686718 0.030036658969710837 0 -0.091583741396617208 0.029445311283086861 0 -0.093149171665770261 0.026356660415378409 0 -0.090363511635997124 0.026111537051119526 0 -0.091583741396617208 0.029445311283086861 0 -0.09475442707991899 0.028021413830101 0 -0.093149171665770261 0.026356660415378409 0 -0.096020227893003365 0.026087921932706534 0 -0.09475442707991899 0.028021413830101 0 -0.093149171665770261 0.026356660415378409 0 -0.096020227893003365 0.026087921932706534 0 -0.093149171665770261 0.026356660415378409 0 -0.094858580907864809 0.024753632413441209 0 -0.093149171665770261 0.026356660415378409 0 -0.094858580907864809 0.024753632413441209 0 -0.092320622672564218 0.024009090731406803 0 -0.094858580907864809 0.024753632413441209 0 -0.093964621710496618 0.021755580062334513 0 -0.092320622672564218 0.024009090731406803 0 -0.091928425385730303 0.017318146065897544 0 -0.08823010380008417 0.019131653403265642 0 -0.093964621710496618 0.021755580062334513 0 -0.092320622672564218 0.024009090731406803 0 -0.089478874290667504 0.02112751899705919 0 -0.090363511635997124 0.026111537051119526 0 -0.092320622672564218 0.024009090731406803 0 -0.089478874290667504 0.02112751899705919 0 -0.093149171665770261 0.026356660415378409 0 -0.090363511635997124 0.026111537051119526 0 -0.092320622672564218 0.024009090731406803 0 -0.090363511635997124 0.026111537051119526 0 -0.087550153336103193 0.025559696338431477 0 -0.089478874290667504 0.02112751899705919 0 -0.08499998776900719 0.023878638266233921 0 -0.087550153336103193 0.025559696338431477 0 -0.089478874290667504 0.02112751899705919 0 -0.08499998776900719 0.023878638266233921 0 -0.084999985536824085 0.020472382176797976 0 -0.089478874290667504 0.02112751899705919 0 -0.08499998776900719 0.023878638266233921 0 -0.087550153336103193 0.025559696338431477 0 -0.084999996213728404 0.027284757466430519 0 -0.085002806329165778 0.027287472684109519 0 -0.087666266506863474 0.029712148335491621 0 -0.087550153336103193 0.025559696338431477 0 -0.084999996213728404 0.027284757466430519 0 -0.08806705351686718 0.030036658969710837 0 -0.091583741396617208 0.029445311283086861 0 -0.090363511635997124 0.026111537051119526 0 -0.08806705351686718 0.030036658969710837 0 -0.090363511635997124 0.026111537051119526 0 -0.087550153336103193 0.025559696338431477 0 -0.08806705351686718 0.030036658969710837 0 -0.089133371712842469 0.03104794942841238 0 -0.087666266506863474 0.029712148335491621 0 -0.08757009849151301 0.032495303032347309 0 -0.091145707083467212 0.032887712313795198 0 -0.08808280717172827 0.030131680128732307 0 -0.084999988087557515 0.027284973348377775 0 -0.08808280717172827 0.030131680128732307 0 -0.084999985772858375 0.031865108518155216 0 -0.08757009849151301 0.032495303032347309 0 -0.08808280717172827 0.030131680128732307 0 -0.084999985772858375 0.031865108518155216 0 -0.087266928832471238 0.012211548967293548 0 -0.084999944570978342 0.011754153292493326 0 -0.086789887838512159 0.014045646974551315 0 -0.087266928832471238 0.012211548967293548 0 -0.088539502242619902 0.013497907665022669 0 -0.086789887838512159 0.014045646974551315 0 -0.087266928832471238 0.012211548967293548 0 -0.086750842241702847 0.010633322982788788 0 -0.088050796576770993 0.010981384287056375 0 -0.087266928832471238 0.012211548967293548 0 -0.084999944570978342 0.011754153292493326 0 -0.086750842241702847 0.010633322982788788 0 -0.090019177658200306 0.012353332779518411 0 -0.088539502242619902 0.013497907665022669 0 -0.091384109158566873 0.013872505917590447 0 -0.092244477997420471 0.011104301633413667 0 -0.088878039297734732 0.0099053162552886643 0 -0.088990620300677892 0.010435693782886276 0 -0.087266928832471238 0.012211548967293548 0 -0.088050796576770993 0.010981384287056375 0 -0.088601079387805509 0.011951799665674433 0 -0.088050796576770993 0.010981384287056375 0 -0.088835456055878975 0.01119189606477311 0 -0.088990620300677892 0.010435693782886276 0 -0.088050796576770993 0.010981384287056375 0 -0.088835456055878975 0.01119189606477311 0 -0.088601079387805509 0.011951799665674433 0 -0.088835456055878975 0.01119189606477311 0 -0.089703541804724743 0.011409454415008111 0 -0.088990620300677892 0.010435693782886276 0 -0.088835456055878975 0.01119189606477311 0 -0.089703541804724743 0.011409454415008111 0 -0.088601079387805509 0.011951799665674433 0 -0.089703541804724743 0.011409454415008111 0 -0.090019177658200306 0.012353332779518411 0 -0.088601079387805509 0.011951799665674433 0 -0.090019177658200306 0.012353332779518411 0 -0.088601079387805509 0.011951799665674433 0 -0.088539502242619902 0.013497907665022669 0 -0.087266928832471238 0.012211548967293548 0 -0.088601079387805509 0.011951799665674433 0 -0.088539502242619902 0.013497907665022669 0 -0.087503596564338704 0.015986584122544237 0 -0.089849907295162637 0.013036757533592498 0 -0.086194954580263716 0.015750068848205623 0 -0.087781564993719252 0.014947408745418564 0 -0.087850787316303566 0.012851918422965432 0 -0.088539502242619902 0.013497907665022669 0 -0.086789887838512159 0.014045646974551315 0 -0.088197590504361462 0.016430450917625038 0 -0.088539502242619902 0.013497907665022669 0 -0.088197590504361462 0.016430450917625038 0 -0.091384109158566873 0.013872505917590447 0 -0.084999948125891234 0.015427522419944797 0 -0.086789887838512159 0.014045646974551315 0 -0.088197590504361462 0.016430450917625038 0 -0.084999944570978342 0.011754153292493326 0 -0.084999948125891234 0.015427522419944797 0 -0.086789887838512159 0.014045646974551315 0 -0.0849986863148154 0.019101629909205584 0 -0.086204538915236578 0.018111168853634053 0 -0.086194954580263716 0.015750068848205623 0 -0.084999948125891234 0.015427522419944797 0 -0.085000005878026114 0.019100815237749764 0 -0.088197590504361462 0.016430450917625038 0 -0.085002249942670277 0.019096819037687861 0 -0.087503596564338704 0.015986584122544237 0 -0.0849986863148154 0.019101629909205584 0 -0.085000223202716677 0.02046893262527525 0 -0.086204538915236578 0.018111168853634053 0 -0.085000223202716677 0.02046893262527525 0 -0.086204538915236578 0.018111168853634053 0 -0.087060530900056901 0.018583406458844098 0 -0.085002738926888338 0.020469517128284171 0 -0.08823010380008417 0.019131653403265642 0 -0.086204538915236578 0.018111168853634053 0 -0.087060530900056901 0.018583406458844098 0 -0.087967925873822947 0.016625179999554644 0 -0.086194954580263716 0.015750068848205623 0 -0.087781564993719252 0.014947408745418564 0 -0.087967925873822947 0.016625179999554644 0 -0.086204538915236578 0.018111168853634053 0 -0.086194954580263716 0.015750068848205623 0 -0.087967925873822947 0.016625179999554644 0 -0.087781564993719252 0.014947408745418564 0 -0.087967925873822947 0.016625179999554644 0 -0.089207368787917143 0.01450474961140118 0 -0.089609996572929757 0.018409582772261134 0 -0.087060530900056901 0.018583406458844098 0 -0.087967925873822947 0.016625179999554644 0 -0.089609996572929757 0.018409582772261134 0 -0.090052497176639004 0.015894973382712615 0 -0.090992492751183873 0.016842030190674644 0 -0.089609996572929757 0.018409582772261134 0 -0.087967925873822947 0.016625179999554644 0 -0.090052497176639004 0.015894973382712615 0 -0.087967925873822947 0.016625179999554644 0 -0.090052497176639004 0.015894973382712615 0 -0.089207368787917143 0.01450474961140118 0 -0.090052497176639004 0.015894973382712615 0 -0.090536047715896795 0.013739432324585866 0 -0.091263630195258835 0.014471209050004151 0 -0.090052497176639004 0.015894973382712615 0 -0.089207368787917143 0.01450474961140118 0 -0.090536047715896795 0.013739432324585866 0 -0.089207368787917143 0.01450474961140118 0 -0.090536047715896795 0.013739432324585866 0 -0.089735383135879643 0.012602129178870217 0 -0.089207368787917143 0.01450474961140118 0 -0.089735383135879643 0.012602129178870217 0 -0.087850787316303566 0.012851918422965432 0 -0.090536047715896795 0.013739432324585866 0 -0.089735383135879643 0.012602129178870217 0 -0.091091451230040726 0.011715824084486518 0 -0.087781564993719252 0.014947408745418564 0 -0.089207368787917143 0.01450474961140118 0 -0.087850787316303566 0.012851918422965432 0 -0.092244477997420471 0.011104301633413667 0 -0.095581364346085981 0.010750893103809746 0 -0.091420133807918413 0.0085597988096988223 0 -0.089501308551738101 0.0092082133305971502 0 -0.087942304121978301 0.008350697491698332 0 -0.089703541804724743 0.011409454415008111 0 -0.092244477997420471 0.011104301633413667 0 -0.088990620300677892 0.010435693782886276 0 -0.091384109158566873 0.013872505917590447 0 -0.092244477997420471 0.011104301633413667 0 -0.095581364346085981 0.010750893103809746 0 -0.090019177658200306 0.012353332779518411 0 -0.091384109158566873 0.013872505917590447 0 -0.092244477997420471 0.011104301633413667 0 -0.089703541804724743 0.011409454415008111 0 -0.090019177658200306 0.012353332779518411 0 -0.092244477997420471 0.011104301633413667 0 -0.089849907295162637 0.013036757533592498 0 -0.09212276917709103 0.010036571484296786 0 -0.089735383135879643 0.012602129178870217 0 -0.087850787316303566 0.012851918422965432 0 -0.089978904397652271 0.010148435839391566 0 -0.089735383135879643 0.012602129178870217 0 -0.089978904397652271 0.010148435839391566 0 -0.091091451230040726 0.011715824084486518 0 -0.091761262343715205 0.0099319104850674883 0 -0.092606226523594293 0.010835706783930905 0 -0.091091451230040726 0.011715824084486518 0 -0.089978904397652271 0.010148435839391566 0 -0.091761262343715205 0.0099319104850674883 0 -0.091091451230040726 0.011715824084486518 0 -0.092606226523594293 0.010835706783930905 0 -0.094260695708571166 0.0098816974131843358 0 -0.092923186861091134 0.0090851200803901896 0 -0.091761262343715205 0.0099319104850674883 0 -0.092606226523594293 0.010835706783930905 0 -0.092923186861091134 0.0090851200803901896 0 -0.092606226523594293 0.010835706783930905 0 -0.093639301383488041 0.012304547960552744 0 -0.094260695708571166 0.0098816974131843358 0 -0.092606226523594293 0.010835706783930905 0 -0.093639301383488041 0.012304547960552744 0 -0.092065219237158977 0.012947609374314651 0 -0.093639301383488041 0.012304547960552744 0 -0.092967096590843568 0.013426763559438058 0 -0.093592888363281487 0.0140654963534344 0 -0.093639301383488041 0.012304547960552744 0 -0.092065219237158977 0.012947609374314651 0 -0.092967096590843568 0.013426763559438058 0 -0.092065219237158977 0.012947609374314651 0 -0.092193860518995863 0.01415341762350354 0 -0.092967096590843568 0.013426763559438058 0 -0.092606226523594293 0.010835706783930905 0 -0.092065219237158977 0.012947609374314651 0 -0.091091451230040726 0.011715824084486518 0 -0.090536047715896795 0.013739432324585866 0 -0.092065219237158977 0.012947609374314651 0 -0.091091451230040726 0.011715824084486518 0 -0.090536047715896795 0.013739432324585866 0 -0.092065219237158977 0.012947609374314651 0 -0.091263630195258835 0.014471209050004151 0 -0.091263630195258835 0.014471209050004151 0 -0.092193860518995863 0.01415341762350354 0 -0.091531818939645071 0.015487316940007111 0 -0.092065219237158977 0.012947609374314651 0 -0.091263630195258835 0.014471209050004151 0 -0.092193860518995863 0.01415341762350354 0 -0.091531818939645071 0.015487316940007111 0 -0.092105868965275603 0.016141838192800351 0 -0.092675988251258251 0.015053164373303486 0 -0.092193860518995863 0.01415341762350354 0 -0.091531818939645071 0.015487316940007111 0 -0.092675988251258251 0.015053164373303486 0 -0.090052497176639004 0.015894973382712615 0 -0.091263630195258835 0.014471209050004151 0 -0.091531818939645071 0.015487316940007111 0 -0.091531818939645071 0.015487316940007111 0 -0.090992492751183873 0.016842030190674644 0 -0.092105868965275603 0.016141838192800351 0 -0.092772647582370221 0.018778967844537076 0 -0.090992492751183873 0.016842030190674644 0 -0.092458657287468618 0.017066567774031156 0 -0.090052497176639004 0.015894973382712615 0 -0.091531818939645071 0.015487316940007111 0 -0.090992492751183873 0.016842030190674644 0 -0.090992492751183873 0.016842030190674644 0 -0.092105868965275603 0.016141838192800351 0 -0.092458657287468618 0.017066567774031156 0 -0.092105868965275603 0.016141838192800351 0 -0.092458657287468618 0.017066567774031156 0 -0.092932787003534759 0.016201076229304154 0 -0.094213729969802373 0.017893295031375503 0 -0.093361059636980298 0.016952837279474085 0 -0.093984604976686703 0.015802134382722995 0 -0.096710141246394613 0.010440545088287458 0 -0.096798799633326604 0.010735196641087463 0 -0.092772647582370221 0.018778967844537076 0 -0.092458657287468618 0.017066567774031156 0 -0.093361059636980298 0.016952837279474085 0 -0.093361059636980298 0.016952837279474085 0 -0.092932787003534759 0.016201076229304154 0 -0.093984604976686703 0.015802134382722995 0 -0.092458657287468618 0.017066567774031156 0 -0.093361059636980298 0.016952837279474085 0 -0.092932787003534759 0.016201076229304154 0 -0.092105868965275603 0.016141838192800351 0 -0.092932787003534759 0.016201076229304154 0 -0.092675988251258251 0.015053164373303486 0 -0.092932787003534759 0.016201076229304154 0 -0.093984604976686703 0.015802134382722995 0 -0.09326060404182264 0.015297044590936584 0 -0.093984604976686703 0.015802134382722995 0 -0.09326060404182264 0.015297044590936584 0 -0.093592888363281487 0.0140654963534344 0 -0.096798799633326604 0.010735196641087463 0 -0.096726955557325772 0.01124091096022679 0 -0.093683537895251648 0.014860589713278159 0 -0.093592888363281487 0.0140654963534344 0 -0.094551154747984936 0.014270800397312416 0 -0.092932787003534759 0.016201076229304154 0 -0.09326060404182264 0.015297044590936584 0 -0.092675988251258251 0.015053164373303486 0 -0.09326060404182264 0.015297044590936584 0 -0.092675988251258251 0.015053164373303486 0 -0.093592888363281487 0.0140654963534344 0 -0.092675988251258251 0.015053164373303486 0 -0.092967096590843568 0.013426763559438058 0 -0.093592888363281487 0.0140654963534344 0 -0.092193860518995863 0.01415341762350354 0 -0.092675988251258251 0.015053164373303486 0 -0.092967096590843568 0.013426763559438058 0 -0.093639301383488041 0.012304547960552744 0 -0.093592888363281487 0.0140654963534344 0 -0.094963545290531651 0.013227275004939506 0 -0.094963545290531651 0.013227275004939506 0 -0.094551154747984936 0.014270800397312416 0 -0.096126983336882701 0.015044886001719007 0 -0.093592888363281487 0.0140654963534344 0 -0.094963545290531651 0.013227275004939506 0 -0.094551154747984936 0.014270800397312416 0 -0.093683537895251648 0.014860589713278159 0 -0.094551154747984936 0.014270800397312416 0 -0.096126983336882701 0.015044886001719007 0 -0.096710141246394613 0.010440545088287458 0 -0.096972493068618215 0.0092166480327497968 0 -0.096798799633326604 0.010735196641087463 0 -0.096972493068618215 0.0092166480327497968 0 -0.096589142975581604 0.010051037943536645 0 -0.096563548215219466 0.0098662973324028791 0 -0.096837438309559515 0.0098877390789789965 0 -0.092986564882942616 -0.0092772193566311167 0 -0.092107537881379153 -0.0093604820916697272 0 -0.09361857454376922 -0.010372588773521917 0 -0.093967059658519161 -0.0093169703803918247 0 -0.09361857454376922 -0.010372588773521917 0 -0.095540260923343737 -0.010234285672055653 0 -0.096972493068618215 0.0092166480327497968 0 -0.097037423298216074 0.0044067965407037796 0 -0.093967059658519161 -0.0093169703803918247 0 -0.092986564882942616 -0.0092772193566311167 0 -0.09361857454376922 -0.010372588773521917 0 -0.096972493068618215 0.0092166480327497968 0 -0.096697720522899988 0.010708185972825034 0 -0.096126983336882701 0.015044886001719007 0 -0.096692313782888853 0.012251407506120445 0 -0.099045297423466738 0.012950825976424898 0 -0.094963545290531651 0.013227275004939506 0 -0.096126983336882701 0.015044886001719007 0 -0.096692313782888853 0.012251407506120445 0 -0.096692313782888853 0.012251407506120445 0 -0.095129908362410323 0.011526704933156004 0 -0.096203079853781806 0.0099343804098958495 0 -0.096692313782888853 0.012251407506120445 0 -0.096203079853781806 0.0099343804098958495 0 -0.098064786196442377 0.010134267724802627 0 -0.094963545290531651 0.013227275004939506 0 -0.096692313782888853 0.012251407506120445 0 -0.095129908362410323 0.011526704933156004 0 -0.093639301383488041 0.012304547960552744 0 -0.095129908362410323 0.011526704933156004 0 -0.094260695708571166 0.0098816974131843358 0 -0.093639301383488041 0.012304547960552744 0 -0.094963545290531651 0.013227275004939506 0 -0.095129908362410323 0.011526704933156004 0 -0.094260695708571166 0.0098816974131843358 0 -0.096203079853781806 0.0099343804098958495 0 -0.095713616663956239 0.007684044420858455 0 -0.095129908362410323 0.011526704933156004 0 -0.094260695708571166 0.0098816974131843358 0 -0.096203079853781806 0.0099343804098958495 0 -0.096203079853781806 0.0099343804098958495 0 -0.097453948874668336 0.007636998351379376 0 -0.095713616663956239 0.007684044420858455 0 -0.096203079853781806 0.0099343804098958495 0 -0.097453948874668336 0.007636998351379376 0 -0.098064786196442377 0.010134267724802627 0 -0.097453948874668336 0.007636998351379376 0 -0.096188981449692068 0.004963679215451401 0 -0.098022051274187505 0.0042550994489835899 0 -0.097453948874668336 0.007636998351379376 0 -0.095713616663956239 0.007684044420858455 0 -0.096188981449692068 0.004963679215451401 0 -0.095713616663956239 0.007684044420858455 0 -0.094682587102613541 0.0054156950968510097 0 -0.093414559537481054 0.0063282585555072407 0 -0.094260695708571166 0.0098816974131843358 0 -0.095713616663956239 0.007684044420858455 0 -0.094026268337861388 0.0081157984950134873 0 -0.09448703967923136 0.0077214589048657288 0 -0.093896985927656731 0.0076202968156765397 0 -0.094682587102613541 0.0054156950968510097 0 -0.093446570384822167 0.0046166974401001771 0 -0.093414559537481054 0.0063282585555072407 0 -0.095713616663956239 0.007684044420858455 0 -0.094682587102613541 0.0054156950968510097 0 -0.096188981449692068 0.004963679215451401 0 -0.094682587102613541 0.0054156950968510097 0 -0.094722497302262759 0.0033713923118357915 0 -0.096188981449692068 0.004963679215451401 0 -0.094682587102613541 0.0054156950968510097 0 -0.094722497302262759 0.0033713923118357915 0 -0.093446570384822167 0.0046166974401001771 0 -0.094722497302262759 0.0033713923118357915 0 -0.096188981449692068 0.004963679215451401 0 -0.096407527053946451 0.0023681730834396691 0 -0.096188981449692068 0.004963679215451401 0 -0.096407527053946451 0.0023681730834396691 0 -0.098022051274187505 0.0042550994489835899 0 -0.096407527053946451 0.0023681730834396691 0 -0.095429391381390158 0.00022048196388870222 0 -0.098247824379910378 0.0011837185419834577 0 -0.096736788108754621 -0.0014239457488090849 0 -0.095429391381390158 0.00022048196388870222 0 -0.098247824379910378 0.0011837185419834577 0 -0.094722497302262759 0.0033713923118357915 0 -0.095429391381390158 0.00022048196388870222 0 -0.092478597517448566 0.0030542040741567988 0 -0.094722497302262759 0.0033713923118357915 0 -0.096407527053946451 0.0023681730834396691 0 -0.095429391381390158 0.00022048196388870222 0 -0.095429391381390158 0.00022048196388870222 0 -0.092478597517448566 0.0030542040741567988 0 -0.091836784691539414 0.0010146811590078623 0 -0.094386814496265611 -0.0019863791284291696 0 -0.095429391381390158 0.00022048196388870222 0 -0.093078184076228559 -0.00017100603923573727 0 -0.09402388464582763 0.00034009790914316047 0 -0.092447666359804892 0.00048569019126894778 0 -0.092447666359804892 0.00048569019126894778 0 -0.089869236662559873 0.00074216015658664096 0 -0.092478597517448566 0.0030542040741567988 0 -0.091836784691539414 0.0010146811590078623 0 -0.090422020443582191 0.0027751882485595796 0 -0.091836784691539414 0.0010146811590078623 0 -0.090422020443582191 0.0027751882485595796 0 -0.08932051023948144 0.0014450733474643603 0 -0.092478597517448566 0.0030542040741567988 0 -0.090422020443582191 0.0027751882485595796 0 -0.091172453018114052 0.0040411214698403463 0 -0.091172453018114052 0.0040411214698403463 0 -0.091679080392278234 0.0051631488822003399 0 -0.089342606175240716 0.0041357827458938807 0 -0.091172453018114052 0.0040411214698403463 0 -0.092108660832764561 0.0049572781899138614 0 -0.091679080392278234 0.0051631488822003399 0 -0.094722497302262759 0.0033713923118357915 0 -0.092478597517448566 0.0030542040741567988 0 -0.093446570384822167 0.0046166974401001771 0 -0.092478597517448566 0.0030542040741567988 0 -0.091172453018114052 0.0040411214698403463 0 -0.092108660832764561 0.0049572781899138614 0 -0.092478597517448566 0.0030542040741567988 0 -0.093446570384822167 0.0046166974401001771 0 -0.092108660832764561 0.0049572781899138614 0 -0.093896985927656731 0.0076202968156765397 0 -0.093108330524505067 0.007562687247283934 0 -0.092108660832764561 0.0049572781899138614 0 -0.093414559537481054 0.0063282585555072407 0 -0.091501646563490371 0.0054277149624294826 0 -0.094026268337861388 0.0081157984950134873 0 -0.092923186861091134 0.0090851200803901896 0 -0.092210816778010171 0.0079117197614453749 0 -0.09311721969934246 0.0075023628379155775 0 -0.093108330524505067 0.007562687247283934 0 -0.093446570384822167 0.0046166974401001771 0 -0.092108660832764561 0.0049572781899138614 0 -0.093414559537481054 0.0063282585555072407 0 -0.094260695708571166 0.0098816974131843358 0 -0.094026268337861388 0.0081157984950134873 0 -0.092923186861091134 0.0090851200803901896 0 -0.093108330524505067 0.007562687247283934 0 -0.091295484612233094 0.0059619999001308942 0 -0.09212276917709103 0.010036571484296786 0 -0.093108330524505067 0.007562687247283934 0 -0.089978904397652271 0.010148435839391566 0 -0.091761262343715205 0.0099319104850674883 0 -0.092210816778010171 0.0079117197614453749 0 -0.091761262343715205 0.0099319104850674883 0 -0.092923186861091134 0.0090851200803901896 0 -0.092210816778010171 0.0079117197614453749 0 -0.095581364346085981 0.010750893103809746 0 -0.10022737706169299 0.0069932688629958054 0 -0.093777389090753713 0.0054022791048774933 0 -0.095581364346085981 0.010750893103809746 0 -0.091420133807918413 0.0085597988096988223 0 -0.093777389090753713 0.0054022791048774933 0 -0.091420133807918413 0.0085597988096988223 0 -0.08971351259857159 0.0063033452498731024 0 -0.093777389090753713 0.0054022791048774933 0 -0.092244477997420471 0.011104301633413667 0 -0.091420133807918413 0.0085597988096988223 0 -0.087284110456051819 0.0088576127444846015 0 -0.091420133807918413 0.0085597988096988223 0 -0.08971351259857159 0.0063033452498731024 0 -0.088729167848550311 0.0074251387163884672 0 -0.091295484612233094 0.0059619999001308942 0 -0.089302563303252119 0.0051576622683985546 0 -0.08971351259857159 0.0063033452498731024 0 -0.093777389090753713 0.0054022791048774933 0 -0.087085896131870483 0.0036523135285655172 0 -0.089342606175240716 0.0041357827458938807 0 -0.08874410258391606 0.0028245873490293969 0 -0.087085896131870483 0.0036523135285655172 0 -0.090422020443582191 0.0027751882485595796 0 -0.091172453018114052 0.0040411214698403463 0 -0.089342606175240716 0.0041357827458938807 0 -0.090422020443582191 0.0027751882485595796 0 -0.089342606175240716 0.0041357827458938807 0 -0.08874410258391606 0.0028245873490293969 0 -0.090422020443582191 0.0027751882485595796 0 -0.08932051023948144 0.0014450733474643603 0 -0.08874410258391606 0.0028245873490293969 0 -0.090818615647697151 -0.0024368507409605151 0 -0.093078184076228559 -0.00017100603923573727 0 -0.090420764921857896 0.00013890491888412441 0 -0.090420764921857896 0.00013890491888412441 0 -0.086810559623011568 0.0010446276001283587 0 -0.087870408264176234 -0.00033251178535648656 0 -0.088728021210795718 -0.0017523794057089711 0 -0.090420764921857896 0.00013890491888412441 0 -0.087870408264176234 -0.00033251178535648656 0 -0.090818615647697151 -0.0024368507409605151 0 -0.088728021210795718 -0.0017523794057089711 0 -0.090420764921857896 0.00013890491888412441 0 -0.089869236662559873 0.00074216015658664096 0 -0.088238504242951946 0.0008969643452833607 0 -0.08932051023948144 0.0014450733474643603 0 -0.08874410258391606 0.0028245873490293969 0 -0.087357605388487386 0.0022649618404264452 0 -0.08932051023948144 0.0014450733474643603 0 -0.087357605388487386 0.0022649618404264452 0 -0.086810559623011568 0.0010446276001283587 0 -0.086810559623011568 0.0010446276001283587 0 -0.0861601395308388 0.00040578769938082702 0 -0.086393728213919233 0.00325809271878877 0 -0.086857617572090179 0.001511029787211437 0 -0.087399035887263707 0.00493694170760551 0 -0.087357605388487386 0.0022649618404264452 0 -0.086810559623011568 0.0010446276001283587 0 -0.086393728213919233 0.00325809271878877 0 -0.086810559623011568 0.0010446276001283587 0 -0.087870408264176234 -0.00033251178535648656 0 -0.0861601395308388 0.00040578769938082702 0 -0.087129412588505095 -0.001513642208015155 0 -0.087870408264176234 -0.00033251178535648656 0 -0.0861601395308388 0.00040578769938082702 0 -0.088728021210795718 -0.0017523794057089711 0 -0.087129412588505095 -0.001513642208015155 0 -0.087870408264176234 -0.00033251178535648656 0 -0.085887360044115096 -0.0028199711186724509 0 -0.087129412588505095 -0.001513642208015155 0 -0.0861601395308388 0.00040578769938082702 0 -0.08637988251907236 -0.0015010480821500791 0 -0.086857617572090179 0.001511029787211437 0 -0.084999977091826204 -0.0019534081337708458 0 -0.087528281510796779 0.0021656649495605603 0 -0.084999994241996377 0.0030638686029602919 0 -0.084999994241996377 0.0030638686029602919 0 -0.086860395241401864 0.0043061861895088713 0 -0.084999995681335871 0.0080808543502121633 0 -0.087528281510796779 0.0021656649495605603 0 -0.086860395241401864 0.0043061861895088713 0 -0.088257156999859462 0.0060539337755108648 0 -0.087528281510796779 0.0021656649495605603 0 -0.084999994241996377 0.0030638686029602919 0 -0.086860395241401864 0.0043061861895088713 0 -0.086860395241401864 0.0043061861895088713 0 -0.088257156999859462 0.0060539337755108648 0 -0.084999995681335871 0.0080808543502121633 0 -0.08874410258391606 0.0028245873490293969 0 -0.087357605388487386 0.0022649618404264452 0 -0.087085896131870483 0.0036523135285655172 0 -0.087357605388487386 0.0022649618404264452 0 -0.087085896131870483 0.0036523135285655172 0 -0.086393728213919233 0.00325809271878877 0 -0.08971351259857159 0.0063033452498731024 0 -0.087085896131870483 0.0036523135285655172 0 -0.087745650513790241 0.0058450000311374957 0 -0.086393728213919233 0.00325809271878877 0 -0.087745650513790241 0.0058450000311374957 0 -0.087511526356046129 0.0066904482046355514 0 -0.087085896131870483 0.0036523135285655172 0 -0.086393728213919233 0.00325809271878877 0 -0.087745650513790241 0.0058450000311374957 0 -0.091420133807918413 0.0085597988096988223 0 -0.088729167848550311 0.0074251387163884672 0 -0.087284110456051819 0.0088576127444846015 0 -0.086393728213919233 0.00325809271878877 0 -0.087511526356046129 0.0066904482046355514 0 -0.087284110456051819 0.0088576127444846015 0 -0.087399035887263707 0.00493694170760551 0 -0.087942304121978301 0.008350697491698332 0 -0.08971351259857159 0.0063033452498731024 0 -0.087745650513790241 0.0058450000311374957 0 -0.088729167848550311 0.0074251387163884672 0 -0.087511526356046129 0.0066904482046355514 0 -0.088729167848550311 0.0074251387163884672 0 -0.087284110456051819 0.0088576127444846015 0 -0.087745650513790241 0.0058450000311374957 0 -0.087511526356046129 0.0066904482046355514 0 -0.088729167848550311 0.0074251387163884672 0 -0.087942304121978301 0.008350697491698332 0 -0.087951638536707052 0.0083848188790031242 0 -0.086750842241702847 0.010633322982788788 0 -0.088050796576770993 0.010981384287056375 0 -0.088904989573208554 0.0099202355010049523 0 -0.088050796576770993 0.010981384287056375 0 -0.088904989573208554 0.0099202355010049523 0 -0.088990620300677892 0.010435693782886276 0 -0.084999944570978342 0.011754153292493326 0 -0.086750842241702847 0.010633322982788788 0 -0.084999998307280958 0.0080810017293582257 0 -0.087942304121978301 0.008350697491698332 0 -0.085003639446698698 0.0080806905293348517 0 -0.088257156999859462 0.0060539337755108648 0 -0.088983768206724809 0.0099213375248019507 0 -0.084999995681335871 0.0080808543502121633 0 -0.086750842241702847 0.010633322982788788 0 -0.088904989573208554 0.0099202355010049523 0 -0.084999998307280958 0.0080810017293582257 0 -0.096941769644891554 -0.0057156268479369131 0 -0.098035180008753955 -0.0032892560907283948 0 -0.096329899437506139 -0.0041229901198008168 0 -0.096941769644891554 -0.0057156268479369131 0 -0.094959084879405881 -0.0058762927029032252 0 -0.095762154142792211 -0.0071682519615600925 0 -0.096941769644891554 -0.0057156268479369131 0 -0.096329899437506139 -0.0041229901198008168 0 -0.094959084879405881 -0.0058762927029032252 0 -0.096941769644891554 -0.0057156268479369131 0 -0.098290096653403811 -0.0051518066445236507 0 -0.098035180008753955 -0.0032892560907283948 0 -0.096941769644891554 -0.0057156268479369131 0 -0.098290096653403811 -0.0051518066445236507 0 -0.097914308079260784 -0.0066386397681843902 0 -0.098035180008753955 -0.0032892560907283948 0 -0.096329899437506139 -0.0041229901198008168 0 -0.096867405835673992 -0.0020452252328237329 0 -0.096329899437506139 -0.0041229901198008168 0 -0.094566743321939928 -0.0028551331788483287 0 -0.096867405835673992 -0.0020452252328237329 0 -0.094566743321939928 -0.0028551331788483287 0 -0.094788235411069718 -0.0044979070440138106 0 -0.093136766321178191 -0.0051410911588725787 0 -0.096329899437506139 -0.0041229901198008168 0 -0.094566743321939928 -0.0028551331788483287 0 -0.094788235411069718 -0.0044979070440138106 0 -0.094566743321939928 -0.0028551331788483287 0 -0.092314878414443691 -0.0037300791941152359 0 -0.093136766321178191 -0.0051410911588725787 0 -0.092314878414443691 -0.0037300791941152359 0 -0.091465053462042645 -0.002482969076364984 0 -0.09033119586801576 -0.0038722523379319039 0 -0.094566743321939928 -0.0028551331788483287 0 -0.092314878414443691 -0.0037300791941152359 0 -0.093049093281909606 -0.0023278603278024546 0 -0.092314878414443691 -0.0037300791941152359 0 -0.091465053462042645 -0.002482969076364984 0 -0.093049093281909606 -0.0023278603278024546 0 -0.092314878414443691 -0.0037300791941152359 0 -0.090910125149809395 -0.0053336642163774985 0 -0.093136766321178191 -0.0051410911588725787 0 -0.092314878414443691 -0.0037300791941152359 0 -0.090910125149809395 -0.0053336642163774985 0 -0.09033119586801576 -0.0038722523379319039 0 -0.090910125149809395 -0.0053336642163774985 0 -0.093136766321178191 -0.0051410911588725787 0 -0.091068474061113666 -0.0067317964462611868 0 -0.093136766321178191 -0.0051410911588725787 0 -0.091068474061113666 -0.0067317964462611868 0 -0.092851967394938104 -0.0069834088376726361 0 -0.096329899437506139 -0.0041229901198008168 0 -0.094788235411069718 -0.0044979070440138106 0 -0.094959084879405881 -0.0058762927029032252 0 -0.094788235411069718 -0.0044979070440138106 0 -0.093136766321178191 -0.0051410911588725787 0 -0.094959084879405881 -0.0058762927029032252 0 -0.093136766321178191 -0.0051410911588725787 0 -0.094959084879405881 -0.0058762927029032252 0 -0.092851967394938104 -0.0069834088376726361 0 -0.094959084879405881 -0.0058762927029032252 0 -0.094413969257124086 -0.0074834232818783092 0 -0.095762154142792211 -0.0071682519615600925 0 -0.094959084879405881 -0.0058762927029032252 0 -0.094413969257124086 -0.0074834232818783092 0 -0.092851967394938104 -0.0069834088376726361 0 -0.094413969257124086 -0.0074834232818783092 0 -0.093044234137427614 -0.0089517186917837145 0 -0.095080659148536542 -0.0082685699355215646 0 -0.094413969257124086 -0.0074834232818783092 0 -0.095080659148536542 -0.0082685699355215646 0 -0.095762154142792211 -0.0071682519615600925 0 -0.091068474061113666 -0.0067317964462611868 0 -0.091103268985206112 -0.0077948872387350755 0 -0.092851967394938104 -0.0069834088376726361 0 -0.094413969257124086 -0.0074834232818783092 0 -0.092851967394938104 -0.0069834088376726361 0 -0.093044234137427614 -0.0089517186917837145 0 -0.091103268985206112 -0.0077948872387350755 0 -0.092851967394938104 -0.0069834088376726361 0 -0.093044234137427614 -0.0089517186917837145 0 -0.091103268985206112 -0.0077948872387350755 0 -0.093044234137427614 -0.0089517186917837145 0 -0.090261109244511958 -0.0090085725632325538 0 -0.094980041665668799 -0.013251445390560784 0 -0.093044234137427614 -0.0089517186917837145 0 -0.090830656994446479 -0.01137202254697558 0 -0.093044234137427614 -0.0089517186917837145 0 -0.090830656994446479 -0.01137202254697558 0 -0.090261109244511958 -0.0090085725632325538 0 -0.090633654072688932 -0.0090985846475348311 0 -0.091362113717466012 -0.0094967332729770579 0 -0.095466063030246254 -0.0089074552623145571 0 -0.093044234137427614 -0.0089517186917837145 0 -0.094863683569466728 -0.0087229205365543915 0 -0.093044234137427614 -0.0089517186917837145 0 -0.095080659148536542 -0.0082685699355215646 0 -0.094863683569466728 -0.0087229205365543915 0 -0.095080659148536542 -0.0082685699355215646 0 -0.094863683569466728 -0.0087229205365543915 0 -0.095722657824596907 -0.0086188493951242107 0 -0.095466063030246254 -0.0089074552623145571 0 -0.094863683569466728 -0.0087229205365543915 0 -0.095722657824596907 -0.0086188493951242107 0 -0.095722657824596907 -0.0086188493951242107 0 -0.096462440488446322 -0.0084131503580434606 0 -0.096192680035421127 -0.0080076264575065573 0 -0.096462440488446322 -0.0084131503580434606 0 -0.096192680035421127 -0.0080076264575065573 0 -0.097047978599193646 -0.008109954748730188 0 -0.096192680035421127 -0.0080076264575065573 0 -0.096977333214146991 -0.0072733915816244757 0 -0.097047978599193646 -0.008109954748730188 0 -0.095080659148536542 -0.0082685699355215646 0 -0.095722657824596907 -0.0086188493951242107 0 -0.096192680035421127 -0.0080076264575065573 0 -0.095080659148536542 -0.0082685699355215646 0 -0.096192680035421127 -0.0080076264575065573 0 -0.095762154142792211 -0.0071682519615600925 0 -0.096941769644891554 -0.0057156268479369131 0 -0.095762154142792211 -0.0071682519615600925 0 -0.096977333214146991 -0.0072733915816244757 0 -0.096192680035421127 -0.0080076264575065573 0 -0.095762154142792211 -0.0071682519615600925 0 -0.096977333214146991 -0.0072733915816244757 0 -0.096941769644891554 -0.0057156268479369131 0 -0.097914308079260784 -0.0066386397681843902 0 -0.096977333214146991 -0.0072733915816244757 0 -0.097914308079260784 -0.0066386397681843902 0 -0.096977333214146991 -0.0072733915816244757 0 -0.097692191626679525 -0.0076719060062022974 0 -0.096977333214146991 -0.0072733915816244757 0 -0.097692191626679525 -0.0076719060062022974 0 -0.097047978599193646 -0.008109954748730188 0 -0.097606844768294093 -0.0082718859763209716 0 -0.097692191626679525 -0.0076719060062022974 0 -0.097047978599193646 -0.008109954748730188 0 -0.097606844768294093 -0.0082718859763209716 0 -0.097692191626679525 -0.0076719060062022974 0 -0.09816372468770268 -0.0080277636183304132 0 -0.097692191626679525 -0.0076719060062022974 0 -0.09816372468770268 -0.0080277636183304132 0 -0.098315154197855179 -0.007248190020533965 0 -0.09816372468770268 -0.0080277636183304132 0 -0.098941687607491433 -0.0073288675927099802 0 -0.098315154197855179 -0.007248190020533965 0 -0.09816372468770268 -0.0080277636183304132 0 -0.098597174646318481 -0.0078945844770638846 0 -0.098941687607491433 -0.0073288675927099802 0 -0.09816372468770268 -0.0080277636183304132 0 -0.098324468705885293 -0.0082479420526695921 0 -0.098597174646318481 -0.0078945844770638846 0 -0.097913318486900464 -0.0084307254923979245 0 -0.09816372468770268 -0.0080277636183304132 0 -0.098324468705885293 -0.0082479420526695921 0 -0.097825150787558143 -0.0086274062693532348 0 -0.098324468705885293 -0.0082479420526695921 0 -0.099098757760471348 -0.0079068320030950563 0 -0.098324468705885293 -0.0082479420526695921 0 -0.099098757760471348 -0.0079068320030950563 0 -0.099007429090273796 -0.00791181300612241 0 -0.098324468705885293 -0.0082479420526695921 0 -0.098597174646318481 -0.0078945844770638846 0 -0.099007429090273796 -0.00791181300612241 0 -0.096194099526343058 -0.0018015278453523574 0 -0.09613313325911324 0.00063339275181256889 0 -0.097825150787558143 -0.0086274062693532348 0 -0.09771427720193511 -0.010057225264769539 0 -0.096522984102420981 -0.0093927679484021899 0 -0.09613313325911324 0.00063339275181256889 0 -0.096154223547866777 0.00061554036354987416 0 -0.098597174646318481 -0.0078945844770638846 0 -0.099007429090273796 -0.00791181300612241 0 -0.098941687607491433 -0.0073288675927099802 0 -0.099281648266060854 -0.0078883046323865429 0 -0.099007429090273796 -0.00791181300612241 0 -0.098941687607491433 -0.0073288675927099802 0 -0.09613313325911324 0.00063339275181256889 0 -0.098832722767378089 0.0028208511814039315 0 -0.099281648266060854 -0.0078883046323865429 0 -0.098941687607491433 -0.0073288675927099802 0 -0.10053769535388804 -0.0057169048121074638 0 -0.098941687607491433 -0.0073288675927099802 0 -0.099024882885548643 -0.0061618780136724694 0 -0.10053769535388804 -0.0057169048121074638 0 -0.10274631443520159 0.015506275259518422 0 -0.10097706910961729 0.013678011367486732 0 -0.10263031557199881 0.012336584200660045 0 -0.098290096653403811 -0.0051518066445236507 0 -0.097914308079260784 -0.0066386397681843902 0 -0.099024882885548643 -0.0061618780136724694 0 -0.097914308079260784 -0.0066386397681843902 0 -0.097692191626679525 -0.0076719060062022974 0 -0.098315154197855179 -0.007248190020533965 0 -0.097914308079260784 -0.0066386397681843902 0 -0.099024882885548643 -0.0061618780136724694 0 -0.098315154197855179 -0.007248190020533965 0 -0.098941687607491433 -0.0073288675927099802 0 -0.099024882885548643 -0.0061618780136724694 0 -0.098315154197855179 -0.007248190020533965 0 -0.095571903536580918 -0.0091569187216503593 0 -0.093967059658519161 -0.0093169703803918247 0 -0.095540260923343737 -0.010234285672055653 0 -0.09771427720193511 -0.010057225264769539 0 -0.095540260923343737 -0.010234285672055653 0 -0.096522984102420981 -0.0093927679484021899 0 -0.09613313325911324 0.00063339275181256889 0 -0.097037423298216074 0.0044067965407037796 0 -0.10274631443520159 0.015506275259518422 0 -0.099338308719887927 0.015211744824875462 0 -0.10097706910961729 0.013678011367486732 0 -0.095571903536580918 -0.0091569187216503593 0 -0.095540260923343737 -0.010234285672055653 0 -0.096522984102420981 -0.0093927679484021899 0 -0.096021836099175639 0.014907070669927674 0 -0.099338308719887927 0.015211744824875462 0 -0.099045297423466738 0.012950825976424898 0 -0.099338308719887927 0.015211744824875462 0 -0.10097706910961729 0.013678011367486732 0 -0.099045297423466738 0.012950825976424898 0 -0.096692313782888853 0.012251407506120445 0 -0.099045297423466738 0.012950825976424898 0 -0.098064786196442377 0.010134267724802627 0 -0.099045297423466738 0.012950825976424898 0 -0.1004606190406883 0.010926252232562406 0 -0.098064786196442377 0.010134267724802627 0 -0.10097706910961729 0.013678011367486732 0 -0.099045297423466738 0.012950825976424898 0 -0.1004606190406883 0.010926252232562406 0 -0.1004606190406883 0.010926252232562406 0 -0.10263031557199881 0.012336584200660045 0 -0.10247362546703849 0.0088906151099799983 0 -0.10097706910961729 0.013678011367486732 0 -0.1004606190406883 0.010926252232562406 0 -0.10263031557199881 0.012336584200660045 0 -0.1004606190406883 0.010926252232562406 0 -0.10247362546703849 0.0088906151099799983 0 -0.099613291434439727 0.0071521927592091625 0 -0.1004606190406883 0.010926252232562406 0 -0.098064786196442377 0.010134267724802627 0 -0.099613291434439727 0.0071521927592091625 0 -0.097453948874668336 0.007636998351379376 0 -0.098064786196442377 0.010134267724802627 0 -0.099613291434439727 0.0071521927592091625 0 -0.098290096653403811 -0.0051518066445236507 0 -0.099024882885548643 -0.0061618780136724694 0 -0.099493170162513439 -0.004151596259380861 0 -0.10053769535388804 -0.0057169048121074638 0 -0.1012435333987986 -0.003016420312432638 0 -0.099493170162513439 -0.004151596259380861 0 -0.098832722767378089 0.0028208511814039315 0 -0.10012587750927063 0.0028725873241934965 0 -0.099024882885548643 -0.0061618780136724694 0 -0.10053769535388804 -0.0057169048121074638 0 -0.099493170162513439 -0.004151596259380861 0 -0.1012435333987986 -0.003016420312432638 0 -0.099493170162513439 -0.004151596259380861 0 -0.099770898815300726 -0.0013313093070273598 0 -0.098035180008753955 -0.0032892560907283948 0 -0.099493170162513439 -0.004151596259380861 0 -0.099770898815300726 -0.0013313093070273598 0 -0.098290096653403811 -0.0051518066445236507 0 -0.098035180008753955 -0.0032892560907283948 0 -0.099493170162513439 -0.004151596259380861 0 -0.10012587750927063 0.0028725873241934965 0 -0.10059843791657419 0.002435593311242607 0 -0.1012435333987986 -0.003016420312432638 0 -0.099770898815300726 -0.0013313093070273598 0 -0.10126031303324601 -0.00044131390429072502 0 -0.099770898815300726 -0.0013313093070273598 0 -0.10025732480329444 0.00044872210029105772 0 -0.10126031303324601 -0.00044131390429072502 0 -0.10025732480329444 0.00044872210029105772 0 -0.10126031303324601 -0.00044131390429072502 0 -0.10053987169938039 0.001365300494938606 0 -0.10059843791657419 0.002435593311242607 0 -0.10064612202793523 0.0020890884699773541 0 -0.099770898815300726 -0.0013313093070273598 0 -0.10025732480329444 0.00044872210029105772 0 -0.099519994593564781 0.00041505321261876772 0 -0.099770898815300726 -0.0013313093070273598 0 -0.099519994593564781 0.00041505321261876772 0 -0.098475782564449138 -0.00074126897005199653 0 -0.097453948874668336 0.007636998351379376 0 -0.099613291434439727 0.0071521927592091625 0 -0.098022051274187505 0.0042550994489835899 0 -0.10247362546703849 0.0088906151099799983 0 -0.10198431247097021 0.005142672143249402 0 -0.099613291434439727 0.0071521927592091625 0 -0.10198431247097021 0.005142672143249402 0 -0.099806152305175935 0.0034264696831258533 0 -0.10053987169938039 0.001365300494938606 0 -0.10198431247097021 0.005142672143249402 0 -0.099613291434439727 0.0071521927592091625 0 -0.099806152305175935 0.0034264696831258533 0 -0.099613291434439727 0.0071521927592091625 0 -0.099806152305175935 0.0034264696831258533 0 -0.098022051274187505 0.0042550994489835899 0 -0.096407527053946451 0.0023681730834396691 0 -0.098022051274187505 0.0042550994489835899 0 -0.098247824379910378 0.0011837185419834577 0 -0.099806152305175935 0.0034264696831258533 0 -0.098022051274187505 0.0042550994489835899 0 -0.098247824379910378 0.0011837185419834577 0 -0.099806152305175935 0.0034264696831258533 0 -0.098247824379910378 0.0011837185419834577 0 -0.10053987169938039 0.001365300494938606 0 -0.098925520490142083 -0.00072329018324298309 0 -0.098247824379910378 0.0011837185419834577 0 -0.10053987169938039 0.001365300494938606 0 -0.099858939820966913 -3.2329783338135461e-05 0 -0.098925520490142083 -0.00072329018324298309 0 -0.10053987169938039 0.001365300494938606 0 -0.098925520490142083 -0.00072329018324298309 0 -0.096736788108754621 -0.0014239457488090849 0 -0.098247824379910378 0.0011837185419834577 0 -0.099519994593564781 0.00041505321261876772 0 -0.099948006543372103 0.0011606287064932393 0 -0.098959059380810982 0.0012224235819953899 0 -0.10025732480329444 0.00044872210029105772 0 -0.099519994593564781 0.00041505321261876772 0 -0.099948006543372103 0.0011606287064932393 0 -0.099948006543372103 0.0011606287064932393 0 -0.099491021267426094 0.0014331953074811241 0 -0.098959059380810982 0.0012224235819953899 0 -0.10025732480329444 0.00044872210029105772 0 -0.099948006543372103 0.0011606287064932393 0 -0.10053987169938039 0.001365300494938606 0 -0.099858939820966913 -3.2329783338135461e-05 0 -0.099948006543372103 0.0011606287064932393 0 -0.10053987169938039 0.001365300494938606 0 -0.099858939820966913 -3.2329783338135461e-05 0 -0.099948006543372103 0.0011606287064932393 0 -0.099491021267426094 0.0014331953074811241 0 -0.09941140524938416 0.00037780653590421614 0 -0.099491021267426094 0.0014331953074811241 0 -0.099350032974183655 0.001719052933146186 0 -0.099491021267426094 0.0014331953074811241 0 -0.099350032974183655 0.001719052933146186 0 -0.098819897866470011 0.0023069930705973086 0 -0.099350032974183655 0.001719052933146186 0 -0.099089450571170454 0.0030136932630775003 0 -0.098819897866470011 0.0023069930705973086 0 -0.09970066873190167 0.0012726163576833164 0 -0.099350032974183655 0.001719052933146186 0 -0.099089450571170454 0.0030136932630775003 0 -0.099089450571170454 0.0030136932630775003 0 -0.098819897866470011 0.0023069930705973086 0 -0.098133944604286052 0.0031712277320888691 0 -0.098819897866470011 0.0023069930705973086 0 -0.0978974202361826 0.0016864537236768414 0 -0.098959059380810982 0.0012224235819953899 0 -0.098819897866470011 0.0023069930705973086 0 -0.0978974202361826 0.0016864537236768414 0 -0.098133944604286052 0.0031712277320888691 0 -0.099491021267426094 0.0014331953074811241 0 -0.098819897866470011 0.0023069930705973086 0 -0.098959059380810982 0.0012224235819953899 0 -0.099519994593564781 0.00041505321261876772 0 -0.098959059380810982 0.0012224235819953899 0 -0.098475782564449138 -0.00074126897005199653 0 -0.098959059380810982 0.0012224235819953899 0 -0.09747633711105734 4.5740716840217305e-05 0 -0.098475782564449138 -0.00074126897005199653 0 -0.0978974202361826 0.0016864537236768414 0 -0.098959059380810982 0.0012224235819953899 0 -0.09747633711105734 4.5740716840217305e-05 0 -0.0978974202361826 0.0016864537236768414 0 -0.09747633711105734 4.5740716840217305e-05 0 -0.096577712932397863 0.00073916246238922773 0 -0.09747633711105734 4.5740716840217305e-05 0 -0.095784717132103778 -0.0010509233716459925 0 -0.096577712932397863 0.00073916246238922773 0 -0.09747633711105734 4.5740716840217305e-05 0 -0.096867405835673992 -0.0020452252328237329 0 -0.095784717132103778 -0.0010509233716459925 0 -0.09747633711105734 4.5740716840217305e-05 0 -0.096867405835673992 -0.0020452252328237329 0 -0.098475782564449138 -0.00074126897005199653 0 -0.098035180008753955 -0.0032892560907283948 0 -0.096867405835673992 -0.0020452252328237329 0 -0.098475782564449138 -0.00074126897005199653 0 -0.098035180008753955 -0.0032892560907283948 0 -0.099770898815300726 -0.0013313093070273598 0 -0.098475782564449138 -0.00074126897005199653 0 -0.092510207804335845 -0.0012209610077518231 0 -0.093512615771346397 0.00015219047749530644 0 -0.091739828302054544 0.00010707837767029892 0 -0.092510207804335845 -0.0012209610077518231 0 -0.094149642336752687 -0.0012296934563903099 0 -0.093512615771346397 0.00015219047749530644 0 -0.092510207804335845 -0.0012209610077518231 0 -0.091739828302054544 0.00010707837767029892 0 -0.090578088098337325 -0.0010373314095145376 0 -0.092510207804335845 -0.0012209610077518231 0 -0.091465053462042645 -0.002482969076364984 0 -0.090578088098337325 -0.0010373314095145376 0 -0.092510207804335845 -0.0012209610077518231 0 -0.093049093281909606 -0.0023278603278024546 0 -0.094149642336752687 -0.0012296934563903099 0 -0.092510207804335845 -0.0012209610077518231 0 -0.091465053462042645 -0.002482969076364984 0 -0.093049093281909606 -0.0023278603278024546 0 -0.094566743321939928 -0.0028551331788483287 0 -0.093049093281909606 -0.0023278603278024546 0 -0.094149642336752687 -0.0012296934563903099 0 -0.094566743321939928 -0.0028551331788483287 0 -0.096867405835673992 -0.0020452252328237329 0 -0.095784717132103778 -0.0010509233716459925 0 -0.094566743321939928 -0.0028551331788483287 0 -0.095784717132103778 -0.0010509233716459925 0 -0.094149642336752687 -0.0012296934563903099 0 -0.094149642336752687 -0.0012296934563903099 0 -0.095185579648414648 2.3095862315813164e-05 0 -0.093512615771346397 0.00015219047749530644 0 -0.095784717132103778 -0.0010509233716459925 0 -0.094149642336752687 -0.0012296934563903099 0 -0.095185579648414648 2.3095862315813164e-05 0 -0.095185579648414648 2.3095862315813164e-05 0 -0.094412346166111744 0.0020017667995995965 0 -0.093512615771346397 0.00015219047749530644 0 -0.095784717132103778 -0.0010509233716459925 0 -0.095185579648414648 2.3095862315813164e-05 0 -0.096577712932397863 0.00073916246238922773 0 -0.095185579648414648 2.3095862315813164e-05 0 -0.096577712932397863 0.00073916246238922773 0 -0.09644601201402922 0.0020222663195566416 0 -0.0978974202361826 0.0016864537236768414 0 -0.096577712932397863 0.00073916246238922773 0 -0.09644601201402922 0.0020222663195566416 0 -0.095185579648414648 2.3095862315813164e-05 0 -0.094412346166111744 0.0020017667995995965 0 -0.09644601201402922 0.0020222663195566416 0 -0.092856019286391894 0.001347854533979211 0 -0.094412346166111744 0.0020017667995995965 0 -0.093512615771346397 0.00015219047749530644 0 -0.092856019286391894 0.001347854533979211 0 -0.094412346166111744 0.0020017667995995965 0 -0.091439280645571136 0.0027535803509244456 0 -0.092856019286391894 0.001347854533979211 0 -0.093512615771346397 0.00015219047749530644 0 -0.091739828302054544 0.00010707837767029892 0 -0.091739828302054544 0.00010707837767029892 0 -0.091439280645571136 0.0027535803509244456 0 -0.089717767112520497 0.00080977488545145714 0 -0.092856019286391894 0.001347854533979211 0 -0.091739828302054544 0.00010707837767029892 0 -0.091439280645571136 0.0027535803509244456 0 -0.094412346166111744 0.0020017667995995965 0 -0.093938646929873873 0.0040566643700527668 0 -0.096513217291964826 0.0035523483869506368 0 -0.094412346166111744 0.0020017667995995965 0 -0.091439280645571136 0.0027535803509244456 0 -0.093938646929873873 0.0040566643700527668 0 -0.091439280645571136 0.0027535803509244456 0 -0.093938646929873873 0.0040566643700527668 0 -0.091627887841524008 0.0058084843174175003 0 -0.0978974202361826 0.0016864537236768414 0 -0.09644601201402922 0.0020222663195566416 0 -0.098133944604286052 0.0031712277320888691 0 -0.094412346166111744 0.0020017667995995965 0 -0.09644601201402922 0.0020222663195566416 0 -0.096513217291964826 0.0035523483869506368 0 -0.096513217291964826 0.0035523483869506368 0 -0.098133944604286052 0.0031712277320888691 0 -0.098503540441514159 0.0047654955564485494 0 -0.09644601201402922 0.0020222663195566416 0 -0.096513217291964826 0.0035523483869506368 0 -0.098133944604286052 0.0031712277320888691 0 -0.095692673682682555 0.012980737494504176 0 -0.098503540441514159 0.0047654955564485494 0 -0.094900238125006517 0.0075602854882244356 0 -0.099089450571170454 0.0030136932630775003 0 -0.098133944604286052 0.0031712277320888691 0 -0.098503540441514159 0.0047654955564485494 0 -0.096513217291964826 0.0035523483869506368 0 -0.098503540441514159 0.0047654955564485494 0 -0.094900238125006517 0.0075602854882244356 0 -0.10035430892011271 0.0024444347848139713 0 -0.099089450571170454 0.0030136932630775003 0 -0.098503540441514159 0.0047654955564485494 0 -0.091627887841524008 0.0058084843174175003 0 -0.094900238125006517 0.0075602854882244356 0 -0.091236003787163997 0.0086783494808005002 0 -0.093938646929873873 0.0040566643700527668 0 -0.096513217291964826 0.0035523483869506368 0 -0.094900238125006517 0.0075602854882244356 0 -0.093938646929873873 0.0040566643700527668 0 -0.091627887841524008 0.0058084843174175003 0 -0.094900238125006517 0.0075602854882244356 0 -0.092469475899521078 0.010392179172273653 0 -0.094900238125006517 0.0075602854882244356 0 -0.091236003787163997 0.0086783494808005002 0 -0.092469475899521078 0.010392179172273653 0 -0.090639563728842229 0.011304798855325173 0 -0.091236003787163997 0.0086783494808005002 0 -0.091236003787163997 0.0086783494808005002 0 -0.089135481858021781 0.0099017365193263575 0 -0.088723702713157063 0.0075930046290302389 0 -0.090639563728842229 0.011304798855325173 0 -0.091236003787163997 0.0086783494808005002 0 -0.089135481858021781 0.0099017365193263575 0 -0.091627887841524008 0.0058084843174175003 0 -0.091236003787163997 0.0086783494808005002 0 -0.088723702713157063 0.0075930046290302389 0 -0.088723702713157063 0.0075930046290302389 0 -0.085008476283804854 0.00846529400606604 0 -0.087205197888471447 0.005719464526742094 0 -0.089135481858021781 0.0099017365193263575 0 -0.088723702713157063 0.0075930046290302389 0 -0.086619459540794974 0.010523923897033468 0 -0.082909284662921398 0.011645986233194246 0 -0.085008476283804854 0.00846529400606604 0 -0.080207397830829738 0.0092129153428474504 0 -0.082909284662921398 0.011645986233194246 0 -0.086619459540794974 0.010523923897033468 0 -0.085008476283804854 0.00846529400606604 0 -0.085008476283804854 0.00846529400606604 0 -0.083645610327134134 0.0060139802106965717 0 -0.080207397830829738 0.0092129153428474504 0 -0.088723702713157063 0.0075930046290302389 0 -0.086619459540794974 0.010523923897033468 0 -0.085008476283804854 0.00846529400606604 0 -0.085008476283804854 0.00846529400606604 0 -0.083645610327134134 0.0060139802106965717 0 -0.087205197888471447 0.005719464526742094 0 -0.083645610327134134 0.0060139802106965717 0 -0.085875537853749254 0.0041278514402897353 0 -0.084353927322208117 0.002646220231237428 0 -0.083645610327134134 0.0060139802106965717 0 -0.085875537853749254 0.0041278514402897353 0 -0.087205197888471447 0.005719464526742094 0 -0.085875537853749254 0.0041278514402897353 0 -0.087205197888471447 0.005719464526742094 0 -0.088679078533000402 0.0029696647906106593 0 -0.08962699000876212 0.0049029678644035048 0 -0.087205197888471447 0.005719464526742094 0 -0.088679078533000402 0.0029696647906106593 0 -0.091439280645571136 0.0027535803509244456 0 -0.08962699000876212 0.0049029678644035048 0 -0.088679078533000402 0.0029696647906106593 0 -0.091439280645571136 0.0027535803509244456 0 -0.091627887841524008 0.0058084843174175003 0 -0.08962699000876212 0.0049029678644035048 0 -0.091627887841524008 0.0058084843174175003 0 -0.088723702713157063 0.0075930046290302389 0 -0.08962699000876212 0.0049029678644035048 0 -0.088723702713157063 0.0075930046290302389 0 -0.08962699000876212 0.0049029678644035048 0 -0.087205197888471447 0.005719464526742094 0 -0.075427634954589082 0.01296173986844008 0 -0.07571503559263941 0.0095590484726527057 0 -0.080207397830829738 0.0092129153428474504 0 -0.07571503559263941 0.0095590484726527057 0 -0.080207397830829738 0.0092129153428474504 0 -0.07795524494709094 0.0074748576697910825 0 -0.083645610327134134 0.0060139802106965717 0 -0.080207397830829738 0.0092129153428474504 0 -0.080184200567189182 0.0049191237943699128 0 -0.080207397830829738 0.0092129153428474504 0 -0.080184200567189182 0.0049191237943699128 0 -0.07795524494709094 0.0074748576697910825 0 -0.083645610327134134 0.0060139802106965717 0 -0.080184200567189182 0.0049191237943699128 0 -0.084353927322208117 0.002646220231237428 0 -0.080184200567189182 0.0049191237943699128 0 -0.07795524494709094 0.0074748576697910825 0 -0.075757266304647436 0.0061350648739928286 0 -0.07571503559263941 0.0095590484726527057 0 -0.07795524494709094 0.0074748576697910825 0 -0.075757266304647436 0.0061350648739928286 0 -0.07571503559263941 0.0095590484726527057 0 -0.075757266304647436 0.0061350648739928286 0 -0.072566052994647134 0.0085916675860250296 0 -0.075757266304647436 0.0061350648739928286 0 -0.077299505598013893 0.0020334786392808969 0 -0.071279396873376047 0.0054192991185802748 0 -0.080184200567189182 0.0049191237943699128 0 -0.075757266304647436 0.0061350648739928286 0 -0.077299505598013893 0.0020334786392808969 0 -0.077299505598013893 0.0020334786392808969 0 -0.082088640969644924 0.0015733298619922747 0 -0.0809026472074338 -0.0011939885479011262 0 -0.080184200567189182 0.0049191237943699128 0 -0.077299505598013893 0.0020334786392808969 0 -0.082088640969644924 0.0015733298619922747 0 -0.080184200567189182 0.0049191237943699128 0 -0.082088640969644924 0.0015733298619922747 0 -0.084353927322208117 0.002646220231237428 0 -0.082088640969644924 0.0015733298619922747 0 -0.0809026472074338 -0.0011939885479011262 0 -0.083739529264371629 -0.00074745939801311185 0 -0.083405740992643779 -0.0026048509387914141 0 -0.0809026472074338 -0.0011939885479011262 0 -0.083739529264371629 -0.00074745939801311185 0 -0.083405740992643779 -0.0026048509387914141 0 -0.0809026472074338 -0.0011939885479011262 0 -0.080170583212360758 -0.0037651614592573044 0 -0.0809026472074338 -0.0011939885479011262 0 -0.077546595256441073 -0.0013139296169336807 0 -0.080170583212360758 -0.0037651614592573044 0 -0.077299505598013893 0.0020334786392808969 0 -0.077546595256441073 -0.0013139296169336807 0 -0.072330124061870171 -0.00025596933326477617 0 -0.077299505598013893 0.0020334786392808969 0 -0.0809026472074338 -0.0011939885479011262 0 -0.077546595256441073 -0.0013139296169336807 0 -0.087504415147765857 0.0014447726895293147 0 -0.089717767112520497 0.00080977488545145714 0 -0.088333481758096979 -0.00085011860383325105 0 -0.087504415147765857 0.0014447726895293147 0 -0.08595731958210652 0.00053620506251281425 0 -0.088333481758096979 -0.00085011860383325105 0 -0.091439280645571136 0.0027535803509244456 0 -0.089717767112520497 0.00080977488545145714 0 -0.088679078533000402 0.0029696647906106593 0 -0.087504415147765857 0.0014447726895293147 0 -0.089717767112520497 0.00080977488545145714 0 -0.088679078533000402 0.0029696647906106593 0 -0.085875537853749254 0.0041278514402897353 0 -0.087504415147765857 0.0014447726895293147 0 -0.088679078533000402 0.0029696647906106593 0 -0.085875537853749254 0.0041278514402897353 0 -0.087504415147765857 0.0014447726895293147 0 -0.084353927322208117 0.002646220231237428 0 -0.082088640969644924 0.0015733298619922747 0 -0.084353927322208117 0.002646220231237428 0 -0.08595731958210652 0.00053620506251281425 0 -0.087504415147765857 0.0014447726895293147 0 -0.084353927322208117 0.002646220231237428 0 -0.08595731958210652 0.00053620506251281425 0 -0.08595731958210652 0.00053620506251281425 0 -0.086192990212537651 -0.0019575147591724068 0 -0.088333481758096979 -0.00085011860383325105 0 -0.08595731958210652 0.00053620506251281425 0 -0.083739529264371629 -0.00074745939801311185 0 -0.086192990212537651 -0.0019575147591724068 0 -0.082088640969644924 0.0015733298619922747 0 -0.08595731958210652 0.00053620506251281425 0 -0.083739529264371629 -0.00074745939801311185 0 -0.083405740992643779 -0.0026048509387914141 0 -0.086192990212537651 -0.0019575147591724068 0 -0.085181983505295628 -0.0032566124984292114 0 -0.083405740992643779 -0.0026048509387914141 0 -0.083739529264371629 -0.00074745939801311185 0 -0.086192990212537651 -0.0019575147591724068 0 -0.086192990212537651 -0.0019575147591724068 0 -0.087927618259709128 -0.0026016919657527843 0 -0.088333481758096979 -0.00085011860383325105 0 -0.087927618259709128 -0.0026016919657527843 0 -0.088333481758096979 -0.00085011860383325105 0 -0.089593585872559292 -0.002449523577181529 0 -0.091739828302054544 0.00010707837767029892 0 -0.089717767112520497 0.00080977488545145714 0 -0.090578088098337325 -0.0010373314095145376 0 -0.089717767112520497 0.00080977488545145714 0 -0.088333481758096979 -0.00085011860383325105 0 -0.090578088098337325 -0.0010373314095145376 0 -0.091465053462042645 -0.002482969076364984 0 -0.090578088098337325 -0.0010373314095145376 0 -0.089593585872559292 -0.002449523577181529 0 -0.088333481758096979 -0.00085011860383325105 0 -0.090578088098337325 -0.0010373314095145376 0 -0.089593585872559292 -0.002449523577181529 0 -0.091465053462042645 -0.002482969076364984 0 -0.089593585872559292 -0.002449523577181529 0 -0.09033119586801576 -0.0038722523379319039 0 -0.089593585872559292 -0.002449523577181529 0 -0.09033119586801576 -0.0038722523379319039 0 -0.088472381403104233 -0.0039310934351420301 0 -0.087927618259709128 -0.0026016919657527843 0 -0.089593585872559292 -0.002449523577181529 0 -0.088472381403104233 -0.0039310934351420301 0 -0.087927618259709128 -0.0026016919657527843 0 -0.088472381403104233 -0.0039310934351420301 0 -0.086736673544786758 -0.0035061566337014323 0 -0.088472381403104233 -0.0039310934351420301 0 -0.089100911796030455 -0.0052097750344316587 0 -0.086989178400410025 -0.0052355853973478483 0 -0.090910125149809395 -0.0053336642163774985 0 -0.09033119586801576 -0.0038722523379319039 0 -0.089100911796030455 -0.0052097750344316587 0 -0.09033119586801576 -0.0038722523379319039 0 -0.088472381403104233 -0.0039310934351420301 0 -0.089100911796030455 -0.0052097750344316587 0 -0.090910125149809395 -0.0053336642163774985 0 -0.091068474061113666 -0.0067317964462611868 0 -0.089469621029784951 -0.006399841719088804 0 -0.090910125149809395 -0.0053336642163774985 0 -0.089100911796030455 -0.0052097750344316587 0 -0.089469621029784951 -0.006399841719088804 0 -0.089100911796030455 -0.0052097750344316587 0 -0.089469621029784951 -0.006399841719088804 0 -0.087991906278470908 -0.006262185950144634 0 -0.089100911796030455 -0.0052097750344316587 0 -0.087991906278470908 -0.006262185950144634 0 -0.086989178400410025 -0.0052355853973478483 0 -0.089469621029784951 -0.006399841719088804 0 -0.088252944790334409 -0.0072389600839083941 0 -0.089464373514235238 -0.0074909360857525371 0 -0.089469621029784951 -0.006399841719088804 0 -0.087991906278470908 -0.006262185950144634 0 -0.088252944790334409 -0.0072389600839083941 0 -0.087991906278470908 -0.006262185950144634 0 -0.088252944790334409 -0.0072389600839083941 0 -0.087083398878626178 -0.0075898564660354609 0 -0.088252944790334409 -0.0072389600839083941 0 -0.087083398878626178 -0.0075898564660354609 0 -0.08819389294622515 -0.0082023435903271248 0 -0.088252944790334409 -0.0072389600839083941 0 -0.089464373514235238 -0.0074909360857525371 0 -0.08819389294622515 -0.0082023435903271248 0 -0.091068474061113666 -0.0067317964462611868 0 -0.089469621029784951 -0.006399841719088804 0 -0.089464373514235238 -0.0074909360857525371 0 -0.085441266090898971 -0.0072049729376878358 0 -0.085389194383134637 -0.008183684056342717 0 -0.087083398878626178 -0.0075898564660354609 0 -0.085441266090898971 -0.0072049729376878358 0 -0.085389194383134637 -0.008183684056342717 0 -0.083985709303691675 -0.0074724481358251346 0 -0.085389194383134637 -0.008183684056342717 0 -0.083985709303691675 -0.0074724481358251346 0 -0.08404724793572918 -0.008320791869665169 0 -0.085389194383134637 -0.008183684056342717 0 -0.08404724793572918 -0.008320791869665169 0 -0.084751422419518163 -0.0090205473226300896 0 -0.085389194383134637 -0.008183684056342717 0 -0.087083398878626178 -0.0075898564660354609 0 -0.087468507666404988 -0.0091508886832424325 0 -0.085441266090898971 -0.0072049729376878358 0 -0.087083398878626178 -0.0075898564660354609 0 -0.086246950087766824 -0.0064470842938505833 0 -0.087991906278470908 -0.006262185950144634 0 -0.086246950087766824 -0.0064470842938505833 0 -0.086989178400410025 -0.0052355853973478483 0 -0.087991906278470908 -0.006262185950144634 0 -0.087083398878626178 -0.0075898564660354609 0 -0.086246950087766824 -0.0064470842938505833 0 -0.086246950087766824 -0.0064470842938505833 0 -0.085475650845282386 -0.0055565647489895084 0 -0.086989178400410025 -0.0052355853973478483 0 -0.086246950087766824 -0.0064470842938505833 0 -0.084373992365250464 -0.0062988988831673681 0 -0.085475650845282386 -0.0055565647489895084 0 -0.085441266090898971 -0.0072049729376878358 0 -0.086246950087766824 -0.0064470842938505833 0 -0.084373992365250464 -0.0062988988831673681 0 -0.085441266090898971 -0.0072049729376878358 0 -0.084373992365250464 -0.0062988988831673681 0 -0.083985709303691675 -0.0074724481358251346 0 -0.084373992365250464 -0.0062988988831673681 0 -0.085475650845282386 -0.0055565647489895084 0 -0.083603409817074689 -0.0048434611609841326 0 -0.085495455166529136 -0.0044844841779081946 0 -0.085181983505295628 -0.0032566124984292114 0 -0.083603409817074689 -0.0048434611609841326 0 -0.085475650845282386 -0.0055565647489895084 0 -0.085495455166529136 -0.0044844841779081946 0 -0.083603409817074689 -0.0048434611609841326 0 -0.088472381403104233 -0.0039310934351420301 0 -0.086989178400410025 -0.0052355853973478483 0 -0.086736673544786758 -0.0035061566337014323 0 -0.085495455166529136 -0.0044844841779081946 0 -0.086989178400410025 -0.0052355853973478483 0 -0.086736673544786758 -0.0035061566337014323 0 -0.085475650845282386 -0.0055565647489895084 0 -0.085495455166529136 -0.0044844841779081946 0 -0.086989178400410025 -0.0052355853973478483 0 -0.086192990212537651 -0.0019575147591724068 0 -0.087927618259709128 -0.0026016919657527843 0 -0.086736673544786758 -0.0035061566337014323 0 -0.086192990212537651 -0.0019575147591724068 0 -0.086736673544786758 -0.0035061566337014323 0 -0.085181983505295628 -0.0032566124984292114 0 -0.085495455166529136 -0.0044844841779081946 0 -0.086736673544786758 -0.0035061566337014323 0 -0.085181983505295628 -0.0032566124984292114 0 -0.083405740992643779 -0.0026048509387914141 0 -0.085181983505295628 -0.0032566124984292114 0 -0.083603409817074689 -0.0048434611609841326 0 -0.083405740992643779 -0.0026048509387914141 0 -0.080170583212360758 -0.0037651614592573044 0 -0.083603409817074689 -0.0048434611609841326 0 -0.080170583212360758 -0.0037651614592573044 0 -0.083603409817074689 -0.0048434611609841326 0 -0.081374149438347018 -0.0060726680691223734 0 -0.080170583212360758 -0.0037651614592573044 0 -0.077769413438336571 -0.0068008571562241686 0 -0.081374149438347018 -0.0060726680691223734 0 -0.077546595256441073 -0.0013139296169336807 0 -0.080170583212360758 -0.0037651614592573044 0 -0.076149202928888535 -0.0034650713321319748 0 -0.080170583212360758 -0.0037651614592573044 0 -0.076149202928888535 -0.0034650713321319748 0 -0.077769413438336571 -0.0068008571562241686 0 -0.077769413438336571 -0.0068008571562241686 0 -0.077594850923836015 -0.01012761567534696 0 -0.072360229069279636 -0.0097363081082781893 0 -0.077769413438336571 -0.0068008571562241686 0 -0.081774877238584176 -0.0080635339085783006 0 -0.077594850923836015 -0.01012761567534696 0 -0.081774877238584176 -0.0080635339085783006 0 -0.083264330450759566 -0.010143592078044921 0 -0.077594850923836015 -0.01012761567534696 0 -0.084373992365250464 -0.0062988988831673681 0 -0.083603409817074689 -0.0048434611609841326 0 -0.082955750575128426 -0.0067598326658799401 0 -0.082955750575128426 -0.0067598326658799401 0 -0.081374149438347018 -0.0060726680691223734 0 -0.081774877238584176 -0.0080635339085783006 0 -0.083603409817074689 -0.0048434611609841326 0 -0.082955750575128426 -0.0067598326658799401 0 -0.081374149438347018 -0.0060726680691223734 0 -0.084373992365250464 -0.0062988988831673681 0 -0.082955750575128426 -0.0067598326658799401 0 -0.083985709303691675 -0.0074724481358251346 0 -0.077769413438336571 -0.0068008571562241686 0 -0.081374149438347018 -0.0060726680691223734 0 -0.081774877238584176 -0.0080635339085783006 0 -0.082955750575128426 -0.0067598326658799401 0 -0.081774877238584176 -0.0080635339085783006 0 -0.083985709303691675 -0.0074724481358251346 0 -0.081774877238584176 -0.0080635339085783006 0 -0.083985709303691675 -0.0074724481358251346 0 -0.08404724793572918 -0.008320791869665169 0 -0.081774877238584176 -0.0080635339085783006 0 -0.08404724793572918 -0.008320791869665169 0 -0.083140927783661056 -0.0088189614049739365 0 -0.081774877238584176 -0.0080635339085783006 0 -0.083140927783661056 -0.0088189614049739365 0 -0.083264330450759566 -0.010143592078044921 0 -0.08404724793572918 -0.008320791869665169 0 -0.083560712701867532 -0.0093110902731492022 0 -0.084751422419518163 -0.0090205473226300896 0 -0.08404724793572918 -0.008320791869665169 0 -0.083140927783661056 -0.0088189614049739365 0 -0.083560712701867532 -0.0093110902731492022 0 -0.083560712701867532 -0.0093110902731492022 0 -0.083264330450759566 -0.010143592078044921 0 -0.084751422419518163 -0.0090205473226300896 0 -0.083140927783661056 -0.0088189614049739365 0 -0.083560712701867532 -0.0093110902731492022 0 -0.083264330450759566 -0.010143592078044921 0 -0.06124359965313176 0.0086709396126962174 0 -0.057765991856592216 0.0085611342491591098 0 -0.036466245909811595 0.02737845788100229 0 -0.035706254261688837 0.026834478299673864 0 -0.035104764954988425 0.027467610921056047 0 -0.036466245909811595 0.02737845788100229 0 -0.036268900225255571 0.026668987548184753 0 -0.036726885253838396 0.02632372086688212 0 -0.036466245909811595 0.02737845788100229 0 -0.035706254261688837 0.026834478299673864 0 -0.036268900225255571 0.026668987548184753 0 -0.035104764954988425 0.027467610921056047 0 -0.034854948712310381 0.026363335307415185 0 -0.03409707110734661 0.02656170503943709 0 -0.035706254261688837 0.026834478299673864 0 -0.035104764954988425 0.027467610921056047 0 -0.034854948712310381 0.026363335307415185 0 -0.034854948712310381 0.026363335307415185 0 -0.035087908991014057 0.025811186039179063 0 -0.035947227029549909 0.026131926394414629 0 -0.035706254261688837 0.026834478299673864 0 -0.034854948712310381 0.026363335307415185 0 -0.035947227029549909 0.026131926394414629 0 -0.034854948712310381 0.026363335307415185 0 -0.035087908991014057 0.025811186039179063 0 -0.034064712204650793 0.025909856361828815 0 -0.036268900225255571 0.026668987548184753 0 -0.035947227029549909 0.026131926394414629 0 -0.036726885253838396 0.02632372086688212 0 -0.035706254261688837 0.026834478299673864 0 -0.036268900225255571 0.026668987548184753 0 -0.035947227029549909 0.026131926394414629 0 -0.035947227029549909 0.026131926394414629 0 -0.036726885253838396 0.02632372086688212 0 -0.036852289135827443 0.025435856484177441 0 -0.036726885253838396 0.02632372086688212 0 -0.037616302476275808 0.025982219062906178 0 -0.036852289135827443 0.025435856484177441 0 -0.036466245909811595 0.02737845788100229 0 -0.036726885253838396 0.02632372086688212 0 -0.037616302476275808 0.025982219062906178 0 -0.083692657315744295 -0.0061539005307560879 0 -0.08781034428448424 -0.0065820594672592299 0 -0.087431461835860272 -0.0087549667406149525 0 -0.082556168939909219 -0.0031754735349991937 0 -0.083692657315744295 -0.0061539005307560879 0 -0.08781034428448424 -0.0065820594672592299 0 -0.090830656994446479 -0.01137202254697558 0 -0.087431461835860272 -0.0087549667406149525 0 -0.090261109244511958 -0.0090085725632325538 0 -0.087383646459972014 -0.0073456251178815003 0 -0.087482668130045918 -0.0076818673084849036 0 -0.091103268985206112 -0.0077948872387350755 0 -0.090261109244511958 -0.0090085725632325538 0 -0.089128401110786334 -0.0082570149941954222 0 -0.087431461835860272 -0.0087549667406149525 0 -0.090261109244511958 -0.0090085725632325538 0 -0.089128401110786334 -0.0082570149941954222 0 -0.091103268985206112 -0.0077948872387350755 0 -0.089128401110786334 -0.0082570149941954222 0 -0.089464373514235238 -0.0074909360857525371 0 -0.091068474061113666 -0.0067317964462611868 0 -0.091103268985206112 -0.0077948872387350755 0 -0.089464373514235238 -0.0074909360857525371 0 -0.087431461835860272 -0.0087549667406149525 0 -0.089128401110786334 -0.0082570149941954222 0 -0.08819389294622515 -0.0082023435903271248 0 -0.089128401110786334 -0.0082570149941954222 0 -0.089464373514235238 -0.0074909360857525371 0 -0.08819389294622515 -0.0082023435903271248 0 -0.087431461835860272 -0.0087549667406149525 0 -0.08819389294622515 -0.0082023435903271248 0 -0.087468507666404988 -0.0091508886832424325 0 -0.087083398878626178 -0.0075898564660354609 0 -0.08819389294622515 -0.0082023435903271248 0 -0.087468507666404988 -0.0091508886832424325 0 -0.06124359965313176 0.0086709396126962174 0 -0.061922136649194506 0.01028729055811334 0 -0.088614958933172602 -0.0094587681776878152 0 -0.08781034428448424 -0.0065820594672592299 0 -0.087431461835860272 -0.0087549667406149525 0 -0.088614958933172602 -0.0094587681776878152 0 -0.087431461835860272 -0.0087549667406149525 0 -0.087468507666404988 -0.0091508886832424325 0 -0.085389194383134637 -0.008183684056342717 0 -0.087468507666404988 -0.0091508886832424325 0 -0.084751422419518163 -0.0090205473226300896 0 -0.083264330450759566 -0.010143592078044921 0 -0.087468507666404988 -0.0091508886832424325 0 -0.084751422419518163 -0.0090205473226300896 0 -0.06124359965313176 0.0086709396126962174 0 -0.067970144630142601 0.0069013371075830098 0 -0.04852461201402461 0.020199790290935819 0 -0.042115259747248342 0.017424535296307421 0 -0.05226088569542222 0.013885252367061233 0 -0.04852461201402461 0.020199790290935819 0 -0.042115259747248342 0.017424535296307421 0 -0.044213903642054117 0.024130904861434994 0 -0.042115259747248342 0.017424535296307421 0 -0.05226088569542222 0.013885252367061233 0 -0.043146060631465165 0.0092004645917796914 0 -0.05226088569542222 0.013885252367061233 0 -0.058437898421697755 0.013987089065965345 0 -0.061314035045059383 0.0062278285851370468 0 -0.058437898421697755 0.013987089065965345 0 -0.063576575763345272 0.013755797010323482 0 -0.061314035045059383 0.0062278285851370468 0 -0.063576575763345272 0.013755797010323482 0 -0.05662564644968246 0.021874086868666723 0 -0.066166450946540264 0.023431290213690437 0 -0.058437898421697755 0.013987089065965345 0 -0.063576575763345272 0.013755797010323482 0 -0.05662564644968246 0.021874086868666723 0 -0.05226088569542222 0.013885252367061233 0 -0.058437898421697755 0.013987089065965345 0 -0.05662564644968246 0.021874086868666723 0 -0.04852461201402461 0.020199790290935819 0 -0.05226088569542222 0.013885252367061233 0 -0.05662564644968246 0.021874086868666723 0 -0.05662564644968246 0.021874086868666723 0 -0.048010340720771552 0.026537992417507244 0 -0.05377421420536644 0.03393634492867767 0 -0.05662564644968246 0.021874086868666723 0 -0.061254357447545642 0.029678523740714804 0 -0.05377421420536644 0.03393634492867767 0 -0.05662564644968246 0.021874086868666723 0 -0.061254357447545642 0.029678523740714804 0 -0.066166450946540264 0.023431290213690437 0 -0.044920032611008874 0.031228061487185453 0 -0.048010340720771552 0.026537992417507244 0 -0.05377421420536644 0.03393634492867767 0 -0.044920032611008874 0.031228061487185453 0 -0.048010340720771552 0.026537992417507244 0 -0.043238358838359366 0.028485832249680265 0 -0.04852461201402461 0.020199790290935819 0 -0.048010340720771552 0.026537992417507244 0 -0.044213903642054117 0.024130904861434994 0 -0.04852461201402461 0.020199790290935819 0 -0.05662564644968246 0.021874086868666723 0 -0.048010340720771552 0.026537992417507244 0 -0.042115259747248342 0.017424535296307421 0 -0.044213903642054117 0.024130904861434994 0 -0.040392723202857389 0.027826772113677945 0 -0.048010340720771552 0.026537992417507244 0 -0.044213903642054117 0.024130904861434994 0 -0.043238358838359366 0.028485832249680265 0 -0.044213903642054117 0.024130904861434994 0 -0.040392723202857389 0.027826772113677945 0 -0.043238358838359366 0.028485832249680265 0 -0.040392723202857389 0.027826772113677945 0 -0.043238358838359366 0.028485832249680265 0 -0.040818387462073176 0.032489865131181177 0 -0.044920032611008874 0.031228061487185453 0 -0.043238358838359366 0.028485832249680265 0 -0.040818387462073176 0.032489865131181177 0 -0.044920032611008874 0.031228061487185453 0 -0.040818387462073176 0.032489865131181177 0 -0.043245649937070654 0.036178681134559514 0 -0.038726457731118519 0.024037278877660852 0 -0.035425626231626969 0.028581990955487191 0 -0.038634265568281652 0.03212142244850974 0 -0.036955079458113126 0.031040040593130768 0 -0.037247613087172615 0.035963906032130392 0 -0.042115259747248342 0.017424535296307421 0 -0.033549954961951831 0.026519991287660871 0 -0.033578345511106729 0.02534363922783878 0 -0.042115259747248342 0.017424535296307421 0 -0.036955079458113126 0.031040040593130768 0 -0.031893420185795558 0.034056674217967868 0 -0.042115259747248342 0.017424535296307421 0 -0.040392723202857389 0.027826772113677945 0 -0.036955079458113126 0.031040040593130768 0 -0.040392723202857389 0.027826772113677945 0 -0.038634265568281652 0.03212142244850974 0 -0.036955079458113126 0.031040040593130768 0 -0.040392723202857389 0.027826772113677945 0 -0.040818387462073176 0.032489865131181177 0 -0.038634265568281652 0.03212142244850974 0 -0.036955079458113126 0.031040040593130768 0 -0.031893420185795558 0.034056674217967868 0 -0.034711592040862341 0.035053172939858393 0 -0.034854948712310381 0.026363335307415185 0 -0.034064712204650793 0.025909856361828815 0 -0.034098861820556485 0.026042291252645126 0 -0.033578345511106729 0.02534363922783878 0 -0.034064712204650793 0.025909856361828815 0 -0.034098861820556485 0.026042291252645126 0 -0.033549954961951831 0.026519991287660871 0 -0.033578345511106729 0.02534363922783878 0 -0.034064712204650793 0.025909856361828815 0 -0.033578345511106729 0.02534363922783878 0 -0.034098861820556485 0.026042291252645126 0 -0.03409707110734661 0.02656170503943709 0 -0.034854948712310381 0.026363335307415185 0 -0.034098861820556485 0.026042291252645126 0 -0.03409707110734661 0.02656170503943709 0 -0.035104764954988425 0.027467610921056047 0 -0.03409707110734661 0.02656170503943709 0 -0.033593415240404934 0.02765942436509642 0 -0.051583537104465907 0.017461562811534444 0 -0.057170736839775353 0.0081795604407346161 0 -0.057765991856592216 0.0085611342491591098 0 -0.057170736839775353 0.0081795604407346161 0 -0.033578345511106729 0.02534363922783878 0 -0.03409707110734661 0.02656170503943709 0 -0.033593415240404934 0.02765942436509642 0 -0.042115259747248342 0.017424535296307421 0 -0.031504637178526473 0.01165694147555571 0 -0.043146060631465165 0.0092004645917796914 0 -0.042115259747248342 0.017424535296307421 0 -0.033578345511106729 0.02534363922783878 0 -0.031504637178526473 0.01165694147555571 0 -0.065220753436119785 0.0033962188304452992 0 -0.066605609274950309 0.0019942819222078128 0 -0.064458194701846896 0.0023185972071806536 0 -0.065220753436119785 0.0033962188304452992 0 -0.066605609274950309 0.0019942819222078128 0 -0.066877420664508941 0.0035517262237559914 0 -0.057170736839775353 0.0081795604407346161 0 -0.056574482138590156 0.0074193054146085222 0 -0.077769413438336571 -0.0068008571562241686 0 -0.072360229069279636 -0.0097363081082781893 0 -0.072666931570879723 -0.0048589546125274103 0 -0.057170736839775353 0.0081795604407346161 0 -0.062474123910430279 0.0030569074359873371 0 -0.076149202928888535 -0.0034650713321319748 0 -0.072666931570879723 -0.0048589546125274103 0 -0.072330124061870171 -0.00025596933326477617 0 -0.076149202928888535 -0.0034650713321319748 0 -0.077769413438336571 -0.0068008571562241686 0 -0.072666931570879723 -0.0048589546125274103 0 -0.065220753436119785 0.0033962188304452992 0 -0.066877420664508941 0.0035517262237559914 0 -0.066355977406152664 0.003902637761881315 0 -0.066877420664508941 0.0035517262237559914 0 -0.066355977406152664 0.003902637761881315 0 -0.068064970410695397 0.0042552029645864312 0 -0.065220753436119785 0.0033962188304452992 0 -0.066355977406152664 0.003902637761881315 0 -0.06519212478793926 0.0039395501542885507 0 -0.06519212478793926 0.0039395501542885507 0 -0.06387513297497284 0.0037935231983747776 0 -0.064017180791498568 0.0036920166207353362 0 -0.06519212478793926 0.0039395501542885507 0 -0.06387513297497284 0.0037935231983747776 0 -0.065022569477323863 0.00428733101989921 0 -0.06387513297497284 0.0037935231983747776 0 -0.064017180791498568 0.0036920166207353362 0 -0.063012170301402506 0.0037380865346613558 0 -0.065220753436119785 0.0033962188304452992 0 -0.06519212478793926 0.0039395501542885507 0 -0.064017180791498568 0.0036920166207353362 0 -0.05226088569542222 0.013885252367061233 0 -0.043146060631465165 0.0092004645917796914 0 -0.061314035045059383 0.0062278285851370468 0 -0.065220753436119785 0.0033962188304452992 0 -0.063443156707118462 0.0036849819217153103 0 -0.064458194701846896 0.0023185972071806536 0 -0.056574482138590156 0.0074193054146085222 0 -0.058410352368843177 0.0070653435646069913 0 -0.065220753436119785 0.0033962188304452992 0 -0.064017180791498568 0.0036920166207353362 0 -0.063443156707118462 0.0036849819217153103 0 -0.063443156707118462 0.0036849819217153103 0 -0.064458194701846896 0.0023185972071806536 0 -0.061314035045059383 0.0062278285851370468 0 -0.064017180791498568 0.0036920166207353362 0 -0.063443156707118462 0.0036849819217153103 0 -0.063012170301402506 0.0037380865346613558 0 -0.063576575763345272 0.013755797010323482 0 -0.061314035045059383 0.0062278285851370468 0 -0.063370539349483127 0.0028697308499297251 0 -0.063443156707118462 0.0036849819217153103 0 -0.061314035045059383 0.0062278285851370468 0 -0.063012170301402506 0.0037380865346613558 0 -0.061314035045059383 0.0062278285851370468 0 -0.063012170301402506 0.0037380865346613558 0 -0.063370539349483127 0.0028697308499297251 0 -0.0050460398302898651 0.033878552339834674 0 -0.0050590995372239277 0.035988498092396001 0 -0.0056140777007861733 0.037052759781580125 0 -0.033560974710197054 0.021792015273335241 0 -0.032647838124373642 0.02180173313654565 0 -0.06387513297497284 0.0037935231983747776 0 -0.063370539349483127 0.0028697308499297251 0 -0.064043846600001911 0.0043144787626926149 0 -0.0050460398302898651 0.033878552339834674 0 -0.0046429413463916951 0.035615680703103406 0 -0.0050590995372239277 0.035988498092396001 0 -0.06387513297497284 0.0037935231983747776 0 -0.063012170301402506 0.0037380865346613558 0 -0.063370539349483127 0.0028697308499297251 0 -0.0046429413463916951 0.035615680703103406 0 -0.0050590995372239277 0.035988498092396001 0 -0.005029765478106971 0.037298314012744853 0 -0.005029765478106971 0.037298314012744853 0 -0.0056140777007861733 0.037052759781580125 0 -0.0048279511484720199 0.039788415462428429 0 -0.0056230976797531666 0.038701895191112355 0 -0.0051404747838019911 0.039320739870674942 0 -0.0041420457946463101 0.038468272698198157 0 -0.0050590995372239277 0.035988498092396001 0 -0.005029765478106971 0.037298314012744853 0 -0.0056140777007861733 0.037052759781580125 0 -0.06387513297497284 0.0037935231983747776 0 -0.064043846600001911 0.0043144787626926149 0 -0.065022569477323863 0.00428733101989921 0 -0.06519212478793926 0.0039395501542885507 0 -0.065022569477323863 0.00428733101989921 0 -0.06637570959403763 0.0044350425677404538 0 -0.065527954291954502 0.0048830304722616534 0 -0.06637570959403763 0.0044350425677404538 0 -0.066510779864455902 0.0049864785564825379 0 -0.065022569477323863 0.00428733101989921 0 -0.065527954291954502 0.0048830304722616534 0 -0.06637570959403763 0.0044350425677404538 0 -0.064043846600001911 0.0043144787626926149 0 -0.065022569477323863 0.00428733101989921 0 -0.065527954291954502 0.0048830304722616534 0 -0.064043846600001911 0.0043144787626926149 0 -0.065527954291954502 0.0048830304722616534 0 -0.066171822752976506 0.0057048216189753854 0 -0.0056140777007861733 0.037052759781580125 0 -0.0048279511484720199 0.039788415462428429 0 -0.0048152649672929581 0.039934042680158606 0 -0.0056230976797531666 0.038701895191112355 0 -0.0048279511484720199 0.039788415462428429 0 -0.0050823206289635639 0.039625345099759152 0 -0.0048273446120796802 0.037436100669515762 0 -0.0053186794488732387 0.038333497163801404 0 -0.032647838124373642 0.02180173313654565 0 -0.031075806602816131 0.02404034749338366 0 -0.065527954291954502 0.0048830304722616534 0 -0.066254359837806878 0.0052393739104681387 0 -0.066171822752976506 0.0057048216189753854 0 -0.065527954291954502 0.0048830304722616534 0 -0.066254359837806878 0.0052393739104681387 0 -0.066510779864455902 0.0049864785564825379 0 -0.066254359837806878 0.0052393739104681387 0 -0.066171822752976506 0.0057048216189753854 0 -0.066863529795194693 0.0054195467412861053 0 -0.0048279511484720199 0.039788415462428429 0 -0.0048332768702721912 0.039779888662533749 0 -0.0046939506344958375 0.039773089834816276 0 -0.0048279511484720199 0.039788415462428429 0 -0.0048152649672929581 0.039934042680158606 0 -0.0046939506344958375 0.039773089834816276 0 -0.0048279511484720199 0.039788415462428429 0 -0.0048332768702721912 0.039779888662533749 0 -0.0050823206289635639 0.039625345099759152 0 -0.0048332768702721912 0.039779888662533749 0 -0.0050823206289635639 0.039625345099759152 0 -0.0049252021292201754 0.039845134077839323 0 -0.0056230976797531666 0.038701895191112355 0 -0.0050823206289635639 0.039625345099759152 0 -0.0052174146358432904 0.039624738620928579 0 -0.0050823206289635639 0.039625345099759152 0 -0.0052174146358432904 0.039624738620928579 0 -0.0049252021292201754 0.039845134077839323 0 -0.005235696180382777 0.040358787154782597 0 -0.0052174146358432904 0.039624738620928579 0 -0.0049252021292201754 0.039845134077839323 0 -0.005235696180382777 0.040358787154782597 0 -0.0051404747838019911 0.039320739870674942 0 -0.0052174146358432904 0.039624738620928579 0 -0.0056230976797531666 0.038701895191112355 0 -0.0051404747838019911 0.039320739870674942 0 -0.0052174146358432904 0.039624738620928579 0 -0.062474123910430279 0.0030569074359873371 0 -0.065325120583073298 0.003642763975291125 0 -0.077546595256441073 -0.0013139296169336807 0 -0.076149202928888535 -0.0034650713321319748 0 -0.072330124061870171 -0.00025596933326477617 0 -0.066355977406152664 0.003902637761881315 0 -0.068064970410695397 0.0042552029645864312 0 -0.06637570959403763 0.0044350425677404538 0 -0.068064970410695397 0.0042552029645864312 0 -0.06637570959403763 0.0044350425677404538 0 -0.067926415816253721 0.0049184752201364181 0 -0.066355977406152664 0.003902637761881315 0 -0.06519212478793926 0.0039395501542885507 0 -0.06637570959403763 0.0044350425677404538 0 -0.066510779864455902 0.0049864785564825379 0 -0.066863529795194693 0.0054195467412861053 0 -0.067926415816253721 0.0049184752201364181 0 -0.06637570959403763 0.0044350425677404538 0 -0.066510779864455902 0.0049864785564825379 0 -0.067926415816253721 0.0049184752201364181 0 -0.066254359837806878 0.0052393739104681387 0 -0.066510779864455902 0.0049864785564825379 0 -0.066863529795194693 0.0054195467412861053 0 -0.066171822752976506 0.0057048216189753854 0 -0.067069702136544521 0.0057928008692621161 0 -0.067979461368014374 0.0066881291017464317 0 -0.066863529795194693 0.0054195467412861053 0 -0.067652123827732502 0.00566417339944102 0 -0.067926415816253721 0.0049184752201364181 0 -0.066171822752976506 0.0057048216189753854 0 -0.066863529795194693 0.0054195467412861053 0 -0.067069702136544521 0.0057928008692621161 0 -0.066863529795194693 0.0054195467412861053 0 -0.067069702136544521 0.0057928008692621161 0 -0.067652123827732502 0.00566417339944102 0 -0.067069702136544521 0.0057928008692621161 0 -0.067652123827732502 0.00566417339944102 0 -0.067979461368014374 0.0066881291017464317 0 -0.069076676491623829 0.0057829665713451696 0 -0.067926415816253721 0.0049184752201364181 0 -0.071279396873376047 0.0054192991185802748 0 -0.067652123827732502 0.00566417339944102 0 -0.069076676491623829 0.0057829665713451696 0 -0.067926415816253721 0.0049184752201364181 0 -0.068064970410695397 0.0042552029645864312 0 -0.067926415816253721 0.0049184752201364181 0 -0.071279396873376047 0.0054192991185802748 0 -0.077299505598013893 0.0020334786392808969 0 -0.072330124061870171 -0.00025596933326477617 0 -0.071279396873376047 0.0054192991185802748 0 -0.065325120583073298 0.003642763975291125 0 -0.066287718496286854 0.0047359302632706459 0 -0.075757266304647436 0.0061350648739928286 0 -0.072566052994647134 0.0085916675860250296 0 -0.071279396873376047 0.0054192991185802748 0 -0.069076676491623829 0.0057829665713451696 0 -0.071279396873376047 0.0054192991185802748 0 -0.07037934629446263 0.0074742560762801405 0 -0.072566052994647134 0.0085916675860250296 0 -0.07037934629446263 0.0074742560762801405 0 -0.069482646732548101 0.0093127311449750748 0 -0.072566052994647134 0.0085916675860250296 0 -0.071279396873376047 0.0054192991185802748 0 -0.07037934629446263 0.0074742560762801405 0 -0.0048152649672929581 0.039934042680158606 0 -0.0030667081468939246 0.038883278726419855 0 -0.0042452912211312201 0.039483943656378202 0 -0.066171822752976506 0.0057048216189753854 0 -0.067979461368014374 0.0066881291017464317 0 -0.068958993286505954 0.0097582992321902633 0 -0.069002912572866934 0.0080106612085037894 0 -0.067979461368014374 0.0066881291017464317 0 -0.068958993286505954 0.0097582992321902633 0 -0.031075806602816131 0.02404034749338366 0 -0.025866716793765267 0.026029497074008166 0 -0.07037934629446263 0.0074742560762801405 0 -0.069002912572866934 0.0080106612085037894 0 -0.069482646732548101 0.0093127311449750748 0 -0.07037934629446263 0.0074742560762801405 0 -0.069002912572866934 0.0080106612085037894 0 -0.068982403365727071 0.0069010385416734699 0 -0.069076676491623829 0.0057829665713451696 0 -0.07037934629446263 0.0074742560762801405 0 -0.068982403365727071 0.0069010385416734699 0 -0.069002912572866934 0.0080106612085037894 0 -0.068982403365727071 0.0069010385416734699 0 -0.067979461368014374 0.0066881291017464317 0 -0.067652123827732502 0.00566417339944102 0 -0.069076676491623829 0.0057829665713451696 0 -0.067979461368014374 0.0066881291017464317 0 -0.069076676491623829 0.0057829665713451696 0 -0.068982403365727071 0.0069010385416734699 0 -0.067979461368014374 0.0066881291017464317 0 -0.0030667081468939246 0.038883278726419855 0 -0.0039839116372932578 0.039198169881871761 0 -0.0042452912211312201 0.039483943656378202 0 -0.0030667081468939246 0.038883278726419855 0 -0.0039839116372932578 0.039198169881871761 0 -0.0036564376280919025 0.038624138627023442 0 -0.069002912572866934 0.0080106612085037894 0 -0.068958993286505954 0.0097582992321902633 0 -0.069482646732548101 0.0093127311449750748 0 -0.068941745165709445 0.0099478094135611542 0 -0.069482646732548101 0.0093127311449750748 0 -0.071579858385819289 0.011413562245134059 0 -0.025866716793765267 0.026029497074008166 0 -0.02652239774651919 0.025455091227018872 0 -0.030883999457132959 0.024601363016843177 0 -0.025866716793765267 0.026029497074008166 0 -0.071770772686504655 0.014241883449340034 0 -0.068941745165709445 0.0099478094135611542 0 -0.071579858385819289 0.011413562245134059 0 -0.072566052994647134 0.0085916675860250296 0 -0.069482646732548101 0.0093127311449750748 0 -0.071579858385819289 0.011413562245134059 0 -0.075427634954589082 0.01296173986844008 0 -0.07571503559263941 0.0095590484726527057 0 -0.071579858385819289 0.011413562245134059 0 -0.07571503559263941 0.0095590484726527057 0 -0.072566052994647134 0.0085916675860250296 0 -0.071579858385819289 0.011413562245134059 0 -0.0047117724732724988 0.039573971346297775 0 -0.0050692319972722782 0.039652066786724165 0 -0.0042691046274298591 0.039061203745183633 0 -0.005235696180382777 0.040358787154782597 0 -0.0050692319972722782 0.039652066786724165 0 -0.0049252021292201754 0.039845134077839323 0 -0.0047117724732724988 0.039573971346297775 0 -0.0050692319972722782 0.039652066786724165 0 -0.0049252021292201754 0.039845134077839323 0 -0.0048332768702721912 0.039779888662533749 0 -0.0049252021292201754 0.039845134077839323 0 -0.0045604965590138082 0.039611084585103103 0 -0.0047117724732724988 0.039573971346297775 0 -0.0049252021292201754 0.039845134077839323 0 -0.0045604965590138082 0.039611084585103103 0 -0.0048332768702721912 0.039779888662533749 0 -0.0045604965590138082 0.039611084585103103 0 -0.0046939506344958375 0.039773089834816276 0 -0.0048152649672929581 0.039934042680158606 0 -0.0046939506344958375 0.039773089834816276 0 -0.0042452912211312201 0.039483943656378202 0 -0.0045604965590138082 0.039611084585103103 0 -0.0046939506344958375 0.039773089834816276 0 -0.0042452912211312201 0.039483943656378202 0 -0.0045604965590138082 0.039611084585103103 0 -0.0039839116372932578 0.039198169881871761 0 -0.0042691046274298591 0.039061203745183633 0 -0.0045604965590138082 0.039611084585103103 0 -0.0039839116372932578 0.039198169881871761 0 -0.0042452912211312201 0.039483943656378202 0 -0.0047117724732724988 0.039573971346297775 0 -0.0045604965590138082 0.039611084585103103 0 -0.0042691046274298591 0.039061203745183633 0 -0.0033088456821977483 0.037237407980087039 0 -0.0042691046274298591 0.039061203745183633 0 -0.0036564376280919025 0.038624138627023442 0 -0.0033088456821977483 0.037237407980087039 0 -0.0030667081468939246 0.038883278726419855 0 -0.0036564376280919025 0.038624138627023442 0 -0.0033088456821977483 0.037237407980087039 0 -0.0042691046274298591 0.039061203745183633 0 -0.0047028337055870706 0.038454370367170622 0 -0.0039839116372932578 0.039198169881871761 0 -0.0042691046274298591 0.039061203745183633 0 -0.0036564376280919025 0.038624138627023442 0 -0.0050692319972722782 0.039652066786724165 0 -0.0042691046274298591 0.039061203745183633 0 -0.0047028337055870706 0.038454370367170622 0 -0.0050692319972722782 0.039652066786724165 0 -0.0047028337055870706 0.038454370367170622 0 -0.0060861438141558586 0.039014154090386416 0 -0.0050692319972722782 0.039652066786724165 0 -0.0060861438141558586 0.039014154090386416 0 -0.0066404384986084915 0.040383497552659117 0 -0.005235696180382777 0.040358787154782597 0 -0.0050692319972722782 0.039652066786724165 0 -0.0066404384986084915 0.040383497552659117 0 -0.0066404384986084915 0.040383497552659117 0 -0.0074878707089364458 0.040534970659636106 0 -0.0076777517701342064 0.041620425277360221 0 -0.0073125923382787008 0.038738557359902878 0 -0.0060861438141558586 0.039014154090386416 0 -0.0074878707089364458 0.040534970659636106 0 -0.0060861438141558586 0.039014154090386416 0 -0.0066404384986084915 0.040383497552659117 0 -0.0074878707089364458 0.040534970659636106 0 -0.0074878707089364458 0.040534970659636106 0 -0.0084537904904202731 0.039921325623858202 0 -0.0074242788020773606 0.043362208064026374 0 -0.0073125923382787008 0.038738557359902878 0 -0.0074878707089364458 0.040534970659636106 0 -0.0084537904904202731 0.039921325623858202 0 -0.0084537904904202731 0.039921325623858202 0 -0.010902815101652764 0.040129571644186054 0 -0.0074242788020773606 0.043362208064026374 0 -0.010175792272958412 0.038542700637998278 0 -0.0084537904904202731 0.039921325623858202 0 -0.010902815101652764 0.040129571644186054 0 -0.0057952680255597896 0.043867569348541809 0 -0.0061006957054485613 0.043643264863406486 0 -0.004807343383193185 0.050322991364991784 0 -0.0074242788020773606 0.043362208064026374 0 -0.0027650720568052219 0.04581279942748278 0 -0.0074242788020773606 0.043362208064026374 0 -0.0027650720568052219 0.04581279942748278 0 -0.0033905228440425585 0.041803818057699532 0 -0.0074242788020773606 0.043362208064026374 0 -0.0076777517701342064 0.041620425277360221 0 -0.0033905228440425585 0.041803818057699532 0 -0.0074878707089364458 0.040534970659636106 0 -0.0074242788020773606 0.043362208064026374 0 -0.0076777517701342064 0.041620425277360221 0 -0.0076777517701342064 0.041620425277360221 0 -0.0061811018955532466 0.039047565986002716 0 -0.0075939346881406713 0.041204128580044269 0 -0.0013633889629777508 0.038679794664247272 0 -0.0038711446176390388 0.039682522055999182 0 -0.0076777517701342064 0.041620425277360221 0 -0.0061811018955532466 0.039047565986002716 0 -0.0033905228440425585 0.041803818057699532 0 0.0014829383588920847 0.038350490839977956 0 0.0050815887778472195 0.037055886339490862 0 0.0026483581737119554 0.035140399718998488 0 0.0014829383588920847 0.038350490839977956 0 -0.0020707970721059498 0.039595702822576906 0 -0.00057806297712310287 0.035705929338965534 0 -0.0026701477456387572 0.037311308509372636 0 -0.0041420457946463101 0.038468272698198157 0 -0.0020707970721059498 0.039595702822576906 0 -0.0026701477456387572 0.037311308509372636 0 -0.0020707970721059498 0.039595702822576906 0 -0.00057806297712310287 0.035705929338965534 0 -0.0056230976797531666 0.038701895191112355 0 -0.0041420457946463101 0.038468272698198157 0 -0.0038730895812925468 0.035372906140398924 0 -0.0026701477456387572 0.037311308509372636 0 -0.0041420457946463101 0.038468272698198157 0 -0.0038730895812925468 0.035372906140398924 0 -0.005235696180382777 0.040358787154782597 0 -0.0051404747838019911 0.039320739870674942 0 -0.0041420457946463101 0.038468272698198157 0 -0.005235696180382777 0.040358787154782597 0 -0.0041420457946463101 0.038468272698198157 0 -0.0020707970721059498 0.039595702822576906 0 -0.005235696180382777 0.040358787154782597 0 -0.0066404384986084915 0.040383497552659117 0 -0.0075939346881406713 0.041204128580044269 0 -0.0046727477970618077 0.04000563116929428 0 -0.0038711446176390388 0.039682522055999182 0 -0.0066404384986084915 0.040383497552659117 0 -0.0076777517701342064 0.041620425277360221 0 -0.0075939346881406713 0.041204128580044269 0 0.016023264417061239 0.044082568621237071 0 0.0118767432990236 0.049175147751454172 0 0.011354555273588635 0.041750014616385812 0 0.011346074980963478 0.052250349890145834 0 0.01421877742357739 0.051804579149787602 0 0.0118767432990236 0.049175147751454172 0 0.0118767432990236 0.049175147751454172 0 0.0069866603227544859 0.045819061790038133 0 0.0050992087628347216 0.051830455472022044 0 0.0061663676956315618 0.046114080684322357 0 0.0026243091470136413 0.046126358936924634 0 0.011346074980963478 0.052250349890145834 0 0.0118767432990236 0.049175147751454172 0 0.0072179413077099724 0.051721021243180162 0 0.0118767432990236 0.049175147751454172 0 0.0069866603227544859 0.045819061790038133 0 0.011354555273588635 0.041750014616385812 0 0.0069866603227544859 0.045819061790038133 0 0.0017001988094269601 0.04577038646619587 0 0.0046633250540070578 0.041209066445000116 0 0.0069866603227544859 0.045819061790038133 0 0.0017001988094269601 0.04577038646619587 0 0.0050992087628347216 0.051830455472022044 0 0.0017001988094269601 0.04577038646619587 0 0.0050992087628347216 0.051830455472022044 0 -0.00046342129862054067 0.049775020315800285 0 -0.0021774856325906386 0.055171440171384943 0 -0.004807343383193185 0.050322991364991784 0 -0.00046342129862054067 0.049775020315800285 0 -0.004807343383193185 0.050322991364991784 0 -0.00046342129862054067 0.049775020315800285 0 -0.0027650720568052219 0.04581279942748278 0 0.0017001988094269601 0.04577038646619587 0 -0.0027650720568052219 0.04581279942748278 0 -0.0033905228440425585 0.041803818057699532 0 0.0017001988094269601 0.04577038646619587 0 -0.00046342129862054067 0.049775020315800285 0 -0.0027650720568052219 0.04581279942748278 0 -0.0033905228440425585 0.041803818057699532 0 0.00026097353976661569 0.036705740230760536 0 0.0046633250540070578 0.041209066445000116 0 -0.0013633889629777508 0.038679794664247272 0 0.0023172856484181639 0.037416446208161896 0 -0.0061811018955532466 0.039047565986002716 0 -0.0033905228440425585 0.041803818057699532 0 0.00026097353976661569 0.036705740230760536 0 0.0023172856484181639 0.037416446208161896 0 0.0047393637428978239 0.036693619186240839 0 0.00026097353976661569 0.036705740230760536 0 0.0046633250540070578 0.041209066445000116 0 0.0084881492411155064 0.035938474258715977 0 0.0017001988094269601 0.04577038646619587 0 -0.0033905228440425585 0.041803818057699532 0 0.0046633250540070578 0.041209066445000116 0 0.0069866603227544859 0.045819061790038133 0 0.0046633250540070578 0.041209066445000116 0 0.011354555273588635 0.041750014616385812 0 0.0046633250540070578 0.041209066445000116 0 0.011354555273588635 0.041750014616385812 0 0.0084881492411155064 0.035938474258715977 0 0.016693552797555838 0.04012339446166778 0 0.011354555273588635 0.041750014616385812 0 0.013802165971354299 0.036579072335643364 0 0.011354555273588635 0.041750014616385812 0 0.013802165971354299 0.036579072335643364 0 0.0084881492411155064 0.035938474258715977 0 0.011906589886397657 0.032551003234226078 0 0.0084881492411155064 0.035938474258715977 0 0.00849142886920984 0.030755139537149895 0 0.015599639552725144 0.033430716327266866 0 0.011906589886397657 0.032551003234226078 0 0.013802165971354299 0.036579072335643364 0 0.015599639552725144 0.033430716327266866 0 0.014501209901620024 0.030276099844984476 0 0.011906589886397657 0.032551003234226078 0 0.011906589886397657 0.032551003234226078 0 0.013802165971354299 0.036579072335643364 0 0.0084881492411155064 0.035938474258715977 0 0.0084881492411155064 0.035938474258715977 0 0.0060851143347664212 0.033748441381784171 0 0.00849142886920984 0.030755139537149895 0 0.0060851143347664212 0.033748441381784171 0 0.0058507313837456868 0.030804962191709879 0 0.00849142886920984 0.030755139537149895 0 0.0050815887778472195 0.037055886339490862 0 0.0084881492411155064 0.035938474258715977 0 0.0060851143347664212 0.033748441381784171 0 0.0050815887778472195 0.037055886339490862 0 0.0060851143347664212 0.033748441381784171 0 0.0026483581737119554 0.035140399718998488 0 0.0060851143347664212 0.033748441381784171 0 0.0036735759177615639 0.03208487841708596 0 0.0026483581737119554 0.035140399718998488 0 0.0060851143347664212 0.033748441381784171 0 0.0036735759177615639 0.03208487841708596 0 0.0058507313837456868 0.030804962191709879 0 0.0036735759177615639 0.03208487841708596 0 0.0040902544363926223 0.029343235296785352 0 0.0058507313837456868 0.030804962191709879 0 0.0040902544363926223 0.029343235296785352 0 0.0022945600695946362 0.028258173791603364 0 0.004307176520542088 0.02666744878938326 0 0.0040902544363926223 0.029343235296785352 0 0.0070106517946456944 0.02809325821205079 0 0.004307176520542088 0.02666744878938326 0 0.0070106517946456944 0.02809325821205079 0 0.006479574464401807 0.026075694076962579 0 0.004307176520542088 0.02666744878938326 0 0.0070106517946456944 0.02809325821205079 0 0.0094491431199084722 0.025790253267788159 0 0.006479574464401807 0.026075694076962579 0 0.0040902544363926223 0.029343235296785352 0 0.0070106517946456944 0.02809325821205079 0 0.0058507313837456868 0.030804962191709879 0 0.0070106517946456944 0.02809325821205079 0 0.0058507313837456868 0.030804962191709879 0 0.00849142886920984 0.030755139537149895 0 0.0070106517946456944 0.02809325821205079 0 0.00849142886920984 0.030755139537149895 0 0.011320128912240263 0.028027811055884276 0 0.011906589886397657 0.032551003234226078 0 0.00849142886920984 0.030755139537149895 0 0.011320128912240263 0.028027811055884276 0 0.0070106517946456944 0.02809325821205079 0 0.011320128912240263 0.028027811055884276 0 0.0094491431199084722 0.025790253267788159 0 0.014574930982377558 0.026419581073824517 0 0.013101887628457994 0.024682928361705558 0 0.011320128912240263 0.028027811055884276 0 0.014501209901620024 0.030276099844984476 0 0.011906589886397657 0.032551003234226078 0 0.011320128912240263 0.028027811055884276 0 0.014574930982377558 0.026419581073824517 0 0.014501209901620024 0.030276099844984476 0 0.011320128912240263 0.028027811055884276 0 -0.0013297706036396208 0.032149851071050013 0 -0.0033595300210195779 0.032791213409965665 0 -0.0034753394534188676 0.034846213009553026 0 -0.0013297706036396208 0.032149851071050013 0 -0.0038730895812925468 0.035372906140398924 0 -0.00057806297712310287 0.035705929338965534 0 -0.0023611391785374378 0.034101970721478428 0 -0.0034122530465565768 0.035424962831488105 0 -0.0050460398302898651 0.033878552339834674 0 -0.0033595300210195779 0.032791213409965665 0 -0.0036268265211726945 0.032082811732573213 0 -0.0050460398302898651 0.033878552339834674 0 -0.0040523711736973845 0.034072129360906617 0 -0.0043406146516293403 0.03471859624186386 0 -0.0050460398302898651 0.033878552339834674 0 -0.0033595300210195779 0.032791213409965665 0 -0.0040523711736973845 0.034072129360906617 0 -0.0033595300210195779 0.032791213409965665 0 -0.0040523711736973845 0.034072129360906617 0 -0.0034753394534188676 0.034846213009553026 0 -0.0046429413463916951 0.035615680703103406 0 -0.005029765478106971 0.037298314012744853 0 -0.0034753394534188676 0.034846213009553026 0 -0.0048273446120796802 0.037436100669515762 0 -0.0034122530465565768 0.035424962831488105 0 -0.0046429413463916951 0.035615680703103406 0 -0.0034753394534188676 0.034846213009553026 0 -0.0043406146516293403 0.03471859624186386 0 -0.0040523711736973845 0.034072129360906617 0 -0.0034753394534188676 0.034846213009553026 0 -0.0043406146516293403 0.03471859624186386 0 -0.0050460398302898651 0.033878552339834674 0 -0.0046429413463916951 0.035615680703103406 0 -0.0043406146516293403 0.03471859624186386 0 -0.0026701477456387572 0.037311308509372636 0 -0.0038730895812925468 0.035372906140398924 0 -0.00057806297712310287 0.035705929338965534 0 0.0014829383588920847 0.038350490839977956 0 -0.00057806297712310287 0.035705929338965534 0 0.0026483581737119554 0.035140399718998488 0 -0.00057806297712310287 0.035705929338965534 0 0.0026483581737119554 0.035140399718998488 0 0.00097427623116439724 0.032575727453079177 0 0.0036735759177615639 0.03208487841708596 0 0.0026483581737119554 0.035140399718998488 0 0.00097427623116439724 0.032575727453079177 0 -0.0013297706036396208 0.032149851071050013 0 -0.00057806297712310287 0.035705929338965534 0 0.00097427623116439724 0.032575727453079177 0 -0.0013297706036396208 0.032149851071050013 0 0.00097427623116439724 0.032575727453079177 0 -0.00069708341572440058 0.030416301874682031 0 0.00097427623116439724 0.032575727453079177 0 -0.00069708341572440058 0.030416301874682031 0 0.0017595401031388926 0.030101780320719786 0 -0.00069708341572440058 0.030416301874682031 0 0.0017595401031388926 0.030101780320719786 0 0.00057952616997511528 0.02866474543970637 0 0.0036735759177615639 0.03208487841708596 0 0.00097427623116439724 0.032575727453079177 0 0.0017595401031388926 0.030101780320719786 0 0.0036735759177615639 0.03208487841708596 0 0.0040902544363926223 0.029343235296785352 0 0.0017595401031388926 0.030101780320719786 0 0.0022945600695946362 0.028258173791603364 0 0.00080590118199821265 0.026700211405891208 0 0.004307176520542088 0.02666744878938326 0 0.0040902544363926223 0.029343235296785352 0 0.0017595401031388926 0.030101780320719786 0 0.0022945600695946362 0.028258173791603364 0 0.0017595401031388926 0.030101780320719786 0 0.0022945600695946362 0.028258173791603364 0 0.00057952616997511528 0.02866474543970637 0 0.0022945600695946362 0.028258173791603364 0 0.00057952616997511528 0.02866474543970637 0 0.00080590118199821265 0.026700211405891208 0 -0.00069708341572440058 0.030416301874682031 0 0.00057952616997511528 0.02866474543970637 0 -0.0011491944465730054 0.02825182238378051 0 -0.0087129147168379384 0.029055182479732315 0 -0.015757850587093308 0.032402059511989531 0 0.00057952616997511528 0.02866474543970637 0 -0.0011491944465730054 0.02825182238378051 0 0.00080590118199821265 0.026700211405891208 0 -0.07323331180711333 0.018330006053344273 0 -0.074297832736761257 0.029781560227708382 0 -0.084266797245774169 0.037472313151003474 0 -0.035393395286653397 0.026508449022285281 0 -0.034862115988667695 0.032003693941306657 0 -0.00069708341572440058 0.030416301874682031 0 -0.0011491944465730054 0.02825182238378051 0 -0.0030580255724035844 0.029977790753609884 0 -0.0030580255724035844 0.029977790753609884 0 -0.0036003436312062698 0.030361851120264495 0 -0.00255809661720804 0.028433850565315999 0 -0.0021285748659522711 0.029233640833461753 0 -0.0030580255724035844 0.029977790753609884 0 -0.00255809661720804 0.028433850565315999 0 -0.0087129147168379384 0.029055182479732315 0 -0.0071559494834689177 0.028458646381010866 0 -0.0013297706036396208 0.032149851071050013 0 -0.0033595300210195779 0.032791213409965665 0 -0.0025411841431601336 0.031324081841522494 0 -0.00069708341572440058 0.030416301874682031 0 -0.0030580255724035844 0.029977790753609884 0 -0.0025411841431601336 0.031324081841522494 0 -0.0030580255724035844 0.029977790753609884 0 -0.0025411841431601336 0.031324081841522494 0 -0.0036003436312062698 0.030361851120264495 0 -0.0033595300210195779 0.032791213409965665 0 -0.0025411841431601336 0.031324081841522494 0 -0.0036268265211726945 0.032082811732573213 0 -0.0013297706036396208 0.032149851071050013 0 -0.00069708341572440058 0.030416301874682031 0 -0.0025411841431601336 0.031324081841522494 0 -0.033560974710197054 0.021792015273335241 0 -0.035393395286653397 0.026508449022285281 0 -0.063576575763345272 0.013755797010323482 0 -0.063370539349483127 0.0028697308499297251 0 -0.07323331180711333 0.018330006053344273 0 -0.0050460398302898651 0.033878552339834674 0 -0.0036268265211726945 0.032082811732573213 0 -0.0036003436312062698 0.030361851120264495 0 -0.0025411841431601336 0.031324081841522494 0 -0.0036268265211726945 0.032082811732573213 0 -0.0036003436312062698 0.030361851120264495 0 -0.063576575763345272 0.013755797010323482 0 -0.07323331180711333 0.018330006053344273 0 -0.066166450946540264 0.023431290213690437 0 -0.07323331180711333 0.018330006053344273 0 -0.066166450946540264 0.023431290213690437 0 -0.074297832736761257 0.029781560227708382 0 -0.061254357447545642 0.029678523740714804 0 -0.066126661056068306 0.030532716411784934 0 -0.062771676564276541 0.039283749161130727 0 -0.074297832736761257 0.029781560227708382 0 -0.066126661056068306 0.030532716411784934 0 -0.062771676564276541 0.039283749161130727 0 -0.061254357447545642 0.029678523740714804 0 -0.066166450946540264 0.023431290213690437 0 -0.066126661056068306 0.030532716411784934 0 -0.066166450946540264 0.023431290213690437 0 -0.074297832736761257 0.029781560227708382 0 -0.066126661056068306 0.030532716411784934 0 -0.074297832736761257 0.029781560227708382 0 -0.084266797245774169 0.037472313151003474 0 -0.062771676564276541 0.039283749161130727 0 -0.034862115988667695 0.032003693941306657 0 -0.047904815180563221 0.035428331019489424 0 -0.043622082876181627 0.044285519997941704 0 -0.043866219309966328 0.043829176590797915 0 -0.042336352177537395 0.042249237901467784 0 -0.042360004226438479 0.043602663922893553 0 -0.043622082876181627 0.044285519997941704 0 -0.042336352177537395 0.042249237901467784 0 -0.043622082876181627 0.044285519997941704 0 -0.04278863224222286 0.044702889804992631 0 -0.043730841540621658 0.045417460038899973 0 -0.042360004226438479 0.043602663922893553 0 -0.04278863224222286 0.044702889804992631 0 -0.041647591166780816 0.044642170957124486 0 -0.042360004226438479 0.043602663922893553 0 -0.043622082876181627 0.044285519997941704 0 -0.04278863224222286 0.044702889804992631 0 -0.043622082876181627 0.044285519997941704 0 -0.043882060896119249 0.044296444605404828 0 -0.044794229582580954 0.045548920115601126 0 -0.042259104859121703 0.045841616547811069 0 -0.041848151365346087 0.046641051007722638 0 -0.043622082876181627 0.044285519997941704 0 -0.043866219309966328 0.043829176590797915 0 -0.043882060896119249 0.044296444605404828 0 -0.043866219309966328 0.043829176590797915 0 -0.044316224090542991 0.043279465627698292 0 -0.042336352177537395 0.042249237901467784 0 -0.043866219309966328 0.043829176590797915 0 -0.044316224090542991 0.043279465627698292 0 -0.043882060896119249 0.044296444605404828 0 -0.044876336312571118 0.048377617062264455 0 -0.042424547091497226 0.048512651325769103 0 -0.042173466224939685 0.046846719371623345 0 -0.0021285748659522711 0.029233640833461753 0 -0.00255809661720804 0.028433850565315999 0 -0.0012504423693456921 0.028628530166199425 0 -0.034862115988667695 0.032003693941306657 0 -0.015757850587093308 0.032402059511989531 0 -0.015757850587093308 0.032402059511989531 0 -0.00547388788241046 0.031799037542742631 0 0.00059691371800709044 0.02641790681546631 0 0.004307176520542088 0.02666744878938326 0 0.0043412997034725813 0.023938237298048691 0 -0.042424547091497226 0.048512651325769103 0 -0.042173466224939685 0.046846719371623345 0 -0.039838121647893486 0.046637028791966913 0 -0.015757850587093308 0.032402059511989531 0 -0.016825142203989521 0.03493205514051323 0 -0.042173466224939685 0.046846719371623345 0 -0.04080565736290178 0.045653370960935018 0 -0.039838121647893486 0.046637028791966913 0 -0.042173466224939685 0.046846719371623345 0 -0.043346736145833481 0.045220492711914542 0 -0.04080565736290178 0.045653370960935018 0 -0.034862115988667695 0.032003693941306657 0 -0.040470370279195984 0.041262747174835239 0 -0.044316224090542991 0.043279465627698292 0 -0.043882060896119249 0.044296444605404828 0 -0.043346736145833481 0.045220492711914542 0 -0.043882060896119249 0.044296444605404828 0 -0.043346736145833481 0.045220492711914542 0 -0.043708010441783504 0.044855322373880735 0 -0.044876336312571118 0.048377617062264455 0 -0.042173466224939685 0.046846719371623345 0 -0.043346736145833481 0.045220492711914542 0 -0.043346736145833481 0.045220492711914542 0 -0.043280736852596667 0.044452321713469349 0 -0.043708010441783504 0.044855322373880735 0 -0.043346736145833481 0.045220492711914542 0 -0.043280736852596667 0.044452321713469349 0 -0.042188356840355858 0.044704679973188888 0 -0.043280736852596667 0.044452321713469349 0 -0.042188356840355858 0.044704679973188888 0 -0.04290551661260044 0.04370504546188294 0 -0.043346736145833481 0.045220492711914542 0 -0.04080565736290178 0.045653370960935018 0 -0.042188356840355858 0.044704679973188888 0 -0.042188356840355858 0.044704679973188888 0 -0.040993442770137861 0.044019055118481448 0 -0.04290551661260044 0.04370504546188294 0 -0.04080565736290178 0.045653370960935018 0 -0.042188356840355858 0.044704679973188888 0 -0.040993442770137861 0.044019055118481448 0 -0.04080565736290178 0.045653370960935018 0 -0.040993442770137861 0.044019055118481448 0 -0.038922678815209291 0.045667059178094264 0 -0.039201867810947671 0.049447930660474995 0 -0.040356255108252671 0.049135666037281797 0 -0.035445579177878564 0.047461123276414684 0 -0.036010490204496488 0.050937033094359756 0 -0.030178306394297808 0.050474627892498652 0 -0.036010490204496488 0.050937033094359756 0 -0.030178306394297808 0.050474627892498652 0 -0.035046976949670405 0.054540245441327018 0 -0.039201867810947671 0.049447930660474995 0 -0.037287027203915399 0.051453537592835538 0 -0.035445579177878564 0.047461123276414684 0 -0.036010490204496488 0.050937033094359756 0 -0.038114780621817897 0.048177451209888464 0 -0.039287205500398631 0.050232705250772614 0 -0.039269783775218052 0.050302445061334543 0 -0.039514178379362615 0.050251181234585739 0 -0.040356255108252671 0.049135666037281797 0 -0.040289139050376586 0.049652959985193638 0 -0.043280736852596667 0.044452321713469349 0 -0.04290551661260044 0.04370504546188294 0 -0.044155965687809676 0.04351601685742184 0 -0.03902687059107654 0.0503466485985751 0 -0.039287205500398631 0.050232705250772614 0 -0.039269783775218052 0.050302445061334543 0 -0.037287027203915399 0.051453537592835538 0 -0.038435333208672873 0.052767057415725224 0 -0.039287205500398631 0.050232705250772614 0 -0.039514178379362615 0.050251181234585739 0 -0.039549413409212246 0.050110502192221615 0 -0.044970096462405851 0.048240843363529629 0 -0.043008870837309997 0.047715116757806264 0 -0.043982275674327852 0.04661821176577019 0 -0.040289139050376586 0.049652959985193638 0 -0.038435333208672873 0.052767057415725224 0 -0.044970096462405851 0.048240843363529629 0 -0.042034691452757511 0.049892817487253868 0 -0.043008870837309997 0.047715116757806264 0 -0.043905369962800235 0.05008536337897828 0 -0.040438766685581072 0.050965765647178772 0 -0.043523692644296723 0.05171342911042652 0 -0.040289139050376586 0.049652959985193638 0 -0.040280766068861794 0.050058317767820749 0 -0.042034691452757511 0.049892817487253868 0 -0.043008870837309997 0.047715116757806264 0 -0.04078730528734275 0.047661095762523469 0 -0.043008870837309997 0.047715116757806264 0 -0.042564189268483515 0.046098749108955388 0 -0.043982275674327852 0.04661821176577019 0 -0.042564189268483515 0.046098749108955388 0 -0.043730841540621658 0.045417460038899973 0 -0.043982275674327852 0.04661821176577019 0 -0.043008870837309997 0.047715116757806264 0 -0.042564189268483515 0.046098749108955388 0 -0.04078730528734275 0.047661095762523469 0 -0.04278863224222286 0.044702889804992631 0 -0.042564189268483515 0.046098749108955388 0 -0.041647591166780816 0.044642170957124486 0 -0.04278863224222286 0.044702889804992631 0 -0.042564189268483515 0.046098749108955388 0 -0.043730841540621658 0.045417460038899973 0 -0.040289139050376586 0.049652959985193638 0 -0.041848151365346087 0.046641051007722638 0 -0.043280736852596667 0.044452321713469349 0 -0.044155965687809676 0.04351601685742184 0 -0.043708010441783504 0.044855322373880735 0 -0.043622082876181627 0.044285519997941704 0 -0.043730841540621658 0.045417460038899973 0 -0.044794229582580954 0.045548920115601126 0 -0.043730841540621658 0.045417460038899973 0 -0.044794229582580954 0.045548920115601126 0 -0.043982275674327852 0.04661821176577019 0 -0.044970096462405851 0.048240843363529629 0 -0.044794229582580954 0.045548920115601126 0 -0.043982275674327852 0.04661821176577019 0 0.013101887628457994 0.024682928361705558 0 0.012362517325635446 0.022630473707764762 0 0.010083854828448952 0.023287654248169198 0 0.013101887628457994 0.024682928361705558 0 0.0094491431199084722 0.025790253267788159 0 0.010083854828448952 0.023287654248169198 0 0.013101887628457994 0.024682928361705558 0 0.011320128912240263 0.028027811055884276 0 0.0094491431199084722 0.025790253267788159 0 0.0094491431199084722 0.025790253267788159 0 0.010083854828448952 0.023287654248169198 0 0.0072786995150384082 0.02418467125066481 0 0.010083854828448952 0.023287654248169198 0 0.0072786995150384082 0.02418467125066481 0 0.007943690124559059 0.021867253023409059 0 0.0072786995150384082 0.02418467125066481 0 0.0043412997034725813 0.023938237298048691 0 0.007943690124559059 0.021867253023409059 0 -0.039838121647893486 0.046637028791966913 0 -0.039599153237632169 0.045660247067592308 0 -0.037647916095400066 0.045087025071256011 0 -0.016825142203989521 0.03493205514051323 0 -0.013570307573261144 0.034679329742161112 0 0.0072786995150384082 0.02418467125066481 0 0.006479574464401807 0.026075694076962579 0 0.0043412997034725813 0.023938237298048691 0 0.0094491431199084722 0.025790253267788159 0 0.0072786995150384082 0.02418467125066481 0 0.006479574464401807 0.026075694076962579 0 0.006479574464401807 0.026075694076962579 0 0.004307176520542088 0.02666744878938326 0 0.0043412997034725813 0.023938237298048691 0 -0.04080565736290178 0.045653370960935018 0 -0.039838121647893486 0.046637028791966913 0 -0.039599153237632169 0.045660247067592308 0 -0.04080565736290178 0.045653370960935018 0 -0.039599153237632169 0.045660247067592308 0 -0.038922678815209291 0.045667059178094264 0 -0.039599153237632169 0.045660247067592308 0 -0.038922678815209291 0.045667059178094264 0 -0.039527500989399604 0.044986124107224058 0 -0.038922678815209291 0.045667059178094264 0 -0.038114780621817897 0.048177451209888464 0 -0.039527500989399604 0.044986124107224058 0 -0.039201867810947671 0.049447930660474995 0 -0.039426069233683844 0.049028553160135747 0 -0.035445579177878564 0.047461123276414684 0 -0.038922678815209291 0.045667059178094264 0 -0.038114780621817897 0.048177451209888464 0 -0.038114780621817897 0.048177451209888464 0 -0.039675087152090512 0.050496399706823264 0 -0.039527500989399604 0.044986124107224058 0 -0.036010490204496488 0.050937033094359756 0 -0.038114780621817897 0.048177451209888464 0 -0.039675087152090512 0.050496399706823264 0 -0.036010490204496488 0.050937033094359756 0 -0.039675087152090512 0.050496399706823264 0 -0.038181229518947195 0.053376633363183289 0 -0.032473746737703799 0.049770039740188385 0 -0.03024320976294986 0.052667784367552123 0 -0.039675087152090512 0.050496399706823264 0 -0.039527500989399604 0.044986124107224058 0 -0.044468398811911086 0.052235869043340301 0 -0.039599153237632169 0.045660247067592308 0 -0.037647916095400066 0.045087025071256011 0 -0.039527500989399604 0.044986124107224058 0 -0.037647916095400066 0.045087025071256011 0 -0.039527500989399604 0.044986124107224058 0 -0.037349332878419385 0.040798500414692782 0 -0.013570307573261144 0.034679329742161112 0 -0.0086545227485739784 0.034782541376124854 0 0.010083854828448952 0.023287654248169198 0 0.007943690124559059 0.021867253023409059 0 0.011319874924564282 0.020157754410435633 0 -0.037647916095400066 0.045087025071256011 0 -0.033116967619837935 0.042481451769380209 0 -0.037349332878419385 0.040798500414692782 0 0.013356302532929137 0.021493063661195421 0 0.012362517325635446 0.022630473707764762 0 0.011319874924564282 0.020157754410435633 0 0.012362517325635446 0.022630473707764762 0 0.010083854828448952 0.023287654248169198 0 0.011319874924564282 0.020157754410435633 0 -0.032320879774001485 0.037566325954433918 0 -0.033805993478137716 0.037848938993130167 0 -0.033229615953127165 0.036377596008892621 0 -0.033805993478137716 0.037848938993130167 0 -0.034192386886236617 0.036808400612169147 0 -0.033229615953127165 0.036377596008892621 0 -0.032320879774001485 0.037566325954433918 0 -0.033805993478137716 0.037848938993130167 0 -0.033514900905185295 0.039537148451983452 0 -0.031590604479491337 0.039383984302174276 0 -0.032320879774001485 0.037566325954433918 0 -0.033514900905185295 0.039537148451983452 0 -0.031590604479491337 0.039383984302174276 0 -0.033116967619837935 0.042481451769380209 0 -0.033514900905185295 0.039537148451983452 0 -0.033116967619837935 0.042481451769380209 0 -0.033514900905185295 0.039537148451983452 0 -0.037349332878419385 0.040798500414692782 0 -0.033805993478137716 0.037848938993130167 0 -0.033514900905185295 0.039537148451983452 0 -0.037349332878419385 0.040798500414692782 0 -0.022521816278307322 0.065873320039093533 0 -0.03024320976294986 0.052667784367552123 0 -0.033805993478137716 0.037848938993130167 0 -0.035468944139891524 0.037272686918227764 0 -0.037349332878419385 0.040798500414692782 0 -0.047588428625218691 0.060336812061361447 0 -0.045332300106571764 0.058392382920737312 0 -0.044468398811911086 0.052235869043340301 0 -0.033805993478137716 0.037848938993130167 0 -0.035468944139891524 0.037272686918227764 0 -0.034192386886236617 0.036808400612169147 0 -0.047588428625218691 0.060336812061361447 0 -0.046658563820874084 0.060488775194571118 0 -0.046252295304055002 0.05982546714674708 0 -0.047588428625218691 0.060336812061361447 0 -0.046658563820874084 0.060488775194571118 0 -0.046049058459883122 0.061738497713293559 0 -0.046658563820874084 0.060488775194571118 0 -0.045554179349604644 0.060252981311935953 0 -0.046049058459883122 0.061738497713293559 0 -0.046658563820874084 0.060488775194571118 0 -0.045554179349604644 0.060252981311935953 0 -0.046252295304055002 0.05982546714674708 0 -0.047588428625218691 0.060336812061361447 0 -0.046252295304055002 0.05982546714674708 0 -0.045332300106571764 0.058392382920737312 0 -0.045554179349604644 0.060252981311935953 0 -0.046252295304055002 0.05982546714674708 0 -0.045332300106571764 0.058392382920737312 0 -0.044300674461601061 0.05957740765974872 0 -0.04429736571804966 0.061142520024499131 0 -0.041728059989454523 0.060733478767209761 0 -0.045554179349604644 0.060252981311935953 0 -0.044300674461601061 0.05957740765974872 0 -0.045332300106571764 0.058392382920737312 0 -0.045554179349604644 0.060252981311935953 0 -0.044300674461601061 0.05957740765974872 0 -0.04429736571804966 0.061142520024499131 0 -0.045554179349604644 0.060252981311935953 0 -0.04429736571804966 0.061142520024499131 0 -0.046049058459883122 0.061738497713293559 0 -0.041728059989454523 0.060733478767209761 0 -0.042654271378918175 0.058417034712808333 0 -0.04000829194673694 0.058460667338475478 0 -0.044300674461601061 0.05957740765974872 0 -0.041728059989454523 0.060733478767209761 0 -0.042654271378918175 0.058417034712808333 0 -0.042654271378918175 0.058417034712808333 0 -0.041703368803863348 0.054725812155807664 0 -0.04000829194673694 0.058460667338475478 0 -0.044300674461601061 0.05957740765974872 0 -0.042654271378918175 0.058417034712808333 0 -0.045332300106571764 0.058392382920737312 0 -0.042654271378918175 0.058417034712808333 0 -0.045332300106571764 0.058392382920737312 0 -0.041703368803863348 0.054725812155807664 0 -0.039675087152090512 0.050496399706823264 0 -0.044468398811911086 0.052235869043340301 0 -0.041703368803863348 0.054725812155807664 0 -0.045332300106571764 0.058392382920737312 0 -0.044468398811911086 0.052235869043340301 0 -0.041703368803863348 0.054725812155807664 0 -0.041703368803863348 0.054725812155807664 0 -0.038551825629292401 0.056337735000494868 0 -0.04000829194673694 0.058460667338475478 0 -0.041703368803863348 0.054725812155807664 0 -0.038181229518947195 0.053376633363183289 0 -0.038551825629292401 0.056337735000494868 0 -0.039675087152090512 0.050496399706823264 0 -0.041703368803863348 0.054725812155807664 0 -0.038181229518947195 0.053376633363183289 0 -0.038181229518947195 0.053376633363183289 0 -0.038551825629292401 0.056337735000494868 0 -0.035046976949670405 0.054540245441327018 0 -0.036957262296328452 0.060897424042024223 0 -0.035506843071781632 0.0643395924639793 0 -0.038551825629292401 0.056337735000494868 0 -0.038099042369642157 0.060445165617770927 0 -0.035115862056080124 0.063565955719053907 0 -0.038551825629292401 0.056337735000494868 0 -0.04000829194673694 0.058460667338475478 0 -0.038099042369642157 0.060445165617770927 0 -0.041728059989454523 0.060733478767209761 0 -0.04000829194673694 0.058460667338475478 0 -0.038099042369642157 0.060445165617770927 0 -0.038099042369642157 0.060445165617770927 0 -0.036642056670649702 0.066319633195932315 0 -0.035115862056080124 0.063565955719053907 0 -0.038099042369642157 0.060445165617770927 0 -0.040144083777768527 0.06366396081468291 0 -0.036407709245169319 0.066843053541743469 0 -0.035933844163338391 0.065172417226951454 0 -0.0350902500119308 0.068012953787586747 0 -0.041728059989454523 0.060733478767209761 0 -0.038099042369642157 0.060445165617770927 0 -0.040144083777768527 0.06366396081468291 0 -0.040144083777768527 0.06366396081468291 0 -0.036407709245169319 0.066843053541743469 0 -0.041030184526773657 0.066920194353662865 0 -0.034854979465159516 0.073410301615397924 0 -0.036407709245169319 0.066843053541743469 0 -0.038981912309553265 0.070477833188435979 0 -0.036407709245169319 0.066843053541743469 0 -0.038981912309553265 0.070477833188435979 0 -0.041030184526773657 0.066920194353662865 0 -0.038981912309553265 0.070477833188435979 0 -0.041030184526773657 0.066920194353662865 0 -0.044116893770742981 0.070018626440916346 0 -0.041030184526773657 0.066920194353662865 0 -0.044116893770742981 0.070018626440916346 0 -0.04488820566256721 0.06579798897698319 0 -0.04488820566256721 0.06579798897698319 0 -0.043390487435151268 0.063487052579302941 0 -0.046600801067299205 0.063405852193500714 0 -0.040144083777768527 0.06366396081468291 0 -0.041030184526773657 0.066920194353662865 0 -0.043390487435151268 0.063487052579302941 0 -0.041030184526773657 0.066920194353662865 0 -0.04488820566256721 0.06579798897698319 0 -0.043390487435151268 0.063487052579302941 0 -0.04429736571804966 0.061142520024499131 0 -0.041728059989454523 0.060733478767209761 0 -0.043390487435151268 0.063487052579302941 0 -0.041728059989454523 0.060733478767209761 0 -0.040144083777768527 0.06366396081468291 0 -0.043390487435151268 0.063487052579302941 0 -0.04429736571804966 0.061142520024499131 0 -0.043390487435151268 0.063487052579302941 0 -0.046049058459883122 0.061738497713293559 0 -0.043390487435151268 0.063487052579302941 0 -0.046600801067299205 0.063405852193500714 0 -0.046049058459883122 0.061738497713293559 0 -0.023465569993819536 0.070532831902391152 0 -0.022266975615600079 0.067205437997495093 0 -0.021576849223025996 0.067836053201860563 0 -0.022521816278307322 0.065873320039093533 0 -0.019063771547757645 0.077855379845061537 0 -0.047588428625218691 0.060336812061361447 0 -0.046600801067299205 0.063405852193500714 0 -0.049276099339011226 0.065167557170425425 0 -0.047588428625218691 0.060336812061361447 0 -0.046600801067299205 0.063405852193500714 0 -0.046049058459883122 0.061738497713293559 0 -0.022521816278307322 0.065873320039093533 0 -0.020189479490550256 0.071916534451289857 0 -0.035468944139891524 0.037272686918227764 0 -0.034192386886236617 0.036808400612169147 0 -0.034086338227050893 0.035587383901516521 0 -0.019063771547757645 0.077855379845061537 0 -0.020189479490550256 0.071916534451289857 0 -0.04488820566256721 0.06579798897698319 0 -0.046600801067299205 0.063405852193500714 0 -0.049276099339011226 0.065167557170425425 0 0.0013581479929396503 0.11631718354636596 0 -0.0018598358441471387 0.125715672216279 0 -0.0030768047549364005 0.11921834548274374 0 -0.0085582815525167763 0.11983717802773422 0 -0.0018598358441471387 0.125715672216279 0 -0.0030768047549364005 0.11921834548274374 0 -0.044116893770742981 0.070018626440916346 0 -0.04488820566256721 0.06579798897698319 0 -0.049276099339011226 0.065167557170425425 0 -0.021555408035336694 0.086544355366689432 0 -0.019063771547757645 0.077855379845061537 0 0.0013581479929396503 0.11631718354636596 0 7.793647821058625e-05 0.12047961836376679 0 0.0022577452059318807 0.11881402746260647 0 -0.018918807100410301 0.098333790758350345 0 -0.019063771547757645 0.077855379845061537 0 -0.012753757133098353 0.076908102063581396 0 -0.020189479490550256 0.071916534451289857 0 0.0046617259278671653 0.11619508146404839 0 0.003057023037591877 0.11628835420273509 0 0.0022577452059318807 0.11881402746260647 0 -0.0044370822682039636 0.081448288586513595 0 -0.012753757133098353 0.076908102063581396 0 -0.03148967579846864 0.035554932346828258 0 -0.032729278933761381 0.034224446490443081 0 -0.032801537969656035 0.035346454605070285 0 -0.03148967579846864 0.035554932346828258 0 -0.032801537969656035 0.035346454605070285 0 -0.033229615953127165 0.036377596008892621 0 -0.03148967579846864 0.035554932346828258 0 -0.032320879774001485 0.037566325954433918 0 -0.033229615953127165 0.036377596008892621 0 -0.032801537969656035 0.035346454605070285 0 -0.033883246081689807 0.035802354901036261 0 -0.033229615953127165 0.036377596008892621 0 7.793647821058625e-05 0.12047961836376679 0 0.0022577452059318807 0.11881402746260647 0 0.00064222786547272028 0.12096291780945768 0 -0.032729278933761381 0.034224446490443081 0 -0.032801537969656035 0.035346454605070285 0 -0.033883246081689807 0.035802354901036261 0 -0.034192386886236617 0.036808400612169147 0 -0.034086338227050893 0.035587383901516521 0 -0.033229615953127165 0.036377596008892621 0 -0.020189479490550256 0.071916534451289857 0 -0.022344309751395345 0.069333994943835298 0 -0.02687979816135511 0.05803697727413358 0 -0.023596125870715114 0.060439328716749015 0 -0.026190523340330129 0.06314057755495063 0 -0.034435656066127009 0.058987489770387966 0 -0.038435333208672873 0.052767057415725224 0 -0.02687979816135511 0.05803697727413358 0 -0.030512239711429599 0.058862532331039989 0 -0.026190523340330129 0.06314057755495063 0 -0.02687979816135511 0.05803697727413358 0 -0.023596125870715114 0.060439328716749015 0 -0.025173555004288185 0.053282048971600063 0 -0.044463608396383858 0.056669085751061082 0 -0.040986557574241002 0.055599559736682125 0 -0.04171027967750323 0.052687805643335833 0 -0.044463608396383858 0.056669085751061082 0 -0.040986557574241002 0.055599559736682125 0 -0.040226619161367369 0.058242324710031178 0 -0.040438766685581072 0.050965765647178772 0 -0.040814654528121552 0.053155542990463364 0 -0.043523692644296723 0.05171342911042652 0 -0.044463608396383858 0.056669085751061082 0 -0.04171027967750323 0.052687805643335833 0 -0.045839660658278401 0.050537195364095337 0 -0.039745653554740641 0.05262086867663545 0 -0.038435333208672873 0.052767057415725224 0 -0.02687979816135511 0.05803697727413358 0 -0.025173555004288185 0.053282048971600063 0 -0.029231510995816549 0.054709141447177242 0 -0.030178306394297808 0.050474627892498652 0 -0.025173555004288185 0.053282048971600063 0 -0.029231510995816549 0.054709141447177242 0 -0.029231510995816549 0.054709141447177242 0 -0.035046976949670405 0.054540245441327018 0 -0.030512239711429599 0.058862532331039989 0 -0.030178306394297808 0.050474627892498652 0 -0.029231510995816549 0.054709141447177242 0 -0.035046976949670405 0.054540245441327018 0 -0.038551825629292401 0.056337735000494868 0 -0.035046976949670405 0.054540245441327018 0 -0.034856297143974597 0.059804993920190092 0 -0.036010490204496488 0.050937033094359756 0 -0.038181229518947195 0.053376633363183289 0 -0.035046976949670405 0.054540245441327018 0 -0.033568961345688916 0.058609965161896524 0 -0.032006802513928699 0.060692571889829461 0 -0.038551825629292401 0.056337735000494868 0 -0.034856297143974597 0.059804993920190092 0 -0.036233419401205752 0.064403384762421495 0 -0.035046976949670405 0.054540245441327018 0 -0.034856297143974597 0.059804993920190092 0 -0.031484097604191845 0.060205556184123842 0 -0.02687979816135511 0.05803697727413358 0 -0.029231510995816549 0.054709141447177242 0 -0.030512239711429599 0.058862532331039989 0 -0.034856297143974597 0.059804993920190092 0 -0.031484097604191845 0.060205556184123842 0 -0.033078966200325841 0.063339308792945928 0 -0.032006802513928699 0.060692571889829461 0 -0.029918663892131693 0.064272518878303861 0 -0.033078966200325841 0.063339308792945928 0 -0.032241086252725037 0.066553963125356025 0 -0.028495160512357769 0.065205899783990454 0 -0.031484097604191845 0.060205556184123842 0 -0.033078966200325841 0.063339308792945928 0 -0.028495160512357769 0.065205899783990454 0 -0.033078966200325841 0.063339308792945928 0 -0.036233419401205752 0.064403384762421495 0 -0.032241086252725037 0.066553963125356025 0 -0.034856297143974597 0.059804993920190092 0 -0.033078966200325841 0.063339308792945928 0 -0.036233419401205752 0.064403384762421495 0 -0.032531200552314114 0.070172314478417014 0 -0.035349546150864289 0.071519302088128844 0 -0.036642056670649702 0.066319633195932315 0 -0.033316424532934076 0.069492321698538403 0 -0.035506843071781632 0.0643395924639793 0 -0.033505427894365489 0.070854002904235824 0 -0.036233419401205752 0.064403384762421495 0 -0.032241086252725037 0.066553963125356025 0 -0.032531200552314114 0.070172314478417014 0 -0.036642056670649702 0.066319633195932315 0 -0.035115862056080124 0.063565955719053907 0 -0.033049106839697195 0.074182089790736025 0 -0.0350902500119308 0.068012953787586747 0 -0.033505427894365489 0.070854002904235824 0 -0.032241086252725037 0.066553963125356025 0 -0.031671165220708619 0.06946516385540398 0 -0.032241086252725037 0.066553963125356025 0 -0.02968157323246752 0.068823550259152017 0 -0.028495160512357769 0.065205899783990454 0 -0.032241086252725037 0.066553963125356025 0 -0.031671165220708619 0.06946516385540398 0 -0.02968157323246752 0.068823550259152017 0 -0.030945551686019056 0.070994580585242301 0 -0.031671165220708619 0.06946516385540398 0 -0.02968157323246752 0.068823550259152017 0 -0.029918663892131693 0.064272518878303861 0 -0.03048584565505931 0.066377802714558509 0 -0.02968157323246752 0.068823550259152017 0 -0.028495160512357769 0.065205899783990454 0 -0.02617355043442748 0.06940478302087888 0 -0.029431384234336021 0.072050528965034347 0 -0.02968157323246752 0.068823550259152017 0 -0.02617355043442748 0.06940478302087888 0 -0.023596125870715114 0.060439328716749015 0 -0.026190523340330129 0.06314057755495063 0 -0.02201157783171415 0.067389223516138325 0 -0.044463608396383858 0.056669085751061082 0 -0.043089297759533442 0.06332090813260835 0 -0.040226619161367369 0.058242324710031178 0 -0.034435656066127009 0.058987489770387966 0 -0.03048584565505931 0.066377802714558509 0 -0.043089297759533442 0.06332090813260835 0 -0.037118277534415552 0.061044672068170783 0 -0.035496950944201133 0.064963519626812224 0 -0.037118277534415552 0.061044672068170783 0 -0.035496950944201133 0.064963519626812224 0 -0.032619878927198601 0.061413769763511053 0 -0.030531690390357771 0.066582890553462587 0 -0.035496950944201133 0.064963519626812224 0 -0.032619878927198601 0.061413769763511053 0 -0.037118277534415552 0.061044672068170783 0 -0.035574047339162716 0.057643579181163758 0 -0.032619878927198601 0.061413769763511053 0 -0.043089297759533442 0.06332090813260835 0 -0.037118277534415552 0.061044672068170783 0 -0.040226619161367369 0.058242324710031178 0 -0.037118277534415552 0.061044672068170783 0 -0.035574047339162716 0.057643579181163758 0 -0.040226619161367369 0.058242324710031178 0 -0.039745653554740641 0.05262086867663545 0 -0.039210329099708723 0.053062545696122239 0 -0.035574047339162716 0.057643579181163758 0 -0.040226619161367369 0.058242324710031178 0 -0.037669397749021304 0.054844892667715299 0 -0.040986557574241002 0.055599559736682125 0 -0.04171027967750323 0.052687805643335833 0 -0.037669397749021304 0.054844892667715299 0 -0.040986557574241002 0.055599559736682125 0 -0.040226619161367369 0.058242324710031178 0 -0.037669397749021304 0.054844892667715299 0 -0.035574047339162716 0.057643579181163758 0 -0.037669397749021304 0.054844892667715299 0 -0.034789076332684375 0.054402741728709167 0 -0.037669397749021304 0.054844892667715299 0 -0.034789076332684375 0.054402741728709167 0 -0.037058399628651567 0.051706979792557409 0 -0.034789076332684375 0.054402741728709167 0 -0.037058399628651567 0.051706979792557409 0 -0.033426842691097275 0.051933128359712644 0 -0.040438766685581072 0.050965765647178772 0 -0.037058399628651567 0.051706979792557409 0 -0.038927381652089324 0.052641018696856876 0 -0.040814654528121552 0.053155542990463364 0 -0.037669397749021304 0.054844892667715299 0 -0.038927381652089324 0.052641018696856876 0 -0.037669397749021304 0.054844892667715299 0 -0.037058399628651567 0.051706979792557409 0 -0.038927381652089324 0.052641018696856876 0 -0.040280766068861794 0.050058317767820749 0 -0.039132625192371324 0.050491816664683858 0 -0.040438766685581072 0.050965765647178772 0 -0.040814654528121552 0.053155542990463364 0 -0.038927381652089324 0.052641018696856876 0 -0.030491677556964369 0.052731459015019223 0 -0.033426842691097275 0.051933128359712644 0 -0.031715215612563373 0.0498975214246591 0 -0.030491677556964369 0.052731459015019223 0 -0.033426842691097275 0.051933128359712644 0 -0.031128844120162657 0.056584826391195553 0 -0.034789076332684375 0.054402741728709167 0 -0.033426842691097275 0.051933128359712644 0 -0.031128844120162657 0.056584826391195553 0 -0.035574047339162716 0.057643579181163758 0 -0.034789076332684375 0.054402741728709167 0 -0.031128844120162657 0.056584826391195553 0 -0.030491677556964369 0.052731459015019223 0 -0.031128844120162657 0.056584826391195553 0 -0.029365431177396407 0.055010960474518242 0 -0.029456729189095299 0.05828263063833803 0 -0.028235633292027218 0.059732734284523609 0 -0.031128844120162657 0.056584826391195553 0 -0.029121764081901907 0.056549917970279959 0 -0.029365431177396407 0.055010960474518242 0 -0.031128844120162657 0.056584826391195553 0 -0.032619878927198601 0.061413769763511053 0 -0.025882904014172516 0.062709598601862232 0 -0.035574047339162716 0.057643579181163758 0 -0.031128844120162657 0.056584826391195553 0 -0.032619878927198601 0.061413769763511053 0 -0.030531690390357771 0.066582890553462587 0 -0.032619878927198601 0.061413769763511053 0 -0.025882904014172516 0.062709598601862232 0 -0.026642202237114127 0.062073083307627806 0 -0.028235633292027218 0.059732734284523609 0 -0.028053571098840289 0.056090954776491446 0 -0.029121764081901907 0.056549917970279959 0 -0.027833196306274101 0.05597457021810702 0 -0.027833196306274101 0.05597457021810702 0 -0.028213004075214296 0.0555731500999758 0 -0.026880883589536411 0.055508346167199372 0 -0.029121764081901907 0.056549917970279959 0 -0.028213004075214296 0.0555731500999758 0 -0.029365431177396407 0.055010960474518242 0 -0.029121764081901907 0.056549917970279959 0 -0.027833196306274101 0.05597457021810702 0 -0.028213004075214296 0.0555731500999758 0 -0.02835850704426816 0.055569012765731007 0 -0.02784560826705422 0.055686619190813906 0 -0.0285084532595168 0.055746061100817819 0 -0.028016695617758099 0.055724122253283354 0 -0.027833196306274101 0.05597457021810702 0 -0.027990500989397201 0.055762508090975445 0 -0.02835850704426816 0.055569012765731007 0 -0.027990500989397201 0.055762508090975445 0 -0.02784560826705422 0.055686619190813906 0 -0.027833196306274101 0.05597457021810702 0 -0.027990500989397201 0.055762508090975445 0 -0.02784560826705422 0.055686619190813906 0 -0.027833196306274101 0.05597457021810702 0 -0.02784560826705422 0.055686619190813906 0 -0.026880883589536411 0.055508346167199372 0 -0.02784560826705422 0.055686619190813906 0 -0.02789964475826805 0.055815926268955075 0 -0.026880883589536411 0.055508346167199372 0 -0.02784560826705422 0.055686619190813906 0 -0.02821559553779376 0.055833685119547255 0 -0.0285084532595168 0.055746061100817819 0 -0.02789964475826805 0.055815926268955075 0 -0.02821559553779376 0.055833685119547255 0 -0.028356372670484506 0.056107041037216941 0 -0.02784560826705422 0.055686619190813906 0 -0.02789964475826805 0.055815926268955075 0 -0.02821559553779376 0.055833685119547255 0 -0.028639014221429702 0.056012493020046607 0 -0.02821559553779376 0.055833685119547255 0 -0.028356372670484506 0.056107041037216941 0 -0.028639014221429702 0.056012493020046607 0 -0.02821559553779376 0.055833685119547255 0 -0.0285084532595168 0.055746061100817819 0 -0.032709469280996731 0.057861494287229011 0 -0.028236381926076633 0.058069788015118251 0 -0.029810537764314526 0.056343962512962718 0 -0.036126992469736163 0.043547499031512726 0 -0.035514258153836444 0.044363947569778406 0 -0.02832262258509231 0.056890807219537265 0 -0.029810537764314526 0.056343962512962718 0 -0.028356372670484506 0.056107041037216941 0 -0.02789964475826805 0.055815926268955075 0 -0.02832262258509231 0.056890807219537265 0 -0.028356372670484506 0.056107041037216941 0 -0.026880883589536411 0.055508346167199372 0 -0.025793246489753324 0.053528478620052694 0 -0.026872231870230391 0.053040399213209716 0 -0.036126992469736163 0.043547499031512726 0 -0.033484204035739505 0.045086545093176403 0 -0.02789964475826805 0.055815926268955075 0 -0.02832262258509231 0.056890807219537265 0 -0.026880883589536411 0.055508346167199372 0 -0.023763501349901881 0.054253966085443056 0 -0.026880883589536411 0.055508346167199372 0 -0.025793246489753324 0.053528478620052694 0 -0.036126992469736163 0.043547499031512726 0 -0.033814272864305779 0.03873952797993447 0 -0.023763501349901881 0.054253966085443056 0 -0.025793246489753324 0.053528478620052694 0 -0.025573958685788645 0.051556058650635866 0 -0.025793246489753324 0.053528478620052694 0 -0.026872231870230391 0.053040399213209716 0 -0.025573958685788645 0.051556058650635866 0 -0.038274537190348387 0.020414555942719664 0 -0.038748688091026003 0.021390822172632509 0 -0.038099739765008252 0.021760229076000261 0 -0.038274537190348387 0.020414555942719664 0 -0.038099739765008252 0.021760229076000261 0 -0.037097936497096209 0.02172933960991864 0 -0.038748688091026003 0.021390822172632509 0 -0.038762351733092192 0.021933007412603425 0 -0.038099739765008252 0.021760229076000261 0 -0.029365431177396407 0.055010960474518242 0 -0.027978992053187587 0.054285783086639679 0 -0.028460546993768751 0.052490955703654966 0 -0.028213004075214296 0.0555731500999758 0 -0.029365431177396407 0.055010960474518242 0 -0.027978992053187587 0.054285783086639679 0 -0.028213004075214296 0.0555731500999758 0 -0.026880883589536411 0.055508346167199372 0 -0.027978992053187587 0.054285783086639679 0 -0.026880883589536411 0.055508346167199372 0 -0.027978992053187587 0.054285783086639679 0 -0.026872231870230391 0.053040399213209716 0 -0.026872231870230391 0.053040399213209716 0 -0.028460546993768751 0.052490955703654966 0 -0.027049252127955694 0.050787538435212005 0 -0.027978992053187587 0.054285783086639679 0 -0.026872231870230391 0.053040399213209716 0 -0.028460546993768751 0.052490955703654966 0 -0.026872231870230391 0.053040399213209716 0 -0.027049252127955694 0.050787538435212005 0 -0.025573958685788645 0.051556058650635866 0 -0.030491677556964369 0.052731459015019223 0 -0.028460546993768751 0.052490955703654966 0 -0.029462892675660605 0.050748878088015301 0 -0.030491677556964369 0.052731459015019223 0 -0.029365431177396407 0.055010960474518242 0 -0.028460546993768751 0.052490955703654966 0 -0.028460546993768751 0.052490955703654966 0 -0.029462892675660605 0.050748878088015301 0 -0.027049252127955694 0.050787538435212005 0 -0.029462892675660605 0.050748878088015301 0 -0.027049252127955694 0.050787538435212005 0 -0.029713407805079469 0.04727952886750672 0 -0.028601583519854045 0.048594955824670653 0 -0.030354911415866995 0.046829907757056581 0 -0.027049252127955694 0.050787538435212005 0 -0.026512842956170617 0.04817946069223282 0 -0.025573958685788645 0.051556058650635866 0 -0.032748535326484404 0.035933849528733873 0 -0.033814272864305779 0.03873952797993447 0 -0.035877857433599322 0.023024398358466293 0 -0.037097936497096209 0.02172933960991864 0 -0.036907476050880121 0.022842742033995479 0 -0.035877857433599322 0.023024398358466293 0 -0.036585343202431141 0.023656313130146028 0 -0.035861644911731126 0.024143871850989596 0 -0.035877857433599322 0.023024398358466293 0 -0.036585343202431141 0.023656313130146028 0 -0.036907476050880121 0.022842742033995479 0 -0.027049252127955694 0.050787538435212005 0 -0.026512842956170617 0.04817946069223282 0 -0.028996637315047886 0.047613452064372119 0 -0.026512842956170617 0.04817946069223282 0 -0.028996637315047886 0.047613452064372119 0 -0.028171028734317198 0.043032703281827969 0 -0.038500798346122571 0.02242576808678361 0 -0.038762351733092192 0.021933007412603425 0 -0.038099739765008252 0.021760229076000261 0 -0.038500798346122571 0.02242576808678361 0 -0.037629122615305495 0.022525538680016697 0 -0.038204567341299275 0.02306388819179489 0 -0.038500798346122571 0.02242576808678361 0 -0.038099739765008252 0.021760229076000261 0 -0.037629122615305495 0.022525538680016697 0 -0.037629122615305495 0.022525538680016697 0 -0.037097936497096209 0.02172933960991864 0 -0.036907476050880121 0.022842742033995479 0 -0.038099739765008252 0.021760229076000261 0 -0.037629122615305495 0.022525538680016697 0 -0.037097936497096209 0.02172933960991864 0 -0.036585343202431141 0.023656313130146028 0 -0.037344150577589247 0.023295310013454747 0 -0.037224909988446728 0.024028643467475443 0 -0.036585343202431141 0.023656313130146028 0 -0.036907476050880121 0.022842742033995479 0 -0.037344150577589247 0.023295310013454747 0 -0.037629122615305495 0.022525538680016697 0 -0.037344150577589247 0.023295310013454747 0 -0.038204567341299275 0.02306388819179489 0 -0.037629122615305495 0.022525538680016697 0 -0.036907476050880121 0.022842742033995479 0 -0.037344150577589247 0.023295310013454747 0 -0.037344150577589247 0.023295310013454747 0 -0.038204567341299275 0.02306388819179489 0 -0.037996634791518456 0.023906706408798509 0 -0.038867410973724099 0.023456435629072746 0 -0.038204567341299275 0.02306388819179489 0 -0.037996634791518456 0.023906706408798509 0 -0.038841315876596519 0.022835567599740651 0 -0.038500798346122571 0.02242576808678361 0 -0.038204567341299275 0.02306388819179489 0 -0.038867410973724099 0.023456435629072746 0 -0.038841315876596519 0.022835567599740651 0 -0.038204567341299275 0.02306388819179489 0 -0.038794993985852524 0.024535008780855665 0 -0.038867410973724099 0.023456435629072746 0 -0.037996634791518456 0.023906706408798509 0 -0.038794993985852524 0.024535008780855665 0 -0.037996634791518456 0.023906706408798509 0 -0.037528802228884807 0.024734358642010176 0 -0.037996634791518456 0.023906706408798509 0 -0.037224909988446728 0.024028643467475443 0 -0.037528802228884807 0.024734358642010176 0 -0.037344150577589247 0.023295310013454747 0 -0.037996634791518456 0.023906706408798509 0 -0.037224909988446728 0.024028643467475443 0 -0.036585343202431141 0.023656313130146028 0 -0.037224909988446728 0.024028643467475443 0 -0.036662522421160547 0.024551722126844956 0 -0.037224909988446728 0.024028643467475443 0 -0.037528802228884807 0.024734358642010176 0 -0.036662522421160547 0.024551722126844956 0 -0.037616302476275808 0.025982219062906178 0 -0.036852289135827443 0.025435856484177441 0 -0.037528802228884807 0.024734358642010176 0 -0.036852289135827443 0.025435856484177441 0 -0.037528802228884807 0.024734358642010176 0 -0.036662522421160547 0.024551722126844956 0 -0.061423360521474353 0.013166621984928564 0 -0.061922136649194506 0.01028729055811334 0 -0.038794993985852524 0.024535008780855665 0 -0.037616302476275808 0.025982219062906178 0 -0.037528802228884807 0.024734358642010176 0 -0.082556168939909219 -0.0031754735349991937 0 -0.083811844480849759 -0.00013260399350000613 0 -0.08781034428448424 -0.0065820594672592299 0 -0.032748535326484404 0.035933849528733873 0 -0.033037105166582259 0.033044323161790873 0 -0.035877857433599322 0.023024398358466293 0 -0.034566020950119451 0.024376255649403107 0 -0.035861644911731126 0.024143871850989596 0 -0.034566020950119451 0.024376255649403107 0 -0.035861644911731126 0.024143871850989596 0 -0.035629768868653107 0.025116965258078241 0 -0.036585343202431141 0.023656313130146028 0 -0.035861644911731126 0.024143871850989596 0 -0.036662522421160547 0.024551722126844956 0 -0.035861644911731126 0.024143871850989596 0 -0.036662522421160547 0.024551722126844956 0 -0.035629768868653107 0.025116965258078241 0 -0.035947227029549909 0.026131926394414629 0 -0.036852289135827443 0.025435856484177441 0 -0.035629768868653107 0.025116965258078241 0 -0.036852289135827443 0.025435856484177441 0 -0.036662522421160547 0.024551722126844956 0 -0.035629768868653107 0.025116965258078241 0 -0.034566020950119451 0.024376255649403107 0 -0.035629768868653107 0.025116965258078241 0 -0.0345062746288251 0.025457851387206489 0 -0.035087908991014057 0.025811186039179063 0 -0.035947227029549909 0.026131926394414629 0 -0.035629768868653107 0.025116965258078241 0 -0.035087908991014057 0.025811186039179063 0 -0.035629768868653107 0.025116965258078241 0 -0.0345062746288251 0.025457851387206489 0 -0.035087908991014057 0.025811186039179063 0 -0.034064712204650793 0.025909856361828815 0 -0.0345062746288251 0.025457851387206489 0 -0.035425626231626969 0.028581990955487191 0 -0.033037105166582259 0.033044323161790873 0 -0.033549954961951831 0.026519991287660871 0 -0.034064712204650793 0.025909856361828815 0 -0.0345062746288251 0.025457851387206489 0 -0.033549954961951831 0.026519991287660871 0 -0.034566020950119451 0.024376255649403107 0 -0.0345062746288251 0.025457851387206489 0 -0.031893420185795558 0.034056674217967868 0 -0.028171028734317198 0.043032703281827969 0 -0.033583908787921106 0.038711923800194642 0 -0.028171028734317198 0.043032703281827969 0 -0.033661145400812678 0.043137607074735594 0 -0.033583908787921106 0.038711923800194642 0 -0.030354911415866995 0.046829907757056581 0 -0.034342300871866162 0.043072622550223677 0 -0.028996637315047886 0.047613452064372119 0 -0.028171028734317198 0.043032703281827969 0 -0.033661145400812678 0.043137607074735594 0 -0.033114283673417851 0.04340476203201131 0 -0.040962538901488252 0.038965481281189526 0 -0.038332882088277523 0.043623822114966217 0 -0.033114283673417851 0.04340476203201131 0 -0.038332882088277523 0.043623822114966217 0 -0.036073020822438066 0.046371827590667811 0 -0.033114283673417851 0.04340476203201131 0 -0.040962538901488252 0.038965481281189526 0 -0.043245649937070654 0.036178681134559514 0 -0.034342300871866162 0.043072622550223677 0 -0.037784368164063838 0.040001553169166149 0 -0.033661145400812678 0.043137607074735594 0 -0.033583908787921106 0.038711923800194642 0 -0.037247613087172615 0.035963906032130392 0 -0.033661145400812678 0.043137607074735594 0 -0.037247613087172615 0.035963906032130392 0 -0.043245649937070654 0.036178681134559514 0 -0.033583908787921106 0.038711923800194642 0 -0.034711592040862341 0.035053172939858393 0 -0.037247613087172615 0.035963906032130392 0 -0.031893420185795558 0.034056674217967868 0 -0.033583908787921106 0.038711923800194642 0 -0.034711592040862341 0.035053172939858393 0 -0.036955079458113126 0.031040040593130768 0 -0.034711592040862341 0.035053172939858393 0 -0.037247613087172615 0.035963906032130392 0 -0.040818387462073176 0.032489865131181177 0 -0.038634265568281652 0.03212142244850974 0 -0.037247613087172615 0.035963906032130392 0 -0.040962538901488252 0.038965481281189526 0 -0.043245649937070654 0.036178681134559514 0 -0.05377421420536644 0.03393634492867767 0 -0.040818387462073176 0.032489865131181177 0 -0.037247613087172615 0.035963906032130392 0 -0.043245649937070654 0.036178681134559514 0 -0.044920032611008874 0.031228061487185453 0 -0.043245649937070654 0.036178681134559514 0 -0.05377421420536644 0.03393634492867767 0 -0.045545708183292413 0.036560841215452014 0 -0.047904815180563221 0.035428331019489424 0 -0.040962538901488252 0.038965481281189526 0 -0.042336352177537395 0.042249237901467784 0 -0.041323148842889942 0.042509810171916095 0 -0.040962538901488252 0.038965481281189526 0 -0.062771676564276541 0.039283749161130727 0 -0.05377421420536644 0.03393634492867767 0 -0.061254357447545642 0.029678523740714804 0 -0.062771676564276541 0.039283749161130727 0 -0.05377421420536644 0.03393634492867767 0 -0.041323148842889942 0.042509810171916095 0 -0.041647591166780816 0.044642170957124486 0 -0.039467495856306017 0.045921465933488892 0 -0.042360004226438479 0.043602663922893553 0 -0.042336352177537395 0.042249237901467784 0 -0.041323148842889942 0.042509810171916095 0 -0.042360004226438479 0.043602663922893553 0 -0.041323148842889942 0.042509810171916095 0 -0.041647591166780816 0.044642170957124486 0 -0.040962538901488252 0.038965481281189526 0 -0.041323148842889942 0.042509810171916095 0 -0.038332882088277523 0.043623822114966217 0 -0.041323148842889942 0.042509810171916095 0 -0.038332882088277523 0.043623822114966217 0 -0.039467495856306017 0.045921465933488892 0 -0.039467495856306017 0.045921465933488892 0 -0.04078730528734275 0.047661095762523469 0 -0.037296037666812241 0.048785759690648231 0 -0.038332882088277523 0.043623822114966217 0 -0.039467495856306017 0.045921465933488892 0 -0.036073020822438066 0.046371827590667811 0 -0.039467495856306017 0.045921465933488892 0 -0.037296037666812241 0.048785759690648231 0 -0.036073020822438066 0.046371827590667811 0 -0.042564189268483515 0.046098749108955388 0 -0.041647591166780816 0.044642170957124486 0 -0.041159610111638233 0.046088167457575331 0 -0.041647591166780816 0.044642170957124486 0 -0.039467495856306017 0.045921465933488892 0 -0.041159610111638233 0.046088167457575331 0 -0.039467495856306017 0.045921465933488892 0 -0.041159610111638233 0.046088167457575331 0 -0.04078730528734275 0.047661095762523469 0 -0.042564189268483515 0.046098749108955388 0 -0.041159610111638233 0.046088167457575331 0 -0.04078730528734275 0.047661095762523469 0 -0.042034691452757511 0.049892817487253868 0 -0.037058399628651567 0.051706979792557409 0 -0.04078730528734275 0.047661095762523469 0 -0.037058399628651567 0.051706979792557409 0 -0.04078730528734275 0.047661095762523469 0 -0.037296037666812241 0.048785759690648231 0 -0.037058399628651567 0.051706979792557409 0 -0.033426842691097275 0.051933128359712644 0 -0.037296037666812241 0.048785759690648231 0 -0.033426842691097275 0.051933128359712644 0 -0.034370300337582121 0.048878543249741106 0 -0.031715215612563373 0.0498975214246591 0 -0.033426842691097275 0.051933128359712644 0 -0.037296037666812241 0.048785759690648231 0 -0.034370300337582121 0.048878543249741106 0 -0.034370300337582121 0.048878543249741106 0 -0.031715215612563373 0.0498975214246591 0 -0.032934375793418236 0.047331299411719201 0 -0.029462892675660605 0.050748878088015301 0 -0.029713407805079469 0.04727952886750672 0 -0.031715215612563373 0.0498975214246591 0 -0.030491677556964369 0.052731459015019223 0 -0.029462892675660605 0.050748878088015301 0 -0.031715215612563373 0.0498975214246591 0 -0.029713407805079469 0.04727952886750672 0 -0.033114283673417851 0.04340476203201131 0 -0.032934375793418236 0.047331299411719201 0 -0.029713407805079469 0.04727952886750672 0 -0.031715215612563373 0.0498975214246591 0 -0.032934375793418236 0.047331299411719201 0 -0.033114283673417851 0.04340476203201131 0 -0.036073020822438066 0.046371827590667811 0 -0.032934375793418236 0.047331299411719201 0 -0.034370300337582121 0.048878543249741106 0 -0.036073020822438066 0.046371827590667811 0 -0.032934375793418236 0.047331299411719201 0 -0.037296037666812241 0.048785759690648231 0 -0.034370300337582121 0.048878543249741106 0 -0.036073020822438066 0.046371827590667811 0 
</DataArray>
</PointData>
<CellData Scalars="region_id,cross_section_updated," Vectors="" Tensors="stress,">
<DataArray type="Float64" Name="region_id" format="ascii">
5 5 5 5 5 6 5 5 5 5 5 5 5 6 5 5 5 5 6 5 5 6 5 5 5 5 6 5 5 5 5 6 5 5 5 5 5 5 5 5 5 5 5 5 5 6 5 5 6 5 5 5 5 5 6 5 5 5 5 5 5 5 6 5 5 5 5 6 5 5 5 5 5 5 5 5 5 6 5 5 6 5 5 6 5 5 5 5 6 5 5 5 5 5 5 5 6 6 6 5 5 6 5 5 5 5 5 6 5 5 5 5 5 5 5 5 5 5 5 5 5 6 5 5 5 6 5 5 5 5 5 5 6 5 5 5 5 5 5 5 5 5 5 5 5 5 5 5 5 5 5 5 5 5 5 5 5 5 6 5 5 5 6 5 5 6 5 5 5 5 5 5 5 5 5 5 5 6 5 5 5 5 5 5 5 5 6 5 5 5 5 5 5 5 5 6 5 5 5 5 5 5 5 5 5 6 5 5 5 5 5 5 5 5 5 5 5 5 5 5 5 5 5 5 5 5 5 5 5 6 5 5 5 6 5 6 5 6 5 5 6 5 5 5 6 5 6 5 6 5 6 6 5 6 5 5 6 5 6 5 5 5 6 5 6 6 5 5 6 5 5 5 6 5 6 6 6 5 6 5 5 5 6 5 6 6 6 5 5 6 6 5 5 5 5 6 5 6 5 5 6 5 5 5 6 5 6 6 6 5 5 5 6 5 6 6 6 6 5 5 5 6 6 5 5 6 6 6 5 6 5 5 5 5 6 5 5 5 5 5 5 5 6 5 5 5 5 5 5 6 6 5 5 5 6 5 5 5 6 5 6 5 6 6 5 5 5 5 6 5 5 6 5 5 5 5 6 5 6 5 5 5 5 5 6 6 5 5 5 5 5 5 5 5 6 5 5 5 6 5 5 6 5 6 5 5 5 5 5 5 5 5 5 5 5 6 5 6 5 6 5 5 5 6 5 6 5 6 5 5 5 5 5 5 6 5 6 5 5 5 6 5 5 5 6 5 6 6 5 5 5 5 6 5 5 5 5 6 6 5 5 6 5 6 5 6 6 5 5 5 6 5 5 5 5 6 5 5 5 5 5 5 5 5 5 5 5 6 5 5 5 5 6 5 5 5 6 5 6 6 6 5 5 5 6 6 5 6 5 5 6 5 5 5 5 6 5 5 5 5 5 5 5 5 5 5 5 6 6 5 5 6 5 5 5 6 5 5 5 5 5 5 6 5 5 5 6 5 5 5 6 5 5 5 5 5 5 5 5 5 5 5 6 5 5 5 6 5 5 5 5 5 5 5 6 5 5 5 5 5 6 5 5 5 5 5 5 5 5 5 5 5 5 5 5 5 5 5 5 5 6 5 5 5 5 6 5 5 6 5 5 5 5 5 5 5 6 5 5 5 5 5 5 5 5 6 5 6 5 5 6 5 5 5 6 5 5 6 5 5 5 6 5 6 5 5 6 5 6 5 5 5 5 5 5 5 5 5 5 5 5 5 5 5 5 5 5 5 5 5 5 6 5 6 5 6 5 5 5 5 5 5 5 5 5 5 5 5 5 5 5 6 5 5 5 5 5 5 5 5 5 6 5 5 5 5 5 5 5 5 5 5 5 5 5 5 5 5 5 5 5 5 5 5 5 5 5 5 5 5 5 6 5 5 6 5 5 5 6 6 5 6 5 5 5 5 5 6 5 5 5 5 5 6 5 5 5 5 5 5 5 5 5 5 5 5 5 5 5 5 5 5 5 5 5 5 5 5 5 5 5 5 5 5 5 5 5 5 5 5 5 5 5 5 5 5 5 5 5 5 5 5 5 6 5 5 5 5 5 5 5 5 5 5 5 5 5 5 5 6 5 5 5 5 6 5 5 5 5 5 5 5 5 5 5 5 5 5 5 5 5 5 5 5 5 5 5 5 5 5 5 5 6 5 5 6 5 6 6 6 6 5 5 6 5 5 5 5 5 5 5 5 5 5 5 5 5 5 5 5 5 6 5 5 6 5 6 5 5 5 5 6 5 6 5 5 5 5 6 5 5 5 6 5 5 5 5 5 6 5 6 5 5 6 6 5 6 5 5 5 5 5 5 5 5 5 5 5 6 5 5 5 6 5 5 5 6 5 5 6 6 6 5 5 5 5 5 5 5 5 5 5 5 6 5 5 5 5 5 5 5 5 6 6 6 5 5 5 5 5 5 5 5 6 6 5 5 5 6 5 5 6 5 5 5 5 5 5 5 5 5 5 5 6 5 5 5 5 5 5 5 5 6 5 5 5 5 5 5 5 5 5 5 6 5 6 6 6 5 5 5 5 5 5 5 6 6 5 6 5 5 5 5 5 6 5 6 6 5 5 5 6 5 6 5 5 5 5 6 5 5 5 5 5 5 5 5 5 5 5 5 5 5 5 5 5 6 5 5 5 6 5 5 5 5 5 6 5 5 5 5 5 5 6 5 6 5 5 5 5 5 5 5 5 6 5 5 5 6 5 5 5 5 5 5 5 5 5 5 5 5 5 5 5 5 5 5 5 5 5 5 5 5 5 6 6 6 5 5 5 5 6 5 5 5 5 6 5 5 5 5 5 5 5 6 5 5 5 5 5 5 5 5 6 5 5 5 5 5 5 5 5 5 5 5 5 6 5 5 5 5 5 5 6 5 5 5 5 5 5 5 5 6 5 5 5 6 5 5 5 5 5 5 5 5 5 5 5 5 6 5 5 5 5 5 5 5 5 5 5 5 5 5 5 5 5 5 5 5 5 5 5 5 5 5 5 5 5 5 5 5 5 5 5 5 5 5 5 5 5 5 5 5 5 5 5 5 6 5 5 5 5 5 5 5 5 5 5 5 5 5 5 5 5 5 5 5 5 5 5 5 5 6 5 5 5 5 5 5 5 5 5 5 6 5 5 6 5 5 5 5 5 5 5 5 5 6 5 6 5 5 5 5 6 5 5 6 5 6 5 5 5 5 5 6 5 5 5 5 5 5 5 5 6 5 5 5 5 5 5 5 5 5 5 5 5 5 5 6 5 6 6 5 5 5 5 5 6 5 5 5 5 5 5 5 5 5 5 5 5 5 5 5 6 5 5 5 5 5 5 5 5 5 5 5 5 5 5 5 5 6 5 5 5 5 5 6 6 5 5 6 5 5 5 5 5 5 5 5 5 5 6 5 5 5 5 5 5 5 5 5 6 5 6 5 5 5 5 5 6 5 5 5 5 6 5 5 5 6 5 5 5 6 5 5 6 5 5 5 5 5 5 5 5 5 5 5 5 5 5 5 5 6 5 5 5 5 5 5 5 6 5 5 5 5 5 5 5 5 5 5 5 5 5 5 5 5 5 5 5 5 5 5 5 5 5 5 5 6 5 5 5 5 6 5 5 5 6 5 5 5 5 5 5 5 5 5 6 5 6 5 5 5 5 5 5 5 5 5 5 5 5 5 5 5 5 5 5 6 6 5 5 5 6 5 5 6 5 5 6 5 5 5 6 5 5 6 5 5 5 5 5 5 5 5 5 5 5 5 5 5 5 5 5 5 5 5 6 5 6 5 5 5 5 5 5 5 5 5 5 5 6 5 6 5 5 5 6 5 5 5 5 5 6 5 5 5 5 5 5 6 5 5 5 5 5 5 5 5 5 5 5 6 5 5 5 5 5 5 5 5 6 5 5 5 6 5 5 6 5 5 5 5 5 6 5 5 5 5 5 5 5 5 5 6 5 5 6 5 6 5 6 6 6 5 6 5 5 5 5 5 5 6 5 5 5 5 5 5 6 5 5 5 5 5 5 5 6 5 5 5 5 6 5 5 5 5 5 6 5 6 5 5 5 5 5 5 5 5 5 5 6 5 5 5 5 5 5 5 6 5 5 5 5 5 5 5 6 5 6 5 5 5 5 5 5 5 5 6 5 5 5 6 6 5 5 5 5 5 6 6 5 6 5 5 6 5 5 6 5 5 5 5 5 5 5 5 6 5 5 5 5 5 6 5 5 5 5 6 5 5 6 5 5 5 5 5 5 5 5 5 5 5 5 5 5 5 5 5 5 5 5 5 5 5 5 5 5 5 5 5 5 5 5 5 5 5 5 5 5 5 5 5 6 5 5 6 5 5 5 5 5 6 5 5 5 5 6 5 5 5 5 5 5 5 5 5 5 5 5 5 5 5 5 5 5 5 5 5 5 5 5 6 5 5 5 6 5 5 5 5 5 5 6 5 5 5 5 5 5 5 5 5 5 5 6 5 6 6 5 5 6 5 5 5 5 5 5 5 5 5 5 5 6 5 5 6 5 5 5 5 5 5 5 5 5 5 5 5 5 5 5 6 5 5 5 5 5 5 5 6 5 6 5 5 5 5 6 5 6 5 5 5 5 5 5 5 5 5 6 5 5 5 5 5 5 5 5 5 5 5 5 5 5 5 5 5 6 5 5 5 5 5 5 5 5 5 5 5 5 5 5 5 5 5 5 5 5 5 5 5 5 5 6 6 5 5 5 5 5 5 5 5 5 5 5 6 5 5 5 5 6 5 5 5 5 6 5 5 5 5 5 5 5 5 6 5 5 5 5 5 5 5 5 5 6 5 5 5 5 5 5 5 5 5 5 5 5 5 5 5 5 5 5 5 5 6 5 5 5 5 5 5 5 5 5 5 5 5 5 5 6 5 6 5 5 5 5 5 5 5 5 6 5 5 6 5 5 5 5 5 5 5 5 5 5 5 5 5 5 5 5 5 5 5 5 5 5 5 5 5 5 5 5 5 5 5 5 5 5 5 5 6 5 5 6 5 5 5 5 6 5 6 5 5 6 5 6 5 5 5 5 5 6 5 5 5 5 5 5 5 5 5 5 5 5 6 5 5 5 6 5 5 5 5 5 5 5 5 5 6 5 5 5 5 6 6 5 5 5 5 5 5 5 5 6 5 5 5 5 5 6 5 5 5 6 5 5 5 6 5 5 5 5 6 5 5 5 5 5 5 5 5 5 5 5 5 5 5 6 5 5 5 5 5 5 6 5 6 6 5 6 5 6 5 5 5 5 6 5 5 5 5 6 5 5 5 5 5 5 5 5 5 6 5 5 5 5 5 5 5 5 5 5 5 5 5 5 6 5 5 5 6 5 5 5 6 5 6 5 5 5 5 5 5 5 5 5 5 5 5 5 5 5 5 6 5 5 5 5 5 5 6 5 5 5 5 5 5 5 5 5 5 5 5 5 5 5 5 5 5 6 5 5 5 5 5 5 5 5 5 5 5 5 5 5 5 5 5 5 5 5 5 5 5 5 5 5 5 5 5 5 5 5 5 5 6 5 5 5 5 6 5 5 5 5 5 5 5 6 5 5 5 5 5 5 5 5 5 6 5 5 6 5 5 5 5 5 6 5 5 5 6 5 5 6 5 5 5 5 5 5 5 5 5 5 5 5 5 5 5 5 5 5 5 5 6 5 5 5 5 5 5 5 5 5 5 6 6 5 6 5 5 5 5 5 6 5 5 5 5 6 5 5 5 5 5 6 5 6 5 5 6 5 5 5 5 5 5 5 5 6 5 5 5 5 5 5 6 5 5 5 5 5 5 6 5 5 5 5 6 5 5 6 5 6 5 5 6 5 5 5 5 5 5 6 5 5 5 5 6 5 5 5 5 5 5 5 5 6 6 5 5 5 5 5 5 5 5 6 5 5 5 5 5 5 6 5 5 5 5 5 5 5 6 5 5 5 6 5 5 5 5 5 5 5 5 5 5 5 5 6 5 5 5 5 6 5 5 6 5 5 5 5 6 5 5 5 6 6 5 5 5 6 5 5 5 6 5 5 5 5 5 5 5 5 5 6 5 5 5 6 5 5 5 5 5 5 5 5 5 5 5 5 6 5 6 5 5 6 5 5 6 5 5 5 5 5 5 5 6 5 5 5 5 5 6 5 6 5 5 5 6 6 5 6 6 5 6 5 5 5 5 5 5 6 5 6 5 5 5 5 5 5 5 5 5 5 5 5 5 6 5 5 6 5 6 5 5 6 5 5 5 6 6 5 5 6 5 5 5 5 5 5 5 5 5 5 5 5 5 5 5 5 5 5 5 5 5 5 5 6 6 5 6 5 6 5 5 6 6 5 5 6 5 5 6 5 5 6 5 6 5 5 5 5 6 5 5 5 5 6 5 6 6 5 6 5 5 6 6 5 5 5 6 5 5 5 5 6 6 5 5 5 5 5 6 5 5 5 5 5 5 5 5 5 5 5 6 5 6 5 6 5 5 6 5 6 5 5 5 5 5 5 5 5 6 5 5 6 5 5 5 5 6 5 5 5 5 5 5 5 5 5 5 5 5 6 5 5 5 5 5 5 5 5 5 5 5 6 5 5 5 5 5 5 6 5 6 5 5 6 5 5 5 5 5 5 5 5 5 5 5 5 5 5 5 5 5 6 6 5 5 5 6 5 5 6 5 5 5 5 5 5 5 5 5 5 5 5 5 5 5 5 5 5 5 5 5 5 5 5 5 6 6 5 5 5 5 5 5 5 5 5 5 5 6 5 5 5 5 5 5 5 5 5 5 5 5 5 5 5 5 5 5 5 5 5 5 5 5 5 5 5 5 5 5 5 5 5 6 5 5 5 5 5 6 5 5 6 5 5 6 6 5 5 5 5 5 5 5 5 5 5 5 5 5 6 5 5 6 5 5 5 5 5 5 6 5 5 6 5 5 5 5 5 5 5 5 5 5 5 5 5 6 5 5 5 5 5 5 5 6 5 5 5 5 5 5 5 5 5 5 5 5 6 5 5 6 5 5 5 5 5 5 5 5 5 5 5 5 5 5 5 5 5 5 5 5 6 5 5 6 5 6 5 5 5 6 5 5 6 5 6 5 5 5 6 5 5 5 5 6 5 5 5 5 5 5 5 6 5 5 5 6 5 5 5 5 5 5 5 5 5 5 5 5 6 5 5 5 5 5 5 5 5 6 5 5 5 5 5 5 5 5 5 5 5 6 5 5 5 5 5 5 5 5 5 5 5 5 5 5 5 5 5 5 5 6 6 5 5 5 6 5 5 5 5 5 5 5 5 5 5 5 5 6 5 5 5 5 5 5 5 5 5 6 5 5 5 5 5 5 5 5 5 5 5 5 5 5 5 5 6 5 6 5 5 5 5 5 6 5 5 5 5 6 5 5 5 6 5 5 5 6 5 5 5 5 5 5 5 5 5 6 5 5 5 6 5 5 6 5 5 5 5 5 5 6 5 5 5 5 5 5 5 5 6 5 5 5 6 5 5 5 5 5 5 5 5 5 5 5 5 5 5 5 5 5 5 5 5 5 5 5 5 5 5 5 6 5 5 5 5 5 5 5 6 5 5 5 5 5 5 5 5 5 5 5 5 5 5 5 5 5 5 5 5 5 5 5 5 5 6 5 6 5 5 5 5 5 5 6 5 5 5 6 5 5 6 5 5 5 5 5 5 5 5 5 5 5 5 6 5 5 5 5 5 6 5 5 5 5 5 5 5 5 5 5 5 5 5 6 5 5 5 6 5 5 5 5 5 5 5 5 5 5 5 5 6 6 5 5 5 5 6 5 5 5 5 5 5 5 5 5 6 6 5 5 5 5 5 6 5 5 5 5 5 6 5 5 5 5 5 6 5 6 5 5 5 5 6 5 6 5 6 6 5 5 5 5 5 5 5 6 6 5 5 5 5 5 5 6 6 6 5 6 6 5 5 5 6 5 5 5 5 5 6 6 6 5 6 5 5 5 6 5 6 6 5 5 5 5 5 5 5 6 6 5 5 6 6 6 5 5 5 5 5 5 5 5 5 5 5 5 5 5 5 5 5 5 5 5 5 5 5 5 5 5 5 5 5 5 5 5 5 5 5 5 5 5 5 5 6 5 5 5 5 5 5 5 5 5 5 6 5 5 5 5 5 5 6 5 5 6 5 5 5 5 5 5 5 5 5 5 5 5 5 6 5 6 5 5 5 5 6 5 5 5 6 5 5 6 5 5 5 6 5 5 6 5 5 5 5 5 6 5 5 5 5 5 5 5 6 5 5 5 5 5 5 5 6 5 5 6 5 5 5 5 6 5 6 5 5 5 5 5 6 5 5 5 5 6 5 5 5 5 5 5 6 6 5 5 5 5 5 6 5 5 6 5 5 5 5 5 5 5 5 5 5 6 5 5 5 5 5 5 5 5 5 5 5 5 5 5 5 5 5 5 6 5 5 5 5 5 5 6 5 5 5 5 5 5 5 6 6 5 5 5 5 6 5 5 5 5 5 5 5 6 5 5 6 5 6 6 6 5 5 5 5 5 5 6 5 5 5 5 5 6 5 5 5 5 6 5 5 5 6 5 5 5 6 5 5 5 5 5 5 5 5 5 5 5 5 5 5 5 5 5 5 5 5 5 5 5 5 5 6 5 5 5 5 5 5 5 6 5 6 5 5 5 5 5 5 6 5 5 6 5 5 5 6 5 5 6 5 5 5 5 5 6 5 5 5 6 6 5 5 5 5 5 5 5 5 5 5 5 5 6 5 5 5 5 5 5 5 5 5 6 5 5 5 5 5 6 6 5 5 5 5 5 5 5 5 5 6 5 5 5 5 5 5 5 5 6 5 5 5 5 5 5 5 5 5 5 5 5 5 5 5 5 5 5 6 5 5 5 5 6 5 6 5 6 5 5 5 5 5 5 5 5 5 5 5 5 5 5 5 5 5 6 5 5 5 5 5 6 5 5 5 6 6 5 5 5 5 5 6 5 5 5 5 6 5 5 5 5 5 5 5 5 6 5 5 5 5 5 5 5 6 5 5 5 5 5 5 5 5 5 6 5 5 5 5 5 5 5 5 5 5 5 5 5 5 5 5 5 5 6 5 5 5 5 5 5 5 5 5 5 5 5 5 6 5 5 5 5 5 5 6 5 5 6 5 5 6 5 5 5 5 5 5 5 5 5 5 5 5 5 5 5 5 5 5 5 5 5 5 5 5 5 5 6 5 6 5 6 6 5 5 5 6 5 5 5 5 5 5 5 5 5 6 6 5 6 5 5 5 5 5 5 5 5 5 5 5 5 5 5 6 5 6 6 5 6 5 5 5 5 5 5 5 5 5 6 6 5 5 5 5 5 5 5 5 5 5 5 5 5 5 5 5 5 5 5 5 5 5 6 5 5 5 5 5 6 5 5 5 5 5 6 5 5 5 6 5 5 5 5 5 5 5 5 5 6 5 5 5 5 6 5 5 5 5 5 5 6 5 5 5 5 5 5 5 6 5 5 5 5 6 5 5 5 5 5 5 5 5 5 5 6 5 5 5 5 6 5 5 5 6 5 5 5 5 5 6 5 5 5 5 5 5 5 5 5 5 5 5 5 5 6 6 5 5 6 5 5 5 5 5 5 5 6 5 5 5 5 5 5 6 5 5 5 5 5 5 5 5 5 5 5 5 5 5 5 5 5 5 5 5 5 5 5 6 5 5 5 5 5 5 5 5 6 5 5 5 5 6 5 5 5 5 5 6 5 6 5 6 5 5 5 5 5 5 5 6 5 5 5 6 5 5 5 5 5 6 5 5 5 5 5 6 5 6 5 5 6 5 6 5 5 5 5 5 6 5 5 5 6 5 5 5 5 5 5 5 5 5 5 6 5 5 5 5 5 5 5 5 5 5 5 5 5 5 5 5 5 5 5 5 5 5 6 5 5 5 5 5 5 5 5 5 5 5 5 5 5 5 5 5 5 6 5 5 5 6 5 5 5 5 5 5 6 5 5 5 6 6 5 6 5 6 6 5 6 5 5 6 5 5 6 6 5 5 5 5 5 5 5 5 6 5 6 5 5 5 5 5 5 5 5 5 5 5 5 5 5 5 5 5 5 5 5 5 5 6 5 5 5 5 5 5 5 5 6 5 5 6 5 5 6 6 5 5 6 5 5 5 5 5 5 5 5 5 5 5 5 5 5 5 5 5 5 5 5 5 5 5 5 5 5 5 5 5 5 5 5 5 5 5 5 5 5 5 6 5 6 5 5 5 5 5 5 5 5 5 5 5 5 5 5 5 5 5 5 5 5 5 5 5 5 5 5 5 5 5 5 5 5 5 5 5 5 5 5 5 5 6 5 5 6 5 5 5 5 5 6 5 6 5 5 6 5 5 5 5 5 5 6 5 5 5 5 5 5 5 5 5 5 5 6 5 5 6 6 5 6 5 5 6 5 5 5 5 6 5 5 5 5 5 5 5 5 5 6 5 6 5 5 5 5 5 5 5 6 5 6 5 5 5 5 5 5 5 5 5 6 5 6 5 5 5 5 5 5 5 5 5 5 6 5 5 5 6 5 5 6 5 5 6 5 5 5 5 6 5 5 5 6 5 5 5 5 5 5 5 5 5 5 5 5 5 5 6 5 5 5 5 5 5 6 5 6 5 6 5 5 5 6 5 5 5 5 5 5 5 5 6 5 5 5 5 5 6 5 5 6 5 5 5 5 5 5 5 5 5 6 5 5 5 6 5 5 5 5 5 5 6 5 5 5 5 5 5 5 5 5 5 5 5 5 5 5 5 5 5 5 5 5 5 5 5 5 5 5 5 5 5 5 6 5 5 5 5 5 6 5 5 6 6 5 5 5 5 6 5 5 5 5 5 6 5 5 5 5 5 5 5 5 5 5 5 5 5 5 5 5 6 5 5 5 5 5 5 5 5 6 6 5 5 5 5 5 5 6 5 5 5 5 6 5 5 5 5 5 5 5 5 5 5 5 5 5 5 5 5 5 5 5 5 5 5 5 5 6 5 5 6 5 5 5 5 5 5 5 5 5 5 5 5 5 5 5 5 5 5 5 5 5 5 5 5 5 5 5 6 5 6 5 5 5 5 5 6 5 5 5 5 5 5 5 5 5 5 5 5 5 5 5 5 5 5 5 5 6 6 5 6 5 5 5 5 5 5 5 5 5 5 5 5 5 5 5 5 6 5 5 5 6 5 5 5 5 5 5 5 5 5 5 5 5 5 6 5 5 5 5 5 5 5 5 5 5 5 5 5 5 5 5 5 5 5 5 5 5 6 5 5 5 5 5 5 5 5 5 5 5 5 5 6 5 6 5 5 6 6 5 5 5 5 5 5 5 5 5 5 5 5 5 5 5 5 5 5 5 5 6 5 5 6 5 5 5 6 5 5 5 5 5 5 6 5 5 5 6 5 5 5 5 5 5 5 5 6 5 5 6 5 5 6 5 6 5 5 5 5 6 6 5 5 6 6 5 5 6 5 5 5 5 6 5 5 6 6 5 6 5 5 5 5 5 5 5 5 5 5 5 5 5 5 5 5 5 5 5 5 6 5 5 5 5 6 5 5 5 5 6 6 5 5 5 5 5 5 5 5 5 5 5 5 6 5 5 5 6 5 5 5 5 5 5 5 6 5 5 5 6 5 5 6 6 5 5 5 6 5 5 5 6 5 5 5 5 5 5 5 5 5 5 5 5 5 5 5 5 5 5 6 5 5 5 5 5 5 5 5 5 5 5 5 5 5 5 5 5 5 6 6 5 5 5 5 5 6 6 5 6 5 5 5 5 5 5 5 5 5 6 5 5 5 6 5 5 5 5 5 5 5 5 5 5 5 5 5 5 6 5 5 5 5 5 5 5 6 5 5 6 5 5 5 5 5 5 6 5 5 5 5 6 5 5 5 5 5 5 6 5 5 5 5 5 5 5 5 6 6 5 5 5 6 6 5 5 5 5 5 6 5 5 5 5 5 5 6 5 5 5 5 6 5 5 5 5 5 6 5 5 5 5 6 5 5 5 5 5 5 5 5 5 5 5 5 5 5 5 5 5 5 5 5 5 5 5 5 5 6 5 5 5 5 6 5 6 5 6 5 5 6 5 5 6 5 5 6 5 5 5 5 5 5 6 5 5 6 5 6 6 6 5 5 6 5 6 6 5 5 5 6 5 6 5 5 5 5 5 5 6 5 5 5 6 5 5 5 5 5 5 5 6 5 5 5 6 5 6 6 5 5 5 5 5 5 5 6 5 5 5 5 5 5 5 5 6 6 5 5 5 5 6 5 5 6 5 5 5 6 5 5 5 6 6 5 5 5 5 6 5 5 5 5 5 6 6 5 5 5 5 5 5 5 5 5 5 5 5 5 5 5 5 5 5 5 5 5 5 5 5 5 5 5 5 5 5 5 6 5 5 5 6 5 5 5 5 5 5 5 5 5 5 5 5 5 5 5 6 5 6 6 5 5 6 5 5 5 5 5 5 5 5 5 5 5 5 5 5 5 5 5 5 5 5 5 5 5 6 5 5 6 6 5 5 5 5 5 5 5 6 5 5 5 6 5 5 5 5 6 6 5 5 5 5 5 5 5 6 5 5 5 5 6 5 5 5 5 6 5 5 5 5 5 5 5 5 5 5 5 5 5 5 5 5 5 5 5 6 5 5 5 5 5 5 5 5 5 5 5 5 5 5 5 5 6 5 5 5 6 5 5 5 5 5 5 5 5 5 6 5 5 5 5 5 5 5 5 5 5 5 5 5 5 5 5 5 5 5 5 5 6 5 5 5 5 5 5 5 5 5 5 5 5 5 5 5 5 5 6 5 5 5 5 5 6 5 5 5 5 5 5 5 5 5 5 5 5 5 5 5 5 5 5 5 5 5 5 5 5 5 5 5 6 5 5 6 5 5 5 6 5 5 5 5 5 5 5 5 5 5 5 5 5 5 5 6 5 6 5 5 5 5 5 5 5 5 5 6 5 5 5 5 5 5 5 5 5 6 6 5 5 5 5 5 5 5 5 5 5 5 5 5 5 5 5 5 5 5 5 5 5 5 5 5 5 5 5 5 5 5 5 5 5 5 5 5 5 5 5 5 5 5 5 5 5 5 5 5 5 5 5 5 5 5 5 5 5 5 5 5 5 5 5 5 5 5 5 5 5 5 6 5 5 5 5 5 5 6 5 5 5 5 5 5 5 5 5 6 5 6 5 5 5 5 5 5 5 5 5 5 5 5 5 5 5 5 5 5 5 5 5 5 5 5 5 5 5 5 5 5 5 5 5 5 6 5 5 5 6 6 5 5 5 5 5 5 5 5 5 5 5 5 5 5 5 5 5 5 5 5 5 5 6 6 5 5 5 5 5 5 5 5 6 5 5 5 5 5 5 6 5 5 5 5 5 6 5 5 5 5 6 5 5 5 6 5 5 5 6 5 5 6 5 5 5 5 5 5 5 5 5 5 5 5 5 6 5 5 5 5 5 5 5 5 6 5 5 5 5 5 5 5 5 5 5 5 6 5 5 5 6 5 5 5 5 6 5 5 5 5 5 5 5 5 6 5 6 5 5 6 5 5 5 5 5 6 5 5 5 5 5 5 5 5 5 5 5 5 6 5 5 5 5 5 5 5 5 5 6 5 5 5 5 5 5 6 5 5 5 5 5 5 5 6 5 5 5 5 5 6 5 5 5 5 5 5 5 5 5 5 5 5 5 5 5 5 5 5 5 5 5 5 5 5 5 5 5 5 5 5 5 5 5 5 5 5 5 5 5 5 5 5 5 5 5 5 5 6 5 6 5 5 5 5 5 5 5 5 5 5 5 5 5 5 6 5 5 5 5 5 5 5 5 5 5 5 5 5 5 5 6 5 5 6 5 6 5 5 5 5 5 6 5 5 5 5 5 5 5 5 5 5 5 5 5 5 5 5 5 5 5 5 6 5 5 5 5 5 5 5 5 5 5 5 6 5 6 5 5 6 5 6 5 5 5 5 5 5 5 6 5 6 5 5 5 5 6 5 5 5 5 6 6 5 5 6 5 5 5 5 5 5 5 5 5 5 5 5 5 5 5 5 6 5 5 5 5 5 5 5 5 5 5 5 5 5 5 6 5 6 5 5 5 5 5 5 5 6 5 6 5 5 5 5 5 5 5 5 5 6 6 5 5 5 6 5 5 5 5 6 5 6 5 5 6 5 6 6 6 5 5 6 5 5 5 6 6 6 5 5 5 5 5 5 5 5 5 5 5 6 5 5 5 5 5 5 6 5 5 5 6 5 5 5 5 5 5 5 5 6 5 5 5 6 5 5 5 5 5 5 5 5 5 5 5 5 5 5 5 5 5 5 5 5 5 5 5 5 5 5 5 5 5 5 5 5 5 5 5 5 5 5 5 5 5 5 5 5 5 5 5 5 5 5 5 5 5 5 5 5 5 5 5 5 6 5 5 5 5 5 6 5 5 5 5 6 5 5 5 6 5 5 5 5 5 5 5 5 5 5 5 5 5 5 5 5 5 5 5 5 5 5 5 5 5 5 5 5 5 5 5 5 5 5 5 5 5 5 5 5 6 5 5 6 5 5 5 5 5 5 5 6 5 5 5 5 5 5 5 5 5 5 5 6 5 5 6 5 6 5 5 5 6 5 5 5 5 5 5 5 5 6 5 5 5 5 6 5 5 5 5 6 5 6 5 5 5 5 5 5 5 5 5 5 5 5 6 5 6 5 5 5 5 5 5 5 5 5 5 5 5 5 6 5 5 5 5 5 5 5 5 5 6 5 5 5 6 5 5 5 5 5 5 5 5 5 5 5 5 5 5 5 5 5 5 5 5 5 5 5 5 5 5 5 5 5 5 5 5 5 5 5 6 5 5 6 5 5 5 5 6 5 5 5 5 5 5 5 5 5 5 5 5 5 5 5 6 5 5 5 5 5 5 5 5 5 6 5 6 5 5 5 5 5 5 5 6 5 5 5 5 5 5 5 5 5 5 5 5 5 5 6 5 5 5 5 5 5 5 5 5 5 5 6 5 5 5 5 5 5 5 5 5 5 5 5 5 5 5 5 5 5 5 5 5 5 5 6 5 6 5 5 5 5 5 5 6 5 6 5 5 5 6 5 5 5 6 5 5 5 6 5 5 6 5 5 5 5 5 5 5 6 5 5 5 5 5 5 5 6 5 5 5 5 5 5 5 5 5 5 5 5 5 6 5 5 5 5 5 5 5 5 6 5 5 5 5 5 5 5 5 5 5 5 5 5 5 5 5 5 5 5 5 6 5 5 5 5 5 5 5 5 5 5 5 5 5 5 5 5 5 5 5 5 5 5 5 5 5 5 5 5 5 5 5 5 5 5 5 5 5 5 5 5 5 5 5 5 5 5 5 5 5 5 6 5 6 5 5 5 6 5 5 6 6 5 6 5 5 5 5 5 5 5 5 5 5 5 5 5 5 5 5 5 5 5 5 5 5 5 5 5 5 5 5 5 5 5 5 5 5 5 6 5 5 5 5 6 5 5 6 5 5 5 6 5 5 5 5 6 5 6 6 5 5 5 5 6 5 5 5 6 5 5 5 6 5 5 5 5 5 5 6 5 5 5 5 5 5 5 5 5 5 5 5 5 5 5 5 5 5 5 5 6 5 5 5 5 5 5 5 5 5 5 5 5 5 5 5 5 5 5 6 5 5 6 5 5 6 5 5 5 5 5 5 5 5 5 5 5 6 5 5 5 5 6 5 5 5 5 6 5 5 5 6 5 5 5 5 5 5 5 5 5 5 5 5 5 5 5 5 5 5 5 5 5 5 5 5 5 6 5 5 5 5 5 5 5 5 6 5 5 5 6 5 5 5 5 5 5 5 5 5 5 5 5 5 5 5 5 5 5 5 5 5 5 5 5 6 5 5 5 6 5 5 5 5 5 5 5 5 6 5 5 6 5 5 5 5 6 5 5 5 5 5 5 5 6 5 6 5 5 6 5 5 6 6 5 5 5 5 5 5 5 5 5 5 5 5 5 5 5 5 5 5 5 5 5 6 5 5 5 5 6 5 5 5 5 5 5 5 5 5 5 5 5 5 6 5 5 6 5 5 5 5 5 5 5 5 5 5 5 5 5 5 5 5 5 5 5 5 5 5 5 5 5 5 5 5 5 5 5 5 5 5 5 5 5 5 5 5 5 5 5 5 5 5 5 5 5 5 5 5 5 5 5 5 5 5 5 5 5 5 5 5 5 5 5 5 5 5 5 5 5 5 5 5 5 5 5 5 5 5 5 5 5 5 5 5 5 5 5 5 5 5 5 5 5 5 5 5 5 5 5 5 5 5 5 5 5 5 5 5 5 5 5 5 5 5 5 5 5 5 5 5 5 5 5 5 6 5 5 5 5 5 5 5 6 5 5 5 5 5 5 5 5 5 6 5 6 5 5 5 6 5 5 6 5 5 5 5 5 5 5 5 5 5 5 5 5 5 5 5 5 5 5 5 5 5 5 5 5 5 5 5 5 5 5 5 5 5 5 5 5 6 5 5 6 6 5 5 6 5 5 6 5 5 5 6 5 5 5 5 5 5 5 5 5 6 5 5 5 5 5 5 6 5 5 5 5 5 5 5 5 5 5 5 5 5 5 5 5 5 5 5 5 5 5 5 5 5 5 5 5 5 5 5 6 5 5 5 5 5 5 5 5 5 5 5 5 5 5 5 5 5 5 5 5 5 5 5 5 5 5 5 5 5 5 5 5 5 5 5 5 5 5 5 5 5 5 5 5 5 5 6 5 6 5 5 5 5 6 5 5 5 5 6 5 5 5 5 6 5 5 5 5 5 5 5 5 6 5 5 6 5 6 5 5 5 5 6 5 5 6 6 5 5 5 5 5 5 6 5 5 5 5 5 5 5 5 5 5 6 6 5 5 5 5 5 6 5 5 6 5 5 5 5 6 5 5 6 5 5 5 5 5 5 5 5 5 5 5 5 5 5 5 5 5 5 5 5 5 5 5 5 5 5 5 5 5 6 5 6 5 5 5 5 5 5 5 5 5 5 5 5 5 6 5 5 5 5 6 6 5 5 5 5 5 5 5 5 5 5 5 5 5 5 5 5 5 5 5 5 5 5 5 5 5 5 5 5 5 5 5 5 5 5 5 5 5 5 5 5 5 5 6 5 5 5 6 5 5 5 5 5 5 5 5 5 5 5 5 5 5 5 5 5 5 5 5 6 5 5 6 5 5 5 5 5 5 5 5 5 6 5 5 5 5 5 6 5 5 5 5 5 6 5 6 5 5 5 5 5 5 5 5 5 5 5 5 5 6 5 5 5 6 6 5 5 5 5 5 5 5 5 6 5 5 6 5 5 6 6 5 5 5 5 5 6 5 5 5 5 5 5 5 6 5 5 6 6 5 5 5 5 5 5 6 6 5 5 5 6 5 5 5 5 5 5 5 6 5 5 5 5 5 5 5 5 5 5 5 5 5 5 5 5 5 5 5 5 5 5 5 5 5 5 6 5 5 5 5 5 5 5 6 5 5 5 5 5 5 5 5 5 5 5 6 5 5 5 5 5 5 5 5 6 5 5 5 5 5 5 5 5 5 5 5 5 5 5 5 5 6 5 5 5 6 5 5 5 5 5 6 5 5 5 5 5 5 5 5 5 5 5 5 5 5 6 5 5 5 5 6 5 5 6 5 5 5 5 5 6 5 5 5 5 5 5 5 5 5 5 5 5 5 5 6 5 6 5 5 5 6 5 6 5 6 5 5 5 5 5 5 6 6 5 5 5 5 5 5 6 5 6 5 5 5 5 5 5 5 5 5 5 5 5 5 5 5 5 5 6 5 5 5 6 6 5 5 5 5 5 6 5 5 6 6 5 5 5 5 5 5 5 5 5 5 5 5 5 5 5 5 5 5 5 5 5 5 5 5 5 5 5 5 5 5 5 5 5 5 5 5 5 5 5 5 5 5 5 5 6 5 5 6 6 6 5 5 5 5 5 5 6 5 5 5 5 5 5 5 5 5 6 5 5 5 6 5 5 5 5 5 5 5 5 5 5 5 5 5 5 5 5 5 5 5 5 6 5 5 5 5 6 5 5 5 5 5 5 5 5 5 5 5 5 5 5 5 5 5 5 5 5 5 5 5 5 5 5 5 5 5 5 5 5 5 5 6 5 6 5 5 5 5 5 5 5 5 6 5 5 5 6 5 6 5 5 5 5 5 5 5 5 6 5 5 5 5 6 5 5 5 5 6 5 5 5 5 5 5 5 6 5 5 5 5 6 5 5 5 5 5 5 5 5 5 5 5 5 5 5 5 5 5 5 5 5 5 5 5 5 5 5 5 5 5 5 5 5 5 5 5 5 5 5 5 5 5 5 5 5 5 5 6 5 5 5 5 6 6 5 5 6 6 5 5 5 5 5 5 5 5 5 5 5 5 5 5 5 5 5 5 5 6 5 5 5 6 6 5 5 5 5 5 5 5 5 5 5 5 5 5 5 5 5 5 5 5 5 5 5 5 5 5 5 5 6 5 5 5 5 5 5 5 6 5 5 5 5 5 5 5 5 5 5 5 5 5 5 5 6 5 5 5 5 5 5 5 5 6 5 6 6 5 5 5 5 5 5 5 5 5 5 5 5 6 5 5 5 5 5 5 5 5 5 5 5 5 5 5 5 5 5 5 6 5 5 5 6 5 5 5 5 5 5 5 5 6 5 5 5 5 5 5 5 5 5 5 5 5 5 5 5 6 5 5 5 6 5 5 5 5 5 5 5 5 5 5 5 5 5 5 5 5 5 5 5 5 5 5 5 5 5 5 5 5 5 5 5 5 5 6 5 6 5 5 5 5 5 5 5 5 6 5 5 5 5 5 5 5 5 5 6 5 5 6 5 5 5 5 5 6 5 5 5 5 6 5 5 5 5 6 5 5 5 6 5 6 5 5 6 5 5 5 5 5 5 5 5 5 5 5 5 5 5 6 5 5 6 5 6 5 5 5 6 5 5 6 5 5 5 5 6 5 6 5 5 5 5 5 5 6 5 6 5 5 5 5 5 6 5 5 5 5 6 5 5 5 5 5 5 6 5 5 5 5 5 5 5 5 5 5 5 5 5 5 5 5 5 5 5 5 5 5 5 5 5 5 5 5 5 5 5 5 5 6 6 5 5 5 5 5 5 5 5 5 5 6 5 5 6 6 5 6 5 5 5 5 5 5 5 6 5 5 5 5 5 5 5 5 5 5 5 5 6 5 5 5 5 6 5 5 5 5 5 5 5 5 5 5 5 5 6 5 5 5 5 5 5 5 5 5 5 5 5 5 5 5 5 5 6 5 5 5 5 5 6 5 5 5 6 5 5 5 5 5 5 6 5 6 5 5 5 6 5 5 5 5 5 5 5 5 5 6 5 5 6 5 5 5 5 5 5 5 6 5 5 5 5 5 5 5 5 5 5 5 5 5 6 5 5 6 5 5 5 5 5 5 6 5 5 5 5 5 5 6 5 5 5 5 5 5 5 6 5 5 5 5 5 5 5 5 5 5 5 5 5 5 5 5 5 5 5 5 5 5 6 5 5 5 5 5 5 5 5 5 5 6 5 5 5 5 6 6 5 5 5 5 6 5 5 5 5 5 5 5 5 5 6 5 5 5 5 5 5 5 5 5 5 5 6 5 5 5 6 5 5 5 6 5 5 5 5 5 5 5 5 5 5 5 5 6 5 5 5 5 5 6 5 5 6 5 5 5 5 5 5 5 5 5 5 5 5 5 5 6 5 5 5 5 5 5 5 6 5 5 5 6 5 5 5 5 5 6 5 5 5 5 5 5 5 5 5 6 5 5 5 5 5 5 5 5 6 5 5 5 5 5 6 5 5 5 5 5 5 5 6 5 5 5 5 5 5 5 5 5 5 5 5 5 5 5 5 5 5 5 5 5 5 5 5 5 5 5 5 5 5 5 5 5 5 5 5 5 5 5 5 5 5 5 5 5 5 5 5 6 5 5 5 5 5 5 5 6 5 5 5 5 5 5 5 5 5 5 5 5 5 5 5 5 5 5 5 5 5 5 6 6 5 5 6 6 5 5 5 5 5 5 5 6 5 5 5 5 5 5 5 5 5 5 5 5 5 5 6 5 5 5 5 5 5 5 5 6 5 5 6 5 5 5 6 5 5 5 5 5 5 5 5 5 5 5 5 5 5 5 5 5 5 5 5 5 5 5 5 5 5 5 5 6 5 5 5 5 5 5 5 5 6 5 5 5 5 5 5 6 6 5 5 5 5 6 5 5 6 5 5 6 5 5 5 5 5 5 6 5 5 5 5 5 5 5 5 6 5 5 5 5 5 5 5 5 5 5 5 6 5 5 6 5 5 5 5 5 5 5 6 5 5 5 6 5 6 5 6 5 5 5 5 5 5 5 5 5 5 5 5 5 5 5 5 5 6 5 6 5 5 5 5 5 5 5 5 5 5 6 5 5 5 5 5 5 5 6 5 5 5 6 5 6 6 5 5 6 5 5 5 5 6 5 5 5 6 5 5 5 6 5 6 6 5 5 5 5 5 5 6 5 5 5 5 5 5 5 5 6 6 6 5 6 5 5 6 6 5 5 6 5 5 5 5 5 5 5 5 5 5 5 6 5 5 5 5 5 5 5 5 5 5 5 5 5 6 6 5 5 5 5 6 5 5 5 6 5 5 5 5 5 6 6 5 5 5 6 5 5 5 5 5 5 5 5 5 5 5 5 5 5 5 6 5 5 5 6 5 5 5 6 5 5 5 5 5 5 6 5 5 5 5 5 6 5 5 5 5 5 5 5 5 6 5 5 5 5 5 5 5 5 5 6 5 5 5 5 6 5 6 5 5 6 5 6 5 5 5 5 5 5 6 5 6 6 5 5 5 5 5 5 5 5 6 5 6 5 6 5 6 5 5 5 5 5 5 5 5 5 5 5 6 5 5 5 6 5 5 5 5 5 5 5 5 6 5 5 5 5 5 5 5 5 5 6 5 5 5 5 6 5 5 6 5 5 5 5 5 5 5 5 5 6 5 5 5 6 5 5 5 5 5 5 5 5 5 5 5 5 5 5 5 5 5 5 5 6 5 5 5 5 5 5 5 5 5 5 6 5 5 5 5 5 5 5 5 5 5 5 5 5 5 5 5 5 5 5 5 5 5 5 5 5 5 5 5 5 5 5 5 5 5 5 5 5 5 5 5 5 5 5 5 5 6 6 5 5 5 5 5 5 5 5 5 5 5 5 5 6 6 5 5 5 6 5 5 6 5 5 5 6 5 5 5 6 5 5 5 5 5 5 5 5 6 5 5 6 5 6 6 5 5 5 5 5 5 6 5 6 6 6 5 5 6 5 5 6 6 5 5 5 5 5 5 5 5 5 5 5 5 5 5 5 5 5 5 5 5 5 6 5 5 5 5 5 5 5 5 5 6 5 5 5 5 5 5 5 6 6 5 5 5 5 5 5 5 5 5 5 5 5 5 5 5 5 5 5 5 5 5 5 5 6 5 6 5 5 5 5 5 5 5 6 5 5 5 6 6 5 5 6 5 5 5 5 6 5 5 5 6 5 5 5 6 5 5 5 5 5 5 5 5 5 6 6 5 5 5 5 5 6 5 5 6 6 6 5 5 5 5 5 6 5 5 5 5 5 5 5 5 5 6 5 6 5 5 5 5 5 5 5 5 5 5 5 5 5 5 5 5 5 5 5 5 5 5 5 5 6 5 5 5 5 6 6 5 5 5 6 5 5 5 5 5 5 5 5 5 5 5 5 5 5 5 5 6 5 5 5 6 5 5 6 5 5 5 5 5 5 5 5 5 5 5 5 5 6 5 5 6 5 5 5 6 5 6 5 6 5 6 6 6 5 5 5 5 5 5 5 5 6 5 5 5 5 5 5 5 5 6 5 5 6 5 5 5 5 5 5 5 5 5 5 5 5 5 5 5 5 5 5 5 5 5 6 5 5 5 5 5 5 5 5 5 5 6 5 6 5 5 6 5 6 5 6 5 5 6 5 6 5 5 6 5 5 5 6 5 5 5 5 5 5 5 5 5 5 5 5 5 5 5 5 5 5 5 5 5 5 5 5 5 5 5 5 5 5 5 5 5 5 5 5 5 5 5 5 5 5 5 5 5 5 5 5 5 5 5 5 5 5 5 5 5 5 5 5 5 6 5 5 6 5 5 5 5 5 5 6 6 5 5 5 5 5 5 5 5 5 5 5 5 5 5 5 5 5 5 6 5 5 5 6 5 5 5 5 5 5 5 5 5 5 5 5 5 5 5 5 6 5 5 5 5 5 5 5 6 5 5 5 5 5 5 5 5 6 5 6 5 5 5 5 5 5 5 5 5 5 5 5 5 5 5 5 6 5 5 5 5 5 5 5 6 5 5 5 5 6 5 5 5 5 5 5 5 6 5 5 6 6 5 5 6 5 5 5 5 5 5 6 5 5 5 5 5 5 5 5 5 6 5 5 6 5 5 6 5 5 6 5 5 5 5 5 6 5 5 5 5 5 5 5 5 6 5 5 5 5 5 5 5 6 5 5 5 5 5 5 5 5 5 5 5 5 6 5 5 5 5 5 5 5 6 6 5 6 5 6 5 5 5 5 5 5 5 5 5 5 5 5 5 5 5 6 5 6 5 5 5 5 5 5 5 5 6 5 6 5 6 5 6 5 6 5 5 6 5 5 5 5 5 6 5 5 5 5 5 5 5 5 6 5 5 5 5 5 6 5 5 6 5 6 6 5 5 5 5 5 5 5 5 6 5 5 5 5 5 5 5 5 5 5 5 5 5 6 5 5 5 5 5 5 5 6 5 5 5 6 5 5 5 5 5 5 5 5 5 5 5 5 5 5 5 5 5 6 5 5 5 5 5 5 5 6 5 5 6 5 5 5 5 5 5 5 5 5 5 5 5 5 5 5 6 5 5 5 5 6 5 5 5 5 5 5 5 5 5 5 5 5 5 5 5 5 5 5 5 5 5 5 5 5 5 6 5 5 5 5 5 5 6 5 5 5 5 5 5 5 5 5 6 6 5 5 5 6 5 6 5 5 5 5 5 5 5 5 5 5 5 5 5 5 5 6 5 5 5 5 5 5 5 5 5 5 5 5 6 6 5 5 5 5 5 5 5 5 6 5 5 6 5 5 6 6 5 5 5 5 5 5 5 6 5 5 5 5 5 5 5 5 5 6 5 5 5 6 5 5 5 5 5 6 5 5 5 5 5 5 5 5 5 5 5 5 6 5 5 5 6 5 5 5 6 5 5 5 5 5 5 5 5 5 5 5 5 5 5 5 5 5 5 5 5 5 5 5 5 5 5 5 5 5 5 5 5 6 5 5 5 5 5 5 5 5 5 5 5 5 5 5 5 5 5 5 5 5 5 5 5 5 6 5 6 5 5 6 5 5 5 5 5 5 5 5 5 6 5 5 5 5 5 5 5 5 5 5 5 5 5 5 6 5 5 5 5 6 5 5 5 6 5 5 5 5 5 5 5 5 5 5 5 5 5 5 5 5 5 5 5 5 5 5 5 5 5 5 5 5 5 5 5 5 5 5 5 5 5 5 5 5 5 5 5 5 5 5 5 5 5 5 5 5 5 5 5 5 5 5 5 5 5 5 5 5 5 5 5 5 5 5 5 5 5 5 5 5 5 5 5 5 5 5 5 5 5 5 5 5 5 5 5 5 5 5 5 5 5 5 5 5 5 5 5 5 5 5 5 5 5 5 5 5 5 5 5 5 5 5 5 5 5 5 5 5 5 5 5 5 5 5 5 5 5 5 5 5 5 5 5 5 5 5 5 5 5 5 5 5 5 5 5 5 5 5 5 5 5 5 5 5 5 5 5 5 5 5 5 5 5 5 5 5 5 5 5 5 5 5 5 5 5 5 5 5 5 5 5 5 5 6 5 5 5 5 5 5 5 5 5 5 5 5 5 5 5 5 6 5 5 5 5 5 5 5 5 6 5 5 5 5 6 5 5 5 5 5 5 5 5 5 5 5 5 5 5 5 5 5 5 5 5 5 5 6 5 5 5 5 5 5 5 5 5 5 5 5 5 6 6 5 5 5 5 5 6 5 6 5 5 5 5 5 5 5 5 5 5 5 6 5 5 5 5 5 5 5 6 5 5 5 5 5 5 5 5 5 5 5 5 5 5 5 6 6 5 5 5 5 5 5 5 5 5 5 5 5 6 5 5 5 5 5 5 5 5 5 5 5 5 5 5 5 5 6 5 5 5 5 5 5 5 6 5 5 5 5 5 5 5 5 5 5 6 6 5 5 5 5 5 5 5 5 5 5 5 5 5 5 5 5 5 5 5 5 5 5 5 5 5 5 5 5 5 5 6 5 5 5 5 5 6 5 5 5 5 5 5 5 5 5 5 6 5 5 5 5 6 5 5 5 5 5 5 5 5 5 5 6 5 6 5 5 5 5 5 5 5 5 5 5 5 5 5 5 5 5 5 5 5 5 5 5 5 5 5 5 5 5 5 5 5 6 5 5 5 5 5 6 5 5 5 5 5 5 5 5 5 5 5 5 5 5 5 5 5 5 6 5 5 6 5 5 5 6 5 5 5 5 5 6 5 5 5 5 5 5 5 5 5 5 6 5 5 5 5 5 5 6 5 5 5 5 5 6 6 5 5 6 5 5 6 5 5 5 5 5 5 5 5 5 5 6 5 5 6 5 5 6 5 5 6 5 5 6 5 5 6 5 5 5 5 5 5 6 5 5 5 5 5 5 5 5 5 5 5 6 5 5 5 5 5 5 5 6 5 5 5 5 6 5 5 5 6 5 5 5 5 5 5 5 5 5 5 5 6 5 5 5 5 5 5 5 5 5 5 5 5 5 5 5 5 5 5 5 5 5 5 5 5 6 5 5 5 5 5 6 5 5 5 5 5 5 5 5 5 5 5 5 5 5 6 5 5 6 5 6 5 5 5 5 6 5 6 6 5 6 5 5 5 5 5 5 5 6 5 6 5 5 5 5 5 5 6 5 5 5 5 5 5 6 5 5 5 5 6 5 5 5 5 5 6 5 5 6 5 5 5 5 6 5 5 5 5 6 5 5 5 5 5 5 6 5 5 5 5 5 5 5 5 5 6 5 5 5 5 5 5 6 5 5 5 5 6 5 5 5 5 5 5 5 5 5 5 5 5 5 5 5 5 6 5 5 5 6 5 5 6 5 5 5 5 5 5 5 5 5 5 5 5 5 5 5 5 6 5 6 5 5 5 5 5 5 5 5 5 5 5 5 5 5 5 5 5 5 5 5 5 5 5 5 5 5 6 5 5 6 5 5 5 5 5 5 5 5 5 5 6 5 5 5 5 6 5 5 5 5 6 5 5 5 5 5 5 5 5 5 6 5 5 5 5 5 5 5 5 5 5 5 5 5 5 5 5 5 5 5 5 5 5 5 5 5 5 5 5 
</DataArray>
<DataArray type="Float64" Name="stress" NumberOfComponents="9" format="ascii">
-3661665041.4920578 3668456523.9738541 0 3668456523.9738541 2618321.4159507751 0 0 0 0 -1715397824.1567917 4303462895.1824799 0 4303462895.1824799 -1036025340.1724548 0 0 0 0 -839876.66581726074 3704475238.6507187 0 3704475238.6507187 -2632853534.5838318 0 0 0 0 -1298210298.2572174 2683201794.7332001 0 2683201794.7332001 -3297555102.5724716 0 0 0 0 -1130077453.0593414 3395305261.2974472 0 3395305261.2974472 -3281286118.625886 0 0 0 0 -8824019.4665949792 597577.07055171579 0 597577.07055171579 -904436.27290996537 0 0 0 0 -126274950.11346436 -614587660.97891235 0 -614587660.97891235 690710671.04256439 0 0 0 0 -1578522761.3304138 89940345.107063293 0 89940345.107063293 381595544.93697357 0 0 0 0 -4469495278.6633911 3408894133.1525993 0 3408894133.1525993 -1247685986.3386383 0 0 0 0 -3667310897.4718323 4250106717.2433949 0 4250106717.2433949 -4158895112.2444916 0 0 0 0 -1352761633.0025787 1353840083.8051834 0 1353840083.8051834 -680497539.59813118 0 0 0 0 -5575038155.5518341 2695644555.8801498 0 2695644555.8801498 -286960584.77478027 0 0 0 0 3713514.5799942017 17842453.543670654 0 17842453.543670654 4256.8026428222656 0 0 0 0 -4142883.3693391681 376006.85220077075 0 376006.85220077075 -2859094.6335269362 0 0 0 0 -9387986.1280059814 17959104.382886887 0 17959104.382886887 -1368070.4635314941 0 0 0 0 -10963555.41229248 17527762.808044434 0 17527762.808044434 2797.336782181696 0 0 0 0 -7227730.361114502 12086812.662361145 0 12086812.662361145 957248.29319763184 0 0 0 0 -13451145.09967041 19058923.25213623 0 19058923.25213623 -601884.68169403076 0 0 0 0 -9171523.8226443678 4212000.2858145162 0 4212000.2858145162 -3498202.407848686 0 0 0 0 -8192931.4707946777 19757786.106987 0 19757786.106987 -11904192.295440674 0 0 0 0 -10335327.818695068 15392621.23135376 0 15392621.23135376 -2856692.412399292 0 0 0 0 2450075.6297340095 15989736.905713484 0 15989736.905713484 -5188084.5206491277 0 0 0 0 173460239.53501892 -67440658.572387695 0 -67440658.572387695 43427901.648193359 0 0 0 0 346104030.42570496 -36026098.757675171 0 -36026098.757675171 -95487060.748901367 0 0 0 0 128474934.62997437 947302.22862243652 0 947302.22862243652 -4939735.8702392578 0 0 0 0 300278259.54626465 317088694.16830444 0 317088694.16830444 246845290.74621582 0 0 0 0 -25343835.267054863 25279633.450373881 0 25279633.450373881 -8565305.5260629207 0 0 0 0 -85802049.76461792 356915223.33816528 0 356915223.33816528 247667490.30960846 0 0 0 0 48403343.768829346 128188246.11108398 0 128188246.11108398 -9042345.1064147949 0 0 0 0 169542523.9132843 91299653.172454834 0 91299653.172454834 -140572059.67797852 0 0 0 0 -349087527.26055908 98713944.356246948 0 98713944.356246948 847793853.28385162 0 0 0 0 -26071578.166078538 6732229.2230142802 0 6732229.2230142802 377587.05834243819 0 0 0 0 -1588582464.4011765 1142255647.1506615 0 1142255647.1506615 -815237927.86805725 0 0 0 0 -207083285.81304932 82431924.502746582 0 82431924.502746582 -143143023.63827515 0 0 0 0 9818070.1732940674 398806154.28177643 0 398806154.28177643 -226740194.26217651 0 0 0 0 -402516954.40667725 569670932.03105164 0 569670932.03105164 430003750.12593079 0 0 0 0 198206452.5931493 157230042.34033537 0 157230042.34033537 -629608303.90814209 0 0 0 0 18920535.70110321 -23806859.274425507 0 -23806859.274425507 -640683854.32827759 0 0 0 0 76237709.743225098 243443094.41333008 0 243443094.41333008 -544529365.08608246 0 0 0 0 74757096.567871094 270270284.1262207 0 270270284.1262207 -549435841.68615723 0 0 0 0 198706732.3969543 276104549.98756504 0 276104549.98756504 -579563322.63879395 0 0 0 0 -88728042.867797852 227906635.20895386 0 227906635.20895386 -189365813.98767853 0 0 0 0 -376936587.1998291 -155612459.02780151 0 -155612459.02780151 -688770709.49816895 0 0 0 0 -564713015.87657166 360313546.93362427 0 360313546.93362427 -190743076.80322266 0 0 0 0 61275931.028564453 91209866.639709473 0 91209866.639709473 -788480433.37341309 0 0 0 0 321135.33662068471 2074393.0352176502 0 2074393.0352176502 -170828.22933626175 0 0 0 0 -473819990.14398193 428868380.19062805 0 428868380.19062805 -316565919.63043213 0 0 0 0 -410373563.03120422 -275685750.70452118 0 -275685750.70452118 -304775230.68609619 0 0 0 0 -25927.255917944014 743636.0556778498 0 743636.0556778498 1011590.4588908255 0 0 0 0 -134650335.59417725 383063849.00410461 0 383063849.00410461 -72947545.524902344 0 0 0 0 70558507.583740234 268521558.02294159 0 268521558.02294159 -512298473.04992676 0 0 0 0 176224985.33129883 472556258.87988281 0 472556258.87988281 -1109995933.6572876 0 0 0 0 74747298.806152344 238008737.73272705 0 238008737.73272705 -513500005.86623096 0 0 0 0 6966926.1775817871 -1130050.9394836426 0 -1130050.9394836426 -6063864.0707397461 0 0 0 0 -2432928.1333063394 6708017.7649277002 0 6708017.7649277002 6429736.6489868164 0 0 0 0 115666159.2003479 21484896.259628296 0 21484896.259628296 -110524695.43382263 0 0 0 0 -55357779.38067627 -35066010.511871338 0 -35066010.511871338 -76437364.377342224 0 0 0 0 -67435376.709207535 84868815.645320892 0 84868815.645320892 -98891389.115966797 0 0 0 0 -15391141.461883545 103664715.43437576 0 103664715.43437576 -242406056.41195679 0 0 0 0 63154511.75289917 115266145.18504333 0 115266145.18504333 -261116732.95175171 0 0 0 0 570245129.67007446 389844398.56658936 0 389844398.56658936 -78732590.698883057 0 0 0 0 75108199.864898682 163258725.2408905 0 163258725.2408905 -12312440.535797119 0 0 0 0 -24158872.362861805 28744179.581758521 0 28744179.581758521 -10118199.804578111 0 0 0 0 264315190.43743896 79160593.176849365 0 79160593.176849365 45763466.719223022 0 0 0 0 408377027.61949158 77446465.109024048 0 77446465.109024048 -176556808.42224121 0 0 0 0 61863741.75769043 200057643.32896423 0 200057643.32896423 -135816713.81900024 0 0 0 0 -126511676.31213379 -156876969.25587463 0 -156876969.25587463 6571279.9106903076 0 0 0 0 4203583.6097806841 2693234.078502439 0 2693234.078502439 -3132909.0760764778 0 0 0 0 54509391.843139648 -121214186.54536438 0 -121214186.54536438 -217309362.54908752 0 0 0 0 -67516097.624816895 -29666768.120834351 0 -29666768.120834351 -132455527.59855652 0 0 0 0 210756704.93638611 139163074.46724701 0 139163074.46724701 -8889735.5753173828 0 0 0 0 316112266.27340698 90118955.119369507 0 90118955.119369507 -51839388.964065552 0 0 0 0 343490997.09179688 37848533.21172142 0 37848533.21172142 -16548608.143585205 0 0 0 0 348627480.18939209 52979724.461166382 0 52979724.461166382 -29315283.908233643 0 0 0 0 179755700.3634491 -125139999.62604141 0 -125139999.62604141 -82452948.806610107 0 0 0 0 304999089.56227112 65041763.750125885 0 65041763.750125885 -61844979.815124512 0 0 0 0 -97295496.242156982 72046641.779006958 0 72046641.779006958 93063820.511428833 0 0 0 0 7473413.0953434259 5405113.2361618578 0 5405113.2361618578 -1422052.5965616554 0 0 0 0 6281866.4195022583 11788476.585168839 0 11788476.585168839 3292908.7236328125 0 0 0 0 2443812.4857177734 5106050.0933685303 0 5106050.0933685303 5230979.3066101074 0 0 0 0 1577299.7534341216 8030179.2649233565 0 8030179.2649233565 429455.40808045468 0 0 0 0 83305738.591400146 41315329.6510849 0 41315329.6510849 -118532310.38467407 0 0 0 0 10660524.525253296 23195325.099208832 0 23195325.099208832 -45023926.449127197 0 0 0 0 17536325.82776913 14031961.788458362 0 14031961.788458362 -5677552.9815467726 0 0 0 0 -9981373.3842468262 -143064027.25351715 0 -143064027.25351715 -33367327.173812866 0 0 0 0 7839586.5920715332 12522487.726455688 0 12522487.726455688 5444627.8497314453 0 0 0 0 -13334535.306411743 29036162.457252502 0 29036162.457252502 21113897.75642395 0 0 0 0 29910005.82131958 -16994061.036552429 0 -16994061.036552429 13329412.206466675 0 0 0 0 -1712252.3392595164 8766468.2021701559 0 8766468.2021701559 4884336.5242024362 0 0 0 0 -16752830.698455811 -3964441.7658004761 0 -3964441.7658004761 26648243.762199402 0 0 0 0 -381516.53775024414 16186657.757369995 0 16186657.757369995 -13263409.558849335 0 0 0 0 -6509890.09324646 14207254.348251343 0 14207254.348251343 9947312.3399047852 0 0 0 0 965457.6012878418 9346388.5071792603 0 9346388.5071792603 -15543459.688045502 0 0 0 0 1446013.1788787842 10536645.733413696 0 10536645.733413696 -18233326.763061523 0 0 0 0 -1157814079.8092346 1376482884.1222229 0 1376482884.1222229 -1475513368.0761719 0 0 0 0 -12784337.680595398 -4095035.9958457947 0 -4095035.9958457947 21292918.316436768 0 0 0 0 -1277105.5071184337 -1251282.2697252706 0 -1251282.2697252706 -1294773.6888335645 0 0 0 0 62508.871297132224 418444.96842189133 0 418444.96842189133 -226754.05093941092 0 0 0 0 1823199.2619507797 5770159.9141267613 0 5770159.9141267613 -4439522.1229896098 0 0 0 0 -7172968.1822509766 8654968.5004501343 0 8654968.5004501343 -5902054.7272186279 0 0 0 0 -4141143.1691894531 6705176.23487854 0 6705176.23487854 -7118582.9595718384 0 0 0 0 2000410.6915707588 7277928.091103889 0 7277928.091103889 -4919977.0693608522 0 0 0 0 -10279196.550994873 14214610.239776611 0 14214610.239776611 -619380.9467010498 0 0 0 0 -8870921.8670959473 24604044.678153992 0 24604044.678153992 -3135099.6402893066 0 0 0 0 -2103641.4967041016 -18743678.93963623 0 -18743678.93963623 -7541396.6493225098 0 0 0 0 -5795067.2580566406 19588936.219207764 0 19588936.219207764 -28754115.618591309 0 0 0 0 -16344047.163299561 23358112.943862915 0 23358112.943862915 10804944.631362915 0 0 0 0 1507276.2473033816 -1238108.1232319921 0 -1238108.1232319921 -3348528.5171527043 0 0 0 0 -10107168.831420898 -4632969.9808502197 0 -4632969.9808502197 70617230.85093689 0 0 0 0 -1981271.7062988281 1597490720.0941467 0 1597490720.0941467 -2526569363.140976 0 0 0 0 -811993413.65083313 1605208966.4418068 0 1605208966.4418068 -1988096449.9008484 0 0 0 0 -1341690869.7208252 2308375113.6920624 0 2308375113.6920624 -1889948399.0849686 0 0 0 0 -2163815.9037580462 2485348137.396349 0 2485348137.396349 -2555343245.4765625 0 0 0 0 -1323595600.5430908 2111511817.5003586 0 2111511817.5003586 -1195183201.7423401 0 0 0 0 -3002271384.4937592 3288904888.286499 0 3288904888.286499 -1501717018.8675842 0 0 0 0 -3332298781.2821217 1576300826.7797766 0 1576300826.7797766 -205303260.91136169 0 0 0 0 -1017706922.2957153 518596372.76132202 0 518596372.76132202 -212282065.57431722 0 0 0 0 -284097275.49582863 609552379.41844845 0 609552379.41844845 -600376862.17297363 0 0 0 0 -354396305.49822998 -125049880.43797302 0 -125049880.43797302 -192359563.88899231 0 0 0 0 -85578321.023193359 223334163.36889648 0 223334163.36889648 -567836294.04345703 0 0 0 0 -977626348.09729004 428200531.54116821 0 428200531.54116821 -282643370.11392212 0 0 0 0 868987.25928652287 419227.69909401983 0 419227.69909401983 -1887305.4373321161 0 0 0 0 -595156782.98080444 1009610949.6348572 0 1009610949.6348572 -1086945443.9417572 0 0 0 0 -893995185.4453125 873172381.52453613 0 873172381.52453613 -902633179.26806641 0 0 0 0 -2217825547.250061 1575956705.3874969 0 1575956705.3874969 -609121543.57904053 0 0 0 0 10867796.713625649 7502798.5506570898 0 7502798.5506570898 218787.05821961164 0 0 0 0 -255225352.94950962 -95599170.910346985 0 -95599170.910346985 603163046.56137085 0 0 0 0 -36564582.428596497 83010808.846664429 0 83010808.846664429 -29585155.350364685 0 0 0 0 18207334.214227676 53897895.503344536 0 53897895.503344536 -16660496.440216064 0 0 0 0 17231097.799133301 65391402.180175781 0 65391402.180175781 -93387578.390655518 0 0 0 0 10876923.677879333 145888077.55274963 0 145888077.55274963 38328505.201721191 0 0 0 0 -40030260.237289429 68696354.987052917 0 68696354.987052917 -39149374.974121094 0 0 0 0 3532692.8664056966 84233.467496600002 0 84233.467496600002 27706.30160702765 0 0 0 0 -332514663.41085052 82154946.82106781 0 82154946.82106781 162272397.52856445 0 0 0 0 617374400.69494343 636675753.2789259 0 636675753.2789259 512176822.27392578 0 0 0 0 533074745.30110741 517152601.88927746 0 517152601.88927746 155870216.90249634 0 0 0 0 549734570.07766151 632325608.85441685 0 632325608.85441685 368994963.293396 0 0 0 0 226771697.25192261 291158967.86283112 0 291158967.86283112 750988.06167602539 0 0 0 0 -104070812.402565 295275855.08061218 0 295275855.08061218 349250928.489151 0 0 0 0 37232405.890487671 148309571.68478394 0 148309571.68478394 37144825.059875488 0 0 0 0 101179932.33440399 177021215.96063995 0 177021215.96063995 5587752.4179992676 0 0 0 0 41156204.259971619 191903694.25708771 0 191903694.25708771 168322794.29943848 0 0 0 0 152958578.58780289 208077791.03466797 0 208077791.03466797 -41855.542755126953 0 0 0 0 188281922.25423431 279865699.23722839 0 279865699.23722839 144246903.58337402 0 0 0 0 184517530.5907135 132154359.98716736 0 132154359.98716736 93213712.302459717 0 0 0 0 223953847.74645996 176671668.45532227 0 176671668.45532227 -84318093.923126221 0 0 0 0 97395355.763137817 200966490.01596069 0 200966490.01596069 124512865.39646912 0 0 0 0 100045801.54768372 99565617.997688293 0 99565617.997688293 -80602229.140838623 0 0 0 0 98914505.373130798 22463912.90605545 0 22463912.90605545 -183855811.78210449 0 0 0 0 82234203.245437622 51165329.451431274 0 51165329.451431274 -102231683.71101379 0 0 0 0 137096264.34207153 101112814.52656555 0 101112814.52656555 -137198027.20794678 0 0 0 0 63636480.560386658 101480914.39668274 0 101480914.39668274 -70205110.814788818 0 0 0 0 82400974.593002319 147906448.27973938 0 147906448.27973938 15703454.596607208 0 0 0 0 49634951.698898315 100076036.5320282 0 100076036.5320282 -67008733.893173218 0 0 0 0 50962379.365671158 28965440.243331194 0 28965440.243331194 -117147400.72827148 0 0 0 0 34004296.658569336 23736964.197845459 0 23736964.197845459 -106192916.52294922 0 0 0 0 33271324.110473633 19244519.743423462 0 19244519.743423462 -38977786.963973999 0 0 0 0 18503845.812927246 -48189693.200912476 0 -48189693.200912476 -100278486.24427795 0 0 0 0 1690510.6776762083 1860732.0273763742 0 1860732.0273763742 1099259.2117575854 0 0 0 0 -13429376.652481079 -25368535.026885986 0 -25368535.026885986 59777704.227909088 0 0 0 0 -7205462.188041687 -103837812.98157501 0 -103837812.98157501 -212753273.48010254 0 0 0 0 -168691478.2155571 170228489.42004395 0 170228489.42004395 -122324772.99707031 0 0 0 0 65901.094450563192 4820700.0261854194 0 4820700.0261854194 945604.67361986637 0 0 0 0 -122228715.00376892 88948307.617805481 0 88948307.617805481 -139175600.47302246 0 0 0 0 -66138521.935241699 270725424.29547119 0 270725424.29547119 -120434624.23828125 0 0 0 0 1466971.7455234639 3027321.0083668083 0 3027321.0083668083 -2568968.7887373418 0 0 0 0 43266394.336502075 -57300384.053771973 0 -57300384.053771973 -265297597.64807129 0 0 0 0 -50877497.975288391 86432756.303977966 0 86432756.303977966 -275930110.94366455 0 0 0 0 -92800072.039253235 188854022.94792175 0 188854022.94792175 -206733795.79077148 0 0 0 0 157792227.99580383 120275326.61784363 0 120275326.61784363 -274065008.53289795 0 0 0 0 41023302.025695801 268034859.96832275 0 268034859.96832275 -210949506.87805176 0 0 0 0 93781557.759857178 43123934.525619507 0 43123934.525619507 -290529021.6194458 0 0 0 0 8495902.2091751099 32617770.610958099 0 32617770.610958099 -244263235.26977539 0 0 0 0 71825293.417221069 5834575.0064086914 0 5834575.0064086914 -186056965.58798218 0 0 0 0 85265876.919921875 13112592.851196289 0 13112592.851196289 -306724817.84718323 0 0 0 0 136503091.5612793 122607283.45732117 0 122607283.45732117 -209529957.44501877 0 0 0 0 12743663.145675659 112554707.01334381 0 112554707.01334381 71640648.62789917 0 0 0 0 -730480.84273886681 2320655.9383006096 0 2320655.9383006096 354553.01693687588 0 0 0 0 37229672.230148315 86574880.075805664 0 86574880.075805664 208816741.29493713 0 0 0 0 -74565925.260009766 366486301.32058716 0 366486301.32058716 -113703044.27267456 0 0 0 0 53729432.11416626 62426779.702880859 0 62426779.702880859 132497.84479873686 0 0 0 0 117102150.94320679 127717537.57359314 0 127717537.57359314 51393888.758514404 0 0 0 0 150691706.4954834 179570161.51796722 0 179570161.51796722 131374656.62524414 0 0 0 0 -13609560.916320801 19652144.627151489 0 19652144.627151489 125513182.57054138 0 0 0 0 -13770416.711898208 -2446252.3581080437 0 -2446252.3581080437 27114092.359893799 0 0 0 0 20118582.56690979 55959596.606155396 0 55959596.606155396 47591019.538238525 0 0 0 0 -545985.66347509623 4641252.5413998961 0 4641252.5413998961 -476738.12134621292 0 0 0 0 -460597.35122680664 16593111.483520508 0 16593111.483520508 4132727.2539901733 0 0 0 0 -35598879.784194946 91981877.352096558 0 91981877.352096558 259951713.41067505 0 0 0 0 42162184.598144531 -185320912.19335938 0 -185320912.19335938 -766757995.83114624 0 0 0 0 17701943.609024048 -67792593.234146118 0 -67792593.234146118 -121869075.52047729 0 0 0 0 -6277834.5747261047 8076028.0379219055 0 8076028.0379219055 2486564.8237609863 0 0 0 0 -3584543.3990631104 22371335.418144226 0 22371335.418144226 10969.130126953125 0 0 0 0 -9658142.2765197754 20507238.909942627 0 20507238.909942627 5580363.7855224609 0 0 0 0 -8082769.2853851318 17957942.914398193 0 17957942.914398193 -9531252.0170059204 0 0 0 0 1385173.4158481956 7067918.5117354766 0 7067918.5117354766 -2757957.4736127853 0 0 0 0 229858537.39591599 358243749.0939579 0 358243749.0939579 -324132075.27438354 0 0 0 0 -900167417.02746582 -333862163.54528809 0 -333862163.54528809 317380952.32112122 0 0 0 0 -456287018.68942261 316713240.57778931 0 316713240.57778931 -50396112.791168213 0 0 0 0 515243279.4304657 -54854993.416824341 0 -54854993.416824341 -708039034.04260254 0 0 0 0 373139119.55368042 300572919.76629639 0 300572919.76629639 -253410109.87896729 0 0 0 0 103503658.86193848 21929238.649597168 0 21929238.649597168 -430185122.50042725 0 0 0 0 -23695764.42098999 -23192115.702270508 0 -23192115.702270508 -293422264.50881958 0 0 0 0 -508100193.91253662 -71306729.36340332 0 -71306729.36340332 -8258483.9811096191 0 0 0 0 119529196.91751099 -362808397.94158936 0 -362808397.94158936 -654114285.7951622 0 0 0 0 153528.28890000284 1556992.2830557674 0 1556992.2830557674 -9522.8727143406868 0 0 0 0 -127180522.64154053 -20368037.595458984 0 -20368037.595458984 -16045329.577545166 0 0 0 0 -42055642.52243042 9578465.4450378418 0 9578465.4450378418 -123401541.12213135 0 0 0 0 -55065763.436279297 44845690.902915955 0 44845690.902915955 38871005.451293945 0 0 0 0 -20163907.72265625 -27084811.451293945 0 -27084811.451293945 62430049.948303223 0 0 0 0 -68103484.442962646 -21610249.957733154 0 -21610249.957733154 39163814.798553467 0 0 0 0 -114167184.8739624 -33736064.071655273 0 -33736064.071655273 53964623.455993652 0 0 0 0 -170499481.86917114 8967138.0426483154 0 8967138.0426483154 75843136.24118042 0 0 0 0 -98403004.334381104 98926722.584503174 0 98926722.584503174 65335432.384925842 0 0 0 0 -26071285.1015625 255872785.02392578 0 255872785.02392578 -43723436.367645264 0 0 0 0 -357686586.81838989 77495461.712646484 0 77495461.712646484 71067067.132827759 0 0 0 0 -14982421.808570862 62318509.60622406 0 62318509.60622406 43222353.327667236 0 0 0 0 -44378482.684448242 66428996.023422241 0 66428996.023422241 58827022.865158081 0 0 0 0 -49547360.995666504 39677370.902862549 0 39677370.902862549 42854267.672058105 0 0 0 0 -59128826.841384888 -4154228.705165863 0 -4154228.705165863 32232646.973327637 0 0 0 0 -111354851.37765503 20620783.323944092 0 20620783.323944092 65346519.732666016 0 0 0 0 -70207821.571533203 20110049.266357422 0 20110049.266357422 36476182.179443359 0 0 0 0 -56696833.037857056 11819215.54234314 0 11819215.54234314 13144879.484619141 0 0 0 0 -57903550.10949707 38820935.578613281 0 38820935.578613281 60007125.179862976 0 0 0 0 -41555242.910808563 50820114.415802002 0 50820114.415802002 50041769.052978516 0 0 0 0 -26977513.324981689 42884883.478256226 0 42884883.478256226 20619699.077728271 0 0 0 0 -45553027.339477539 36203430.654464722 0 36203430.654464722 32778181.880737305 0 0 0 0 -58241724.808105469 36684011.747680664 0 36684011.747680664 38649750.969245911 0 0 0 0 -54472481.876945496 40009516.666481018 0 40009516.666481018 2483431.9628295898 0 0 0 0 -429546.05988115072 941922.37481403351 0 941922.37481403351 1953427.8127203248 0 0 0 0 -40632277.767913818 39123442.520843506 0 39123442.520843506 34506774.731918335 0 0 0 0 -25712562.150909424 11739515.618728638 0 11739515.618728638 35973989.028198242 0 0 0 0 588938.0811920166 83962757.723373413 0 83962757.723373413 43623378.33140564 0 0 0 0 -23307869.244661517 33272947.402259126 0 33272947.402259126 -9250210.7253237814 0 0 0 0 -12685768.768890381 53074643.346435547 0 53074643.346435547 27813173.362060547 0 0 0 0 1071570.2220798284 13682504.746580273 0 13682504.746580273 -1082781.4353716648 0 0 0 0 112988475.02105713 204345061.87490845 0 204345061.87490845 177969662.26045609 0 0 0 0 -18053392.051617235 26398483.818659805 0 26398483.818659805 8766636.7026261091 0 0 0 0 39923519.959686279 97913248.570495605 0 97913248.570495605 31655734.74710083 0 0 0 0 34134600.875335693 77782832.213607788 0 77782832.213607788 33436404.054167747 0 0 0 0 25261900.694173262 27793221.254566543 0 27793221.254566543 -3728026.5590788196 0 0 0 0 64609533.707687378 81273678.900421143 0 81273678.900421143 -23380826.113845825 0 0 0 0 -7110527.1628265381 21974952.962631226 0 21974952.962631226 7615691.2311553955 0 0 0 0 -13343731.450950623 23530789.614845276 0 23530789.614845276 3821760.3709106445 0 0 0 0 -14448439.10346679 18348158.554838091 0 18348158.554838091 2625193.3466551155 0 0 0 0 -9197095.45703125 22994354.775634766 0 22994354.775634766 -8040700.7061576843 0 0 0 0 -11813427.278879777 21750140.766503479 0 21750140.766503479 13561099.945224494 0 0 0 0 3240377.1656494141 12774251.596679688 0 12774251.596679688 1607838.9934673309 0 0 0 0 -10247.942836493254 26362480.369844969 0 26362480.369844969 5454270.8639792819 0 0 0 0 6438798.9622802734 15728274.670898438 0 15728274.670898438 -3504413.8837890625 0 0 0 0 -7522781.1296735108 26876364.261398464 0 26876364.261398464 7401086.5534261018 0 0 0 0 -12662668.957674399 26291865.230978861 0 26291865.230978861 1795170.1584724626 0 0 0 0 4684182.6132278442 23379013.332019806 0 23379013.332019806 1580248.9727172852 0 0 0 0 -4292694.2625711113 18652263.732777853 0 18652263.732777853 5359073.2249592487 0 0 0 0 -5432184.8487930298 25256463.337921143 0 25256463.337921143 3129478.9116210938 0 0 0 0 -11214504.139343262 20726222.057342529 0 20726222.057342529 5575819.731385231 0 0 0 0 -8033394.7154415995 24926416.525774561 0 24926416.525774561 10308807.992696477 0 0 0 0 -10712690.337135315 24412495.713790894 0 24412495.713790894 3902397.5778808594 0 0 0 0 -7604847.1215165108 20400967.371238001 0 20400967.371238001 288901.81152174249 0 0 0 0 -13100153.161987305 19658112.584442139 0 19658112.584442139 -3999230.0556335449 0 0 0 0 -6589051.0805664062 19282408.493865967 0 19282408.493865967 10262500.679462433 0 0 0 0 -2415131.1550483704 24268454.599330902 0 24268454.599330902 -1527988.9290161133 0 0 0 0 4652456.4478735738 20975843.566217393 0 20975843.566217393 11103295.788677335 0 0 0 0 -3240582.542881012 18381711.531560898 0 18381711.531560898 7274779.6506652832 0 0 0 0 2072998.3752672151 19477339.613599479 0 19477339.613599479 5803975.7250463665 0 0 0 0 59076.922198280692 16313615.337765183 0 16313615.337765183 275470.7559791645 0 0 0 0 1363434.8054885864 19806807.545150757 0 19806807.545150757 11733162.768463135 0 0 0 0 181261.68316650391 18315388.350280762 0 18315388.350280762 11254823.679901123 0 0 0 0 -101984.13990060985 14677413.514816485 0 14677413.514816485 -2971970.6080565602 0 0 0 0 153120.9347038269 18091296.398975372 0 18091296.398975372 9637211.6461486816 0 0 0 0 -6456854.4767150879 15875898.998901367 0 15875898.998901367 4747807.6722412109 0 0 0 0 -3745822.9871826172 18798126.365768433 0 18798126.365768433 4225493.685230732 0 0 0 0 -1359412.5754446909 15937622.662650209 0 15937622.662650209 7769367.6881638169 0 0 0 0 -2325369.3828735352 18198425.002754211 0 18198425.002754211 11674879.286010742 0 0 0 0 -19196223.087430444 18338477.792566568 0 18338477.792566568 12594621.024823442 0 0 0 0 -9168903.5791187435 13044760.340845756 0 13044760.340845756 8406074.4996090531 0 0 0 0 2165804.0710830092 12263271.557833051 0 12263271.557833051 4701984.2964096367 0 0 0 0 -4579139.8880615234 10017551.082244873 0 10017551.082244873 2278699.4942016602 0 0 0 0 -4804485.5788380802 12515434.994837873 0 12515434.994837873 4858689.6282697394 0 0 0 0 29997714.547286987 37723695.777603149 0 37723695.777603149 2162356.7334289551 0 0 0 0 1621214.4825553894 12924686.423274994 0 12924686.423274994 3743476.4368133545 0 0 0 0 -1267730.6110610962 10628571.409057617 0 10628571.409057617 4041102.5150146484 0 0 0 0 -564855.55593970791 3679138.6084249169 0 3679138.6084249169 3387051.7339786738 0 0 0 0 -6368687.4172973633 16406980.276672363 0 16406980.276672363 12503818.913330078 0 0 0 0 -5055197.4356963895 12980074.504707821 0 12980074.504707821 5163720.514193967 0 0 0 0 8553875.7291310504 14909844.814616367 0 14909844.814616367 -2217360.0567839146 0 0 0 0 1633903.3765513822 9355992.7102265507 0 9355992.7102265507 7578004.5376203954 0 0 0 0 5102338.0066070557 66944595.329483032 0 66944595.329483032 70050633.615262985 0 0 0 0 20928684.343681335 16514210.835380554 0 16514210.835380554 38678398.085327148 0 0 0 0 4936703.8730383143 20931034.99143824 0 20931034.99143824 -6434664.6120541096 0 0 0 0 5759664.8532384112 17293156.842555791 0 17293156.842555791 278257.1521839723 0 0 0 0 29494422.044502258 29448589.331741333 0 29448589.331741333 -45652237.772094727 0 0 0 0 4676250.1690673828 13314402.256744385 0 13314402.256744385 577796.29145050049 0 0 0 0 4901228.8372650146 24827335.204154968 0 24827335.204154968 10266348.679351807 0 0 0 0 -24028218.160842896 69373502.309539795 0 69373502.309539795 -42383838.344223022 0 0 0 0 11594205.887343489 22511050.914634392 0 22511050.914634392 2543879.923240032 0 0 0 0 1418931.5012817383 29324879.826705933 0 29324879.826705933 133014.2067565918 0 0 0 0 2707137.1471994268 6814453.2524129972 0 6814453.2524129972 -1390973.741843611 0 0 0 0 30844081.512034416 22431340.438183784 0 22431340.438183784 -48554250.533508301 0 0 0 0 -2239182.4470977783 30876829.466896057 0 30876829.466896057 540423.76289367676 0 0 0 0 2098440.8686672682 15311059.722318254 0 15311059.722318254 3856528.6517745107 0 0 0 0 -116039.85306549072 31755535.309949875 0 31755535.309949875 511279.18640136719 0 0 0 0 12252591.317138672 20407126.736907959 0 20407126.736907959 12555306.16986084 0 0 0 0 2772755.6343078613 14547300.763374329 0 14547300.763374329 4365052.9506835938 0 0 0 0 7396913.9907303005 11977875.907629598 0 11977875.907629598 5201973.5071993023 0 0 0 0 5740764.9301605225 19764929.606689453 0 19764929.606689453 10134947.942855835 0 0 0 0 5301823.2594917752 15939898.878904488 0 15939898.878904488 11422056.762368947 0 0 0 0 5382460.2412383109 14365328.262056567 0 14365328.262056567 7416133.8842902184 0 0 0 0 5540686.6465894952 14055046.454291509 0 14055046.454291509 9428384.5393349826 0 0 0 0 5203785.3865356445 12083096.541442871 0 12083096.541442871 10235017.648750305 0 0 0 0 -2371142.0620727539 16653185.830078125 0 16653185.830078125 3790023.122833252 0 0 0 0 14939105.15625 17843850.524078369 0 17843850.524078369 5333995.339466095 0 0 0 0 3718961.6252012551 16575538.0670662 0 16575538.0670662 -142121.23927522032 0 0 0 0 3505008.0859069824 17065775.350952148 0 17065775.350952148 4553762.8333740234 0 0 0 0 6700611.7314670086 19445631.057755839 0 19445631.057755839 8747584.5198996812 0 0 0 0 -4220301.385169643 22981456.026184253 0 22981456.026184253 11070249.346267045 0 0 0 0 797856.7497452572 23910076.838699192 0 23910076.838699192 6573211.3008695524 0 0 0 0 -2536556.2405078784 19841085.174311087 0 19841085.174311087 -3715005.0878762156 0 0 0 0 228553.70269775391 27297701.077575684 0 27297701.077575684 -1598566.6880950928 0 0 0 0 -7986329.2712402344 31860938.947921753 0 31860938.947921753 6504104.5278930664 0 0 0 0 7723101.3763885498 35294655.707870483 0 35294655.707870483 -13335620.729797363 0 0 0 0 21967265.065267958 24145277.271356121 0 24145277.271356121 -7043961.5907048136 0 0 0 0 368978.4693076387 477616.23795410804 0 477616.23795410804 370076.41162972152 0 0 0 0 4138544.5643920898 9748031.5426025391 0 9748031.5426025391 11127827.369628906 0 0 0 0 5386086.0420684814 11538976.095558167 0 11538976.095558167 2027080.3415527344 0 0 0 0 17850762.132182099 18724960.660102367 0 18724960.660102367 -2919581.3806152046 0 0 0 0 -3021722.4883652143 12378975.094264347 0 12378975.094264347 7179583.5695847273 0 0 0 0 7233182.4695893005 25048593.527961165 0 25048593.527961165 2982164.0668149218 0 0 0 0 765310.69500732422 34735164.178894043 0 34735164.178894043 8985741.6470947266 0 0 0 0 3461067.0998891667 25231776.029932976 0 25231776.029932976 4992131.0217191689 0 0 0 0 -15421071.154434204 37775714.4190979 0 37775714.4190979 15902419.020263672 0 0 0 0 13304694.444229126 34146399.34828186 0 34146399.34828186 7260296.6763000488 0 0 0 0 18737371.410461426 34553490.481338501 0 34553490.481338501 -6650228.5859985352 0 0 0 0 61162713.481040955 41177023.197277069 0 41177023.197277069 -18843312.021057129 0 0 0 0 2188169.2169300169 1250589.6195099335 0 1250589.6195099335 663133.43271952868 0 0 0 0 -14056706.458450317 42632091.316635132 0 42632091.316635132 10702910.366882324 0 0 0 0 -7376211.3766784668 49080272.564819336 0 49080272.564819336 2690239.4479522705 0 0 0 0 -7583937.4062347412 48525103.106323242 0 48525103.106323242 7082241.7904052734 0 0 0 0 -23169049.215042114 52682615.249786377 0 52682615.249786377 9913190.7043762207 0 0 0 0 -13432260.722290039 44255188.9246521 0 44255188.9246521 5789535.0336303711 0 0 0 0 -1344280.5180206299 41167919.679519653 0 41167919.679519653 13073365.8256073 0 0 0 0 -9377870.9815673828 52007010.972694397 0 52007010.972694397 2988752.9767456055 0 0 0 0 5986272.4048660994 28065994.630508766 0 28065994.630508766 6169295.1084742947 0 0 0 0 -26874347.691650391 27670207.771820068 0 27670207.771820068 -7282796.4270782471 0 0 0 0 -3985567.2233352661 40114551.256355286 0 40114551.256355286 11705762.627563477 0 0 0 0 1422062.0777587891 42217902.547790527 0 42217902.547790527 11279972.274627686 0 0 0 0 24685434.618621826 23469314.462173462 0 23469314.462173462 18741975.548751831 0 0 0 0 -43413225.615966797 39813071.875549316 0 39813071.875549316 1684570.693572998 0 0 0 0 54127132.858093262 -2383291.2624511719 0 -2383291.2624511719 -41470402.534606934 0 0 0 0 12944183.762096038 29071820.468194023 0 29071820.468194023 -6911577.5467009097 0 0 0 0 1464845.474831529 375246.36302309111 0 375246.36302309111 -1195052.9947860315 0 0 0 0 4935124.5102081299 37664264.792022705 0 37664264.792022705 -10562667.279922485 0 0 0 0 23713553.891319275 39458899.071533203 0 39458899.071533203 -15697164.464950562 0 0 0 0 11320357.86047411 29230271.919883728 0 29230271.919883728 -21264864.00189209 0 0 0 0 6973848.5415164381 28963219.308642544 0 28963219.308642544 5571286.8615567693 0 0 0 0 9346040.0540466309 30303452.781448364 0 30303452.781448364 5245252.3097229004 0 0 0 0 12513280.5234375 41761517.72769165 0 41761517.72769165 6774698.8676757812 0 0 0 0 47961945.528091431 12189468.410675049 0 12189468.410675049 -18661727.79498291 0 0 0 0 2056369.9468740132 4280354.4894282166 0 4280354.4894282166 1501759.284267664 0 0 0 0 -27224720.779602051 46257669.209159851 0 46257669.209159851 14168695.971984863 0 0 0 0 9162467.5295121372 20904313.750529215 0 20904313.750529215 -797340.80924526555 0 0 0 0 -26744384.137714863 55360470.450721741 0 55360470.450721741 44643902.248916626 0 0 0 0 -17584579.977542594 8171238.720688317 0 8171238.720688317 5836544.6429271176 0 0 0 0 20597860.093223095 32827017.300457973 0 32827017.300457973 -8505982.3266648054 0 0 0 0 -96427671.36580658 95572795.381088257 0 95572795.381088257 125760441.65493011 0 0 0 0 -97941873.26445961 131782149.32655334 0 131782149.32655334 82419100.370223999 0 0 0 0 -29300907.366332054 76916927.955184937 0 76916927.955184937 -113577914.7721405 0 0 0 0 -128489502.81972504 12165510.717254639 0 12165510.717254639 21339062.375747681 0 0 0 0 1362682.9626158308 9983526.8141552433 0 9983526.8141552433 998239.72606056975 0 0 0 0 28729905.822753906 214510855.438797 0 214510855.438797 -353584004.97773743 0 0 0 0 121339645.31589699 5705977.0539093018 0 5705977.0539093018 -2892606.5869064331 0 0 0 0 21713859.813684434 31351802.920826539 0 31351802.920826539 -7695558.3307445645 0 0 0 0 22343573.658309937 26781037.984466553 0 26781037.984466553 -3423566.0585021973 0 0 0 0 8088768.4428405762 27120872.742965698 0 27120872.742965698 -3397712.1824245453 0 0 0 0 -91114335.419316769 38213553.821861267 0 38213553.821861267 -4068378.5612487793 0 0 0 0 -378713044.63178539 15531816.541942596 0 15531816.541942596 190832109.99908447 0 0 0 0 5070115.7858729986 1402040.406830719 0 1402040.406830719 79375.493879884481 0 0 0 0 -357129618.9306221 86129862.566375732 0 86129862.566375732 -12488064.937133789 0 0 0 0 -1987443.8598092287 -7676.4758096337318 0 -7676.4758096337318 435556.19921508431 0 0 0 0 6254734.7151107788 32150225.711227417 0 32150225.711227417 -2442404.7050704956 0 0 0 0 15556068.07068634 31469266.006546021 0 31469266.006546021 -7664655.5825653076 0 0 0 0 297071.16742897034 33371559.797756195 0 33371559.797756195 -2672372.5454711914 0 0 0 0 9516801.7228736877 25571609.842899323 0 25571609.842899323 -9867690.6041870117 0 0 0 0 11690012.566482544 28401473.099693298 0 28401473.099693298 -14708069.480651855 0 0 0 0 24036457.899610601 32940170.245053604 0 32940170.245053604 -9236214.82258977 0 0 0 0 9623199.7202857956 25624812.642033398 0 25624812.642033398 4602705.6710583977 0 0 0 0 10052650.736999512 29398815.261154175 0 29398815.261154175 -9169381.6786651611 0 0 0 0 -110092168.51620483 85334602.522499084 0 85334602.522499084 76991960.560058594 0 0 0 0 -2249767423.5531006 -307471080.31206894 0 -307471080.31206894 778448281.4704895 0 0 0 0 -954782634.63323593 -2546407.8940811157 0 -2546407.8940811157 494690748.20044708 0 0 0 0 -1665135669.4860115 34439690.215156555 0 34439690.215156555 593677206.45852661 0 0 0 0 -726573402.61460495 -258489618.23583221 0 -258489618.23583221 157161049.99832153 0 0 0 0 -2090245601.4038048 467040654.62187958 0 467040654.62187958 485563154.20140076 0 0 0 0 44378336.058933258 1294119.4972076416 0 1294119.4972076416 33967122.09777832 0 0 0 0 1271486.8531159069 4593865.6439636946 0 4593865.6439636946 1089474.1930004954 0 0 0 0 -913771829.777771 414633011.20462036 0 414633011.20462036 878529751.87304688 0 0 0 0 43503389.333614081 102468195.1032131 0 102468195.1032131 4385728.7320556641 0 0 0 0 102088506.47671127 -19698449.313671112 0 -19698449.313671112 -248779581.32504654 0 0 0 0 4335350.9992902512 5976601.3100501578 0 5976601.3100501578 2808642.6877186969 0 0 0 0 110528372.45701408 -37674984.70186615 0 -37674984.70186615 -211032948.46276855 0 0 0 0 -54557461.282325745 -21281346.305465698 0 -21281346.305465698 130846725.72692871 0 0 0 0 -6120356.0644828603 19344596.478318039 0 19344596.478318039 16346800.622039653 0 0 0 0 47122987.001678467 -51850591.745986938 0 -51850591.745986938 -96091481.619918823 0 0 0 0 -499282.26919844374 1254335.8260488473 0 1254335.8260488473 724495.28794464469 0 0 0 0 -1102701406.5359421 -322757255.40625 0 -322757255.40625 -457283118.70472717 0 0 0 0 -1830534674.4180183 -666787745.81173706 0 -666787745.81173706 230514261.64599609 0 0 0 0 -1720484009.9454842 -264032246.59921265 0 -264032246.59921265 631397626.96737671 0 0 0 0 -820228375.65131378 189224575.94806671 0 189224575.94806671 120331509.46930695 0 0 0 0 -755464081.17830276 36722810.24464035 0 36722810.24464035 475320176.32162476 0 0 0 0 -769536900.35107803 439434887.28894806 0 439434887.28894806 -51573680.794166565 0 0 0 0 -461125594.10762787 776798936.70854187 0 776798936.70854187 408593302.18186951 0 0 0 0 -749044454.36639023 392419398.84954071 0 392419398.84954071 56028868.189163208 0 0 0 0 -305848698.36074448 437123808.64888763 0 437123808.64888763 -637604543.51232147 0 0 0 0 -344623570.67579269 669269842.21318817 0 669269842.21318817 -352833251.63259125 0 0 0 0 -598436876.58535004 557026559.3695755 0 557026559.3695755 91800247.865602493 0 0 0 0 -5874588.8384591825 21560280.762041293 0 21560280.762041293 10229669.173054144 0 0 0 0 -1171885.3793945312 14645706.088806152 0 14645706.088806152 -3177155.6079745293 0 0 0 0 10861194.975848293 19760486.498518564 0 19760486.498518564 3678262.7779085487 0 0 0 0 95980461.014381409 -54537082.961456299 0 -54537082.961456299 -90057308.61706543 0 0 0 0 -498319.73481781781 22637335.420333203 0 22637335.420333203 25993.469342634082 0 0 0 0 -677832793.7316246 319302622.60090446 0 319302622.60090446 -202249482.42814636 0 0 0 0 -857707778.96938133 333108254.40071678 0 333108254.40071678 18256685.127548218 0 0 0 0 62241708.18404007 68553971.743848801 0 68553971.743848801 7889355.8852386475 0 0 0 0 7158284.9598833621 14128211.47129699 0 14128211.47129699 2132628.4049579352 0 0 0 0 37668644.583755493 15394504.148132324 0 15394504.148132324 2492841.732963562 0 0 0 0 -1879419.7934653535 196260.79077204317 0 196260.79077204317 307949.08151058108 0 0 0 0 2524888.2134628296 20292483.42325592 0 20292483.42325592 5242770.8103370667 0 0 0 0 13865622.580045499 16010205.131542578 0 16010205.131542578 2336610.6758724824 0 0 0 0 -5231591.7931213379 18844032.891418457 0 18844032.891418457 6471818.0951542854 0 0 0 0 23635221.804031372 24022205.640232086 0 24022205.640232086 -2707952.8782348633 0 0 0 0 19587625.897453308 13592299.786308289 0 13592299.786308289 9863590.5421147346 0 0 0 0 6992400.4344787598 26321014.869796753 0 26321014.869796753 5017146.1192445755 0 0 0 0 20471951.680435181 24706219.332679749 0 24706219.332679749 1100143.694519043 0 0 0 0 -5227574.9124298096 20561277.160140991 0 20561277.160140991 10570923.821929932 0 0 0 0 -2716753.6968475254 16484140.042846143 0 16484140.042846143 5765641.4794637114 0 0 0 0 6452102.0593414307 10548480.45916748 0 10548480.45916748 4432519.3179626465 0 0 0 0 10488422.668605097 20451631.361283667 0 20451631.361283667 5784556.8504841775 0 0 0 0 29829231.358734131 43730392.863639832 0 43730392.863639832 15084724.20501709 0 0 0 0 -1054485.2598371506 40140727.36853981 0 40140727.36853981 17823787.96182251 0 0 0 0 18245002.149337769 22790264.969413757 0 22790264.969413757 4784568.5176782608 0 0 0 0 -3560024.9156745169 16252844.627552915 0 16252844.627552915 3762479.8400629237 0 0 0 0 47539400.033355713 36537878.668884277 0 36537878.668884277 17712725.836578369 0 0 0 0 43058617.631317139 35969813.974594116 0 35969813.974594116 17819300.659233093 0 0 0 0 62306696.82081604 22156767.269416809 0 22156767.269416809 21796240.001586914 0 0 0 0 -2418387.2199521288 21414773.149054904 0 21414773.149054904 12359450.374822557 0 0 0 0 489136.9260559082 14435070.497772217 0 14435070.497772217 3721948.2772521973 0 0 0 0 15470101.493133834 20373625.847020548 0 20373625.847020548 4932940.4467733055 0 0 0 0 20297539.949379988 24619269.346826348 0 24619269.346826348 -512341.33434102405 0 0 0 0 27875935.010009766 26565233.852340698 0 26565233.852340698 -9560520.1011009216 0 0 0 0 -23127638.217407227 15133752.582328796 0 15133752.582328796 23230173.637969971 0 0 0 0 -23556028.143745422 -4389.5782203674316 0 -4389.5782203674316 15174326.71685791 0 0 0 0 82477884.895614624 20182049.272140503 0 20182049.272140503 23429603.389450073 0 0 0 0 4039098.4648336731 18082339.910954583 0 18082339.910954583 12143280.547972806 0 0 0 0 71280338.803504944 19809061.709396362 0 19809061.709396362 28445145.636650085 0 0 0 0 96273835.393211365 43491784.221290588 0 43491784.221290588 54712347.078231812 0 0 0 0 108061338.5692091 -6041579.0809679031 0 -6041579.0809679031 -8393908.706451416 0 0 0 0 -30597743.149810791 22099846.298446655 0 22099846.298446655 -1088811.2518768311 0 0 0 0 13730753.425936293 31822584.124611124 0 31822584.124611124 7143994.4048315734 0 0 0 0 14799402.771390267 32957623.666917913 0 32957623.666917913 -2135016.2653186768 0 0 0 0 8327086.2142944336 16567336.350708008 0 16567336.350708008 707889.49951171875 0 0 0 0 23048667.717132568 22742902.775112152 0 22742902.775112152 3657271.4760742188 0 0 0 0 -878355.12825539708 24793993.16279747 0 24793993.16279747 5433211.0414651595 0 0 0 0 9030000.1383972168 17010128.247024536 0 17010128.247024536 10485016.428100586 0 0 0 0 5138591.629127739 14522242.546017878 0 14522242.546017878 1611518.8325373381 0 0 0 0 -17667865.49319458 34118685.517986298 0 34118685.517986298 6650745.1347961426 0 0 0 0 -9555789.1260884702 30325594.895765409 0 30325594.895765409 10283727.513194943 0 0 0 0 -6424343.8411937058 33518483.759712197 0 33518483.759712197 8061697.1040541083 0 0 0 0 -14276921.920043945 48518015.009239197 0 48518015.009239197 17199415.247589111 0 0 0 0 -17771105.367050171 49902849.528335571 0 49902849.528335571 21828033.435089111 0 0 0 0 53525428.708625793 49461069.295545578 0 49461069.295545578 12205280.163314819 0 0 0 0 6825943.4604703784 4588368.297033783 0 4588368.297033783 2792959.7613380998 0 0 0 0 -23283325.029754639 37099511.774482727 0 37099511.774482727 41393650.170488358 0 0 0 0 41733612.954357147 54210172.880661011 0 54210172.880661011 10764573.131744385 0 0 0 0 34528214.920402527 55905262.920682907 0 55905262.920682907 10564097.337036133 0 0 0 0 4394301.5135498047 47158618.173805237 0 47158618.173805237 13642153.586303711 0 0 0 0 3536569.9227567278 24534932.923251234 0 24534932.923251234 -178185.55116470903 0 0 0 0 4894223.3990783691 46354027.597553253 0 46354027.597553253 14048743.492431641 0 0 0 0 -3782650.9122314453 48499454.381599426 0 48499454.381599426 13949184.838798523 0 0 0 0 -7700583.4853515625 45313278.493392944 0 45313278.493392944 20321692.502268791 0 0 0 0 -10755596.055469513 43784053.697669983 0 43784053.697669983 24311512.435577393 0 0 0 0 -1828401.176574707 51731571.491394043 0 51731571.491394043 12271517.054992676 0 0 0 0 -36576127.253753662 54878924.754104614 0 54878924.754104614 21878513.533573151 0 0 0 0 -9145904.3620758057 55273126.329982758 0 55273126.329982758 22568381.125289917 0 0 0 0 -17733039.973876953 49263779.541732788 0 49263779.541732788 18677666.81603241 0 0 0 0 -13494387.795028687 64490118.19865799 0 64490118.19865799 11172981.473297119 0 0 0 0 6046512.7967987061 43248493.149200439 0 43248493.149200439 16379397.231307983 0 0 0 0 -1734021.7129516602 48637098.746902466 0 48637098.746902466 12676575.848815918 0 0 0 0 -1168404.3448442221 3260980.7653469387 0 3260980.7653469387 4906973.6647210568 0 0 0 0 20663646.691802979 60890303.408737183 0 60890303.408737183 7204011.4013061523 0 0 0 0 -5853511.0021972656 24032332.291351318 0 24032332.291351318 -10383985.331708908 0 0 0 0 21582708.104736328 47670492.641143799 0 47670492.641143799 4133987.7316741943 0 0 0 0 -22734239.682899475 7421941.1262073517 0 7421941.1262073517 48836456.462677002 0 0 0 0 -6973089.5765676051 26153327.079630688 0 26153327.079630688 5567844.3639226034 0 0 0 0 -11349103.350830078 22821459.90234375 0 22821459.90234375 -7995170.7574462891 0 0 0 0 -5540539.5997314453 22614163.325378418 0 22614163.325378418 -4002458.8793945312 0 0 0 0 -41744582.865623474 19643978.704101562 0 19643978.704101562 41924470.947875977 0 0 0 0 16997969.305498689 20632446.285873879 0 20632446.285873879 2960500.0997858495 0 0 0 0 51511182.423217773 46727703.369812012 0 46727703.369812012 1973390.4020996094 0 0 0 0 -13773628.097069182 11083943.59800978 0 11083943.59800978 1444499.2154086828 0 0 0 0 15966796.458159212 27386734.857396632 0 27386734.857396632 -14326373.292109579 0 0 0 0 872636.33048830926 1522421.8611092567 0 1522421.8611092567 -757160.99083632231 0 0 0 0 1397926.4378356934 22384239.227203369 0 22384239.227203369 -10019389.952144623 0 0 0 0 13039791.013542175 41139097.186096191 0 41139097.186096191 12334306.516189575 0 0 0 0 11933330.117103577 36322551.080204964 0 36322551.080204964 9238449.2032165527 0 0 0 0 2898249.3682619482 28768561.028735854 0 28768561.028735854 -2761172.6135852635 0 0 0 0 -15035121.21151451 23344590.495041437 0 23344590.495041437 8743101.9570248723 0 0 0 0 7628367.0994796753 43936364.868909836 0 43936364.868909836 11085046.051803589 0 0 0 0 -16887371.785862237 27027517.310193293 0 27027517.310193293 3887436.6462994665 0 0 0 0 16684622.41569519 54492366.619094849 0 54492366.619094849 -1947068.0762023926 0 0 0 0 -18091851.868118286 41836129.364707947 0 41836129.364707947 17363845.808803558 0 0 0 0 -10941127.267297626 18451447.047939114 0 18451447.047939114 6388888.3074344769 0 0 0 0 -8487437.0087280273 55849713.018531799 0 55849713.018531799 2814875.7351455688 0 0 0 0 -28242030.411193848 1247413.409286499 0 1247413.409286499 33269726.74911499 0 0 0 0 -44544618.870025635 22519323.988273621 0 22519323.988273621 5852040.6282272339 0 0 0 0 -56259763.625411987 13950780.697635651 0 13950780.697635651 32122656.140335083 0 0 0 0 -24719106.873767853 28206613.446041107 0 28206613.446041107 15057030.927188173 0 0 0 0 -49789453.503875732 19973078.646118164 0 19973078.646118164 28460203.000183105 0 0 0 0 -48737965.117622375 24807141.528272629 0 24807141.528272629 50444722.074371338 0 0 0 0 -108459138.27835083 51568666.599861145 0 51568666.599861145 46025058.361160278 0 0 0 0 -76518849.995956421 -67636277.272188187 0 -67636277.272188187 44543013.356124878 0 0 0 0 -250173454.11108398 -104108278.21122742 0 -104108278.21122742 45368271.456054688 0 0 0 0 -54294285.367797852 -3695023.1529693604 0 -3695023.1529693604 38554320.549730301 0 0 0 0 -201969553.9234314 33721266.093551636 0 33721266.093551636 51580225.151527405 0 0 0 0 -97165732.402923584 134460916.15667343 0 134460916.15667343 -20979272.189727783 0 0 0 0 -71001692.5025177 34545647.254234314 0 34545647.254234314 52790802.575187683 0 0 0 0 3225713.8472442627 47923816.258010864 0 47923816.258010864 37015002.980552673 0 0 0 0 -44668825.053482056 67625724.428714752 0 67625724.428714752 14170236.648990631 0 0 0 0 -15890779.567996547 32122627.71364861 0 32122627.71364861 9834080.0418326929 0 0 0 0 588206.00884641707 33305499.216179408 0 33305499.216179408 10513586.202646475 0 0 0 0 -19343855.255401611 60110443.087158203 0 60110443.087158203 12311145.916443825 0 0 0 0 9063270.8992462158 40574822.053207397 0 40574822.053207397 -4940750.1511688232 0 0 0 0 27799307.864282861 19046392.049251489 0 19046392.049251489 -8094446.0723774433 0 0 0 0 19856449.750732422 39527990.105945587 0 39527990.105945587 -3675393.5456924438 0 0 0 0 8935782.1311836243 41357359.549116611 0 41357359.549116611 6841206.8705291748 0 0 0 0 93541074.552459717 28738691.8907547 0 28738691.8907547 -6916143.4394836426 0 0 0 0 -3033567.0749743134 536156.29565902799 0 536156.29565902799 777949.10875941813 0 0 0 0 6983670.6527805328 42010596.550786495 0 42010596.550786495 -260052.40501403809 0 0 0 0 4919138.5444517136 55979812.556285858 0 55979812.556285858 21219145.267791748 0 0 0 0 7302670.6066970825 30481124.844413757 0 30481124.844413757 156571.97396850586 0 0 0 0 16493249.901351929 49917570.889286041 0 49917570.889286041 15948878.496059418 0 0 0 0 -8870289.1427898407 31682979.640937805 0 31682979.640937805 18047892.687057495 0 0 0 0 -12843371.586013794 15483251.192721367 0 15483251.192721367 -2999651.6392364502 0 0 0 0 526.76524137053639 34973353.997049704 0 34973353.997049704 14435388.172657564 0 0 0 0 -38301541.52381897 31353860.583660126 0 31353860.583660126 9739957.368473053 0 0 0 0 77807629.768764496 52800200.446659088 0 52800200.446659088 28412408.315368652 0 0 0 0 76264958.315656662 49367162.470121384 0 49367162.470121384 22099232.179992676 0 0 0 0 31609040.336089898 7892102.218705859 0 7892102.218705859 -8186315.0973493494 0 0 0 0 75740972.983901978 53473229.778930664 0 53473229.778930664 33220591.785491943 0 0 0 0 29848008.024856567 17190881.486412048 0 17190881.486412048 7517553.2623901367 0 0 0 0 263923458.41024017 90392504.251777649 0 90392504.251777649 -31218304.485122681 0 0 0 0 -2796802.1952587664 15645600.424676284 0 15645600.424676284 11458540.687309638 0 0 0 0 222999550.46352196 -43597835.82232666 0 -43597835.82232666 -87856320.19543457 0 0 0 0 74021616.762054443 51591552.025680542 0 51591552.025680542 35751621.284179688 0 0 0 0 75604609.43460083 49438913.262664795 0 49438913.262664795 38677545.817321777 0 0 0 0 78589285.133728027 45118461.656723022 0 45118461.656723022 28569884.459747314 0 0 0 0 80455638.656433105 40252479.733779907 0 40252479.733779907 41234066.951248169 0 0 0 0 89882477.95841217 42870120.564651489 0 42870120.564651489 24298453.301864624 0 0 0 0 73728910.687316895 41737999.247146606 0 41737999.247146606 35517952.663909912 0 0 0 0 96902368.523651123 35210120.454200745 0 35210120.454200745 28741572.284584045 0 0 0 0 63700831.44682312 43389988.33883667 0 43389988.33883667 34212175.316162109 0 0 0 0 61974577.774894714 22264276.580543518 0 22264276.580543518 22597609.559371948 0 0 0 0 45648037.824234962 31088795.837259293 0 31088795.837259293 26108037.340103149 0 0 0 0 -5135241.2996740658 29740090.253034905 0 29740090.253034905 14256935.482746087 0 0 0 0 75199873.990358353 35841477.534878731 0 35841477.534878731 14444131.995330811 0 0 0 0 -56826852.528060913 13104143.381855011 0 13104143.381855011 55949914.652786255 0 0 0 0 53347413.825710297 24937210.661888123 0 24937210.661888123 13457326.823375702 0 0 0 0 -15613112.891998295 27699880.750510767 0 27699880.750510767 13365544.073218755 0 0 0 0 50276597.474189758 41677038.312767029 0 41677038.312767029 -4551432.4298324585 0 0 0 0 57700774.509632111 19361794.001701355 0 19361794.001701355 -31637636.830741882 0 0 0 0 55031622.596717834 66933499.952796936 0 66933499.952796936 -70726307.181755066 0 0 0 0 50576130.026027679 40825465.938228607 0 40825465.938228607 20642883.613739014 0 0 0 0 68590706.241165161 34298803.882163048 0 34298803.882163048 20396800.059280396 0 0 0 0 34739287.0431633 30803840.443271637 0 30803840.443271637 31258874.716550827 0 0 0 0 55560147.135502815 70714140.953466415 0 70714140.953466415 54291438.349746704 0 0 0 0 1574107.429897951 3396158.4696006924 0 3396158.4696006924 1094744.4435300976 0 0 0 0 95112445.39196682 81996780.688861847 0 81996780.688861847 -171806566.65895081 0 0 0 0 -881207970.06135941 -491132939.97746658 0 -491132939.97746658 116141841.17449379 0 0 0 0 -305888402.88590622 -91335218.439430237 0 -91335218.439430237 9804356.7560195923 0 0 0 0 -529070809.80239868 -182669960.04773712 0 -182669960.04773712 37307355.721138 0 0 0 0 101451298.12838936 79020550.914489031 0 79020550.914489031 33353018.920524597 0 0 0 0 9304456.2539849523 11562145.564865414 0 11562145.564865414 2627135.4172244966 0 0 0 0 -396419441.44747734 113217184.02351761 0 113217184.02351761 34638541.235748291 0 0 0 0 -382276352.08330154 83513269.09929657 0 83513269.09929657 60590372.169464111 0 0 0 0 -764629019.25935364 151507323.22727966 0 151507323.22727966 74808400.860641479 0 0 0 0 -396440419.72927856 135574647.99353027 0 135574647.99353027 15132022.681564331 0 0 0 0 -294245868.82061768 136027529.57170105 0 136027529.57170105 1816742.5535125732 0 0 0 0 -679826046.06832123 354140798.79597473 0 354140798.79597473 -22281851.753082275 0 0 0 0 46964112.398956299 -58703468.127105713 0 -58703468.127105713 32490505.503509521 0 0 0 0 -251518306.26225281 54677893.785888672 0 54677893.785888672 9340862.4497375488 0 0 0 0 79872760.913047791 33826351.885345459 0 33826351.885345459 22690572.501251221 0 0 0 0 10950817.714668274 -58301012.521156311 0 -58301012.521156311 -18714023.197471619 0 0 0 0 -55320421.472873688 111837876.37559891 0 111837876.37559891 -81470582.906463623 0 0 0 0 -305077392.25325775 225441287.54304504 0 225441287.54304504 -35384803.07598877 0 0 0 0 -1119084342.0388031 365089512.36739349 0 365089512.36739349 -204606193.77159119 0 0 0 0 -554992966.20138168 -73421309.82119751 0 -73421309.82119751 -38805158.184654236 0 0 0 0 -927472504.89459658 273947842.43937111 0 273947842.43937111 -162791225.87895203 0 0 0 0 -962428221.17337036 263982634.50875854 0 263982634.50875854 159693498.83602905 0 0 0 0 -858005601.56249619 -469831271.91035748 0 -469831271.91035748 -532902318.96617126 0 0 0 0 -54874179.018234253 -18130919.811584473 0 -18130919.811584473 -7185144.4307098389 0 0 0 0 1426633.7598724365 167245191.64488983 0 167245191.64488983 -189478906.81421661 0 0 0 0 2267943.8858514428 186686.10821623355 0 186686.10821623355 -2893078.9133030958 0 0 0 0 -34980364.258255005 51161015.314306259 0 51161015.314306259 -45041336.821716309 0 0 0 0 57003908.588470459 -16734348.050952911 0 -16734348.050952911 266073153.90705872 0 0 0 0 52489008.616188049 1881372.8744812012 0 1881372.8744812012 189547112.83413696 0 0 0 0 -513936855.15512085 158976569.19154358 0 158976569.19154358 525276755.20021057 0 0 0 0 3126215.0999698639 -1126229.2030300051 0 -1126229.2030300051 -2467240.3698791713 0 0 0 0 -148478067.26816559 -123038653.5978508 0 -123038653.5978508 667391801.6242218 0 0 0 0 112563562.07214355 -324497731.48370361 0 -324497731.48370361 19214715.522094727 0 0 0 0 3191505.1699960232 -2285287.3136353046 0 -2285287.3136353046 -2691346.3817447051 0 0 0 0 -158167.70318603516 43054383.565330505 0 43054383.565330505 -39271475.962120056 0 0 0 0 111235612.90115356 12213586.144958496 0 12213586.144958496 -354747737.72534943 0 0 0 0 -12128570.474510193 15444071.883156776 0 15444071.883156776 -6612668.1784667969 0 0 0 0 88220926.820068359 -65549257.533546448 0 -65549257.533546448 -43162534.414916992 0 0 0 0 102340566.9335022 57924805.340209961 0 57924805.340209961 8965713.6750030518 0 0 0 0 -1413734.7007713318 88477320.764138222 0 88477320.764138222 171196916.46258545 0 0 0 0 -188717183.93682861 203656736.41633606 0 203656736.41633606 375358461.75765991 0 0 0 0 703015.01988440752 2313126.7211097628 0 2313126.7211097628 -448116.26981112361 0 0 0 0 21235343.516540527 20847059.219055176 0 20847059.219055176 -7146582.0807495117 0 0 0 0 26574520.095794678 50741638.51776123 0 50741638.51776123 8504570.0366210938 0 0 0 0 13484.300659179688 50768997.880378723 0 50768997.880378723 37802513.930389404 0 0 0 0 61313.083360240409 30051996.14005439 0 30051996.14005439 5739338.8031616211 0 0 0 0 7004966.067199707 34452944.075363159 0 34452944.075363159 3770272.702747345 0 0 0 0 -21690389.922454834 18984301.921409607 0 18984301.921409607 10010252.141014099 0 0 0 0 -13838592.251663208 4946180.8230934143 0 4946180.8230934143 -1292329.9777526855 0 0 0 0 2123706.9055328369 40319613.182712555 0 40319613.182712555 8706759.015045166 0 0 0 0 -44640.418753862381 198292.89010332525 0 198292.89010332525 -140331.73247082415 0 0 0 0 15037898.772006989 -20186116.2448349 0 -20186116.2448349 16546566.471252441 0 0 0 0 934645.66969474033 5489316.8998593614 0 5489316.8998593614 -432402.09457503259 0 0 0 0 -6121499.3595046997 19618029.313392639 0 19618029.313392639 20649077.128936768 0 0 0 0 -24395402.845672607 -1359068.2587051392 0 -1359068.2587051392 28170453.56312561 0 0 0 0 -5161594.708372131 160715.18332536519 0 160715.18332536519 1079073.816555961 0 0 0 0 1098818.331817627 12534350.502075195 0 12534350.502075195 -1250480.0033721924 0 0 0 0 -15411094.054779053 11807807.473922729 0 11807807.473922729 13882762.280147791 0 0 0 0 -3255844.4260253906 8985568.1231193542 0 8985568.1231193542 -3001135.6912918091 0 0 0 0 -2556403.8469983637 2250532.281434007 0 2250532.281434007 795428.45886652172 0 0 0 0 -6678262.4080505371 22826391.737464905 0 22826391.737464905 -16581877.581756592 0 0 0 0 2041276.1144599915 -33178260.151629448 0 -33178260.151629448 132252408.93953705 0 0 0 0 -131635.04703918099 3250321.6035986394 0 3250321.6035986394 -3363742.2836876102 0 0 0 0 -17288306.345611572 8165293.7335968018 0 8165293.7335968018 -2255818.1446266174 0 0 0 0 -1417903.510017395 10580442.981582642 0 10580442.981582642 4750785.8595428467 0 0 0 0 -6266738.2415771484 18281383.611328125 0 18281383.611328125 -3140336.5475418568 0 0 0 0 6383507.624905467 13628334.297148269 0 13628334.297148269 3744807.3589373231 0 0 0 0 -2902218.5038757324 9582959.4066467285 0 9582959.4066467285 5279441.3323364258 0 0 0 0 -1582267.3847200684 8706654.1565735713 0 8706654.1565735713 383267.56987600029 0 0 0 0 -40007837.47253418 23965462.271240234 0 23965462.271240234 55590015.243515015 0 0 0 0 -55614354.449081421 -29568051.522602081 0 -29568051.522602081 177300103.6317749 0 0 0 0 -498866.16481518373 658009.4301764518 0 658009.4301764518 211735.20862333477 0 0 0 0 -21941752.257507324 30530047.631774902 0 30530047.631774902 38343120.126022339 0 0 0 0 -15069227.271641284 7594428.3165654466 0 7594428.3165654466 4116233.1003505029 0 0 0 0 -36669621.835021973 20215680.03062439 0 20215680.03062439 57447767.504615784 0 0 0 0 -19404644.039581299 42535374.622608185 0 42535374.622608185 29248933.391220093 0 0 0 0 -35660030.529403687 63951255.624137878 0 63951255.624137878 3372744.0888061523 0 0 0 0 -47098794.588058472 41240842.52180481 0 41240842.52180481 70140387.710540771 0 0 0 0 -12682150.785858154 -5866339.8206863403 0 -5866339.8206863403 67448610.108657837 0 0 0 0 -43077019.775390625 38478316.716537476 0 38478316.716537476 55759357.774841309 0 0 0 0 -77614091.774536133 88895345.557540894 0 88895345.557540894 10933181.973236084 0 0 0 0 -34010285.300476074 48860341.478759766 0 48860341.478759766 65325910.514312744 0 0 0 0 -85039687.759336472 19646182.072570801 0 19646182.072570801 101391767.9128418 0 0 0 0 -31436832.502593994 82392981.046012878 0 82392981.046012878 -8772185.5795974731 0 0 0 0 -26113852.184051514 115260556.85190582 0 115260556.85190582 -298061839.27836609 0 0 0 0 -19204943.867645264 86818164.018558502 0 86818164.018558502 -85140572.077659607 0 0 0 0 -8520112.1758541763 38439297.76015123 0 38439297.76015123 7740343.0777130127 0 0 0 0 40104950.534790039 -62421586.584041595 0 -62421586.584041595 100758785.92266846 0 0 0 0 72342270.981964111 14271173.465400696 0 14271173.465400696 228623310.86975098 0 0 0 0 -71105929.074066162 -39883780.621208191 0 -39883780.621208191 134464060.31070328 0 0 0 0 -200035647.6786499 60128694.495536804 0 60128694.495536804 254782398.8886261 0 0 0 0 -142997922.41767883 179775019.02924728 0 179775019.02924728 -35562926.721668243 0 0 0 0 341377389.30796814 13969126.141681671 0 13969126.141681671 -138091402.23230743 0 0 0 0 -67045638.813179016 24227417.890930176 0 24227417.890930176 108183971.93901062 0 0 0 0 -111904054.53186989 287376632.23565006 0 287376632.23565006 219358190.19767761 0 0 0 0 282293094.32913208 318438733.05036163 0 318438733.05036163 129314916.32720947 0 0 0 0 -3180363.8343377411 3302955.7417452484 0 3302955.7417452484 3080989.4537279084 0 0 0 0 99853231.805114746 424733935.12277985 0 424733935.12277985 366269635.8717804 0 0 0 0 -3230061.2144000083 2631276.3747072071 0 2631276.3747072071 632485.11120290682 0 0 0 0 -12055381.463470459 22070053.523399353 0 22070053.523399353 27488446.58934021 0 0 0 0 -531388.64699785411 -483417.25940301269 0 -483417.25940301269 -317658.31896972843 0 0 0 0 -11519892.722564697 16758141.231010437 0 16758141.231010437 90315555.153820038 0 0 0 0 -13175913.464332581 9616869.021440506 0 9616869.021440506 64342635.511276245 0 0 0 0 -12958549.006103516 74476545.063079834 0 74476545.063079834 149108763.43100739 0 0 0 0 13251109.876037598 49876980.153816223 0 49876980.153816223 50390440.139942169 0 0 0 0 18101571.70362854 4123030.0737266541 0 4123030.0737266541 28029666.08467865 0 0 0 0 22231260.781729698 64526562.470157862 0 64526562.470157862 68255434.080062866 0 0 0 0 3340444.4118347168 11114015.189598083 0 11114015.189598083 37423479.99887085 0 0 0 0 76928090.524963379 146264420.77054596 0 146264420.77054596 90712892.389625549 0 0 0 0 51720387.058609009 94134988.907756805 0 94134988.907756805 -5481095.7389450073 0 0 0 0 473142643.16467285 14264631.576095581 0 14264631.576095581 -28293188.874160767 0 0 0 0 250979136.45492554 531092785.9114418 0 531092785.9114418 89528790.956886292 0 0 0 0 200164443.35388184 103463475.07392883 0 103463475.07392883 -13752649.338420868 0 0 0 0 161011585.19291687 -90102150.211759567 0 -90102150.211759567 -20420825.139465332 0 0 0 0 10945413.272460938 -107610774.90821838 0 -107610774.90821838 53927389.354232788 0 0 0 0 45757396.762542725 165334061.3951683 0 165334061.3951683 136752398.7205658 0 0 0 0 -1890940.1477079466 1980356.0919964314 0 1980356.0919964314 1866735.9818048626 0 0 0 0 -259151721.25292969 215752752.35788345 0 215752752.35788345 138764133.92797089 0 0 0 0 784121812.45980835 715652599.2228508 0 715652599.2228508 395191255.92873383 0 0 0 0 -38898003.02545166 487090580.4485054 0 487090580.4485054 487692018.71845245 0 0 0 0 20984911.84387207 470833219.49089813 0 470833219.49089813 464291276.09593964 0 0 0 0 22900847.215759277 425177554.83584976 0 425177554.83584976 376430452.54572296 0 0 0 0 46735342.025398254 324447675.90525246 0 324447675.90525246 177295277.51756287 0 0 0 0 -99642546.629989624 332875172.31399918 0 332875172.31399918 425226720.24983025 0 0 0 0 -132861652.00814819 7624799.5806655884 0 7624799.5806655884 311048592.79067993 0 0 0 0 -49751987.633972168 181436036.4079361 0 181436036.4079361 496380275.22596359 0 0 0 0 -1784073.9898792952 1787001.6195111126 0 1787001.6195111126 1736496.166706726 0 0 0 0 509147228.61886597 431830200.20596695 0 431830200.20596695 269585984.91381353 0 0 0 0 -580891556.15570068 -74543341.486976624 0 -74543341.486976624 452461109.91833496 0 0 0 0 -374587092.32763672 -74465224.383773804 0 -74465224.383773804 305570783.21422195 0 0 0 0 -44583511.946060181 32110479.279953003 0 32110479.279953003 1454036598.2970428 0 0 0 0 48489158.247085571 102116818.69181442 0 102116818.69181442 505841465.97898865 0 0 0 0 -74981316.888736725 422673566.15439034 0 422673566.15439034 692469898.80975342 0 0 0 0 24263866.490036011 333705964.31016541 0 333705964.31016541 610225087.81259918 0 0 0 0 429312.62329101562 415820389.92788696 0 415820389.92788696 726878879.92225647 0 0 0 0 -123263.7091217041 434813316.5966568 0 434813316.5966568 466321614.92823029 0 0 0 0 48592091.88760376 437727249.52465057 0 437727249.52465057 487905719.96524048 0 0 0 0 -75500392.744506836 422007960.64923477 0 422007960.64923477 490307239.5242424 0 0 0 0 24940271.833328247 398700470.70980835 0 398700470.70980835 365833959.13938141 0 0 0 0 -34113.70100402832 399612010.45516205 0 399612010.45516205 146171804.02433014 0 0 0 0 -87238230.25769043 348939501.72109604 0 348939501.72109604 367801313.78563249 0 0 0 0 -40818954.300537109 408626969.51327705 0 408626969.51327705 234427460.5063858 0 0 0 0 -147718832.25854492 317166620.98469162 0 317166620.98469162 205711952.42388439 0 0 0 0 -89813321.10333252 204533249.0379982 0 204533249.0379982 60577621.680028915 0 0 0 0 94804163.85459137 524402979.41110229 0 524402979.41110229 374994356.97921753 0 0 0 0 -110972125.96691895 377848478.46762085 0 377848478.46762085 465399404.77921391 0 0 0 0 -53750188.235519409 323891963.98446846 0 323891963.98446846 -88554105.803894043 0 0 0 0 -238629329.80397034 350046993.20709038 0 350046993.20709038 425649905.30813599 0 0 0 0 -225306441.81303596 489455455.15129042 0 489455455.15129042 -227585701.66999054 0 0 0 0 -179306760.09126377 152816525.73486161 0 152816525.73486161 -183300062.51908875 0 0 0 0 -123227454.53587341 418593935.47287369 0 418593935.47287369 -469550531.96353149 0 0 0 0 -52740.321197509766 356971130.20986938 0 356971130.20986938 -206247610.95594406 0 0 0 0 -53951642.535690308 213649931.33703232 0 213649931.33703232 -489031432.63643646 0 0 0 0 -73471393.287399292 244696491.08050537 0 244696491.08050537 -276089270.51504707 0 0 0 0 -6720.3053436279297 298274191.84965897 0 298274191.84965897 -520757516.87353516 0 0 0 0 -56711794.262634277 155526640.45920944 0 155526640.45920944 -717774582.61558533 0 0 0 0 -1877729.0889910758 1935738.6058280021 0 1935738.6058280021 9001956.2248011343 0 0 0 0 -3301.5563354492188 5421651.4610595703 0 5421651.4610595703 3765849.4555511475 0 0 0 0 2965279.9057312012 35857107.04460144 0 35857107.04460144 135069247.90298462 0 0 0 0 1797186.3327054828 -1048844.5376987606 0 -1048844.5376987606 -744479.87961711735 0 0 0 0 -60785781.683227539 41211240.56439209 0 41211240.56439209 10368328.607779384 0 0 0 0 -50612037.13104248 19677367.099075317 0 19677367.099075317 9597399.8823219538 0 0 0 0 4598549.5421476364 22981218.113103628 0 22981218.113103628 83997642.166244507 0 0 0 0 -10537052.63237077 882266.08102574199 0 882266.08102574199 10283401.076039534 0 0 0 0 9313152.4542342126 5401997.0184203759 0 5401997.0184203759 967885.15961744636 0 0 0 0 -9663647.0875091553 270279790.02154922 0 270279790.02154922 -506609402.95061493 0 0 0 0 10935535.20949699 3772416.7219071463 0 3772416.7219071463 -1460854.3597544134 0 0 0 0 -214046219.55813599 159684817.13651276 0 159684817.13651276 -78001158.417762756 0 0 0 0 -276360811.01991272 72230110.209839821 0 72230110.209839821 158455757.01403809 0 0 0 0 -230335305.17681885 1440612.2981147766 0 1440612.2981147766 79278226.256141663 0 0 0 0 -48965589.041564941 2520835.9516448975 0 2520835.9516448975 38854905.522956371 0 0 0 0 -66013076.365486145 27000670.228751183 0 27000670.228751183 40195795.882797241 0 0 0 0 -11774053.837389052 -880262.53330403566 0 -880262.53330403566 10251858.502656929 0 0 0 0 14101861.80770874 60667880.92898941 0 60667880.92898941 59354477.849938393 0 0 0 0 -178359951.77696228 -69970102.28384161 0 -69970102.28384161 16527793.906936646 0 0 0 0 -179343891.07232666 -141254945.2161293 0 -141254945.2161293 -101592417.63458681 0 0 0 0 -182730713.01623154 -64108662.285409451 0 -64108662.285409451 126636462.27513885 0 0 0 0 -197122842.64602661 -303459086.01618195 0 -303459086.01618195 -127879510.27540731 0 0 0 0 -11307356.492963061 -1621932.6086850986 0 -1621932.6086850986 9843711.1885841452 0 0 0 0 -36000411.118865967 -6506242.8264122009 0 -6506242.8264122009 45482200.697737694 0 0 0 0 77636823.664703369 68881576.669258118 0 68881576.669258118 -12599911.566402435 0 0 0 0 50518919.55859375 -13607771.09765625 0 -13607771.09765625 -94586803.022918701 0 0 0 0 58924721.337646484 144614563.32355881 0 144614563.32355881 153539634.31365585 0 0 0 0 -101832.19862558725 79396454.219671205 0 79396454.219671205 85099210.100723267 0 0 0 0 16679553.402404785 58839403.114898682 0 58839403.114898682 110008598.03260803 0 0 0 0 20418557.91501236 48996310.144252777 0 48996310.144252777 73589570.967193604 0 0 0 0 10152704.653594971 25871474.540576935 0 25871474.540576935 58352373.487380981 0 0 0 0 142982716.81335449 -240802726.20146561 0 -240802726.20146561 567183509.83708 0 0 0 0 543030465.32513428 -219158553.5571456 0 -219158553.5571456 5529304.9870452881 0 0 0 0 142955551.28413391 -135275523.0429039 0 -135275523.0429039 87278834.367713928 0 0 0 0 418113060.60679626 226525159.98108435 0 226525159.98108435 152055145.51895142 0 0 0 0 1021743689.1611176 -140955341.91441345 0 -140955341.91441345 371980815.9983654 0 0 0 0 42832582.996887207 11986340.745794296 0 11986340.745794296 86978564.565452576 0 0 0 0 333494515.34202576 -115844384.682127 0 -115844384.682127 -357999504.69075775 0 0 0 0 143172933.14413452 -95644774.922557831 0 -95644774.922557831 -31726587.169822693 0 0 0 0 61292706.794906616 -280383861.28318596 0 -280383861.28318596 86672097.157592773 0 0 0 0 221917481.38890076 -211753697.67013168 0 -211753697.67013168 -247324830.89162445 0 0 0 0 75673177.21081543 -135817249.7966156 0 -135817249.7966156 -276811948.39519882 0 0 0 0 -8791487.1948242188 -248202081.90293121 0 -248202081.90293121 -193933065.94485655 0 0 0 0 22409368.937164307 -233764141.70557022 0 -233764141.70557022 -328518412.71724701 0 0 0 0 -82493625.540466309 -166445645.07696915 0 -166445645.07696915 -220904831.43438721 0 0 0 0 -32744193.402160645 -263486643.02387238 0 -263486643.02387238 -233517913.37081146 0 0 0 0 -20735113.51953125 -286844782.43370819 0 -286844782.43370819 -19527457.259681702 0 0 0 0 61687451.079528809 -198191821.0165863 0 -198191821.0165863 -194302430.35554099 0 0 0 0 -246514017.47277832 -144806637.75853729 0 -144806637.75853729 -175599627.01032257 0 0 0 0 -147450099.84645081 -268789555.88480091 0 -268789555.88480091 -32784036.87172699 0 0 0 0 -197564943.64358521 -116722203.98874283 0 -116722203.98874283 236316616.22233963 0 0 0 0 -76922100.040557861 -220797676.96377563 0 -220797676.96377563 -41459732.677927971 0 0 0 0 11670549.313262939 -270685148.70515633 0 -270685148.70515633 257019316.3653717 0 0 0 0 -72254696.596862793 -134385195.80028152 0 -134385195.80028152 68140408.139640808 0 0 0 0 -32566590.214874268 26317382.808082581 0 26317382.808082581 432256531.21305084 0 0 0 0 -78179447.055274963 -116679947.43131065 0 -116679947.43131065 202593117.32085419 0 0 0 0 -234905615.90753174 -24441396.927520752 0 -24441396.927520752 381697936.16117096 0 0 0 0 -166063663.27749634 58291344.589164734 0 58291344.589164734 -46012651.221611023 0 0 0 0 -97765815.367492676 219585583.0388031 0 219585583.0388031 228334250.55779648 0 0 0 0 11737044.565551758 29044062.598802567 0 29044062.598802567 316493034.70723724 0 0 0 0 589702959.88423157 256464380.32298279 0 256464380.32298279 670473728.79025269 0 0 0 0 500995334.70085144 387057087.40857887 0 387057087.40857887 522090698.87420654 0 0 0 0 1050816668.6590576 775704220.84416962 0 775704220.84416962 371014561.89676666 0 0 0 0 86869247.929626465 -116963007.90900993 0 -116963007.90900993 590116004.19017792 0 0 0 0 459352788.37316895 83655812.526531219 0 83655812.526531219 472448256.83507061 0 0 0 0 808815044.94919586 785855588.37630844 0 785855588.37630844 2574833669.6399384 0 0 0 0 975066508.86297607 533540161.40058136 0 533540161.40058136 754279324.48849869 0 0 0 0 338988844.39325714 268279717.78997517 0 268279717.78997517 1299124878.8790894 0 0 0 0 1819842875.7709656 1442740836.835289 0 1442740836.835289 709404224.56788635 0 0 0 0 818972114.26794434 699604860.52754211 0 699604860.52754211 1028230696.0869904 0 0 0 0 1816320373.6719055 641232634.35361481 0 641232634.35361481 489466946.16244507 0 0 0 0 1964812965.3236237 1116523719.2200794 0 1116523719.2200794 -273976191.36805725 0 0 0 0 -802919.47279840708 1827838.1297521368 0 1827838.1297521368 242551.60042615235 0 0 0 0 57367847.827758789 326162786.858078 0 326162786.858078 807662380.90214539 0 0 0 0 1653109457.0068893 432460755.15924931 0 432460755.15924931 -240516658.11166382 0 0 0 0 985838640.35224915 149289839.69756126 0 149289839.69756126 -333697565.58914185 0 0 0 0 1202275799.8526611 752348242.02282715 0 752348242.02282715 -45193396.370796204 0 0 0 0 1390619088.6825485 1038981851.2079964 0 1038981851.2079964 225062722.63554382 0 0 0 0 1099484075.8095703 581463946.56633759 0 581463946.56633759 695962229.50195312 0 0 0 0 680755562.53689575 496283035.9915657 0 496283035.9915657 160211045.05508423 0 0 0 0 1201579842.9235611 765622488.70197201 0 765622488.70197201 -276673565.48761749 0 0 0 0 1114720474.6634064 1081528795.5036697 0 1081528795.5036697 335750290.063591 0 0 0 0 1422522676.1401062 1013907637.5056839 0 1013907637.5056839 -159098112.57321167 0 0 0 0 791171760.109375 600362707.01391983 0 600362707.01391983 -24514585.11378479 0 0 0 0 248553754.51564026 227205518.43216705 0 227205518.43216705 77295579.515518188 0 0 0 0 -21426924.372009277 176632318.53799438 0 176632318.53799438 -60948419.225471497 0 0 0 0 788072086.22891235 656648254.45901489 0 656648254.45901489 -190305332.92819214 0 0 0 0 1139266736.9725952 855111085.50554657 0 855111085.50554657 -163821479.17835999 0 0 0 0 9658196.9344568253 2645393.8379038125 0 2645393.8379038125 -1971474.6721111499 0 0 0 0 -335269334.96115112 556305687.23706055 0 556305687.23706055 -232114333.08460236 0 0 0 0 -141822767.44509888 -24828612.683383942 0 -24828612.683383942 -125655299.86417389 0 0 0 0 698920535.57376099 475244064.66339874 0 475244064.66339874 122580274.6339016 0 0 0 0 1246031910.1790009 435698944.55817795 0 435698944.55817795 -681547788.18941116 0 0 0 0 4746684.1618838906 786361.93387935311 0 786361.93387935311 -1494773.3706291728 0 0 0 0 -23337708.463165283 231684056.77770233 0 231684056.77770233 -94881924.072784424 0 0 0 0 -341530740.91642761 404579223.89474583 0 404579223.89474583 1078164056.9438553 0 0 0 0 579813061.56855774 1026651203.3061752 0 1026651203.3061752 694981872.95480347 0 0 0 0 -66848341.161827087 658331909.46451378 0 658331909.46451378 517608280.06760406 0 0 0 0 351765943.03764343 189469989.07474518 0 189469989.07474518 124017628.1434021 0 0 0 0 39716867.423400879 356453579.15431213 0 356453579.15431213 137367140.61415863 0 0 0 0 -226356475.86364746 119745495.0091095 0 119745495.0091095 239584415.76559448 0 0 0 0 935073366.43238068 -113043997.94980049 0 -113043997.94980049 267910930.57521057 0 0 0 0 569519370.49817657 760324404.71425629 0 760324404.71425629 826170907.36301422 0 0 0 0 330859697.67358398 70536232.091018677 0 70536232.091018677 806627144.64142847 0 0 0 0 1249459708.2557068 529685545.44527817 0 529685545.44527817 56482142.593063354 0 0 0 0 378986891.53668213 174225486.14041901 0 174225486.14041901 148553550.45610046 0 0 0 0 315986095.49121857 -107342391.33682442 0 -107342391.33682442 21128356.602874756 0 0 0 0 -11960618.927886963 49601426.092384338 0 49601426.092384338 298430267.70848083 0 0 0 0 120736331.32501221 30488505.800056458 0 30488505.800056458 3749480.9525756836 0 0 0 0 -153442172.66766357 76827989.886856079 0 76827989.886856079 -109444898.96568298 0 0 0 0 -58311444.849761963 -94884885.691635132 0 -94884885.691635132 85394725.864120483 0 0 0 0 -222955789.31654358 106649966.93128204 0 106649966.93128204 -121776240.75900269 0 0 0 0 -726223066.65032959 227254850.71969604 0 227254850.71969604 -75878113.513427734 0 0 0 0 -345161657.56530762 125676212.83955383 0 125676212.83955383 -182005415.91662598 0 0 0 0 -765900670.91271973 -47164814.027572632 0 -47164814.027572632 -97139931.661407471 0 0 0 0 -320727043.87120056 -36526617.606176376 0 -36526617.606176376 -79142811.96105957 0 0 0 0 -429661935.69812012 184784188.01699829 0 184784188.01699829 -18038479.806915283 0 0 0 0 -411462112.88824463 76246187.733757019 0 76246187.733757019 -245183664.96173096 0 0 0 0 -75691623.320983887 196136043.70751953 0 196136043.70751953 -38310964.851348877 0 0 0 0 -591659238.82720947 73905552.919502258 0 73905552.919502258 204898317.10804749 0 0 0 0 -328508094.88592529 294500979.07622528 0 294500979.07622528 174072631.57475281 0 0 0 0 -1345933.3233529329 9923759.9152689576 0 9923759.9152689576 3520102.0061563849 0 0 0 0 -168158286.64587402 76235378.697158813 0 76235378.697158813 -46694019.336242676 0 0 0 0 -629134416.87023926 280449016.47819901 0 280449016.47819901 101249669.85483551 0 0 0 0 -1576128.9743064046 5642941.317912329 0 5642941.317912329 4881545.0442098603 0 0 0 0 -3258755.8098754883 3530497.6914634705 0 3530497.6914634705 -655720.49791717529 0 0 0 0 -333663.52171365917 17959597.130218625 0 17959597.130218625 1069524.5779678896 0 0 0 0 -8191909.3936921656 6872216.5496857986 0 6872216.5496857986 -104985.45060803741 0 0 0 0 18524748.359693989 1889923.0275891647 0 1889923.0275891647 -2706014.781071879 0 0 0 0 10061672.312576152 29197448.930562139 0 29197448.930562139 261840.78414527327 0 0 0 0 64610240.849609375 -1594249.1277313232 0 -1594249.1277313232 -11708345.649871826 0 0 0 0 44751548.728363037 38225656.012098312 0 38225656.012098312 -47097613.927619934 0 0 0 0 3677747.7416116595 2945054.0044504255 0 2945054.0044504255 -1199819.0958555043 0 0 0 0 -1032248894.6751099 153245032.75968933 0 153245032.75968933 41716933.520843506 0 0 0 0 -22111755.684402466 41309873.477367401 0 41309873.477367401 3652922.699508667 0 0 0 0 -15197372.576446533 26372194.812667847 0 26372194.812667847 6743178.4736824036 0 0 0 0 35928331.131011963 34472785.753414154 0 34472785.753414154 712073.44480895996 0 0 0 0 3150617.4391784668 37004564.752971649 0 37004564.752971649 12402418.008605957 0 0 0 0 3124472.1066436768 36489242.649547577 0 36489242.649547577 7279694.2271575928 0 0 0 0 18605695.424346924 26431336.591991425 0 26431336.591991425 5863697.8578796387 0 0 0 0 15605239.712295532 34788846.289733887 0 34788846.289733887 375503.88909912109 0 0 0 0 16797603.2784729 44421281.520507812 0 44421281.520507812 14790372.613479614 0 0 0 0 4356592.3477783203 32121682.351612091 0 32121682.351612091 4878637.7638549805 0 0 0 0 4342814.5053710938 31156717.406478882 0 31156717.406478882 10286820.648475647 0 0 0 0 4241660.0682220459 32041823.042289734 0 32041823.042289734 6843130.0622558594 0 0 0 0 3183147.0308532715 31934345.831512451 0 31934345.831512451 15840949.914278984 0 0 0 0 -11521837.216217041 27662399.155860901 0 27662399.155860901 -2091545.6915473938 0 0 0 0 20581772.112915039 32946706.828659058 0 32946706.828659058 30022051.407516479 0 0 0 0 -11188910.548431396 26148192.725143433 0 26148192.725143433 11366997.599739075 0 0 0 0 -12634443.029586792 28346815.641735077 0 28346815.641735077 8179693.4366760254 0 0 0 0 -8647153.600755617 17117171.926641345 0 17117171.926641345 4443541.7597975358 0 0 0 0 -14090548.039642334 22401477.500770569 0 22401477.500770569 5901366.3774223328 0 0 0 0 20408295.488586426 33104617.695983887 0 33104617.695983887 30445148.953659058 0 0 0 0 -10523756.649109825 31760527.415063754 0 31760527.415063754 1714776.7893710304 0 0 0 0 8479309.0843963623 80510980.577156067 0 80510980.577156067 47442016.744638443 0 0 0 0 4756069.0249780267 38142292.554144584 0 38142292.554144584 -3104438.170051082 0 0 0 0 -9878078.0069274902 -11212460.274051666 0 -11212460.274051666 20579568.512901306 0 0 0 0 4137521.7723693848 40220129.092182159 0 40220129.092182159 -403341.6845703125 0 0 0 0 -16300871.846557617 32207374.546440125 0 32207374.546440125 8604135.2334136963 0 0 0 0 -110666921.67260742 2510333.0324401855 0 2510333.0324401855 -45462481.226196289 0 0 0 0 -30031629.815334029 18785772.700255603 0 18785772.700255603 11248862.59077251 0 0 0 0 -84453702.420944214 70110704.935373306 0 70110704.935373306 46732831.437652588 0 0 0 0 -10539363.707175791 -1654567.6148398928 0 -1654567.6148398928 6876369.7723655589 0 0 0 0 -25377354.532104492 19208674.793479919 0 19208674.793479919 13167795.132705688 0 0 0 0 63227259.348449707 -92935623.942115784 0 -92935623.942115784 6421751.343170166 0 0 0 0 -6970977.1384124756 11582417.320689201 0 11582417.320689201 3312240.6777954102 0 0 0 0 -11870898.896392822 -4850107.9447746277 0 -4850107.9447746277 -11392744.548286438 0 0 0 0 -6999341.1134419292 -144010.32473900914 0 -144010.32473900914 4147800.8028049581 0 0 0 0 7808294.1506347656 19881454.793304443 0 19881454.793304443 -12403455.873816013 0 0 0 0 -9547155.8421325684 8440141.2569313049 0 8440141.2569313049 26370146.76550293 0 0 0 0 -1245611.971496582 8302086.3767242432 0 8302086.3767242432 3775435.6675310135 0 0 0 0 -3865361.8083740994 11333492.455978975 0 11333492.455978975 -1650930.5779981315 0 0 0 0 -6121059.6645507812 8534463.3070487976 0 8534463.3070487976 4606184.5268745422 0 0 0 0 -19336677.047607422 27112002.654335022 0 27112002.654335022 -18516705.327758789 0 0 0 0 -18083227.900787354 22044569.093097687 0 22044569.093097687 1954167.1582336426 0 0 0 0 -28152708.87109375 11385681.809204102 0 11385681.809204102 -8844319.5493774414 0 0 0 0 -3563422.6403808594 5133091.2761383057 0 5133091.2761383057 -2038201.6892402172 0 0 0 0 -10616696.49658154 4879372.0540335793 0 4879372.0540335793 8593130.9423346575 0 0 0 0 -173994283.41943359 457467464.41316986 0 457467464.41316986 -272058987.32363892 0 0 0 0 -4257812.6086397171 3804998.9103231579 0 3804998.9103231579 2281918.8222940229 0 0 0 0 -496908019.956604 406857652.86568451 0 406857652.86568451 -72425728.124969482 0 0 0 0 -178763874.16790771 67961517.037960052 0 67961517.037960052 -122148718.150177 0 0 0 0 -4090197.8999316506 7013829.3106411695 0 7013829.3106411695 -866453.57705602795 0 0 0 0 1987799.7894920111 10508885.257742107 0 10508885.257742107 -1614274.824789159 0 0 0 0 -2541925.9780731201 10297837.333026886 0 10297837.333026886 -2728411.5388183594 0 0 0 0 -3872246.2156427205 6543404.604334332 0 6543404.604334332 2461848.4907989707 0 0 0 0 -4596431.286315918 5888230.1521759033 0 5888230.1521759033 3987671.0159835815 0 0 0 0 -3475786.5288543701 7302557.6312561035 0 7302557.6312561035 3474671.5371017456 0 0 0 0 -225935702.55004597 45601980.365941048 0 45601980.365941048 185500516.33409882 0 0 0 0 -244244216.15054321 82077145.356582642 0 82077145.356582642 297076189.51002502 0 0 0 0 -186585422.14306259 299294442.79235077 0 299294442.79235077 -149506470.57341766 0 0 0 0 -2226829.933719635 111887203.17041969 0 111887203.17041969 19217267.985786438 0 0 0 0 -31688644.286468506 129383812.56652451 0 129383812.56652451 23683267.555785179 0 0 0 0 -19987935.84866333 97773361.279111862 0 97773361.279111862 105711604.87247467 0 0 0 0 26664248.538852692 80942877.474376678 0 80942877.474376678 32818884.455780029 0 0 0 0 -10986573.716186523 86645426.672489166 0 86645426.672489166 34907799.838682175 0 0 0 0 4181992.2279129028 114370165.2945652 0 114370165.2945652 -13425222.850891113 0 0 0 0 -12791225.734263659 34927014.786063015 0 34927014.786063015 6133570.7913857549 0 0 0 0 33009026.381271362 80734219.602138519 0 80734219.602138519 8229775.4145698547 0 0 0 0 51777829.622259617 51547964.7185359 0 51547964.7185359 11567834.180297852 0 0 0 0 41496047.595474243 62708236.605051041 0 62708236.605051041 17980186.912139893 0 0 0 0 -19506048.222464897 32797793.39280523 0 32797793.39280523 8553165.3036961854 0 0 0 0 14424203.915435791 36761352.807552338 0 36761352.807552338 15397078.502073288 0 0 0 0 34038485.482780457 56336213.127878189 0 56336213.127878189 7816887.8336486816 0 0 0 0 28195001.81653595 49001485.575864792 0 49001485.575864792 -8347464.9408035278 0 0 0 0 3672719.5377671123 41038408.509493366 0 41038408.509493366 -3187464.6126771206 0 0 0 0 -13959472.910644531 30466237.500175476 0 30466237.500175476 41541339.159927845 0 0 0 0 24217207.431365967 85414861.809843063 0 85414861.809843063 -16899053.265808105 0 0 0 0 -21486401.326309398 28829966.072160035 0 28829966.072160035 -2642381.0044875965 0 0 0 0 -4141782.9663600549 30020712.320712771 0 30020712.320712771 3235848.3753137765 0 0 0 0 -1048697.929232657 7140061.7758256309 0 7140061.7758256309 737357.9372863844 0 0 0 0 -8167387.7018489838 50481299.188940048 0 50481299.188940048 13158966.721076965 0 0 0 0 -31068248.80311203 83892587.300384521 0 83892587.300384521 21177253.564190865 0 0 0 0 -44588744.46660614 29428705.131500244 0 29428705.131500244 53173715.798660278 0 0 0 0 -88754381.817558289 34662456.864562988 0 34662456.864562988 60315517.602325439 0 0 0 0 -172460017.24502563 36934122.385869026 0 36934122.385869026 90874470.402458191 0 0 0 0 -92600326.809806824 159711848.88707733 0 159711848.88707733 -128123542.74460602 0 0 0 0 -35912208.099098206 89306471.662010193 0 89306471.662010193 -109178283.60668182 0 0 0 0 -41283184.971923828 16498926.697380066 0 16498926.697380066 -71998688.74156189 0 0 0 0 -22105590.413162231 55969340.739105225 0 55969340.739105225 -128051861.6341095 0 0 0 0 -23893819.446479797 52395369.262925148 0 52395369.262925148 -58889459.55065918 0 0 0 0 -196033209.53237152 -16657168.296859741 0 -16657168.296859741 144487275.86520386 0 0 0 0 -9473044.2926187925 7411259.8776021935 0 7411259.8776021935 3449776.1341265738 0 0 0 0 -118492938.07898235 48386740.432381392 0 48386740.432381392 37937117.715103149 0 0 0 0 -125127599.49074554 112724244.57653046 0 112724244.57653046 -48360995.72631073 0 0 0 0 -59486001.441095352 50099854.703576088 0 50099854.703576088 10424901.982437134 0 0 0 0 -87410056.114040375 35746426.964565277 0 35746426.964565277 47887037.412750244 0 0 0 0 -79001701.357543945 55650134.174560547 0 55650134.174560547 15900651.733917236 0 0 0 0 -102892022.59019279 27939020.070823669 0 27939020.070823669 43969767.493728638 0 0 0 0 -49510514.02936554 28385686.488502502 0 28385686.488502502 40115086.089859009 0 0 0 0 24341486.679016113 41530887.403152466 0 41530887.403152466 61351481.725082397 0 0 0 0 -27601431.986096248 27649740.614617962 0 27649740.614617962 -378511.91990123689 0 0 0 0 -13197055.371412054 42496952.48908706 0 42496952.48908706 -3312457.3937673867 0 0 0 0 -41616976.876825288 32048678.595949575 0 32048678.595949575 10838941.563308064 0 0 0 0 65849161.589996338 110097845.58953094 0 110097845.58953094 69867431.586959839 0 0 0 0 -155783801.65090942 623607243.80464172 0 623607243.80464172 238007491.70599365 0 0 0 0 -965954601.77600098 -363252230.70894241 0 -363252230.70894241 -92258317.62960434 0 0 0 0 89239437.569702148 90269749.115005493 0 90269749.115005493 227258784.244524 0 0 0 0 -373156275.74655151 -473970820.71912384 0 -473970820.71912384 235683368.80521393 0 0 0 0 420859820.96334839 -47855461.877918243 0 -47855461.877918243 -266249605.36386871 0 0 0 0 30038119.564178467 101212581.26988983 0 101212581.26988983 50323274.216849327 0 0 0 0 -432827844.93096924 295910883.81778717 0 295910883.81778717 400303414.09203339 0 0 0 0 -31699584.953462288 26662978.188894875 0 26662978.188894875 6990495.0831878558 0 0 0 0 -511811.79624480009 -773805.46614709217 0 -773805.46614709217 531177.85119995754 0 0 0 0 53577315.93951416 -170619690.94375229 0 -170619690.94375229 42298335.138071775 0 0 0 0 15581819.674041748 51446619.156837463 0 51446619.156837463 -87594494.606124878 0 0 0 0 -145025030.91320801 45490025.066253662 0 45490025.066253662 21072891.761291504 0 0 0 0 -6823492.9308547378 -3973856.3295882978 0 -3973856.3295882978 9469928.0879040621 0 0 0 0 7047342.2540626526 113050228.23139286 0 113050228.23139286 253021642.41907501 0 0 0 0 2705641.3743286133 61493993.408058167 0 61493993.408058167 218903558.71524811 0 0 0 0 -7828726.5031519532 1746685.1754328981 0 1746685.1754328981 4845214.2586471327 0 0 0 0 -515775848.95625305 -108003443.89904785 0 -108003443.89904785 -11115279.324234009 0 0 0 0 190890136.74047852 253963636.34416389 0 253963636.34416389 165587390.766716 0 0 0 0 40157190.898765564 159341756.89004278 0 159341756.89004278 314833473.1284256 0 0 0 0 41890999.97151947 168815494.04402351 0 168815494.04402351 141519746.17955017 0 0 0 0 58268309.521850586 282633425.91889143 0 282633425.91889143 340104877.85441589 0 0 0 0 178318110.56744385 567956227.87987709 0 567956227.87987709 246314747.05369186 0 0 0 0 -117948500.75271606 567203765.68954849 0 567203765.68954849 159112763.43730354 0 0 0 0 66553936.868171692 294147180.1731267 0 294147180.1731267 -132788862.58246613 0 0 0 0 -546945745.94110107 470416644.43998528 0 470416644.43998528 205506217.97747803 0 0 0 0 -173274052.57366943 80230977.355690002 0 80230977.355690002 117108860.52633667 0 0 0 0 82822425.697226048 403895124.21538198 0 403895124.21538198 211891467.17427826 0 0 0 0 -2742194.7608968318 559795.44657366723 0 559795.44657366723 1803089.6986002028 0 0 0 0 -156003932.18164062 134301105.62888336 0 134301105.62888336 370571515.22819328 0 0 0 0 -524816565.69631958 541496677.84967041 0 541496677.84967041 -37030361.845993042 0 0 0 0 574693127.77166748 85278792.033786774 0 85278792.033786774 -103897140.77862549 0 0 0 0 125365823.07489014 5945127.5568027496 0 5945127.5568027496 38897524.421524048 0 0 0 0 20220169.123809814 206480655.52282143 0 206480655.52282143 -159258204.66197205 0 0 0 0 -237864520.06524658 -47215014.603565216 0 -47215014.603565216 -160727664.44043255 0 0 0 0 -667984723.14437866 288854081.44494629 0 288854081.44494629 28170802.070480347 0 0 0 0 -203089236.41467285 239633753.52393341 0 239633753.52393341 -122492953.18735123 0 0 0 0 1562175.4092620015 2876573.2349042669 0 2876573.2349042669 1764546.7011995297 0 0 0 0 55282045.480133057 58462889.311729431 0 58462889.311729431 -32619284.699159622 0 0 0 0 192493631.12249756 653832.36499786377 0 653832.36499786377 -15944268.631155014 0 0 0 0 48201199.271057129 10459220.950365067 0 10459220.950365067 53646460.082904816 0 0 0 0 148066037.48706055 77870121.523233414 0 77870121.523233414 9040184.8693237305 0 0 0 0 77073119.373474121 -32802908.329040527 0 -32802908.329040527 -48354442.559005737 0 0 0 0 232744610.08959961 39892614.614463806 0 39892614.614463806 -42540989.302429199 0 0 0 0 397082672.87194824 163035900.01351929 0 163035900.01351929 17617805.658454895 0 0 0 0 186463709.79766846 16995107.872421265 0 16995107.872421265 28791139.840618134 0 0 0 0 176565414.05172729 70890174.229744911 0 70890174.229744911 111966965.65609741 0 0 0 0 237173966.53826904 201162968.08831024 0 201162968.08831024 41665878.286640167 0 0 0 0 -7100632.2453714311 8014469.3895815648 0 8014469.3895815648 6036990.3185128244 0 0 0 0 -10528201.367034912 14783449.978198886 0 14783449.978198886 12074807.969419479 0 0 0 0 -38256338.748344317 38782215.920917057 0 38782215.920917057 17654875.090285514 0 0 0 0 -52890037.713163354 45644897.846914336 0 45644897.846914336 34084592.092935756 0 0 0 0 6927371.9593861252 20753913.054659765 0 20753913.054659765 11198261.546956604 0 0 0 0 408467059.93457031 131910218.66722488 0 131910218.66722488 -32748165.277374268 0 0 0 0 483525599.57507324 64564415.877399445 0 64564415.877399445 27374889.013076782 0 0 0 0 18202683.984870911 34422869.829160213 0 34422869.829160213 19485118.795310974 0 0 0 0 384840000.76843262 155223928.11659241 0 155223928.11659241 -89816000.824281693 0 0 0 0 373301663.12442017 131111939.38389587 0 131111939.38389587 89206459.797683716 0 0 0 0 41839669.716308594 37781443.64743042 0 37781443.64743042 19132727.835235596 0 0 0 0 644790428.11550903 373747023.29165268 0 373747023.29165268 18084705.272506714 0 0 0 0 -30540128.185123667 43792452.186221927 0 43792452.186221927 14459778.454105087 0 0 0 0 2055364.3216958344 41290187.8745033 0 41290187.8745033 -6261228.2624877878 0 0 0 0 -41492999.110023499 32167249.764610291 0 32167249.764610291 -29881704.842788696 0 0 0 0 -33982267.644228317 19513686.464248534 0 19513686.464248534 14742055.253095564 0 0 0 0 58789016.922576904 440415723.09661674 0 440415723.09661674 809756215.5464859 0 0 0 0 -73760937.317687988 408495970.31905746 0 408495970.31905746 1072581846.1312752 0 0 0 0 342612158.8520813 1193327581.0786018 0 1193327581.0786018 2315435427.1100349 0 0 0 0 2257559806.1417847 283532457.59925079 0 283532457.59925079 764670316.58212662 0 0 0 0 -67015287.008361816 -270389870.6734581 0 -270389870.6734581 1136960524.8351803 0 0 0 0 -910144.89575949311 3510216.2745461687 0 3510216.2745461687 2237169.0376432315 0 0 0 0 2215552526.1422577 416154679.95451355 0 416154679.95451355 71405977.972564697 0 0 0 0 104018.09014604986 1419505.6624351013 0 1419505.6624351013 -379567.49716158397 0 0 0 0 -8614210.9497585744 3167191.3202736089 0 3167191.3202736089 3193437.4166498454 0 0 0 0 -4553388.8724975586 12028294.419246674 0 12028294.419246674 8635700.5187454224 0 0 0 0 267167092.47953796 -128382353.87618446 0 -128382353.87618446 -66629874.248710632 0 0 0 0 65505553.563598633 144733342.53764343 0 144733342.53764343 285973603.82898331 0 0 0 0 -8943688.5069878399 3207287.1403863374 0 3207287.1403863374 1976346.0507365968 0 0 0 0 -4413009.2607421875 29491459.437843323 0 29491459.437843323 41257600.23828125 0 0 0 0 -9885917.0383251458 2980377.3457060019 0 2980377.3457060019 1799590.0831403751 0 0 0 0 -154053823.15185547 33595385.138389587 0 33595385.138389587 39348133.628616333 0 0 0 0 73489711.569396973 50969140.946662903 0 50969140.946662903 115684259.94518089 0 0 0 0 -18475890.652648926 -28647690.931587219 0 -28647690.931587219 33226523.441146851 0 0 0 0 -1512925.8387451172 -34375997.042221069 0 -34375997.042221069 34819298.580528259 0 0 0 0 -1959734.9858701378 -77636.351694487035 0 -77636.351694487035 1115826.597502403 0 0 0 0 37619003.624206543 3096799.6264724731 0 3096799.6264724731 17144330.328102112 0 0 0 0 -13876128.64616394 40479144.437988281 0 40479144.437988281 326645389.97232056 0 0 0 0 69862202.947692871 220749609.74153519 0 220749609.74153519 395380632.27874184 0 0 0 0 60463872.798614502 106320947.17507553 0 106320947.17507553 245196671.65930176 0 0 0 0 -91983416.577254295 153406327.14447272 0 153406327.14447272 495296804.73503113 0 0 0 0 237514869.98730469 535095185.06910324 0 535095185.06910324 696299563.53384972 0 0 0 0 163520281.08499146 363284829.25900459 0 363284829.25900459 450405325.86450577 0 0 0 0 161003078.64387131 228013646.19947815 0 228013646.19947815 333033160.22377777 0 0 0 0 506098798.07171631 274046469.03788376 0 274046469.03788376 406952602.41981125 0 0 0 0 706079586.27752686 770128142.60350943 0 770128142.60350943 407347852.73148727 0 0 0 0 265879758.11203003 959105029.25404358 0 959105029.25404358 422882392.05798531 0 0 0 0 249032547.36296082 909712905.27266407 0 909712905.27266407 991440406.17229462 0 0 0 0 185245214.777771 715906032.94254494 0 715906032.94254494 416287514.18939972 0 0 0 0 848117128.29792786 744346496.63888359 0 744346496.63888359 302605964.50862503 0 0 0 0 545814105.56594849 653332422.81899834 0 653332422.81899834 693926322.70845032 0 0 0 0 532782515.13858032 136534559.16195774 0 136534559.16195774 -608789991.02288818 0 0 0 0 -171323370.14883423 339515221.28855324 0 339515221.28855324 271497866.68580174 0 0 0 0 4501734.9934213459 -1717723.8092761114 0 -1717723.8092761114 -1194568.1836753022 0 0 0 0 -48841894.709701538 57212757.73956871 0 57212757.73956871 -43367235.915561676 0 0 0 0 71221001.981781006 474016785.41101837 0 474016785.41101837 -755163821.65273857 0 0 0 0 -68915474.354385376 -5233632.5164260864 0 -5233632.5164260864 27306237.686584473 0 0 0 0 -2111888.5651463419 -1208356.0208490342 0 -1208356.0208490342 2395110.6570429839 0 0 0 0 1416046.6810302734 1305704.5832271576 0 1305704.5832271576 22922475.086906433 0 0 0 0 299974267.18663025 142085792.49453068 0 142085792.49453068 64891598.152124405 0 0 0 0 -25034803.353881836 -59198003.871872902 0 -59198003.871872902 92714205.047039032 0 0 0 0 -97127899.909744263 28950291.11438942 0 28950291.11438942 103494907.68825531 0 0 0 0 446579435.28182983 -34065665.04590416 0 -34065665.04590416 -100734855.32327271 0 0 0 0 2190114.2717435211 -874163.01487731189 0 -874163.01487731189 -669430.87189124711 0 0 0 0 913591071.64537048 504685434.17211056 0 504685434.17211056 115782762.89141846 0 0 0 0 357142461.43081665 700063216.16751099 0 700063216.16751099 648184814.03646183 0 0 0 0 230430575.63642883 488973921.98444271 0 488973921.98444271 307613298.50558472 0 0 0 0 270385941.35437012 600105288.61344719 0 600105288.61344719 360559842.59393692 0 0 0 0 360242607.61462402 491999861.09257698 0 491999861.09257698 480357392.78983879 0 0 0 0 235529782.47576904 184439461.8638401 0 184439461.8638401 66350074.20072031 0 0 0 0 -1401505.2576127946 -1643805.2599440273 0 -1643805.2599440273 1623578.8211873071 0 0 0 0 49727541.167480469 105081553.95503902 0 105081553.95503902 -175885355.31605577 0 0 0 0 -660430.50478506088 -1030373.6106782872 0 -1030373.6106782872 767369.09640323836 0 0 0 0 36978028.391616821 23114241.06119442 0 23114241.06119442 -578216450.99504662 0 0 0 0 179589629.37661743 650564917.3409071 0 650564917.3409071 752808599.07516098 0 0 0 0 -46834251.348297119 359849541.59580135 0 359849541.59580135 -299950045.72508717 0 0 0 0 86282063.492645264 269252565.03789711 0 269252565.03789711 -55577205.217274666 0 0 0 0 32077956.056106567 269279283.97075844 0 269279283.97075844 230671352.52204514 0 0 0 0 75423025.429931641 221941815.44647026 0 221941815.44647026 136713598.84772491 0 0 0 0 6954723.099395752 172786398.85749269 0 172786398.85749269 201531447.17086601 0 0 0 0 -23110320.074798584 69675591.080233574 0 69675591.080233574 10416204.712669373 0 0 0 0 8394854.0981275737 8699241.3747765049 0 8699241.3747765049 3797692.6564059239 0 0 0 0 130239729.1865015 79849884.557961166 0 79849884.557961166 25523665.227386475 0 0 0 0 135919932.08197021 73676881.131075859 0 73676881.131075859 31971258.409759521 0 0 0 0 129552417.48073912 43186272.991686463 0 43186272.991686463 22344998.588348389 0 0 0 0 -52278903.916679904 25624214.30064024 0 25624214.30064024 19345672.102872584 0 0 0 0 153117558.37411499 43990804.700235367 0 43990804.700235367 22257771.522529602 0 0 0 0 306987891.75724792 338048064.3462162 0 338048064.3462162 196732347.7092247 0 0 0 0 302215502.2596283 395330660.95580673 0 395330660.95580673 159074657.6911087 0 0 0 0 167622321.24560547 599897138.64103603 0 599897138.64103603 181213931.47624207 0 0 0 0 27424249.59286499 467651892.36561012 0 467651892.36561012 325532212.35743713 0 0 0 0 -293221315.92790222 245709346.41414452 0 245709346.41414452 271544609.34798431 0 0 0 0 143726296.07606506 295936611.13264084 0 295936611.13264084 271807957.63068771 0 0 0 0 104503333.88467407 528852741.80264854 0 528852741.80264854 310405918.07556057 0 0 0 0 10952380.380081177 427542184.57227898 0 427542184.57227898 292496905.96365738 0 0 0 0 209662146.89224243 701037002.89598846 0 701037002.89598846 421071386.82747793 0 0 0 0 166003748.89086914 469445138.2717123 0 469445138.2717123 356069100.21927643 0 0 0 0 25776083.755912781 456660039.01388931 0 456660039.01388931 63399989.195075989 0 0 0 0 12212238.965278625 496449882.91267014 0 496449882.91267014 -27916798.022977829 0 0 0 0 310844968.71960449 543761986.37752438 0 543761986.37752438 -9508087.7770767212 0 0 0 0 319592101.61120605 459556160.63804436 0 459556160.63804436 -1508137.8950014114 0 0 0 0 261485706.36157227 474633722.53530884 0 474633722.53530884 18311409.346452713 0 0 0 0 249033143.11616516 454748525.45340204 0 454748525.45340204 117152681.83683777 0 0 0 0 488485738.15432739 448496130.33675194 0 448496130.33675194 -16109575.079345703 0 0 0 0 460263767.87173843 312869454.08877826 0 312869454.08877826 -11269042.537773132 0 0 0 0 860211765.21118164 259689027.39985085 0 259689027.39985085 -161473398.771245 0 0 0 0 543048974.23651123 268600596.51426506 0 268600596.51426506 -117201968.55740356 0 0 0 0 576925219.9523468 135940773.88103127 0 135940773.88103127 24969513.611335754 0 0 0 0 323271019.04734802 13018751.475536346 0 13018751.475536346 -17406459.753709793 0 0 0 0 400334766.26225662 177377077.9160018 0 177377077.9160018 15431008.424194336 0 0 0 0 429335870.35513306 273390677.74375725 0 273390677.74375725 90828007.00144577 0 0 0 0 25046943.235220566 16025958.893943809 0 16025958.893943809 3511530.5412863474 0 0 0 0 3159533.8520744666 13955950.86236982 0 13955950.86236982 -2927488.3622635705 0 0 0 0 -10079328.731072441 20031940.180843852 0 20031940.180843852 27741611.374936976 0 0 0 0 -210137220.25296021 126109098.59973526 0 126109098.59973526 129089492.66860962 0 0 0 0 -17763035.822814941 14315335.084722519 0 14315335.084722519 -6959309.7635192871 0 0 0 0 900309343.11396408 58036246.536979735 0 58036246.536979735 384061735.56357956 0 0 0 0 -120721567.5604248 -101622371.37400436 0 -101622371.37400436 -623690750.56385803 0 0 0 0 14441679.425473962 5999581.870088622 0 5999581.870088622 -13410159.385132346 0 0 0 0 2024065279.9604187 -117822340.10392714 0 -117822340.10392714 -272541252.3143363 0 0 0 0 2273478253.815155 348870478.85260677 0 348870478.85260677 -26726620.076629639 0 0 0 0 996909243.59869385 -1106844939.785902 0 -1106844939.785902 1528768877.8874664 0 0 0 0 1246495570.3057632 -101015178.41551411 0 -101015178.41551411 -223357855.0657692 0 0 0 0 13562749.141438182 12848041.268173695 0 12848041.268173695 -23176260.926114589 0 0 0 0 854928254.62505341 -149468007.1494298 0 -149468007.1494298 -222470449.16294479 0 0 0 0 814751009.80704117 238960465.0902226 0 238960465.0902226 -142822704.42430115 0 0 0 0 1197935616.1709099 313724177.61729193 0 313724177.61729193 -129771192.55158615 0 0 0 0 1395931651.1636353 189994278.76507378 0 189994278.76507378 -54753650.84343338 0 0 0 0 1048186778.583252 816714353.85186863 0 816714353.85186863 273265244.25839233 0 0 0 0 766591003.51344299 505406124.22642994 0 505406124.22642994 -19584942.036424637 0 0 0 0 650114475.2711792 624862136.35878277 0 624862136.35878277 -36542343.280879974 0 0 0 0 3592441.26899378 -845557.44454078376 0 -845557.44454078376 -521564.1034139361 0 0 0 0 2194536875.4422607 -259633036.66001701 0 -259633036.66001701 -2010744532.2151198 0 0 0 0 624418624.46917725 858709280.40215206 0 858709280.40215206 755347449.95014572 0 0 0 0 1751181872.2850342 917436550.00455475 0 917436550.00455475 287503875.00566673 0 0 0 0 10994219.625244141 555265237.54137516 0 555265237.54137516 642507402.39139175 0 0 0 0 -68433545.461624146 139091766.91000056 0 139091766.91000056 -114260040.98707771 0 0 0 0 -99278988.845298767 257208847.59261274 0 257208847.59261274 -147421809.30526352 0 0 0 0 -26153183.748840332 502205930.69411659 0 502205930.69411659 172435732.74665451 0 0 0 0 -1757090.2899780273 300533921.901052 0 300533921.901052 -525436469.97119617 0 0 0 0 5802918.6126767993 -246872.67724948004 0 -246872.67724948004 -592498.46315437369 0 0 0 0 524378517.82041931 1407022706.2371874 0 1407022706.2371874 -891944820.17112732 0 0 0 0 111339277.23344421 798749275.33219028 0 798749275.33219028 -38530489.287562728 0 0 0 0 17256373.977111816 1486297036.5093026 0 1486297036.5093026 1123154290.7811294 0 0 0 0 658178868.56506348 958028274.36533785 0 958028274.36533785 1227848977.8788626 0 0 0 0 1377338211.7670441 363054544.23309422 0 363054544.23309422 259866527.91901958 0 0 0 0 2135418703.2443542 448872365.19998741 0 448872365.19998741 1463981291.1545281 0 0 0 0 2376487641.8532715 1157995741.3887024 0 1157995741.3887024 891872767.90974951 0 0 0 0 -700686329.3024292 648387842.73947775 0 648387842.73947775 223762453.99931735 0 0 0 0 1591904693.8876038 -940495800.55646229 0 -940495800.55646229 -1316402988.6184614 0 0 0 0 1898292208.5757446 -350962905.44077277 0 -350962905.44077277 161801278.87005043 0 0 0 0 2387071881.8373413 -59185512.243753672 0 -59185512.243753672 -536612484.0065912 0 0 0 0 2994300222.6898804 -905063030.0105238 0 -905063030.0105238 95995519.384129524 0 0 0 0 -243002.72895550728 3737762.0990504026 0 3737762.0990504026 7140318.841510362 0 0 0 0 5295294415.8087158 -262218879.62043667 0 -262218879.62043667 679099709.97963047 0 0 0 0 2757029197.4880371 -520610328.75571632 0 -520610328.75571632 -401511679.91547704 0 0 0 0 2598044984.5945129 -1230873783.8207352 0 -1230873783.8207352 728011232.13548756 0 0 0 0 2190398798.9735718 -801544397.89480186 0 -801544397.89480186 687324327.81362057 0 0 0 0 541781032.47740173 -831352508.88774443 0 -831352508.88774443 1192114457.569603 0 0 0 0 204564441.79492188 -867646806.22624016 0 -867646806.22624016 -629057307.94211006 0 0 0 0 -6677834.9314993508 1207217.979247123 0 1207217.979247123 606200.05992622301 0 0 0 0 335311634.86631775 -800440111.43190956 0 -800440111.43190956 1897820516.1834259 0 0 0 0 101284071.7946167 -342896480.8633728 0 -342896480.8633728 714132891.18572235 0 0 0 0 200258567.88671875 -680863670.76425362 0 -680863670.76425362 1287103911.350647 0 0 0 0 320878907.0118103 -557486714.64980698 0 -557486714.64980698 968334842.49565125 0 0 0 0 495766388.09033203 -740093439.18952942 0 -740093439.18952942 744982156.97636414 0 0 0 0 492101887.1451416 -495815575.46683502 0 -495815575.46683502 131877114.01467896 0 0 0 0 656159340.87316895 -675668408.79653168 0 -675668408.79653168 34999370.085784912 0 0 0 0 564418454.00015259 -801846377.67504883 0 -801846377.67504883 311582232.04092407 0 0 0 0 12857315.755877461 14760494.227138698 0 14760494.227138698 -9348780.7429350875 0 0 0 0 -492453809.94235229 429775719.59081459 0 429775719.59081459 309752725.69432068 0 0 0 0 -62768341.265159607 2113167.895031929 0 2113167.895031929 14078791.654466629 0 0 0 0 1922874080.9989624 -470228185.53190255 0 -470228185.53190255 -859887109.56207895 0 0 0 0 -2317601.1000349298 12218744.16701296 0 12218744.16701296 18883592.340221573 0 0 0 0 353047188.82058716 840774049.39530182 0 840774049.39530182 -69814491.428834915 0 0 0 0 424312787.77093506 914317634.88824844 0 914317634.88824844 176043034.09390819 0 0 0 0 -55323948.511032104 797768852.10258102 0 797768852.10258102 1153391173.943593 0 0 0 0 -119990397.91746521 578971389.50101042 0 578971389.50101042 496325499.27654457 0 0 0 0 36622362.255844116 487288417.66837597 0 487288417.66837597 496274565.32012749 0 0 0 0 203084019.00665283 493943528.63970566 0 493943528.63970566 171351143.26682305 0 0 0 0 98989032.693305969 328213790.60811281 0 328213790.60811281 -7333393.9131889343 0 0 0 0 -8457899.8379516602 342671943.32269192 0 342671943.32269192 61718792.181745529 0 0 0 0 -23849283.08788681 272231348.29928708 0 272231348.29928708 -154104070.72521591 0 0 0 0 -155859926.95075989 181582520.96016431 0 181582520.96016431 -215963412.09167719 0 0 0 0 -200184370.07833862 283756376.39213419 0 283756376.39213419 -144954171.68957615 0 0 0 0 295362902.09129333 499530284.97234654 0 499530284.97234654 -1065608864.6507049 0 0 0 0 2360513.9688364416 -125755.09246889316 0 -125755.09246889316 -163797.81183772802 0 0 0 0 -407479650.60417938 1252789629.7108941 0 1252789629.7108941 2204789136.714282 0 0 0 0 -195583762.39485931 1125141575.6525426 0 1125141575.6525426 1054460331.9673421 0 0 0 0 -122201815.47705078 1157904138.9072995 0 1157904138.9072995 1067092683.8898034 0 0 0 0 285934107.40011597 865722374.3914398 0 865722374.3914398 850509646.94473863 0 0 0 0 -337692289.37599945 273736196.86304498 0 273736196.86304498 1052041233.689034 0 0 0 0 -155627246.25915527 229143022.41120839 0 229143022.41120839 619217955.26903248 0 0 0 0 -483075.11340332031 284502276.14649868 0 284502276.14649868 477901977.8079772 0 0 0 0 312631694.40890503 321803731.745269 0 321803731.745269 472018305.43532598 0 0 0 0 120930212.13891602 388809274.8076148 0 388809274.8076148 540212987.44892788 0 0 0 0 -95646274.303344727 302448285.00913906 0 302448285.00913906 696543868.60926723 0 0 0 0 -12801215.248748779 462600226.52790999 0 462600226.52790999 536554183.33071136 0 0 0 0 -67446628.369354248 476343718.35258341 0 476343718.35258341 695404237.93644154 0 0 0 0 2700209.7287445068 432537452.04558611 0 432537452.04558611 528911063.72951889 0 0 0 0 -241653.29124450684 405935011.70612717 0 405935011.70612717 538908418.0593605 0 0 0 0 6213046.3100891113 414491592.9557066 0 414491592.9557066 542841808.9626534 0 0 0 0 22182647.718360901 447544637.14568543 0 447544637.14568543 405702216.84174156 0 0 0 0 86551048.134643555 559904642.63377857 0 559904642.63377857 718784628.69353676 0 0 0 0 15231456.517150879 411331021.69785976 0 411331021.69785976 702528937.75941372 0 0 0 0 41281629.500167847 409582506.58042908 0 409582506.58042908 787467116.54128599 0 0 0 0 10461162.549697876 428744246.29285812 0 428744246.29285812 646450601.59557343 0 0 0 0 -3517779.1150512695 398487883.12887287 0 398487883.12887287 587193602.5241909 0 0 0 0 44518705.199157715 481749576.11853075 0 481749576.11853075 586595805.28347933 0 0 0 0 54513178.419677734 467319623.3660078 0 467319623.3660078 536067952.2512455 0 0 0 0 78054893.766113281 528765217.29889679 0 528765217.29889679 608028681.92906809 0 0 0 0 135007129.03414917 425397386.18232751 0 425397386.18232751 364818386.19831467 0 0 0 0 65762201.724319458 492881674.45629406 0 492881674.45629406 518413560.46994686 0 0 0 0 103265776.75357056 440680682.18008518 0 440680682.18008518 392900799.01261044 0 0 0 0 -10904691.785812378 299272337.73461449 0 299272337.73461449 534634034.40509456 0 0 0 0 33914515.493270874 195836704.77616674 0 195836704.77616674 161378963.23253563 0 0 0 0 192352754.06747437 278037392.78250647 0 278037392.78250647 114658764.42253685 0 0 0 0 139334437.18251038 156166645.92237854 0 156166645.92237854 121571526.29368782 0 0 0 0 177162470.65063477 236013649.66649151 0 236013649.66649151 159847961.8126173 0 0 0 0 272207710.2203064 217978105.69185543 0 217978105.69185543 145946622.45254517 0 0 0 0 232440719.27288055 323771615.14024186 0 323771615.14024186 297275826.20743752 0 0 0 0 92163195.949707031 384576461.37465954 0 384576461.37465954 396029831.11768627 0 0 0 0 77785415.629333496 438465870.64324284 0 438465870.64324284 363746520.67533112 0 0 0 0 36796115.959152222 398736949.70413017 0 398736949.70413017 394931274.72674942 0 0 0 0 -2606079.6981658936 10038413.828364372 0 10038413.828364372 576416.9357817173 0 0 0 0 299925479.74145508 131112093.57877827 0 131112093.57877827 126899718.45620728 0 0 0 0 495991580.65063477 55555179.832945824 0 55555179.832945824 87172473.208987236 0 0 0 0 323617930.33056641 160280295.10667944 0 160280295.10667944 -87160613.390200734 0 0 0 0 334130186.7661438 203592184.54720974 0 203592184.54720974 133117726.24454021 0 0 0 0 480600909.91439819 205002757.71017075 0 205002757.71017075 117348052.68910027 0 0 0 0 331088558.72679901 152797033.64234853 0 152797033.64234853 99257582.611034393 0 0 0 0 -265120483.16172791 71262253.959153175 0 71262253.959153175 -10748762.741503835 0 0 0 0 649291511.24067688 197652272.42711735 0 197652272.42711735 -45989743.547803879 0 0 0 0 -573926.26222229004 481961942.73219967 0 481961942.73219967 -319772469.51149368 0 0 0 0 -777433.42281788588 2351205.4680006355 0 2351205.4680006355 105681.2459043283 0 0 0 0 480669628.83453369 334723336.56509876 0 334723336.56509876 -148004796.13964844 0 0 0 0 210144407.05099487 441214249.25952721 0 441214249.25952721 225670026.24952483 0 0 0 0 -279744158.1078186 446285037.34002686 0 446285037.34002686 225842793.64397812 0 0 0 0 162246963.08905029 654192894.63017559 0 654192894.63017559 -167021269.04089737 0 0 0 0 191876407.80227661 638457304.29575348 0 638457304.29575348 257564981.38535482 0 0 0 0 343340505.34979248 377439373.13757324 0 377439373.13757324 254579620.50953656 0 0 0 0 414281425.55863953 302946777.88840687 0 302946777.88840687 -987042.44137573242 0 0 0 0 407183760.07183838 343207918.48445988 0 343207918.48445988 234318559.90001392 0 0 0 0 415859153.60455322 545134755.68101215 0 545134755.68101215 338488426.63549805 0 0 0 0 276700279.78106689 422166001.18380976 0 422166001.18380976 650082694.80104637 0 0 0 0 536818527.87646484 451578273.91439629 0 451578273.91439629 650918395.17683983 0 0 0 0 338329.99404907227 504823810.74221516 0 504823810.74221516 813542639.74944305 0 0 0 0 244254564.51480103 516196568.25033188 0 516196568.25033188 477965069.36443329 0 0 0 0 217132775.60379028 483613205.79580402 0 483613205.79580402 506299983.54952621 0 0 0 0 195939386.77360535 437138214.29907846 0 437138214.29907846 459825776.98747826 0 0 0 0 339043468.75253296 378859643.63258457 0 378859643.63258457 275141943.30156469 0 0 0 0 317763191.0619812 343618442.74095726 0 343618442.74095726 300352790.94136238 0 0 0 0 332154700.38845825 526590755.4037056 0 526590755.4037056 466046411.04755187 0 0 0 0 389194042.71820068 433007261.98900604 0 433007261.98900604 734768480.61723089 0 0 0 0 289972105.37582397 523420077.82431221 0 523420077.82431221 716992118.07182693 0 0 0 0 387982895.20736694 584425568.72517967 0 584425568.72517967 716688619.00284481 0 0 0 0 222608064.58578491 533788568.85841656 0 533788568.85841656 708436289.92834854 0 0 0 0 85773394.284698486 550111570.99934864 0 550111570.99934864 1216736679.5257339 0 0 0 0 38290594.336410522 318817839.4360857 0 318817839.4360857 2587169728.1965046 0 0 0 0 2784909.5571478009 -641201.24176719412 0 -641201.24176719412 -432539.89015380666 0 0 0 0 48720775.403411865 149912779.36472797 0 149912779.36472797 1006517065.8450642 0 0 0 0 -4361742.347442627 117445301.88965702 0 117445301.88965702 1119422116.191783 0 0 0 0 5808073.1618499756 376702820.3352747 0 376702820.3352747 1161070214.5160904 0 0 0 0 280809275.90144348 527862591.50193501 0 527862591.50193501 1097966095.8763809 0 0 0 0 746630578.45159912 764466760.46595192 0 764466760.46595192 1164007566.4348402 0 0 0 0 496192752.38098145 192425850.86484718 0 192425850.86484718 1192875276.7832875 0 0 0 0 -333267.88694763184 314000850.38661003 0 314000850.38661003 1568992889.0224342 0 0 0 0 426906258.01251221 864427284.96169662 0 864427284.96169662 940250394.43359375 0 0 0 0 632291048.93153381 358962150.66391611 0 358962150.66391611 -2387366.4092254639 0 0 0 0 320433005.60575867 67999150.250294685 0 67999150.250294685 41423772.412570953 0 0 0 0 -1273270.3842275441 -2182833.0295329159 0 -2182833.0295329159 1638783.5228707679 0 0 0 0 11833854.601150513 235034129.36666203 0 235034129.36666203 552317585.88637924 0 0 0 0 589393.37329101562 128003611.36431313 0 128003611.36431313 166743777.81015587 0 0 0 0 6690131.1137253642 31883.978589963168 0 31883.978589963168 -547247.7140026018 0 0 0 0 39338980.417205811 -21728991.144729614 0 -21728991.144729614 -6975521.7258758545 0 0 0 0 -75430177.771644592 95444896.121055603 0 95444896.121055603 -70162298.987171173 0 0 0 0 321667364.474823 56799512.103816986 0 56799512.103816986 -221187416.1169014 0 0 0 0 -138189258.03684235 10050789.660223961 0 10050789.660223961 120522744.91889954 0 0 0 0 22995041.770996094 93644226.791992188 0 93644226.791992188 250328020.89303589 0 0 0 0 -15228625.750579834 -59454784.149158478 0 -59454784.149158478 83904718.549958229 0 0 0 0 33601055.524108887 22621816.914757729 0 22621816.914757729 -27479295.70565033 0 0 0 0 -90181933.521026611 -8131562.9263877869 0 -8131562.9263877869 59750374.716964722 0 0 0 0 -13967608.104736328 26266026.82000351 0 26266026.82000351 67974985.805778503 0 0 0 0 -2593677.5716607869 -3116768.5146753481 0 -3116768.5146753481 3652163.5009576436 0 0 0 0 21556585.526107788 32057310.141810417 0 32057310.141810417 3063178.5583992004 0 0 0 0 -2173513.3904683739 408633.99243446346 0 408633.99243446346 4827426.7954717763 0 0 0 0 -39987559.390991211 -189187616.44919205 0 -189187616.44919205 -400873081.92806244 0 0 0 0 -22390677.975067139 42054845.790533066 0 42054845.790533066 30884771.358375549 0 0 0 0 38120991.469055176 87573389.690988541 0 87573389.690988541 428964994.02226067 0 0 0 0 16212356.761230469 6046865.019241333 0 6046865.019241333 -5238377.0700759888 0 0 0 0 8707539.1854697913 2658111.2342084907 0 2658111.2342084907 116193.10976697877 0 0 0 0 -7296059.2584533691 65914610.511318207 0 65914610.511318207 464873846.38886261 0 0 0 0 -200521763.80529785 -32227208.137840271 0 -32227208.137840271 -274575297.46735382 0 0 0 0 -1788829.3415854275 -416617.14473081194 0 -416617.14473081194 5104567.2203874476 0 0 0 0 -292740.4970703125 416199.3048248291 0 416199.3048248291 3198691.157623291 0 0 0 0 -5923936.3194046021 3082962.5658498369 0 3082962.5658498369 7211904.911178153 0 0 0 0 -8246956.6604614258 -281131975.43809509 0 -281131975.43809509 -409172257.19331741 0 0 0 0 -201372929.5478363 -155488347.29164505 0 -155488347.29164505 -379613446.10472107 0 0 0 0 -79914057.835693359 -134989416.83138275 0 -134989416.83138275 -412113826.82344055 0 0 0 0 -69209542.675415039 -286544861.85386658 0 -286544861.85386658 -396333630.97916412 0 0 0 0 -182186786.60452271 -102901007.49312782 0 -102901007.49312782 -386522655.78295898 0 0 0 0 -10108887.731277823 -1521076.8651030213 0 -1521076.8651030213 9345257.4734230377 0 0 0 0 -153982033.2244873 -158293738.92407227 0 -158293738.92407227 -407416307.20184326 0 0 0 0 -39777953.176696777 -184947507.88219833 0 -184947507.88219833 -360158839.6364193 0 0 0 0 -1192048.6117248535 -212771719.76068878 0 -212771719.76068878 -391778071.15634918 0 0 0 0 -69104904.19241333 -253039207.18805695 0 -253039207.18805695 -324975424.00985718 0 0 0 0 89810174.363464355 -199344571.07165527 0 -199344571.07165527 -366972827.16210175 0 0 0 0 115736786.18859863 104891997.74456787 0 104891997.74456787 -781584515.69172382 0 0 0 0 91751385.49798584 -240960824.85360336 0 -240960824.85360336 -349925343.72998047 0 0 0 0 216304127.84970093 -31929244.904590607 0 -31929244.904590607 -794708341.38311005 0 0 0 0 3644591.9028408974 -1167829.3787002042 0 -1167829.3787002042 -160423.67228745855 0 0 0 0 21702430.103942871 -74508967.215881348 0 -74508967.215881348 -495975114.87931824 0 0 0 0 188970327.62112427 -124577735.6462326 0 -124577735.6462326 -566119973.93549347 0 0 0 0 45686525.937438965 22555275.839584351 0 22555275.839584351 -598606442.92269516 0 0 0 0 -223272701.28039551 26408474.326133728 0 26408474.326133728 -406668360.11264801 0 0 0 0 -39543658.739624023 -54123818.884346008 0 -54123818.884346008 -478692949.43286896 0 0 0 0 -108689037.31713867 32197407.644844055 0 32197407.644844055 -552417879.88921356 0 0 0 0 -192238137.64819336 102084062.34397125 0 102084062.34397125 -500645880.21850586 0 0 0 0 60544260.781959534 -72128138.447450638 0 -72128138.447450638 -510387940.87227631 0 0 0 0 47146595.440155029 -207985082.72666168 0 -207985082.72666168 -611407593.98583603 0 0 0 0 89166048.608581543 -33517839.501594543 0 -33517839.501594543 -369255309.52643538 0 0 0 0 -4863248.4441871643 24855902.04066062 0 24855902.04066062 10985094.819969177 0 0 0 0 49797.868743896484 4733130.5224733353 0 4733130.5224733353 18038842.60773468 0 0 0 0 11186359.140838623 -21598381.155517578 0 -21598381.155517578 -1356851.7578544617 0 0 0 0 2702453.1251220703 5659345.2181282043 0 5659345.2181282043 18300840.959974289 0 0 0 0 -2549621.5849162489 453830.51979946066 0 453830.51979946066 3546153.620813325 0 0 0 0 1354266.1208190918 5842054.659866333 0 5842054.659866333 18990611.578418732 0 0 0 0 1314554.3135455847 2608699.1028708071 0 2608699.1028708071 1926343.1371492697 0 0 0 0 -1576761.6844665855 354575.27670807391 0 354575.27670807391 5203347.8008486181 0 0 0 0 12734087.380645752 25406095.261230469 0 25406095.261230469 302744129.0774231 0 0 0 0 -22670537.196685791 171022092.68668175 0 171022092.68668175 549754676.552845 0 0 0 0 44181256.277374268 195902725.25807381 0 195902725.25807381 363659853.93934965 0 0 0 0 66405415.076515198 248984376.25352001 0 248984376.25352001 465709814.73928833 0 0 0 0 31476094.308532715 254556243.00703239 0 254556243.00703239 468940648.26756191 0 0 0 0 -841284.61745683849 -34777.007598076016 0 -34777.007598076016 1994047.703347777 0 0 0 0 25178413.05078125 275947769.75671387 0 275947769.75671387 445468714.91823959 0 0 0 0 59916390.00831604 257989029.18422914 0 257989029.18422914 424898013.0321846 0 0 0 0 53768361.013549805 278346601.00878906 0 278346601.00878906 395507693.76288557 0 0 0 0 -10116464.439361572 269188992.84740925 0 269188992.84740925 539953342.61404037 0 0 0 0 9502762.1945953369 285063051.8464303 0 285063051.8464303 537371976.63426208 0 0 0 0 -43879127.528411865 265667665.34573722 0 265667665.34573722 642346504.5028801 0 0 0 0 -32515744.021636963 279845264.13645554 0 279845264.13645554 655055206.46459186 0 0 0 0 -59657257.207336426 294333630.20427322 0 294333630.20427322 994744003.61733818 0 0 0 0 36157922.452484131 429698508.39313507 0 429698508.39313507 708491082.94182587 0 0 0 0 -11444814.870742798 47876395.458068848 0 47876395.458068848 674857470.25717926 0 0 0 0 25238193.55166626 44934215.872385025 0 44934215.872385025 469935461.74105263 0 0 0 0 -19672126.031646729 117169863.73343086 0 117169863.73343086 707288836.46827316 0 0 0 0 -13084241.559997559 150339762.44888878 0 150339762.44888878 457241134.85959506 0 0 0 0 378869050.70591736 -190621624.73729134 0 -190621624.73729134 -1433152916.1186409 0 0 0 0 139151800.27592468 47052588.201824188 0 47052588.201824188 -901855828.10911942 0 0 0 0 -2699559.5713718347 -345676.75609797053 0 -345676.75609797053 2046860.4379819669 0 0 0 0 -977099262.10542679 -863029192.51808167 0 -863029192.51808167 -903618568.08654022 0 0 0 0 -563133904.79420471 -1655856065.595233 0 -1655856065.595233 -2096292801.5668335 0 0 0 0 294253126.50087738 -105179894.05992508 0 -105179894.05992508 -1315047814.4627991 0 0 0 0 -82256344.281616211 -25516774.986289978 0 -25516774.986289978 -993664886.81236267 0 0 0 0 -137484946.9378891 -547307856.0763967 0 -547307856.0763967 -1319140173.2906342 0 0 0 0 99185352.025848389 -329062732.62199402 0 -329062732.62199402 -1785318281.1504803 0 0 0 0 11227728.847915649 111533473.68092346 0 111533473.68092346 -920733968.76672745 0 0 0 0 117577923.72793579 -323808738.94735336 0 -323808738.94735336 -607508532.54580688 0 0 0 0 98677474.56678772 272169782.46596527 0 272169782.46596527 -182639725.92045593 0 0 0 0 199596014.66364384 -190911326.80718803 0 -190911326.80718803 308349819.20326233 0 0 0 0 310378633.7792511 -209500911.86107635 0 -209500911.86107635 -1128525583.8447342 0 0 0 0 -403785554.72328949 83023429.525020599 0 83023429.525020599 -38752196.481034279 0 0 0 0 938166036.4319725 275307449.72383118 0 275307449.72383118 -214608927.55815315 0 0 0 0 -1013447.166308403 450975628.38694 0 450975628.38694 266021685.66579437 0 0 0 0 261585699.52293277 433255627.56640601 0 433255627.56640601 -952252163.44475555 0 0 0 0 77577155.148881912 755543631.62612724 0 755543631.62612724 -239894754.23086929 0 0 0 0 -1027214.5952756833 3930142.911701424 0 3930142.911701424 419879.33879974857 0 0 0 0 1516950438.1924973 -225628297.757164 0 -225628297.757164 -1175189304.9296074 0 0 0 0 -147866282.56531906 -196328202.37755966 0 -196328202.37755966 -530370544.16818237 0 0 0 0 -204997618.53572655 -356131686.14345169 0 -356131686.14345169 -973060341.13314056 0 0 0 0 192053812.34471893 51530060.058540344 0 51530060.058540344 -1000339070.3132391 0 0 0 0 -9077395.1692047119 -93349366.148967743 0 -93349366.148967743 -492980494.58671379 0 0 0 0 -4979073.5207549259 4062280.7332736282 0 4062280.7332736282 -740356.52875014767 0 0 0 0 -4064936.9004500378 1831912.6471836111 0 1831912.6471836111 4567537.3869851725 0 0 0 0 13553668.599927902 -210680311.06983006 0 -210680311.06983006 70868986.727006108 0 0 0 0 535986010.19886017 513955028.00143051 0 513955028.00143051 66354375.242507935 0 0 0 0 -4241279.1215084381 1245812.4201491419 0 1245812.4201491419 1177387.1592486687 0 0 0 0 55266996.62154007 -576978300.16519737 0 -576978300.16519737 -1393912601.6215057 0 0 0 0 515246743.95505524 560008545.65865231 0 560008545.65865231 928103843.63006973 0 0 0 0 1034404821.8850174 930295619.94708252 0 930295619.94708252 1187327649.1799622 0 0 0 0 1182268876.8656158 527346852.5147171 0 527346852.5147171 466325037.39447784 0 0 0 0 1614072550.2425041 1618204801.1668718 0 1618204801.1668718 878876244.50685811 0 0 0 0 1112900144.9270782 1026667005.5340042 0 1026667005.5340042 952062163.26563704 0 0 0 0 787724782.22881317 572449028.40380096 0 572449028.40380096 1001866552.3413379 0 0 0 0 -2861077341.020524 -349274942.05332011 0 -349274942.05332011 476798838.05779886 0 0 0 0 952081626.73795319 112452881.22666311 0 112452881.22666311 314319657.50014639 0 0 0 0 -4272898867.3206081 1624761221.6454444 0 1624761221.6454444 -1897838008.5220995 0 0 0 0 -3734874.755684644 1948061.0321660396 0 1948061.0321660396 2714080.9760608282 0 0 0 0 -3026372643.9452972 1216059025.3025661 0 1216059025.3025661 -104464297.21995449 0 0 0 0 1768904733.3970032 653175866.91603184 0 653175866.91603184 -230078755.9261713 0 0 0 0 -3213685873.9399109 -1554819294.9466772 0 -1554819294.9466772 1695603981.7631531 0 0 0 0 -4730169331.4582062 459276426.76467133 0 459276426.76467133 514784025.51230145 0 0 0 0 1252684973.3095031 -1673284234.6537564 0 -1673284234.6537564 622356253.03745842 0 0 0 0 1461555989.9313354 2152545815.5859909 0 2152545815.5859909 -206040733.13090324 0 0 0 0 1334320396.1771927 781959423.49437046 0 781959423.49437046 683279991.96002197 0 0 0 0 1246547397.3533707 900308337.76956367 0 900308337.76956367 827335886.4180069 0 0 0 0 936631258.19976807 733876075.74853516 0 733876075.74853516 903288429.85354424 0 0 0 0 -8542533.7801487818 4670718.9751429595 0 4670718.9751429595 3058350.200789527 0 0 0 0 1286990151.8855515 759158619.03663254 0 759158619.03663254 704212884.99679947 0 0 0 0 41035475.110533401 52110406.563973017 0 52110406.563973017 27768569.020659693 0 0 0 0 -82493140.227680206 313373030.49533677 0 313373030.49533677 -326820478.70968723 0 0 0 0 69763276.085451126 -11306173.056276619 0 -11306173.056276619 -148338223.94436073 0 0 0 0 -111357419.89471817 249615272.21235451 0 249615272.21235451 -462913249.15623188 0 0 0 0 -294358852.71687317 1254647166.4307933 0 1254647166.4307933 -1332699352.1094298 0 0 0 0 -456605260.67473602 638828901.75721908 0 638828901.75721908 -557478547.39949036 0 0 0 0 7057902.1387422085 7097472.4565754924 0 7097472.4565754924 928142.12252416974 0 0 0 0 6124956.6614646912 -78401783.589040279 0 -78401783.589040279 155026485.1669569 0 0 0 0 382544355.23963165 577253201.14317656 0 577253201.14317656 -744054510.81400871 0 0 0 0 344936266.2075119 93466176.666653156 0 93466176.666653156 -452030963.87496305 0 0 0 0 -206623032.76137161 120353945.78657532 0 120353945.78657532 53986033.946777344 0 0 0 0 38550984.965525091 51754413.047809899 0 51754413.047809899 22507383.50354059 0 0 0 0 -195016223.82896805 81306371.524188042 0 81306371.524188042 87667614.354248047 0 0 0 0 -163310846.03918839 57088127.510393143 0 57088127.510393143 101208616.71224976 0 0 0 0 -156644984.79504395 69018025.656600952 0 69018025.656600952 -9215904.638961792 0 0 0 0 27099988.134415176 20199311.098974884 0 20199311.098974884 -989189.48338535894 0 0 0 0 -1495866568.6917267 2125861204.4460831 0 2125861204.4460831 1619742725.071228 0 0 0 0 106840729.90626907 31534244.784245491 0 31534244.784245491 209738599.03217411 0 0 0 0 136513913.79883575 52868368.470487595 0 52868368.470487595 -11333685.661964417 0 0 0 0 27519503.486449439 57845051.574503586 0 57845051.574503586 677979.78395911306 0 0 0 0 199791812.65322876 499894460.29574966 0 499894460.29574966 -946764430.40753555 0 0 0 0 -1434593177.2264481 -1413960318.5400085 0 -1413960318.5400085 -457414769.36569786 0 0 0 0 38226617.465079375 9146118.7698785551 0 9146118.7698785551 -597978.99151523411 0 0 0 0 -132100600.42678833 20881028.157093048 0 20881028.157093048 21660883.892929077 0 0 0 0 -146559889.78832245 6182420.7787342072 0 6182420.7787342072 39849758.590744019 0 0 0 0 -158833454.55688477 8011223.912109375 0 8011223.912109375 41228500.998802185 0 0 0 0 1550098399.2525406 1450355867.5703888 0 1450355867.5703888 821007949.35120964 0 0 0 0 62438616.408485413 -1671446413.4927788 0 -1671446413.4927788 -3082084806.1382446 0 0 0 0 2180557460.4888611 1287298326.3350143 0 1287298326.3350143 -231485579.36207581 0 0 0 0 1657995628.4927979 996151410.5329361 0 996151410.5329361 -329667861.09085083 0 0 0 0 1042638552.7494354 766430411.10160828 0 766430411.10160828 -406036660.64331055 0 0 0 0 2053114872.9255829 164222983.59053802 0 164222983.59053802 -1519489200.7591553 0 0 0 0 2506581476.9813385 871868527.66253662 0 871868527.66253662 -1016586178.0412445 0 0 0 0 1159476388.159462 580416262.97754669 0 580416262.97754669 -78971167.747444153 0 0 0 0 1606543921.4953384 1113324108.5709076 0 1113324108.5709076 554355698.82884216 0 0 0 0 1245822684.0302315 672273651.56082916 0 672273651.56082916 520888673.8519516 0 0 0 0 576442068.81527138 285000122.98167706 0 285000122.98167706 1270895.9548492432 0 0 0 0 -1374976570.0254593 1869840308.2318611 0 1869840308.2318611 952789951.13226986 0 0 0 0 508853705.09063721 484924976.98500061 0 484924976.98500061 -579092249.98134613 0 0 0 0 -6140877.7967658788 2693146.8148958571 0 2693146.8148958571 2757964.7491694633 0 0 0 0 979599026.54426575 789616282.40989685 0 789616282.40989685 35868567.476661682 0 0 0 0 583906411.19172668 345833123.54921341 0 345833123.54921341 486899186.48938751 0 0 0 0 418896457.04800415 772381750.03796387 0 772381750.03796387 -822709197.3913269 0 0 0 0 600045231.94224548 675376530.20159149 0 675376530.20159149 -638751906.06356812 0 0 0 0 920238021.37864685 577212021.32784653 0 577212021.32784653 -657139537.5533371 0 0 0 0 985373337.97742367 636735782.96080399 0 636735782.96080399 -1369579081.414978 0 0 0 0 976293996.64187622 517630174.87432098 0 517630174.87432098 -1001871511.0206299 0 0 0 0 13433406.084183017 6383962.6814969629 0 6383962.6814969629 108188.58468129113 0 0 0 0 1055266261.0965576 831798649.15034485 0 831798649.15034485 -1606837529.2944946 0 0 0 0 191208592.62641144 305845233.32871628 0 305845233.32871628 -1118884067.2516203 0 0 0 0 483360631.94277954 509083808.26314259 0 509083808.26314259 -297978146.54806519 0 0 0 0 416150235.24595642 57303171.538761139 0 57303171.538761139 -1496318289.6948404 0 0 0 0 635491023.35020447 632674125.65841484 0 632674125.65841484 -1085294645.4096527 0 0 0 0 539291334.89859009 394537858.16057968 0 394537858.16057968 -1140326148.3770905 0 0 0 0 334294432.99552345 281230699.76426792 0 281230699.76426792 -1609532785.5247803 0 0 0 0 349148906.10186148 -49849029.288711548 0 -49849029.288711548 -2130207895.3146973 0 0 0 0 223754068.8291626 -159215447.96604919 0 -159215447.96604919 -2365480606.7616272 0 0 0 0 133378643.20189667 314570053.78801346 0 314570053.78801346 -2617852908.5990906 0 0 0 0 464780558.36123657 -421736810.45596313 0 -421736810.45596313 -1630670923.0292511 0 0 0 0 -213211023.2144928 -72611174.070121765 0 -72611174.070121765 -1797464741.5209961 0 0 0 0 834360032.76101685 981720000.06155396 0 981720000.06155396 -1222582604.723938 0 0 0 0 134375846.70687866 -569560436.10555267 0 -569560436.10555267 -2454892018.0183716 0 0 0 0 623782660.01098633 -195462895.33857727 0 -195462895.33857727 -3497425106.4171982 0 0 0 0 76281742.001739502 120975383.07014465 0 120975383.07014465 -1474246124.3602448 0 0 0 0 -171268668.93817139 -80549420.674594879 0 -80549420.674594879 -638772178.05912781 0 0 0 0 -4194809.2565612793 1895437.0961761475 0 1895437.0961761475 -1453835229.737484 0 0 0 0 -54750624.278007507 140782913.13433075 0 140782913.13433075 -539460030.93257141 0 0 0 0 -100559213.18134499 165240681.40250301 0 165240681.40250301 -403186645.64782715 0 0 0 0 -32426002.366584778 -39358274.4949646 0 -39358274.4949646 -629175742.47328186 0 0 0 0 10728127.320483208 40889950.175681114 0 40889950.175681114 -6942470.9067840576 0 0 0 0 -35139399.345085144 -155421727.39790344 0 -155421727.39790344 103265662.85262299 0 0 0 0 96310570.460357666 -19538709.033950806 0 -19538709.033950806 -203520912.49029541 0 0 0 0 -105633256.90248871 -22947839.251880646 0 -22947839.251880646 -145277302.58413696 0 0 0 0 87037159.468185425 -1126478.8316335678 0 -1126478.8316335678 272634209.94765472 0 0 0 0 179516162.82298279 -206142190.84853363 0 -206142190.84853363 118547499.56641006 0 0 0 0 7829406.3122076998 38286572.34337005 0 38286572.34337005 25470691.001734436 0 0 0 0 5584780.1917076111 106927150.47011566 0 106927150.47011566 31935259.134048462 0 0 0 0 121990591.42108917 -72792855.980354309 0 -72792855.980354309 123613628.2406311 0 0 0 0 65328325.39100647 -31638538.798397064 0 -31638538.798397064 93861370.094314575 0 0 0 0 -105303415.09706116 -26276001.588043213 0 -26276001.588043213 -12095791.320245266 0 0 0 0 11057386.215765193 2965124.2985660993 0 2965124.2985660993 -61030.532964736223 0 0 0 0 -128753289.19898987 -30239764.314834595 0 -30239764.314834595 -11935954.912910461 0 0 0 0 257364785.11676788 88410695.67275238 0 88410695.67275238 -3021724.9415540695 0 0 0 0 6712859.0312156677 98939849.791366577 0 98939849.791366577 63873595.31288147 0 0 0 0 3103084.0259386636 46702439.488668174 0 46702439.488668174 -23869931.582021654 0 0 0 0 201795395.98749161 -40821830.525253296 0 -40821830.525253296 -44405716.12260437 0 0 0 0 -223428020.56150055 132592115.12379837 0 132592115.12379837 -180749391.21009827 0 0 0 0 -186944036.95443726 521661665.09284973 0 521661665.09284973 120427997.73652458 0 0 0 0 -173175975.07385254 146849875.73966217 0 146849875.73966217 17481104.68560791 0 0 0 0 27912053.498657227 93038258.580039978 0 93038258.580039978 -189622439.06655884 0 0 0 0 33620509.476257324 165133650.26537323 0 165133650.26537323 -220365679.34545517 0 0 0 0 224211282.29321289 194020434.37658691 0 194020434.37658691 72142181.559814453 0 0 0 0 154499449.56231689 478153628.08615112 0 478153628.08615112 54973758.328994751 0 0 0 0 119276410.67640877 231236448.67237091 0 231236448.67237091 177029144.35743713 0 0 0 0 -8833779.5064136647 36510394.3373923 0 36510394.3373923 -24871970.765819881 0 0 0 0 280611857.83802795 413619991.15948486 0 413619991.15948486 509206594.40298462 0 0 0 0 1268414.5652425997 701098.39158856869 0 701098.39158856869 -1679080.4464198872 0 0 0 0 188464475.0908432 17067652.338733673 0 17067652.338733673 213474753.25964355 0 0 0 0 20972373.768569946 100997083.72460556 0 100997083.72460556 173034345.15000916 0 0 0 0 271064358.57038879 149368825.26411438 0 149368825.26411438 75591216.551574707 0 0 0 0 160909922.88554382 232738454.12460709 0 232738454.12460709 27521578.688049316 0 0 0 0 31444818.173812866 121860559.54951477 0 121860559.54951477 198398348.6800499 0 0 0 0 76223741.654076576 81080748.582992554 0 81080748.582992554 37706557.502105713 0 0 0 0 -19862011.328168869 97756145.321907043 0 97756145.321907043 135016862.33427429 0 0 0 0 -23568778.546991348 -9579282.9398574829 0 -9579282.9398574829 -41176989.594558716 0 0 0 0 -99070271.730110168 21912532.79158783 0 21912532.79158783 71972903.088500977 0 0 0 0 -66463733.011015415 -2563933.7068414688 0 -2563933.7068414688 89740833.144699097 0 0 0 0 -38911294.991567135 125438914.92687035 0 125438914.92687035 236771062.99765015 0 0 0 0 -49117326.512994766 192305416.30849838 0 192305416.30849838 262257271.28918457 0 0 0 0 -189248993.55796051 -83389913.515106201 0 -83389913.515106201 135760321.05661011 0 0 0 0 104902473.72766113 175633658.42883301 0 175633658.42883301 179175615.60430908 0 0 0 0 89088908.023704529 305016707.0997467 0 305016707.0997467 573102475.48254395 0 0 0 0 229766058.86392212 168612942.31533813 0 168612942.31533813 207232561.89172363 0 0 0 0 283203805.67103577 399467071.2961731 0 399467071.2961731 434166741.33551025 0 0 0 0 388363010.91268158 599462182.45835876 0 599462182.45835876 588493103.79620361 0 0 0 0 -4258582.7470386848 1285533.8728727661 0 1285533.8728727661 4475657.3367471993 0 0 0 0 8702217.5519265812 24305953.331498586 0 24305953.331498586 19329057.054726087 0 0 0 0 47668911.848068237 15402758.775302887 0 15402758.775302887 129452889.09387589 0 0 0 0 -62859430.062368393 20330334.193305969 0 20330334.193305969 46660638.798971176 0 0 0 0 -71059241.623217344 27372945.288795471 0 27372945.288795471 49715816.421813965 0 0 0 0 4142857.717117128 10983746.516797192 0 10983746.516797192 4734014.5816545859 0 0 0 0 -78453871.943058014 -32862993.805343628 0 -32862993.805343628 12051306.370506287 0 0 0 0 177247131.5355314 -201840677.01507568 0 -201840677.01507568 337352518.23777771 0 0 0 0 2193354.0543368366 9282474.5879136696 0 9282474.5879136696 15336935.756323569 0 0 0 0 920302529.50267029 376591883.69623566 0 376591883.69623566 206329445.11004639 0 0 0 0 1201066692.3871956 873547934.51696014 0 873547934.51696014 -74657034.678325653 0 0 0 0 9969809.557364298 3546614.8070459664 0 3546614.8070459664 5279801.7083996311 0 0 0 0 1129047446.9706612 229650831.43522644 0 229650831.43522644 78823628.116565704 0 0 0 0 2057335785.4493427 1042351945.3335953 0 1042351945.3335953 846588016.95518494 0 0 0 0 2653662475.6562042 776638118.42963409 0 776638118.42963409 -140608084.63640213 0 0 0 0 -889132.05937948683 4252739.1275435016 0 4252739.1275435016 716342.80093831569 0 0 0 0 1491186849.5413218 2102859846.9824848 0 2102859846.9824848 887385691.98466492 0 0 0 0 563038002.83523655 165523754.15359116 0 165523754.15359116 2020963656.4508514 0 0 0 0 2388601.9378255457 251517.63881704211 0 251517.63881704211 2744792.9461858012 0 0 0 0 160578468.59464645 -386733564.55982971 0 -386733564.55982971 590215555.23514175 0 0 0 0 159159303.32453537 35896770.184265137 0 35896770.184265137 117389950.7526474 0 0 0 0 81334656.884033203 -52244116.675109863 0 -52244116.675109863 19445616.300613403 0 0 0 0 62544053.667105675 -26565705.846488953 0 -26565705.846488953 263134343.26795959 0 0 0 0 206717301.3207016 -124528253.20671082 0 -124528253.20671082 132543765.03538513 0 0 0 0 357474927.6508255 165922784.3033905 0 165922784.3033905 -38502250.298324585 0 0 0 0 1316169026.9397545 -351925002.87351227 0 -351925002.87351227 -101634255.7361908 0 0 0 0 1508833081.2061663 118881854.9708252 0 118881854.9708252 -410228760.41972351 0 0 0 0 950739633.92217493 382311008.90350533 0 382311008.90350533 -470861815.50337219 0 0 0 0 810045441.76667023 -105664773.27864075 0 -105664773.27864075 -149653137.74279976 0 0 0 0 608998040.40651703 781349248.45656586 0 781349248.45656586 65770122.846708298 0 0 0 0 1441715176.3477192 637345283.27626801 0 637345283.27626801 -397254307.67053223 0 0 0 0 572161190.93667412 186558191.59809208 0 186558191.59809208 -316464614.05613708 0 0 0 0 -51572578.359428406 -81073946.944313049 0 -81073946.944313049 -127895308.30706787 0 0 0 0 107098104.12045288 208186746.97866058 0 208186746.97866058 -221822159.90553665 0 0 0 0 -56650729.036884308 -111554884.76677895 0 -111554884.76677895 -417539744.75691223 0 0 0 0 186521232.56460571 89827262.294677734 0 89827262.294677734 -45804893.729827881 0 0 0 0 522187319.38815403 1217452300.8174152 0 1217452300.8174152 1009253731.0544891 0 0 0 0 -58548760.760965347 -185557361.84537888 0 -185557361.84537888 1738322254.4711866 0 0 0 0 755775214.73366928 765729859.63025856 0 765729859.63025856 1022360198.7353477 0 0 0 0 -1754999.1728733599 7520281.7036516853 0 7520281.7036516853 873391.04067031294 0 0 0 0 77307173.868385315 1441629536.2439804 0 1441629536.2439804 349197244.83363342 0 0 0 0 1344792.8077552207 2481225.5379052628 0 2481225.5379052628 -734108.72092331946 0 0 0 0 104209760.30999115 1815297967.8814483 0 1815297967.8814483 -837267288.97567749 0 0 0 0 -1236213509.8421144 476121922.60800552 0 476121922.60800552 310230167.39086723 0 0 0 0 656335040.08739805 607433751.89940333 0 607433751.89940333 -1211972848.9572525 0 0 0 0 2573604140.9160156 1230628392.9965944 0 1230628392.9965944 -162344104.41975403 0 0 0 0 669335821.41878891 195991552.26213837 0 195991552.26213837 53992503.45279789 0 0 0 0 218925579.38203907 673818871.43998718 0 673818871.43998718 975577223.48956299 0 0 0 0 576428824.50984192 432732151.52806091 0 432732151.52806091 719253520.63980865 0 0 0 0 56338975.777551651 140539182.15367126 0 140539182.15367126 17161458.100032806 0 0 0 0 -687028315.37576485 470118591.67096519 0 470118591.67096519 564600257.1647644 0 0 0 0 -60258368.082154274 -24668203.766090393 0 -24668203.766090393 191664014.51768875 0 0 0 0 -596930924.66294479 527896902.64829254 0 527896902.64829254 -449267766.70495701 0 0 0 0 -3861895.4102238729 5427232.0931949206 0 5427232.0931949206 1749991.7950212061 0 0 0 0 -1364801254.7028074 1362989247.892498 0 1362989247.892498 -331274139.85040379 0 0 0 0 -29821607.122913506 5805617.9671195429 0 5805617.9671195429 17149406.041168623 0 0 0 0 -79719653.295100927 -11238789.708930969 0 -11238789.708930969 11698733.985702515 0 0 0 0 -56601785.997299194 169953401.99617004 0 169953401.99617004 200951722.96700668 0 0 0 0 239218215.59326172 375492029.86001587 0 375492029.86001587 306586467.17440605 0 0 0 0 -39470077.320111863 41531391.451196872 0 41531391.451196872 17774824.757113576 0 0 0 0 -99639162.851368427 -13985358.287061691 0 -13985358.287061691 71384555.642364502 0 0 0 0 -42928778.798867226 25226335.887298584 0 25226335.887298584 18574141.839876175 0 0 0 0 -105622876.71644306 82946104.37348175 0 82946104.37348175 125350080.57048798 0 0 0 0 -95138676.612444401 155520608.18865967 0 155520608.18865967 53628071.252887726 0 0 0 0 -67534064.378983498 164376347.37111664 0 164376347.37111664 -37093741.663421631 0 0 0 0 -25599757.834852248 18608792.695257984 0 18608792.695257984 17570062.841282044 0 0 0 0 -109787101.46222901 130488718.55079937 0 130488718.55079937 375425516.86304474 0 0 0 0 -133348257.25568247 300624738.97442245 0 300624738.97442245 253574036.81982231 0 0 0 0 -134354960.97767448 339479049.67087364 0 339479049.67087364 765899004.22257423 0 0 0 0 -35478445.987200737 95665298.662031174 0 95665298.662031174 186158153.26229095 0 0 0 0 -67529236.45677948 -30922203.839132309 0 -30922203.839132309 457204975.49812508 0 0 0 0 -46383997.720397949 54291414.063948631 0 54291414.063948631 101336.47215008736 0 0 0 0 -37943110.821482837 3334096.8363506384 0 3334096.8363506384 11089392.966657754 0 0 0 0 348711592.98193359 8619708.9867744446 0 8619708.9867744446 -216547073.96245956 0 0 0 0 -161925396.94894791 -225684001.64826322 0 -225684001.64826322 680202918.537117 0 0 0 0 -126591734.4772644 -30731337.985406876 0 -30731337.985406876 431791042.26829529 0 0 0 0 108637382.56169891 -473083484.8741219 0 -473083484.8741219 791700210.49942017 0 0 0 0 -127566504.37780762 -149050097.14164734 0 -149050097.14164734 1126426375.9540977 0 0 0 0 -211442344.54484558 -253405972.59221172 0 -253405972.59221172 1262395215.4274826 0 0 0 0 -239594835.05596924 -52657348.82865715 0 -52657348.82865715 764175953.47227955 0 0 0 0 -225113945.25708008 31432036.844926834 0 31432036.844926834 708762414.29409409 0 0 0 0 -296686509.08911133 -100015446.65832329 0 -100015446.65832329 969662474.98923874 0 0 0 0 -91490650.103866577 -163884988.57209587 0 -163884988.57209587 253238826.29759979 0 0 0 0 -73863621.18270874 43377854.433578491 0 43377854.433578491 135889860.96076584 0 0 0 0 -35146304.979499355 11717040.274063831 0 11717040.274063831 12946132.700077312 0 0 0 0 -85903747.148651123 -48421835.608306885 0 -48421835.608306885 135582359.92682266 0 0 0 0 -98428186.154968262 129815778.49035263 0 129815778.49035263 351943237.44957352 0 0 0 0 -225259789.76058578 25801679.409242868 0 25801679.409242868 504298985.84054184 0 0 0 0 -303315631.56399536 234290455.53771687 0 234290455.53771687 840772761.19380569 0 0 0 0 -294039731.93061829 235045997.07387447 0 235045997.07387447 499483183.72095585 0 0 0 0 -32901789.978317261 260966632.30150604 0 260966632.30150604 407653821.64465714 0 0 0 0 -105844344.87131691 59223199.084087014 0 59223199.084087014 100750549.18397522 0 0 0 0 -77070579.859914303 80070297.208889008 0 80070297.208889008 941835.20234680176 0 0 0 0 -46260569.792756185 47928859.755831756 0 47928859.755831756 13225557.809503168 0 0 0 0 -120140373.28427124 16049616.573074341 0 16049616.573074341 100742980.64340758 0 0 0 0 -120903646.44350815 -9327730.3371810913 0 -9327730.3371810913 104216225.53327179 0 0 0 0 -95217270.64576149 61631470.484874725 0 61631470.484874725 250631495.41822052 0 0 0 0 -51329660.210418217 38800898.768669084 0 38800898.768669084 30810688.134328354 0 0 0 0 110368916.98094177 79043573.416329861 0 79043573.416329861 -13639959.172557831 0 0 0 0 11550019.84375 3217116.6023344994 0 3217116.6023344994 65358195.946156025 0 0 0 0 -52139579.052486353 33310321.60695098 0 33310321.60695098 30551159.546039965 0 0 0 0 -76025449.324356079 64292340.380712509 0 64292340.380712509 7739260.6376571655 0 0 0 0 9627988.2137298584 16549085.262219429 0 16549085.262219429 25478070.687958717 0 0 0 0 -55265004.863143921 -3391844.7952528 0 -3391844.7952528 82789511.968468666 0 0 0 0 -113739660.91870117 -26052500.231527328 0 -26052500.231527328 41915823.798782349 0 0 0 0 26654590.168014526 74117612.635965347 0 74117612.635965347 -83725441.28716135 0 0 0 0 12779270.795416772 16051898.223857049 0 16051898.223857049 -1344058.6355458349 0 0 0 0 -27208161.005565643 23215035.859190308 0 23215035.859190308 -5712033.3503274918 0 0 0 0 -119367323.04199648 88103318.691697985 0 88103318.691697985 8447279.575586319 0 0 0 0 -26103054.886657715 4653210.8481044769 0 4653210.8481044769 -37350.086395263672 0 0 0 0 -66942013.216156006 34040706.860571861 0 34040706.860571861 41556611.579269409 0 0 0 0 -29575102.836303711 29721169.64938736 0 29721169.64938736 15436308.489284515 0 0 0 0 -81569687.132843018 55833449.11211729 0 55833449.11211729 30185157.49288559 0 0 0 0 106854186.80859375 58336301.944438934 0 58336301.944438934 29689409.989971161 0 0 0 0 -206087299.37884521 145107431.52571249 0 145107431.52571249 64721169.864042133 0 0 0 0 -172360238.81270599 64041133.63132906 0 64041133.63132906 38284896.924724579 0 0 0 0 -7080732.142029684 -2283973.576083377 0 -2283973.576083377 1721710.6775508272 0 0 0 0 -72855977.285247803 -6726450.5006933212 0 -6726450.5006933212 -9458159.7262458801 0 0 0 0 -162313825.0062561 -74778720.873151302 0 -74778720.873151302 14071730.62526834 0 0 0 0 -23357176.920951035 33752434.592858948 0 33752434.592858948 19033416.819756638 0 0 0 0 -16665530.168243408 11623140.926174387 0 11623140.926174387 -2247505.6994535923 0 0 0 0 227461.26047564298 23161328.222545616 0 23161328.222545616 8361607.7259559873 0 0 0 0 -14851042.834899902 8007797.0025275946 0 8007797.0025275946 -1850274.3845777512 0 0 0 0 12476268.221736416 28983582.749710407 0 28983582.749710407 15671145.904483479 0 0 0 0 3968796.9958918169 26547622.844712108 0 26547622.844712108 -2688112.0346724866 0 0 0 0 -13962428.017512307 8415325.0021747127 0 8415325.0021747127 -1447956.9676205209 0 0 0 0 66685795.471862793 10569399.059669495 0 10569399.059669495 4405991.6594848633 0 0 0 0 7852003.1006458104 1699125.0310058296 0 1699125.0310058296 -1903585.3817484947 0 0 0 0 122984135.35455704 196282763.59791529 0 196282763.59791529 -30616554.403038025 0 0 0 0 -52729913.651672363 134401846.31262922 0 134401846.31262922 -145531590.49969101 0 0 0 0 -12586418.017677307 32967123.682056665 0 32967123.682056665 110466650.77462578 0 0 0 0 -256840835.14846802 -65219699.618899822 0 -65219699.618899822 50860985.081045151 0 0 0 0 -9542804.401763916 -58375808.053628683 0 -58375808.053628683 86071881.309358597 0 0 0 0 -202009567.41851807 122748777.43339837 0 122748777.43339837 131769154.49197879 0 0 0 0 -44997725.524743736 39815490.512258485 0 39815490.512258485 26356657.058875747 0 0 0 0 109229767.28034401 -4044565.2073440552 0 -4044565.2073440552 60404782.061372757 0 0 0 0 -61518475.505952835 1903317.5989875793 0 1903317.5989875793 77056626.653886795 0 0 0 0 14607691.994543076 162761019.17245007 0 162761019.17245007 20674335.959671021 0 0 0 0 -17336835.016494751 140652280.16036224 0 140652280.16036224 5379618.8645839691 0 0 0 0 118699547.849226 293934632.74562073 0 293934632.74562073 72153505.165237427 0 0 0 0 240915785.84709358 144945067.04893112 0 144945067.04893112 7868177.249704361 0 0 0 0 2782928.4520031167 430745.37496243231 0 430745.37496243231 -2893524.2630611323 0 0 0 0 50399707.353253365 3385421.4948310852 0 3385421.4948310852 -13807536.945604324 0 0 0 0 344885090.08494842 -30857740.704946995 0 -30857740.704946995 -13993190.254772186 0 0 0 0 79723791.260398865 130681690.65023804 0 130681690.65023804 25639733.587654114 0 0 0 0 51125188.616153717 117777858.83132172 0 117777858.83132172 23881733.995274544 0 0 0 0 -2988596.9354400635 175591988.04849815 0 175591988.04849815 232076695.80181694 0 0 0 0 228949965.68179035 247576777.52122307 0 247576777.52122307 103276668.78221893 0 0 0 0 95796737.428848267 166574670.62579757 0 166574670.62579757 -57640011.073116541 0 0 0 0 -38711991.590376191 44026507.571967363 0 44026507.571967363 25811591.139704995 0 0 0 0 -54933480.631375313 79423626.417479515 0 79423626.417479515 136869809.33176804 0 0 0 0 33874465.243549347 129394014.82833099 0 129394014.82833099 55806951.354473114 0 0 0 0 53384623.08560276 166830773.07300377 0 166830773.07300377 91355325.451931 0 0 0 0 -123182919.11328125 36961581.986271083 0 36961581.986271083 76543820.510067463 0 0 0 0 -25239995.354719959 51111131.968849905 0 51111131.968849905 26823396.694211863 0 0 0 0 -47646654.68536377 85721125.601691246 0 85721125.601691246 52772977.715930939 0 0 0 0 47739904.59387207 143055764.48558044 0 143055764.48558044 35018891.998855591 0 0 0 0 -109107615.30075073 91818164.520921588 0 91818164.520921588 101220484.93187833 0 0 0 0 96419931.139404297 61627281.973058701 0 61627281.973058701 29792530.501070023 0 0 0 0 -156260961.42144775 -48669829.37102282 0 -48669829.37102282 -3124447.6712508202 0 0 0 0 -33993890.700101413 26728000.816509426 0 26728000.816509426 20684887.133005355 0 0 0 0 -98283416.639923096 -101353052.51131809 0 -101353052.51131809 40935830.487903535 0 0 0 0 -5556221.0044751391 -2405460.637680985 0 -2405460.637680985 1090524.3996367361 0 0 0 0 87647109.570642471 393490270.10570717 0 393490270.10570717 -38569221.868286133 0 0 0 0 273426948.72082037 533578248.21825898 0 533578248.21825898 -509522438.96740723 0 0 0 0 68652502.60312748 368561963.93512154 0 368561963.93512154 27002160.257964134 0 0 0 0 163381723.73207951 680628600.06032944 0 680628600.06032944 150847285.83664322 0 0 0 0 -66744851.339817286 274493294.47649384 0 274493294.47649384 206676767.7893734 0 0 0 0 -68008877.207970619 292000267.60489273 0 292000267.60489273 114112224.82144165 0 0 0 0 -11275987.050546646 209694696.22734833 0 209694696.22734833 216128364.9876833 0 0 0 0 21259126.866059065 150000179.61898708 0 150000179.61898708 -141106324.85321426 0 0 0 0 -117688167.64342546 258998003.81995964 0 258998003.81995964 126469158.02267647 0 0 0 0 4850475.3292993084 129747866.0949049 0 129747866.0949049 -161941403.81644058 0 0 0 0 5761629.828958163 1656100.00946863 0 1656100.00946863 -6841970.2708339524 0 0 0 0 -5370172.1321254969 151537605.5113945 0 151537605.5113945 -171382667.09954548 0 0 0 0 10277491.015065432 86870322.622346878 0 86870322.622346878 -212197622.13890648 0 0 0 0 134222825.47481823 137564787.67838478 0 137564787.67838478 -194271087.41116142 0 0 0 0 137975278.87887764 52587641.338973999 0 52587641.338973999 -453071361.15728951 0 0 0 0 173189639.34058601 115076613.53181505 0 115076613.53181505 -389831869.95441437 0 0 0 0 -6312480.8278141022 -63546882.706392288 0 -63546882.706392288 -207973388.25940323 0 0 0 0 5015629.4027751684 9944720.5147575736 0 9944720.5147575736 -143975586.40140152 0 0 0 0 -4609982.3057939801 7119991.7181361821 0 7119991.7181361821 -1449564.0615501606 0 0 0 0 69012222.421940804 92963906.213549376 0 92963906.213549376 91480298.087517262 0 0 0 0 61579621.775622368 103713130.20625877 0 103713130.20625877 77911078.314768195 0 0 0 0 61844137.404197693 2229195.1590423584 0 2229195.1590423584 20346621.181112289 0 0 0 0 15117393.974270821 39927565.833045483 0 39927565.833045483 63214530.137393951 0 0 0 0 105598820.93416095 51337061.412757158 0 51337061.412757158 21693801.196762085 0 0 0 0 96732702.969781876 82022699.794255257 0 82022699.794255257 47208059.503742218 0 0 0 0 443380.00672197342 87017878.154036522 0 87017878.154036522 206978302.24704361 0 0 0 0 -164881.80998223188 216912.18395059509 0 216912.18395059509 -227539.69554564729 0 0 0 0 5064829.7694633529 8935099.730799675 0 8935099.730799675 -123343281.29130173 0 0 0 0 9569476.8222368732 3261947.554238806 0 3261947.554238806 -13492564.962444518 0 0 0 0 17282823.462446213 5503854.7834072113 0 5503854.7834072113 -27478881.150466919 0 0 0 0 56384435.463762283 -3039910.5681304932 0 -3039910.5681304932 -26009506.814823151 0 0 0 0 23617469.891913891 24147244.828752041 0 24147244.828752041 -55207562.010173798 0 0 0 0 38903630.285518646 7713203.7446079254 0 7713203.7446079254 -44254499.226921082 0 0 0 0 11068548.161762476 18765325.003866196 0 18765325.003866196 -29187697.612703204 0 0 0 0 14204870.006971359 6887028.1073932648 0 6887028.1073932648 -21039879.371267319 0 0 0 0 11800603.666172743 16198238.335236549 0 16198238.335236549 -21202833.883410424 0 0 0 0 14200689.899677277 8743717.7654666901 0 8743717.7654666901 -30816030.690696716 0 0 0 0 24995077.972892553 19850000.220537461 0 19850000.220537461 -2825727.7412041258 0 0 0 0 9752155.4676742554 52348909.584416389 0 52348909.584416389 29726742.488075256 0 0 0 0 54030043.706687927 18422341.806072235 0 18422341.806072235 57312837.252624512 0 0 0 0 -6664929.7122344971 21838447.994110107 0 21838447.994110107 57469600.876155853 0 0 0 0 20746420.884535007 29725492.573989436 0 29725492.573989436 13336512.723711349 0 0 0 0 972927.09680238739 3356141.0519641414 0 3356141.0519641414 7580817.602777116 0 0 0 0 34044311.916969299 -41296043.700035095 0 -41296043.700035095 47385261.172454834 0 0 0 0 23510529.259895325 21761290.699184418 0 21761290.699184418 104600278.89694977 0 0 0 0 21932708.862112999 11361273.96120739 0 11361273.96120739 36195557.217803955 0 0 0 0 28195525.015930176 -18079425.445446014 0 -18079425.445446014 79989658.448501587 0 0 0 0 52227022.46100235 18122305.646259308 0 18122305.646259308 29163358.282806396 0 0 0 0 20198799.965725567 18702090.837677624 0 18702090.837677624 -242046.87660034467 0 0 0 0 718225.58118967339 2786332.2493655495 0 2786332.2493655495 4454562.8259527199 0 0 0 0 189459455.60443497 394487148.58995819 0 394487148.58995819 732567163.00247955 0 0 0 0 23964552.651027385 8177452.0546325222 0 8177452.0546325222 -6088354.2784115374 0 0 0 0 81830204.607538223 -481863.76149988174 0 -481863.76149988174 -46843646.826942444 0 0 0 0 4133999.8016731739 -21828657.382469893 0 -21828657.382469893 -22610143.211460114 0 0 0 0 -4823180.3237684984 14806571.007771105 0 14806571.007771105 4509462.6054332256 0 0 0 0 21703378.251899719 -1774948.5414476395 0 -1774948.5414476395 24354332.808368683 0 0 0 0 34723076.427271008 43722477.245610476 0 43722477.245610476 5521608.904548645 0 0 0 0 -1489981.8611965845 19442847.442037452 0 19442847.442037452 16733197.558695789 0 0 0 0 15960409.355923653 50768900.733129501 0 50768900.733129501 29926728.727966309 0 0 0 0 66643222.098432779 29524465.130508423 0 29524465.130508423 10870970.544979095 0 0 0 0 43281318.20887804 54511843.160894394 0 54511843.160894394 34054756.252679825 0 0 0 0 44831057.678991437 61259270.101145864 0 61259270.101145864 17504245.617088318 0 0 0 0 8976768.1154561043 38984475.163321495 0 38984475.163321495 13473201.21964097 0 0 0 0 31702543.823641658 43321698.51317811 0 43321698.51317811 -44378411.458406448 0 0 0 0 36399726.472819328 24024447.761034966 0 24024447.761034966 -22815381.024717331 0 0 0 0 -25390007.621086121 48703763.734550476 0 48703763.734550476 -31672171.384615421 0 0 0 0 -2850003.5231188983 43501995.157333829 0 43501995.157333829 -352727.40609867498 0 0 0 0 -21768402.712887287 57637847.725108624 0 57637847.725108624 -42800295.891662598 0 0 0 0 -14403929.513473511 44787531.807281494 0 44787531.807281494 -41807490.224647522 0 0 0 0 -20402272.086280823 47241071.315975189 0 47241071.315975189 -41394425.96023941 0 0 0 0 6472242.3789672852 35435688.539388657 0 35435688.539388657 21008992.013591766 0 0 0 0 31544643.081104279 109546079.82601166 0 109546079.82601166 57695919.077310562 0 0 0 0 37910909.401596814 69904028.544020176 0 69904028.544020176 -4919330.3078756183 0 0 0 0 640929.53793334961 -29127223.031240463 0 -29127223.031240463 -36814030.953765869 0 0 0 0 1167956.4702911377 119864178.55416107 0 119864178.55416107 655856.6856842041 0 0 0 0 41011609.084032059 146943108.50768948 0 146943108.50768948 -47896224.128421783 0 0 0 0 69093384.850757599 139248857.51500511 0 139248857.51500511 6075063.5975570679 0 0 0 0 12887153.904500574 57397474.458679572 0 57397474.458679572 22317435.046720348 0 0 0 0 -15681005.77199173 71501867.000032425 0 71501867.000032425 -37999939.637962341 0 0 0 0 -9141039.5927200317 67921340.721092224 0 67921340.721092224 -42546874.383228302 0 0 0 0 23238292.374031913 37218456.747164294 0 37218456.747164294 14097259.421687674 0 0 0 0 90531885.269898415 89923169.981751442 0 89923169.981751442 -117170204.19128323 0 0 0 0 -12859970.055896759 81822857.708881378 0 81822857.708881378 -1446016.1694526672 0 0 0 0 46904408.600852966 55330595.239034653 0 55330595.239034653 -78125507.306028366 0 0 0 0 137324632.81859905 119047035.27537873 0 119047035.27537873 -35421373.008720398 0 0 0 0 139438460.10623524 18982152.7510335 0 18982152.7510335 -51870419.837818146 0 0 0 0 16841311.704816818 51576796.892756462 0 51576796.892756462 -58545811.090309858 0 0 0 0 -123586582.84358978 109162021.77886009 0 109162021.77886009 47387198.96937561 0 0 0 0 2001297.4951839447 56110994.207424164 0 56110994.207424164 18413045.379844666 0 0 0 0 -40229765.538162231 35183658.440181732 0 35183658.440181732 102066807.31725311 0 0 0 0 -87681211.656982422 164581283.62007904 0 164581283.62007904 50824711.463750839 0 0 0 0 566805.37375640869 159179191.80149078 0 159179191.80149078 -6154944.6882963181 0 0 0 0 -113979484.05286407 210971467.58866882 0 210971467.58866882 -90322016.798583984 0 0 0 0 -109440373.58678436 172841512.79663849 0 172841512.79663849 -2333746.7919387817 0 0 0 0 117133799.82857323 264954035.07203865 0 264954035.07203865 -152422899.79605103 0 0 0 0 8526102.7009887695 92183364.164642334 0 92183364.164642334 -20579202.16255188 0 0 0 0 1056367.2016773224 67632811.152696609 0 67632811.152696609 -48660613.632461548 0 0 0 0 3258488.139213562 63500576.055130005 0 63500576.055130005 -42073687.971662521 0 0 0 0 48658441.115299225 85001849.734405518 0 85001849.734405518 -43809259.858612061 0 0 0 0 14325040.965005875 108863127.24488926 0 108863127.24488926 -36456020.709060669 0 0 0 0 29226198.357292175 106257895.34834671 0 106257895.34834671 -60511572.051544189 0 0 0 0 193690653.83812714 71530369.301902771 0 71530369.301902771 -63745960.040753841 0 0 0 0 66988183.885261536 38072550.525333405 0 38072550.525333405 -8100781.1908626556 0 0 0 0 -415044.75436401367 58591143.413345337 0 58591143.413345337 -14237624.949619293 0 0 0 0 -36932139.401725769 48734283.563789368 0 48734283.563789368 13724726.110137939 0 0 0 0 -7789807.3197250366 38011172.06401825 0 38011172.06401825 319054.02938842773 0 0 0 0 -50367663.796657562 77719872.603502274 0 77719872.603502274 -36632146.613082886 0 0 0 0 -9165679.2024917603 44236412.955047607 0 44236412.955047607 -58503060.696037292 0 0 0 0 22911311.273536682 46501906.147842407 0 46501906.147842407 -41472084.961807251 0 0 0 0 -1876610.0828781128 59779635.731063843 0 59779635.731063843 -45944620.821380615 0 0 0 0 -7115939.6467552185 46606727.246841431 0 46606727.246841431 -53681424.175994873 0 0 0 0 -17513161.304924011 34296590.920272827 0 34296590.920272827 -62956605.740020752 0 0 0 0 85596699.862857819 -13392494.415645599 0 -13392494.415645599 40022500.5754776 0 0 0 0 -40839823.864032745 19888369.293643951 0 19888369.293643951 57216234.229278564 0 0 0 0 -50862662.094436646 1825998.2815704346 0 1825998.2815704346 80843198.32862854 0 0 0 0 -41200612.757205963 39966967.780807495 0 39966967.780807495 81455803.960586548 0 0 0 0 8786118.7304039001 5718369.0320243835 0 5718369.0320243835 47669441.019935608 0 0 0 0 67594873.513839722 33052010.05556488 0 33052010.05556488 32924582.646865845 0 0 0 0 353951458.00151825 63579815.445549011 0 63579815.445549011 13765374.96122551 0 0 0 0 342965863.36509323 -55808734.753871918 0 -55808734.753871918 -45482557.837352753 0 0 0 0 84952931.060997009 -12838376.977298737 0 -12838376.977298737 57702980.324081421 0 0 0 0 -2074715.1036071777 -13395206.257778168 0 -13395206.257778168 -46178384.375911713 0 0 0 0 1267179.0469980221 4821.5364334294572 0 4821.5364334294572 -3516993.980361037 0 0 0 0 351683284.64616013 -37335322.378318787 0 -37335322.378318787 -12184008.49429512 0 0 0 0 362104721.36720335 -135522129.11303318 0 -135522129.11303318 32880173.463897705 0 0 0 0 656667.36798237264 71417.370071981102 0 71417.370071981102 -507499.14893777296 0 0 0 0 -198624940.08873749 344017328.8592453 0 344017328.8592453 -172219650.60896301 0 0 0 0 -237626821.72595596 137485425.20779324 0 137485425.20779324 -127732147.57365417 0 0 0 0 -161787570.57915115 74510464.217128754 0 74510464.217128754 -34302772.643318176 0 0 0 0 -154808575.32629395 183994553.19895935 0 183994553.19895935 -328985545.66188049 0 0 0 0 -217848276.03400421 175747028.57475471 0 175747028.57475471 -58653610.809631348 0 0 0 0 2085653.0504692122 2719295.4835545272 0 2719295.4835545272 1328106.5686195046 0 0 0 0 -351051095.93616867 231207522.41485596 0 231207522.41485596 -139488384.43841553 0 0 0 0 -239564824.4172287 365007419.97299957 0 365007419.97299957 -320208565.29667974 0 0 0 0 84577519.173194885 -44168684.589885712 0 -44168684.589885712 -36785847.410110474 0 0 0 0 86812950.303916931 -102830885.21084595 0 -102830885.21084595 49308322.27350235 0 0 0 0 922889.64394641109 -65227.048029633239 0 -65227.048029633239 -3211898.7242694721 0 0 0 0 -95059175.902053833 -27395421.504619598 0 -27395421.504619598 38372012.798770905 0 0 0 0 129837916.21784973 -136884037.41151428 0 -136884037.41151428 -28139544.56401062 0 0 0 0 571725623.10556412 -17526963.227771759 0 -17526963.227771759 -50432050.72961092 0 0 0 0 -96301439.339385986 -386586366.9817028 0 -386586366.9817028 -55926498.210670471 0 0 0 0 -533122622.71789932 110297306.44250488 0 110297306.44250488 171940597.48778915 0 0 0 0 464739237.34978843 598058970.46370316 0 598058970.46370316 316463969.41374207 0 0 0 0 441502002.25603104 477501250.84498215 0 477501250.84498215 154013849.67813873 0 0 0 0 401740374.52609515 697561177.81660581 0 697561177.81660581 667417190.5612793 0 0 0 0 109927599.10368061 120672647.71217346 0 120672647.71217346 223295523.85572815 0 0 0 0 237298530.65052414 132424151.93480873 0 132424151.93480873 45509445.567428589 0 0 0 0 133088806.25550842 277051259.69356537 0 277051259.69356537 407906443.69026947 0 0 0 0 166260051.5066185 45734240.865753174 0 45734240.865753174 -30314246.977958679 0 0 0 0 79498169.385124207 46367671.913986206 0 46367671.913986206 122311318.78518677 0 0 0 0 15137676.470367432 -27109802.886211395 0 -27109802.886211395 68191585.350372314 0 0 0 0 -33090145.22142601 61398623.573005676 0 61398623.573005676 -26268757.608306885 0 0 0 0 -127174130.30554962 44467282.833450317 0 44467282.833450317 -16124378.821395874 0 0 0 0 -77244038.266841888 151505137.36961365 0 151505137.36961365 -169167047.88530731 0 0 0 0 -124426347.77309799 104417839.11779022 0 104417839.11779022 -227618656.48220062 0 0 0 0 -33604858.179130554 187518261.83024216 0 187518261.83024216 -152762104.0802002 0 0 0 0 491101756.616745 274364226.7857399 0 274364226.7857399 -156211992.11658096 0 0 0 0 -36785662.358207703 82436212.204929352 0 82436212.204929352 41486097.243366241 0 0 0 0 996277081.21787262 550002572.96440506 0 550002572.96440506 -346554500.08461761 0 0 0 0 -49931369.872359276 60394773.933367729 0 60394773.933367729 -181792685.54991913 0 0 0 0 -205071832.06267166 434530507.03346252 0 434530507.03346252 -291637046.19424915 0 0 0 0 1788028.6020188779 2306112.4906443134 0 2306112.4906443134 1497884.7023246437 0 0 0 0 1262844.924612999 93611079.516758919 0 93611079.516758919 -19782264.506408691 0 0 0 0 281244650.90176773 101183566.6199913 0 101183566.6199913 -41158728.287191391 0 0 0 0 69995975.436717987 168024097.07701111 0 168024097.07701111 319972411.57682037 0 0 0 0 833658.28909477219 991068.04659542814 0 991068.04659542814 676141.57663293928 0 0 0 0 284605600.66088867 871619075.19269562 0 871619075.19269562 1079250781.1575546 0 0 0 0 681174946.15652561 1081748514.477252 0 1081748514.477252 711311686.24376678 0 0 0 0 542476554.77236938 747239601.84253693 0 747239601.84253693 190433725.56369209 0 0 0 0 542989575.76569057 738411307.37392974 0 738411307.37392974 262335549.19766235 0 0 0 0 711538943.73207092 588462401.99060822 0 588462401.99060822 395027515.39588737 0 0 0 0 553275114.04078865 333163738.97870827 0 333163738.97870827 16313372.038925171 0 0 0 0 575505.9248434566 247725.48758975044 0 247725.48758975044 -180455.20656839386 0 0 0 0 746168787.50830841 56633268.563352585 0 56633268.563352585 43370271.899284363 0 0 0 0 1163663759.0146542 341531213.91394424 0 341531213.91394424 -597031249.03042603 0 0 0 0 1409122455.9222488 -38382544.395988464 0 -38382544.395988464 -548326178.39847565 0 0 0 0 1307675869.5962143 672775668.10213089 0 672775668.10213089 24017266.420188546 0 0 0 0 940195586.55031204 967849069.96885681 0 967849069.96885681 380817551.79929352 0 0 0 0 79780477.402236938 -11833205.659252167 0 -11833205.659252167 36948015.445667267 0 0 0 0 63426299.211359024 -44053428.133228302 0 -44053428.133228302 -21779478.560806274 0 0 0 0 8702720.142578125 30741581.274299622 0 30741581.274299622 23652846.61680603 0 0 0 0 195598997.78489304 38117028.672725677 0 38117028.672725677 22866687.695068359 0 0 0 0 35428837.216838837 -86934252.69726944 0 -86934252.69726944 -5634637.9887542725 0 0 0 0 104384529.81740379 -26850910.238935471 0 -26850910.238935471 13020170.455562592 0 0 0 0 3108347.2099443059 7195581.6241093129 0 7195581.6241093129 3564530.8900817782 0 0 0 0 1794163.6187028885 22039338.38067627 0 22039338.38067627 50216950.149719238 0 0 0 0 -7101215.0874178354 120387.93274005689 0 120387.93274005689 6474139.9213522449 0 0 0 0 4664915.1229692046 7237573.333928192 0 7237573.333928192 -517136.16507799923 0 0 0 0 274903.36924934387 3765516.0472111702 0 3765516.0472111702 -1045327.0515060425 0 0 0 0 -106838701.32263184 -65817896.964057922 0 -65817896.964057922 113899094.88319778 0 0 0 0 3153808.6969455271 14232868.401128953 0 14232868.401128953 -2451146.8338035457 0 0 0 0 -158855059.65698695 208438095.49580574 0 208438095.49580574 245218876.20837402 0 0 0 0 7954244.2850036621 -1899637549.2959671 0 -1899637549.2959671 -846422517.22152328 0 0 0 0 -363500316.60443115 -242638524.64286041 0 -242638524.64286041 8653991.9330196381 0 0 0 0 -1454789.6371841431 -849132801.52240181 0 -849132801.52240181 -1012881268.9484406 0 0 0 0 -563054836.12678528 205049585.77205753 0 205049585.77205753 -100036850.02786255 0 0 0 0 2574861696.1282578 -191585337.82656097 0 -191585337.82656097 -1854101767.3193741 0 0 0 0 252007024.68078327 -56137177.962796688 0 -56137177.962796688 -155858892.85658264 0 0 0 0 750827964.44003677 1832239021.1524048 0 1832239021.1524048 4789336093.0682373 0 0 0 0 3269804857.2187881 -1732350588.234848 0 -1732350588.234848 769729595.31735229 0 0 0 0 -1442833198.4036865 430343633.61218643 0 430343633.61218643 930377272.95859146 0 0 0 0 20143566.10373497 -14149001.343696594 0 -14149001.343696594 19834695.535686493 0 0 0 0 -3612140.6123155756 16654294.053630384 0 16654294.053630384 13774789.538148019 0 0 0 0 1830481946.4163055 960251454.03212738 0 960251454.03212738 -184457529.81100464 0 0 0 0 3896733870.2312469 1508021901.0319061 0 1508021901.0319061 -786656188.0173912 0 0 0 0 9569875.8317158893 1854784.950379353 0 1854784.950379353 -2467723.2369282246 0 0 0 0 930357269.94847107 1961653071.2367496 0 1961653071.2367496 3352239054.105217 0 0 0 0 353154514.02945328 493989021.6975708 0 493989021.6975708 464817510.07512283 0 0 0 0 -26659480.970799446 89671494.210355759 0 89671494.210355759 267423693.77352238 0 0 0 0 -25726219.381501675 51668254.181567192 0 51668254.181567192 -5121394.5493788719 0 0 0 0 1527009809.1884727 939602003.32679081 0 939602003.32679081 -95735772.882896423 0 0 0 0 2024393858.3745804 1432191292.9980106 0 1432191292.9980106 111910537.30467606 0 0 0 0 1527845609.9091396 942570981.52168274 0 942570981.52168274 -339954439.13396454 0 0 0 0 2253264733.5510101 998915858.63364029 0 998915858.63364029 -725734603.60303879 0 0 0 0 2835251601.154747 -683386245.1545105 0 -683386245.1545105 -216916457.23904228 0 0 0 0 4043720989.5041065 1562556288.4097624 0 1562556288.4097624 -618861327.15370178 0 0 0 0 590951311.54415131 1797498084.8180504 0 1797498084.8180504 524716824.39725018 0 0 0 0 2191851158.7084522 833009162.41603279 0 833009162.41603279 -1017026807.1381378 0 0 0 0 67152055.595966339 -14988784.272685051 0 -14988784.272685051 -7868338.6796531677 0 0 0 0 -723580330.34506989 449912428.69696045 0 449912428.69696045 -247002097.66009521 0 0 0 0 2952054.0522384644 -11314154.58407402 0 -11314154.58407402 22224578.031661987 0 0 0 0 -690650.41822425183 16469400.861367445 0 16469400.861367445 7687735.2588259019 0 0 0 0 63037045.755496979 -5375963.9753217697 0 -5375963.9753217697 -29211859.782417297 0 0 0 0 71175818.811538696 80810596.721171379 0 80810596.721171379 9639628.8950855732 0 0 0 0 24158846.527046204 35097196.913769722 0 35097196.913769722 -14374892.063064575 0 0 0 0 36509116.522094727 9142242.7547702789 0 9142242.7547702789 40158453.782104492 0 0 0 0 4846518407.8620148 569807667.14394569 0 569807667.14394569 -140759349.77935219 0 0 0 0 2790913258.6324463 1514092338.5813217 0 1514092338.5813217 -804244277.4122963 0 0 0 0 2043535044.4829712 599913742.64672089 0 599913742.64672089 290928082.21926117 0 0 0 0 1517.2855833377689 694641.13589341985 0 694641.13589341985 729304.60995947197 0 0 0 0 2064510987.7154007 1240167886.4511223 0 1240167886.4511223 222967334.7483902 0 0 0 0 424407.48170988169 3310892.6132642869 0 3310892.6132642869 3052070.9950036248 0 0 0 0 2240127565.5637932 -676641303.45699263 0 -676641303.45699263 2088011898.083086 0 0 0 0 2007353986.5381699 2131245371.2144051 0 2131245371.2144051 1871260832.0863686 0 0 0 0 4004243664.5199776 2002476812.971489 0 2002476812.971489 398153157.39177608 0 0 0 0 12763122.165253639 206092359.62085938 0 206092359.62085938 1734577690.2365618 0 0 0 0 -7550745.5875696056 6482199.113633221 0 6482199.113633221 8188254.3674151637 0 0 0 0 1212296091.7659492 2499200997.186923 0 2499200997.186923 1205567583.0639315 0 0 0 0 -4129253.6232956946 2097694.5082957065 0 2097694.5082957065 2075459.4715904312 0 0 0 0 1158020704.3349533 458121209.19644308 0 458121209.19644308 -368868850.31100321 0 0 0 0 1348752021.7197647 1165176484.152504 0 1165176484.152504 -708907724.42409015 0 0 0 0 1731190686.4972796 1000913627.1868805 0 1000913627.1868805 -83335406.343151093 0 0 0 0 1063682268.6700439 1088122471.4479761 0 1088122471.4479761 -76889396.4615013 0 0 0 0 79194807.181700766 228399713.97405085 0 228399713.97405085 74309144.184407711 0 0 0 0 15987112.092546463 -64824462.732483864 0 -64824462.732483864 -12599990.475992203 0 0 0 0 80782520.343653679 93148185.979972363 0 93148185.979972363 -18791512.818953514 0 0 0 0 487384281.79966736 -755842754.19972706 0 -755842754.19972706 759073325.50047112 0 0 0 0 1392809688.9527626 601189556.94520569 0 601189556.94520569 -284424701.54441833 0 0 0 0 -7292432.3101096824 6424615.3018263206 0 6424615.3018263206 7289105.9679531921 0 0 0 0 978328734.62786102 691072376.55146217 0 691072376.55146217 719306072.38464928 0 0 0 0 -787542653.27761078 282957639.93157864 0 282957639.93157864 266777600.65735054 0 0 0 0 -999890246.12740326 352995488.75377369 0 352995488.75377369 261438192.03986168 0 0 0 0 -800338687.38481522 320460219.06387997 0 320460219.06387997 229400876.51333427 0 0 0 0 -470831451.75899124 188708109.67647696 0 188708109.67647696 53734462.015756607 0 0 0 0 -496346909.38894272 155009566.99096203 0 155009566.99096203 147866761.11323929 0 0 0 0 -691756443.77000427 352024709.55173826 0 352024709.55173826 164817587.33429146 0 0 0 0 -373790681.30976295 372064886.30981034 0 372064886.30981034 29405388.459433079 0 0 0 0 -88704956.77772522 233825682.17759514 0 233825682.17759514 -29802955.893428802 0 0 0 0 -367024382.88871002 379885087.46044207 0 379885087.46044207 13201255.056278229 0 0 0 0 -713375275.41303253 760677354.24378824 0 760677354.24378824 -325054613.75899351 0 0 0 0 -790951815.81053925 384472492.49973059 0 384472492.49973059 154316699.88129497 0 0 0 0 -798959456.70965528 441814533.20005238 0 441814533.20005238 231740864.53825569 0 0 0 0 -1123071486.5381699 730003412.12217999 0 730003412.12217999 1377890.1752033234 0 0 0 0 -1013124016.1756706 555106216.95924568 0 555106216.95924568 224119072.02656651 0 0 0 0 -2099590484.9362507 -472677434.65274572 0 -472677434.65274572 494613895.16063929 0 0 0 0 -272902691.41203308 -365181370.403615 0 -365181370.403615 291441335.15252352 0 0 0 0 -6727947.7367105968 4609103.0941298017 0 4609103.0941298017 5424094.8345374297 0 0 0 0 -11943618.6537323 65213970.000193596 0 65213970.000193596 45830482.171772957 0 0 0 0 1346734954.6114731 1220779768.7312698 0 1220779768.7312698 107242018.09736133 0 0 0 0 1141809547.423871 467520706.88721818 0 467520706.88721818 445940360.87400115 0 0 0 0 -108016509.16248322 -27351058.391588211 0 -27351058.391588211 42640266.89011395 0 0 0 0 77951332.127769947 32709583.671536088 0 32709583.671536088 -55079233.006374359 0 0 0 0 -306869258.24503326 40873836.030445099 0 40873836.030445099 120752879.23476219 0 0 0 0 -998221101.61017001 25796155.688911382 0 25796155.688911382 252245687.00180244 0 0 0 0 -299459161.82025433 75113243.919337749 0 75113243.919337749 46403925.027580261 0 0 0 0 -629106962.72736359 295193978.82568932 0 295193978.82568932 6826992.9305477142 0 0 0 0 -355363364.05709076 213006930.50674343 0 213006930.50674343 26310280.218122482 0 0 0 0 -62953797.930286407 53371153.337203026 0 53371153.337203026 -68589517.317022324 0 0 0 0 -24703749.008468628 -10899416.421276093 0 -10899416.421276093 -7793093.2898483276 0 0 0 0 -108118696.52432251 5840096.1220378876 0 5840096.1220378876 -14598376.904546738 0 0 0 0 3313818.4050712585 13106848.620704651 0 13106848.620704651 -53558391.749660492 0 0 0 0 -207961300.61050415 -7285844.2209968567 0 -7285844.2209968567 13427803.798017502 0 0 0 0 -155894481.58868504 181980387.51321054 0 181980387.51321054 -209056969.83731461 0 0 0 0 18090892.573226929 234942879.13475609 0 234942879.13475609 -472948361.32706499 0 0 0 0 -1381127574.0009155 436388496.37332726 0 436388496.37332726 266889370.76296711 0 0 0 0 -737421394.32318497 710469620.1978426 0 710469620.1978426 -380628717.68254852 0 0 0 0 -841652344.09189606 347215578.03376579 0 347215578.03376579 212741067.35522461 0 0 0 0 -480157898.41047239 -7119424.9336904883 0 -7119424.9336904883 57235824.531898499 0 0 0 0 -481536780.00157166 -22066521.368053436 0 -22066521.368053436 167394407.37259293 0 0 0 0 -897940226.90588379 101954139.11800957 0 101954139.11800957 176768776.31769943 0 0 0 0 -1214146868.9990921 -27521166.375703812 0 -27521166.375703812 271279773.49705315 0 0 0 0 74775413.916908264 415108005.21683502 0 415108005.21683502 -1053160646.0239525 0 0 0 0 -7527090.1233952716 -802308.17145527527 0 -802308.17145527527 2872086.5628750082 0 0 0 0 -189839.55196740851 4714316.7924723104 0 4714316.7924723104 3038104.9326129421 0 0 0 0 -4266256005.8050385 632929643.21290207 0 632929643.21290207 426871442.22449112 0 0 0 0 -568972690.75523376 -206894172.1162262 0 -206894172.1162262 199301050.62080383 0 0 0 0 -2382500444.8902907 -477298578.88722742 0 -477298578.88722742 769133769.40355682 0 0 0 0 -2622928352.2607298 1663403777.7644241 0 1663403777.7644241 -328488259.8854599 0 0 0 0 -814669531.52376938 -818495404.81844139 0 -818495404.81844139 712139844.6218338 0 0 0 0 -1917412752.252964 481301310.67345333 0 481301310.67345333 185522910.54311371 0 0 0 0 -614487633.37145996 -826746330.67838287 0 -826746330.67838287 373019687.36889648 0 0 0 0 -600489385.7317009 -1006774475.5450459 0 -1006774475.5450459 280666744.61373901 0 0 0 0 -648359092.10506439 -1013330303.708519 0 -1013330303.708519 436274438.22603607 0 0 0 0 -553499122.15328979 -952419119.40356445 0 -952419119.40356445 120996784.95966339 0 0 0 0 -475930082.52398682 1517485270.0189972 0 1517485270.0189972 -2372223404.0905838 0 0 0 0 -6500246.0440302603 -2979991.2539643813 0 -2979991.2539643813 -490292.52781537361 0 0 0 0 -3556807031.9504757 1761278783.4238663 0 1761278783.4238663 429833027.09647369 0 0 0 0 -443086953.66268921 -723333469.76351929 0 -723333469.76351929 23239233.689998627 0 0 0 0 -1127225907.9564056 -283040988.93186188 0 -283040988.93186188 236055497.35578156 0 0 0 0 320436128.66310883 -126565246.04338837 0 -126565246.04338837 243621432.19001007 0 0 0 0 -17260943.248894926 8147881.7522674073 0 8147881.7522674073 5922934.8934654091 0 0 0 0 -13083861.329975128 -7335844.7956075668 0 -7335844.7956075668 83366050.648864746 0 0 0 0 481631847.89174557 278305259.97650909 0 278305259.97650909 240741908.14160156 0 0 0 0 -13637892.491096497 -53094265.092449188 0 -53094265.092449188 9086814.0351428986 0 0 0 0 -78646927.964569092 102354278.1891861 0 102354278.1891861 83117987.267299652 0 0 0 0 -16180420.855397841 1751849.7672132086 0 1751849.7672132086 5476000.9961497253 0 0 0 0 -1357458252.5185697 1433269073.9408517 0 1433269073.9408517 1030900847.6688042 0 0 0 0 1319966530.8304672 -1047889996.684082 0 -1047889996.684082 -1331015599.0352774 0 0 0 0 923484819.25061131 510599721.24852371 0 510599721.24852371 -1517732508.8084335 0 0 0 0 532148924.10625648 -657668321.14358902 0 -657668321.14358902 353584690.28623009 0 0 0 0 413522877.3622427 30163614.880897522 0 30163614.880897522 1957.6610717773438 0 0 0 0 978217710.82491469 157867577.67745447 0 157867577.67745447 -3210191.4969940186 0 0 0 0 25101745.029888153 14551984.523334503 0 14551984.523334503 -3743785.889541626 0 0 0 0 6677510.2080116272 16036053.300395966 0 16036053.300395966 18926859.244491577 0 0 0 0 9388789.185613066 5236766.8594713807 0 5236766.8594713807 -1838549.8994725253 0 0 0 0 -100546.85059356689 31642415.159477234 0 31642415.159477234 8888774.9204711914 0 0 0 0 17194095.513669014 20872926.127664566 0 20872926.127664566 -62871263.24622345 0 0 0 0 -39536846.579208374 -78020100.705593109 0 -78020100.705593109 -92486161.450767517 0 0 0 0 -17589981.102912903 -19948795.879261017 0 -19948795.879261017 2761688.9500541687 0 0 0 0 22760450.692378998 22935828.889881134 0 22935828.889881134 -32334263.594589233 0 0 0 0 -366304769.62734604 324490575.50371552 0 324490575.50371552 -261843775.35052109 0 0 0 0 -262197764.73363876 921301853.1684761 0 921301853.1684761 -337298741.20446777 0 0 0 0 549472684.16046524 57203310.947847366 0 57203310.947847366 -1928236296.6516953 0 0 0 0 -1980252380.3024368 -31706635.664337158 0 -31706635.664337158 1028781684.6236305 0 0 0 0 2121097.8631515708 287910.53092731163 0 287910.53092731163 -873784.55828647967 0 0 0 0 -115112290.05809021 -104762835.32566833 0 -104762835.32566833 -88283134.867782593 0 0 0 0 -429886901.77748108 -31765148.301048279 0 -31765148.301048279 -42649222.205032349 0 0 0 0 -158742151.9946785 -123120602.51605606 0 -123120602.51605606 -74613217.545353889 0 0 0 0 -537343441.10774994 233890153.18344593 0 233890153.18344593 -251741668.11351013 0 0 0 0 -336141253.5844574 -29317949.006820679 0 -29317949.006820679 -117394494.20285034 0 0 0 0 -232431466.94873619 -20750016.043384552 0 -20750016.043384552 85183807.796012878 0 0 0 0 -329350494.0824337 49651921.589206696 0 49651921.589206696 40835685.489311218 0 0 0 0 -91827053.349658966 -59460206.124790192 0 -59460206.124790192 10729262.386749268 0 0 0 0 -122106448.77242279 -62255766.692752838 0 -62255766.692752838 10477785.51638031 0 0 0 0 -148177713.39685059 -39976281.379493713 0 -39976281.379493713 92967241.249336243 0 0 0 0 -112925347.87969589 7170407.5441436768 0 7170407.5441436768 131157292.7259903 0 0 0 0 41984559.162483215 79814571.250747681 0 79814571.250747681 108849967.1605072 0 0 0 0 -112225349.80125523 84205415.599650383 0 84205415.599650383 163961506.56447601 0 0 0 0 -39113510.900096893 74446624.087333679 0 74446624.087333679 172090731.42342377 0 0 0 0 -14364417.266915321 45078932.711185455 0 45078932.711185455 88278610.650291443 0 0 0 0 -62735460.366165161 44747253.721424103 0 44747253.721424103 122387281.31102371 0 0 0 0 60391795.815940619 86469982.567725897 0 86469982.567725897 36882581.391578674 0 0 0 0 -16899112.777614594 51598060.31729126 0 51598060.31729126 53529821.128800631 0 0 0 0 238984631.23899078 109418046.48406982 0 109418046.48406982 -21620676.333236694 0 0 0 0 52908054.918502808 177968111.01436996 0 177968111.01436996 158926044.44125319 0 0 0 0 -19624954.877700746 33688217.137120739 0 33688217.137120739 -34123820.058462635 0 0 0 0 227134163.9992218 -23676128.760391235 0 -23676128.760391235 -153847723.04256439 0 0 0 0 36081655.346740723 99277883.088684082 0 99277883.088684082 -22624003.803588867 0 0 0 0 39235633.715744019 86795566.075805664 0 86795566.075805664 -71396306.998001099 0 0 0 0 178958890.18389893 168033903.72685146 0 168033903.72685146 -26643062.273605347 0 0 0 0 21472463.52142334 62089446.086761475 0 62089446.086761475 -15891777.562030792 0 0 0 0 2442725.2756347656 -91073506.68963623 0 -91073506.68963623 -129051379.96798706 0 0 0 0 17693420.520401001 14811320.054092407 0 14811320.054092407 -66922467.384033203 0 0 0 0 104433835.70987701 49877875.76486969 0 49877875.76486969 -53808039.156097412 0 0 0 0 -23801779.725418091 72733125.682289124 0 72733125.682289124 -7924995.6464080811 0 0 0 0 -95825412.555473328 -15372182.463539124 0 -15372182.463539124 29769467.00548172 0 0 0 0 -58584920.763942719 11940691.349964142 0 11940691.349964142 42768292.592277527 0 0 0 0 -128249158.55511093 -6878996.317489624 0 -6878996.317489624 63189375.332565308 0 0 0 0 -104002587.82509995 20181120.892227173 0 20181120.892227173 74818176.57358551 0 0 0 0 -139194926.90215588 16539322.531464577 0 16539322.531464577 65642365.153083801 0 0 0 0 -3633417.0377220027 7594948.93300502 0 7594948.93300502 9642898.8791840523 0 0 0 0 201359417.01197624 -77178236.295841455 0 -77178236.295841455 19822088.335998535 0 0 0 0 446448.62494732812 230911.32736530155 0 230911.32736530155 -111188.13393101469 0 0 0 0 217400243.68733597 106379773.23559189 0 106379773.23559189 95075177.041786194 0 0 0 0 -28220886.51606369 185338935.44919586 0 185338935.44919586 -25983042.004979134 0 0 0 0 -75266210.563976288 -34511082.664741516 0 -34511082.664741516 47302913.343244553 0 0 0 0 -75524120.976383209 -24038735.128658295 0 -24038735.128658295 21619292.275225163 0 0 0 0 -90427941.946784973 -14631309.454292297 0 -14631309.454292297 75522863.189604044 0 0 0 0 -78952444.07314682 -19186308.68860054 0 -19186308.68860054 44600450.797691345 0 0 0 0 -103136199.47230911 12419170.159870148 0 12419170.159870148 22606705.8670578 0 0 0 0 148371674.83453941 -33907703.765420914 0 -33907703.765420914 -18494698.688644409 0 0 0 0 -457035.6890297099 4916042.334756922 0 4916042.334756922 7633392.5911842398 0 0 0 0 -19750160.94140625 -36974752.039595604 0 -36974752.039595604 -17671750.130409241 0 0 0 0 75292774.373176575 9836520.417755127 0 9836520.417755127 11037041.983974457 0 0 0 0 916558.341105517 462331.72338286042 0 462331.72338286042 -204413.65449155867 0 0 0 0 107545654.3814168 -11380999.707897186 0 -11380999.707897186 5308200.9071578979 0 0 0 0 223290305.64391327 -93060194.309661865 0 -93060194.309661865 -51867406.426719666 0 0 0 0 111741082.69476199 31228316.874816895 0 31228316.874816895 -78840095.288482666 0 0 0 0 69832957.899906158 -51050813.374923706 0 -51050813.374923706 15661108.588691711 0 0 0 0 126659835.26319885 -44109202.759643555 0 -44109202.759643555 -95070192.406709671 0 0 0 0 265611989.46279526 256541530.59436035 0 256541530.59436035 247261108.23285866 0 0 0 0 517764320.16552353 191891330.33448029 0 191891330.33448029 89318137.148399353 0 0 0 0 257908163.91233063 -96316731.405673981 0 -96316731.405673981 11739686.986147881 0 0 0 0 282945503.92643738 -73557183.400892258 0 -73557183.400892258 -138932660.05927277 0 0 0 0 269041634.41353798 22139570.368503571 0 22139570.368503571 -113353567.37504578 0 0 0 0 178512758.39450455 -25810050.10792923 0 -25810050.10792923 21461831.969556808 0 0 0 0 -124659315.39364243 44373577.006275177 0 44373577.006275177 -94366710.56196022 0 0 0 0 272374003.99092102 -53555932.488983154 0 -53555932.488983154 -144431639.16398621 0 0 0 0 311492836.85818863 -136753420.39185333 0 -136753420.39185333 -117329419.17235565 0 0 0 0 911558778.71381378 117028690.37647247 0 117028690.37647247 -97541379.885238171 0 0 0 0 119628274.73939323 -49180654.210971832 0 -49180654.210971832 -87656967.126617432 0 0 0 0 141954564.89861774 -48818738.745192528 0 -48818738.745192528 -245690963.11009979 0 0 0 0 -64124229.06571579 137749861.30344772 0 137749861.30344772 28199350.20954895 0 0 0 0 -33435693.698244095 5440165.1802024841 0 5440165.1802024841 -29278941.137527466 0 0 0 0 170263962.75720215 143055208.8693428 0 143055208.8693428 -14455269.903366089 0 0 0 0 161334466.98385239 -14603204.78327179 0 -14603204.78327179 -114667476.38652039 0 0 0 0 255279073.21876907 -24528671.27166748 0 -24528671.27166748 -150380543.45011902 0 0 0 0 241094190.85606384 -23683592.435874939 0 -23683592.435874939 -115985630.18461609 0 0 0 0 279495395.6807251 282722493.90407181 0 282722493.90407181 79502367.492706299 0 0 0 0 585363249.31697083 38393963.721450806 0 38393963.721450806 -143589031.09091759 0 0 0 0 -37590207.207054138 167132003.88697052 0 167132003.88697052 115414520.04463005 0 0 0 0 18163215.254875183 56686885.83000946 0 56686885.83000946 -13764745.900756836 0 0 0 0 47438402.683425903 121081080.81999969 0 121081080.81999969 6558835.4563140869 0 0 0 0 39235775.249061584 132421549.1563282 0 132421549.1563282 35879125.360641479 0 0 0 0 25412274.246025085 108686106.23838043 0 108686106.23838043 -4871770.8907699585 0 0 0 0 3315176.9014587402 60431514.257904053 0 60431514.257904053 27206818.091093063 0 0 0 0 15955505.449985504 64245506.676986694 0 64245506.676986694 -13975805.251373291 0 0 0 0 -9185202.6518173218 35698144.048690796 0 35698144.048690796 -30552871.594902039 0 0 0 0 -2189783.0167007446 34313316.800224304 0 34313316.800224304 -43904809.586700439 0 0 0 0 -33096484.109786987 40617051.521972656 0 40617051.521972656 -32923186.937725067 0 0 0 0 55477.625116348267 64201908.852333069 0 64201908.852333069 -16669667.014709473 0 0 0 0 -1239513.8649234092 4779292.8464090824 0 4779292.8464090824 -1015386.5404117927 0 0 0 0 717021532.45676804 314844819.42431641 0 314844819.42431641 96183032.358444214 0 0 0 0 -161963882.51860809 81892511.62834549 0 81892511.62834549 58233241.830825806 0 0 0 0 -449026.55030952394 1248283.8539691642 0 1248283.8539691642 -1288381.1879786178 0 0 0 0 -31702648.733078003 42731073.334123611 0 42731073.334123611 -54167414.973800659 0 0 0 0 632397608.70428467 -347720964.10995102 0 -347720964.10995102 -375100048.45063019 0 0 0 0 296362681.62229919 404543983.01886749 0 404543983.01886749 901729067.74536133 0 0 0 0 7879551.899597168 10663778.47718811 0 10663778.47718811 -15101717.122589111 0 0 0 0 3398575.2569778077 8171454.9476776607 0 8171454.9476776607 -15810095.248054728 0 0 0 0 -14505068.484977722 32587122.084434509 0 32587122.084434509 -36086838.443084717 0 0 0 0 -6142136.4941645525 13742764.153587367 0 13742764.153587367 -3683825.4294589013 0 0 0 0 -21501645.255125046 33799115.459976196 0 33799115.459976196 -36240651.514450073 0 0 0 0 -32100521.650718689 60961573.216995239 0 60961573.216995239 -54635974.583578587 0 0 0 0 -6124639.3990950435 9611146.7757774368 0 9611146.7757774368 -667493.92164365575 0 0 0 0 -34499248.596893311 58994291.679115295 0 58994291.679115295 -43209415.78768158 0 0 0 0 2821549.3709104545 2281180.0580968335 0 2281180.0580968335 1006146.2022759765 0 0 0 0 -194675245.94604588 330519169.54722881 0 330519169.54722881 -280052701.29043579 0 0 0 0 -168731128.63106918 286074206.46206856 0 286074206.46206856 -352615826.83320999 0 0 0 0 54127640.377960205 -237772401.77157593 0 -237772401.77157593 4334397.5237426758 0 0 0 0 -154889420.47035217 288340257.2226181 0 288340257.2226181 316880226.54496765 0 0 0 0 860862982.32692719 179459252.93018246 0 179459252.93018246 -309327359.48202515 0 0 0 0 1352749.7062122077 931033.02624728531 0 931033.02624728531 332459.63497768342 0 0 0 0 -216911180.07404327 96594101.956856728 0 96594101.956856728 116167660.28860474 0 0 0 0 -211547759.27863407 69436214.573283195 0 69436214.573283195 83788137.416503906 0 0 0 0 -14628010.936157227 180719235.77528763 0 180719235.77528763 46827003.968147278 0 0 0 0 -245783919.82075882 154589660.72214127 0 154589660.72214127 184794638.00481415 0 0 0 0 -12311416.468584657 284570500.52659988 0 284570500.52659988 -6742323.711227417 0 0 0 0 328281604.64905548 571528214.50388336 0 571528214.50388336 229055442.12983322 0 0 0 0 318420112.96805573 193214059.57352448 0 193214059.57352448 -61805498.865623474 0 0 0 0 49831411.703445435 115595951.0399971 0 115595951.0399971 7785475.6288833618 0 0 0 0 61209318.636062622 131249717.6242981 0 131249717.6242981 -74618940.885757446 0 0 0 0 -106285324.05127335 74368149.465265274 0 74368149.465265274 38500081.452163696 0 0 0 0 -71973573.913139343 158142020.64682007 0 158142020.64682007 38338204.679859161 0 0 0 0 10149605.132255554 8647541.4865188599 0 8647541.4865188599 -6012794.5566864014 0 0 0 0 -2405148.3189959796 18123759.154257514 0 18123759.154257514 -11115085.531379722 0 0 0 0 7269554.3906345367 13083194.951236725 0 13083194.951236725 -5577298.3737030029 0 0 0 0 47704.848819732666 15640489.901556015 0 15640489.901556015 -6103013.8502349854 0 0 0 0 936759.69858932495 8965668.4725103378 0 8965668.4725103378 -4574812.807220459 0 0 0 0 2483093.6148577211 16382865.851126226 0 16382865.851126226 -21204454.861167729 0 0 0 0 22793092.554233551 -22120659.455341339 0 -22120659.455341339 -92329895.467971802 0 0 0 0 1055852311.4080124 252044082.88067627 0 252044082.88067627 -593111453.38461304 0 0 0 0 227142528.68014526 -57777612.340164185 0 -57777612.340164185 -367817349.51003647 0 0 0 0 118455647.18861389 72414174.345508575 0 72414174.345508575 -16552268.744239807 0 0 0 0 -8615951.0338993073 49611965.013839722 0 49611965.013839722 -13228927.782814264 0 0 0 0 964864.03870391846 26678796.260406494 0 26678796.260406494 -12776868.774864435 0 0 0 0 -10959452.04844439 24907807.288882256 0 24907807.288882256 -1413652.6383056641 0 0 0 0 -47572378.323917389 40894992.153503418 0 40894992.153503418 -9821694.1802062988 0 0 0 0 -20151337.146343231 39031126.228897095 0 39031126.228897095 -15802015.757095337 0 0 0 0 -2135006.6192561742 15032867.719403222 0 15032867.719403222 -3974134.9890805334 0 0 0 0 1802292.1178970337 16460767.759597778 0 16460767.759597778 -9194902.9706115723 0 0 0 0 8495105.8490743637 38088799.191146851 0 38088799.191146851 -27461289.696525574 0 0 0 0 10505317.937009811 9550345.2441711426 0 9550345.2441711426 -7895785.6042175293 0 0 0 0 721168.01319885254 8389877.1317138672 0 8389877.1317138672 -3684817.993057251 0 0 0 0 -3511678.8223912725 11425517.473062657 0 11425517.473062657 400912.75927941501 0 0 0 0 5363928.191254098 8035617.8742801603 0 8035617.8742801603 -12500738.431471959 0 0 0 0 6721886.8710098267 13650756.869392395 0 13650756.869392395 -16757596.701820374 0 0 0 0 -19668989.959011346 14768525.594523668 0 14768525.594523668 -634623.02459716797 0 0 0 0 31136631.294940948 -41281628.80670166 0 -41281628.80670166 11282068.101119995 0 0 0 0 39106444.920713425 9830234.1858978271 0 9830234.1858978271 -31573232.044654846 0 0 0 0 -35832204.207235336 -32539535.203544617 0 -32539535.203544617 -13622423.407592773 0 0 0 0 54743464.020222664 -3229615.2728691101 0 -3229615.2728691101 -44060014.676696777 0 0 0 0 -25609758.641132355 -1356465.5883102417 0 -1356465.5883102417 32694750.964294434 0 0 0 0 33187696.188705444 -12311263.435165405 0 -12311263.435165405 -114303746.94396973 0 0 0 0 -527265.87314411532 1485479.0027789669 0 1485479.0027789669 706261.09125986695 0 0 0 0 103264138.53283215 102856951.96604919 0 102856951.96604919 -3189000.7151184082 0 0 0 0 26098175.696640015 86473290.747711182 0 86473290.747711182 5831474.0357284546 0 0 0 0 88407356.886238098 60473633.98311615 0 60473633.98311615 -35997677.989044189 0 0 0 0 24200100.267089844 42896021.86517334 0 42896021.86517334 -34947519.343444824 0 0 0 0 -22657780.226673126 1358735.7229003906 0 1358735.7229003906 -66913671.332351685 0 0 0 0 28273687.044916485 22921873.274254106 0 22921873.274254106 -13469709.967233665 0 0 0 0 16886572.223460197 40574680.266204834 0 40574680.266204834 -35122077.674156189 0 0 0 0 14258156.978833199 65557339.453113556 0 65557339.453113556 -75066355.943817139 0 0 0 0 39321199.630065918 62804552.254318237 0 62804552.254318237 -50048880.031890869 0 0 0 0 16693439.082423201 22775103.981635716 0 22775103.981635716 -14918159.844867259 0 0 0 0 53142681.178741455 10455152.163993835 0 10455152.163993835 -47106249.440841675 0 0 0 0 14768957.911422729 47970362.878753662 0 47970362.878753662 -33551034.386016846 0 0 0 0 62013195.962909698 46179386.34262085 0 46179386.34262085 -23177265.383880615 0 0 0 0 -13514912.132528335 35631207.365000434 0 35631207.365000434 -30126611.154412016 0 0 0 0 53714045.86724472 37721782.271818161 0 37721782.271818161 -31795213.23286438 0 0 0 0 45630560.93305397 63810715.805496216 0 63810715.805496216 -33228576.358001709 0 0 0 0 -46196660.044498444 95074391.198804855 0 95074391.198804855 37931404.580341339 0 0 0 0 -82042163.234529495 -1090138.9282741547 0 -1090138.9282741547 -21416588.221466064 0 0 0 0 -6706749.7031410011 21691733.103346277 0 21691733.103346277 6172188.2446642742 0 0 0 0 -43528307.156909943 87806854.732318878 0 87806854.732318878 55314431.177984715 0 0 0 0 -49210508.705248594 34268227.268229485 0 34268227.268229485 -29258219.389587402 0 0 0 0 -48038081.846406221 8459977.9758119583 0 8459977.9758119583 -39300594.960876465 0 0 0 0 -15011097.335601807 19398049.621322632 0 19398049.621322632 -37258194.11428833 0 0 0 0 -13177399.414093018 26394280.121902466 0 26394280.121902466 -38374697.865318298 0 0 0 0 7502240.7313308716 41965605.353399277 0 41965605.353399277 -39828313.137481689 0 0 0 0 -3129565.4200286865 35072965.106384277 0 35072965.106384277 -33306426.233322144 0 0 0 0 -39203671.960496902 39788741.391241074 0 39788741.391241074 -33919769.901489258 0 0 0 0 -17135315.696159363 30058792.749214172 0 30058792.749214172 -39711532.559967041 0 0 0 0 -36724771.541503906 19826485.152770996 0 19826485.152770996 -34615028.985694885 0 0 0 0 -23457630.988525391 30760712.886062622 0 30760712.886062622 -39761536.530578613 0 0 0 0 -32464066.221336365 35044837.20438385 0 35044837.20438385 -36217564.157958984 0 0 0 0 6235857.0951423645 11850487.38508606 0 11850487.38508606 -6731896.8865737915 0 0 0 0 -10555145.50227356 27646463.119613647 0 27646463.119613647 -29592053.147918701 0 0 0 0 -1481799.03850412 20900467.221443482 0 20900467.221443482 -10322375.724356826 0 0 0 0 -21332045.838249207 36638888.325553894 0 36638888.325553894 -36682744.340507507 0 0 0 0 -14375542.303951502 36696302.876712978 0 36696302.876712978 -33585874.295379639 0 0 0 0 -15073889.404899597 35571951.863037109 0 35571951.863037109 -43549799.603861809 0 0 0 0 -14793004.172462463 32582364.000915527 0 32582364.000915527 -40671211.365142822 0 0 0 0 5605749.7487335205 11195650.054168701 0 11195650.054168701 3978243.6916503906 0 0 0 0 -11964135.134887695 16684531.678344727 0 16684531.678344727 -28480464.799602509 0 0 0 0 6000838.867351274 12331818.325889321 0 12331818.325889321 -15012562.249200575 0 0 0 0 -26276251.462814331 40736389.282066345 0 40736389.282066345 -38589490.087493896 0 0 0 0 -6223725.5654773721 23336242.894395828 0 23336242.894395828 -740104.35920745879 0 0 0 0 -1626097.8785180412 1906378.7251679152 0 1906378.7251679152 -1218156.9099006802 0 0 0 0 -33593685.443603516 31636144.26184082 0 31636144.26184082 -41919028.581161499 0 0 0 0 -207581.70168552757 26534146.306086455 0 26534146.306086455 -17904305.424782105 0 0 0 0 -42042.338481903076 8858400.3593444824 0 8858400.3593444824 -2023356.9526367188 0 0 0 0 -1834788.2622654485 13378948.881144688 0 13378948.881144688 -14758768.378758557 0 0 0 0 -431005171.55473232 -513340109.64101124 0 -513340109.64101124 -11319562.501922607 0 0 0 0 717805968.95127487 -195626370.42548752 0 -195626370.42548752 -191544123.73458481 0 0 0 0 -59696552.856622696 -169279485.10968018 0 -169279485.10968018 -68951578.990409851 0 0 0 0 -421288169.55715179 15096514.81048584 0 15096514.81048584 -110436482.27483749 0 0 0 0 45784.239843823947 564722.55628416874 0 564722.55628416874 -637513.66258328408 0 0 0 0 664188595.13186646 462338355.31403732 0 462338355.31403732 -102004723.72252655 0 0 0 0 -5703566.7767696381 -118184595.33907032 0 -118184595.33907032 -112746685.25308228 0 0 0 0 -94087642.07705307 -241355669.83132553 0 -241355669.83132553 -120307917.76856232 0 0 0 0 -202493740.44725227 422780905.09229755 0 422780905.09229755 -225897830.70608139 0 0 0 0 436141.66424913052 540895.8397753872 0 540895.8397753872 -2146489.1774998233 0 0 0 0 871726304.40321732 -49764741.917064667 0 -49764741.917064667 -244353267.87826061 0 0 0 0 361911.93653869629 5153620.9657940865 0 5153620.9657940865 51960048.456611633 0 0 0 0 393179711.91435242 299648534.69542694 0 299648534.69542694 132736231.37814713 0 0 0 0 612923024.4499836 547096131.81367493 0 547096131.81367493 -202081067.53022003 0 0 0 0 1593401144.0052452 1090074505.305006 0 1090074505.305006 73425409.759239197 0 0 0 0 1782649999.2728195 140779099.93268204 0 140779099.93268204 -453185766.7605648 0 0 0 0 647060037.34153366 426862857.99780655 0 426862857.99780655 96271763.303667545 0 0 0 0 555331828.17655945 510487319.12355042 0 510487319.12355042 -105162251.23010445 0 0 0 0 -112323017.39117813 103592784.10235596 0 103592784.10235596 110686283.53866577 0 0 0 0 1376507.5741582923 1156430.6859726124 0 1156430.6859726124 578511.19609870017 0 0 0 0 880642192.51230574 182964209.51662588 0 182964209.51662588 -587350220.73950958 0 0 0 0 749665546.13123322 877542020.43435764 0 877542020.43435764 436687948.41949463 0 0 0 0 1017746589.8828812 864887747.38185501 0 864887747.38185501 25596590.731637955 0 0 0 0 377214295.90938568 254898891.98215961 0 254898891.98215961 429062932.37205505 0 0 0 0 978067702.90601349 674728552.69206619 0 674728552.69206619 430197119.70630264 0 0 0 0 864908474.23994446 933066292.90734291 0 933066292.90734291 338237551.89500046 0 0 0 0 -81454522.507896423 795740695.860569 0 795740695.860569 734960038.50494003 0 0 0 0 897937611.0644784 973150036.92822075 0 973150036.92822075 370682622.40280914 0 0 0 0 472264781.08550644 381462271.56652832 0 381462271.56652832 731026121.27057028 0 0 0 0 473027601.77398872 490568304.39828491 0 490568304.39828491 357285264.26792145 0 0 0 0 -12868344.393527985 213460486.19142151 0 213460486.19142151 403466435.86026621 0 0 0 0 -17651092.317001343 394501566.0053215 0 394501566.0053215 -438826086.93811798 0 0 0 0 25897285.33940506 16625894.461727142 0 16625894.461727142 -75522375.439125061 0 0 0 0 -125883617.3536644 396677145.16545486 0 396677145.16545486 -409454237.96595764 0 0 0 0 2934242.7860469185 2477852.7018577904 0 2477852.7018577904 1169426.7868744209 0 0 0 0 -229222932.85339546 292086560.55058289 0 292086560.55058289 49209754.103347778 0 0 0 0 -148352181.97649002 29481040.219566345 0 29481040.219566345 -1505132.9789505005 0 0 0 0 -28146956.95141983 152418056.47930527 0 152418056.47930527 123077252.64587402 0 0 0 0 525785.052423127 4262047.3593567107 0 4262047.3593567107 2181779.8373603821 0 0 0 0 -293094414.31380463 8701568.0239906311 0 8701568.0239906311 79605424.683326721 0 0 0 0 -89035197.777877808 62208668.022735596 0 62208668.022735596 26618233.405838013 0 0 0 0 -111313024.73313522 52715568.555206299 0 52715568.555206299 43585909.332984924 0 0 0 0 -2507119.4489975777 19552168.904722046 0 19552168.904722046 12214968.69574444 0 0 0 0 26597327.928314209 81010073.294044495 0 81010073.294044495 29464180.187278748 0 0 0 0 9035975.1784368996 5019047.6378550492 0 5019047.6378550492 -13873738.124721229 0 0 0 0 142541714.87634087 34639654.081400871 0 34639654.081400871 -49204056.483352661 0 0 0 0 173335224.78780556 151749678.677948 0 151749678.677948 99283350.162528992 0 0 0 0 101472493.5153656 77664146.746982574 0 77664146.746982574 23002223.788154602 0 0 0 0 103626916.38393021 68550747.561367035 0 68550747.561367035 35873595.419090271 0 0 0 0 117739527.00962067 85310575.507919312 0 85310575.507919312 -39338728.925598145 0 0 0 0 105635357.17074966 52681444.86101532 0 52681444.86101532 -4830487.218963623 0 0 0 0 65603113.109672546 60627066.606262207 0 60627066.606262207 -77289499.275520325 0 0 0 0 75739231.888685226 94618526.842250824 0 94618526.842250824 17192752.195785522 0 0 0 0 141315165.13780212 53066478.297832489 0 53066478.297832489 13132705.841741562 0 0 0 0 18753652.310562134 72597123.154983521 0 72597123.154983521 207995183.12892151 0 0 0 0 292217571.48640823 208250624.6795578 0 208250624.6795578 169391225.28217316 0 0 0 0 1269615.9970359802 34387165.187455177 0 34387165.187455177 169421674.18820953 0 0 0 0 115403491.21481323 12475072.822387695 0 12475072.822387695 109089849.91932678 0 0 0 0 262078513.7468338 139869373.88963699 0 139869373.88963699 -72149224.460731506 0 0 0 0 210151132.53661633 313789406.62546015 0 313789406.62546015 401666496.26875305 0 0 0 0 789333405.64621449 1239324999.9849896 0 1239324999.9849896 819898701.97904205 0 0 0 0 995965.53000238445 3975004.3052342925 0 3975004.3052342925 3659833.5622486621 0 0 0 0 -699043073.36644363 -27684576.270778656 0 -27684576.270778656 634953074.67261124 0 0 0 0 5291084294.4529734 686870855.31784534 0 686870855.31784534 178802955.56086731 0 0 0 0 -157109787.01940918 602917092.26422882 0 602917092.26422882 1150798223.342495 0 0 0 0 -105243149.74359703 237362548.09132957 0 237362548.09132957 -57859425.125083923 0 0 0 0 117378287.98679543 85398525.158731461 0 85398525.158731461 -85661776.362815857 0 0 0 0 -402389024.45510864 113722946.56075287 0 113722946.56075287 21084299.231050491 0 0 0 0 1579917.6543512791 11399477.813716305 0 11399477.813716305 12094018.632921517 0 0 0 0 5007707561.0543127 -1105557642.31213 0 -1105557642.31213 -736566543.86611938 0 0 0 0 705274168.66127014 -1135897553.5171356 0 -1135897553.5171356 1231590799.1668396 0 0 0 0 1571298411.0817604 -73979283.453365326 0 -73979283.453365326 853622264.23257065 0 0 0 0 2620894370.0776596 673224412.74478149 0 673224412.74478149 190697887.16855621 0 0 0 0 620836293.21871948 81495834.095001221 0 81495834.095001221 254783462.42503357 0 0 0 0 740706621.56653595 1710675937.4931183 0 1710675937.4931183 -1054177329.0931015 0 0 0 0 799271719.86657906 199545941.89895439 0 199545941.89895439 -1675714310.8535004 0 0 0 0 -465752318.07793045 530799474.34407043 0 530799474.34407043 47523367.83505106 0 0 0 0 1224965125.0936928 1033808535.8040199 0 1033808535.8040199 452962731.66612244 0 0 0 0 126510757.38169098 233481452.78807831 0 233481452.78807831 70196723.25768137 0 0 0 0 -165542416.95352936 360804558.95143127 0 360804558.95143127 469929220.90562439 0 0 0 0 -808549281.02709198 -259157894.60453796 0 -259157894.60453796 705826568.51266289 0 0 0 0 -147068160.59949112 224870811.37229538 0 224870811.37229538 1335611750.6557617 0 0 0 0 1254114175.4656525 948431087.79766464 0 948431087.79766464 1632335439.6896286 0 0 0 0 636449100.13722229 -250813618.01066589 0 -250813618.01066589 655839631.0167923 0 0 0 0 733573361.10985947 -397515833.697155 0 -397515833.697155 909341746.8829422 0 0 0 0 -90947438.50403595 -487842602.5447464 0 -487842602.5447464 513568617.73963928 0 0 0 0 -22475590.720405579 242812308.22314072 0 242812308.22314072 554224239.96913147 0 0 0 0 36101324.966671601 11311745.911438026 0 11311745.911438026 -8889276.2073016241 0 0 0 0 491853080.77584076 -138592340.81263733 0 -138592340.81263733 -20778635.700775146 0 0 0 0 695595277.93856812 204797269.0557251 0 204797269.0557251 -321983189.95552063 0 0 0 0 -28279133.926845551 24485471.545166016 0 24485471.545166016 13246296.438842773 0 0 0 0 917916177.44208527 121111585.39978027 0 121111585.39978027 -313800461.17362022 0 0 0 0 1043348627.7991333 -217836670.71815491 0 -217836670.71815491 -985017933.93173218 0 0 0 0 514187459.57191467 -2375312825.3612366 0 -2375312825.3612366 3057445722.8667908 0 0 0 0 2080633090.6163635 -4538768050.6444702 0 -4538768050.6444702 -2699993739.9619045 0 0 0 0 1198392216.7822266 1354455334.0003662 0 1354455334.0003662 -419152964.55200195 0 0 0 0 1789214803.7694092 1212180381.3089905 0 1212180381.3089905 -2080494990.7034302 0 0 0 0 2096760913.4979439 465780690.18782806 0 465780690.18782806 -590220817.91320801 0 0 0 0 1156521083.1033783 490636388.29675293 0 490636388.29675293 -544612783.82444763 0 0 0 0 1337926408.5260925 732890520.51095581 0 732890520.51095581 -249616177.73822021 0 0 0 0 911883253.4267025 477779432.76019287 0 477779432.76019287 -154348805.99884033 0 0 0 0 1338723667.8482335 627230232.83627963 0 627230232.83627963 14510198.563110352 0 0 0 0 1329789575.7434692 875644597.92648315 0 875644597.92648315 -413118014.41094971 0 0 0 0 1453803641.4962616 867957253.27427673 0 867957253.27427673 299829175.42776489 0 0 0 0 1430448916.4360657 669600725.89160156 0 669600725.89160156 31125028.049835205 0 0 0 0 1622658639.4449768 475755713.12887573 0 475755713.12887573 170479607.22967529 0 0 0 0 952242617.6316452 621561484.07385254 0 621561484.07385254 179132724.2527771 0 0 0 0 537615918.20556641 606969730.48675537 0 606969730.48675537 283593544.21690369 0 0 0 0 1082745338.1231174 563701480.71915436 0 563701480.71915436 -147302111.38195801 0 0 0 0 296847089.48378754 190682085.75736237 0 190682085.75736237 -76755633.97479248 0 0 0 0 228411766.26261902 29752622.608642578 0 29752622.608642578 -26777360.816726685 0 0 0 0 484283777.7076683 371156087.03059387 0 371156087.03059387 -44999555.745422363 0 0 0 0 63719964.607955933 265086536.0639801 0 265086536.0639801 -51253532.639953613 0 0 0 0 -85973038.839118958 20023323.382080078 0 20023323.382080078 -95386835.705993652 0 0 0 0 -5710133.0375823975 268269221.78855896 0 268269221.78855896 191793993.84796143 0 0 0 0 -106038417.66159821 111520916.44943237 0 111520916.44943237 -25196023.438293457 0 0 0 0 48529541.451835632 -27623415.587142944 0 -27623415.587142944 84817510.310585022 0 0 0 0 33147064.902076721 182157669.12408447 0 182157669.12408447 484232407.34684753 0 0 0 0 -168075062.7843194 212806478.24399805 0 212806478.24399805 259060542.84494019 0 0 0 0 -158591221.71700287 357295092.57254028 0 357295092.57254028 -77653949.132019043 0 0 0 0 -54322437.190544128 56257706.385772705 0 56257706.385772705 132540419.43647003 0 0 0 0 -136481775.6686058 -38423048.065498352 0 -38423048.065498352 395070337.40975952 0 0 0 0 -5244825.7415658869 -3563396.711401701 0 -3563396.711401701 1276159.0471786857 0 0 0 0 299539955.67912292 292448928.65110779 0 292448928.65110779 646143434.57979631 0 0 0 0 1351152301.3651886 1040594314.3383179 0 1040594314.3383179 -2583953749.5529175 0 0 0 0 1242520844.7662811 232183904.49105835 0 232183904.49105835 148395629.48588562 0 0 0 0 573328801.84718323 736946200.45491028 0 736946200.45491028 1051968850.7505646 0 0 0 0 459024.26134841144 -1983252.5269218236 0 -1983252.5269218236 585354.63465691917 0 0 0 0 1334267911.7881851 737361476.85780334 0 737361476.85780334 160335861.64579773 0 0 0 0 728442388.03859329 -8469417.8371734619 0 -8469417.8371734619 -756516170.83430481 0 0 0 0 1508331472.4620819 469617689.85301208 0 469617689.85301208 361406092.62403107 0 0 0 0 1747723968.219162 224945822.090271 0 224945822.090271 430224117.27492142 0 0 0 0 1568028006.1384659 495365228.14035034 0 495365228.14035034 238209535.77392578 0 0 0 0 -212428983.63481045 101789265.81340981 0 101789265.81340981 45042033.113586426 0 0 0 0 4195693685.0687504 480948187.55335045 0 480948187.55335045 -915045681.95303345 0 0 0 0 -58630.557792171836 19873024.695940681 0 19873024.695940681 25892612.000027075 0 0 0 0 2251055655.9871979 2198152959.8226471 0 2198152959.8226471 -1429465107.5638275 0 0 0 0 -64352276.263942719 81786917.3879776 0 81786917.3879776 -9448579.1147918701 0 0 0 0 -90231094.205802917 125158556.54598236 0 125158556.54598236 -16674158.367565155 0 0 0 0 -29736337.309696198 111923090.10612106 0 111923090.10612106 -12877599.732208252 0 0 0 0 -111167261.63337708 28420004.027309418 0 28420004.027309418 27544825.319732666 0 0 0 0 -21240544.018661499 67522947.337356567 0 67522947.337356567 15918146.597585678 0 0 0 0 -21899072.841949463 53320030.863037109 0 53320030.863037109 83147950.445617676 0 0 0 0 -36210928.02897644 91896184.663906097 0 91896184.663906097 68860743.056083679 0 0 0 0 792200037.16160583 -300513175.72357178 0 -300513175.72357178 358370441.28334045 0 0 0 0 4764726.6907718889 27346851.618214175 0 27346851.618214175 -31012068.03462106 0 0 0 0 -41567219.366794586 91077865.693058014 0 91077865.693058014 95715662.21295166 0 0 0 0 1597168504.2652817 452627182.03110504 0 452627182.03110504 226121591.77526855 0 0 0 0 -4514975.6249022828 31646884.417603225 0 31646884.417603225 44432553.22428745 0 0 0 0 1496653802.2633667 461818741.29649353 0 461818741.29649353 242019034.76147461 0 0 0 0 1441258860.3562622 610460890.19058228 0 610460890.19058228 87164702.065612793 0 0 0 0 1396222588.6100616 643071480.13162231 0 643071480.13162231 212373114.81280518 0 0 0 0 1488528753.2460709 481435018.2542038 0 481435018.2542038 409964777.81365967 0 0 0 0 -387985025.53411865 1601760250.039566 0 1601760250.039566 -956795424.43109131 0 0 0 0 1629120.7117199604 5146574.019326359 0 5146574.019326359 -993765.4003957063 0 0 0 0 -519084735.55679321 -1347268353.180481 0 -1347268353.180481 -3575458884.8692627 0 0 0 0 3339832932.3607483 304576715.46151733 0 304576715.46151733 -5455564075.8382263 0 0 0 0 1216630661.182373 1203179866.1825256 0 1203179866.1825256 -144173287.23046875 0 0 0 0 -5052862.4320248514 7087966.4701473713 0 7087966.4701473713 6736340.9420391917 0 0 0 0 1314761749.4039612 976411367.64176941 0 976411367.64176941 341298340.0324707 0 0 0 0 7181120539.4712677 3582846508.293457 0 3582846508.293457 -4091625715.8395844 0 0 0 0 1571135.1990964841 -912280.40993188508 0 -912280.40993188508 1029802.6380007863 0 0 0 0 -320356432.70682526 198047075.49020386 0 198047075.49020386 17825361.016021729 0 0 0 0 -353166347.27835083 1957378393.6171417 0 1957378393.6171417 -732730655.95718384 0 0 0 0 -345233443.15148544 56868444.551300049 0 56868444.551300049 -11127639.439880371 0 0 0 0 -607787402.07110596 909168260.92102051 0 909168260.92102051 271108631.91141129 0 0 0 0 -186910526.75675964 177643470.3190155 0 177643470.3190155 11817247.942810059 0 0 0 0 -223406695.54969788 312684538.78849792 0 312684538.78849792 152989608.60754395 0 0 0 0 -190959707.28079987 177577211.59625244 0 177577211.59625244 -95854264.389541626 0 0 0 0 -276211735.36044312 233865897.04644775 0 233865897.04644775 -23127200.196868896 0 0 0 0 -246542060.16756058 141061063.30498886 0 141061063.30498886 -16074819.28894043 0 0 0 0 -470540177.3205719 199294931.02334595 0 199294931.02334595 -24781388.022186279 0 0 0 0 -434385958.45587158 -17362930.15272522 0 -17362930.15272522 -38314335.985444546 0 0 0 0 -206917460.97211838 17839211.826690674 0 17839211.826690674 -37672483.207946777 0 0 0 0 -328609842.03518677 129710162.15826416 0 129710162.15826416 35975129.696655273 0 0 0 0 -103708446.86555481 114812898.9223175 0 114812898.9223175 16957138.465438843 0 0 0 0 -198906647.00410461 22555630.885864258 0 22555630.885864258 49794186.563812256 0 0 0 0 -101656414.78643799 221397568.04721069 0 221397568.04721069 94130772.402435303 0 0 0 0 -219531911.37382889 225525079.30857849 0 225525079.30857849 119315694.97488403 0 0 0 0 -25095466.123550415 393991599.43003845 0 393991599.43003845 117899325.83542633 0 0 0 0 77881056.138893127 104579262.05820847 0 104579262.05820847 10924151.845687866 0 0 0 0 49581153.815580368 144660451.81991196 0 144660451.81991196 29540692.877838135 0 0 0 0 7338354.7746677697 30193460.674247403 0 30193460.674247403 -34705496.639459655 0 0 0 0 -21118628.508285522 136435457.82437134 0 136435457.82437134 -32266319.975688934 0 0 0 0 54971432.782917023 114181771.53550911 0 114181771.53550911 -38254447.799377441 0 0 0 0 61712082.370027542 93857042.374076843 0 93857042.374076843 21242750.59437561 0 0 0 0 -21194184.218849182 94309582.659088135 0 94309582.659088135 20111689.659938812 0 0 0 0 63813352.042518616 82794687.458557129 0 82794687.458557129 -35113413.196395874 0 0 0 0 90739571.52038765 38104967.320137024 0 38104967.320137024 -47308935.668884277 0 0 0 0 64663397.315436363 50333118.057632446 0 50333118.057632446 19163623.402038574 0 0 0 0 -10457081.88331604 289673455.80334473 0 289673455.80334473 120113522.52442932 0 0 0 0 -50788415.502357483 83895855.742233276 0 83895855.742233276 161594300.63856506 0 0 0 0 49602639.110343933 113167403.7610321 0 113167403.7610321 7445214.3255310059 0 0 0 0 -1173472.9606670886 29607947.984667122 0 29607947.984667122 24063532.821139753 0 0 0 0 4730953.364380125 31905612.158307582 0 31905612.158307582 -29830650.955714799 0 0 0 0 -38903716.136543274 49024816.80607605 0 49024816.80607605 42476269.738809586 0 0 0 0 451522.1620036047 32090508.603536863 0 32090508.603536863 33131577.673855364 0 0 0 0 -61885364.790054321 88982370.873695374 0 88982370.873695374 41802382.083553314 0 0 0 0 -72941238.147590637 40715570.975189209 0 40715570.975189209 40743323.635391235 0 0 0 0 -44583282.622291565 65154043.861725807 0 65154043.861725807 36654658.727340698 0 0 0 0 -62892532.268363476 45263101.837414742 0 45263101.837414742 124113121.04766846 0 0 0 0 -59624073.668791771 64904811.484760284 0 64904811.484760284 45582626.156829834 0 0 0 0 2532034.7887455709 37177626.988037325 0 37177626.988037325 30293961.289925039 0 0 0 0 -37774115.368686676 16921549.806533813 0 16921549.806533813 18447102.998474121 0 0 0 0 16157310.835105896 -32637950.905960083 0 -32637950.905960083 19924831.496414185 0 0 0 0 -14868731.814910889 -32078268.701477051 0 -32078268.701477051 110415837.97813416 0 0 0 0 -43925420.093269348 11335307.211242676 0 11335307.211242676 57789547.336151123 0 0 0 0 1588972.5681317244 6322480.8883292051 0 6322480.8883292051 9316146.3170238733 0 0 0 0 -212362696.74716187 37728293.690551758 0 37728293.690551758 32704018.723388672 0 0 0 0 21756146.228164673 -47215098.880004883 0 -47215098.880004883 57849657.577911377 0 0 0 0 322998046.91374397 535155272.07359314 0 535155272.07359314 68809494.843902588 0 0 0 0 699073094.41396332 -598752270.9160614 0 -598752270.9160614 157814450.35124207 0 0 0 0 -382127348.24310303 -36283949.174987793 0 -36283949.174987793 616541395.3742218 0 0 0 0 -270589.0353237614 3530185.4545226097 0 3530185.4545226097 6216679.9568663985 0 0 0 0 -370865195.9460907 64005015.859527588 0 64005015.859527588 79438134.311950684 0 0 0 0 970566.84437315166 2632203.1669714376 0 2632203.1669714376 4059864.6664116159 0 0 0 0 45072600.982437134 90491728.073699951 0 90491728.073699951 11492840.255004883 0 0 0 0 59998168.453964233 59918158.067207336 0 59918158.067207336 72926830.819580078 0 0 0 0 -2958994.5117609575 13103920.39816929 0 13103920.39816929 9995293.4905394167 0 0 0 0 14556736.741851807 30775574.545593262 0 30775574.545593262 22992051.113113403 0 0 0 0 33880980.306154251 -15300221.675209045 0 -15300221.675209045 -263420161.20089722 0 0 0 0 2390818.1944656372 60976377.49105835 0 60976377.49105835 20840791.367584229 0 0 0 0 16313930.393035889 40548739.819000244 0 40548739.819000244 16910453.634880066 0 0 0 0 39164352.738147736 32513415.807268143 0 32513415.807268143 14353640.00769043 0 0 0 0 -275141453.20568085 -107312318.18080139 0 -107312318.18080139 74775067.774101257 0 0 0 0 -326302473.49258423 -43292004.058410645 0 -43292004.058410645 48841277.827575684 0 0 0 0 76830562.158401489 428239911.82034302 0 428239911.82034302 -465802063.88760376 0 0 0 0 104153.95294083282 3786204.8669953644 0 3786204.8669953644 1352259.4364625663 0 0 0 0 218797538.63737679 1619638779.8107185 0 1619638779.8107185 -998416593.40917969 0 0 0 0 -621509439.74349213 576652092.81013489 0 576652092.81013489 -286373231.14459229 0 0 0 0 -755137117.66084862 -61344758.490730286 0 -61344758.490730286 511165175.47711182 0 0 0 0 -606956992.38179779 477431856.14024353 0 477431856.14024353 -67035496.148773193 0 0 0 0 -443531505.2712307 949297232.19125938 0 949297232.19125938 -356333833.43231201 0 0 0 0 -7450707.4994125366 -34543122.699707031 0 -34543122.699707031 165196775.89299393 0 0 0 0 -2647766.5468929894 216610.91182056814 0 216610.91182056814 2329800.616760537 0 0 0 0 -10523386.844161987 124180607.01324463 0 124180607.01324463 219162644.95892334 0 0 0 0 8762020.4803419113 743706703.49557304 0 743706703.49557304 -538320106.7449646 0 0 0 0 188004677.98731995 315613077.80875397 0 315613077.80875397 802755.26303100586 0 0 0 0 -550670853.08761597 91649793.297790527 0 91649793.297790527 204849419.77696228 0 0 0 0 94893201.752845764 243548340.0552063 0 243548340.0552063 389688095.20405579 0 0 0 0 159131900.3312912 307074647.2819519 0 307074647.2819519 -323218828.20645142 0 0 0 0 -137974.44649362192 1732630.5699722171 0 1732630.5699722171 955242.25558175892 0 0 0 0 -116841305.52246857 68326975.877220154 0 68326975.877220154 -69576671.47088623 0 0 0 0 30705460.741897583 64636665.548400879 0 64636665.548400879 -140438354.71582031 0 0 0 0 26985906.203277588 1413897.9164886475 0 1413897.9164886475 -155957412.20111084 0 0 0 0 -59069167.105728149 37079179.614898682 0 37079179.614898682 -18564907.251785278 0 0 0 0 611205.04659891874 3793155.4246998504 0 3793155.4246998504 1751338.6938896254 0 0 0 0 32740589.073917389 85423924.498947144 0 85423924.498947144 109607.97679138184 0 0 0 0 72782768.078922272 47819586.396034241 0 47819586.396034241 29626723.496368408 0 0 0 0 1204041.3245607093 -3795954.3152827248 0 -3795954.3152827248 1182197.2860551476 0 0 0 0 -49152484.699443817 36114991.703578949 0 36114991.703578949 -13717362.796295166 0 0 0 0 2224283.1850928068 4300197.1138419807 0 4300197.1138419807 3118747.4221108779 0 0 0 0 12732952.214729309 8650048.8565483093 0 8650048.8565483093 5847226.1695861816 0 0 0 0 -201824360.54129028 66093784.866348267 0 66093784.866348267 7667288.8370819092 0 0 0 0 1110504.5633157454 -1283758.3568005897 0 -1283758.3568005897 421918.55751398206 0 0 0 0 -12487465.857355118 40414480.885932922 0 40414480.885932922 -76199849.328918457 0 0 0 0 114244721.06697083 98153625.294784546 0 98153625.294784546 -129953628.65935516 0 0 0 0 103390011.77133179 24697704.93888855 0 24697704.93888855 -156668324.77256393 0 0 0 0 -113247181.62023163 305724901.19073486 0 305724901.19073486 -317469454.45861816 0 0 0 0 -512988919.49923706 439523411.06309509 0 439523411.06309509 -178314067.57756042 0 0 0 0 -871597421.64194107 117376785.842556 0 117376785.842556 41271056.528747559 0 0 0 0 755440.11183247715 1295010.523740869 0 1295010.523740869 2112515.2304204404 0 0 0 0 1250053268.7680378 753468318.9394455 0 753468318.9394455 -795985380.059021 0 0 0 0 -262865393.70310974 243907352.77684021 0 243907352.77684021 -152388572.85977173 0 0 0 0 -191365948.30374837 162994259.31152582 0 162994259.31152582 -27525383.433105469 0 0 0 0 57176440.053348541 7071119.9161109924 0 7071119.9161109924 -12744290.865081787 0 0 0 0 257685.24543865863 -665933.9909565933 0 -665933.9909565933 173153.78389088809 0 0 0 0 -234031867.4416275 211021238.45759583 0 211021238.45759583 -190760862.275177 0 0 0 0 -343997693.29827118 205205227.31629944 0 205205227.31629944 -138409599.73248291 0 0 0 0 -112923580.08702087 137683184.85716248 0 137683184.85716248 -112200180.73222351 0 0 0 0 -50894203.231056213 -30746484.088378906 0 -30746484.088378906 14915124.948707581 0 0 0 0 11802352.582366943 7002990.049331665 0 7002990.049331665 -9786253.1298828125 0 0 0 0 -1342096848.6502838 -188544832.20291901 0 -188544832.20291901 1723668620.8039856 0 0 0 0 1271387861.6019745 4021043649.6182556 0 4021043649.6182556 2475124941.7545776 0 0 0 0 4036381185.0599976 -2476084323.3674011 0 -2476084323.3674011 2304614084.9702306 0 0 0 0 4912891.5978571735 -1855741.9292556699 0 -1855741.9292556699 -222390.21154037118 0 0 0 0 4233868.682591714 4875595.4224763587 0 4875595.4224763587 2795241.3103619218 0 0 0 0 -3319119.2004241943 -5970249.2203826904 0 -5970249.2203826904 7900309.3542938232 0 0 0 0 -6314123.0989074707 15546407.091384888 0 15546407.091384888 4862077.9485321045 0 0 0 0 1659954.9149398804 17690154.912857056 0 17690154.912857056 -18994638.683959961 0 0 0 0 7168956.0351600647 23943405.699760437 0 23943405.699760437 -63100152.051513672 0 0 0 0 17446609.554779053 50712094.737709045 0 50712094.737709045 -41365144.757476807 0 0 0 0 -14934281.447341919 58376607.321624756 0 58376607.321624756 -680415.9696666192 0 0 0 0 55961636.179985046 -97586976.445137024 0 -97586976.445137024 -435743212.12010193 0 0 0 0 18559843.736261368 52622626.193387985 0 52622626.193387985 -89943036.082427979 0 0 0 0 5983391.4883451127 -1594007.1863794681 0 -1594007.1863794681 -3049042.9446359575 0 0 0 0 13772650.362220764 -6271116.9878692627 0 -6271116.9878692627 -79931260.229095459 0 0 0 0 6869459.8114624023 3251386.2456054688 0 3251386.2456054688 -12165252.874015808 0 0 0 0 603703540.83977509 -502690121.84457397 0 -502690121.84457397 302205076.29678345 0 0 0 0 1570500717.0156631 509254512.47422028 0 509254512.47422028 -257664632.20875549 0 0 0 0 1422183367.5926208 528825385.24996948 0 528825385.24996948 -191643763.10079956 0 0 0 0 1580971565.0062103 347255640.74958801 0 347255640.74958801 -63554384.330047607 0 0 0 0 2622906.3702122681 -1149124.0359128918 0 -1149124.0359128918 -1536249.835083276 0 0 0 0 1540161744.4666443 287572874.02502441 0 287572874.02502441 17563322.338012695 0 0 0 0 1169940187.1762085 359764752.94309998 0 359764752.94309998 371860477.91217613 0 0 0 0 1511146822.8006134 491641477.65382385 0 491641477.65382385 32615869.426107407 0 0 0 0 1324650172.2137756 791430811.38163757 0 791430811.38163757 307239245.57252502 0 0 0 0 842895191.89485168 358200020.06567383 0 358200020.06567383 -75952585.729095459 0 0 0 0 1294236529.1707993 1508224689.1676102 0 1508224689.1676102 1965056552.615448 0 0 0 0 1779033199.7667847 -570121770.71717834 0 -570121770.71717834 157765673.58970642 0 0 0 0 1869728.3380357698 2343546.4621125236 0 2343546.4621125236 1478357.6076609194 0 0 0 0 2981850003.3580017 519968436.25334167 0 519968436.25334167 -260798349.84629059 0 0 0 0 2499096008.7905045 2087069793.5375671 0 2087069793.5375671 210067335.17578125 0 0 0 0 1667203702.2417145 1866492976.0179291 0 1866492976.0179291 463141314.94632721 0 0 0 0 13031391.2345852 2146530.6260076836 0 2146530.6260076836 -2990873.9244680852 0 0 0 0 1572702737.4138355 2389624401.9537468 0 2389624401.9537468 1527453007.4440613 0 0 0 0 601435961.44451904 -258421601.11650085 0 -258421601.11650085 243834591.36920166 0 0 0 0 496954828.99365997 47441455.785972595 0 47441455.785972595 -452572046.18878174 0 0 0 0 -101842532.75990295 19221785.551101685 0 19221785.551101685 20534656.958450317 0 0 0 0 -66533912.159540176 51963967.117126465 0 51963967.117126465 31587384.303581238 0 0 0 0 -82401146.102043152 9896484.9047393799 0 9896484.9047393799 -1281625.1891784668 0 0 0 0 -41362225.449440956 44636039.446983337 0 44636039.446983337 24132976.270629883 0 0 0 0 -43996075.009669304 52100512.287067413 0 52100512.287067413 6480204.6677246094 0 0 0 0 -121454218.5662632 28619153.626159668 0 28619153.626159668 7508279.1984376907 0 0 0 0 -14902856.105815887 67107534.586837769 0 67107534.586837769 -31652314.746780396 0 0 0 0 -107167073.22092915 30337248.199256897 0 30337248.199256897 -2200751.9250946045 0 0 0 0 -118982974.77536201 -7290600.3667297363 0 -7290600.3667297363 -29539406.240127563 0 0 0 0 -7302604.8481970001 12845582.609616946 0 12845582.609616946 -1383737.8258769959 0 0 0 0 90393419.065627575 41682816.486894608 0 41682816.486894608 -25253032.67640686 0 0 0 0 97794761.199790955 76886082.143722534 0 76886082.143722534 228357280.04559326 0 0 0 0 144199135.47480011 -128028389.79331207 0 -128028389.79331207 58809686.737174988 0 0 0 0 25759617.993453026 49976239.616340637 0 49976239.616340637 8824387.6766967773 0 0 0 0 9443071.4071684871 14937336.675414093 0 14937336.675414093 -15547368.474736422 0 0 0 0 102302107.41549024 42396644.81703186 0 42396644.81703186 -59750940.939071655 0 0 0 0 60218431.697755814 -10034211.319671631 0 -10034211.319671631 -46296452.203552246 0 0 0 0 17825292.058342956 -3323471.4348776489 0 -3323471.4348776489 -16699599.740532875 0 0 0 0 62910729.966075897 25597968.411026001 0 25597968.411026001 -50659774.297607422 0 0 0 0 75060058.971988678 -3644201.7031936646 0 -3644201.7031936646 8737302.2652893066 0 0 0 0 60075951.551979065 65379574.278579712 0 65379574.278579712 87428196.752807617 0 0 0 0 64278438.865740061 9551757.6448068619 0 9551757.6448068619 -13995911.175109863 0 0 0 0 -1692724.759683542 2529618.8188881669 0 2529618.8188881669 3110175.3336170465 0 0 0 0 -140382553.29750824 92506.552768707275 0 92506.552768707275 16401676.985931396 0 0 0 0 141449354.80421829 95687908.195083618 0 95687908.195083618 57263404.550506592 0 0 0 0 604174406.05062485 83525287.918243408 0 83525287.918243408 -162433541.3818512 0 0 0 0 -5038.5176766780205 451201.76355850138 0 451201.76355850138 -66822.455685287714 0 0 0 0 -1990118.4325541356 5239754.2705650162 0 5239754.2705650162 1956057.3076858819 0 0 0 0 -82575.923871040344 -10499110.096595764 0 -10499110.096595764 -10052443.803833008 0 0 0 0 -74008151.986753464 28038777.838275909 0 28038777.838275909 20074285.814453125 0 0 0 0 249236594.01564407 104979792.53572083 0 104979792.53572083 -23335203.986801147 0 0 0 0 -199067.62433733139 2375089.0409331955 0 2375089.0409331955 986042.14060151577 0 0 0 0 -2345261.5213108063 189236831.46379089 0 189236831.46379089 65374257.379440308 0 0 0 0 193291530.44859695 105117600.03134918 0 105117600.03134918 -10012724.234207153 0 0 0 0 -10936289.17103976 -14789533.951912642 0 -14789533.951912642 52392925.14630127 0 0 0 0 -6432478.7089170692 15908310.04073838 0 15908310.04073838 -5355897.2925562114 0 0 0 0 219440536.66299629 34704560.747009277 0 34704560.747009277 -56666407.629760742 0 0 0 0 112913406.51255035 11612377.473609924 0 11612377.473609924 -43469703.812194824 0 0 0 0 136450612.8278141 -33217877.542541504 0 -33217877.542541504 32394675.967926025 0 0 0 0 50472779.605110168 68698802.49877739 0 68698802.49877739 83144522.847198486 0 0 0 0 66021878.283157349 90324142.210338593 0 90324142.210338593 66528526.586639404 0 0 0 0 8541396.1070404053 109357506.84707642 0 109357506.84707642 2499126.0581359863 0 0 0 0 49240896.51512146 61562649.245178223 0 61562649.245178223 49157221.623413086 0 0 0 0 69081174.833702087 85092511.600738525 0 85092511.600738525 -189773.36041259766 0 0 0 0 9324332.5889835358 28336510.317813873 0 28336510.317813873 -4564303.4749755859 0 0 0 0 -2063393.3811911969 9925516.4936846681 0 9925516.4936846681 1668278.9342101365 0 0 0 0 47818243.398391724 -4106038.926574707 0 -4106038.926574707 -39004850.747131348 0 0 0 0 66031350.548278809 55326364.290771484 0 55326364.290771484 18275531.176757812 0 0 0 0 35403291.57258606 -53576636.401885986 0 -53576636.401885986 6211265.221206665 0 0 0 0 -263711.88503296301 657858.47203335166 0 657858.47203335166 -1036157.3344682679 0 0 0 0 -47082942.613379478 60803964.393409729 0 60803964.393409729 -12816926.662994385 0 0 0 0 -34362030.136890411 35397231.143676758 0 35397231.143676758 -4184315.6390399933 0 0 0 0 -31642746.314629555 32513967.515174866 0 32513967.515174866 -1981675.5690307617 0 0 0 0 -27268042.68538475 36482217.717605591 0 36482217.717605591 -25226757.511932373 0 0 0 0 -54503930.790718079 57119935.150024414 0 57119935.150024414 33435360.19732666 0 0 0 0 -69479036.961011887 29138129.184646606 0 29138129.184646606 3230416.5622711182 0 0 0 0 -95174357.868711472 25188163.692512512 0 25188163.692512512 26432920.298736572 0 0 0 0 -34887989.015411377 90941130.326644897 0 90941130.326644897 59226303.402317047 0 0 0 0 -21858879.961677551 65720048.596382141 0 65720048.596382141 48586656.911315918 0 0 0 0 -44399867.188961029 35511505.870002747 0 35511505.870002747 38564596.029037476 0 0 0 0 -17919729.878563881 65855050.024723053 0 65855050.024723053 -76325393.249206543 0 0 0 0 26919755.347269058 19703530.062423706 0 19703530.062423706 -90099770.333480835 0 0 0 0 -4741853.9064325336 23710946.18695461 0 23710946.18695461 -9009181.9534536004 0 0 0 0 -22291729.558044434 73637384.922264099 0 73637384.922264099 81386324.033294678 0 0 0 0 3571743.7034781221 2776483.0823756009 0 2776483.0823756009 -3699546.7150779665 0 0 0 0 27444795.844944 12676878.625205994 0 12676878.625205994 -66402263.862442017 0 0 0 0 16023491.461016655 37175886.889226913 0 37175886.889226913 24118824.201263428 0 0 0 0 7152560.4337174147 20688818.8231516 0 20688818.8231516 -23859140.228094533 0 0 0 0 65573259.266639709 95202821.715904236 0 95202821.715904236 -23719189.448726654 0 0 0 0 31132452.627639771 7877718.83203125 0 7877718.83203125 17788719.170501709 0 0 0 0 -11461164.036868129 9844707.0863009393 0 9844707.0863009393 8278198.6750019118 0 0 0 0 16614784.642822266 39938809.920196533 0 39938809.920196533 11374127.764839172 0 0 0 0 1078600.2989349365 49459655.58996582 0 49459655.58996582 -24322701.054382324 0 0 0 0 56334232.202648163 95386765.203613281 0 95386765.203613281 10203677.856994629 0 0 0 0 68854986.488021851 34985065.249572754 0 34985065.249572754 33644325.035339355 0 0 0 0 -4938775.651424408 36529123.388336182 0 36529123.388336182 98579469.336654663 0 0 0 0 93368465.191577911 82326112.955200195 0 82326112.955200195 77697465.102226257 0 0 0 0 -37584592.880172729 19140952.609130859 0 19140952.609130859 112412261.08688354 0 0 0 0 -733671.83995311847 817073.73350556567 0 817073.73350556567 -174401.12777157128 0 0 0 0 -17009791.947696686 72020532.116825104 0 72020532.116825104 33989905.820373535 0 0 0 0 -14774017.17804718 111863267.14059448 0 111863267.14059448 7651980.0797796249 0 0 0 0 55087581.304615021 64663531.679901123 0 64663531.679901123 30174809.788696289 0 0 0 0 -13444100.328617096 23760826.461227417 0 23760826.461227417 54556614.179107666 0 0 0 0 32483313.820337087 78609499.974163711 0 78609499.974163711 22647627.579803467 0 0 0 0 -892831.02426215634 2002809.7922395766 0 2002809.7922395766 4220137.7884284705 0 0 0 0 8079630.4532928467 74817495.988384247 0 74817495.988384247 19177024.566680908 0 0 0 0 -4946195.8130395375 27465370.117251653 0 27465370.117251653 -5231809.8189069256 0 0 0 0 2419253.522644043 98682601.550537109 0 98682601.550537109 28691013.290333986 0 0 0 0 45252254.571090698 54511225.744415283 0 54511225.744415283 52104643.749328613 0 0 0 0 518074.982421875 5260102.3088378906 0 5260102.3088378906 5936309.375 0 0 0 0 -5020909.8280636221 8487464.2354234979 0 8487464.2354234979 24102782.412524343 0 0 0 0 9938209.8911437951 8465319.6027031839 0 8465319.6027031839 1433753.3786493987 0 0 0 0 19691113.412139893 5254126.0409545898 0 5254126.0409545898 21394620.3722229 0 0 0 0 13736.612631740049 20489798.992734358 0 20489798.992734358 -12333505.467345119 0 0 0 0 4549118.5177848004 20376460.139444649 0 20376460.139444649 12216425.975026637 0 0 0 0 -532319666.04676628 60781008.008453369 0 60781008.008453369 2800658.0675048828 0 0 0 0 -6463430.8763515623 13189764.922784835 0 13189764.922784835 7910178.6413890868 0 0 0 0 51168878.180639267 395107386.98422241 0 395107386.98422241 -15947495.87083292 0 0 0 0 409675623.08864594 -193480084.480896 0 -193480084.480896 -99773714.716766357 0 0 0 0 -42718521.776639938 -63069754.319473267 0 -63069754.319473267 201922276.93670845 0 0 0 0 -171504431.8124485 58029689.976074219 0 58029689.976074219 182938324.8996582 0 0 0 0 -14033203.259811401 102138209.05584717 0 102138209.05584717 -49686208.515096664 0 0 0 0 55749344.369076215 -139005829.6766963 0 -139005829.6766963 -40040728.112869263 0 0 0 0 1744860.5627620555 693359.84075514972 0 693359.84075514972 -1481589.5822820365 0 0 0 0 6304333.4959640503 48344896.876541138 0 48344896.876541138 3151517.2416381836 0 0 0 0 4363147.9755736999 24820310.690633222 0 24820310.690633222 14851738.821867108 0 0 0 0 6663808.4179000854 45843529.419021606 0 45843529.419021606 18695307.897521973 0 0 0 0 -2871709.1515350342 29491181.134765625 0 29491181.134765625 5814149.8219566345 0 0 0 0 5127764.4992446899 40284269.83934021 0 40284269.83934021 20085381.505187988 0 0 0 0 6866659.4486885071 42700330.603164673 0 42700330.603164673 30498254.973800659 0 0 0 0 6073773.1086769104 54351140.518486023 0 54351140.518486023 -16370622.681793213 0 0 0 0 9070469.3680648804 41028603.806869507 0 41028603.806869507 21065335.844696045 0 0 0 0 1679741.1064581871 62020054.422977448 0 62020054.422977448 24859584.12713623 0 0 0 0 23812861.334709167 74286452.075332642 0 74286452.075332642 24158136.105010986 0 0 0 0 471197.24519348145 26993118.639755249 0 26993118.639755249 61271240.864620209 0 0 0 0 -23756572.971351624 84969788.282035828 0 84969788.282035828 82674282.302307129 0 0 0 0 -10815232.896389008 100556070.41775513 0 100556070.41775513 23922483.297836304 0 0 0 0 -74531981.15540123 152959289.94496155 0 152959289.94496155 -8329325.4091587067 0 0 0 0 5422776.4092473984 34800301.739250183 0 34800301.739250183 8850623.474822998 0 0 0 0 -673622.28582353704 2630427.3442824148 0 2630427.3442824148 2984305.8494898826 0 0 0 0 8631469.7453098297 13517698.095497131 0 13517698.095497131 21792048.647598267 0 0 0 0 9354867.1469326019 13535090.180389404 0 13535090.180389404 -9143423.3640174866 0 0 0 0 -187961.41885483265 10722387.789693326 0 10722387.789693326 2580716.7636103854 0 0 0 0 6797178.8541526794 24372305.028701782 0 24372305.028701782 -20559445.181722164 0 0 0 0 5772746.156107842 2296547.0335127488 0 2296547.0335127488 -5213381.534476459 0 0 0 0 42398454.387954712 -6341222.3945999146 0 -6341222.3945999146 -19605669.411575317 0 0 0 0 -19623323.513840318 17831545.720136404 0 17831545.720136404 16421661.847747803 0 0 0 0 2336836.9282560628 15706592.842474557 0 15706592.842474557 13317185.245309979 0 0 0 0 -10871225.06816864 8944214.0045318604 0 8944214.0045318604 21617188.704727173 0 0 0 0 55634.061334609985 11453480.993293762 0 11453480.993293762 -4000877.2218017578 0 0 0 0 1589820.9655666351 6716900.1855163574 0 6716900.1855163574 -2775204.6460418701 0 0 0 0 1558869.77978025 4148552.9306459278 0 4148552.9306459278 -1170873.3631808162 0 0 0 0 8573737.4939015657 12900145.563807689 0 12900145.563807689 532447.06316171587 0 0 0 0 7596113.8029403687 32447132.159599304 0 32447132.159599304 21294664.126617432 0 0 0 0 -9093812.9163360596 42185159.709106445 0 42185159.709106445 33973806.188110352 0 0 0 0 4327577.5857242197 19459318.815276243 0 19459318.815276243 15050349.187977999 0 0 0 0 -25131253.51543045 44930707.115859985 0 44930707.115859985 10545720.708282471 0 0 0 0 -24501380.36328125 30714302.239578247 0 30714302.239578247 27158257.128814697 0 0 0 0 -19893383.726448059 20566147.833374023 0 20566147.833374023 21469837.781356812 0 0 0 0 -19668390.830218196 16194383.412231207 0 16194383.412231207 34000500.647857666 0 0 0 0 -18833061.699569702 4382121.1614685059 0 4382121.1614685059 23075033.887878418 0 0 0 0 -15122378.974510193 -3869405.1366119385 0 -3869405.1366119385 49801486.766588211 0 0 0 0 -20775008.657989502 21563426.421085358 0 21563426.421085358 46850482.485107422 0 0 0 0 2013486.0287475586 -25387000.122436523 0 -25387000.122436523 64045597.803092957 0 0 0 0 -16646604.241378784 22280058.685287476 0 22280058.685287476 36015448.196588516 0 0 0 0 -12022952.346694946 42671850.2134552 0 42671850.2134552 101592711.88705444 0 0 0 0 -4819364.2181777954 3290077.5305786133 0 3290077.5305786133 7110576.6466522217 0 0 0 0 -3620645.2754478455 -6288901.5155181885 0 -6288901.5155181885 11070630.798217773 0 0 0 0 -9179978.8822021484 -617371.12394714355 0 -617371.12394714355 13056284.016571045 0 0 0 0 -17644768.580841064 5158719.5617370605 0 5158719.5617370605 18471628.860107422 0 0 0 0 -21927178.143943787 8369846.5390014648 0 8369846.5390014648 19092136.727661133 0 0 0 0 -14545790.45085144 4082970.2826538086 0 4082970.2826538086 18830537.776947021 0 0 0 0 -16073681.369411469 8713214.2200927734 0 8713214.2200927734 10507033.408569336 0 0 0 0 -9904154.6021690369 2216853.4510574341 0 2216853.4510574341 9980803.9627075195 0 0 0 0 -13984920.575637817 6109023.326171875 0 6109023.326171875 6435270.6448974609 0 0 0 0 -9596252.8681488037 3223128.1385345459 0 3223128.1385345459 8019463.7431335449 0 0 0 0 -7063033.5149898529 3265428.8761711121 0 3265428.8761711121 7023412.8070678711 0 0 0 0 -8640613.2700881958 -1662135.9813842773 0 -1662135.9813842773 -3413974.7596435547 0 0 0 0 -980137879.33354187 1842222638.2070923 0 1842222638.2070923 -3443254832.3220215 0 0 0 0 -2218645.0872483142 6278128.2059563473 0 6278128.2059563473 2638880.9099983377 0 0 0 0 7889764.7387935407 4521882.9608872961 0 4521882.9608872961 2471161.0197026879 0 0 0 0 -708145358.71532726 409077612.77324677 0 409077612.77324677 560244623.24906921 0 0 0 0 -6454727.5389005058 94121.779707409441 0 94121.779707409441 4239842.1140469909 0 0 0 0 2530389.8220367432 6592884.2481079102 0 6592884.2481079102 2546394.2240142822 0 0 0 0 1344069.0052093938 4973107.9403598234 0 4973107.9403598234 1426128.7229077928 0 0 0 0 5867005.8111801147 9850145.1321105957 0 9850145.1321105957 3567973.0330200195 0 0 0 0 -1368605.0662498474 7445840.3594360352 0 7445840.3594360352 7270491.3064880371 0 0 0 0 389322.90336589515 172081.01250486821 0 172081.01250486821 -527294.27418315411 0 0 0 0 3643811.9633182967 6744398.8444573171 0 6744398.8444573171 8007512.8830805123 0 0 0 0 2232187.6996612549 4359225.3629989624 0 4359225.3629989624 -296270.38331604004 0 0 0 0 -18598447.80503273 -2014098.6367797852 0 -2014098.6367797852 15111093.555908203 0 0 0 0 328966.60092256591 1484399.539080523 0 1484399.539080523 301399.9785089083 0 0 0 0 3184474.6566886902 7838834.8173522949 0 7838834.8173522949 3988472.2302379608 0 0 0 0 1323191.2171897888 5953606.4355125427 0 5953606.4355125427 -1940.5906524658203 0 0 0 0 3474027.9736412689 6740836.9428841472 0 6740836.9428841472 96812.797364604659 0 0 0 0 1071487.9490966797 5714765.948425293 0 5714765.948425293 -37020.317657470703 0 0 0 0 4793126.1100082397 7924679.6684646606 0 7924679.6684646606 3305445.7594909668 0 0 0 0 5093408.03220094 6461376.0623663627 0 6461376.0623663627 3767282.8217645735 0 0 0 0 1064671.8429794312 5702035.4362411499 0 5702035.4362411499 5709.58837890625 0 0 0 0 660706.83160151914 5686993.8389175832 0 5686993.8389175832 -259656.19749940187 0 0 0 0 4980627.9321365356 7302911.0324249268 0 7302911.0324249268 970844.03330993652 0 0 0 0 3162762.1479359865 7161492.2466583252 0 7161492.2466583252 2329688.6796875 0 0 0 0 -1916723.4216842651 6904189.184753418 0 6904189.184753418 433139.15818786621 0 0 0 0 2542065.8257255554 5238198.0234375 0 5238198.0234375 328131.26092529297 0 0 0 0 568906.33367026225 1100576.455142796 0 1100576.455142796 1637797.3216403127 0 0 0 0 -168675195.66530609 485108468.8303833 0 485108468.8303833 958672.85755800107 0 0 0 0 2211386.6194229126 6656555.5274505615 0 6656555.5274505615 1422919.9185943604 0 0 0 0 6581826.9468193054 -31782947.251945496 0 -31782947.251945496 30272048.268371582 0 0 0 0 4546972.1672496796 8725726.9842834473 0 8725726.9842834473 -640144.60690307617 0 0 0 0 2864703.8629818754 3083536.4799309 0 3083536.4799309 -1265830.4359734729 0 0 0 0 11641403.378278732 15767587.342651367 0 15767587.342651367 30235.797515869141 0 0 0 0 4681624.1761189792 4812812.1181353852 0 4812812.1181353852 -1899769.2846249342 0 0 0 0 -1738852.1844190173 4861758.3687568605 0 4861758.3687568605 -2599806.9101221263 0 0 0 0 4833567.1316642761 5858694.641204834 0 5858694.641204834 -307124.12889099121 0 0 0 0 480064.82339915819 6058658.5087854341 0 6058658.5087854341 -5340691.4995343536 0 0 0 0 2254584.7503662109 2945106.587890625 0 2945106.587890625 -4520017.3011779785 0 0 0 0 -1202039979.7216244 373426941.784729 0 373426941.784729 1009300430.2510071 0 0 0 0 1181009.8863851009 11193804.433620296 0 11193804.433620296 -7994745.9605093021 0 0 0 0 5102284.6609147973 4458793.2427386045 0 4458793.2427386045 -2842954.9192724973 0 0 0 0 -973747.50466537476 1846877.2161865234 0 1846877.2161865234 -4420262.0830688477 0 0 0 0 7015727.8064441681 8902700.7373962402 0 8902700.7373962402 -1744452.5778045654 0 0 0 0 3256447.6938934326 6469952.5300292969 0 6469952.5300292969 394843.32749938965 0 0 0 0 2889202.8653365616 6630572.6289122999 0 6630572.6289122999 -1150297.7914681509 0 0 0 0 5459960.2883963585 6970433.4816198349 0 6970433.4816198349 506061.20849609375 0 0 0 0 72260.112152099609 9323734.0352935791 0 9323734.0352935791 -7010487.1211395264 0 0 0 0 47641031.656187057 119631075.62963867 0 119631075.62963867 -33141763.607467651 0 0 0 0 182115802.3258934 -203595902.7432251 0 -203595902.7432251 54028253.437072754 0 0 0 0 1472579.3974746596 11142117.473259181 0 11142117.473259181 -1887418.3968075514 0 0 0 0 3594267.0514825936 639464.63808077574 0 639464.63808077574 -2793151.3773465157 0 0 0 0 -314839468.5194509 -137232584.92392445 0 -137232584.92392445 373613703.76776123 0 0 0 0 -74550691.12140274 -438119715.91816711 0 -438119715.91816711 -118185029.54241943 0 0 0 0 369766620.51470184 130357207.3901825 0 130357207.3901825 -758215539.30911255 0 0 0 0 617618746.61787415 -44729869.290603638 0 -44729869.290603638 -661550606.76077271 0 0 0 0 -339245768.6440239 233108094.94874573 0 233108094.94874573 47325495.093383789 0 0 0 0 -557094.9328325754 869703.76410822384 0 869703.76410822384 980967.41296768188 0 0 0 0 -125648002.25841331 163341024.49197388 0 163341024.49197388 55690057.866607666 0 0 0 0 -343323935.19959736 1899515.0701637268 0 1899515.0701637268 57727027.184783936 0 0 0 0 -118557632.98780131 47828360.267737865 0 47828360.267737865 17588378.105529785 0 0 0 0 -23517964.512096405 38469266.035812378 0 38469266.035812378 8063014.0463562012 0 0 0 0 53060733.285966873 -34980148.06477356 0 -34980148.06477356 12956669.559051514 0 0 0 0 13892077.565244675 -4709947.6463928223 0 -4709947.6463928223 -21653669.727508545 0 0 0 0 43717773.718632892 26049166.995849609 0 26049166.995849609 -37800755.073730469 0 0 0 0 41397372.942955643 426818.41387462616 0 426818.41387462616 -44938411.867797852 0 0 0 0 -14437924.504116535 -81716930.467617035 0 -81716930.467617035 -4115225.4672088623 0 0 0 0 445778430.28564835 216037936.78180695 0 216037936.78180695 -241020211.93121338 0 0 0 0 129893138.6277523 108609810.8000946 0 108609810.8000946 -106033816.98612213 0 0 0 0 19110224.762028255 -3757093.2321993336 0 -3757093.2321993336 -13127555.455438636 0 0 0 0 47653521.350357056 8636785.6373596191 0 8636785.6373596191 20874987.305015564 0 0 0 0 -7169598.6779049691 11814472.195897307 0 11814472.195897307 1619229.0686568916 0 0 0 0 166691365.81726837 308055710.69326782 0 308055710.69326782 -113196985.56170654 0 0 0 0 7426249.1896275021 13510013.65625979 0 13510013.65625979 -17345538.037549987 0 0 0 0 11729895.204673767 4227349.4764556885 0 4227349.4764556885 -41078176.59942627 0 0 0 0 29517100.746986389 31760901.065673828 0 31760901.065673828 -20589494.864013672 0 0 0 0 1978790.9141030586 -596654.91005518287 0 -596654.91005518287 -2695096.6373219192 0 0 0 0 -103798605.09122252 -120157917.68249512 0 -120157917.68249512 39787818.610107422 0 0 0 0 7052005.0421275869 14127178.891549766 0 14127178.891549766 -17084410.67785269 0 0 0 0 571196031.33550262 460868773.05639648 0 460868773.05639648 151397221.88872528 0 0 0 0 8427898.4330606759 21477437.102142334 0 21477437.102142334 -25566065.252227783 0 0 0 0 6924759.7238257788 16630846.634384155 0 16630846.634384155 -36086309.979248047 0 0 0 0 9461624.5571089387 -9354573.6377677917 0 -9354573.6377677917 -43971500.398986816 0 0 0 0 5023667.9556361139 7692075.4410820007 0 7692075.4410820007 -11125095.606872559 0 0 0 0 1287559.5017220974 -1326476.8457527161 0 -1326476.8457527161 -3747788.6630554199 0 0 0 0 19685243.240811914 49940156.360038757 0 49940156.360038757 57197676.672576904 0 0 0 0 2505129.1114177704 6570364.9478759766 0 6570364.9478759766 -3534235.9543895721 0 0 0 0 4196005.5869897436 5255917.3017314896 0 5255917.3017314896 -5745202.3348595798 0 0 0 0 4761073.054019928 3500024.5996704102 0 3500024.5996704102 -12060733.217414856 0 0 0 0 26479671.406242371 31434831.029541016 0 31434831.029541016 21658092.163452148 0 0 0 0 4074873.1235845769 2658612.5768551752 0 2658612.5768551752 -6708566.9242216572 0 0 0 0 1316116.612033844 6728142.9486694336 0 6728142.9486694336 -7331085.1679077148 0 0 0 0 5816255.5764389038 4924101.0182495117 0 4924101.0182495117 -6767750.1096572876 0 0 0 0 4213036.5458106995 389995.89474487305 0 389995.89474487305 -4408981.3907909393 0 0 0 0 17034442.985383987 35950573.921890259 0 35950573.921890259 31479234.542053223 0 0 0 0 -158785.88023642544 130292.39196147025 0 130292.39196147025 -92432.286615684628 0 0 0 0 18837087.650050402 29917181.326292038 0 29917181.326292038 26001951.42300415 0 0 0 0 82829072.521102309 58998036.073928833 0 58998036.073928833 15351744.279785156 0 0 0 0 49837383.971200466 36287644.837585449 0 36287644.837585449 38759.374114990234 0 0 0 0 26445891.459954262 28981091.583358765 0 28981091.583358765 26017234.735412598 0 0 0 0 85422564.04081738 77762215.39289093 0 77762215.39289093 40139613.025421143 0 0 0 0 177877398.84775925 86607284.02407074 0 86607284.02407074 9746488.8414459229 0 0 0 0 135247647.56102276 63153286.950569153 0 63153286.950569153 11696.108276367188 0 0 0 0 113001615.53448009 95167018.029602051 0 95167018.029602051 54507472.43182373 0 0 0 0 144938379.78734398 101987333.41305542 0 101987333.41305542 55670264.124572754 0 0 0 0 59013895.46035862 60164140.388977051 0 60164140.388977051 58153513.502746582 0 0 0 0 46788375.335062981 64870512.050384521 0 64870512.050384521 79838632.089019775 0 0 0 0 72632126.265558243 104931854.5259552 0 104931854.5259552 119835733.51226807 0 0 0 0 2203111.8251996757 5343557.7654268816 0 5343557.7654268816 -5022149.8119063154 0 0 0 0 110595033.0334094 81258821.096107483 0 81258821.096107483 38860606.622436523 0 0 0 0 28302028.38694191 -29401774.163330078 0 -29401774.163330078 -27842154.158172607 0 0 0 0 163311318.83587217 55281634.440574646 0 55281634.440574646 -10280229.302490234 0 0 0 0 150911528.41583443 63529070.017089844 0 63529070.017089844 -68028.048986053735 0 0 0 0 279950436.11750793 122071849.75537109 0 122071849.75537109 7032986.4732055664 0 0 0 0 154496531.42921066 63756223.633911133 0 63756223.633911133 -6191714.9827270508 0 0 0 0 -48518212.033123016 -84010654.865463257 0 -84010654.865463257 -31160406.722991705 0 0 0 0 240570054.12930965 143776802.99036789 0 143776802.99036789 -35995107.383575439 0 0 0 0 172679786.99319458 29256531.42263031 0 29256531.42263031 34252472.220458984 0 0 0 0 421636557.20220757 137654716.68481445 0 137654716.68481445 -35658595.507232666 0 0 0 0 347988394.35599089 346723657.44274139 0 346723657.44274139 285431779.26550293 0 0 0 0 2182211.2695539864 1094043.3120421246 0 1094043.3120421246 -2208311.2275064439 0 0 0 0 236985240.60022736 159840550.88050842 0 159840550.88050842 178988539.66281128 0 0 0 0 241027684.11432219 2994136.0755195618 0 2994136.0755195618 -85182666.92578125 0 0 0 0 336480269.52178001 171880837.4838562 0 171880837.4838562 7647946.4114379883 0 0 0 0 265514539.09729004 36204004.825317383 0 36204004.825317383 -52690156.464805603 0 0 0 0 -44182791.833683014 119805643.36984253 0 119805643.36984253 63825923.933579803 0 0 0 0 82171972.053779602 212979949.92169189 0 212979949.92169189 63355474.422912121 0 0 0 0 -2280585.0569918863 267406.87995648384 0 267406.87995648384 2517725.4420386255 0 0 0 0 18150511.909313679 -5972699.6071929932 0 -5972699.6071929932 -64253080.755554199 0 0 0 0 4560334.4949357854 1184362.4061321765 0 1184362.4061321765 -4438000.1995089687 0 0 0 0 -5576444.8659114838 -12749272.461120605 0 -12749272.461120605 -53173798.87079525 0 0 0 0 120413830.27575874 150704207.15531921 0 150704207.15531921 152641033.81260681 0 0 0 0 5696110.1005604174 2711190.4382437542 0 2711190.4382437542 -5931367.6877005324 0 0 0 0 165426718.00512791 130453551.83267212 0 130453551.83267212 87436089.190338135 0 0 0 0 164929608.34312725 126901345.22651672 0 126901345.22651672 111260030.07498169 0 0 0 0 13890551.044939995 -29261749.03818512 0 -29261749.03818512 -96603205.524169922 0 0 0 0 25938474.958824158 12159986.295928955 0 12159986.295928955 -78765416.285392761 0 0 0 0 11084726.75658226 -79102793.770248413 0 -79102793.770248413 -114252379.76159668 0 0 0 0 19629765.31545639 -7407749.258026123 0 -7407749.258026123 -32392772.427276611 0 0 0 0 12095791.936443329 8463562.6492767334 0 8463562.6492767334 -28582157.012664795 0 0 0 0 7965161.7435798645 14915589.920196533 0 14915589.920196533 -14391524.903831482 0 0 0 0 12660418.354034424 5812039.9517364502 0 5812039.9517364502 -32890605.88495636 0 0 0 0 937352.09701156616 4834481.343460083 0 4834481.343460083 -32596262.124176025 0 0 0 0 15549271.99366188 7678527.9140014648 0 7678527.9140014648 -52560859.228081703 0 0 0 0 80944498.636996269 33943264.368087769 0 33943264.368087769 -42048958.105880737 0 0 0 0 32027878.636739731 128279898.77597046 0 128279898.77597046 -12607404.145751953 0 0 0 0 25919471.092873573 -13765835.06288147 0 -13765835.06288147 -64406418.970214844 0 0 0 0 -5221050.1165351868 18456232.19619751 0 18456232.19619751 25085284.314727783 0 0 0 0 41394570.374771118 46430492.06993103 0 46430492.06993103 60321710.057678223 0 0 0 0 -3242145.9949493408 -48098185.734680176 0 -48098185.734680176 -14360834.29107666 0 0 0 0 4668210.3178449292 6215343.5301413201 0 6215343.5301413201 4294323.6717007756 0 0 0 0 15347134.054699894 7408644.7460690886 0 7408644.7460690886 -31502371.489443503 0 0 0 0 40295702.215385437 8204214.6829833984 0 8204214.6829833984 -39656566.22492981 0 0 0 0 98942185.968963623 61493021.120697021 0 61493021.120697021 27985251.500915527 0 0 0 0 -17763840.931758881 24371826.892272949 0 24371826.892272949 63327044.680389404 0 0 0 0 48120.644426126033 4768368.0259169415 0 4768368.0259169415 4118240.9855116755 0 0 0 0 61166423.054152727 -15771855.990474701 0 -15771855.990474701 -63482900.43862915 0 0 0 0 51478413.19695282 91455004.89453125 0 91455004.89453125 46768987.117172241 0 0 0 0 12311505.19658692 8373882.6620232984 0 8373882.6620232984 -30477817.127357513 0 0 0 0 108955400.33504272 -5047085.3069000244 0 -5047085.3069000244 -108170238.13482666 0 0 0 0 -84313766.391571045 8588571.1525421143 0 8588571.1525421143 -28552457.00793457 0 0 0 0 64413350.755153656 48224052.069519043 0 48224052.069519043 -110835537.18924713 0 0 0 0 101427747.63844681 841744.46133422852 0 841744.46133422852 -69324806.005065918 0 0 0 0 217998330.21308327 68901054.016880035 0 68901054.016880035 -72887440.826049805 0 0 0 0 162950947.61828232 40048229.985137939 0 40048229.985137939 -70925811.8046875 0 0 0 0 188851573.77324677 -7316453.3013000488 0 -7316453.3013000488 -75250210.682647705 0 0 0 0 200936137.17192078 50031786.107650757 0 50031786.107650757 -87371045.100646973 0 0 0 0 184169217.34474945 23576782.887512207 0 23576782.887512207 -97487900.098144531 0 0 0 0 103844496.80274105 9793522.6655197144 0 9793522.6655197144 -74387270.009399414 0 0 0 0 126067617.07978058 139522776.50973511 0 139522776.50973511 -44461105.520689011 0 0 0 0 285094488.78126335 176467301.23584938 0 176467301.23584938 -47069042.246795654 0 0 0 0 180580319.91371918 125173439.88256836 0 125173439.88256836 -64191699.898864746 0 0 0 0 63015505.817568779 141511296.54265404 0 141511296.54265404 3603711.8335266113 0 0 0 0 69475461.203609467 115670834.97605896 0 115670834.97605896 -27974300.297668457 0 0 0 0 53868275.201620102 76609172.732284546 0 76609172.732284546 -22914794.961914062 0 0 0 0 118672430.20940018 101506860.86798096 0 101506860.86798096 -49425068.7890625 0 0 0 0 102193127.1315918 90026231.681488037 0 90026231.681488037 -46200096.936523438 0 0 0 0 133991280.47038269 19337643.339324951 0 19337643.339324951 -78573864.04486084 0 0 0 0 131579835.99702454 51806427.638946533 0 51806427.638946533 -67643208.302627563 0 0 0 0 97736309.546585083 49561797.342468262 0 49561797.342468262 -39977641.45993042 0 0 0 0 115208576.42964697 54675138.824661255 0 54675138.824661255 -46188408.540100098 0 0 0 0 106873572.939394 38995928.288726807 0 38995928.288726807 -31185269.037231445 0 0 0 0 128135756.490242 80387588.00592041 0 80387588.00592041 8495700.9732666016 0 0 0 0 68212513.930790424 31337161.865846634 0 31337161.865846634 -30574203.452392578 0 0 0 0 647507.94630722702 -487122.15153470635 0 -487122.15153470635 -2544062.3376950175 0 0 0 0 14948737.136226702 11438597.044198435 0 11438597.044198435 -26739561.701040909 0 0 0 0 88996609.096614838 212155095.49684143 0 212155095.49684143 -130046242.43453979 0 0 0 0 103073180.31899261 25826250.540145874 0 25826250.540145874 -40896104.933135986 0 0 0 0 84672960.207420349 49860160.391662598 0 49860160.391662598 -16413909.902099609 0 0 0 0 76667288.099365234 61515535.692871094 0 61515535.692871094 -27763985.336349487 0 0 0 0 88337436.90184021 56600001.32611084 0 56600001.32611084 -24132841.436584473 0 0 0 0 78500405.061618805 65755835.987335205 0 65755835.987335205 -19551177.861114502 0 0 0 0 46349278.972644806 71547882.776077271 0 71547882.776077271 -17411135.636608124 0 0 0 0 35678151.142625809 64688181.984924316 0 64688181.984924316 -4800758.514831543 0 0 0 0 43039636.066520691 43965138.518066406 0 43965138.518066406 -19060085.625610352 0 0 0 0 28441688.089546204 61318400.442993164 0 61318400.442993164 -4984978.2804470062 0 0 0 0 140957911.61116886 -23340253.888008118 0 -23340253.888008118 -14670627.435577393 0 0 0 0 15061184.588563327 17113187.230874684 0 17113187.230874684 -25127024.403944671 0 0 0 0 52780361.74738121 55648359.113677979 0 55648359.113677979 -17104850.683120728 0 0 0 0 22390212.780971527 -84717270.592315674 0 -84717270.592315674 31172791.876251221 0 0 0 0 138012176.21813965 -48869641.557983398 0 -48869641.557983398 -64543813.628540039 0 0 0 0 72516550.54176712 49355404.301330566 0 49355404.301330566 -15165853.929931641 0 0 0 0 111149955.51143646 -28295147.049545288 0 -28295147.049545288 18324062.083129883 0 0 0 0 86030362.640300751 -51570649.22202301 0 -51570649.22202301 -40601572.427856445 0 0 0 0 85186085.835960388 -46528923.652954102 0 -46528923.652954102 7760132.6093139648 0 0 0 0 -2320598.6821670532 12834054.201019287 0 12834054.201019287 -54269179.451904297 0 0 0 0 22510927.247276306 59147585.803436279 0 59147585.803436279 -145230853.97298145 0 0 0 0 110789626.88735199 -51498246.92767334 0 -51498246.92767334 -24822658.827484131 0 0 0 0 -29972192.877632141 47536029.509552002 0 47536029.509552002 -28952590.457489014 0 0 0 0 -106594478.47024536 113900133.11991882 0 113900133.11991882 -83482597.475616455 0 0 0 0 -97541544.542152405 5324164.1098480225 0 5324164.1098480225 6715710.8082733154 0 0 0 0 -28316176.745437622 123397593.72644043 0 123397593.72644043 -162840453.78887939 0 0 0 0 -19593431.310256958 117142771.16656494 0 117142771.16656494 -106137015.22541809 0 0 0 0 -29813070.875801086 102393846.6685791 0 102393846.6685791 -113554659.47198486 0 0 0 0 7602317.5979309082 135070194.79023743 0 135070194.79023743 -148790180.63543701 0 0 0 0 57952862.953186035 201045661.96542358 0 201045661.96542358 -74818346.472076416 0 0 0 0 -49348734.525375366 120396985.92819214 0 120396985.92819214 278284400.60400391 0 0 0 0 91106518.728141785 -89981021.250732422 0 -89981021.250732422 112056098.57591248 0 0 0 0 -40787719.207268238 189016503.76060295 0 189016503.76060295 -6778926.090637207 0 0 0 0 1221403.7994995117 165718375.30059814 0 165718375.30059814 -127403941.71844482 0 0 0 0 -8772264.6077041626 13100176.421539307 0 13100176.421539307 89438434.273605347 0 0 0 0 -29261565.421899796 111572559.36114502 0 111572559.36114502 -28714622.432189941 0 0 0 0 -22445113.699127197 5970931.2690429688 0 5970931.2690429688 -11928985.503601074 0 0 0 0 -16550651.201774597 65278576.899261475 0 65278576.899261475 -78074852.724700928 0 0 0 0 41506669.588386536 -38778711.209289551 0 -38778711.209289551 982271.66444396973 0 0 0 0 30222573.81211853 -10916541.905303955 0 -10916541.905303955 -54506529.495178223 0 0 0 0 204433038.8401947 -50774306.504074097 0 -50774306.504074097 -26621674.701080322 0 0 0 0 69907964.000175476 5923421.6891784668 0 5923421.6891784668 -11905026.084716797 0 0 0 0 67979353.210338593 -15265734.683456421 0 -15265734.683456421 -32751103.290039062 0 0 0 0 110128121.23070908 33054122.231292725 0 33054122.231292725 -28175861.176818848 0 0 0 0 -62895339.920543671 -16280138.105117798 0 -16280138.105117798 -1641833.6171264648 0 0 0 0 1797312.673907429 1697258.5216069706 0 1697258.5216069706 837443.6406788677 0 0 0 0 41875880.500045776 9217471.5721740723 0 9217471.5721740723 68677436.612789154 0 0 0 0 -56335319.984161377 -59437601.593154907 0 -59437601.593154907 -83112425.336486816 0 0 0 0 -19052126.87940979 19928322.477630615 0 19928322.477630615 -178314657.1986351 0 0 0 0 -22117831.369186401 42746189.509506226 0 42746189.509506226 -654430.24914932251 0 0 0 0 -43480114.804626465 -34168675.965167999 0 -34168675.965167999 20403813.790908813 0 0 0 0 -2397148.3187151328 5154185.2431112528 0 5154185.2431112528 1782251.3987297863 0 0 0 0 21026513.697311401 83089836.928375244 0 83089836.928375244 -44717432.102657318 0 0 0 0 -47837349.398788452 727617.61990737915 0 727617.61990737915 7014760.2644500732 0 0 0 0 -7302768.1106435582 2961554.5129080638 0 2961554.5129080638 2720136.4445700049 0 0 0 0 -100339734.91169739 37890421.474220276 0 37890421.474220276 30505961.120147705 0 0 0 0 -14951335.157894135 72761787.901763916 0 72761787.901763916 8831961.5528488159 0 0 0 0 -23725660.358057432 14470079.994023629 0 14470079.994023629 17331067.882322636 0 0 0 0 9238566.4627545513 31252372.720570706 0 31252372.720570706 28540867.252986193 0 0 0 0 15277519.140951157 54474076.681266785 0 54474076.681266785 15119305.031921387 0 0 0 0 -9905241.9443778992 64776876.70652771 0 64776876.70652771 12123144.175186157 0 0 0 0 -12968729.017498016 83130313.461624146 0 83130313.461624146 757994.3911819458 0 0 0 0 25084912.509937286 77720560.819396973 0 77720560.819396973 487877.94427490234 0 0 0 0 -10635974.772903442 66870284.892837524 0 66870284.892837524 4236347.2129135132 0 0 0 0 -82842387.730144501 79303583.688735962 0 79303583.688735962 20028563.273971558 0 0 0 0 -11204696.993694305 99524294.459457397 0 99524294.459457397 -4359221.9487533569 0 0 0 0 46820173.599835396 104139303.43391037 0 104139303.43391037 -14481575.372314453 0 0 0 0 -55788624.118392944 70913424.314315796 0 70913424.314315796 1379433.1129302979 0 0 0 0 -18744301.330780029 116916498.53841782 0 116916498.53841782 -9754571.7113342285 0 0 0 0 -6073345.4827728271 104949707.18729401 0 104949707.18729401 6749618.7012634277 0 0 0 0 -142707520.59023666 73141136.833511353 0 73141136.833511353 9842573.48254776 0 0 0 0 -268413258.89543533 77269313.664970398 0 77269313.664970398 147411522.17181396 0 0 0 0 8296417.1629052842 22524749.990851305 0 22524749.990851305 28464542.574903518 0 0 0 0 -88704981.725255966 92997262.538356781 0 92997262.538356781 3846090.6181335449 0 0 0 0 19837773.965940475 -134676265.73677826 0 -134676265.73677826 240970236.97518921 0 0 0 0 -1263449.2816565484 1132024.4928992912 0 1132024.4928992912 102172.74743029475 0 0 0 0 -4684792.2098312378 165544988.11373138 0 165544988.11373138 346313714.00378418 0 0 0 0 -50748516.895690918 22593278.579170227 0 22593278.579170227 -10448560.785980225 0 0 0 0 55387144.954727173 208199127.1348114 0 208199127.1348114 -38164173.137901306 0 0 0 0 74620815.463802338 84388341.479144096 0 84388341.479144096 -111152172.83828735 0 0 0 0 2392923.4528427124 19364582.562057495 0 19364582.562057495 -60151348.627288818 0 0 0 0 -137597272.21406555 165303343.17578888 0 165303343.17578888 -12812487.042236328 0 0 0 0 -1826368.6748543717 1448366.2594590709 0 1448366.2594590709 2098616.9383176789 0 0 0 0 -169891552.12854385 121501954.3028717 0 121501954.3028717 -29596872.376159668 0 0 0 0 -196131440.84637451 81158218.490722656 0 81158218.490722656 13868057.713867188 0 0 0 0 8314662.8488041852 18241331.398321033 0 18241331.398321033 24245528.035357594 0 0 0 0 -120614112.58600998 115292855.34326935 0 115292855.34326935 -79145104.327514648 0 0 0 0 -112374803.45414162 92144111.223190308 0 92144111.223190308 -46169298.399291992 0 0 0 0 -130504511.80607605 109048386.0586853 0 109048386.0586853 -68823023.208129883 0 0 0 0 -245621645.12243652 161121828.03503418 0 161121828.03503418 -77772631.230354309 0 0 0 0 -101190982.78862 110183518.5550766 0 110183518.5550766 -172011573.1786499 0 0 0 0 -109638293.24156952 103673330.73864746 0 103673330.73864746 -102055600.41491699 0 0 0 0 -164450537.24108887 107535130.68182373 0 107535130.68182373 -114409966.18817139 0 0 0 0 -59465155.422701836 63314054.67678833 0 63314054.67678833 -105263486.92230225 0 0 0 0 -92648570.399738312 87728460.30506897 0 87728460.30506897 -89500543.12097168 0 0 0 0 -89511609.71131897 88985133.020874023 0 88985133.020874023 -99526257.103485107 0 0 0 0 -65883338.73589325 88591037.738952637 0 88591037.738952637 -128212753.3878479 0 0 0 0 -107205005.05622864 87354692.169250488 0 87354692.169250488 -90865767.062988281 0 0 0 0 -82768891.621017456 109981669.58532715 0 109981669.58532715 -123143702.63598633 0 0 0 0 24329263.141127177 16978734.468866102 0 16978734.468866102 7765825.2515867427 0 0 0 0 -81265503.939668655 127113568.23410416 0 127113568.23410416 -130600067.04071045 0 0 0 0 -99347731.784515381 99889434.739807129 0 99889434.739807129 -102424347.128479 0 0 0 0 -83334843.38710022 138959717.62704468 0 138959717.62704468 -111337616.27093506 0 0 0 0 3871189.7089061737 96681545.86151123 0 96681545.86151123 -195143887.32034302 0 0 0 0 -52329957.849807739 150393559.74568176 0 150393559.74568176 -150683930.64868164 0 0 0 0 -264731656.01956177 306565296.14359283 0 306565296.14359283 -251385452.07580566 0 0 0 0 -289750671.37643433 313815330.76092529 0 313815330.76092529 -243410673.18505859 0 0 0 0 1959458.3552176468 1372444.0579115991 0 1372444.0579115991 -1333760.7136334628 0 0 0 0 -91986418.149627686 165823817.81440735 0 165823817.81440735 -252884540.56335449 0 0 0 0 -62278109.674236298 39545827.211334229 0 39545827.211334229 -21047733.43813324 0 0 0 0 -41568898.511947632 118047942.88731384 0 118047942.88731384 35436737.160858154 0 0 0 0 -77063325.072002411 86707379.246810913 0 86707379.246810913 -47850050.442718506 0 0 0 0 -74352995.550338745 96914645.629684448 0 96914645.629684448 -35036370.583251953 0 0 0 0 -55898720.470722198 48779183.79057312 0 48779183.79057312 -37000797.643642426 0 0 0 0 -72046667.511978149 69485062.116821289 0 69485062.116821289 -75063326.368469238 0 0 0 0 -67276153.982818604 72971129.626625061 0 72971129.626625061 -88030642.577484131 0 0 0 0 -70373875.631713867 61677324.498336792 0 61677324.498336792 -75954819.973968506 0 0 0 0 -39765394.38628006 50334588.709152222 0 50334588.709152222 -84528115.281903267 0 0 0 0 -40949125.059814453 42822838.895362854 0 42822838.895362854 -84068063.871582031 0 0 0 0 -60210770.819722652 103486812.57567501 0 103486812.57567501 -30162519.809326172 0 0 0 0 -3922344.1636419557 442178.23494469374 0 442178.23494469374 4279609.8388778567 0 0 0 0 -39104802.867893219 60591180.74079895 0 60591180.74079895 -82962041.822479248 0 0 0 0 -67943457.04434967 14438074.733093262 0 14438074.733093262 -16746285.080717087 0 0 0 0 -2420637.4461365901 209186.5694116354 0 209186.5694116354 2540144.1488985419 0 0 0 0 -50446349.161769867 52227031.071762085 0 52227031.071762085 6244395.2203979492 0 0 0 0 -2454743.7573132515 50710016.246767044 0 50710016.246767044 29401.811019897461 0 0 0 0 -61619957.919658661 129775564.62350464 0 129775564.62350464 -35292034.435211182 0 0 0 0 -35470322.984481812 109526651.93296814 0 109526651.93296814 -62739903.962966919 0 0 0 0 -64672959.947162628 113103986.15040588 0 113103986.15040588 -49526926.08972168 0 0 0 0 -75128698.757743835 99084541.304344177 0 99084541.304344177 -65103106.810119629 0 0 0 0 -64905593.088500977 114658035.8951416 0 114658035.8951416 -96670377.277526855 0 0 0 0 -57155164.243995667 116167925.51869202 0 116167925.51869202 -105852994.28753662 0 0 0 0 -34237201.447067261 90590719.754974365 0 90590719.754974365 -79535693.772064209 0 0 0 0 -53676080.438026428 40534069.522338867 0 40534069.522338867 -40780577.900543213 0 0 0 0 -70980169.89855957 69732696.86618042 0 69732696.86618042 -89565400.940340042 0 0 0 0 -54433565.609619141 79191887.81413269 0 79191887.81413269 -43827139.05758667 0 0 0 0 26244207.376107216 111177031.63650894 0 111177031.63650894 -34614761.401702881 0 0 0 0 9260865.7493057251 28181682.983581543 0 28181682.983581543 -45436000.823745728 0 0 0 0 48044803.286056519 59092445.812438965 0 59092445.812438965 64057.593032836914 0 0 0 0 -49300937.465873718 115830378.93464661 0 115830378.93464661 23526252.633712769 0 0 0 0 -50344819.593465805 104189966.47170258 0 104189966.47170258 -24419029.844680786 0 0 0 0 -67059548.951042175 103722341.41795349 0 103722341.41795349 13424.638534545898 0 0 0 0 -38596004.179534912 108378337.63827515 0 108378337.63827515 -122413975.13372803 0 0 0 0 -33975305.065376282 91222560.638198853 0 91222560.638198853 -58870469.957214355 0 0 0 0 18633202.946132116 14157295.112477738 0 14157295.112477738 7622129.0745431408 0 0 0 0 -57058161.341762543 84265461.572738647 0 84265461.572738647 -51428422.794235229 0 0 0 0 -51866854.735404968 66209754.800216675 0 66209754.800216675 -122457.26362165254 0 0 0 0 9134049.9800601825 -590375.91699341498 0 -590375.91699341498 -2501028.5158564597 0 0 0 0 111883359.22581005 -38526879.102928162 0 -38526879.102928162 -118040378.80368042 0 0 0 0 7425796.200417161 2974046.4796576872 0 2974046.4796576872 -1817659.3033111542 0 0 0 0 7965124.2313995361 92966933.89352417 0 92966933.89352417 205498.89602661133 0 0 0 0 29762567.799819946 36488654.439590454 0 36488654.439590454 -68017536.866973877 0 0 0 0 76610575.412963867 144127432.36102295 0 144127432.36102295 -101967895.74151611 0 0 0 0 1035410.5331646893 872319.79061611742 0 872319.79061611742 258546.28621456027 0 0 0 0 5888880.7644500732 -11766307.553375244 0 -11766307.553375244 -161007181.80914307 0 0 0 0 405202109.89164734 -10404926.681301117 0 -10404926.681301117 -105022587.13986206 0 0 0 0 6307782.9533137027 3749270.8680792898 0 3749270.8680792898 -7878911.8142118752 0 0 0 0 34417120.365512848 -10137803.57248497 0 -10137803.57248497 25445018.739471436 0 0 0 0 13342013.269251242 11583594.175409537 0 11583594.175409537 2134872.9586770907 0 0 0 0 18761349.393630981 11943105.855636597 0 11943105.855636597 -6787269.0874099731 0 0 0 0 26155779.084480286 17495848.434276581 0 17495848.434276581 -15973086.394210815 0 0 0 0 25576663.136932373 -3732352.2453727722 0 -3732352.2453727722 -15837046.267059326 0 0 0 0 4200824.7808328271 3870934.5939765573 0 3870934.5939765573 -8769584.7900027484 0 0 0 0 24677800.991744995 -3797452.311126709 0 -3797452.311126709 -12956476.196098328 0 0 0 0 22599226.408706665 -497323.8150177002 0 -497323.8150177002 -18173520.706939697 0 0 0 0 -19888127.56350708 27126868.160491943 0 27126868.160491943 -56748211.776443481 0 0 0 0 23664798.519248962 -1570865.7151126862 0 -1570865.7151126862 -43888778.623245239 0 0 0 0 2837122.3958814293 423055.31015211344 0 423055.31015211344 -1984697.4605524093 0 0 0 0 140679528.98977661 73358472.196182251 0 73358472.196182251 -114161520.81787109 0 0 0 0 -26384374.723786354 139322757.84688425 0 139322757.84688425 -114710787.74343872 0 0 0 0 190259013.42720032 -83743010.470718384 0 -83743010.470718384 -43654032.983894348 0 0 0 0 55437300.868209839 83159859.827484131 0 83159859.827484131 -100930804.78511047 0 0 0 0 -24614216.296195984 11841700.969100952 0 11841700.969100952 35874010.991119385 0 0 0 0 11525767.309509277 27086423.051486969 0 27086423.051486969 -33357734.706741333 0 0 0 0 73737214.054870605 7290590.7476654053 0 7290590.7476654053 -70870251.703765869 0 0 0 0 11788709.753900498 2433816.071493255 0 2433816.071493255 -8565435.9155505002 0 0 0 0 472958369.12548828 -521840775.85891724 0 -521840775.85891724 229676511.17866516 0 0 0 0 357004287.66633606 128939138.00151062 0 128939138.00151062 -453355252.49861145 0 0 0 0 -555743874.79224777 159295299.61182785 0 159295299.61182785 -153562599.40618896 0 0 0 0 -3186815.7468778864 2431757.2336418107 0 2431757.2336418107 -249563.49053987954 0 0 0 0 -833403860.92328644 839834353.8432312 0 839834353.8432312 -771340753.0664978 0 0 0 0 -576692006.80992126 -103465972.25538635 0 -103465972.25538635 763055082.82852173 0 0 0 0 -1507075909.764122 1008595361.6324692 0 1008595361.6324692 2856423.1037750244 0 0 0 0 -768719242.62803268 1536429137.1581345 0 1536429137.1581345 -593182189.15737915 0 0 0 0 -1597454045.2310791 595659157.83106995 0 595659157.83106995 320770683.67626953 0 0 0 0 -519733249.19447517 314005233.31459618 0 314005233.31459618 148965909.3336792 0 0 0 0 -615202575.87878418 667496333.75521851 0 667496333.75521851 -149252014.61470032 0 0 0 0 -578966485.0632019 474225493.66360474 0 474225493.66360474 -407421276.80253601 0 0 0 0 725922993.37257767 -269381464.83818436 0 -269381464.83818436 -7241311.2974700928 0 0 0 0 1247945059.990509 690164885.7808075 0 690164885.7808075 -532152079.8351593 0 0 0 0 1966072502.1070404 961968858.36717224 0 961968858.36717224 -1076754678.4289246 0 0 0 0 2355225438.2390118 -1483501981.1338987 0 -1483501981.1338987 474765611.37628174 0 0 0 0 1812788.1273527145 1742072.3944806829 0 1742072.3944806829 -522757.90560156852 0 0 0 0 -18489857.684753418 36033847.842407227 0 36033847.842407227 -164265.1778428049 0 0 0 0 -15897695.470443726 33605468.428985596 0 33605468.428985596 -65606413.580474854 0 0 0 0 598220929.71976471 -234707529.14213562 0 -234707529.14213562 104233501.89167786 0 0 0 0 620950297.49875641 -79393038.578422546 0 -79393038.578422546 -309281402.89874268 0 0 0 0 524117700.68521118 160020730.33576965 0 160020730.33576965 -284143591.37891388 0 0 0 0 528226895.90041351 91360626.525466919 0 91360626.525466919 -104250153.6254425 0 0 0 0 181691418.72718048 204145561.59872437 0 204145561.59872437 210392694.75740051 0 0 0 0 241360802.39982605 324683104.26179504 0 324683104.26179504 -49466526.840854645 0 0 0 0 2260330.9097074717 237373.77041168511 0 237373.77041168511 -1554976.3014229462 0 0 0 0 -411971044.57971191 621823373.15248871 0 621823373.15248871 2380375222.7525024 0 0 0 0 200298567.591362 490258907.40603638 0 490258907.40603638 223791203.49009705 0 0 0 0 495881810.78640938 516283584.61616135 0 516283584.61616135 -1882557449.6711121 0 0 0 0 515400310.74980164 864244634.94744873 0 864244634.94744873 -425295534.21316528 0 0 0 0 573051587.64575958 125809783.82052612 0 125809783.82052612 -784888022.42056274 0 0 0 0 215848890.24282837 430475729.4306488 0 430475729.4306488 -503600175.19058228 0 0 0 0 -159067382.32197571 382750771.23658752 0 382750771.23658752 -496452628.27262878 0 0 0 0 -980254401.70815563 874161100.12615585 0 874161100.12615585 -783334336.54830933 0 0 0 0 -788662981.08602905 -179631261.21498108 0 -179631261.21498108 -851343581.972229 0 0 0 0 -181902649.11543274 1745725921.6828918 0 1745725921.6828918 -201488380.29484558 0 0 0 0 -21143249.953933716 642240765.51879883 0 642240765.51879883 827242742.3389473 0 0 0 0 -2726267.3749795631 2064760.8766085282 0 2064760.8766085282 -570820.10932075977 0 0 0 0 -670323635.4159174 -3893111.1411705017 0 -3893111.1411705017 920168072.55441284 0 0 0 0 -114856458.72399139 -42304637.426925659 0 -42304637.426925659 9713811.3003234863 0 0 0 0 113912039.40319061 -23058970.453399658 0 -23058970.453399658 -385633614.11535645 0 0 0 0 92695453.966201782 158355984.02050781 0 158355984.02050781 -1104503536.0752258 0 0 0 0 96779880.258331299 131384644.83860779 0 131384644.83860779 -694235527.24078369 0 0 0 0 29938998.483886719 476334909.95979309 0 476334909.95979309 -749775710.5050354 0 0 0 0 -195650769.4744072 454933177.39400864 0 454933177.39400864 -583114425.42016602 0 0 0 0 137990527.9480381 483785710.8005209 0 483785710.8005209 460025857.29217529 0 0 0 0 153761730.83068848 324524506.22340393 0 324524506.22340393 72640122.60798645 0 0 0 0 282949898.03651714 735155947.15352821 0 735155947.15352821 624325517.68528748 0 0 0 0 239003034.04951477 515301626.97324753 0 515301626.97324753 420472138.88995361 0 0 0 0 227033669.51029205 639536459.972435 0 639536459.972435 104648146.81173706 0 0 0 0 -50507309.076316833 796339709.03427887 0 796339709.03427887 475425073.72824097 0 0 0 0 -157054032.62549591 262396867.14045715 0 262396867.14045715 271047420.67179108 0 0 0 0 -193410935.00269318 364112138.68128204 0 364112138.68128204 2928156.2755584717 0 0 0 0 -438449977.05835724 203592652.55265045 0 203592652.55265045 39813744.179718018 0 0 0 0 -69916074.18903923 647875617.03483009 0 647875617.03483009 -642716121.4460144 0 0 0 0 -324850945.54766846 303189639.44796753 0 303189639.44796753 66076277.507217407 0 0 0 0 -349835735.52532959 229945586.93783569 0 229945586.93783569 -137526830.0821991 0 0 0 0 5897856.5713496655 1454929.7116098478 0 1454929.7116098478 -4417540.198178485 0 0 0 0 415215.48266611807 4345101.7126380652 0 4345101.7126380652 -3597845.2311700135 0 0 0 0 -375748326.1547699 142183530.51312256 0 142183530.51312256 -32201311.395874023 0 0 0 0 -396956897.91082001 157608550.07887268 0 157608550.07887268 48384791.628234863 0 0 0 0 -1133461919.3019409 104393659.11569214 0 104393659.11569214 76096768.734876633 0 0 0 0 -224572.58992983215 1908324.3954710737 0 1908324.3954710737 -987251.06485445797 0 0 0 0 -102843033.17498398 -134625745.45242691 0 -134625745.45242691 -149890219.32658386 0 0 0 0 -104302541.22442627 -416474064.69423676 0 -416474064.69423676 221019594.71421814 0 0 0 0 14551713.77923584 -230008078.3953476 0 -230008078.3953476 -480762533.57118034 0 0 0 0 -310836818.96324921 89792975.382411957 0 89792975.382411957 55750405.750305176 0 0 0 0 -506522983.76789093 465526277.06188965 0 465526277.06188965 -326901273.62670898 0 0 0 0 -163005812.6679287 74601766.214742661 0 74601766.214742661 259613743.19561768 0 0 0 0 -151382945.16564941 54551121.786308289 0 54551121.786308289 -231276733.89933777 0 0 0 0 56740225.578048706 204215841.30252075 0 204215841.30252075 -258045134.18692017 0 0 0 0 -547582167.21200562 43918241.639175415 0 43918241.639175415 302353738.94081116 0 0 0 0 -9744254.6974334717 207172375.10374451 0 207172375.10374451 341834813.48525238 0 0 0 0 -3075847.6113891602 215010557.17623901 0 215010557.17623901 304969236.51837158 0 0 0 0 110147956.77337265 -61708228.661750793 0 -61708228.661750793 39848215.410339355 0 0 0 0 1027474.5916860551 -427023.47417392209 0 -427023.47417392209 -1369813.0396587849 0 0 0 0 77618063.254745483 145099639.75640869 0 145099639.75640869 102059430.47330475 0 0 0 0 112239992.88858032 163474975.43754578 0 163474975.43754578 271103474.15032959 0 0 0 0 203484683.91278076 133003839.86351776 0 133003839.86351776 257802152.44302368 0 0 0 0 208655868.02832699 -103330664.91821861 0 -103330664.91821861 -19452339.812042236 0 0 0 0 262704402.71003723 247124237.20162964 0 247124237.20162964 17331198.999404907 0 0 0 0 112695440.82316589 79244278.673080444 0 79244278.673080444 -178660544.58601379 0 0 0 0 112197966.3170166 -53361940.791976929 0 -53361940.791976929 -68360654.22908783 0 0 0 0 23665952.98727417 -37491633.823013306 0 -37491633.823013306 33857900.785873413 0 0 0 0 17724086.230400085 -19124797.370445251 0 -19124797.370445251 -20667438.150751114 0 0 0 0 2824897.6581825763 -1110083.1229518354 0 -1110083.1229518354 -4486147.1215570047 0 0 0 0 19234142.555099487 -12493970.68094635 0 -12493970.68094635 1508827.7921066284 0 0 0 0 40766063.600509644 -19630094.297821045 0 -19630094.297821045 -58731262.717102051 0 0 0 0 -2012613.5698719025 -14208660.779647827 0 -14208660.779647827 -57523213.964950562 0 0 0 0 201816262.90464783 159926424.00854492 0 159926424.00854492 -137924332.32131195 0 0 0 0 2988842.9413146973 13664883.37052536 0 13664883.37052536 -61166193.33531189 0 0 0 0 163704790.07196808 333954934.80414581 0 333954934.80414581 108052360.92294312 0 0 0 0 170875721.98813629 242024324.45630646 0 242024324.45630646 -394590541.63365936 0 0 0 0 107900413.83827209 111989798.67100525 0 111989798.67100525 -42636877.113960266 0 0 0 0 81685405.706596375 148358390.53862762 0 148358390.53862762 100186568.10912323 0 0 0 0 158600036.19282532 230821453.07310486 0 230821453.07310486 6635444.9152526855 0 0 0 0 185941412.88648987 224847679.80259705 0 224847679.80259705 -8532905.7811737061 0 0 0 0 70147072.754302979 152747643.18919373 0 152747643.18919373 24806112.699035645 0 0 0 0 122171694.7792511 128581610.17681885 0 128581610.17681885 31132634.029937744 0 0 0 0 24789021.987182617 -26452279.138031006 0 -26452279.138031006 -11462274.567016602 0 0 0 0 239122764.38696671 115721328.20539093 0 115721328.20539093 6874743.3273620605 0 0 0 0 -64938689.346611023 44856006.873794556 0 44856006.873794556 191171257.16456604 0 0 0 0 -15710491.77490291 5534724.8411422893 0 5534724.8411422893 1989877.7208104231 0 0 0 0 -383538040.8272171 419940951.24560547 0 419940951.24560547 -637035035.38831329 0 0 0 0 143349.0676812157 1082210.0342788547 0 1082210.0342788547 -1860323.0398667976 0 0 0 0 42923335.934020996 -146280175.89849854 0 -146280175.89849854 -969930426.87434769 0 0 0 0 -65206153.927833557 583212573.56208801 0 583212573.56208801 116921007.14315796 0 0 0 0 131955326.52071381 68304807.088539124 0 68304807.088539124 -1069531611.9759979 0 0 0 0 31182159.625652313 70389182.23525238 0 70389182.23525238 -708043429.83143616 0 0 0 0 30188500.056842804 224835533.99008179 0 224835533.99008179 518132623.84350586 0 0 0 0 -11842072.213216305 3972459.1829174608 0 3972459.1829174608 526985.71920332685 0 0 0 0 -187391378.139534 -19641171.796581268 0 -19641171.796581268 -493190821.84231567 0 0 0 0 145495521.30732727 94152307.99962616 0 94152307.99962616 -1044536594.7437148 0 0 0 0 -29094780.669425011 183275678.06516743 0 183275678.06516743 -83926059.125946045 0 0 0 0 95116387.149230957 179920477.33586121 0 179920477.33586121 -452733738.79174805 0 0 0 0 -1370067.288448751 2432625.4701574668 0 2432625.4701574668 -208645.37617387623 0 0 0 0 -88272723.132500648 -50319396.144997597 0 -50319396.144997597 97820615.017379761 0 0 0 0 -125693969.61291504 11182044.930908203 0 11182044.930908203 -4903899.254737854 0 0 0 0 -334455713.17462158 -88120604.442123413 0 -88120604.442123413 11791055.010101318 0 0 0 0 -62636.761993996799 232751.23840757832 0 232751.23840757832 -62052.249549072236 0 0 0 0 358785440.31143188 256615680.75187683 0 256615680.75187683 -18218911.336914062 0 0 0 0 342369436.5705719 368917204.34873962 0 368917204.34873962 205664514.63763428 0 0 0 0 448215153.51326752 294000848.07476807 0 294000848.07476807 184286686.317173 0 0 0 0 81569.026204869151 2811639.9675003439 0 2811639.9675003439 -3885877.6616881043 0 0 0 0 114648621.42132187 71038283.273090363 0 71038283.273090363 210548472.22393799 0 0 0 0 -11859015.904983521 215636961.36846161 0 215636961.36846161 120077222.55194092 0 0 0 0 -80879295.4506073 233246626.80097961 0 233246626.80097961 331225224.88062286 0 0 0 0 64960813.360839844 -282319416.09338379 0 -282319416.09338379 -456253084.54022217 0 0 0 0 -752992252.63261604 -290637731.4994154 0 -290637731.4994154 -706198050.3821106 0 0 0 0 -2547650.2825317383 296827547.88523865 0 296827547.88523865 -635690838.75460815 0 0 0 0 -368229315.94710541 634416594.79305649 0 634416594.79305649 -688504639.93489075 0 0 0 0 -756751613.99646759 232163836.48243713 0 232163836.48243713 143283509.32038879 0 0 0 0 -494965863.72193718 -271304970.36701202 0 -271304970.36701202 869471948.31063843 0 0 0 0 -2864518.1383674443 -148424.55987997353 0 -148424.55987997353 -72779.119625966065 0 0 0 0 -991499744.49549103 699438561.92033386 0 699438561.92033386 -547398132.33760071 0 0 0 0 261969222.70117188 278656610.21138763 0 278656610.21138763 -2118687069.2283783 0 0 0 0 -343484452.91905212 -106319956.06521606 0 -106319956.06521606 -790492054.19116211 0 0 0 0 -7789953.1997296885 1726801.842154026 0 1726801.842154026 23599.185063383076 0 0 0 0 -599938653.918293 297220332.62974548 0 297220332.62974548 1103175950.1320801 0 0 0 0 248659422.95703888 115172550.07157898 0 115172550.07157898 -1393897482.8767691 0 0 0 0 -1916035.6214697063 1156540.2821590826 0 1156540.2821590826 63196.780504550785 0 0 0 0 -196254685.489645 -130926842.48942757 0 -130926842.48942757 299217544.54960632 0 0 0 0 -193328387.16293335 373846100.29823303 0 373846100.29823303 -342848188.72854614 0 0 0 0 -131944537.69859314 224685618.2681427 0 224685618.2681427 -116014608.59564209 0 0 0 0 -288746404.5724144 306693840.23048782 0 306693840.23048782 -220329967.13431549 0 0 0 0 347565117.97109985 311113481.86729431 0 311113481.86729431 -670303728.2291069 0 0 0 0 -556290179.32154083 -415044731.79189682 0 -415044731.79189682 443730947.7734375 0 0 0 0 -816418.94452183694 179313.12900973856 0 179313.12900973856 -126624.33834344894 0 0 0 0 -298927183.98635101 668247771.23913574 0 668247771.23913574 -985664252.37492371 0 0 0 0 -860078054.57428741 349492390.83895111 0 349492390.83895111 52134140.903837204 0 0 0 0 -95061450.454742432 -20527582.126037598 0 -20527582.126037598 -75216242.982971191 0 0 0 0 -127281892.97883606 -239292948.97548294 0 -239292948.97548294 -482730584.21376038 0 0 0 0 -76741120.5069561 -171715941.60573196 0 -171715941.60573196 226662592.2164917 0 0 0 0 -183303451.41863251 25777192.610679626 0 25777192.610679626 220562055.13430786 0 0 0 0 -188577462.57590389 88276387.616053581 0 88276387.616053581 289092479.85185242 0 0 0 0 -381839169.22987366 -6322193.270450592 0 -6322193.270450592 242798937.24749756 0 0 0 0 -770564.55943797529 219007.19859053195 0 219007.19859053195 20214.530769737437 0 0 0 0 93288502.50466156 43938778.493049622 0 43938778.493049622 -51686256.243083954 0 0 0 0 -42270177.858856201 -114766004.88172913 0 -114766004.88172913 -47848122.19984436 0 0 0 0 71742960.70741272 256667071.52071381 0 256667071.52071381 -290167874.57540894 0 0 0 0 -546208.63719193637 215155.54712101817 0 215155.54712101817 -15903.877758195624 0 0 0 0 -205034676.15615082 464113131.90922546 0 464113131.90922546 -347071527.93312073 0 0 0 0 -676076143.19047546 442338882.491745 0 442338882.491745 -116123300.00409353 0 0 0 0 -699555846.06176758 652728064.38383484 0 652728064.38383484 -320495563.66244507 0 0 0 0 -388212880.77008057 179540606.4240036 0 179540606.4240036 264916308.9602356 0 0 0 0 -493426268.49475098 -116435923.86683655 0 -116435923.86683655 -231848212.0597229 0 0 0 0 -389591928.80265808 8847512.2241134644 0 8847512.2241134644 19958465.237487793 0 0 0 0 -134149398.54017639 128133001.65397644 0 128133001.65397644 -105444942.59243774 0 0 0 0 -36784736.868143082 137318487.86198425 0 137318487.86198425 53579364.17616272 0 0 0 0 -66216755.688423157 12164967.358249664 0 12164967.358249664 176434568.34786224 0 0 0 0 59512763.244728088 -102105526.62747002 0 -102105526.62747002 -41544764.505706787 0 0 0 0 118703739.98683929 10598026.040454865 0 10598026.040454865 -67985180.86529541 0 0 0 0 -2974409.3711929321 27923193.735877991 0 27923193.735877991 8317959.5757293701 0 0 0 0 27473195.379039764 3491753.6947631836 0 3491753.6947631836 18679353.414276123 0 0 0 0 27907373.511367798 -29278903.82157135 0 -29278903.82157135 170204306.29063416 0 0 0 0 13308791.846435547 4175218.3795623779 0 4175218.3795623779 69898050.72102356 0 0 0 0 47557244.129020691 -5559503.1700897217 0 -5559503.1700897217 16070481.765335083 0 0 0 0 -12008863.255058289 -16696340.21230793 0 -16696340.21230793 15309704.343963623 0 0 0 0 250959082.30077362 114214423.09803009 0 114214423.09803009 -230126911.41444397 0 0 0 0 196065788.96595764 130661180.21619415 0 130661180.21619415 -128837861.50613403 0 0 0 0 174175984.41831207 4956604.7663803101 0 4956604.7663803101 -157197804.52485657 0 0 0 0 26286432.810905457 75966160.546890259 0 75966160.546890259 -139344870.80174255 0 0 0 0 7107476.6270370483 161318438.58930779 0 161318438.58930779 -55851964.343933105 0 0 0 0 215467224.48774719 20366844.171539307 0 20366844.171539307 31151594.87184906 0 0 0 0 191197909.13450623 118226771.96014404 0 118226771.96014404 156919833.80685425 0 0 0 0 202768748.81114197 281354408.35342407 0 281354408.35342407 430208773.78337097 0 0 0 0 220351447.27360535 62783063.976806641 0 62783063.976806641 -37739108.692230225 0 0 0 0 471254465.3762207 197310449.17134094 0 197310449.17134094 5893464.1086730957 0 0 0 0 -1673051.2003912963 1666041.5197132677 0 1666041.5197132677 -721234.51139932126 0 0 0 0 94512093.617965698 91105752.5572052 0 91105752.5572052 -30257244.785400391 0 0 0 0 206043235.63121223 285956098.60661316 0 285956098.60661316 206261743.72134399 0 0 0 0 203601810.21794128 198916844.37980652 0 198916844.37980652 252948421.33315277 0 0 0 0 306588213.04823303 109030095.66368103 0 109030095.66368103 -137656980.50653076 0 0 0 0 8282052.3598480225 -60613040.348434448 0 -60613040.348434448 -44435849.406318665 0 0 0 0 -784040794.39604187 319941182.395401 0 319941182.395401 -105086656.44799805 0 0 0 0 -416225114.24420166 -157201301.89620972 0 -157201301.89620972 108954372.98455811 0 0 0 0 -541679.52211032063 655034.05789887905 0 655034.05789887905 -495193.93646470457 0 0 0 0 220637334.80809021 215333102.53527832 0 215333102.53527832 -515152497.24990845 0 0 0 0 -151810991.83486938 642198883.57357788 0 642198883.57357788 -565896889.7506237 0 0 0 0 41986447.418457031 294187937.7767334 0 294187937.7767334 -250458533.31916809 0 0 0 0 -863932208.07498932 328751465.92176819 0 328751465.92176819 -51150082.43182373 0 0 0 0 213086449.21075439 101640012.18159485 0 101640012.18159485 -135769567.43968964 0 0 0 0 218932002.98733747 27248396.588393569 0 27248396.588393569 -73818598.318115234 0 0 0 0 263020172.34248352 231078897.99072266 0 231078897.99072266 -447588064.65820312 0 0 0 0 121501100.55586433 278254773.49826622 0 278254773.49826622 -251102973.44424438 0 0 0 0 89948371.055376053 183249512.7795105 0 183249512.7795105 -200390088.89373779 0 0 0 0 -184675083.72770691 316188375.41320801 0 316188375.41320801 -47983527.025161743 0 0 0 0 -145055525.75582886 255819304.4803009 0 255819304.4803009 -58618435.33523941 0 0 0 0 -24735406.472625732 171315923.20812225 0 171315923.20812225 5144495.1852111816 0 0 0 0 -22310027.486824036 177075104.8405838 0 177075104.8405838 -51469523.678962708 0 0 0 0 59764569.26410675 143585768.37757111 0 143585768.37757111 -127463403.80284119 0 0 0 0 64967146.0896945 95952932.355377674 0 95952932.355377674 -52174776.439559937 0 0 0 0 18084462.847137451 33655492.006977081 0 33655492.006977081 -132521206.88163757 0 0 0 0 -4069365.2951431274 106634795.25888824 0 106634795.25888824 -52866592.949326992 0 0 0 0 7477891.9629592896 72893322.789733887 0 72893322.789733887 -25673249.233314514 0 0 0 0 -4076060.7821388245 70468997.973602295 0 70468997.973602295 18001771.917053223 0 0 0 0 -38849020.126173019 114725610.82411575 0 114725610.82411575 -24842822.894927979 0 0 0 0 -12468532.532783508 13002631.151512146 0 13002631.151512146 -155337909.85798645 0 0 0 0 -23007291.882301331 76926477.53805542 0 76926477.53805542 -25264599.784626007 0 0 0 0 -9000326.0463752747 6304121.8062553406 0 6304121.8062553406 -251968275.24854279 0 0 0 0 -99695913.920936584 87446877.564819336 0 87446877.564819336 -185349654.57305908 0 0 0 0 22012528.049972534 150907468.53433609 0 150907468.53433609 -441728889.03488159 0 0 0 0 -1447342.197021544 921666.60665944591 0 921666.60665944591 297324.51492385939 0 0 0 0 36228722.431872368 201342947.33398724 0 201342947.33398724 -405774155.76266479 0 0 0 0 -490399.50214925408 442251.69571067765 0 442251.69571067765 151746.95639805496 0 0 0 0 22306268.658065796 217833571.41366577 0 217833571.41366577 -249989318.48397827 0 0 0 0 -44601696.830070496 145928093.86737823 0 145928093.86737823 -314155069.00358582 0 0 0 0 -87884206.799377441 128314978.34011841 0 128314978.34011841 -134562076.29737091 0 0 0 0 -83860371.365653992 138652534.92266846 0 138652534.92266846 -212546481.67254639 0 0 0 0 31922460.824577332 -25893681.360519409 0 -25893681.360519409 -241009858.21717072 0 0 0 0 -34525207.59274292 179917475.94943237 0 179917475.94943237 -287935285.67181396 0 0 0 0 -2837047.1944533102 922918.42513511702 0 922918.42513511702 372283.17888243124 0 0 0 0 163581186.71697998 30917858.013046265 0 30917858.013046265 -289120026.68452072 0 0 0 0 40723398.869625807 305027718.32583606 0 305027718.32583606 -186145213.66723633 0 0 0 0 525429299.53914642 152787644.86337662 0 152787644.86337662 -168840667.68370819 0 0 0 0 -876475.40345235635 334566.80716839805 0 334566.80716839805 -261201.6480435133 0 0 0 0 18041461.473381042 127373714.71439362 0 127373714.71439362 76346133.461532593 0 0 0 0 100908505.41327667 82251713.53162384 0 82251713.53162384 -23129129.26322937 0 0 0 0 -4182762.1579203643 3541748.8096629903 0 3541748.8096629903 518454.13982008398 0 0 0 0 315213867.13641357 184278296.98361969 0 184278296.98361969 -521422.19927978516 0 0 0 0 105879548.21536064 155030769.52623463 0 155030769.52623463 135358054.41362 0 0 0 0 -239096346.66262817 120201968.24123383 0 120201968.24123383 120625375.5486908 0 0 0 0 -163798656.74785614 19607211.22605896 0 19607211.22605896 -125643894.83108521 0 0 0 0 17933291.341400146 257597278.54474926 0 257597278.54474926 6316446.5630645752 0 0 0 0 -180238665.97814178 48576649.769287109 0 48576649.769287109 -88588261.886810303 0 0 0 0 -250884056.35058594 66248703.063514709 0 66248703.063514709 -91791506.311897278 0 0 0 0 -664723215.56963348 62226762.503326416 0 62226762.503326416 77721982.398071289 0 0 0 0 -181199680.82365847 243398849.71232462 0 243398849.71232462 61949184.899780273 0 0 0 0 -189961753.22160721 187343833.12469482 0 187343833.12469482 209692202.05738831 0 0 0 0 99548072.191495895 778836988.15294266 0 778836988.15294266 277800462.03633237 0 0 0 0 -52748772.678097248 676924855.76820278 0 676924855.76820278 316819123.7068634 0 0 0 0 -23201732.930008899 33202127.617397621 0 33202127.617397621 -36257296.889501281 0 0 0 0 459006944.84579372 248240057.88954163 0 248240057.88954163 -673202394.28143311 0 0 0 0 -737577283.79512787 432547881.39916992 0 432547881.39916992 436495170.02464676 0 0 0 0 44905410.229319975 383636762.38261747 0 383636762.38261747 262650541.83443451 0 0 0 0 430410947.06122589 605654150.52232361 0 605654150.52232361 -46587321.859207153 0 0 0 0 125723035.75249481 144463777.5144043 0 144463777.5144043 130047074.69009018 0 0 0 0 -22541923.267058007 33532018.184243504 0 33532018.184243504 -36250334.723170541 0 0 0 0 168836567.03192902 106394353.06137848 0 106394353.06137848 -332941923.48394775 0 0 0 0 -124749943.436203 31646014.535598755 0 31646014.535598755 -222630989.95503235 0 0 0 0 -239354892.86985397 365880762.36141586 0 365880762.36141586 -663712418.0138855 0 0 0 0 -87824805.640026093 -42104063.047176361 0 -42104063.047176361 13537663.395812988 0 0 0 0 20438975.119865417 8900720.5602722168 0 8900720.5602722168 -27402404.328186035 0 0 0 0 -20175145.17609024 -140292409.8445549 0 -140292409.8445549 -173068887.70507812 0 0 0 0 116682678.13209534 -8367967.8734130859 0 -8367967.8734130859 -62543177.337970734 0 0 0 0 147713946.29327393 -30939186.693153381 0 -30939186.693153381 -54946869.962463379 0 0 0 0 -100358741.36016846 400185997.53343201 0 400185997.53343201 -445361415.32940674 0 0 0 0 -252146435.66291809 1561550567.982254 0 1561550567.982254 -1215035667.7847252 0 0 0 0 779559832.83340454 594059719.3354187 0 594059719.3354187 -866037603.70422363 0 0 0 0 618815216.95655823 70501682.045471191 0 70501682.045471191 -567378502.46716309 0 0 0 0 -1578306152.9341431 322353420.88360596 0 322353420.88360596 -920621515.34008789 0 0 0 0 -2051964.0338611193 704274.09433467314 0 704274.09433467314 349574.17608000711 0 0 0 0 -8659163.212802887 470231521.62351227 0 470231521.62351227 -1227696193.2242126 0 0 0 0 30551182.177246094 -94429565.526107788 0 -94429565.526107788 -920003866.49861145 0 0 0 0 -2094472914.7834549 639796096.76284027 0 639796096.76284027 30170866.066986084 0 0 0 0 1795410.5123209339 1169245.6444812268 0 1169245.6444812268 -1760802.4457119107 0 0 0 0 -129676819.23143005 -242200622.71212769 0 -242200622.71212769 -246902681.79386139 0 0 0 0 -182357280.07923889 131857710.5793457 0 131857710.5793457 -67693147.138063431 0 0 0 0 -67895401.593399048 393149668.48574829 0 393149668.48574829 -401075220.50537109 0 0 0 0 -945907056.44006348 325690903.95732117 0 325690903.95732117 -72947660.67595911 0 0 0 0 -257090709.51622772 1013424155.9019623 0 1013424155.9019623 -801476147.79455566 0 0 0 0 154024863.26379395 406440951.27142334 0 406440951.27142334 -460712588.86190796 0 0 0 0 -100767411.29428101 170470042.54415131 0 170470042.54415131 -95218702.037139893 0 0 0 0 -103710711.73573303 173120988.50976562 0 173120988.50976562 -85574008.910919189 0 0 0 0 -354290559.78327179 272377367.72251129 0 272377367.72251129 -95302809.551605225 0 0 0 0 -162569383.36444473 210109485.20157623 0 210109485.20157623 -102653191.31585693 0 0 0 0 -81665943.942504883 15776473.570243835 0 15776473.570243835 -10471139.298084259 0 0 0 0 -198451588.58356094 123112069.65898895 0 123112069.65898895 -46250278.357177734 0 0 0 0 5460293.3637537844 3970647.8029548153 0 3970647.8029548153 -4123629.8511078656 0 0 0 0 12799901.177984057 16910637.355138436 0 16910637.355138436 888201.66150760651 0 0 0 0 15735166.983943939 22536331.055328369 0 22536331.055328369 2018744.8515396118 0 0 0 0 34647030.831920624 32867111.996749878 0 32867111.996749878 -5273994.9440612793 0 0 0 0 4725960.4644203186 31951133.790546417 0 31951133.790546417 9328148.7406005859 0 0 0 0 3036540.5313339233 26332886.326522827 0 26332886.326522827 580896.32757568359 0 0 0 0 12225558.902887192 16670144.102276634 0 16670144.102276634 1716990.8797216415 0 0 0 0 -11692420.681213379 29890626.768371582 0 29890626.768371582 -33945480.830347061 0 0 0 0 69523972.221633911 78189644.021560669 0 78189644.021560669 -142587367.28625488 0 0 0 0 8389613.0665130615 86219573.457336426 0 86219573.457336426 -61105773.805786133 0 0 0 0 -104525421.05187988 208657664.96153259 0 208657664.96153259 -155889355.04104614 0 0 0 0 -47439847.04675293 165495942.12295532 0 165495942.12295532 -146116058.01502991 0 0 0 0 -80348167.958404541 126213772.49555969 0 126213772.49555969 -22729826.336242676 0 0 0 0 50924778.174842834 -57909368.673431396 0 -57909368.673431396 -54176241.743341446 0 0 0 0 124603360.4259758 2725259.0848999023 0 2725259.0848999023 -50835075.483413696 0 0 0 0 -2013697.2205848694 -18900381.330780029 0 -18900381.330780029 -14655880.515930176 0 0 0 0 3621974.0302426964 243008.97258827463 0 243008.97258827463 -3643510.0884917006 0 0 0 0 17555332.406627972 1228942.7638811469 0 1228942.7638811469 -17821884.482823201 0 0 0 0 29732377.653549194 -16471975.159416199 0 -16471975.159416199 -19593076.209560394 0 0 0 0 48668435.237365723 -3384437.4619255066 0 -3384437.4619255066 -32183993.151550293 0 0 0 0 45308639.031715393 4646274.5994033813 0 4646274.5994033813 -50248554.577560425 0 0 0 0 37749596.190658569 17478220.301361084 0 17478220.301361084 -32281893.975434214 0 0 0 0 43671849.437492371 22884637.014411926 0 22884637.014411926 -54367176.767311096 0 0 0 0 20678991.988162369 2241708.3884558305 0 2241708.3884558305 -21803483.055750541 0 0 0 0 65039526.127693176 36657817.017292023 0 36657817.017292023 1805413.298614502 0 0 0 0 73049890.361591339 48143405.889919281 0 48143405.889919281 -8262259.2717895508 0 0 0 0 -33225359.937232971 44616138.393844604 0 44616138.393844604 39785063.200683594 0 0 0 0 177187022.05499268 -125502472.21411133 0 -125502472.21411133 -19905122.372253418 0 0 0 0 191458509.37525177 59955513.020111084 0 59955513.020111084 66704493.972961426 0 0 0 0 1045693.7152695823 1397646.2901448235 0 1397646.2901448235 -149613.5805029422 0 0 0 0 -47753360.899169922 105036934.92704773 0 105036934.92704773 112976701.1895752 0 0 0 0 14474976.345581055 92659315.741729736 0 92659315.741729736 61200376.325195312 0 0 0 0 6155224.2101535797 136773229.83201981 0 136773229.83201981 90850158.905456543 0 0 0 0 -96389211.613616943 64594271.264373779 0 64594271.264373779 94300401.066711426 0 0 0 0 235707163.47481155 67205626.290863037 0 67205626.290863037 -27946943.536651611 0 0 0 0 377345.06562654115 263260.96458253264 0 263260.96458253264 -2057779.7270144671 0 0 0 0 127445448.59033203 66438244.400787354 0 66438244.400787354 126442068.8918457 0 0 0 0 -1087719.6839837627 20035288.478707138 0 20035288.478707138 -9547067.5938769579 0 0 0 0 -16475825.385029793 46938670.877914429 0 46938670.877914429 15097988.35295105 0 0 0 0 36793077.068912983 49223744.72577858 0 49223744.72577858 -37696901.127807617 0 0 0 0 -350279.73056411743 15509872.371459961 0 15509872.371459961 -1199005.7481689453 0 0 0 0 2439.272834777832 8832981.8235321045 0 8832981.8235321045 1300742.1295928955 0 0 0 0 7465260.7419505939 10614553.760138802 0 10614553.760138802 1917450.0092126802 0 0 0 0 4516878.9545516968 4952321.8766174316 0 4952321.8766174316 -274519.24005126953 0 0 0 0 6276087.3655803315 9898746.4109354131 0 9898746.4109354131 3636898.9018621147 0 0 0 0 27750327.183670044 6704059.715927124 0 6704059.715927124 23425875.136535645 0 0 0 0 332532.6627416499 14681807.36872034 0 14681807.36872034 4628756.2396483347 0 0 0 0 425056.80361010693 1867906.3066437244 0 1867906.3066437244 1730302.6377483159 0 0 0 0 1634719.4092407227 50406474.99458313 0 50406474.99458313 -14372781.872070312 0 0 0 0 -778763.53029632568 15241037.608062744 0 15241037.608062744 -1299101.5046691895 0 0 0 0 -5682909.4787368774 17560929.381256104 0 17560929.381256104 16070631.593841553 0 0 0 0 -17529115.641326904 -2954996.4762573242 0 -2954996.4762573242 2690538.3715820312 0 0 0 0 -17207837.639816284 45001029.533218384 0 45001029.533218384 38638389.960693359 0 0 0 0 -5589036.221446991 13791181.456329346 0 13791181.456329346 7040793.3172302246 0 0 0 0 41064538.22013855 2990907.2418212891 0 2990907.2418212891 8009467.842590332 0 0 0 0 523333.84589322656 3155838.6344100386 0 3155838.6344100386 -1849522.1078239754 0 0 0 0 4395884.9788207393 5738868.7652622312 0 5738868.7652622312 -1377637.2918549478 0 0 0 0 -12214947.516235352 33220416.730133057 0 33220416.730133057 61214372.16607666 0 0 0 0 59846858.463043213 -46984636.117416382 0 -46984636.117416382 42325038.110275269 0 0 0 0 -99715094.942268372 16147984.784609795 0 16147984.784609795 72966153.350219727 0 0 0 0 -54699166.426620483 -4213195.6997070312 0 -4213195.6997070312 34658370.439208984 0 0 0 0 -295515145.60559464 193646673.17333984 0 193646673.17333984 -11547588.614776611 0 0 0 0 19353238.432434082 -3159113.3016357422 0 -3159113.3016357422 -3376063.0093994141 0 0 0 0 -430584.45756011456 1177810.4971665442 0 1177810.4971665442 -148933.26173327863 0 0 0 0 11510694.197160322 20631210.436635889 0 20631210.436635889 -892581.22619643714 0 0 0 0 1631358.846686542 5192346.52295921 0 5192346.52295921 -3045034.1797635257 0 0 0 0 -173278.04731369019 3775907.0717926025 0 3775907.0717926025 1798894.7572021484 0 0 0 0 6301407.5486875754 12306379.866928779 0 12306379.866928779 2306210.9943177104 0 0 0 0 3694749.9043910159 13389006.417886369 0 13389006.417886369 5709279.972863704 0 0 0 0 3699664.0184745789 10782003.13558197 0 10782003.13558197 407976.18270874023 0 0 0 0 -1630737.8372039795 19061006.953582764 0 19061006.953582764 15325631.245544434 0 0 0 0 1350624.5222167969 9244713.563659668 0 9244713.563659668 2397655.4510803223 0 0 0 0 -1572511.6628910676 7435013.831438873 0 7435013.831438873 -2207648.1335755289 0 0 0 0 1363702.1099643707 9787332.0434074402 0 9787332.0434074402 -2498864.6242370605 0 0 0 0 -2545156.192565918 10945924.195556641 0 10945924.195556641 -5925610.8467254639 0 0 0 0 -3688752.6212539673 7098567.3195724487 0 7098567.3195724487 -3960107.4558105469 0 0 0 0 -503091.29257202148 13609869.172241211 0 13609869.172241211 -5720692.3529281616 0 0 0 0 -188486.25501132011 11388442.355757713 0 11388442.355757713 -898824.57025146484 0 0 0 0 11341667.408613745 26862429.013020858 0 26862429.013020858 4733067.3676158488 0 0 0 0 -1239588.8488443345 10421853.162915967 0 10421853.162915967 8702181.7730726004 0 0 0 0 -1563.003440849483 75778.777345050126 0 75778.777345050126 -137128.37854361534 0 0 0 0 5085157.550491333 201201714.33705139 0 201201714.33705139 17378493.242919922 0 0 0 0 -2719702.3889462017 10289788.417194286 0 10289788.417194286 7637018.5531300008 0 0 0 0 -3288394.914894104 8074262.5696105957 0 8074262.5696105957 -3565294.4694519043 0 0 0 0 171116415.52459717 143011924.65945435 0 143011924.65945435 -490963941.60855103 0 0 0 0 -903840308.05953979 -19704363.722015381 0 -19704363.722015381 -33414319.460632324 0 0 0 0 187689.4588958323 424661.82572890818 0 424661.82572890818 375966.92572982609 0 0 0 0 4034544.5848693848 40023551.30770874 0 40023551.30770874 -15439157.001739502 0 0 0 0 9384741.5450473838 10913734.346601814 0 10913734.346601814 1033578.6745604724 0 0 0 0 570621.61445994675 3543662.3780877125 0 3543662.3780877125 -4461575.8381448835 0 0 0 0 -47034191.734954834 186649958.27101135 0 186649958.27101135 -149235369.4229126 0 0 0 0 -64388390.486831665 287740546.67103577 0 287740546.67103577 -89530647.579803467 0 0 0 0 -32278279.504623413 249237707.11105347 0 249237707.11105347 -197696169.60263062 0 0 0 0 41892241.057037354 392989949.98382568 0 392989949.98382568 -192107745.52758789 0 0 0 0 -6824067.3780975342 20463741.760131836 0 20463741.760131836 -2772233.9644775391 0 0 0 0 -26048133.237278938 12444584.371012688 0 12444584.371012688 -34742807.22845459 0 0 0 0 10420507.109069824 20273105.517700195 0 20273105.517700195 -19082306.052856445 0 0 0 0 -1466551.1937824935 17548603.240123894 0 17548603.240123894 3232609.9079068834 0 0 0 0 8464784.0876295026 17493769.6408723 0 17493769.6408723 -11881600.436001271 0 0 0 0 -1072166.7310333252 14057689.738952637 0 14057689.738952637 -4499097.7563476562 0 0 0 0 -1951083.9199943542 21347538.886592865 0 21347538.886592865 -5084620.0847167969 0 0 0 0 29916.351897835732 23134138.99879219 0 23134138.99879219 10009008.123312736 0 0 0 0 -18239477.692093097 8745605.1539095715 0 8745605.1539095715 5298931.4864440961 0 0 0 0 -6083155.7225578204 14744707.536801124 0 14744707.536801124 2155518.60890086 0 0 0 0 -49428963.370498657 127956822.71482086 0 127956822.71482086 -273812447.25056458 0 0 0 0 -33282077.076370239 -36119360.487487793 0 -36119360.487487793 -78728312.72505188 0 0 0 0 -33888984.304397583 17423187.022926331 0 17423187.022926331 36717414.325927734 0 0 0 0 84763862.786087036 -315078893.43395996 0 -315078893.43395996 -398165001.30767822 0 0 0 0 171307704.90502167 -346268887.59770966 0 -346268887.59770966 -905566734.599823 0 0 0 0 286498828.7936554 127017691.4589386 0 127017691.4589386 -1256152472.0240326 0 0 0 0 224551228.62097168 173603086.36463928 0 173603086.36463928 -573597976.35066986 0 0 0 0 -8567737.634765625 397111502.35258484 0 397111502.35258484 -299272424.30905914 0 0 0 0 -18326906.710144043 699676313.11352539 0 699676313.11352539 -722218538.36850739 0 0 0 0 66733217.112228394 193758134.71672058 0 193758134.71672058 -236538757.46908569 0 0 0 0 104803005.21943665 219900605.27218628 0 219900605.27218628 -475116295.62696838 0 0 0 0 -32726381.506759644 243003683.09465027 0 243003683.09465027 -258076240.9536438 0 0 0 0 -26653205.451507568 294263639.10923767 0 294263639.10923767 -246386295.69243622 0 0 0 0 -15387348.368934631 336658546.30168152 0 336658546.30168152 -143940795.56643677 0 0 0 0 -42672271.222015381 259998728.52038574 0 259998728.52038574 -146928339.93852806 0 0 0 0 -24831725.320755005 383166809.45719147 0 383166809.45719147 -102169579.27391052 0 0 0 0 -35109593.47026062 199483569.55453491 0 199483569.55453491 109282435.22544861 0 0 0 0 -101870178.64457035 404376732.19525909 0 404376732.19525909 -70589287.054534912 0 0 0 0 -67248862.728729248 96686291.309906006 0 96686291.309906006 231470867.5058136 0 0 0 0 -36290044.026542664 80987634.534881592 0 80987634.534881592 64399609.900665283 0 0 0 0 -65500346.439529419 275653322.04940796 0 275653322.04940796 -45611464.659820557 0 0 0 0 -48056289.789966583 132019953.31385994 0 132019953.31385994 -114713648.19564819 0 0 0 0 -77981708.455375671 169976554.63657379 0 169976554.63657379 -161880166.84182739 0 0 0 0 -62939852.631126404 264186505.01556396 0 264186505.01556396 -114975457.17007446 0 0 0 0 -108960440.52864075 147139948.11343384 0 147139948.11343384 -150976742.89128876 0 0 0 0 -133386577.22777557 205360375.85342789 0 205360375.85342789 -201463606.98760986 0 0 0 0 -96672048.507598877 178094650.33837891 0 178094650.33837891 -181651005.62791443 0 0 0 0 -98397148.487228394 242448198.96217346 0 242448198.96217346 -231324812.48246765 0 0 0 0 -175628769.60205078 271212745.15409851 0 271212745.15409851 -213237103.90161133 0 0 0 0 -181302719.03960419 284917673.48896599 0 284917673.48896599 -157760272.30776978 0 0 0 0 -136575286.66638184 217218386.91491699 0 217218386.91491699 -171557567.16189575 0 0 0 0 -212641170.00022054 193182651.70891118 0 193182651.70891118 -277744197.57678223 0 0 0 0 -227696660.83702087 237228727.12400818 0 237228727.12400818 -175014750.7653923 0 0 0 0 -214805511.32427979 281697266.76765442 0 281697266.76765442 -174390624.96450806 0 0 0 0 -88697855.803092957 221303384.06317902 0 221303384.06317902 -169170784.14337158 0 0 0 0 -23676756.466667175 234504456.15022278 0 234504456.15022278 -285132583.23553467 0 0 0 0 44855502.600624084 27634697.244125366 0 27634697.244125366 -141774929.68951416 0 0 0 0 56377451.473968506 -21547194.308319092 0 -21547194.308319092 -28476765.001560211 0 0 0 0 -483799197.99014282 355086522.25630188 0 355086522.25630188 -325825275.21734619 0 0 0 0 -417614517.99412537 393087584.62979126 0 393087584.62979126 -323747819.17370605 0 0 0 0 2545071.9410141837 2359039.4255627487 0 2359039.4255627487 -2284588.3103259057 0 0 0 0 -322729257.38918304 37494564.873291016 0 37494564.873291016 -324606040.66784668 0 0 0 0 -74058831.171630859 237387586.73776245 0 237387586.73776245 -271114785.76361084 0 0 0 0 -38083819.026687622 244016028.97561646 0 244016028.97561646 -308076626.9355011 0 0 0 0 -27632221.775924683 304098070.14506531 0 304098070.14506531 -201573289.7739296 0 0 0 0 -29454119.544685364 292811346.43436432 0 292811346.43436432 -220861855.14645386 0 0 0 0 -82968854.102500916 221790806.84718323 0 221790806.84718323 -198739681.19134521 0 0 0 0 -84451600.070800781 224285093.1325531 0 224285093.1325531 -200716893.63532257 0 0 0 0 -142014451.06594086 151543458.08098602 0 151543458.08098602 -283791444.72399902 0 0 0 0 1346336.1978683472 739504503.33953285 0 739504503.33953285 337990540.97787476 0 0 0 0 547781428.34954834 386410314.80919647 0 386410314.80919647 -279692492.41070557 0 0 0 0 1315111.8785118647 2398844.3566620573 0 2398844.3566620573 -953613.77500370145 0 0 0 0 554424641.49615479 493516023.88266754 0 493516023.88266754 -95082681.946426392 0 0 0 0 -222991301.66003418 -71503844.08259201 0 -71503844.08259201 147940934.89004517 0 0 0 0 144902908.57554626 99532801.328365326 0 99532801.328365326 -100632450.02383423 0 0 0 0 1161132711.4258575 292924948.51430511 0 292924948.51430511 -28853351.003368378 0 0 0 0 1092831296.4965324 295470668.03818321 0 295470668.03818321 61318411.971786499 0 0 0 0 193007546.26589966 119088189.49785614 0 119088189.49785614 -66681808.746511459 0 0 0 0 5284664.0237617753 5524598.1853274554 0 5524598.1853274554 -3514631.7012098879 0 0 0 0 -154201713.03891373 -20497708.663517952 0 -20497708.663517952 34345216.358459473 0 0 0 0 858017815.94125366 45378144.7159729 0 45378144.7159729 491020927.95701599 0 0 0 0 11800022.999960387 12357965.747749478 0 12357965.747749478 -6792094.8117778301 0 0 0 0 -272665313.05352783 -99389681.08240509 0 -99389681.08240509 99190695.382965088 0 0 0 0 -167744595.94812012 -133361942.64800262 0 -133361942.64800262 8755597.8370361328 0 0 0 0 2493392826.4544983 654189303.30678558 0 654189303.30678558 -306027914.87989807 0 0 0 0 2057922790.8098755 2057931320.2029572 0 2057931320.2029572 847781293.33721542 0 0 0 0 1795774694.1320038 1172973570.4886475 0 1172973570.4886475 209059513.84820557 0 0 0 0 677547963.257061 1323323588.5803099 0 1323323588.5803099 621044713.06034851 0 0 0 0 1717072956.697464 1613243707.0903702 0 1613243707.0903702 1634600114.9644775 0 0 0 0 2286331.982544817 3496475735.8053184 0 3496475735.8053184 2316643329.4240723 0 0 0 0 1735197914.1402683 1867060651.4795728 0 1867060651.4795728 2941476470.6976013 0 0 0 0 3959499546.5306168 4101854008.6108437 0 4101854008.6108437 -3319459.0113754272 0 0 0 0 4395035628.0655212 3079126912.4276733 0 3079126912.4276733 93405610.393177032 0 0 0 0 7763140328.2574921 2898992496.0901794 0 2898992496.0901794 16271878.72479248 0 0 0 0 -76745741.762424469 11055747.175327301 0 11055747.175327301 34681522.033966064 0 0 0 0 7419913.4001424573 3186343.1141237691 0 3186343.1141237691 4355599.1720900089 0 0 0 0 4202094020.8308258 2773898596.2987671 0 2773898596.2987671 1006021733.586731 0 0 0 0 6473410.4084681477 7440547.7142752856 0 7440547.7142752856 12959801.719697788 0 0 0 0 -14856286.48601532 24960143.874404907 0 24960143.874404907 35717397.378295898 0 0 0 0 20550064.004730225 11623547.010375977 0 11623547.010375977 14481515.282588422 0 0 0 0 3786760646.3019104 3419464441.7542038 0 3419464441.7542038 862797669.31385803 0 0 0 0 3826465402.9201355 2881962185.6013031 0 2881962185.6013031 2770619765.644043 0 0 0 0 3632325.5662054867 3390816.5018305555 0 3390816.5018305555 879516.12161221169 0 0 0 0 3665315579.1925488 -861347492.82603359 0 -861347492.82603359 -419007890.49807739 0 0 0 0 4043090000.3444214 2493568458.3696899 0 2493568458.3696899 803447770.52062988 0 0 0 0 17555591.512451172 81339426.718475342 0 81339426.718475342 -94048920.154174805 0 0 0 0 22589440.214862302 20777780.990120724 0 20777780.990120724 6542122.3484549308 0 0 0 0 -361525309.63555908 -301417251.55464172 0 -301417251.55464172 -348075373.46697998 0 0 0 0 2208840977.6380005 113173870.53161621 0 113173870.53161621 -606577411.51628113 0 0 0 0 25961726.216304809 15517903.834520943 0 15517903.834520943 -3727342.1734827892 0 0 0 0 -311091664.94882202 994360967.30500793 0 994360967.30500793 269639940.6809082 0 0 0 0 -590427029.70407104 132611378.38802719 0 132611378.38802719 314286643.7802124 0 0 0 0 -1367924572.7254639 -630936747.89331055 0 -630936747.89331055 -430108886.35174561 0 0 0 0 744457.96377708018 1319056.6026339233 0 1319056.6026339233 1558364.8001674861 0 0 0 0 -151734214.765625 -499914675.80758667 0 -499914675.80758667 19087955.981010437 0 0 0 0 22228222.910118103 19388729.187496185 0 19388729.187496185 21589214.932678223 0 0 0 0 9650860.6790240034 7652637.9745630324 0 7652637.9745630324 5810441.6195831597 0 0 0 0 19127965.833511353 17144893.232513428 0 17144893.232513428 26358900.427403152 0 0 0 0 22207030.025634766 48579977.344482422 0 48579977.344482422 23348988.326019287 0 0 0 0 14698962.716705322 31641606.863731384 0 31641606.863731384 -3663919.6337738037 0 0 0 0 19277366.640045166 17716291.113891602 0 17716291.113891602 36733162.156677246 0 0 0 0 10267497.353012085 21223785.068359375 0 21223785.068359375 21971930.950363159 0 0 0 0 9341649.1394218802 3713399.6101792902 0 3713399.6101792902 -229724.58859224617 0 0 0 0 59250033.281433105 67989064.574581146 0 67989064.574581146 15318274.592254639 0 0 0 0 72129204.798950195 45840785.472759247 0 45840785.472759247 44147.935409545898 0 0 0 0 38889541.084869385 21329108.757843018 0 21329108.757843018 20798146.213436127 0 0 0 0 5962258.1992950439 57078185.917282104 0 57078185.917282104 -38616.456817626953 0 0 0 0 6975351.717376709 75604528.64453125 0 75604528.64453125 1129600.6644439697 0 0 0 0 26772647.225769043 80755544.474014282 0 80755544.474014282 -175940.38502502441 0 0 0 0 -43304082.639907837 18666555.430046082 0 18666555.430046082 20316396.639083862 0 0 0 0 8670728.360443376 2161415.0472137481 0 2161415.0472137481 -2111904.6266842782 0 0 0 0 16939048.088668823 29531032.278930664 0 29531032.278930664 22238601.388347626 0 0 0 0 32532284.837036133 67163444.334838867 0 67163444.334838867 -10462223.739990234 0 0 0 0 23163641.410705566 29472093.631904602 0 29472093.631904602 16640407.236328125 0 0 0 0 26482983.23324585 38122659.580352783 0 38122659.580352783 9169703.1233520508 0 0 0 0 20453216.695907593 22064193.110694885 0 22064193.110694885 17769353.389038086 0 0 0 0 24621687.121704102 25189862.227416992 0 25189862.227416992 14902122.973747253 0 0 0 0 -7013418.2296447754 251505380.43289185 0 251505380.43289185 -115651613.24594095 0 0 0 0 27612643.741911188 19107211.256026655 0 19107211.256026655 -2503667.6278280122 0 0 0 0 261088695.52561951 54742573.895353317 0 54742573.895353317 -19497079.349914551 0 0 0 0 211548169.28110886 -80340286.642686844 0 -80340286.642686844 150965282.23509216 0 0 0 0 28508827.09555921 19732595.572637871 0 19732595.572637871 -2179985.3716579797 0 0 0 0 -1597471145.4331055 254786250.22766113 0 254786250.22766113 188648377.34255981 0 0 0 0 151608153.34185791 11534445.961578369 0 11534445.961578369 67092826.858474731 0 0 0 0 35139491.371795654 25127676.723144531 0 25127676.723144531 -73926.199676513672 0 0 0 0 -272089391.7310549 -381138841.13374108 0 -381138841.13374108 -25027242.987380981 0 0 0 0 -101733.15809456259 1201646.9532835931 0 1201646.9532835931 -831422.36889901757 0 0 0 0 59556566.91204834 79645239.711837769 0 79645239.711837769 -33755094.178955078 0 0 0 0 3421414.8502551764 2146314.4635256454 0 2146314.4635256454 1608031.0368142724 0 0 0 0 -98559316.879013062 168294517.75524902 0 168294517.75524902 -9361742.2565155029 0 0 0 0 181319443.83158875 299618622.53046036 0 299618622.53046036 43751513.954711914 0 0 0 0 -37135363.604309082 -34942555.276794434 0 -34942555.276794434 41121159.071868896 0 0 0 0 -41204546.476531982 -40428339.052093506 0 -40428339.052093506 133853931.93041992 0 0 0 0 -278757777.88694096 -131823433.15698528 0 -131823433.15698528 47044887.087646484 0 0 0 0 -5700613.9540360272 6125158.4775493294 0 6125158.4775493294 3101086.8271640241 0 0 0 0 -294146777.31332397 29790090.877616882 0 29790090.877616882 76764788.758850098 0 0 0 0 -100888861.85354614 98590789.762329102 0 98590789.762329102 67902127.987380981 0 0 0 0 119747327.98134232 167897604.96878624 0 167897604.96878624 -65295540.084777832 0 0 0 0 -318717967.28941345 185261679.81855011 0 185261679.81855011 93518914.502334595 0 0 0 0 -1453254.0372650176 2070088.240775831 0 2070088.240775831 1611727.3372170925 0 0 0 0 1594456374.0918579 187904944.97451782 0 187904944.97451782 -372505669.66574097 0 0 0 0 465693720.29669189 -120975340.21322632 0 -120975340.21322632 76907652.606811523 0 0 0 0 259851676.52337646 313667614.67840576 0 313667614.67840576 191641198.09732819 0 0 0 0 189362975.10739136 89606989.010894775 0 89606989.010894775 104486357.10746956 0 0 0 0 -14258910.600997925 38286586.260177612 0 38286586.260177612 74358264.592086792 0 0 0 0 420119262.4972229 18209917.213136673 0 18209917.213136673 -46515428.439407349 0 0 0 0 -4186341.34698461 8393687.6941521093 0 8393687.6941521093 3582873.5059456378 0 0 0 0 -11230400.938013472 22650447.26035323 0 22650447.26035323 -15089136.361493878 0 0 0 0 395148914.04403687 176871059.1633606 0 176871059.1633606 -18754744.478719711 0 0 0 0 272703699.68101501 -47113912.940628052 0 -47113912.940628052 -81176082.691390991 0 0 0 0 -31494100.724105835 91257371.969791412 0 91257371.969791412 45079671.668617249 0 0 0 0 -64928872.873428345 19245858.062019348 0 19245858.062019348 -20589435.981887817 0 0 0 0 -164741700.18757629 82287885.961723328 0 82287885.961723328 59011361.131988525 0 0 0 0 -13557877.900969565 9686183.594706744 0 9686183.594706744 28630448.053438008 0 0 0 0 -13479505.822620392 -65086310.402641296 0 -65086310.402641296 34278795.25604248 0 0 0 0 21221729.427185059 83876751.21534729 0 83876751.21534729 7032385.9777832031 0 0 0 0 -9168877.609942846 21090454.985596411 0 21090454.985596411 17443500.173462093 0 0 0 0 230968637.76324463 -25671811.901550293 0 -25671811.901550293 226277224.88775635 0 0 0 0 95660113.834121704 198258955.78393555 0 198258955.78393555 175304717.57089233 0 0 0 0 -96639283.268615723 49973746.406326294 0 49973746.406326294 66530023.856887817 0 0 0 0 426683911.9777832 -197438731.33406067 0 -197438731.33406067 -9076171.8911132812 0 0 0 0 -95694491.521911621 21324574.180175781 0 21324574.180175781 243914049.05310059 0 0 0 0 -94724503.8046875 49374776.364501953 0 49374776.364501953 123676409.11459351 0 0 0 0 -107634268.6496582 81553376.851531982 0 81553376.851531982 21866740.724609375 0 0 0 0 -149106985.703125 -57232832.167556763 0 -57232832.167556763 -21642136.137298584 0 0 0 0 126511358.56286621 188961664.13439941 0 188961664.13439941 184280845.36645508 0 0 0 0 53833781.218170166 40769561.686325073 0 40769561.686325073 -77867146.289852142 0 0 0 0 10662668.131762698 4293561.7096906155 0 4293561.7096906155 990850.08596727252 0 0 0 0 321254904.29877472 220331104.1102066 0 220331104.1102066 354989183.90802002 0 0 0 0 312408826.37411499 161885304.08737183 0 161885304.08737183 67441808.79776001 0 0 0 0 64577085.324188232 51863284.079864502 0 51863284.079864502 -80539174.764190674 0 0 0 0 188251995.67919922 187571029.76373291 0 187571029.76373291 33072574.118103027 0 0 0 0 89379308.132095337 37616052.176651001 0 37616052.176651001 -30303195.169250488 0 0 0 0 316581361.64547729 237074368.87411499 0 237074368.87411499 48786470.647155762 0 0 0 0 403057468.58480835 185874135.34397888 0 185874135.34397888 -26352688.307678223 0 0 0 0 478205062.67016602 214473288.64227295 0 214473288.64227295 -45074235.973362923 0 0 0 0 477287188.17530823 226815611.38899231 0 226815611.38899231 34097998.761962891 0 0 0 0 410331835.11557007 216352030.40301514 0 216352030.40301514 68946319.924682617 0 0 0 0 525304031.31176758 171752336.41183472 0 171752336.41183472 -137123300.02740479 0 0 0 0 520599724.20492554 317950303.99685669 0 317950303.99685669 10718659.836883545 0 0 0 0 476047818.24179077 352011106.90776062 0 352011106.90776062 267301543.25857544 0 0 0 0 487610848.48236084 290542226.95849609 0 290542226.95849609 80479561.498458862 0 0 0 0 486887184.80407715 237976831.18099976 0 237976831.18099976 16785428.769012451 0 0 0 0 566209239.16653442 601691945.45202637 0 601691945.45202637 416336331.94386292 0 0 0 0 644337116.64718628 -6184679.6968078613 0 -6184679.6968078613 -198728811.06902313 0 0 0 0 70180061.349121094 -156677786.35923767 0 -156677786.35923767 -218787907.74700928 0 0 0 0 1540458.0286594778 922674.40523884445 0 922674.40523884445 2043488.040590167 0 0 0 0 797388690.74255371 464923596.29396057 0 464923596.29396057 83584339.154541016 0 0 0 0 914544622.45181274 -298589556.93502808 0 -298589556.93502808 -35552001.516601562 0 0 0 0 50995597.475982666 63185934.585723877 0 63185934.585723877 -32117667.796783447 0 0 0 0 68023644.051139116 65982747.829945326 0 65982747.829945326 -54997281.936462402 0 0 0 0 -208106432.66671753 70305099.396469116 0 70305099.396469116 317543611.22696686 0 0 0 0 52908316.863037109 53883025.791038513 0 53883025.791038513 -46416251.239593506 0 0 0 0 -4583346.9910746161 3377764.5798429791 0 3377764.5798429791 -1925135.6109467447 0 0 0 0 -115804453.41939163 -196940666.5862236 0 -196940666.5862236 82860700.819000244 0 0 0 0 -486591623.22941589 14538623.492965698 0 14538623.492965698 -2124121.7438659668 0 0 0 0 -363999905.85340881 -128872550.6682663 0 -128872550.6682663 -288115394.76251221 0 0 0 0 -142949922.61041641 -7537118.0444107056 0 -7537118.0444107056 -16356035.936065674 0 0 0 0 -373156345.42261887 55680381.838359833 0 55680381.838359833 10848430.77822876 0 0 0 0 -165244422.48390198 3393701.8976745605 0 3393701.8976745605 16028858.983734131 0 0 0 0 -244117792.40501404 -30687554.215789795 0 -30687554.215789795 6481569.789855957 0 0 0 0 -5797853.5323736053 33627186.425997555 0 33627186.425997555 -5494059.7165442854 0 0 0 0 -18442472.870788537 8117182.0921828933 0 8117182.0921828933 -3222297.1227045506 0 0 0 0 -101146718.45993042 21990835.77557373 0 21990835.77557373 -4404083.9716796875 0 0 0 0 -34565540.797134399 93166582.288246155 0 93166582.288246155 41446418.946105957 0 0 0 0 49637951.330101013 47504855.302986145 0 47504855.302986145 -53836302.894805908 0 0 0 0 50590231.538452148 20386893.157043457 0 20386893.157043457 51342146.974853516 0 0 0 0 3225899.7196870819 1956451.7930123359 0 1956451.7930123359 -1718326.8939983696 0 0 0 0 108129807.34051514 18215014.616149902 0 18215014.616149902 -44460611.851196289 0 0 0 0 135755183.54193115 28591410.80670166 0 28591410.80670166 -60520216.496337891 0 0 0 0 -42967633.050170898 -9994213.8967895508 0 -9994213.8967895508 -35015876.876464844 0 0 0 0 159784796.65408325 13557194.164428711 0 13557194.164428711 -64330594.169128418 0 0 0 0 130720249.00549316 -102850455.85595703 0 -102850455.85595703 -58376152.0284729 0 0 0 0 152954676.87955475 59528775.838600159 0 59528775.838600159 -12116988.848022461 0 0 0 0 -87905396.190063477 -106290925.65673828 0 -106290925.65673828 -34764231.723571777 0 0 0 0 -1391899.4397785394 16970717.899987049 0 16970717.899987049 1057388.2521968186 0 0 0 0 -198620088.60192871 -47924949.033508301 0 -47924949.033508301 -2103445.6395263672 0 0 0 0 9242601.4093322754 8775076.5285797119 0 8775076.5285797119 -2157284.8947753906 0 0 0 0 -759835.27056043595 29177265.777351573 0 29177265.777351573 2078169.785469383 0 0 0 0 -53390990.311752319 -70827404.989997864 0 -70827404.989997864 -53670679.942260742 0 0 0 0 28650533.253176957 10843570.679852173 0 10843570.679852173 -7663646.0926309302 0 0 0 0 -25487200.017828077 17982994.140583828 0 17982994.140583828 15721578.851104379 0 0 0 0 -9185574.574822925 17291008.927274048 0 17291008.927274048 -3537048.9514079392 0 0 0 0 -61355661.186515808 46859797.373039246 0 46859797.373039246 63205487.909973145 0 0 0 0 -9825079.3213653564 -11941762.031967163 0 -11941762.031967163 -44002852.746704102 0 0 0 0 246296018.76147461 -45276046.694763184 0 -45276046.694763184 -33203564.78918457 0 0 0 0 321344180.17669678 84781978.166732788 0 84781978.166732788 -24297909.103637695 0 0 0 0 -39019816.437866211 4101712.1450195312 0 4101712.1450195312 -42073505.550537109 0 0 0 0 -112354258.48568726 6403764.2761535645 0 6403764.2761535645 -22507451.926628113 0 0 0 0 -8753303.2626338154 16358259.021066979 0 16358259.021066979 -2331788.7598942369 0 0 0 0 40460367.922729492 54924161.097351074 0 54924161.097351074 58753426.284912109 0 0 0 0 -212389390.83502197 -89316975.396057129 0 -89316975.396057129 -31624189.928833008 0 0 0 0 -137206981.03147888 -46099063.980064392 0 -46099063.980064392 -8118289.6995239258 0 0 0 0 -149216434.14976501 -10366187.953186035 0 -10366187.953186035 -17594510.014526367 0 0 0 0 -60339893.139160156 -81916197.639457703 0 -81916197.639457703 -108163925.75378418 0 0 0 0 -1658024.4386888444 94204.281408950686 0 94204.281408950686 1089666.0411942899 0 0 0 0 -146806063.66065979 -58931188.672042847 0 -58931188.672042847 -73750563.674133301 0 0 0 0 15831360.772608757 94695339.834805489 0 94695339.834805489 99198112.711181641 0 0 0 0 19053736.190643311 66012262.844390869 0 66012262.844390869 19752104.459014893 0 0 0 0 35962151.672393799 53969194.718536377 0 53969194.718536377 59292206.354309082 0 0 0 0 2382412.2584891915 15885571.348236851 0 15885571.348236851 -14616533.622180164 0 0 0 0 -49432596.913208008 21107758.708221436 0 21107758.708221436 60613675.368843079 0 0 0 0 -40267719.318435669 98881426.57824707 0 98881426.57824707 37307744.148345947 0 0 0 0 83386524.059509277 89001432.035461426 0 89001432.035461426 73760196.899261475 0 0 0 0 -9780548.2570240777 7865672.1648508087 0 7865672.1648508087 13536085.875575572 0 0 0 0 -109541413.55789185 82662659.863311768 0 82662659.863311768 69300787.310668945 0 0 0 0 350003063.40750122 56541600.53213501 0 56541600.53213501 65418434.581176758 0 0 0 0 -131754908.85993958 35650255.760055542 0 35650255.760055542 88059175.890106201 0 0 0 0 -8109313.095465064 7505595.2893820908 0 7505595.2893820908 6555984.6742427796 0 0 0 0 -49060392.032318115 26420726.408514023 0 26420726.408514023 -95043782.063171387 0 0 0 0 366449128.96948242 110572152.05679321 0 110572152.05679321 363351782.53518677 0 0 0 0 553157593.80480957 -159305712.49105835 0 -159305712.49105835 441449713.44663239 0 0 0 0 564531970.71707153 -17342304.736755371 0 -17342304.736755371 240687043.18347168 0 0 0 0 374767423.65087891 -10760801.218933105 0 -10760801.218933105 483142870.88668823 0 0 0 0 490953920.47790527 93435368.3150177 0 93435368.3150177 118700729.94396973 0 0 0 0 453566371.15643311 142271238.0357666 0 142271238.0357666 116779429.33782959 0 0 0 0 515212501.17996216 129643470.61975098 0 129643470.61975098 63243518.607543945 0 0 0 0 375303947.67485046 141030356.92713928 0 141030356.92713928 182187503.84375 0 0 0 0 407365966.82684326 162363139.34707642 0 162363139.34707642 98348961.592773438 0 0 0 0 417530767.74829102 88916766.641021729 0 88916766.641021729 41025233.221435547 0 0 0 0 301673387.52142334 95222661.940887451 0 95222661.940887451 40886043.025263786 0 0 0 0 387530178.15765381 142164303.3899231 0 142164303.3899231 -32887548.409667969 0 0 0 0 461912869.66278076 142703858.77688599 0 142703858.77688599 12449249.854492188 0 0 0 0 427775938.06814575 204182495.98783875 0 204182495.98783875 10067010.685546875 0 0 0 0 369240848.53381348 184623516.0927124 0 184623516.0927124 -4731031.1158752441 0 0 0 0 406425134.32035828 170234978.62219238 0 170234978.62219238 -33630287.484985352 0 0 0 0 330297352.97351074 193512048.17248535 0 193512048.17248535 -34259808.210418701 0 0 0 0 423748963.71289825 206577553.0736084 0 206577553.0736084 -48699746.426330566 0 0 0 0 425846036.10284424 197447297.65652466 0 197447297.65652466 -49190908.929504395 0 0 0 0 384771359.31896973 210170504.76342773 0 210170504.76342773 -24041877.273967743 0 0 0 0 373411238.30806732 176897165.74630737 0 176897165.74630737 -54087648.867858887 0 0 0 0 238815752.65411377 131169663.7895813 0 131169663.7895813 -6325474.8629302979 0 0 0 0 288106092.99267578 110668480.39077759 0 110668480.39077759 -37053379.64855957 0 0 0 0 136747432.85296631 -975237.70365715027 0 -975237.70365715027 28361772.067504883 0 0 0 0 -9338421.5914234594 17899798.578016981 0 17899798.578016981 19549604.673196316 0 0 0 0 355344565.61112976 158236919.30505371 0 158236919.30505371 -15500431.748687744 0 0 0 0 431458843.2175293 129066525.9208374 0 129066525.9208374 -64190126.441345215 0 0 0 0 404757513.43444824 194128315.76791382 0 194128315.76791382 -40444826.373168945 0 0 0 0 419790883.11962891 185235909.67034912 0 185235909.67034912 -44086953.352877617 0 0 0 0 431473968.13555908 192017595.15283203 0 192017595.15283203 -25182380.155883789 0 0 0 0 383879813.50061798 230624353.45090485 0 230624353.45090485 11924915.581665039 0 0 0 0 418419592.79821777 203907369.43774414 0 203907369.43774414 -33733266.717285156 0 0 0 0 10887851.921090156 9752802.3748785108 0 9752802.3748785108 6915003.2773129195 0 0 0 0 76144809.215576172 78557092.010780334 0 78557092.010780334 31240903.921871901 0 0 0 0 -8279198.2566950172 16301944.927566335 0 16301944.927566335 21332203.713943556 0 0 0 0 563337875.31921387 36118635.743438721 0 36118635.743438721 206324964.72766113 0 0 0 0 529622593.29906464 120297500.55691147 0 120297500.55691147 59633204.035400391 0 0 0 0 454395737.33380127 229703825.02307129 0 229703825.02307129 -3857164.6912536621 0 0 0 0 57667813.356674194 28946412.630893707 0 28946412.630893707 19236143.940246582 0 0 0 0 -274643295.99767143 1167590680.5766742 0 1167590680.5766742 -144128161.82354736 0 0 0 0 511869419.32263184 56628344.248413086 0 56628344.248413086 293836831.47369385 0 0 0 0 31809856.889597833 21904990.491381079 0 21904990.491381079 -2024754.2346926578 0 0 0 0 34351613.430053711 25544780.214813232 0 25544780.214813232 16497927.335728765 0 0 0 0 -79043426.392456055 85369624.53238678 0 85369624.53238678 455202650.67877197 0 0 0 0 -1972915.6624414809 2474618.6845100001 0 2474618.6845100001 1964315.1375407577 0 0 0 0 2351868492.6596375 -55033306.292541504 0 -55033306.292541504 -1990383416.9361572 0 0 0 0 873658925.15328979 -186719993.15246582 0 -186719993.15246582 291515886.1086731 0 0 0 0 723528322.05691528 619251652.71795654 0 619251652.71795654 -428491567.0871582 0 0 0 0 -117695.99284754694 1240506.0805745423 0 1240506.0805745423 480407.49302055291 0 0 0 0 1405405809.3530884 1803462676.7914734 0 1803462676.7914734 -5247538094.0556936 0 0 0 0 617761651.74017334 -313821818.5637207 0 -313821818.5637207 2105213940.4281006 0 0 0 0 11263948.885852084 9210389.0108685568 0 9210389.0108685568 1219973.1064063609 0 0 0 0 100033872.58655548 59670955.924926758 0 59670955.924926758 4118588.6040039062 0 0 0 0 295383725.82371521 711436254.92442322 0 711436254.92442322 374992287.72850037 0 0 0 0 35358637.894378662 384228032.22775269 0 384228032.22775269 727522651.57026672 0 0 0 0 45700818.417564392 83096664.956989288 0 83096664.956989288 20123163.303833008 0 0 0 0 55877516.787246704 38437996.639907837 0 38437996.639907837 5599406.241027832 0 0 0 0 10183340.185506471 9993121.7489242703 0 9993121.7489242703 3497715.5529872179 0 0 0 0 13828105.085754395 28286250.617706299 0 28286250.617706299 39569953.695068359 0 0 0 0 106356524.06813049 53167138.796890259 0 53167138.796890259 -7810169.7081451416 0 0 0 0 -45367541.618618011 32201409.273887634 0 32201409.273887634 70980305.10144043 0 0 0 0 3726834.8119525183 1775740.1607687846 0 1775740.1607687846 490699.92681826651 0 0 0 0 4296985.4139798395 1170505.1604842246 0 1170505.1604842246 -565837.66780881584 0 0 0 0 208825111.98207855 98622393.725650787 0 98622393.725650787 -70692939.578826904 0 0 0 0 194179730.79727173 51479574.73008728 0 51479574.73008728 -65368169.984161377 0 0 0 0 141641171.30978394 46087672.029296875 0 46087672.029296875 -59044417.608947754 0 0 0 0 91617874.047363281 105290870.62522888 0 105290870.62522888 432462.30210876465 0 0 0 0 160974667.03500748 111145618.62147522 0 111145618.62147522 -48968194.129516602 0 0 0 0 6144004.2828369141 195151184.18032837 0 195151184.18032837 -81705519.825469971 0 0 0 0 48709426.772613525 68753279.022354126 0 68753279.022354126 -12549346.293945312 0 0 0 0 51562922.020980835 72463899.191444397 0 72463899.191444397 -23410555.938873291 0 0 0 0 -263497855.16678619 836505962.10600281 0 836505962.10600281 159884112.09658813 0 0 0 0 -256357320.23617935 890004747.23548126 0 890004747.23548126 -718328024.91873169 0 0 0 0 878431641.43144226 334809418.54188538 0 334809418.54188538 -1255011.702219239 0 0 0 0 202997195.37252045 -264388784.08395767 0 -264388784.08395767 -378039947.35601807 0 0 0 0 -728753.24574621022 -1942520.5208992884 0 -1942520.5208992884 2187243.6606560349 0 0 0 0 -243480256.39976501 119699663.32871246 0 119699663.32871246 565397869.5869751 0 0 0 0 953623786.71940613 429328248.82686615 0 429328248.82686615 -346985367.75479126 0 0 0 0 346017723.47436523 -198716788.84186554 0 -198716788.84186554 -187452700.62411499 0 0 0 0 -284672435.53794861 -271645208.6945343 0 -271645208.6945343 329006102.93637466 0 0 0 0 -283383250.12776566 -278171330.01969719 0 -278171330.01969719 -690210212.23287964 0 0 0 0 -295987331.80111694 -102002511.5823288 0 -102002511.5823288 94422790.364013672 0 0 0 0 -139684854.26257324 -101592840.77923584 0 -101592840.77923584 92994347.629825592 0 0 0 0 244305161.47976685 599929496.32006073 0 599929496.32006073 131653031.99688721 0 0 0 0 -19932980.223419189 217824914.57713318 0 217824914.57713318 239059704.34130859 0 0 0 0 -3577642.944770433 -1852823.3857975677 0 -1852823.3857975677 7245338.5744533092 0 0 0 0 67084943.129644394 131697136.72536659 0 131697136.72536659 316429085.15887451 0 0 0 0 -121470724.18779755 -80951351.217885017 0 -80951351.217885017 67605598.312408447 0 0 0 0 -3886039.8038482666 -42209729.799606323 0 -42209729.799606323 -61013676.823257446 0 0 0 0 -96465167.256027222 -34659137.664901733 0 -34659137.664901733 153300143.41543579 0 0 0 0 -104011188.5880127 -25131137.171554565 0 -25131137.171554565 153077891.96063232 0 0 0 0 3869212.7122118995 1109517.551605925 0 1109517.551605925 -2557550.28266114 0 0 0 0 -7067929.4055624157 12102673.771058604 0 12102673.771058604 -9094620.3958875537 0 0 0 0 117007265.76113892 250488367.15722656 0 250488367.15722656 255850237.63624573 0 0 0 0 146180397.14706421 161410281.56219482 0 161410281.56219482 109685242.15307617 0 0 0 0 174977759.79039764 -32897179.651763916 0 -32897179.651763916 -13048615.1927948 0 0 0 0 -55455210.650726318 82433011.416694641 0 82433011.416694641 261254170.65942383 0 0 0 0 -98781314.852539062 174880350.47244263 0 174880350.47244263 398192530.54370117 0 0 0 0 22141411.496063232 98561918.73248291 0 98561918.73248291 395371805.37506104 0 0 0 0 267587477.87359619 45690650.110076904 0 45690650.110076904 338174989.13427734 0 0 0 0 40253511.7237854 235851342.87307739 0 235851342.87307739 233997707.78271484 0 0 0 0 -57934260.272781372 47681093.552932739 0 47681093.552932739 206293452.0038147 0 0 0 0 -1963728.6749356091 1297992.3713962808 0 1297992.3713962808 399122.37748105079 0 0 0 0 69583464.76473999 -46757713.277496338 0 -46757713.277496338 -178752681.84300995 0 0 0 0 -274681468.38132477 -935678551.71750641 0 -935678551.71750641 -627220917.99804688 0 0 0 0 -139230460.5435791 136083256.85565186 0 136083256.85565186 -119442328.88156128 0 0 0 0 114060279.36676025 -80093469.277618408 0 -80093469.277618408 -45106317.858154297 0 0 0 0 -197429626.75870514 245124540.52817535 0 245124540.52817535 -269132448.67840576 0 0 0 0 -442588631.17566681 378919638.09623718 0 378919638.09623718 -210475173.17608643 0 0 0 0 -636048956.81082153 132583654.34210205 0 132583654.34210205 62348798.929260254 0 0 0 0 372316935.91518211 607321524.07237434 0 607321524.07237434 40729522.576751709 0 0 0 0 -1791936.4591475353 6378192.1530311331 0 6378192.1530311331 -8732813.4069783092 0 0 0 0 449737048.96731567 88879905.678710938 0 88879905.678710938 150669697.49475098 0 0 0 0 43313990.141231537 595407674.38752937 0 595407674.38752937 125331058.5592041 0 0 0 0 -191508541.07265854 23667337.54139328 0 23667337.54139328 244080840.63006592 0 0 0 0 318562329.72644043 185126545.71578979 0 185126545.71578979 141763468.30419922 0 0 0 0 -246933517.98474121 322636849.72215271 0 322636849.72215271 126215278.19459534 0 0 0 0 84048335.613513947 347618050.30503273 0 347618050.30503273 -27358845.507263184 0 0 0 0 -132900514.51799011 2175867.3482666016 0 2175867.3482666016 3495655.6287231445 0 0 0 0 -173277711.17771912 -71967059.324493408 0 -71967059.324493408 65739368.332580566 0 0 0 0 -521726712.07293701 992851748.41001892 0 992851748.41001892 -926038369.32553101 0 0 0 0 -522370547.98040771 -92110632.74810791 0 -92110632.74810791 -11396335.078857422 0 0 0 0 -1522143213.7470093 258289252.50302124 0 258289252.50302124 -111468399.37706757 0 0 0 0 -638615461.92993164 592701275.95162964 0 592701275.95162964 -98062185.327209473 0 0 0 0 219966101.93685913 271752626.16363525 0 271752626.16363525 -82200791.065246582 0 0 0 0 567716550.37254333 727175534.56197357 0 727175534.56197357 -1531926678.933197 0 0 0 0 161073596.69039917 480614865.60816956 0 480614865.60816956 -807126502.71401978 0 0 0 0 452694120.39630318 44544050.617338181 0 44544050.617338181 -1098497129.7689819 0 0 0 0 1230033592.2796326 193101291.52783203 0 193101291.52783203 -1131116229.3146286 0 0 0 0 -244605117.80388641 22367407.558502197 0 22367407.558502197 404043502.03579712 0 0 0 0 -2665169.5155427754 3834631.4158292785 0 3834631.4158292785 -531643.3098748019 0 0 0 0 -898162774.33476257 535611633.7281189 0 535611633.7281189 988602.79839115101 0 0 0 0 27235534.722290039 -32069151.594070435 0 -32069151.594070435 -1878847.7488861084 0 0 0 0 -2564236777.6285095 256778842.00836182 0 256778842.00836182 558911438.28638458 0 0 0 0 61719192.454483032 54202715.450683594 0 54202715.450683594 146180784.08668518 0 0 0 0 -5950051.0160426125 5513852.8391651064 0 5513852.8391651064 -605392.56510960218 0 0 0 0 122558210.89766693 133503649.18540192 0 133503649.18540192 356256.21321105957 0 0 0 0 306910.26983161271 1761070.6653541028 0 1761070.6653541028 -3958342.1604349613 0 0 0 0 581137025.49827385 -587002280.28244972 0 -587002280.28244972 -1221459346.2274475 0 0 0 0 -868313.03272611182 550506.55258584395 0 550506.55258584395 -614427.94345280528 0 0 0 0 -3412047220.3568115 136762064.41827393 0 136762064.41827393 556005028.9105835 0 0 0 0 -1744586875.6473694 2221879625.4360657 0 2221879625.4360657 -2249332472.1715393 0 0 0 0 -503791210.00305176 -646784324.83340454 0 -646784324.83340454 -167670912.11682129 0 0 0 0 -1690012669.6349945 783434844.03832245 0 783434844.03832245 -66350796.178039551 0 0 0 0 132945839.75739288 -74935982.473236084 0 -74935982.473236084 -705659662.0925293 0 0 0 0 1258808331.8966937 -527771114.77275562 0 -527771114.77275562 -1348239372.592865 0 0 0 0 1062920094.4664917 1474808504.809845 0 1474808504.809845 -1286657353.6749268 0 0 0 0 -715731982.47900391 1596950754.7573242 0 1596950754.7573242 -671555669.50976562 0 0 0 0 1494597132.8945007 -180551044.38206482 0 -180551044.38206482 -694851466.65698242 0 0 0 0 66017120.440139771 499228136.06680298 0 499228136.06680298 -789443591.53456879 0 0 0 0 195492813.21324921 631611584.14427185 0 631611584.14427185 -733040746.98419189 0 0 0 0 -125451115.58609009 691548742.43087769 0 691548742.43087769 -729856981.49063873 0 0 0 0 -582925387.52788544 233017313.58163452 0 233017313.58163452 -153157884.01870728 0 0 0 0 -79816212.326889038 -24252197.325820923 0 -24252197.325820923 -185226713.2408905 0 0 0 0 -616622733.70830536 473562.3032913208 0 473562.3032913208 789005082.18795776 0 0 0 0 -677279461.00338745 674417416.51931763 0 674417416.51931763 373773155.30957031 0 0 0 0 -187538271.02886963 -827616935.51826477 0 -827616935.51826477 -70167622.021194458 0 0 0 0 -2897780.8249216303 2505892.4696559012 0 2505892.4696559012 790713.138099581 0 0 0 0 -44122087.33757019 40701156.567443848 0 40701156.567443848 -78630867.794464111 0 0 0 0 328300956.24635315 338813687.91571808 0 338813687.91571808 -1514427404.3876343 0 0 0 0 -655063339.02049637 -939254173.94844055 0 -939254173.94844055 614903072.5562439 0 0 0 0 -159357839.40655518 164113205.3657074 0 164113205.3657074 -240388612.83743286 0 0 0 0 -36583208.933517456 130169395.42732239 0 130169395.42732239 85994529.120124817 0 0 0 0 -6665798.0423088074 5947389.822427839 0 5947389.822427839 -2237617.8350338787 0 0 0 0 -27453389.325127602 -29347915.080726147 0 -29347915.080726147 11934285.806976318 0 0 0 0 537034285.24453735 664641570.99810028 0 664641570.99810028 474291284.91859436 0 0 0 0 473270050.89225006 373539602.23674774 0 373539602.23674774 412647363.37234497 0 0 0 0 -6726887.2175387219 6440478.1056519076 0 6440478.1056519076 6948853.7024061233 0 0 0 0 -9511899.776459109 9325218.7256888822 0 9325218.7256888822 -3419470.7173062563 0 0 0 0 -25185056.238189697 8676528.2813568115 0 8676528.2813568115 60868683.546264648 0 0 0 0 280405863.9766674 177966578.26395226 0 177966578.26395226 -57878400.476623535 0 0 0 0 -200703435.28569031 222290402.27957153 0 222290402.27957153 325361264.53821564 0 0 0 0 -338188949.88439941 38013876.839202881 0 38013876.839202881 -377149331.5467453 0 0 0 0 -241266489.17674255 -152812583.38572693 0 -152812583.38572693 -107573749.9432373 0 0 0 0 -2293044.0660654604 6254736.9560833648 0 6254736.9560833648 -2318561.4700177088 0 0 0 0 -323668394.70291138 -270598973.00842285 0 -270598973.00842285 -189599050.48187256 0 0 0 0 -34784319.725776672 46221443.598243713 0 46221443.598243713 15518057.858276367 0 0 0 0 27266129.098175049 20172735.904144287 0 20172735.904144287 24617186.092956543 0 0 0 0 -508155526.1149292 -131038940.6940918 0 -131038940.6940918 -42990529.497497559 0 0 0 0 -14776595.276697539 4901214.9360332191 0 4901214.9360332191 9956946.6317601353 0 0 0 0 -258123790.20890808 -177262941.13710022 0 -177262941.13710022 -86800562.088790894 0 0 0 0 -144107062.71429443 -113644258.63485718 0 -113644258.63485718 -213235219.42866516 0 0 0 0 -273630274.08998108 -62863585.850592613 0 -62863585.850592613 45726749.439941406 0 0 0 0 -210561348.98649216 -99711468.854419708 0 -99711468.854419708 20504515.59463501 0 0 0 0 -41974174.737953186 -47710738.0963974 0 -47710738.0963974 46901983.196044922 0 0 0 0 -227348738.15324402 97314076.971160889 0 97314076.971160889 18006507.452949524 0 0 0 0 -283037894.41426086 -128966449.61257935 0 -128966449.61257935 -64082290.994270325 0 0 0 0 -17107825.159263611 83327952.474533081 0 83327952.474533081 610437863.70800781 0 0 0 0 -12509329.900470525 6765546.0726907924 0 6765546.0726907924 3194286.8087747097 0 0 0 0 -69855440.153816223 -23311095.885879517 0 -23311095.885879517 -11532637.37071228 0 0 0 0 -107854648.12874603 80263709.472984314 0 80263709.472984314 100564777.91047668 0 0 0 0 -254614653.98928833 -124902103.7207222 0 -124902103.7207222 10237432.418823242 0 0 0 0 -170581612.33873749 -115287399.52531433 0 -115287399.52531433 6124850.0834655762 0 0 0 0 -245061952.69091249 -83373169.038225412 0 -83373169.038225412 21011384.563995361 0 0 0 0 307208576.86671829 533668125.70913315 0 533668125.70913315 452779320.92193604 0 0 0 0 -341519793.51553345 -49740897.961837769 0 -49740897.961837769 -22889338.811752319 0 0 0 0 -8881161.0256768242 3942444.6603130028 0 3942444.6603130028 2678657.5812937915 0 0 0 0 372499583.38585281 469382748.27509308 0 469382748.27509308 237051790.98431396 0 0 0 0 574439466.34552002 693679600.82920837 0 693679600.82920837 483934572.64759827 0 0 0 0 779749648.27672577 402642171.53172302 0 402642171.53172302 -28582203.45495224 0 0 0 0 350069869.92849541 280788193.23599625 0 280788193.23599625 606416821.80258179 0 0 0 0 393127976.2543335 187976125.42399597 0 187976125.42399597 128506332.21342468 0 0 0 0 21310814.613342285 377773759.94071198 0 377773759.94071198 42253536.621910095 0 0 0 0 541829077.32090759 450974830.21228027 0 450974830.21228027 392870020.93483353 0 0 0 0 303068719.54922867 637906180.56726837 0 637906180.56726837 491585925.03872681 0 0 0 0 1090700365.7660065 902717333.16395569 0 902717333.16395569 618679206.82073975 0 0 0 0 -2512071.7659599539 3688633.0942071751 0 3688633.0942071751 1849367.4820517004 0 0 0 0 191922493.7780304 -62122540.191741943 0 -62122540.191741943 -422936651.63844681 0 0 0 0 527324977.14830017 234148273.53158188 0 234148273.53158188 -645936797.04606628 0 0 0 0 461359893.3186264 196651708.55297852 0 196651708.55297852 -81978321.006425858 0 0 0 0 297229830.44146729 342211214.17066956 0 342211214.17066956 244492038.69726276 0 0 0 0 554455591.50119781 359759275.7689476 0 359759275.7689476 -46744934.590637207 0 0 0 0 214418934.38452911 324685402.40686035 0 324685402.40686035 575564221.32467651 0 0 0 0 401343686.19299316 95807777.046600342 0 95807777.046600342 259058634.04940796 0 0 0 0 322431881.43315125 346569294.12461853 0 346569294.12461853 193745851.03771973 0 0 0 0 318460104.27253723 154349108.80116272 0 154349108.80116272 153886241.27459335 0 0 0 0 412632921.63084412 265477446.35734558 0 265477446.35734558 -48605538.621170044 0 0 0 0 316607682.62298632 325149709.3757869 0 325149709.3757869 5721749.7529602051 0 0 0 0 218941723.31729889 76962648.135528564 0 76962648.135528564 -206886262.22807312 0 0 0 0 115807172.4634285 383884032.69923973 0 383884032.69923973 -129822527.35534668 0 0 0 0 355512532.95387268 240257465.1413269 0 240257465.1413269 -56832182.736831665 0 0 0 0 434897901.30322266 119536822.70195007 0 119536822.70195007 -315905298.78451538 0 0 0 0 337118608.13945007 32983552.58782196 0 32983552.58782196 -283392469.32678604 0 0 0 0 360277819.57539368 75009287.972122192 0 75009287.972122192 -269063481.74806213 0 0 0 0 175545218.87032318 -44940693.282993317 0 -44940693.282993317 -279775839.18569946 0 0 0 0 2353667.7506660633 1445933.0365106799 0 1445933.0365106799 -456448.74194735289 0 0 0 0 182279038.84001201 74109572.632563114 0 74109572.632563114 120573.71765136719 0 0 0 0 -83196282.144180298 155771248.58343506 0 155771248.58343506 -148874427.77017975 0 0 0 0 140692874.963974 -32814062.597412109 0 -32814062.597412109 -2258827.5619354248 0 0 0 0 -653882.15724945068 36372406.960136414 0 36372406.960136414 -19989405.505634308 0 0 0 0 423526204.00068665 -339650579.16693115 0 -339650579.16693115 60132348.328962326 0 0 0 0 80578915.602203369 -133886748.79019165 0 -133886748.79019165 98297108.770652771 0 0 0 0 472666808.63639069 -54401185.851722717 0 -54401185.851722717 -293666929.35102844 0 0 0 0 485305198.88741398 24853277.560413361 0 24853277.560413361 -549795323.55169678 0 0 0 0 675634438.55456924 -203697821.56611633 0 -203697821.56611633 -398431114.65196228 0 0 0 0 276338881.40910339 270552165.70405579 0 270552165.70405579 94165544.242790222 0 0 0 0 276507457.47265625 -378754692.02177429 0 -378754692.02177429 292145566.33968735 0 0 0 0 827807882.71562958 -57770251.768508911 0 -57770251.768508911 -42260565.803817749 0 0 0 0 478309136.97503281 367428110.20525742 0 367428110.20525742 298189130.82888794 0 0 0 0 1592404.3121213838 -131255.92269176245 0 -131255.92269176245 1373412.2150800377 0 0 0 0 126921943.71029663 147201137.21854401 0 147201137.21854401 204341706.15576172 0 0 0 0 159818990.01669312 192196164.19676208 0 192196164.19676208 77006090.287414551 0 0 0 0 142647086.99660492 -106204017.11742401 0 -106204017.11742401 81130989.130813599 0 0 0 0 167665440.95825195 173397603.6907959 0 173397603.6907959 -49198808.948974609 0 0 0 0 131704496.70871735 132490913.76244354 0 132490913.76244354 119970770.27023315 0 0 0 0 179046934.49789429 169652027.34500122 0 169652027.34500122 -22483812.580810547 0 0 0 0 45439.725014913827 11703.802221462131 0 11703.802221462131 92385.066957190633 0 0 0 0 381411564.38880157 -61825952.58870697 0 -61825952.58870697 64665505.767303467 0 0 0 0 97741432.460968018 9627846.0861053467 0 9627846.0861053467 -127484596.55635834 0 0 0 0 -221177.98928380013 13663.457196421921 0 13663.457196421921 21318.86275088042 0 0 0 0 39362641.945365906 -45868473.531356812 0 -45868473.531356812 -36404324.444000244 0 0 0 0 79010871.729171753 -3193645.1845016479 0 -3193645.1845016479 5690670.4512939453 0 0 0 0 224404.07133101299 -82055.802694149315 0 -82055.802694149315 55107.65110629797 0 0 0 0 128874254.77318954 4563250.0177764893 0 4563250.0177764893 -9774426.3827514648 0 0 0 0 113788465.51699066 -40478192.71812439 0 -40478192.71812439 37215821.013252258 0 0 0 0 186865960.46871948 112607247.64743042 0 112607247.64743042 -49784245.952575684 0 0 0 0 107096281.42049789 9850312.2563705444 0 9850312.2563705444 -9722062.1560668945 0 0 0 0 72098529.462753296 -9698307.686416626 0 -9698307.686416626 9304422.2952957153 0 0 0 0 52374336.806251526 4780335.4494628906 0 4780335.4494628906 37220777.049118042 0 0 0 0 179205126.12759399 68566770.025276184 0 68566770.025276184 117930130.57501221 0 0 0 0 219743320.43548584 110729455.30782318 0 110729455.30782318 26712855.063842773 0 0 0 0 85732072.556274414 174836393.89840698 0 174836393.89840698 106108687.60754395 0 0 0 0 83811557.038269043 106798878.17027283 0 106798878.17027283 44257551.366943359 0 0 0 0 184290075.7253418 93637663.694580078 0 93637663.694580078 32843281.957439423 0 0 0 0 171808715.76027298 104215224.01015091 0 104215224.01015091 82861329.835205078 0 0 0 0 124869891.46772003 51562986.088256836 0 51562986.088256836 19629932.153747559 0 0 0 0 175784978.80604553 96226753.755844116 0 96226753.755844116 33922502.97265625 0 0 0 0 126520319.96300507 89178634.037315369 0 89178634.037315369 87822761.414321899 0 0 0 0 169046903.56874084 114696329.06275177 0 114696329.06275177 22705456.504180908 0 0 0 0 177976841.88882446 128896971.77209473 0 128896971.77209473 42149518.69512558 0 0 0 0 185980121.04382324 121932663.54608154 0 121932663.54608154 37274045.118560791 0 0 0 0 194710308.63449097 103249753.97384644 0 103249753.97384644 33262360.520080566 0 0 0 0 207316245.97631836 38989073.761077881 0 38989073.761077881 -15579203.283416748 0 0 0 0 238350153.70219421 128973513.76689148 0 128973513.76689148 41857995.956970215 0 0 0 0 224117655.89416504 109014848.01373291 0 109014848.01373291 13882230.079864502 0 0 0 0 204973159.17016602 138783137.16792297 0 138783137.16792297 47726568.393920898 0 0 0 0 231782426.25004578 164686118.09247589 0 164686118.09247589 127272551.33135986 0 0 0 0 -64967930.731494069 -18915656.145849943 0 -18915656.145849943 56341533.841308594 0 0 0 0 440900315.56613159 102765540.08300781 0 102765540.08300781 25755398.98046875 0 0 0 0 -858716.74479356164 -294940.27778759971 0 -294940.27778759971 116734.56349724531 0 0 0 0 422624818.871521 144145224.82070923 0 144145224.82070923 42664936.053405762 0 0 0 0 -12919372.882355489 -637241.43467823602 0 -637241.43467823602 2191849.1176771522 0 0 0 0 451631353.4498291 56329681.458862305 0 56329681.458862305 -99805461.353881836 0 0 0 0 -441901.21046251431 -13719.0733150132 0 -13719.0733150132 290166.47937083244 0 0 0 0 5095427.1208151346 198820.87503969669 0 198820.87503969669 1746968.5596689731 0 0 0 0 1153251.7599910498 737361.77808248997 0 737361.77808248997 819411.86987304688 0 0 0 0 152298774.77021027 130891194.32236481 0 130891194.32236481 88918267.948348999 0 0 0 0 135072942.74627686 70869772.394760132 0 70869772.394760132 50878044.751922607 0 0 0 0 22998472.177730151 8033291.0140626878 0 8033291.0140626878 1720594.2840811983 0 0 0 0 162146117.16925049 102654753.72016907 0 102654753.72016907 83831358.28692627 0 0 0 0 181516123.2741394 109580387.62971497 0 109580387.62971497 40374095.453842163 0 0 0 0 170437457.27799988 155239794.6602478 0 155239794.6602478 13947526.586307526 0 0 0 0 177573216.33588409 125814075.23225021 0 125814075.23225021 35678484.31463623 0 0 0 0 170843442.00924683 142120108.11999512 0 142120108.11999512 76363393.368286133 0 0 0 0 148266935.43612671 137492980.29563904 0 137492980.29563904 78154694.499893188 0 0 0 0 148106742.78869629 138919226.60359192 0 138919226.60359192 103243977.79684448 0 0 0 0 170059056.55619049 177811994.12143707 0 177811994.12143707 77674756.360839844 0 0 0 0 80879785.073707938 21267217.856893897 0 21267217.856893897 -2792732.0159912109 0 0 0 0 8503059.6995952129 2989862.2605613098 0 2989862.2605613098 -1322732.4924034178 0 0 0 0 7545380.4244998097 915244.30990685523 0 915244.30990685523 1768508.2584167421 0 0 0 0 19003378.518323898 22924068.161857665 0 22924068.161857665 -42489920.566757202 0 0 0 0 15216732.182382613 31779156.702471767 0 31779156.702471767 5046033.8570433855 0 0 0 0 49500331.448425293 12158863.267807007 0 12158863.267807007 -965905.99437904358 0 0 0 0 58845935.233123779 31910958.152679443 0 31910958.152679443 -1704685.1829900742 0 0 0 0 56751753.654815674 53824445.506408691 0 53824445.506408691 890997.53413009644 0 0 0 0 41744007.600006104 -5182979.6615104675 0 -5182979.6615104675 33252490.013671875 0 0 0 0 621627.73321533203 42131955.832756042 0 42131955.832756042 57403673.666595459 0 0 0 0 260068920.57958984 112513762.05145264 0 112513762.05145264 -59958415.425994873 0 0 0 0 16702684.653778076 -41978929.125114441 0 -41978929.125114441 -27746087.23614502 0 0 0 0 -106192344.15325928 -3448252.7918395996 0 -3448252.7918395996 40141552.862457275 0 0 0 0 -6706497.6899032593 228290450.47797012 0 228290450.47797012 -41110669.7706604 0 0 0 0 -1843616.5387115479 30682471.696868896 0 30682471.696868896 12471144.036712646 0 0 0 0 28702732.526565552 22543558.792022705 0 22543558.792022705 2559580.3508911133 0 0 0 0 32975703.8618927 16969312.994781494 0 16969312.994781494 10384458.909790039 0 0 0 0 51169525.9503479 134747.58283996582 0 134747.58283996582 619482.53839111328 0 0 0 0 32150152.103744507 12995059.543182373 0 12995059.543182373 12873759.830749512 0 0 0 0 2354902.6523068063 122499.50267716497 0 122499.50267716497 -567401.42757518589 0 0 0 0 76400900.221893311 38404314.760894775 0 38404314.760894775 10475857.309432983 0 0 0 0 1590892.2793136314 14445673.622835986 0 14445673.622835986 4749385.9153091833 0 0 0 0 7676854.0752166584 17779147.91514644 0 17779147.91514644 5444958.3022157922 0 0 0 0 10335792.29083252 4721285.4451904297 0 4721285.4451904297 -2725629.5221710205 0 0 0 0 -10830022.09349934 14164829.718147444 0 14164829.718147444 9148248.2716906443 0 0 0 0 -23721446.15222168 20398372.360137939 0 20398372.360137939 -8579469.8477783203 0 0 0 0 -18343057.10127449 -2546304.1926765442 0 -2546304.1926765442 -13958659.529815674 0 0 0 0 -1105208.5990600586 29119093.536560059 0 29119093.536560059 -5876164.8677215576 0 0 0 0 -49050099.981275558 -27733643.508827209 0 -27733643.508827209 -25473251.966888428 0 0 0 0 4787976.3211669922 97489801.715759277 0 97489801.715759277 156390446.91046143 0 0 0 0 -9779219.185754776 -11300852.710424423 0 -11300852.710424423 16825547.032714844 0 0 0 0 -17650065.43976593 30028427.759094238 0 30028427.759094238 64310827.908447266 0 0 0 0 7878012.1945800781 35465216.764801025 0 35465216.764801025 -632501.20783233643 0 0 0 0 -34316320.465255737 12310582.820953369 0 12310582.820953369 -5211402.5967102051 0 0 0 0 -12531669.690704219 20157390.441001803 0 20157390.441001803 14452669.747332886 0 0 0 0 10334334.261234269 7382550.4262685776 0 7382550.4262685776 -3244725.3577132225 0 0 0 0 -304877474.38250732 31521514.319709778 0 31521514.319709778 24851494.656990051 0 0 0 0 -248685290.04690552 281857517.66222382 0 281857517.66222382 -112151137.64378357 0 0 0 0 -569926480.70195007 367857559.65132141 0 367857559.65132141 -19097538.32019043 0 0 0 0 -263630932.86546326 -404763852.10041046 0 -404763852.10041046 198015297.91386414 0 0 0 0 8024735.1028747559 -309690448.86889648 0 -309690448.86889648 99556526.94581604 0 0 0 0 -686188070.91108704 7351206.0951385498 0 7351206.0951385498 439832888.18041992 0 0 0 0 -61317950.745727539 355751048.08860779 0 355751048.08860779 62416224.798416138 0 0 0 0 57286917.04536438 151105757.22720337 0 151105757.22720337 19000596.190368652 0 0 0 0 22813852.779724121 119237014.41395569 0 119237014.41395569 48407696.46232605 0 0 0 0 69452899.032920837 110882043.80314255 0 110882043.80314255 19490794.035949707 0 0 0 0 -9393123.9780578613 -13032926.36781311 0 -13032926.36781311 -80704581.562469482 0 0 0 0 64842807.28352356 129150260.35414124 0 129150260.35414124 -181926456.09230042 0 0 0 0 686689513.61560059 669003210.61587524 0 669003210.61587524 265795235.14389038 0 0 0 0 48048529.588088989 304399298.30353737 0 304399298.30353737 153872548.26126099 0 0 0 0 387217286.14016724 405330051.80127716 0 405330051.80127716 62308240.931144714 0 0 0 0 339596830.20471191 -93598716.176727295 0 -93598716.176727295 -78200699.066459656 0 0 0 0 234376643.50881195 -638517912.79023743 0 -638517912.79023743 428017231.38435364 0 0 0 0 1213078235.7189026 -70167575.862106323 0 -70167575.862106323 -86385331.319072723 0 0 0 0 2714581163.4622955 -364774828.64254761 0 -364774828.64254761 -632754883.66366577 0 0 0 0 400261956.9335022 647494744.34664917 0 647494744.34664917 1193578888.0174408 0 0 0 0 158191280.49673462 44237675.420394897 0 44237675.420394897 -300376569.51948547 0 0 0 0 -652233362.40319824 398411504.97721863 0 398411504.97721863 604147142.35627747 0 0 0 0 530562.7759091109 2031006.5405847616 0 2031006.5405847616 1619114.4591072872 0 0 0 0 -81638895.617797852 502918635.7258873 0 502918635.7258873 338847472.25923157 0 0 0 0 -47564108.682495117 512502831.48730469 0 512502831.48730469 337606575.66370773 0 0 0 0 -552594315.89633179 586786299.01649475 0 586786299.01649475 825603723.14744568 0 0 0 0 707209202.14605713 423803283.15655518 0 423803283.15655518 185869650.54628563 0 0 0 0 -1301856687.9580078 32490235.685943604 0 32490235.685943604 988797732.03192139 0 0 0 0 3085179.5297623836 3111216.2992642671 0 3111216.2992642671 -1126672.3588457555 0 0 0 0 -838861980.38899231 290501177.93260193 0 290501177.93260193 442128935.48435974 0 0 0 0 991567543.00057983 405099272.47507477 0 405099272.47507477 -1116076934.7032166 0 0 0 0 719562963.51968384 -561463447.75971985 0 -561463447.75971985 366124298.19906616 0 0 0 0 158541907.08358765 285995247.94085693 0 285995247.94085693 -65814798.894714355 0 0 0 0 153936984.54154968 -191851778.10792542 0 -191851778.10792542 -134309297.31309509 0 0 0 0 10595982.071204731 8635231.0235463902 0 8635231.0235463902 -3996573.5953503251 0 0 0 0 -358085733.79270935 94467803.091003418 0 94467803.091003418 143660495.80604553 0 0 0 0 638065984.35290527 -33482920.156433105 0 -33482920.156433105 -90358282.064544678 0 0 0 0 1385073767.1732864 -310896983.5978241 0 -310896983.5978241 -162357209.72305298 0 0 0 0 204576.30914644152 6274135.7555778548 0 6274135.7555778548 8206801.4780115336 0 0 0 0 3649133.2525939941 -899504288.78795624 0 -899504288.78795624 -2894220206.7872925 0 0 0 0 531455192.60488892 -138214297.64233398 0 -138214297.64233398 212398613.79866028 0 0 0 0 610659569.18423462 76235206.769302368 0 76235206.769302368 60338087.966270447 0 0 0 0 528326470.99990845 -28248966.60760498 0 -28248966.60760498 -71042569.096160889 0 0 0 0 548427412.45339966 63176297.327758789 0 63176297.327758789 -84687129.994112015 0 0 0 0 585236511.18462753 -86513948.543014526 0 -86513948.543014526 -79733586.066864014 0 0 0 0 221454193.92967224 -51804630.941772461 0 -51804630.941772461 6555099.9054718018 0 0 0 0 594337708.97239685 -17831516.080692291 0 -17831516.080692291 -79328715.026306152 0 0 0 0 514519678.29899597 -134045310.46757126 0 -134045310.46757126 -37322409.859405518 0 0 0 0 -4042031.0962539613 6606853.8354735617 0 6606853.8354735617 -931160.26614384353 0 0 0 0 -56828964.495422363 -11108346.208465576 0 -11108346.208465576 -37079098.641067505 0 0 0 0 167885203.87972832 156065931.68577862 0 156065931.68577862 -52692303.974472046 0 0 0 0 151631874.29248047 -10993446.706817627 0 -10993446.706817627 -74740759.03036499 0 0 0 0 335405072.08691406 166083302.68284607 0 166083302.68284607 -26193360.327171326 0 0 0 0 14057230.769039609 33115056.86464709 0 33115056.86464709 3114981.8303961679 0 0 0 0 20155679.951881409 36311178.12928772 0 36311178.12928772 28239052.908248901 0 0 0 0 54728361.992416382 40398836.434883118 0 40398836.434883118 28600593.813594818 0 0 0 0 54853169.414375305 23837920.866661072 0 23837920.866661072 23565591.860565186 0 0 0 0 64654539.687210083 11869093.815536499 0 11869093.815536499 21982513.011434555 0 0 0 0 266347956.11539078 -260727350.82512665 0 -260727350.82512665 233213117.90509033 0 0 0 0 -25546531.56224823 69027364.794189453 0 69027364.794189453 24447620.175018311 0 0 0 0 8157320.870790855 30958634.718840603 0 30958634.718840603 -2945892.502807796 0 0 0 0 -848543317.09472656 1143551284.6064301 0 1143551284.6064301 -1206291152.3056946 0 0 0 0 -845454908.09359741 -161660953.59570312 0 -161660953.59570312 877751562.42478943 0 0 0 0 59650484.174118042 232521808.83715057 0 232521808.83715057 259170590.62376404 0 0 0 0 52694800.306694031 304026971.89315033 0 304026971.89315033 -229447167.60020447 0 0 0 0 149211997.79516602 567435691.19216919 0 567435691.19216919 -172417447.32938766 0 0 0 0 -606096737.84750652 737433599.26904488 0 737433599.26904488 -121955631.37680054 0 0 0 0 354629772.52047729 414991706.2303009 0 414991706.2303009 -92151932.299659729 0 0 0 0 -3799478.7685565054 1260589.729968071 0 1260589.729968071 1545646.6645702049 0 0 0 0 -370112467.25909424 -636987621.58601379 0 -636987621.58601379 -330618028.48736572 0 0 0 0 -400728168.00082397 -483208188.62916565 0 -483208188.62916565 -99468840.114425659 0 0 0 0 63083738.382098198 44671031.860031128 0 44671031.860031128 -515408610.32562256 0 0 0 0 -647876871.35305786 -582219432.55241394 0 -582219432.55241394 83729088.541625977 0 0 0 0 -203556.83492636215 31351590.160010274 0 31351590.160010274 -5520237.764990598 0 0 0 0 -557198976.86047363 -196273180.11611938 0 -196273180.11611938 287466557.52574158 0 0 0 0 -70901916.088104248 55981318.618116379 0 55981318.618116379 109506987.51318359 0 0 0 0 59474441.658966064 71077042.037994385 0 71077042.037994385 -32567606.604172707 0 0 0 0 65904576.189212799 97311441.493286133 0 97311441.493286133 8500252.5014038086 0 0 0 0 614047117.30555725 302845470.33215332 0 302845470.33215332 82888830.420593262 0 0 0 0 789843397.25683594 93446968.99054718 0 93446968.99054718 -231014629.44265747 0 0 0 0 869054565.30426025 134102863.51462555 0 134102863.51462555 -255794909.72555542 0 0 0 0 22004683.509033203 197508090.97576904 0 197508090.97576904 242672944.89398193 0 0 0 0 837133863.58427429 -232665613.13687134 0 -232665613.13687134 -92448437.918632507 0 0 0 0 -18533813.343338013 67536165.651672363 0 67536165.651672363 161638624.36993408 0 0 0 0 1100261.5451525748 2605234.028667165 0 2605234.028667165 -2204387.1895159483 0 0 0 0 5067168.4907226562 -36714495.733947754 0 -36714495.733947754 -29285401.600128174 0 0 0 0 64085338.930236816 102915820.85299683 0 102915820.85299683 30560624.518157959 0 0 0 0 -144186277.53253174 7209665.9366226196 0 7209665.9366226196 16738384.773880005 0 0 0 0 770730067.45750141 295464744.32941961 0 295464744.32941961 -49214963.92225647 0 0 0 0 -10312724.605422534 31285740.841601394 0 31285740.841601394 17983294.900286674 0 0 0 0 -244455388.55062866 -21067099.1198349 0 -21067099.1198349 292000276.34448242 0 0 0 0 235262967.08251953 -293896787.60972595 0 -293896787.60972595 341792563.19115448 0 0 0 0 583145691.81173706 374566908.23057556 0 374566908.23057556 -338139336.2977829 0 0 0 0 -18852979.443136126 1839427.5775508955 0 1839427.5775508955 29771082.963339731 0 0 0 0 -67196085.638824463 57521278.015899658 0 57521278.015899658 -16891692.686047554 0 0 0 0 -114223773.46623993 55017633.753095627 0 55017633.753095627 50235572.419754028 0 0 0 0 -72423615.977508545 18333215.330375671 0 18333215.330375671 39241791.591891289 0 0 0 0 75458297.587921143 86414786.764213562 0 86414786.764213562 14354727.440444946 0 0 0 0 81407693.850515366 165408016.45218849 0 165408016.45218849 16941165.08152771 0 0 0 0 -5953133.4364465028 14606098.428805947 0 14606098.428805947 -16942921.606688634 0 0 0 0 170774119.79862976 91478649.556156158 0 91478649.556156158 -38148995.986038208 0 0 0 0 16796564.077728271 153981951.74710464 0 153981951.74710464 30217281.783737183 0 0 0 0 -130019608.42684937 103916117.88745117 0 103916117.88745117 32470368.795471191 0 0 0 0 -33895432.037811279 61995328.791191101 0 61995328.791191101 13741205.796457529 0 0 0 0 -184993699.37750244 96331885.725204468 0 96331885.725204468 -27397778.322265625 0 0 0 0 -145176808.16436768 56560868.434051514 0 56560868.434051514 5217523.3085098267 0 0 0 0 -66990343.857959747 233226552.27372551 0 233226552.27372551 -87741783.612426758 0 0 0 0 175821220.26867676 196427467.0803833 0 196427467.0803833 -112582509.56571007 0 0 0 0 -444970969.73891449 -46282488.194108963 0 -46282488.194108963 -71292929.35067749 0 0 0 0 -214800757.85153198 399716620.52983475 0 399716620.52983475 -36909227.040252686 0 0 0 0 230530616.79962158 183349865.77861023 0 183349865.77861023 -105059330.6546936 0 0 0 0 -58736067.502044678 89268082.950698853 0 89268082.950698853 378340510.22958374 0 0 0 0 20142840.616516113 118898277.78623199 0 118898277.78623199 -2057317.107421875 0 0 0 0 -264293280.04904175 24582567.366981506 0 24582567.366981506 38034121.432739258 0 0 0 0 -2121465.3325053491 11571158.758997194 0 11571158.758997194 -2031129.0127246529 0 0 0 0 -7677707.217064254 19293857.750999197 0 19293857.750999197 34561804.798501 0 0 0 0 132546474.42701721 200539405.46160889 0 200539405.46160889 34682835.595359802 0 0 0 0 730169826.04155731 -44414666.771949768 0 -44414666.771949768 -99811155.002838135 0 0 0 0 -2155475.0689364783 11969117.084158871 0 11969117.084158871 20437024.210284665 0 0 0 0 -49030359.233947754 -109173775.22924042 0 -109173775.22924042 174428046.48397827 0 0 0 0 -78785165.988174438 -70184381.385887146 0 -70184381.385887146 472622090.06518555 0 0 0 0 -254924039.91622925 288515642.99450684 0 288515642.99450684 1084391048.1225281 0 0 0 0 -441783325.47412109 1620638801.6460114 0 1620638801.6460114 201166855.15382385 0 0 0 0 500896112.98704529 837258165.69972992 0 837258165.69972992 -1145884310.5598068 0 0 0 0 -271294602.10255432 426407588.19392776 0 426407588.19392776 -41005052.059082031 0 0 0 0 205461044.82112122 64398624.597766876 0 64398624.597766876 -402527833.04542542 0 0 0 0 1717836.2106511295 -32774.315704569221 0 -32774.315704569221 -3550424.9128949791 0 0 0 0 532042770.85888672 467992260.4936676 0 467992260.4936676 -526408147.37184811 0 0 0 0 99076168.760314941 446555733.33828735 0 446555733.33828735 -527443609.12130737 0 0 0 0 868758530.00309753 87696923.658294678 0 87696923.658294678 -839461969.97583008 0 0 0 0 -117653187.36663818 -157824659.2492981 0 -157824659.2492981 -387963276.14428711 0 0 0 0 -465293687.00897217 -191952405.93293762 0 -191952405.93293762 220995022.37844849 0 0 0 0 -46592238.330200195 2207231.140712738 0 2207231.140712738 -33202768.630691528 0 0 0 0 -3917301.8167579174 3699653.695028156 0 3699653.695028156 -821113.35722740367 0 0 0 0 -346817453.45880127 -549451156.90740967 0 -549451156.90740967 -572061631.45992279 0 0 0 0 -1288680698.9588928 -470165770.63348389 0 -470165770.63348389 578096101.82113647 0 0 0 0 -733485665.26849365 -617050422.50026703 0 -617050422.50026703 -286888977.67230225 0 0 0 0 -569657656.76345825 6302405.6374664307 0 6302405.6374664307 176396292.27009583 0 0 0 0 -378235976.43362427 208161986.78881073 0 208161986.78881073 361964761.27110291 0 0 0 0 -388764135.50004816 -73710008.239796877 0 -73710008.239796877 115832209.79797363 0 0 0 0 -236595695.52645874 188186951.74322128 0 188186951.74322128 248238054.51574707 0 0 0 0 -233200464.61902046 -44059300.772229195 0 -44059300.772229195 75802707.000549316 0 0 0 0 -225743612.322052 66347883.585319519 0 66347883.585319519 236026474.58467102 0 0 0 0 -135975817.35951233 104546462.64571762 0 104546462.64571762 128827919.13682556 0 0 0 0 -86930978.746658325 63609780.360786438 0 63609780.360786438 139504980.86644745 0 0 0 0 -146477773.67713928 207744088.75699615 0 207744088.75699615 176865337.59092712 0 0 0 0 -108647208.49060059 137105547.43009949 0 137105547.43009949 166976502.29328918 0 0 0 0 18717552.717758179 375891689.02204323 0 375891689.02204323 321549547.98954773 0 0 0 0 -9239482.8949584961 26403971.803352356 0 26403971.803352356 26873266.059612274 0 0 0 0 -36804670.698446274 4298009.1081118584 0 4298009.1081118584 15230311.982162476 0 0 0 0 -96503551.331161499 22558786.489898682 0 22558786.489898682 57378754.102394104 0 0 0 0 -36472150.895996094 9199436.916809082 0 9199436.916809082 37545427.688613892 0 0 0 0 -28118797.891387939 -12704081.344818115 0 -12704081.344818115 -6064147.4281005859 0 0 0 0 -75771785.234176636 -14771662.994445801 0 -14771662.994445801 26780216.221618652 0 0 0 0 -93918928.197814941 -56628502.551292419 0 -56628502.551292419 -37843275.9634552 0 0 0 0 -9644248.6903533936 5716208.8754348755 0 5716208.8754348755 7884163.6743621826 0 0 0 0 322749609.84449005 -186660320.74095535 0 -186660320.74095535 69561164.02456665 0 0 0 0 -11340646.456341147 7618692.9727093354 0 7618692.9727093354 458197.15842866898 0 0 0 0 -60498072.665298462 -2222190.4277267456 0 -2222190.4277267456 1624578.7971496582 0 0 0 0 47698324.982116699 296348219.66145325 0 296348219.66145325 -186946791.08171082 0 0 0 0 -1332439879.7919922 -146854775.13049316 0 -146854775.13049316 844941937.75592804 0 0 0 0 -997794988.97035217 -7047828.9829177856 0 -7047828.9829177856 169896986.10779572 0 0 0 0 -641275467.29877472 522145376.10848808 0 522145376.10848808 -117974238.09747314 0 0 0 0 -103539053.36387634 109606029.90003204 0 109606029.90003204 55760439.411972046 0 0 0 0 -56127707.624984741 108364028.69246292 0 108364028.69246292 -137998280.51016235 0 0 0 0 598318276.39437866 843183950.8945694 0 843183950.8945694 383350772.49938202 0 0 0 0 1307808.9417188615 915173.70970765501 0 915173.70970765501 -336432.66241901368 0 0 0 0 80284917.318023682 -12237784.193984985 0 -12237784.193984985 -152168418.37779999 0 0 0 0 274737356.04910278 2351770768.5028534 0 2351770768.5028534 598856525.42731476 0 0 0 0 835472482.50341797 -182186793.88165283 0 -182186793.88165283 -709499370.52902985 0 0 0 0 -34219990.740081787 52703504.347640991 0 52703504.347640991 100856478.88421631 0 0 0 0 2042349.1943758875 153258.04301827401 0 153258.04301827401 1967074.975223802 0 0 0 0 49315706.256500244 -146811933.2390461 0 -146811933.2390461 -53093029.563262939 0 0 0 0 84508205.776977539 79583510.315139771 0 79583510.315139771 58947915.690597534 0 0 0 0 -79710635.04989624 -6048760.5492858887 0 -6048760.5492858887 296969962.79508972 0 0 0 0 -74941477.120597839 17134708.39548111 0 17134708.39548111 190650940.65631104 0 0 0 0 54195775.693908691 -7967746.5782318115 0 -7967746.5782318115 193095598.12716675 0 0 0 0 -15080742.990695029 12357103.696150675 0 12357103.696150675 3572792.197782591 0 0 0 0 -16961306.514556885 13227275.813156128 0 13227275.813156128 11211330.53112793 0 0 0 0 -1035352.4270544071 2552754.9671082571 0 2552754.9671082571 602533.48103962839 0 0 0 0 2145830.823059082 47965855.485641479 0 47965855.485641479 52902950.380493164 0 0 0 0 -6463794.3568619546 15132282.872970037 0 15132282.872970037 10964822.49530039 0 0 0 0 13871028.45803833 10762223.116390228 0 10762223.116390228 3453100.5112609863 0 0 0 0 26389823.573974609 22963338.127761841 0 22963338.127761841 14595662.457152843 0 0 0 0 -19517183.9637146 15765342.101211548 0 15765342.101211548 7152719.2406921387 0 0 0 0 -32582731.54577446 10263058.597595692 0 10263058.597595692 15396147.449371338 0 0 0 0 -4476964.8801269531 22402599.558578491 0 22402599.558578491 -2864337.4580688477 0 0 0 0 -13898974.203338623 13500035.449073792 0 13500035.449073792 -2721297.3199462891 0 0 0 0 -12348750.552520752 18472230.851219177 0 18472230.851219177 9690785.5643310547 0 0 0 0 2263660.1014576033 1083435.1921695508 0 1083435.1921695508 -2446853.0419554561 0 0 0 0 36735185.311584473 11721887.050094604 0 11721887.050094604 -5349658.8735656738 0 0 0 0 -19807208.185302734 25517421.318450928 0 25517421.318450928 12783521.243112564 0 0 0 0 26206613.870117188 9478759.4001922607 0 9478759.4001922607 -3887495.2921600342 0 0 0 0 2759965.2092568278 10051580.172726415 0 10051580.172726415 -93462.709137156606 0 0 0 0 -32866419.405517578 27502558.639022827 0 27502558.639022827 49381402.380104065 0 0 0 0 276696.56396484375 72579.547485351562 0 72579.547485351562 -6844650.0720214844 0 0 0 0 -64363213.365966797 29198553.900238037 0 29198553.900238037 82206577.59085083 0 0 0 0 -74024424.398193359 -5537523.1997680664 0 -5537523.1997680664 38303565.57119751 0 0 0 0 -6487958.840637207 20896388.98878479 0 20896388.98878479 45240746.625041962 0 0 0 0 -383096.09166181833 2209461.8976201415 0 2209461.8976201415 7948286.6910692081 0 0 0 0 -3981580.0249023438 15143701.387832642 0 15143701.387832642 -14742273.873802185 0 0 0 0 16065707.997436523 -10327880.377109528 0 -10327880.377109528 6924048.2239379883 0 0 0 0 -4484.5279998779297 19361522.18572998 0 19361522.18572998 -13975861.12121582 0 0 0 0 -19287997.781066895 24375603.404846191 0 24375603.404846191 -9270491.6260986328 0 0 0 0 -5010117.1725769043 19605055.406997681 0 19605055.406997681 -17541739.44543457 0 0 0 0 4427018.7213678733 2163134.1173767857 0 2163134.1173767857 -4842709.6909563243 0 0 0 0 -4646936.7997360229 10356189.604258537 0 10356189.604258537 -26210162.913421631 0 0 0 0 -3472396.1259894073 -97050.000133492053 0 -97050.000133492053 13499048.224396713 0 0 0 0 -4913.2320251464844 4043990.0074920654 0 4043990.0074920654 4492735.4341125488 0 0 0 0 1008603.4239501953 49029311.907531738 0 49029311.907531738 1905524533.1790161 0 0 0 0 4159820.2342319116 -81408.387171074748 0 -81408.387171074748 -824888.52239706367 0 0 0 0 -1277655135.8586731 -456608562.64411163 0 -456608562.64411163 1934001004.6501164 0 0 0 0 2586413.4586259425 -4373746.1407916397 0 -4373746.1407916397 8179757.1613794118 0 0 0 0 -24154983.740356445 -34670208.911712646 0 -34670208.911712646 3718869.2948589325 0 0 0 0 -96785151.068359375 4001247.5668640137 0 4001247.5668640137 76275483.458240509 0 0 0 0 -87312224.915405273 -20628391.562332153 0 -20628391.562332153 51073292.440582275 0 0 0 0 226787.44520568848 542533884.47988129 0 542533884.47988129 -324205561.29034805 0 0 0 0 -249286773.7006073 360996614.71327972 0 360996614.71327972 319578388.9108963 0 0 0 0 -1631258.5828012377 2873986.1603761539 0 2873986.1603761539 -3479009.9018372446 0 0 0 0 -333765668.67276001 -501919153.14865112 0 -501919153.14865112 -319740724.14297485 0 0 0 0 170757888.13786316 202521212.7843895 0 202521212.7843895 34791306.698486328 0 0 0 0 515875462.48326111 146686532.44889832 0 146686532.44889832 -241634198.42330933 0 0 0 0 -4034632.4045239314 8702977.3542814553 0 8702977.3542814553 -10999155.167045996 0 0 0 0 143677170.41926575 16895607.852222443 0 16895607.852222443 -229893506.3142705 0 0 0 0 213898287.90146255 536793412.56675911 0 536793412.56675911 396446825.20259094 0 0 0 0 498207508.17082953 87387350.594470739 0 87387350.594470739 -641733834.96942139 0 0 0 0 506892203.29103088 539689574.56600189 0 539689574.56600189 161500103.22323418 0 0 0 0 -119080166.61941528 190604322.16954803 0 190604322.16954803 436648134.23845768 0 0 0 0 132477914.19108582 70198628.900615692 0 70198628.900615692 -219589619.51051331 0 0 0 0 173914148.09550095 411679520.02144051 0 411679520.02144051 115034211.77245331 0 0 0 0 594777978.67621613 593270329.38772583 0 593270329.38772583 -46301400.00743103 0 0 0 0 379248185.07130432 356324615.02695084 0 356324615.02695084 64939068.197807312 0 0 0 0 305773201.08714294 39699160.627799988 0 39699160.627799988 -228578032.16893005 0 0 0 0 1997600.6469007917 3520635.9871503711 0 3520635.9871503711 1542422.2149914801 0 0 0 0 -709437543.73828125 122409429.80986023 0 122409429.80986023 162654731.13179016 0 0 0 0 -570995240.44470215 690941456.65670776 0 690941456.65670776 -661166894.11405945 0 0 0 0 136560440.74633789 -180647391.63173676 0 -180647391.63173676 -95077027.469070435 0 0 0 0 -338489632.40460205 -177347400.02400208 0 -177347400.02400208 227242285.72688293 0 0 0 0 39495821.802825928 146682507.72552872 0 146682507.72552872 20838045.220153809 0 0 0 0 -45171640.358581543 11641772.470314026 0 11641772.470314026 -174632710.27986717 0 0 0 0 -162653260.47622681 201391604.50138474 0 201391604.50138474 -219940270.48667908 0 0 0 0 -264622838.58370972 225166977.33150864 0 225166977.33150864 -153495497.61010742 0 0 0 0 -180993755.00579834 319501356.63469315 0 319501356.63469315 -267467984.02120972 0 0 0 0 -382767632.75323486 426390290.23597717 0 426390290.23597717 -244498156.38287354 0 0 0 0 -420639184.34381104 322057423.26296234 0 322057423.26296234 -249566643.12509537 0 0 0 0 -501386551.56707764 419487878.37377167 0 419487878.37377167 -197272406.28952026 0 0 0 0 -742101.95056152344 438280265.86319923 0 438280265.86319923 -1231155157.0452461 0 0 0 0 -352706609.42086792 641869057.77565002 0 641869057.77565002 -480938309.68735886 0 0 0 0 -43131069.451965332 850426160.45300293 0 850426160.45300293 -2591296714.1386566 0 0 0 0 -304985859.60914612 614005047.48885345 0 614005047.48885345 -757759925.95854187 0 0 0 0 -229772674.91143799 965911208.73029327 0 965911208.73029327 -2669301465.3911428 0 0 0 0 -1786596622.0115967 1548458569.157629 0 1548458569.157629 -1456444288.2307358 0 0 0 0 -455932517.10577393 1405391357.8935356 0 1405391357.8935356 -2669993228.0237274 0 0 0 0 -1370316391.2263184 1005063558.1387177 0 1005063558.1387177 104685988.70015907 0 0 0 0 -288028176.44223022 -51628809.444934845 0 -51628809.444934845 169860516.84310913 0 0 0 0 -1826178872.4087219 -2268719618.266861 0 -2268719618.266861 -2630287241.7205124 0 0 0 0 1656240.8573887534 3081396.9894303679 0 3081396.9894303679 -7138583.3803510368 0 0 0 0 -1091353342.4314194 -1775957454.0725636 0 -1775957454.0725636 -1378207202.8377686 0 0 0 0 -346199928.36254883 -905369966.21398926 0 -905369966.21398926 -1000116026.5447979 0 0 0 0 -900720851.89038086 -446709272.50545883 0 -446709272.50545883 160998573.50515747 0 0 0 0 -1235253308.4242477 -1141091566.7067947 0 -1141091566.7067947 -574051172.79598999 0 0 0 0 267047109.61126709 -1806188496.8072777 0 -1806188496.8072777 -3494481955.7815895 0 0 0 0 -41163497.966796875 -1225456125.9405022 0 -1225456125.9405022 -1658034481.5590172 0 0 0 0 -415060752.20770264 -994125764.26896477 0 -994125764.26896477 -971579450.50227356 0 0 0 0 814854453.61218262 -638912066.25615692 0 -638912066.25615692 -2219818688.1077042 0 0 0 0 832216421.98791504 -844419375.07314301 0 -844419375.07314301 -2170081828.7947521 0 0 0 0 368050736.54135132 -381615704.76690483 0 -381615704.76690483 -953752032.36486816 0 0 0 0 9837027.9209594727 -436831865.66250992 0 -436831865.66250992 -653127763.44632721 0 0 0 0 127334987.4677124 -722802476.0844841 0 -722802476.0844841 -1437103010.9454021 0 0 0 0 -54704098.843475342 -384477301.75186729 0 -384477301.75186729 -694932415.44400024 0 0 0 0 42870112.242553711 -100818631.95070076 0 -100818631.95070076 -330796888.07843018 0 0 0 0 131522108.27493286 -5806891.64103508 0 -5806891.64103508 -397060224.9471283 0 0 0 0 86517959.469543457 -289651850.65296936 0 -289651850.65296936 -971725122.88721848 0 0 0 0 242242778.94763184 62172251.833522797 0 62172251.833522797 -61465581.114639282 0 0 0 0 127152984.80657959 -129977246.64347076 0 -129977246.64347076 163306698.65572572 0 0 0 0 6129824.7161394395 10216636.69572331 0 10216636.69572331 -18663632.666366108 0 0 0 0 579186181.12460327 12581195.768541336 0 12581195.768541336 -410862000.67871094 0 0 0 0 17243803.029968262 229008182.29073334 0 229008182.29073334 -176113699.41236591 0 0 0 0 275233106.41705322 218723515.33724499 0 218723515.33724499 5249750.0402345657 0 0 0 0 11515623.466133844 24321155.21955324 0 24321155.21955324 -24986523.265149441 0 0 0 0 58324357.743438721 -14618059.719490051 0 -14618059.719490051 43205324.340560913 0 0 0 0 108485103.07034302 -102484037.71160316 0 -102484037.71160316 49544327.720085144 0 0 0 0 71667171.680969238 187803047.16251183 0 187803047.16251183 113875039.73147535 0 0 0 0 97104962.649032593 -2668131.2779886723 0 -2668131.2779886723 -397311020.13006973 0 0 0 0 148067937.21908569 -120141682.35754299 0 -120141682.35754299 -347312790.77957916 0 0 0 0 144532724.21560669 177843116.06059647 0 177843116.06059647 -122263247.51106834 0 0 0 0 23520640.117850766 32895058.328332711 0 32895058.328332711 -7668276.5466911634 0 0 0 0 31012098.347305298 41342883.012794495 0 41342883.012794495 57946652.728439331 0 0 0 0 14621608.217346191 139057098.23347855 0 139057098.23347855 227053170.04130936 0 0 0 0 105468728.92459106 26675781.291893005 0 26675781.291893005 -12451412.946487427 0 0 0 0 19288717.883478448 5861791.4473965466 0 5861791.4473965466 3648916.4286474921 0 0 0 0 5489566.9069937207 13614295.359938256 0 13614295.359938256 10146454.33471287 0 0 0 0 69653469.957275391 121346372.50987244 0 121346372.50987244 43275384.934333801 0 0 0 0 14345358.823575526 26694851.100886911 0 26694851.100886911 -1240948.745276019 0 0 0 0 485542.12222290039 12014503.151367188 0 12014503.151367188 13402204.854003906 0 0 0 0 5977156.3464709148 22839775.027025111 0 22839775.027025111 10279790.749234155 0 0 0 0 14504886.563902393 17021378.645734251 0 17021378.645734251 -1293996.5337936888 0 0 0 0 5426835.6314086914 11384712.248687744 0 11384712.248687744 5118587.2676239014 0 0 0 0 14886158.143486023 18402822.690827161 0 18402822.690827161 2951758.9089766722 0 0 0 0 5841085.8599624634 9165866.6625728607 0 9165866.6625728607 4190709.0218811035 0 0 0 0 -13741420.334960938 19759976.845123291 0 19759976.845123291 30895878.05638814 0 0 0 0 -223358.12888033688 6507150.6739659756 0 6507150.6739659756 13653637.681455798 0 0 0 0 19296819.149780273 24332887.685943604 0 24332887.685943604 7507781.1410133839 0 0 0 0 13995113.473308563 14810480.034296989 0 14810480.034296989 24888581.37411499 0 0 0 0 6893017.2008716259 8903533.5758545697 0 8903533.5758545697 4383620.9871825203 0 0 0 0 3246053.4624486417 4140184.253737852 0 4140184.253737852 5570693.4704190493 0 0 0 0 70802098.816131592 -40192491.908676147 0 -40192491.908676147 100145928.81268311 0 0 0 0 17817967.423461914 41132863.046577454 0 41132863.046577454 26568248.375485897 0 0 0 0 30391576.656158447 16875248.869420052 0 16875248.869420052 3597685.5267791748 0 0 0 0 63150805.271392822 -11974542.388561249 0 -11974542.388561249 -79387458.967132568 0 0 0 0 -7026550.0721130371 -82698545.18491745 0 -82698545.18491745 78035686.466781616 0 0 0 0 -261333.35704040527 98296892.279209137 0 98296892.279209137 -60264172.884246826 0 0 0 0 -138935592.79669189 327868772.13861465 0 327868772.13861465 -404462116.08825016 0 0 0 0 -141288497.57095337 54683781.807151794 0 54683781.807151794 60554487.914489746 0 0 0 0 147642.0192373395 1111625.5067705438 0 1111625.5067705438 2535159.3118540421 0 0 0 0 -91241950.234680176 266854295.17804718 0 266854295.17804718 -233021131.65320826 0 0 0 0 -29024.762077525258 531920.79261059314 0 531920.79261059314 11003746.290884206 0 0 0 0 -52380420.051559448 56309223.401977539 0 56309223.401977539 -28975806.284164429 0 0 0 0 -5118801.259262085 7384573.9349308014 0 7384573.9349308014 13822317.455627441 0 0 0 0 -8889007.9569396973 17830917.383811951 0 17830917.383811951 71110973.110440969 0 0 0 0 6274.2579193115234 28289231.102127075 0 28289231.102127075 36139454.878623962 0 0 0 0 -21624566.364120483 14861480.942783356 0 14861480.942783356 31955525.382614136 0 0 0 0 -7984651.8010940552 15469249.070575714 0 15469249.070575714 30234647.645309448 0 0 0 0 -9945699.0506591797 22161441.017028809 0 22161441.017028809 34617595.480381012 0 0 0 0 -10908000.611862183 15573066.344055176 0 15573066.344055176 19265871.222793579 0 0 0 0 -100587.66506958008 25631574.635219574 0 25631574.635219574 21871258.362815857 0 0 0 0 -5416083.3517913818 23854456.166866302 0 23854456.166866302 19514084.048965454 0 0 0 0 -5018922.0403594971 22975049.906673431 0 22975049.906673431 21307315.496078491 0 0 0 0 4319.9744873046875 28352951.65032959 0 28352951.65032959 21985218.783924103 0 0 0 0 12020.010833740234 22889169.362995148 0 22889169.362995148 29075214.699409485 0 0 0 0 1555882.7997741699 27911536.209838867 0 27911536.209838867 19197423.720222473 0 0 0 0 -2288389.2707061768 22088160.495109558 0 22088160.495109558 16581539.883087158 0 0 0 0 1903712.0238494873 26664311.901908875 0 26664311.901908875 19599466.883182526 0 0 0 0 2396511.7919006348 38140706.434707642 0 38140706.434707642 15771178.849721909 0 0 0 0 17494190.781791687 23950846.693265915 0 23950846.693265915 15448086.150848389 0 0 0 0 -10695.45489062973 29499200.069777742 0 29499200.069777742 18159947.583511353 0 0 0 0 -3289309.1663208008 23336927.769302368 0 23336927.769302368 9085771.2981715202 0 0 0 0 -17685004.28326416 11314313.276744843 0 11314313.276744843 17921975.947921753 0 0 0 0 21618190.779243469 43727596.976833344 0 43727596.976833344 19360949.84715271 0 0 0 0 -4486166.2648516335 15370915.029590167 0 15370915.029590167 16776083.35446199 0 0 0 0 -53022124.761947632 5555118.6220855713 0 5555118.6220855713 25878899.462478638 0 0 0 0 10199911.922531128 16996439.192813873 0 16996439.192813873 14848056.497639656 0 0 0 0 -8363706.1747436523 3070133.2534866333 0 3070133.2534866333 -2585415.9549789429 0 0 0 0 8506574.2676696777 54135675.684700012 0 54135675.684700012 25083371.980354309 0 0 0 0 29509204.782716751 36397786.805461884 0 36397786.805461884 40062743.430267334 0 0 0 0 80982974.962249756 116356902.16485596 0 116356902.16485596 112021177.85697937 0 0 0 0 -108555909.02212524 -37043601.176502228 0 -37043601.176502228 66648880.419387817 0 0 0 0 -7865617.9255065918 22829284.653240204 0 22829284.653240204 21948662.542724609 0 0 0 0 -3237054.5066691376 16096441.144544587 0 16096441.144544587 22591756.604190767 0 0 0 0 146412532.797966 -72708371.039970398 0 -72708371.039970398 -12866644.992553711 0 0 0 0 26433682.792907715 24796206.273048401 0 24796206.273048401 40425518.57847476 0 0 0 0 2589829.8222919181 11355817.379778028 0 11355817.379778028 3726122.3712101281 0 0 0 0 -34694545.218643188 144464477.88484192 0 144464477.88484192 110422963.78726196 0 0 0 0 108321873.11456299 50160012.768760681 0 50160012.768760681 -16064523.408756018 0 0 0 0 -2504973.137079454 19895462.402311765 0 19895462.402311765 28634481.129782408 0 0 0 0 5389989.5583531559 9075952.4206046984 0 9075952.4206046984 15521902.870827004 0 0 0 0 25402473.573055267 30448789.641483784 0 30448789.641483784 87948370.163803101 0 0 0 0 33778926.040161133 82440001.819534302 0 82440001.819534302 144929387.85667419 0 0 0 0 2022149.1313724071 2812186.1273033395 0 2812186.1273033395 4223134.7099579275 0 0 0 0 8581666.2963256836 29695825.393173218 0 29695825.393173218 72366458.447805405 0 0 0 0 38167164.456939697 59034479.605743408 0 59034479.605743408 76693251.252307892 0 0 0 0 27794953.576137543 28065929.39193058 0 28065929.39193058 71057620.821594238 0 0 0 0 15986899.61479187 45171124.075378418 0 45171124.075378418 56813970.483100891 0 0 0 0 9985681.2553863525 95779959.670982361 0 95779959.670982361 117435245.97782898 0 0 0 0 43640392.224018097 103837692.12839317 0 103837692.12839317 128822844.09506226 0 0 0 0 23415687.210154533 79386653.424181461 0 79386653.424181461 127293807.84663391 0 0 0 0 47988792.515731812 49828075.528579712 0 49828075.528579712 56145515.390213013 0 0 0 0 3006400.4191894531 49471326.409118652 0 49471326.409118652 56691213.763786316 0 0 0 0 54518385.185799599 105105819.18260527 0 105105819.18260527 64907048.790817261 0 0 0 0 -9377818.7421569824 92800879.966339111 0 92800879.966339111 63035730.785730362 0 0 0 0 -25468366.559165955 70486968.616235733 0 70486968.616235733 88503138.313095093 0 0 0 0 -23621172.477493286 83484824.778118134 0 83484824.778118134 62088299.281524658 0 0 0 0 -35532276.199539185 40324027.363330841 0 40324027.363330841 41241438.115127563 0 0 0 0 24714297.315628052 68631930.992984772 0 68631930.992984772 49276631.75642395 0 0 0 0 37162388.946411133 176550445.65635681 0 176550445.65635681 74289906.013631821 0 0 0 0 -49517276.202362061 184423405.21779633 0 184423405.21779633 73678384.387420654 0 0 0 0 70802325.997650146 293744925.21459961 0 293744925.21459961 169744860.79760265 0 0 0 0 -27659749.449462891 147678645.57818604 0 147678645.57818604 114650579.51425552 0 0 0 0 -23463910.857503593 132290714.42835228 0 132290714.42835228 84332429.60395813 0 0 0 0 27345939.414642334 112965974.74330902 0 112965974.74330902 54635966.248199463 0 0 0 0 -4925483.3394470215 136848115.09760284 0 136848115.09760284 51085860.603530884 0 0 0 0 52318123.272521973 119078788.35561371 0 119078788.35561371 5164795.1738586426 0 0 0 0 87805446.966247559 154208306.05736923 0 154208306.05736923 -16904301.601287842 0 0 0 0 33345875.704498291 101881779.59210968 0 101881779.59210968 -10386344.529403687 0 0 0 0 42704329.115142822 98031670.89175415 0 98031670.89175415 -9191708.2935180664 0 0 0 0 23530219.518585205 49910843.570854187 0 49910843.570854187 -18196395.710037231 0 0 0 0 9869754.470916748 92579445.192047119 0 92579445.192047119 33341872.601425171 0 0 0 0 16827654.496337891 33482327.135803223 0 33482327.135803223 23743817.66003418 0 0 0 0 22528704.800048828 65022912.263145447 0 65022912.263145447 55813600.466209412 0 0 0 0 25693017.623725891 59764904.859909058 0 59764904.859909058 -1363442.2634429932 0 0 0 0 21147310.995239258 29084543.165969849 0 29084543.165969849 3145448.2940826416 0 0 0 0 188261564.10980225 -177360199.46222925 0 -177360199.46222925 60478050.809452057 0 0 0 0 -270123086.65045166 -384615330.99500084 0 -384615330.99500084 -260612791.48976135 0 0 0 0 -28339634.535675049 -92888360.324982643 0 -92888360.324982643 52521573.370721817 0 0 0 0 -593884280.94403076 95338235.651021957 0 95338235.651021957 128880167.19099534 0 0 0 0 184121048.59994507 -123775958.89786434 0 -123775958.89786434 111267975.25848007 0 0 0 0 -174205832.30004501 190136843.03827584 0 190136843.03827584 -351982029.63618088 0 0 0 0 -325018516.74507141 -22670897.784169674 0 -22670897.784169674 896267056.3397131 0 0 0 0 21389590.855222911 32039572.903223515 0 32039572.903223515 -311185.61898818356 0 0 0 0 27398214.189277649 36594497.24224472 0 36594497.24224472 12139768.825256348 0 0 0 0 21786792.036799639 32600312.917483151 0 32600312.917483151 -2735687.4329935713 0 0 0 0 -23957710.102325439 483638758.20839882 0 483638758.20839882 120836952.35150146 0 0 0 0 38740394.228790283 33149788.804405212 0 33149788.804405212 23958464.436920166 0 0 0 0 -213382875.30459595 80019994.103467941 0 80019994.103467941 758574037.16733623 0 0 0 0 177857699.37304688 243177033.17148399 0 243177033.17148399 -44532380.4590168 0 0 0 0 -35553182.781066895 177557905.92959976 0 177557905.92959976 -43503335.734957844 0 0 0 0 182390497.09590149 365490232.28482533 0 365490232.28482533 -694174306.25520325 0 0 0 0 -144270813.12994385 205696709.31129074 0 205696709.31129074 18061710.726295948 0 0 0 0 15771579.961303711 394574081.88624001 0 394574081.88624001 -623206757.71267509 0 0 0 0 -336874517.77355957 510999800.59790325 0 510999800.59790325 -617665154.95247841 0 0 0 0 270771733.43287659 518297096.64175475 0 518297096.64175475 -1656200464.6059456 0 0 0 0 255185668.74549103 390454561.37183237 0 390454561.37183237 -1390993470.6317711 0 0 0 0 -163065733.51477051 812400570.75174522 0 812400570.75174522 -1584377449.2536983 0 0 0 0 238460105.45465088 97955538.952054977 0 97955538.952054977 -796311169.77649307 0 0 0 0 256582374.49360657 31376634.869715691 0 31376634.869715691 -1186081263.7493439 0 0 0 0 684342117.52011108 201037938.0505352 0 201037938.0505352 -1668298269.6572485 0 0 0 0 397044878.5962677 -397320696.45984459 0 -397320696.45984459 -1516563965.490078 0 0 0 0 1141804174.2422943 -530286437.31940365 0 -530286437.31940365 -2697188730.9551201 0 0 0 0 816731766.65014648 -202261020.17297554 0 -202261020.17297554 -1810133052.9656372 0 0 0 0 778522873.23226929 -40338512.476672173 0 -40338512.476672173 -2434591020.9468727 0 0 0 0 1393809192.4728699 -218731129.7035141 0 -218731129.7035141 -2413578059.6058712 0 0 0 0 790081241.22579956 248221949.66838837 0 248221949.66838837 -2539660752.4335117 0 0 0 0 513478425.26327515 642816083.65725517 0 642816083.65725517 -2730535943.2469254 0 0 0 0 1118260442.9713745 238029849.5080986 0 238029849.5080986 -2889790191.1561089 0 0 0 0 775564667.36696815 438154434.60042965 0 438154434.60042965 -3944275430.5746574 0 0 0 0 -2479118279.4303894 678159374.83869553 0 678159374.83869553 -451042768.3856144 0 0 0 0 429636281.43609619 1139064057.4961061 0 1139064057.4961061 -5003103250.6520691 0 0 0 0 -1191613785.6547546 2337779922.6022606 0 2337779922.6022606 -3686848185.6022129 0 0 0 0 -823711412.35864258 1546017588.4761791 0 1546017588.4761791 -2084672313.6958447 0 0 0 0 -309262579.9669342 -420010181.04334402 0 -420010181.04334402 -189598619.0266552 0 0 0 0 -373603903.62841797 3327192677.1264982 0 3327192677.1264982 1318546763.5960755 0 0 0 0 -368717081.94190979 -185005752.03781033 0 -185005752.03781033 -724507005.33467865 0 0 0 0 -262102264.86843872 24369239.79592514 0 24369239.79592514 -348714131.20359421 0 0 0 0 -1281840000.5058899 96549594.474349976 0 96549594.474349976 -303543514.29967594 0 0 0 0 -562151529.91098022 923894355.99111652 0 923894355.99111652 -1277725399.6267319 0 0 0 0 -131115468.71724701 693703271.75616431 0 693703271.75616431 -1544729427.0087318 0 0 0 0 274076921.51121521 119211942.33870029 0 119211942.33870029 -20147152.83587265 0 0 0 0 148877421.57162476 46710315.730733871 0 46710315.730733871 -35050705.888551712 0 0 0 0 99275324.373947144 -287154619.28549528 0 -287154619.28549528 -472074626.64364815 0 0 0 0 499661707.31866455 452718.44096565247 0 452718.44096565247 -282467543.65479755 0 0 0 0 358082650.72412872 523283491.66075993 0 523283491.66075993 506210909.98275757 0 0 0 0 -6288795.5223124921 6514587.83408048 0 6514587.83408048 -978220.55747634382 0 0 0 0 873803721.57110596 276149637.93010044 0 276149637.93010044 -504699942.75524843 0 0 0 0 112867728.5340271 109429174.38266087 0 109429174.38266087 -13562467.575050831 0 0 0 0 -8342557.2147471756 10415281.849982824 0 10415281.849982824 -235106.63132880314 0 0 0 0 118435268.93187714 91904241.815600157 0 91904241.815600157 41097214.11596489 0 0 0 0 -652395550.59020996 142468496.45329511 0 142468496.45329511 -51722386.105566502 0 0 0 0 490518182.78549194 520711062.02507758 0 520711062.02507758 476325793.07290983 0 0 0 0 518594061.9317627 507371244.23855257 0 507371244.23855257 438689517.55964518 0 0 0 0 799065643.24868774 547677360.21223164 0 547677360.21223164 307791025.93562555 0 0 0 0 139254.60619612969 3273040.8799863905 0 3273040.8799863905 997654.85310752923 0 0 0 0 304033096.2633667 -238541786.64536953 0 -238541786.64536953 -845860112.0960989 0 0 0 0 724804.22463394701 385398.02077965438 0 385398.02077965438 -1352382.1923628384 0 0 0 0 209857284.78852844 -95243649.875240684 0 -95243649.875240684 -432288875.81873322 0 0 0 0 -554154069.60523987 247891320.31853104 0 247891320.31853104 383998213.93086815 0 0 0 0 13782795.130022012 13823052.971660651 0 13823052.971660651 -7186082.07820928 0 0 0 0 888088266.64837646 2145734575.552721 0 2145734575.552721 2269215012.1051178 0 0 0 0 532455477.76486206 1192234799.5053549 0 1192234799.5053549 1700854491.6650829 0 0 0 0 47281205.846069336 60138985.904178619 0 60138985.904178619 28076345.944900513 0 0 0 0 22828821.129928589 42547286.558945656 0 42547286.558945656 33089614.441768646 0 0 0 0 67316205.801086426 24498403.436317444 0 24498403.436317444 -15913690.829771042 0 0 0 0 128037126.91107178 72512787.372550964 0 72512787.372550964 8245074.51521492 0 0 0 0 26929673.908216085 33715048.86559242 0 33715048.86559242 -11364551.566755306 0 0 0 0 128269423.1416626 26349280.51884079 0 26349280.51884079 -18852507.408430099 0 0 0 0 59427728.33795166 40391176.752439499 0 40391176.752439499 40112861.107557297 0 0 0 0 -711649122.15176392 -389228303.50868392 0 -389228303.50868392 -195481837.58329487 0 0 0 0 829268361.24343872 537357569.22748923 0 537357569.22748923 -42468362.680044174 0 0 0 0 2112957341.3253174 1395723262.8912258 0 1395723262.8912258 -9724961.2066040039 0 0 0 0 653918829.81591797 -38167210.449653625 0 -38167210.449653625 -471270708.188241 0 0 0 0 211067224.10409546 -1248882359.2851601 0 -1248882359.2851601 -852598781.87724066 0 0 0 0 2860431987.9470825 -239682383.41535473 0 -239682383.41535473 -2248915674.114706 0 0 0 0 1407803.5543823242 41153102.126904488 0 41153102.126904488 -178872844.44639206 0 0 0 0 537971757.29519653 -116358743.67724943 0 -116358743.67724943 -708781792.48066998 0 0 0 0 479913956.13825226 15933692.490042925 0 15933692.490042925 -396395806.93420792 0 0 0 0 15429945.354667217 1578209.7765336037 0 1578209.7765336037 -19164216.349433366 0 0 0 0 63860494.801376343 40553450.521080494 0 40553450.521080494 -755364088.61057281 0 0 0 0 -23403088.466278076 66004728.846906543 0 66004728.846906543 -155666567.38043976 0 0 0 0 36768339.796601288 33530887.964225173 0 33530887.964225173 -11913358.383172229 0 0 0 0 20220899.571751043 35174510.502070904 0 35174510.502070904 14646819.71036605 0 0 0 0 14358668.039031982 37042266.697235107 0 37042266.697235107 -31876618.178264856 0 0 0 0 23877852.874327689 42584490.441223413 0 42584490.441223413 2250828.6911647269 0 0 0 0 -5365990.8394775391 50072846.602615356 0 50072846.602615356 -19816817.637365341 0 0 0 0 95259162.159790039 -703995.72664356232 0 -703995.72664356232 87223978.077693939 0 0 0 0 60403369.995593347 45597205.258829951 0 45597205.258829951 -31704742.167416021 0 0 0 0 169668157.13262939 -3460079.7419023514 0 -3460079.7419023514 7240336.9489135742 0 0 0 0 131576388.06188965 36738709.931987762 0 36738709.931987762 -35181776.519541547 0 0 0 0 146986674.64984131 -283032902.79963493 0 -283032902.79963493 -231424489.65676999 0 0 0 0 160057185.65121269 -91754142.947533906 0 -91754142.947533906 45636874.850831985 0 0 0 0 22434250.46839267 33251613.086841896 0 33251613.086841896 983136.39940318139 0 0 0 0 12430110.707061768 37913516.27444458 0 37913516.27444458 -237165.62076425552 0 0 0 0 -17798111.631530762 -190810144.4569521 0 -190810144.4569521 419108208.36086559 0 0 0 0 8246879.5142974854 28027846.897491455 0 28027846.897491455 -13510173.22479248 0 0 0 0 20739729.865325928 57171356.665390015 0 57171356.665390015 -31752411.178070068 0 0 0 0 1782347.5452728271 66783533.382247925 0 66783533.382247925 -41290637.908554077 0 0 0 0 16064104.929153442 53754008.507972717 0 53754008.507972717 -44485028.304718018 0 0 0 0 -10017902.753662109 55060256.305244446 0 55060256.305244446 -36649165.220092773 0 0 0 0 14562259.094207764 42223953.137069702 0 42223953.137069702 -73939719.268760681 0 0 0 0 -8414259.8604125977 71444027.131462097 0 71444027.131462097 -52462734.945007324 0 0 0 0 2060776.672047101 584852.66814024746 0 584852.66814024746 -41925.161866426468 0 0 0 0 22731167.80178833 116472874.67973328 0 116472874.67973328 -18778045.272918701 0 0 0 0 18478661.510800239 26608741.687299922 0 26608741.687299922 3519714.8568634093 0 0 0 0 -22828784.834411621 34438551.328201294 0 34438551.328201294 -42308444.140777588 0 0 0 0 -70968327.767974854 43250999.423782349 0 43250999.423782349 10381.615295410156 0 0 0 0 40177516.941009521 81893147.631851196 0 81893147.631851196 -89483284.23273468 0 0 0 0 31710164.227966309 86052053.597923279 0 86052053.597923279 -19927670.830200195 0 0 0 0 85959067.843933105 104537277.50248718 0 104537277.50248718 -33329107.5262146 0 0 0 0 -44480403.182556152 31135718.140518188 0 31135718.140518188 -77640238.869918823 0 0 0 0 68524770.140403748 31655662.199857712 0 31655662.199857712 -2630440.551940918 0 0 0 0 -6848040.5097486973 776309.55481927656 0 776309.55481927656 5302112.9332757741 0 0 0 0 66411953.815238953 -18833341.597587585 0 -18833341.597587585 35856197.025749207 0 0 0 0 -8658436.8470162973 19562347.068590194 0 19562347.068590194 11532136.162333563 0 0 0 0 -69811623.126062393 -116149999.05162048 0 -116149999.05162048 -120298332.18251038 0 0 0 0 108845392.10668945 -61424496.628051758 0 -61424496.628051758 -221653840.52845764 0 0 0 0 576060.08455657959 92157721.562961578 0 92157721.562961578 -130647386.40985107 0 0 0 0 147466821.70991516 234375324.06946182 0 234375324.06946182 -59560246.924713135 0 0 0 0 123442818.71463013 163826991.92085266 0 163826991.92085266 -30928637.88420105 0 0 0 0 208856521.21337891 111422722.61299133 0 111422722.61299133 -133663637.19480133 0 0 0 0 49728814.825191498 52295448.848239899 0 52295448.848239899 65900474.53074646 0 0 0 0 -46219039.742477417 78083764.474822998 0 78083764.474822998 172334013.6885376 0 0 0 0 -73434096.30090332 183436945.62336731 0 183436945.62336731 121806630.32672119 0 0 0 0 5367380.9678522591 1744878.109251773 0 1744878.109251773 418270.92126694322 0 0 0 0 -63225701.253883362 142922127.9843483 0 142922127.9843483 278645030.10635376 0 0 0 0 -12709066.849858627 19072206.842513897 0 19072206.842513897 13716488.297689766 0 0 0 0 -48256652.241971016 61546887.903038979 0 61546887.903038979 244444608.55041504 0 0 0 0 128159902.58178711 -135822727.1003418 0 -135822727.1003418 629963725.46887207 0 0 0 0 -41612687.275001526 17568136.030464172 0 17568136.030464172 132543888.83300781 0 0 0 0 446109953.84212494 116901159.64809418 0 116901159.64809418 -301871727.98796082 0 0 0 0 64125261.128734112 -57767382.13635397 0 -57767382.13635397 105064913.10690308 0 0 0 0 20464482.682384491 29402690.573890686 0 29402690.573890686 59654771.232666016 0 0 0 0 18486860.691322327 5843814.7461585999 0 5843814.7461585999 -22532388.017501831 0 0 0 0 40541421.78326416 46922298.427055359 0 46922298.427055359 -11748842.318710327 0 0 0 0 32273083.219909668 60113175.386825562 0 60113175.386825562 -11257780.596101761 0 0 0 0 20319821.183784485 53976833.712554932 0 53976833.712554932 -5882199.0238647461 0 0 0 0 20970412.169791333 11950797.637053655 0 11950797.637053655 -204692.3799739629 0 0 0 0 145828840.36168671 32397349.686168671 0 32397349.686168671 -51557352.820159912 0 0 0 0 16114670.759608269 76134176.547225952 0 76134176.547225952 112444634.05654907 0 0 0 0 -30356330.391052246 66529420.239837646 0 66529420.239837646 -39452548.902709961 0 0 0 0 25684147.552164339 25548722.29338865 0 25548722.29338865 -5210651.9515221715 0 0 0 0 -23456047.154754639 73022167.347583771 0 73022167.347583771 -37642465.486282349 0 0 0 0 25092402.533485413 69949335.216194153 0 69949335.216194153 -67191275.513671875 0 0 0 0 1819766.5092680454 3030227.512243472 0 3030227.512243472 -1761214.3419448063 0 0 0 0 21714911.245475769 88406630.22662735 0 88406630.22662735 76485847.133827209 0 0 0 0 30934879.438423157 49031117.022941589 0 49031117.022941589 -9760701.8828582764 0 0 0 0 13807755.920247734 15080451.736946791 0 15080451.736946791 13935134.410186574 0 0 0 0 66444866.394622803 18615949.513694763 0 18615949.513694763 -55918173.788749695 0 0 0 0 46388546.840057373 57395047.77897644 0 57395047.77897644 7008833.9618225098 0 0 0 0 -1231353.5779724121 132968136.22631073 0 132968136.22631073 204391328.02462769 0 0 0 0 92499968.149448395 10697089.348484039 0 10697089.348484039 6756967.1630554199 0 0 0 0 5894405.0523362011 4864481.4388610274 0 4864481.4388610274 7262377.6721669659 0 0 0 0 -4847744.5388946533 -2439746.4070205688 0 -2439746.4070205688 28415750.529037476 0 0 0 0 46408811.507087708 -17327191.871383667 0 -17327191.871383667 14299650.911270142 0 0 0 0 26915492.074134827 -19419326.800415039 0 -19419326.800415039 18204686.957824707 0 0 0 0 144745.29168922454 -62319.82112184912 0 -62319.82112184912 10264.797869756818 0 0 0 0 152893660.24652863 77808356.142959595 0 77808356.142959595 36230837.826054573 0 0 0 0 157156439.37135315 95047238.521430969 0 95047238.521430969 39617931.358154297 0 0 0 0 82022890.841903687 31103254.796405792 0 31103254.796405792 2683787.3262481689 0 0 0 0 203913144.31626129 58182820.135749817 0 58182820.135749817 858666.34638977051 0 0 0 0 51557134.460411072 28821866.302536011 0 28821866.302536011 25996952.697849274 0 0 0 0 32658659.729204178 1442406.4523067474 0 1442406.4523067474 12767101.053512573 0 0 0 0 93229444.38192749 22380531.084701538 0 22380531.084701538 -5307161.3995552063 0 0 0 0 92537764.993587494 -7577385.5827445984 0 -7577385.5827445984 -13609061.423248291 0 0 0 0 75819474.856399536 5234483.3808441162 0 5234483.3808441162 12088094.461242676 0 0 0 0 33298235.468284607 132943493.03273773 0 132943493.03273773 32917446.073577881 0 0 0 0 337183879.5488739 2658048.2598724365 0 2658048.2598724365 -33453924.526580811 0 0 0 0 301838795.73222828 226905305.95362759 0 226905305.95362759 65726972.785339355 0 0 0 0 364010742.24028778 -222833470.36410618 0 -222833470.36410618 -175108251.44538879 0 0 0 0 449633766.3598175 163563914.91292572 0 163563914.91292572 119010927.3081665 0 0 0 0 1798189.6287475675 1342460.0912766233 0 1342460.0912766233 2109830.5203560404 0 0 0 0 90606071.375972748 -79975058.824485779 0 -79975058.824485779 -40142985.754699707 0 0 0 0 121494226.99871826 356425422.84677124 0 356425422.84677124 534454506.73327637 0 0 0 0 2857093.5226898193 94338148.918182373 0 94338148.918182373 375255023.85115814 0 0 0 0 127754117.70329285 184597870.3974762 0 184597870.3974762 11025564.864746094 0 0 0 0 -27081082.98991394 39374677.856216431 0 39374677.856216431 -51548452.327644348 0 0 0 0 -36308582.232244492 -310835784.40505981 0 -310835784.40505981 4872809.4266357422 0 0 0 0 6714550.5240580812 9507112.1280779988 0 9507112.1280779988 18412682.049794763 0 0 0 0 -150992409.85041809 6381101.2304077148 0 6381101.2304077148 37883831.817687988 0 0 0 0 7033543.8265403435 10085569.615142763 0 10085569.615142763 12575850.74766203 0 0 0 0 33869906.673278809 -87964624.84992981 0 -87964624.84992981 11039355.717704773 0 0 0 0 37578770.697532557 38689241.463627785 0 38689241.463627785 -15448213.537150711 0 0 0 0 45600705.353820801 86690977.046667397 0 86690977.046667397 1338230.4168424606 0 0 0 0 29170018.179962158 28052664.793556213 0 28052664.793556213 66228229.865066528 0 0 0 0 -27324711.513793945 51025567.3175354 0 51025567.3175354 -475522988.30255127 0 0 0 0 15163991.424241573 25984417.227141567 0 25984417.227141567 51318721.236609384 0 0 0 0 75621818.142303467 93148421.564205885 0 93148421.564205885 -149845948.91766739 0 0 0 0 19188406.885177612 92561969.904138088 0 92561969.904138088 66737373.971418381 0 0 0 0 24030120.57667923 86530229.206255972 0 86530229.206255972 5242859.7111821175 0 0 0 0 22268286.286376953 87511660.054151535 0 87511660.054151535 101199465.85583806 0 0 0 0 13365978.506896973 137314223.50900459 0 137314223.50900459 -7929079.7333049774 0 0 0 0 20021201.745483398 107758891.79514122 0 107758891.79514122 -657545.57398986816 0 0 0 0 -2205595.2304077148 142680743.9997282 0 142680743.9997282 95465941.101493835 0 0 0 0 46400143.63772583 187180536.86480236 0 187180536.86480236 -23748319.254845619 0 0 0 0 43055660.966126554 52009800.875571951 0 52009800.875571951 18440603.293274514 0 0 0 0 53835163.889984131 118453141.39658713 0 118453141.39658713 -190070146.87417936 0 0 0 0 41889746.005889893 102065365.51788139 0 102065365.51788139 -65043172.779056549 0 0 0 0 131879254.35742188 132889931.91187286 0 132889931.91187286 -188175857.8417511 0 0 0 0 -10091554.082763672 143155569.73246717 0 143155569.73246717 -8515067.472332716 0 0 0 0 -12242979.633300781 116859491.72673845 0 116859491.72673845 -3059510.9285142422 0 0 0 0 769315.19468334317 2451741.0272188187 0 2451741.0272188187 5704332.9872523751 0 0 0 0 93969081.822875977 209368037.7642231 0 209368037.7642231 -165324643.72041583 0 0 0 0 12127174.257125854 236574297.27290654 0 236574297.27290654 34420301.198300362 0 0 0 0 46109651.846013054 48760427.251210511 0 48760427.251210511 10261860.364749063 0 0 0 0 79057471.534729004 -12623288.917194366 0 -12623288.917194366 -343952463.18020451 0 0 0 0 198168559.45532227 89466254.140280724 0 89466254.140280724 -442254488.92601156 0 0 0 0 69294625.605705261 80308891.432579041 0 80308891.432579041 -45851760.25579834 0 0 0 0 -94868205.751174927 242702620.68357611 0 242702620.68357611 748299951.71604633 0 0 0 0 109247676.51452637 510393981.71778774 0 510393981.71778774 91318152.830091476 0 0 0 0 260615373.70529175 442158045.56041241 0 442158045.56041241 103173956.99341679 0 0 0 0 235287824.12469482 294640448.96615982 0 294640448.96615982 612920445.20915413 0 0 0 0 22748433.317657471 134484389.9971962 0 134484389.9971962 119442037.47400665 0 0 0 0 69672138.542633057 135857955.28444481 0 135857955.28444481 118167331.157794 0 0 0 0 14798367.694611266 6341959.0247671697 0 6341959.0247671697 -1161352.6039918584 0 0 0 0 -20238384.713043213 136110513.73617935 0 136110513.73617935 267046995.65604591 0 0 0 0 -58983380.183425903 3674961.7594470978 0 3674961.7594470978 347783194.4382906 0 0 0 0 273157436.34286499 -326827868.86239529 0 -326827868.86239529 659904931.27972317 0 0 0 0 5094493.1837166548 2012306.9725181572 0 2012306.9725181572 -163711.80567458272 0 0 0 0 714038675.36502075 130231479.75407362 0 130231479.75407362 -514621969.23842812 0 0 0 0 -230611898.37304688 287102400.80698586 0 287102400.80698586 1916614943.194581 0 0 0 0 273320153.60934448 -66598619.659703255 0 -66598619.659703255 -81178095.120868444 0 0 0 0 -119980104.80657959 -7707591.7210003734 0 -7707591.7210003734 98076724.323547363 0 0 0 0 -70825406.546871185 121709080.27456158 0 121709080.27456158 -291085485.69706511 0 0 0 0 -1774826.900970459 -11534986.978561401 0 -11534986.978561401 -152440656.34885979 0 0 0 0 23920596.63701728 11228051.5973593 0 11228051.5973593 -3875846.1226015631 0 0 0 0 73951016.070220947 64008368.936926015 0 64008368.936926015 -362504236.76260149 0 0 0 0 9113877.8774871826 43066311.050552368 0 43066311.050552368 105598234.98952579 0 0 0 0 -7044244.2706604004 116902278.65709591 0 116902278.65709591 106507760.08831978 0 0 0 0 18699850.578430176 36206574.771891594 0 36206574.771891594 110499039.68398857 0 0 0 0 15191997.429779053 -15305034.85838604 0 -15305034.85838604 255447521.37321663 0 0 0 0 62385785.558227539 52755130.416378498 0 52755130.416378498 -114641931.06620955 0 0 0 0 157621359.82366943 44762794.42640686 0 44762794.42640686 -129921529.58773708 0 0 0 0 61393081.749572754 37044966.42349577 0 37044966.42349577 -96512892.501710415 0 0 0 0 156414235.12161255 172814924.82458305 0 172814924.82458305 22093621.801339149 0 0 0 0 77235056.873361588 168444672.72347867 0 168444672.72347867 -32026429.247711182 0 0 0 0 -26001303.983398438 52877941.349481344 0 52877941.349481344 -207050909.99526882 0 0 0 0 134926028.23309326 53821756.556115389 0 53821756.556115389 -208052568.27923727 0 0 0 0 -56862150.909790039 -93296569.383022308 0 -93296569.383022308 -311850181.07241058 0 0 0 0 -44914803.330596924 -52171443.678962708 0 -52171443.678962708 -180967343.2508316 0 0 0 0 -131208945.82736206 -88632548.876580715 0 -88632548.876580715 -14341061.334444523 0 0 0 0 33887159.147872925 -179418182.13986444 0 -179418182.13986444 -429308269.02382565 0 0 0 0 -70605324.198730469 172953538.40557003 0 172953538.40557003 -838730676.94273949 0 0 0 0 -87292369.465154648 -24115035.59056583 0 -24115035.59056583 -260787842.11018944 0 0 0 0 -337807624.60745239 253196059.21977425 0 253196059.21977425 -148564524.47516632 0 0 0 0 -511045353.1368103 396586159.47913837 0 396586159.47913837 -478063858.74942112 0 0 0 0 73810545.120758057 -17562442.760258555 0 -17562442.760258555 -293214651.82774734 0 0 0 0 -26103346.884277344 82218951.981123924 0 82218951.981123924 -488446942.71355629 0 0 0 0 -24771886.585388184 53668522.453136444 0 53668522.453136444 -124192175.45283318 0 0 0 0 121250452.11126709 139471659.75414085 0 139471659.75414085 -239555095.12963009 0 0 0 0 -181423914.1161499 292173959.65367031 0 292173959.65367031 213582250.9995594 0 0 0 0 -207041062.8170166 421047528.19257545 0 421047528.19257545 -383872471.3599472 0 0 0 0 59956316.311950684 661893210.55447388 0 661893210.55447388 -63639615.55909729 0 0 0 0 -974600025.41520691 1111125683.8538923 0 1111125683.8538923 -254460508.92585754 0 0 0 0 -1069010606.4844055 985717731.55579376 0 985717731.55579376 -353913528.3899498 0 0 0 0 -331595494.1842041 373093966.66444588 0 373093966.66444588 -614585087.76962662 0 0 0 0 -689280666.09204102 405123675.36852264 0 405123675.36852264 391419281.68205643 0 0 0 0 2420876.7128289789 374273.70627607405 0 374273.70627607405 -11890241.679016631 0 0 0 0 -1173264885.1168671 1468981428.0113001 0 1468981428.0113001 -519784253.17001724 0 0 0 0 77435399.337409973 -210383680.56768322 0 -210383680.56768322 -2033423889.2189598 0 0 0 0 -1600455942.0420837 1159120576.8317566 0 1159120576.8317566 127455772.29909134 0 0 0 0 -201286864.10595703 746902250.40099144 0 746902250.40099144 -2136134966.4394956 0 0 0 0 -712665104.37028503 -268960045.70591927 0 -268960045.70591927 1794398926.3436432 0 0 0 0 -1806583.7792449594 773822.45725692343 0 773822.45725692343 -814223.61943588732 0 0 0 0 -256849611.48764038 1291229219.2452011 0 1291229219.2452011 -5421846193.0729427 0 0 0 0 -150464299.84713745 503385397.37702084 0 503385397.37702084 872388525.04554367 0 0 0 0 -2166749.4526277184 2062009.8345995992 0 2062009.8345995992 -2576298.7108095326 0 0 0 0 -6935821.2314990461 2449656.423462376 0 2449656.423462376 -74697.301015962847 0 0 0 0 -2658883.2278747559 -1326422.8628158569 0 -1326422.8628158569 3343605.9056348801 0 0 0 0 172402968.69046021 67889559.750354767 0 67889559.750354767 241742667.98578453 0 0 0 0 92379336.383739471 221193819.84408629 0 221193819.84408629 116999786.76310539 0 0 0 0 121833352.77490234 255318742.88012314 0 255318742.88012314 304854975.6889782 0 0 0 0 -12774148.442140162 7968526.4477735758 0 7968526.4477735758 -3936165.0662514409 0 0 0 0 159198352.07883453 225385524.26768708 0 225385524.26768708 131913050.10347366 0 0 0 0 128317058.5300293 105801663.32130718 0 105801663.32130718 121338291.77664375 0 0 0 0 197567194.74939919 261379648.37632024 0 261379648.37632024 254245484.50915146 0 0 0 0 -5381633.1956939697 5556925.3503932953 0 5556925.3503932953 432140.53017234802 0 0 0 0 -8552308.9350814819 6708922.7999873161 0 6708922.7999873161 3773951.1554222107 0 0 0 0 -1658008.8926361203 3386981.8169762902 0 3386981.8169762902 -2667482.727695141 0 0 0 0 -153586488.29786682 475123835.53825712 0 475123835.53825712 -1517990519.6578941 0 0 0 0 -49849413.431350708 369452289.66083145 0 369452289.66083145 -1410402994.9928284 0 0 0 0 -187963878.29023743 391081432.62294149 0 391081432.62294149 -1423193614.232357 0 0 0 0 -521956958.57943726 214233974.84916306 0 214233974.84916306 -1504498700.2999992 0 0 0 0 -227024750.04784775 719195400.56246972 0 719195400.56246972 -2036422239.9027824 0 0 0 0 -183638995.95205688 520008753.65134621 0 520008753.65134621 -1123228115.7185974 0 0 0 0 263620296.42631531 654136982.32484818 0 654136982.32484818 -1416379059.2732773 0 0 0 0 272472417.59768677 486244380.4648037 0 486244380.4648037 -1178248150.8722401 0 0 0 0 -790867671.52572632 755879700.54578018 0 755879700.54578018 -487873472.78888702 0 0 0 0 -789968202.8860321 736355995.67388535 0 736355995.67388535 -195024745.0158329 0 0 0 0 3424751.7867650986 430830679.79131955 0 430830679.79131955 -101109112.54232025 0 0 0 0 -1376269464.1503296 188098080.60324287 0 188098080.60324287 -56379101.764068604 0 0 0 0 -1454390479.0979233 862367370.98831165 0 862367370.98831165 70004173.222839355 0 0 0 0 -1675945754.5805054 1362206796.240799 0 1362206796.240799 -812948574.04512882 0 0 0 0 -1241720918.7006531 982028441.86528397 0 982028441.86528397 -600275117.01799774 0 0 0 0 -1680193263.1650891 31636064.580436938 0 31636064.580436938 -2027721734.7053947 0 0 0 0 771344.35400702059 160920.89340043813 0 160920.89340043813 -5117357.477967687 0 0 0 0 -3084069073.883667 2958560803.0977049 0 2958560803.0977049 -1827105201.7149086 0 0 0 0 -188154655.37779999 -435396852.48321295 0 -435396852.48321295 -338732009.05318451 0 0 0 0 -1557634752.1382446 1267563944.8388271 0 1267563944.8388271 38940788.063117981 0 0 0 0 -219826699.05825806 860301832.49466515 0 860301832.49466515 -1436594675.7351532 0 0 0 0 -1319991388.7930298 2279846987.1727924 0 2279846987.1727924 -962801318.31941986 0 0 0 0 -4198854854.0302429 2548383673.324645 0 2548383673.324645 -902406735.54191148 0 0 0 0 -2004764944.1510162 1669058765.5375013 0 1669058765.5375013 -1676495849.4211102 0 0 0 0 4752106481.3556519 215972944.96119264 0 215972944.96119264 -2060140380.5909169 0 0 0 0 545271.56412245007 4299525.6135455221 0 4299525.6135455221 -6102382.5410885029 0 0 0 0 1234604.3217315152 10089673.621670976 0 10089673.621670976 -11886645.567976002 0 0 0 0 100190146.24053955 407709772.82116508 0 407709772.82116508 -1428539075.0631657 0 0 0 0 -2599270312.6204681 1099925828.2799225 0 1099925828.2799225 283002684.47463036 0 0 0 0 -1368804141.84622 76172813.680212498 0 76172813.680212498 378702852.81170654 0 0 0 0 -156612010.86006165 2158974710.8838477 0 2158974710.8838477 154289661.69598317 0 0 0 0 3849976305.9912767 599547329.74657154 0 599547329.74657154 -1756398670.5864117 0 0 0 0 -191404343.77868652 2231236738.3990173 0 2231236738.3990173 51217162.776607513 0 0 0 0 561595.64958022605 12621626.886294901 0 12621626.886294901 -6824255.5263682492 0 0 0 0 469920435.64070129 90059769.099629402 0 90059769.099629402 7621265.8622131348 0 0 0 0 355278283.5933075 971525.3698348999 0 971525.3698348999 -287006864.70601654 0 0 0 0 92917309.038452148 -198287364.79001236 0 -198287364.79001236 -232409027.43103409 0 0 0 0 -602213116.17648315 -221236691.51787949 0 -221236691.51787949 -17779016.785667419 0 0 0 0 3408751.0450633019 3585427.0132829128 0 3585427.0132829128 -2945886.5061500673 0 0 0 0 -3073713749.3927383 1886692000.4226084 0 1886692000.4226084 -1145805389.7270737 0 0 0 0 -176608952.09375 1927181578.3399582 0 1927181578.3399582 3726781752.4777598 0 0 0 0 -619450776.65734863 2748141253.3610859 0 2748141253.3610859 34179209.261402309 0 0 0 0 328522886.67481995 2883607603.6004677 0 2883607603.6004677 37591675.62047255 0 0 0 0 -2529684939.9286194 -947687228.78491139 0 -947687228.78491139 -2386092763.162261 0 0 0 0 237756431.17932129 3771435105.9253721 0 3771435105.9253721 -4064420655.1088891 0 0 0 0 467308816.056427 533929308.79499459 0 533929308.79499459 -1877544167.6285162 0 0 0 0 464819513.4519043 734136503.75732863 0 734136503.75732863 447506556.61913753 0 0 0 0 1778131419.2242737 -1049802114.0009564 0 -1049802114.0009564 -434115195.75884354 0 0 0 0 -1903482239.9412842 391348021.3635211 0 391348021.3635211 -356429012.50699687 0 0 0 0 -126537317.12656403 107917578.94574487 0 107917578.94574487 -634074508.36527491 0 0 0 0 -459209763.48046875 415922350.30489361 0 415922350.30489361 -651861938.98205996 0 0 0 0 -910973415.51416016 541110435.62885427 0 541110435.62885427 -609096970.83336985 0 0 0 0 -119726204.30764771 730614249.22216749 0 730614249.22216749 -950997297.3110826 0 0 0 0 -32734069.940551758 693254863.12399352 0 693254863.12399352 -955620028.83522761 0 0 0 0 1087688956.7700806 863735122.50428975 0 863735122.50428975 -1378383041.1576419 0 0 0 0 521287627.74810791 1046883937.975973 0 1046883937.975973 -1412375190.2778916 0 0 0 0 483710182.45481873 267491024.75427282 0 267491024.75427282 -927202712.12937188 0 0 0 0 206233808.70748138 438554446.41938639 0 438554446.41938639 -880724524.71947074 0 0 0 0 673430482.65847778 1620523439.4664207 0 1620523439.4664207 -2543795392.7034345 0 0 0 0 -2181922497.4846649 3336836459.7709889 0 3336836459.7709889 -2245430211.7789745 0 0 0 0 -1531933533.4647827 1949853086.609297 0 1949853086.609297 -1566217305.2010589 0 0 0 0 -182108609.45335388 -339171357.00016487 0 -339171357.00016487 -1440177139.2203443 0 0 0 0 -1157426573.3863602 1490141659.8926144 0 1490141659.8926144 -929198912.070364 0 0 0 0 2426052.2929815501 623080.06152265519 0 623080.06152265519 -10414030.729148068 0 0 0 0 -685938541.1116333 1416174098.7603083 0 1416174098.7603083 -676148844.63939309 0 0 0 0 -20389159.272216797 684588246.65474153 0 684588246.65474153 51559630.535852075 0 0 0 0 889274.45478211343 434358.10784517974 0 434358.10784517974 -3711552.0116887442 0 0 0 0 -2519660485.7490768 2837276731.1253362 0 2837276731.1253362 -1269414461.32933 0 0 0 0 1826148624.2160645 -482495297.98906261 0 -482495297.98906261 -645793200.57376099 0 0 0 0 -463914776.13337517 644436577.22644567 0 644436577.22644567 -1373022627.8260593 0 0 0 0 -1353456511.2652893 647328472.29891586 0 647328472.29891586 -982221321.22800922 0 0 0 0 385063236.81004333 260304813.01255608 0 260304813.01255608 -1354160534.6945839 0 0 0 0 -82232588.518562317 144611247.02864301 0 144611247.02864301 -292193533.77976418 0 0 0 0 328240274.95574951 -282123573.76924014 0 -282123573.76924014 -522027551.19470549 0 0 0 0 256897524.38521957 499590516.08368427 0 499590516.08368427 828922295.04529572 0 0 0 0 183253446.38214111 -45298610.370276928 0 -45298610.370276928 -157358187.53184986 0 0 0 0 290463887.9801023 2088265381.820684 0 2088265381.820684 -2125345793.3248112 0 0 0 0 112801423.29756737 -156936287.52205163 0 -156936287.52205163 -449634725.99901509 0 0 0 0 287703058.33355713 483360557.59287208 0 483360557.59287208 -1806231267.062243 0 0 0 0 922466524.14273071 894298420.07002282 0 894298420.07002282 -1659756049.6599262 0 0 0 0 207036350.23674011 528112756.63205278 0 528112756.63205278 -1658016792.7157567 0 0 0 0 -181776096.93722534 391981581.22028983 0 391981581.22028983 -1733231052.5655608 0 0 0 0 -253348294.98162079 89718183.227181613 0 89718183.227181613 -2754675152.6728926 0 0 0 0 -469816060.70796204 849029093.25327766 0 849029093.25327766 -1069675827.7119298 0 0 0 0 225661356.63604736 897156762.50426579 0 897156762.50426579 -2100166798.2937727 0 0 0 0 -437800146.59767151 1019340813.0904415 0 1019340813.0904415 -1092070507.5909419 0 0 0 0 262392791.20568848 1183041449.2488914 0 1183041449.2488914 -1051384096.6432462 0 0 0 0 378372247.74044037 515169711.1384213 0 515169711.1384213 -1161763198.8930762 0 0 0 0 975580625.36083984 -476670204.51037979 0 -476670204.51037979 52090697.349674702 0 0 0 0 -1383046427.4342041 911423615.18249989 0 911423615.18249989 -402176054.54822922 0 0 0 0 -652322670.59664917 466309473.86533213 0 466309473.86533213 -640096082.76736748 0 0 0 0 -893589164.96212769 1663239805.7466598 0 1663239805.7466598 -2439007620.4051886 0 0 0 0 271138761.1383667 975746144.90015244 0 975746144.90015244 -5879546955.391531 0 0 0 0 -1566761500.2480164 2729795891.4987926 0 2729795891.4987926 -2536529525.3797841 0 0 0 0 -2430086.6748090535 2266053.3973251916 0 2266053.3973251916 -614472.05546726182 0 0 0 0 -1296707203.9778328 1340212658.9397075 0 1340212658.9397075 1632766018.8117204 0 0 0 0 -1234242.4018868804 3613232.8504904583 0 3613232.8504904583 -4959936.0290342486 0 0 0 0 -202882362.39231682 3793562492.5449715 0 3793562492.5449715 -1215211266.0026398 0 0 0 0 795287451.92076492 -1027215921.464524 0 -1027215921.464524 -2507874856.8570747 0 0 0 0 763979700.44284058 -798480398.13528061 0 -798480398.13528061 -4170652881.1813822 0 0 0 0 754714870.02435303 -148868330.19826698 0 -148868330.19826698 -265048358.95172718 0 0 0 0 1444304437.5428162 -52214403.506448746 0 -52214403.506448746 -2659930466.0819321 0 0 0 0 -2283277.355153814 7264308.8504437655 0 7264308.8504437655 -9839768.6873707883 0 0 0 0 1940862892.2857056 1898885817.9285812 0 1898885817.9285812 -223465423.03229296 0 0 0 0 1776793882.7857666 1115144735.3753099 0 1115144735.3753099 -392935412.74248648 0 0 0 0 393291092.04031372 630323444.81908321 0 630323444.81908321 -300995967.37694103 0 0 0 0 869561027.10551834 -18852718.412148058 0 -18852718.412148058 -1669381518.3556032 0 0 0 0 713239208.78953552 1404006089.7427402 0 1404006089.7427402 -3030858207.6089664 0 0 0 0 -263037016.08436584 767723220.79929256 0 767723220.79929256 -1536876758.6605353 0 0 0 0 675306228.2648201 -38658079.012998879 0 -38658079.012998879 -974382186.97080183 0 0 0 0 -690178994.68313599 372916323.22398257 0 372916323.22398257 -266257145.87054658 0 0 0 0 -860651471.73478699 567348600.89485431 0 567348600.89485431 -620387525.63590717 0 0 0 0 -610233857.73449707 515494553.33673954 0 515494553.33673954 -616854674.47922885 0 0 0 0 -230180100.99557114 605617100.5592159 0 605617100.5592159 -886599338.56555891 0 0 0 0 -619078023.49447632 930926009.74843478 0 930926009.74843478 -1138135807.4358268 0 0 0 0 -1072487505.6072235 1475490873.9375584 0 1475490873.9375584 -1436408096.0900002 0 0 0 0 -822377062.81491089 1133244061.7967374 0 1133244061.7967374 -980814732.89926219 0 0 0 0 -306086420.37921906 1662655713.6046972 0 1662655713.6046972 -2075403236.1550303 0 0 0 0 255157182.88684082 1442022069.5077722 0 1442022069.5077722 -2220163984.4329777 0 0 0 0 -3052207389.6604481 2188071065.0289149 0 2188071065.0289149 -1251869922.6533151 0 0 0 0 -645339026.28157043 2660528835.4117069 0 2660528835.4117069 -3799485111.2955132 0 0 0 0 356535333.11334229 -394299764.22989416 0 -394299764.22989416 -3953879050.2689047 0 0 0 0 -101251357.60624695 380171825.91826391 0 380171825.91826391 -449481028.21117973 0 0 0 0 11111004.392666191 8315716.3095649462 0 8315716.3095649462 -8996592.6243516449 0 0 0 0 -1330414.8408308029 6314617.8437449858 0 6314617.8437449858 -5760854.1878404571 0 0 0 0 -129949769.57286072 686585027.07654381 0 686585027.07654381 317606003.59908342 0 0 0 0 6460476.339066416 4782905.4548436236 0 4782905.4548436236 -4011458.9766058223 0 0 0 0 369569485.50515747 307079292.21137285 0 307079292.21137285 -1663808190.7162204 0 0 0 0 331392654.92567444 1721281377.0129175 0 1721281377.0129175 -2133564094.7014513 0 0 0 0 226318993.31922913 1590159590.7892528 0 1590159590.7892528 -1529213678.9995911 0 0 0 0 675666305.55426025 985182382.73720837 0 985182382.73720837 -1624950595.8124967 0 0 0 0 546341815.48156738 1797345163.4378948 0 1797345163.4378948 -2133002117.2351837 0 0 0 0 350981038.6166687 2400522834.7159967 0 2400522834.7159967 -3991991310.867425 0 0 0 0 -968476079.55882263 878471088.45270395 0 878471088.45270395 -1614135822.4433155 0 0 0 0 -801037574.63864136 2504103587.6727252 0 2504103587.6727252 -2107578334.807065 0 0 0 0 179364136.08764648 1684633534.7709026 0 1684633534.7709026 -1070959073.6295652 0 0 0 0 -33116499.788040161 1296774524.0205493 0 1296774524.0205493 -916812709.75186634 0 0 0 0 180273022.15626526 265812467.69781995 0 265812467.69781995 319319489.35290146 0 0 0 0 -138003385.35650635 1666362052.7974191 0 1666362052.7974191 -470629149.32664251 0 0 0 0 79696646.521959305 612495946.33601475 0 612495946.33601475 42219267.338531494 0 0 0 0 234139183.45822144 1354406785.4670029 0 1354406785.4670029 781544971.74264431 0 0 0 0 420824793.91969299 124463163.86264586 0 124463163.86264586 1520055677.9229136 0 0 0 0 -303268041.35614014 809516973.46655846 0 809516973.46655846 1755867827.8233938 0 0 0 0 3205117.9102060348 2706722.4573521535 0 2706722.4573521535 -1321460.7738506454 0 0 0 0 800979854.74807739 404375861.9587636 0 404375861.9587636 1446968239.7671986 0 0 0 0 822589546.66860962 1540756771.5732229 0 1540756771.5732229 1952911186.5651274 0 0 0 0 -387019889.8253479 728641375.93600082 0 728641375.93600082 3930843870.4374275 0 0 0 0 915776.39003762603 564277.23937050812 0 564277.23937050812 -89726.699277839143 0 0 0 0 773001015.57678223 191994158.3717882 0 191994158.3717882 -940306501.04820383 0 0 0 0 106155449.47587585 323555649.15733868 0 323555649.15733868 1362472146.8425293 0 0 0 0 719107698.89938354 1053171113.0020404 0 1053171113.0020404 -153623885.1250267 0 0 0 0 -250385.95864868164 918279352.06354952 0 918279352.06354952 1117609345.4988747 0 0 0 0 -88012408.536865234 353714206.16701412 0 353714206.16701412 -531693739.47285223 0 0 0 0 911615.77124023438 1309115106.5886316 0 1309115106.5886316 -1622417547.6240091 0 0 0 0 -169649583.39068604 689989534.36862183 0 689989534.36862183 -2281705312.6320515 0 0 0 0 -940987.35723876953 1235546233.048852 0 1235546233.048852 -2617250483.4219484 0 0 0 0 -271952126.14852905 1033826326.6683893 0 1033826326.6683893 -2731909982.8848133 0 0 0 0 127886273.910923 1243526085.4960618 0 1243526085.4960618 -3038537143.1115131 0 0 0 0 -851353689.52186298 2063732291.1426592 0 2063732291.1426592 -2318876044.5220413 0 0 0 0 -841538801.15455627 2306518382.0089898 0 2306518382.0089898 1665138177.9003067 0 0 0 0 971536243.32914734 69152440.153059363 0 69152440.153059363 -4997483644.9896126 0 0 0 0 -1247311.7775680125 3575153.3527913094 0 3575153.3527913094 -4836195.1990603944 0 0 0 0 -799010692.14814758 1838732203.9119701 0 1838732203.9119701 -2919711162.5787525 0 0 0 0 -2431772207.5936279 1235827246.3136806 0 1235827246.3136806 -880709559.73285103 0 0 0 0 1985037408.2629883 406866886.28377843 0 406866886.28377843 -2199618386.5268364 0 0 0 0 178941980.51898193 397621218.11965799 0 397621218.11965799 -3158755137.638649 0 0 0 0 603571156.21636963 -426372376.37764549 0 -426372376.37764549 -1580875764.3691673 0 0 0 0 288196698.46882629 238003979.20356846 0 238003979.20356846 -6392766286.9351425 0 0 0 0 -46812359.940368652 1493990826.2695847 0 1493990826.2695847 -5293204848.6358948 0 0 0 0 -1798691422.232254 -650784691.01728058 0 -650784691.01728058 -4073233803.9211907 0 0 0 0 602527.98561096191 528536016.93021202 0 528536016.93021202 -3992054557.0147076 0 0 0 0 -122549379.77780151 1339397568.3130589 0 1339397568.3130589 -3026469737.5836277 0 0 0 0 -835673911.53263855 594471244.671875 0 594471244.671875 -2807373360.9821033 0 0 0 0 29697346.647979736 53982283.159042358 0 53982283.159042358 157624661.62476659 0 0 0 0 32792003.670715332 39306327.950263977 0 39306327.950263977 133144034.90110016 0 0 0 0 -28247460.276977539 45031223.658576965 0 45031223.658576965 133013001.71162355 0 0 0 0 82399443.998672485 30884498.723434448 0 30884498.723434448 106441975.96612549 0 0 0 0 84301654.230400085 41444635.73365593 0 41444635.73365593 161013242.01277161 0 0 0 0 113568680.49468994 3794131.9322509766 0 3794131.9322509766 145648656.31655884 0 0 0 0 73567203.672119141 20779413.552906036 0 20779413.552906036 150994809.91035461 0 0 0 0 66378271.234741211 15604216.945373535 0 15604216.945373535 154201580.25300598 0 0 0 0 30272453.817978263 4005146.2219769359 0 4005146.2219769359 150495103.2215271 0 0 0 0 97598238.677368164 17927515.089553833 0 17927515.089553833 149702212.32616425 0 0 0 0 208022574.53511715 -1448843.8039932251 0 -1448843.8039932251 -214177013.9859848 0 0 0 0 56503758.339419037 48395263.839361116 0 48395263.839361116 -12642073.343711196 0 0 0 0 65595157.608551025 19880626.654838562 0 19880626.654838562 151629888.07690811 0 0 0 0 118385096.75219584 43314583.69052124 0 43314583.69052124 -104840727.07437134 0 0 0 0 182376971.18466902 -58738364.632705688 0 -58738364.632705688 -32605470.774200439 0 0 0 0 282331221.4578743 -147649642.80819702 0 -147649642.80819702 -126273224.86027908 0 0 0 0 344961209.10813618 42667648.383270264 0 42667648.383270264 -147309353.64266872 0 0 0 0 309336569.23102665 65952518.592445374 0 65952518.592445374 76831980.540863037 0 0 0 0 325098550.32586861 76873932.000663757 0 76873932.000663757 53482395.725311279 0 0 0 0 -38402552.457060337 184213233.72065687 0 184213233.72065687 -31066153.406700134 0 0 0 0 178186325.80490494 237179016.72293091 0 237179016.72293091 351219248.9642334 0 0 0 0 99875746.702939987 -182038421.34841919 0 -182038421.34841919 -4270273.7782249451 0 0 0 0 -109392528.1196003 -50845160.808639526 0 -50845160.808639526 260200498.05787659 0 0 0 0 79555719.892608643 59730722.163368225 0 59730722.163368225 157762729.25632668 0 0 0 0 53429701.12991333 17806522.51714325 0 17806522.51714325 154586677.4809494 0 0 0 0 51634208.28438393 49176067.250745647 0 49176067.250745647 -22501162.996923938 0 0 0 0 -5136527.5246505737 70704902.27557373 0 70704902.27557373 221386260.67372894 0 0 0 0 -7805211.9368473403 48173531.087976679 0 48173531.087976679 2519113.1532251015 0 0 0 0 37692486.097730637 118141652.28186035 0 118141652.28186035 -10262861.962966919 0 0 0 0 16138467.925048828 74726369.001556396 0 74726369.001556396 1520155.859375 0 0 0 0 14605174.355827689 47441896.127410553 0 47441896.127410553 -18389455.902617101 0 0 0 0 14482285.745755024 34537496.944296643 0 34537496.944296643 6505336.5043098181 0 0 0 0 4189351.2428312302 241557551.98005152 0 241557551.98005152 287498729.79257202 0 0 0 0 -13302417.877426147 25774375.592834473 0 25774375.592834473 151037080.66536713 0 0 0 0 -22632748.170257568 50534367.34412384 0 50534367.34412384 208872086.28125 0 0 0 0 18274272.018821716 59271128.006923676 0 59271128.006923676 86737990.671710968 0 0 0 0 -124549581.70807648 13740355.398809433 0 13740355.398809433 77589246.506866455 0 0 0 0 -345239626.44590378 263996958.37480068 0 263996958.37480068 93698860.073287964 0 0 0 0 143995601.21281433 128607173.44445801 0 128607173.44445801 103078149.28182602 0 0 0 0 158440353.62895966 244532949.52028275 0 244532949.52028275 -437271866.3258667 0 0 0 0 -9809813.1022491455 144570922.88451004 0 144570922.88451004 -358834422.75094986 0 0 0 0 -190127717.32338333 -149682067.59299469 0 -149682067.59299469 -226313232.10275269 0 0 0 0 -27721169.528381348 103977231.98165131 0 103977231.98165131 -89650168.009975433 0 0 0 0 63462581.655426025 39549264.767749786 0 39549264.767749786 -177143844.22696304 0 0 0 0 31349490.56603241 -22352615.755903244 0 -22352615.755903244 61487078.681144714 0 0 0 0 115764159.5388031 31590315.194522858 0 31590315.194522858 -5012350.3998641968 0 0 0 0 40782765.880893707 26926547.7352314 0 26926547.7352314 1705328.903755188 0 0 0 0 114581093.7154541 19273735.890922546 0 19273735.890922546 -60295538.442588806 0 0 0 0 116181463.77565002 32624391.83549881 0 32624391.83549881 16708132.599794388 0 0 0 0 333956429.29785156 279684253.61667252 0 279684253.61667252 146739402.70875072 0 0 0 0 64874944.994049072 34419552.077571869 0 34419552.077571869 94473280.714522839 0 0 0 0 121860396.90673065 7476726.9615211487 0 7476726.9615211487 32310026.802566528 0 0 0 0 20226006.438081928 12486726.765329171 0 12486726.765329171 5634050.1401381642 0 0 0 0 127626311.27407837 3567847.5086669922 0 3567847.5086669922 6063450.6569137573 0 0 0 0 99344097.880241394 9382975.473110199 0 9382975.473110199 41040684.813972473 0 0 0 0 43539364.775500506 54863817.863237008 0 54863817.863237008 30167138.353892691 0 0 0 0 -169731469.77134705 590904796.42814636 0 590904796.42814636 360936241.14888382 0 0 0 0 250055855.20503235 -98728842.760139465 0 -98728842.760139465 -189491749.92611313 0 0 0 0 376358891.48781586 -166122164.78894615 0 -166122164.78894615 -256464456.14289093 0 0 0 0 17090822.527945895 5089392.1823889576 0 5089392.1823889576 -9858314.5662762895 0 0 0 0 -73453385.310684204 58479773.172206402 0 58479773.172206402 -36305522.079879761 0 0 0 0 -145360037.15816498 126218257.26634598 0 126218257.26634598 7058017.9857521057 0 0 0 0 -206614020.03746796 7613577.5162582397 0 7613577.5162582397 23535733.753368378 0 0 0 0 -4700591.9681167603 81202782.550624847 0 81202782.550624847 -47156317.639499664 0 0 0 0 31556629.426132202 -80360918.538314819 0 -80360918.538314819 -9916610.0575313568 0 0 0 0 50306290.173095703 179017171.29193878 0 179017171.29193878 52583651.248622894 0 0 0 0 47438758.158989236 60559716.226683825 0 60559716.226683825 27762081.244070407 0 0 0 0 56545319.134132385 135319299.13202286 0 135319299.13202286 16712721.200279236 0 0 0 0 -9577497.2598032951 130188243.26540697 0 130188243.26540697 70642489.406383514 0 0 0 0 532372385.78446198 -436379181.12737274 0 -436379181.12737274 420123013.65313721 0 0 0 0 2476538.9882858843 34976301.375595406 0 34976301.375595406 10808283.496926375 0 0 0 0 -17704307.249389648 171651002.67293358 0 171651002.67293358 127423553.90026093 0 0 0 0 109846224.73548126 76049514.875125885 0 76049514.875125885 12320653.504226685 0 0 0 0 158846668.27842712 11313370.584774017 0 11313370.584774017 -3694884.9915657043 0 0 0 0 1515995788.5452271 -271127904.62998581 0 -271127904.62998581 -495942209.18976116 0 0 0 0 1265097451.7285156 1382070749.8750191 0 1382070749.8750191 -1916429339.6718578 0 0 0 0 98428527.349815369 29983557.101100922 0 29983557.101100922 18621868.746559143 0 0 0 0 90405417.351959229 63879035.347549438 0 63879035.347549438 79045548.498226166 0 0 0 0 125334874.88554382 23409912.135576248 0 23409912.135576248 144671231.17967224 0 0 0 0 4046253.6613147035 8713338.1982229818 0 8713338.1982229818 10345290.279300775 0 0 0 0 113981913.31441498 -8157348.029756546 0 -8157348.029756546 97143362.468261719 0 0 0 0 180163176.39212036 24536035.78578949 0 24536035.78578949 43462393.947628021 0 0 0 0 50669217.773172677 24177332.148351844 0 24177332.148351844 -15395489.70018569 0 0 0 0 67828301.376052856 62512888.919059753 0 62512888.919059753 57785569.745811462 0 0 0 0 153964550.43856812 52085704.319007874 0 52085704.319007874 -33879869.06817627 0 0 0 0 39530189.314448483 38380868.763646469 0 38380868.763646469 363014.81381604634 0 0 0 0 20840208.850296021 28372417.72247541 0 28372417.72247541 -14195652.640000343 0 0 0 0 36540736.789884061 47288516.613145225 0 47288516.613145225 -7152360.0395886609 0 0 0 0 23067245.206558228 8794011.86577034 0 8794011.86577034 -9993154.4543704987 0 0 0 0 19021101.792650223 22830550.348701954 0 22830550.348701954 -24858081.937905386 0 0 0 0 24287858.890869141 32483731.46288538 0 32483731.46288538 -23329280.048666 0 0 0 0 28103286.258964539 25081209.579418182 0 25081209.579418182 -35926845.289455414 0 0 0 0 15688489.881595779 11788169.83651031 0 11788169.83651031 -7253029.3916249359 0 0 0 0 42290816.036450945 75343173.729419202 0 75343173.729419202 19638779.336949542 0 0 0 0 23609289.141506195 35156734.10470438 0 35156734.10470438 -14435925.928186893 0 0 0 0 -141073040.03502434 -9862876.5233573914 0 -9862876.5233573914 -107689078.31208801 0 0 0 0 43600778.169927828 23135779.645126659 0 23135779.645126659 -34100075.53567683 0 0 0 0 41204198.259614095 13810858.158332793 0 13810858.158332793 -15833322.232210195 0 0 0 0 84175435.581512451 39935221.45665741 0 39935221.45665741 -10881485.409301758 0 0 0 0 14638304.195205688 11419818.74198246 0 11419818.74198246 -13474480.888076782 0 0 0 0 42572235.177016929 39890761.940571517 0 39890761.940571517 -3759527.0955527127 0 0 0 0 4177008.3784723282 87987216.739181519 0 87987216.739181519 -122264187.14864349 0 0 0 0 -22672573.893536925 77310766.960481644 0 77310766.960481644 -9161345.9084472656 0 0 0 0 59215886.941803455 97023274.258789062 0 97023274.258789062 -120219037.93661499 0 0 0 0 -23677532.93479991 70262449.081329346 0 70262449.081329346 -55487020.736915588 0 0 0 0 28491834.439195305 15331123.188126702 0 15331123.188126702 -26820882.488298438 0 0 0 0 32198738.23754406 -27959054.231124878 0 -27959054.231124878 -126338706.17248249 0 0 0 0 58583933.873852611 63744577.577981889 0 63744577.577981889 -38882409.085479736 0 0 0 0 40949860.82783141 26996924.924618945 0 26996924.924618945 -15114089.025838882 0 0 0 0 3712739.2165566869 38056647.035495356 0 38056647.035495356 -1606952.10315869 0 0 0 0 188267311.69694328 -44884295.71546936 0 -44884295.71546936 -84951426.906158447 0 0 0 0 7860972.3664151262 5917854.8350027278 0 5917854.8350027278 -8226384.959213607 0 0 0 0 116574772.86303806 -4071282.331413269 0 -4071282.331413269 -58802404.423751831 0 0 0 0 33125962.212932587 50890525.66840744 0 50890525.66840744 -74012970.730323792 0 0 0 0 -20478612.717241287 5288993.0643043518 0 5288993.0643043518 36669107.179870605 0 0 0 0 198983323.03590775 -72370613.452697754 0 -72370613.452697754 -38571062.958679199 0 0 0 0 199325357.67974854 101431814.35286331 0 101431814.35286331 -28567037.891616821 0 0 0 0 203685396.70343208 228024417.43043518 0 228024417.43043518 13261615.576202393 0 0 0 0 16867373.186442137 369782427.24825287 0 369782427.24825287 118608160.72254944 0 0 0 0 -150365374.92654112 87945450.936665773 0 87945450.936665773 -37565574.2159729 0 0 0 0 101933564.63134861 44061165.086868286 0 44061165.086868286 -98585549.208816528 0 0 0 0 169567068.21782398 50219972.086952209 0 50219972.086952209 -99854298.029434204 0 0 0 0 -138665319.10185242 214519649.49777985 0 214519649.49777985 225113333.19532776 0 0 0 0 92880387.648086548 697552274.86363602 0 697552274.86363602 13920761.456554413 0 0 0 0 180049595.0002594 648259095.33306503 0 648259095.33306503 -832969506.56918907 0 0 0 0 -82181578.377700806 405430087.2069664 0 405430087.2069664 -52044604.49067688 0 0 0 0 127811161.07849121 150738589.77864075 0 150738589.77864075 -44441146.627262115 0 0 0 0 261426788.77856445 73577802.739776611 0 73577802.739776611 -8853463.2322368622 0 0 0 0 219310918.47344971 218363575.10468292 0 218363575.10468292 -232665658.36532784 0 0 0 0 619053476.60915375 26266091.635894775 0 26266091.635894775 -141097236.11542511 0 0 0 0 53368824.716842651 116563757.69026184 0 116563757.69026184 172510145.13213539 0 0 0 0 85692440.240364075 210077835.07771301 0 210077835.07771301 162437129.22489166 0 0 0 0 -6787294.2653117646 26359805.246162299 0 26359805.246162299 5455563.0354976058 0 0 0 0 -114631681.60328674 329760858.48518372 0 329760858.48518372 360841785.50647736 0 0 0 0 -136110934.20523834 83621402.393005371 0 83621402.393005371 558651579.18154144 0 0 0 0 -132986039.77093506 189577897.27845383 0 189577897.27845383 272519132.56359863 0 0 0 0 -875395441.37107468 571149614.66651154 0 571149614.66651154 -503742699.43728638 0 0 0 0 -24956532.09073573 -816604.53666579723 0 -816604.53666579723 4858647.2318426445 0 0 0 0 -489432816.19611168 668486955.93347359 0 668486955.93347359 -598365183.77185822 0 0 0 0 73676969.847601891 49187403.671245575 0 49187403.671245575 -958020424.19787598 0 0 0 0 -7726558.4247589111 16791402.895055771 0 16791402.895055771 -22988135.267822266 0 0 0 0 96796080.264750957 203112733.60506248 0 203112733.60506248 -281450000.30340576 0 0 0 0 -2753201.5428025555 1502822.1041567624 0 1502822.1041567624 2095501.7556720488 0 0 0 0 -1917394.9979755357 5931081.6809168775 0 5931081.6809168775 -3292873.022862073 0 0 0 0 -203445178.60273361 274539309.80991364 0 274539309.80991364 249144861.23429084 0 0 0 0 -527757446.50727463 704794134.43385696 0 704794134.43385696 -255489344.77306366 0 0 0 0 -508404595.38990784 196980697.71127319 0 196980697.71127319 69780504.953766823 0 0 0 0 -571694094.45868111 -41472639.375828505 0 -41472639.375828505 -330402169.10534668 0 0 0 0 -399390218.10419083 468972248.11579514 0 468972248.11579514 -876509317.97825623 0 0 0 0 300264839.392564 409036359.87093258 0 409036359.87093258 101287928.51828003 0 0 0 0 741202683.93372822 227555689.17951965 0 227555689.17951965 -4336473.9078674316 0 0 0 0 567927082.80552673 565424630.30323792 0 565424630.30323792 414534981.48263168 0 0 0 0 287268665.49979055 294324548.06383228 0 294324548.06383228 191308480.51251221 0 0 0 0 513482033.39275742 92319958.30355835 0 92319958.30355835 -84447484.163803101 0 0 0 0 30573444.603441238 -79904765.839382172 0 -79904765.839382172 69100331.810043335 0 0 0 0 383142137.28763008 -114530258.15428543 0 -114530258.15428543 -9662067.9281463623 0 0 0 0 -661601.76863349881 2232076.4531599618 0 2232076.4531599618 -803486.66286760941 0 0 0 0 235601652.85693455 169381218.68730164 0 169381218.68730164 -411212911.17603302 0 0 0 0 322867665.58816433 683431948.71510887 0 683431948.71510887 133575132.43966675 0 0 0 0 459410398.15526962 484360916.8249588 0 484360916.8249588 423768240.77636719 0 0 0 0 -21014927.298363753 32027438.860076085 0 32027438.860076085 -34795871.739396155 0 0 0 0 72196249.186553955 275339471.57840729 0 275339471.57840729 66391891.9868927 0 0 0 0 612669.52826786041 -74225528.771353722 0 -74225528.771353722 -27117655.80368042 0 0 0 0 -278401435.61513901 -23785896.457992554 0 -23785896.457992554 110930895.82530212 0 0 0 0 153983534.20026016 70991093.245834351 0 70991093.245834351 45032386.585403442 0 0 0 0 120298192.27167892 145574936.24031448 0 145574936.24031448 24858459.775115967 0 0 0 0 96761726.885719299 107262187.21213531 0 107262187.21213531 14353544.016967773 0 0 0 0 41110853.340278625 111237433.37143707 0 111237433.37143707 45512384.4193573 0 0 0 0 -16021496.206167251 31030342.230645798 0 31030342.230645798 -32499435.243215479 0 0 0 0 102038604.22040558 113628741.69030762 0 113628741.69030762 18068795.495285034 0 0 0 0 -80929502.16620636 116437671.3055954 0 116437671.3055954 121351262.22949982 0 0 0 0 458859261.02026749 258979903.54156494 0 258979903.54156494 231189738.31719971 0 0 0 0 -14394942.486087199 18797376.494838275 0 18797376.494838275 6681146.0872902274 0 0 0 0 -144863564.38458887 301591707.25765264 0 301591707.25765264 94647315.34916687 0 0 0 0 719599027.9018476 47099007.993560791 0 47099007.993560791 -92755410.670074463 0 0 0 0 5395721.3673525769 2928292.6734053977 0 2928292.6734053977 -4705790.4870710373 0 0 0 0 -18425721.057788931 14311964.771515794 0 14311964.771515794 7657396.5512415767 0 0 0 0 361869998.49230051 187558034.12596893 0 187558034.12596893 22503512.727554321 0 0 0 0 720052624.31677818 473050873.80228424 0 473050873.80228424 -38516436.514190674 0 0 0 0 41601565.351066589 89503598.842063904 0 89503598.842063904 8945976.2135620117 0 0 0 0 -10062891.247499043 40400095.634804308 0 40400095.634804308 -18115837.982224602 0 0 0 0 -57705011.412797928 115369222.24235439 0 115369222.24235439 71718790.849029541 0 0 0 0 -283753466.35875797 -8709745.7136230469 0 -8709745.7136230469 122095992.9276123 0 0 0 0 576243809.72850037 270869732.65078735 0 270869732.65078735 5909624.8135986328 0 0 0 0 -5082583.1729130661 2987551.1272081211 0 2987551.1272081211 1740977.1422721073 0 0 0 0 531895514.1845715 123003476.41116142 0 123003476.41116142 -116144724.01699829 0 0 0 0 35798247.255277634 13858152.975738525 0 13858152.975738525 3080539.3687744141 0 0 0 0 440835096.40600157 -30105683.755485535 0 -30105683.755485535 -98916021.26663208 0 0 0 0 390909119.84365177 142865366.50449371 0 142865366.50449371 67978481.903427124 0 0 0 0 18469248.925765991 82535292.276168823 0 82535292.276168823 15548710.120368958 0 0 0 0 11246184.249443054 86443305.533981323 0 86443305.533981323 14718334.032178879 0 0 0 0 45961085.706748962 105027536.68030548 0 105027536.68030548 24502298.662437439 0 0 0 0 2567999.0871534348 101006620.63052368 0 101006620.63052368 34155943.659851074 0 0 0 0 1895171.941444397 105774610.79967499 0 105774610.79967499 37352644.325065613 0 0 0 0 40307283.637772083 118113651.5302186 0 118113651.5302186 35265416.767593384 0 0 0 0 -14304827.021018982 104543935.54547882 0 104543935.54547882 58110557.903511047 0 0 0 0 -6293863.8039245605 103310539.69544983 0 103310539.69544983 7613219.8109664917 0 0 0 0 -18266220.213573456 92280514.17432785 0 92280514.17432785 27200247.384063721 0 0 0 0 -27735801.101242065 104007941.60359955 0 104007941.60359955 44919426.24130249 0 0 0 0 -10272832.333145142 108888682.83735657 0 108888682.83735657 30091586.481874466 0 0 0 0 -22706000.819877625 81408817.845466614 0 81408817.845466614 73793879.647918701 0 0 0 0 -65845433.93107605 126255525.24969482 0 126255525.24969482 39564976.411834717 0 0 0 0 723463.89171981812 125809468.00886536 0 125809468.00886536 21334461.796539307 0 0 0 0 576221.86518270895 557051.6139255017 0 557051.6139255017 206291.12732365727 0 0 0 0 -61814235.802215576 67966240.999931335 0 67966240.999931335 111566827.3052063 0 0 0 0 -49074437.833049774 205899945.37054443 0 205899945.37054443 73693128.787094116 0 0 0 0 31449184.912477493 70324546.544458389 0 70324546.544458389 97836135.262771606 0 0 0 0 15132498.633384705 35666057.43145752 0 35666057.43145752 81230655.190776825 0 0 0 0 -24437318.752567291 73898896.897914886 0 73898896.897914886 62458216.684936523 0 0 0 0 19925037.076545715 47791060.674346924 0 47791060.674346924 48353184.476867676 0 0 0 0 -7568945.0139160156 78186428.329589844 0 78186428.329589844 38049217.937250137 0 0 0 0 -15025377.006904602 96604041.909500122 0 96604041.909500122 48585521.246551514 0 0 0 0 5626111.0263309479 89502130.801197052 0 89502130.801197052 46992395.279510498 0 0 0 0 -1436888.4378814697 61814132.331695557 0 61814132.331695557 66911497.73412323 0 0 0 0 -198409193.3286972 -34707340.570655823 0 -34707340.570655823 121561155.57469559 0 0 0 0 22874727.084892273 64883848.832210541 0 64883848.832210541 45726458.610839844 0 0 0 0 47167676.27456665 52591542.838882446 0 52591542.838882446 89268257.89912796 0 0 0 0 26022304.628295898 96029653.026954651 0 96029653.026954651 160299848.60223913 0 0 0 0 25558452.105773926 81314327.67741394 0 81314327.67741394 58254925.246315002 0 0 0 0 30096932.981262207 19380298.657600403 0 19380298.657600403 122560008.13018799 0 0 0 0 25240951.79668808 -10381308.131160736 0 -10381308.131160736 14613773.865081787 0 0 0 0 16270864.964294434 72727458.029975891 0 72727458.029975891 92362979.755073547 0 0 0 0 1468033.5999879092 688960.92950065434 0 688960.92950065434 931393.83072815835 0 0 0 0 1491306.205857724 1537862.7648434937 0 1537862.7648434937 1346004.5658583269 0 0 0 0 39397980.324554443 43642461.000015259 0 43642461.000015259 67085932.042205811 0 0 0 0 17571912.740081787 43595011.802047729 0 43595011.802047729 68726824.004711151 0 0 0 0 45506524.744430542 43007135.496437073 0 43007135.496437073 72857204.918174744 0 0 0 0 17351750.418380737 50621190.716217041 0 50621190.716217041 70800939.873031616 0 0 0 0 32965642.954750061 71701965.13369751 0 71701965.13369751 107157329.4549408 0 0 0 0 2653329.2910214439 2885517.2010219023 0 2885517.2010219023 3827429.2058804482 0 0 0 0 4701614.2975850515 3030763.1527789161 0 3030763.1527789161 3815927.995809637 0 0 0 0 10176577.732688427 -2685714.1592884064 0 -2685714.1592884064 62903983.878143311 0 0 0 0 4479708.7648157999 5410468.8015245646 0 5410468.8015245646 8972589.9200791046 0 0 0 0 32214199.437793732 73439943.565517426 0 73439943.565517426 98370054.65486145 0 0 0 0 16621722.640594482 27874457.123046875 0 27874457.123046875 87817800.607048035 0 0 0 0 24639708.4165802 88391640.003768921 0 88391640.003768921 62223813.201705933 0 0 0 0 35711765.674102783 35742658.336975098 0 35742658.336975098 79394208.040039062 0 0 0 0 -93741495.689422607 216147948.84039307 0 216147948.84039307 295397203.53761292 0 0 0 0 28640376.601394653 71827553.147403002 0 71827553.147403002 42695945.582983017 0 0 0 0 36265997.238967896 54963852.704582214 0 54963852.704582214 73825043.449127197 0 0 0 0 18407122.253921509 63097258.141994715 0 63097258.141994715 50106542.186610222 0 0 0 0 47469086.343078613 45687082.933677673 0 45687082.933677673 32152605.00944519 0 0 0 0 32878284.513528809 44130365.223241761 0 44130365.223241761 -7292978.8223695438 0 0 0 0 16311731.886291504 54085437.312175751 0 54085437.312175751 37577421.159845352 0 0 0 0 26183917.110858917 36754523.795392662 0 36754523.795392662 56134498.54452157 0 0 0 0 40060827.59582901 39219986.664539337 0 39219986.664539337 31193527.850570679 0 0 0 0 28281034.312430382 45098972.744108655 0 45098972.744108655 -4310978.1603615973 0 0 0 0 23603070.485717773 55073618.224681854 0 55073618.224681854 35263974.669426918 0 0 0 0 24266745.068756104 51001204.355664253 0 51001204.355664253 12861269.900941849 0 0 0 0 5368381.7385482788 38691586.621768951 0 38691586.621768951 30892858.005350113 0 0 0 0 24062015.902130127 39029521.419048309 0 39029521.419048309 -28108390.413089752 0 0 0 0 4633944.3114013672 34822310.588682175 0 34822310.588682175 3181777.939743042 0 0 0 0 12293256.194450378 54951480.478945732 0 54951480.478945732 -11317334.95740509 0 0 0 0 18882499.653533936 42549688.217633247 0 42549688.217633247 -37647472.284210205 0 0 0 0 32917152.770080566 54692140.974510193 0 54692140.974510193 24201869.080215454 0 0 0 0 4462563.2646331787 42714325.808328629 0 42714325.808328629 21516155.699798584 0 0 0 0 17332672.143920898 48436065.997779846 0 48436065.997779846 5339085.8095016479 0 0 0 0 18581216.295936584 55918293.285096407 0 55918293.285096407 8506891.4653167725 0 0 0 0 4926916.5242919922 38451320.569107056 0 38451320.569107056 -128518.45121765137 0 0 0 0 8524630.8049316406 48491988.461565018 0 48491988.461565018 7803277.8016738892 0 0 0 0 20105146.029083252 53401459.344961166 0 53401459.344961166 4044658.4018650055 0 0 0 0 31542986.814939529 18773373.914794497 0 18773373.914794497 -9452104.5349830128 0 0 0 0 10333186.829772949 53959289.597618103 0 53959289.597618103 39835434.617716312 0 0 0 0 12265550.693313599 40432523.974407196 0 40432523.974407196 15955448.897418976 0 0 0 0 21619301.903244019 42379049.847202301 0 42379049.847202301 38414170.914996386 0 0 0 0 23435799.438781738 39485228.926090956 0 39485228.926090956 37851492.23012948 0 0 0 0 17327448.058052063 40571234.075058222 0 40571234.075058222 61033697.891237974 0 0 0 0 10037953.495658875 62101131.417495728 0 62101131.417495728 36327172.855428696 0 0 0 0 17707879.382041931 36703268.643540978 0 36703268.643540978 53054040.631543636 0 0 0 0 19163079.918640651 45634953.482859477 0 45634953.482859477 -8644863.5050198454 0 0 0 0 7216594.4174156189 60202498.221179962 0 60202498.221179962 36241841.459365845 0 0 0 0 20178977.823036194 47462438.21313858 0 47462438.21313858 45369462.342132568 0 0 0 0 23707730.277391069 45281848.99383802 0 45281848.99383802 -4695431.6501780953 0 0 0 0 21819858.519561768 31113245.029697895 0 31113245.029697895 53170692.210988417 0 0 0 0 23059200.115623474 45457740.195343018 0 45457740.195343018 28580885.451187134 0 0 0 0 25428708.023605347 32614662.095591545 0 32614662.095591545 34144095.11579895 0 0 0 0 13831981.225982666 32725915.578689575 0 32725915.578689575 23069669.402912617 0 0 0 0 20002878.891967773 29234727.382991791 0 29234727.382991791 -12596308.346473694 0 0 0 0 25432971.859298706 43285707.961792946 0 43285707.961792946 -819412.52320098877 0 0 0 0 13730210.677256092 24867926.533638403 0 24867926.533638403 -26709078.813919902 0 0 0 0 288410380.26423645 238017528.60245514 0 238017528.60245514 52305610.164527893 0 0 0 0 26099759.129005432 46624654.868391991 0 46624654.868391991 14954609.912093163 0 0 0 0 22093674.535751343 36372723.804788113 0 36372723.804788113 8089453.1040611267 0 0 0 0 224705567.16151428 482232526.72049713 0 482232526.72049713 162514439.82261658 0 0 0 0 15908454.287853748 26926766.084166922 0 26926766.084166922 -18021486.365383677 0 0 0 0 316855210.3055191 119711483.51158142 0 119711483.51158142 -199187336.87835693 0 0 0 0 180720660.36437988 109580117.28300858 0 109580117.28300858 90072129.773597717 0 0 0 0 98302993.328765869 78945727.267215729 0 78945727.267215729 -10006462.000770569 0 0 0 0 150392615.95046234 24113588.846843719 0 24113588.846843719 -79615479.976165771 0 0 0 0 88777617.392593384 54001030.349754333 0 54001030.349754333 -107470582.53256226 0 0 0 0 74447923.710983276 -20063614.407173157 0 -20063614.407173157 11418625.183708191 0 0 0 0 1328609.4721918404 1431771.5196321011 0 1431771.5196321011 -3833739.716789946 0 0 0 0 158035198.438797 44770399.292484283 0 44770399.292484283 -67567936.604629517 0 0 0 0 163221230.45824051 12622163.709249496 0 12622163.709249496 75453479.086181641 0 0 0 0 297791976.97373962 175462207.20122147 0 175462207.20122147 -15666721.906547189 0 0 0 0 276382250.6710968 11734237.427394867 0 11734237.427394867 -30043571.094039917 0 0 0 0 180715917.84597778 59758345.432979584 0 59758345.432979584 -120549390.70177078 0 0 0 0 240538511.98011637 78036540.098246932 0 78036540.098246932 -221735854.44719696 0 0 0 0 240848614.26808167 86113668.613990784 0 86113668.613990784 -38911887.213241577 0 0 0 0 13649927.601745605 37896960.37023735 0 37896960.37023735 -15721914.486250877 0 0 0 0 -776164.42745889723 2431090.1679737568 0 2431090.1679737568 -5036343.8150721006 0 0 0 0 12571585.283140026 26789116.227551926 0 26789116.227551926 -27782798.167918511 0 0 0 0 177066616.29566956 13904216.053489685 0 13904216.053489685 -49121604.359390259 0 0 0 0 20225524.026824951 46597931.636445045 0 46597931.636445045 -31844795.604261398 0 0 0 0 68223016.632202148 58864744.794456482 0 58864744.794456482 -108339331.58589172 0 0 0 0 7497046.2163372636 10412453.64404631 0 10412453.64404631 -13922210.859784834 0 0 0 0 4731093.2863502949 21868866.094488773 0 21868866.094488773 -9548449.1539411806 0 0 0 0 -4389543.2703857422 13140596.977363586 0 13140596.977363586 -43087575.352767944 0 0 0 0 44457487.542556763 -18303633.301275253 0 -18303633.301275253 -23822554.966537476 0 0 0 0 171759044.85367584 205429490.97308159 0 205429490.97308159 139004616.94680786 0 0 0 0 384010566.13171387 -78706561.487091064 0 -78706561.487091064 -208644307.11591625 0 0 0 0 -239693326.01303101 -112511871.00211334 0 -112511871.00211334 6947634.8021774292 0 0 0 0 1639350.2073248997 2309620.1965562459 0 2309620.1965562459 -3359857.1278997734 0 0 0 0 54502565.539077759 82737246.991722107 0 82737246.991722107 35269878.857910156 0 0 0 0 226218696.44161987 138747898.71702576 0 138747898.71702576 -27184109.176368713 0 0 0 0 209515175.743927 121167535.25370979 0 121167535.25370979 -42057194.913803101 0 0 0 0 136005214.7618866 -31939678.713060379 0 -31939678.713060379 -46239574.296264648 0 0 0 0 244371284.82693481 110187224.48616028 0 110187224.48616028 -44486037.93120575 0 0 0 0 -22636860.805709839 17349220.914428711 0 17349220.914428711 -19817391.02481842 0 0 0 0 -6620796.4707067758 8905556.6837007776 0 8905556.6837007776 -4226567.5467054248 0 0 0 0 -30484157.58259964 43242416.416917801 0 43242416.416917801 -33711655.020271301 0 0 0 0 -39860922.691223145 17064782.240234375 0 17064782.240234375 2709809.3704872131 0 0 0 0 -38975148.707427979 454065471.36038971 0 454065471.36038971 -117682346.08602142 0 0 0 0 53669524.921554565 94412994.752981186 0 94412994.752981186 -142695052.43533325 0 0 0 0 -2204182.317596972 3801338.7803444825 0 3801338.7803444825 -1352870.4846560787 0 0 0 0 -270202781.55709839 -69125317.971847534 0 -69125317.971847534 392844623.66043854 0 0 0 0 245059864.03283286 204603549.85830331 0 204603549.85830331 55018001.851669312 0 0 0 0 405351931.41879272 223383703.97201538 0 223383703.97201538 34181465.781867981 0 0 0 0 -237834266.52497864 -85726373.197650909 0 -85726373.197650909 121036520.65484619 0 0 0 0 331683312.94952393 24046115.842082977 0 24046115.842082977 -36758703.633329391 0 0 0 0 -2630320.0337725282 2765057.1444680616 0 2765057.1444680616 -479845.79201934859 0 0 0 0 -350440554.65808105 215461785.8779068 0 215461785.8779068 317457290.15679932 0 0 0 0 318593226.04571533 650636800.1018219 0 650636800.1018219 471378295.4482193 0 0 0 0 674822454.38391113 -215260060.38777161 0 -215260060.38777161 358615925.04694557 0 0 0 0 211316205.88848877 300705496.83552551 0 300705496.83552551 392818435.1925354 0 0 0 0 2782934.2526304089 2987805.4668010026 0 2987805.4668010026 -5773548.1251150034 0 0 0 0 -77200434.227645874 115638184.33975983 0 115638184.33975983 322112797.11752319 0 0 0 0 -76243391.82522583 -23680536.054702759 0 -23680536.054702759 122897328.90490723 0 0 0 0 31357672.243461609 7755326.9319314957 0 7755326.9319314957 -10090175.705589294 0 0 0 0 155240950.58629608 121304873.81362724 0 121304873.81362724 48358690.632980347 0 0 0 0 5129477.1006011963 -17185632.033542633 0 -17185632.033542633 17843444.970367432 0 0 0 0 21347645.896331787 -18583261.263439178 0 -18583261.263439178 -540750.06219482422 0 0 0 0 14228138.245582581 -9234105.4062728882 0 -9234105.4062728882 -11671255.566619873 0 0 0 0 17049072.96055603 24461348.487800598 0 24461348.487800598 25567258.61149025 0 0 0 0 75284854.115249634 86584694.345882416 0 86584694.345882416 11822946.28125 0 0 0 0 152952516.16429138 143211745.29668808 0 143211745.29668808 -56837369.802398682 0 0 0 0 214170619.44686127 156407567.61942863 0 156407567.61942863 -33466214.997772217 0 0 0 0 158847971.26672363 127184587.77676392 0 127184587.77676392 -14185310.43161273 0 0 0 0 149162228.65974426 112814517.3326416 0 112814517.3326416 -26884762.064102173 0 0 0 0 159841450.66595459 87821638.457122803 0 87821638.457122803 -94605696.261978149 0 0 0 0 -28513673.230285645 106317330.57635117 0 106317330.57635117 30665810.970561981 0 0 0 0 71635772.610748291 98209652.743766785 0 98209652.743766785 21976986.427863121 0 0 0 0 36969108.762641907 191347388.50672078 0 191347388.50672078 104217670.88387299 0 0 0 0 93517509.584503174 107946004.15822887 0 107946004.15822887 -161007268.31641769 0 0 0 0 -27311412.165855408 122585815.48763669 0 122585815.48763669 -156645765.79684496 0 0 0 0 66224867.515136719 114583078.77592611 0 114583078.77592611 -351147292.55279851 0 0 0 0 73050005.65637207 46372686.480172157 0 46372686.480172157 -96853979.079979509 0 0 0 0 -29272534.10622406 320708413.08735359 0 320708413.08735359 -175318194.40717888 0 0 0 0 -117876033.4888916 88127670.353209972 0 88127670.353209972 -96093881.441367149 0 0 0 0 -12249342.659973145 162886846.00030899 0 162886846.00030899 63329666.556976318 0 0 0 0 88685936.511993408 126830548.6142416 0 126830548.6142416 68771736.410614967 0 0 0 0 -5849312.126848653 4469545.9149910212 0 4469545.9149910212 -1871879.0417148946 0 0 0 0 -97155602.924194336 72905488.510209084 0 72905488.510209084 -25702969.397872925 0 0 0 0 -17672034.74407959 -14753533.314890862 0 -14753533.314890862 -3172947.5036268234 0 0 0 0 -182141204.47225189 112890395.99213707 0 112890395.99213707 4252742.5238838196 0 0 0 0 -140269543.53872681 3452775.7180805206 0 3452775.7180805206 55517625.290249825 0 0 0 0 2300624.2733377516 26397094.442821436 0 26397094.442821436 6315258.6704339702 0 0 0 0 -8722545.9045562744 32026090.789983749 0 32026090.789983749 -37107394.153236389 0 0 0 0 27315983.058178231 13021422.596503846 0 13021422.596503846 -18877235.082747091 0 0 0 0 159629531.89271545 301381417.38516998 0 301381417.38516998 -197701331.16600132 0 0 0 0 8596670.7946360111 22450970.674410559 0 22450970.674410559 -7344571.608409836 0 0 0 0 455088.81663513184 18499208.222987175 0 18499208.222987175 -19877516.180458069 0 0 0 0 554821.77713012695 19397213.3105793 0 19397213.3105793 -16842634.430664062 0 0 0 0 15197566.148694456 22740393.636989225 0 22740393.636989225 -13148589.915091876 0 0 0 0 829796.86245727539 20456379.317502975 0 20456379.317502975 -18857352.785079002 0 0 0 0 830873.45620727539 20545729.757795334 0 20545729.757795334 -17528264.802836418 0 0 0 0 -514185.85226598382 16154661.372585991 0 16154661.372585991 -8624039.0531839896 0 0 0 0 -18974597.159991264 37724712.226945639 0 37724712.226945639 -26683794.424758911 0 0 0 0 5146244.1180419922 17725056.81943512 0 17725056.81943512 493629.17402648926 0 0 0 0 -8502285.7778395116 12902240.928699613 0 12902240.928699613 -4252822.1908655604 0 0 0 0 87250521.669433594 -38025924.709388733 0 -38025924.709388733 -641805603.68478775 0 0 0 0 -148750083.40072632 762535102.34181976 0 762535102.34181976 661687770.4927597 0 0 0 0 947035028.56491852 -609460216.00954819 0 -609460216.00954819 -345113518.8008728 0 0 0 0 -573430317.92388916 -330828143.86882019 0 -330828143.86882019 717306279.1643219 0 0 0 0 -703391716.94250488 18890198.33259201 0 18890198.33259201 183791156.38500214 0 0 0 0 -281498.48582458496 7495841.5488872528 0 7495841.5488872528 -2764774.3625869751 0 0 0 0 -3459095.7253849097 11828083.639855765 0 11828083.639855765 -8090309.4923162423 0 0 0 0 -185533212.25366211 -44483443.880661011 0 -44483443.880661011 -238904299.2159729 0 0 0 0 -26199.971687316895 8954573.3111996651 0 8954573.3111996651 -4526174.6506958008 0 0 0 0 -16417663.808584582 9777268.0389755666 0 9777268.0389755666 -2677425.911872603 0 0 0 0 914737.09899902344 9737794.5182342529 0 9737794.5182342529 -1435595.0157165527 0 0 0 0 -4704101.8536260277 22485534.587439723 0 22485534.587439723 -10663879.806438588 0 0 0 0 2418483.2191169485 19014889.874718223 0 19014889.874718223 -8873608.9878832866 0 0 0 0 -24275810.580820821 14831168.618365161 0 14831168.618365161 -1436247.6142059192 0 0 0 0 1432584.6236724854 17082433.211261749 0 17082433.211261749 1165394.9921264648 0 0 0 0 4756626.5012817383 17362946.344268799 0 17362946.344268799 1112257.5614700317 0 0 0 0 -26528991.599902272 23821340.281632565 0 23821340.281632565 -7227550.9676311184 0 0 0 0 12743437.95223999 10630354.926288605 0 10630354.926288605 -228984.83935165405 0 0 0 0 -4718065.8366660625 11931643.778888045 0 11931643.778888045 -6857383.9350460917 0 0 0 0 -16989702.135553956 14959866.550962323 0 14959866.550962323 -3603913.8030089266 0 0 0 0 -5049379.6574211121 11709381.194647312 0 11709381.194647312 -3829760.8706169128 0 0 0 0 7500820.6159667969 103531764.09641457 0 103531764.09641457 66184589.439529419 0 0 0 0 -4165169.0781860352 10648387.176677704 0 10648387.176677704 -2512100.131731987 0 0 0 0 1039520.3109358102 7078368.7514166832 0 7078368.7514166832 -4311275.0760704353 0 0 0 0 -7459863.1285247803 8624386.2068219185 0 8624386.2068219185 -725051.3938293457 0 0 0 0 -1564279.4151318818 4255614.2889266461 0 4255614.2889266461 -1078451.6963542639 0 0 0 0 -17707569.402709961 103582267.1799221 0 103582267.1799221 170534215.66894054 0 0 0 0 -16552439.940612793 161425857.59548569 0 161425857.59548569 435206741.11408806 0 0 0 0 93165999.316314697 790663257.62295532 0 790663257.62295532 -1382892137.543479 0 0 0 0 90484006.089706421 909076757.41414642 0 909076757.41414642 -1048177103.8058777 0 0 0 0 -8953764.6735076904 507953532.32296753 0 507953532.32296753 -942685807.84169388 0 0 0 0 -217822593.48272705 462616136.31654358 0 462616136.31654358 -936924494.96933365 0 0 0 0 -1719496.2370599508 6161922.5624788012 0 6161922.5624788012 -3150270.4637778588 0 0 0 0 -165918267.21408081 659617705.19037247 0 659617705.19037247 -1083212976.8558884 0 0 0 0 -243009495.64804077 582635060.66885376 0 582635060.66885376 -536231853.29314423 0 0 0 0 416564483.43746948 285959313.18389511 0 285959313.18389511 -744720443.98402405 0 0 0 0 1182122.7266442254 141091.58430724964 0 141091.58430724964 -1015470.0666918978 0 0 0 0 -69673090.955413818 446772735.94033432 0 446772735.94033432 -452469203.86500549 0 0 0 0 -985018303.21652222 819709584.97049522 0 819709584.97049522 -523855879.17759705 0 0 0 0 -221900874.5164032 1174126242.1667213 0 1174126242.1667213 -920772182.00391388 0 0 0 0 -1027253405.8688965 1574920470.7950478 0 1574920470.7950478 -1031582207.3052692 0 0 0 0 -349903171.40527344 108224224.6017518 0 108224224.6017518 -575129322.19391251 0 0 0 0 -66919003.491958618 277780443.80067062 0 277780443.80067062 -480951948.04761314 0 0 0 0 -276629607.45024109 -16865018.466550827 0 -16865018.466550827 98579496.742027283 0 0 0 0 5126783.9935040027 7890150.6372174509 0 7890150.6372174509 -7480159.9834207986 0 0 0 0 -553481166.38937378 260830198.66170502 0 260830198.66170502 -27845667.59078598 0 0 0 0 1251182056.143158 970087760.2571106 0 970087760.2571106 -925324311.56472015 0 0 0 0 24752981.471328735 33473263.956659317 0 33473263.956659317 -12441831.061959267 0 0 0 0 353987.60858514905 10766860.879368387 0 10766860.879368387 -3611151.3354834374 0 0 0 0 13946055.378845215 44332525.431333542 0 44332525.431333542 17755829.304504395 0 0 0 0 5454350.1041428335 9643886.3865673393 0 9643886.3865673393 -12658189.6517593 0 0 0 0 4799938.5947686657 8854393.9583919495 0 8854393.9583919495 -11105573.415518224 0 0 0 0 183492853.63689423 -10568537.148255348 0 -10568537.148255348 -79090065.159156799 0 0 0 0 -1009801906.895462 1215698101.4702034 0 1215698101.4702034 -643256465.95999908 0 0 0 0 -1344285562.7861786 1164332888.327858 0 1164332888.327858 -649013403.14215946 0 0 0 0 -1270407707.2038574 720572529.12985992 0 720572529.12985992 457261946.61577988 0 0 0 0 -1344086016.6319275 213580019.48071289 0 213580019.48071289 -495179144.3180809 0 0 0 0 -1030690346.8617935 1373465791.0716362 0 1373465791.0716362 -1201791129.4876213 0 0 0 0 309631197.00109863 1570562731.1173611 0 1570562731.1173611 -1646908328.1411476 0 0 0 0 -881078.08285033703 2208559.0101677403 0 2208559.0101677403 -2409729.6330075301 0 0 0 0 1743181375.6611176 960446310.29945755 0 960446310.29945755 -1423672500.1439419 0 0 0 0 -1670594528.3234329 1480835301.720418 0 1480835301.720418 -90223935.305763245 0 0 0 0 -13887621.558959961 685670250.40817833 0 685670250.40817833 716463064.19347 0 0 0 0 1059221852.3065338 -107738858.97937584 0 -107738858.97937584 -280500304.11140633 0 0 0 0 879036984.32858276 629231730.93565369 0 629231730.93565369 -1349740533.1084528 0 0 0 0 242035350.62098694 644532552.03902483 0 644532552.03902483 -917125331.36074829 0 0 0 0 -105620760.23042297 194938194.84941101 0 194938194.84941101 -194316953.97986221 0 0 0 0 -147575336.16737366 34401842.923938751 0 34401842.923938751 -8897453.2341461182 0 0 0 0 1024337.7672393918 1761037.1648781942 0 1761037.1648781942 -1533977.0661393534 0 0 0 0 6250549.9991040826 803486.851174023 0 803486.851174023 -1083489.7157143652 0 0 0 0 5758322.7445678711 1684430.8316802979 0 1684430.8316802979 -7800447.1480789185 0 0 0 0 5620707.7100219727 2076693.9832115173 0 2076693.9832115173 -6443385.1494293213 0 0 0 0 5935376.1726989746 104462.96200561523 0 104462.96200561523 -8115606.6992797852 0 0 0 0 6095859.4813690186 215511.23170852661 0 215511.23170852661 -3728092.8627471924 0 0 0 0 7014100.2304713279 -1581738.9987754505 0 -1581738.9987754505 -2061723.7247430254 0 0 0 0 6079581.821105957 -650424.75756072998 0 -650424.75756072998 -5643296.3183555603 0 0 0 0 4397401.7882995605 -217231.1753616333 0 -217231.1753616333 -6757347.0220489502 0 0 0 0 7420221.700565882 -501508.49254345894 0 -501508.49254345894 -2602025.8473360501 0 0 0 0 4236322.1485595703 1332306.7240142822 0 1332306.7240142822 -7378093.8127822876 0 0 0 0 3289512.1237945557 3303217.1283760071 0 3303217.1283760071 -11039445.973327637 0 0 0 0 5895561.1314697266 -2762731.454208374 0 -2762731.454208374 -13100760.651943207 0 0 0 0 216408.13621454686 2375.9336396530271 0 2375.9336396530271 -53930.860397431999 0 0 0 0 411978282.76419067 8575074.1445922852 0 8575074.1445922852 -186010608.03481293 0 0 0 0 3685463.3847503662 5051368.9119091034 0 5051368.9119091034 -11874958.104019165 0 0 0 0 3470134.8927688599 3212083.9260749817 0 3212083.9260749817 -11875063.00025177 0 0 0 0 6933674.0970460176 -615644.59927342087 0 -615644.59927342087 -1710729.2202442177 0 0 0 0 3965193.140846014 6304216.2339257486 0 6304216.2339257486 -2953713.9512172919 0 0 0 0 212648788.39962769 208536905.38181305 0 208536905.38181305 -21311460.660095215 0 0 0 0 78147998.907577515 165429242.09619904 0 165429242.09619904 317334719.95397949 0 0 0 0 -232778511.23479462 154999372.92692757 0 154999372.92692757 -72750136.411125183 0 0 0 0 -485594458.03881836 690025760.53031921 0 690025760.53031921 -949497277.82771301 0 0 0 0 -2342.3251590430737 471220.12626790814 0 471220.12626790814 -170636.58026134595 0 0 0 0 191463842.01641846 286830608.88200378 0 286830608.88200378 260580798.58800888 0 0 0 0 -258407211.80461121 -308889476.51515579 0 -308889476.51515579 -925708658.97203064 0 0 0 0 526918848.15478516 147716798.57220459 0 147716798.57220459 -665228316.76599121 0 0 0 0 -382122882.66448975 84918677.820365906 0 84918677.820365906 851655827.10331631 0 0 0 0 -82324398.737060547 213521874.61810303 0 213521874.61810303 -495678566.64440918 0 0 0 0 721297.52090474963 2589304.4749476388 0 2589304.4749476388 -1404581.3422560617 0 0 0 0 3291824.1520036533 2271604.8140518889 0 2271604.8140518889 -386705.18711374328 0 0 0 0 -112698789.74932861 -83240881.113647461 0 -83240881.113647461 375409818.72871399 0 0 0 0 -698212524.40746307 -1257677098.3023243 0 -1257677098.3023243 175132086.69854736 0 0 0 0 791303253.65864563 127202795.99979401 0 127202795.99979401 -152441485.66706848 0 0 0 0 79437091.85333252 151960525.62148285 0 151960525.62148285 125952664.53991699 0 0 0 0 150556809.21363831 47802723.527591705 0 47802723.527591705 -39024899.058727264 0 0 0 0 293264943.96580505 122566052.11251831 0 122566052.11251831 -105184781.9745636 0 0 0 0 103162801.05316162 -20430538.392601013 0 -20430538.392601013 -115082511.94578552 0 0 0 0 136622400.26243591 66413520.598602295 0 66413520.598602295 -150365421.38456726 0 0 0 0 149671533.79177856 26429400.023540497 0 26429400.023540497 -114650192.83544016 0 0 0 0 -36330660.539672852 211964171.84916687 0 211964171.84916687 -233328880.63751984 0 0 0 0 53973873.242263794 38925914.412471771 0 38925914.412471771 -127184091.11576843 0 0 0 0 18624565.858177185 143915128.92356396 0 143915128.92356396 -177310137.72370148 0 0 0 0 104604905.96362305 39431998.487747192 0 39431998.487747192 -170143664.16382074 0 0 0 0 85118605.987533569 63273050.395149231 0 63273050.395149231 -110483790.57911682 0 0 0 0 96297892.450210571 -79719939.865371704 0 -79719939.865371704 -132760226.9831748 0 0 0 0 103040322.28739166 -3852324.3119049072 0 -3852324.3119049072 63641110.774471283 0 0 0 0 178439565.67488098 93712773.488361359 0 93712773.488361359 258642928.59579086 0 0 0 0 23129791.563863754 142826569.54435825 0 142826569.54435825 243207924.30307007 0 0 0 0 49074166.655726433 159826296.73944342 0 159826296.73944342 -406430993.27566528 0 0 0 0 -219138007.64456177 -179529950.87919617 0 -179529950.87919617 -124252398.72938538 0 0 0 0 38804812.519649506 244712414.54678535 0 244712414.54678535 82714860.645782471 0 0 0 0 -72052868.562671661 338288895.85725069 0 338288895.85725069 2656807.0630187988 0 0 0 0 168517572.50457764 -64253880.963718414 0 -64253880.963718414 -559021588.55089188 0 0 0 0 381727412.53868103 765915458.27801895 0 765915458.27801895 710491901.12956095 0 0 0 0 497301854.14686584 527733403.08806229 0 527733403.08806229 412298224.46505737 0 0 0 0 169278711.88379669 434678662.87319422 0 434678662.87319422 742232030.59815216 0 0 0 0 206051841.46603394 123727667.99737549 0 123727667.99737549 160057927.48407745 0 0 0 0 22403689.895690918 -315683.67942047119 0 -315683.67942047119 -21529210.303121567 0 0 0 0 18856668.593383789 16523297.905784607 0 16523297.905784607 -15683076.490581512 0 0 0 0 924999.75588989258 -9487446.5765838623 0 -9487446.5765838623 -14010252.510093689 0 0 0 0 595974012.36032104 238161450.85154724 0 238161450.85154724 627944845.22117615 0 0 0 0 3502740.7745540813 2301336.0785266086 0 2301336.0785266086 -3686925.2174436748 0 0 0 0 805032248.56640625 640422403.44114685 0 640422403.44114685 501385963.01675415 0 0 0 0 392740610.21826172 477786843.57194519 0 477786843.57194519 612894301.07548523 0 0 0 0 705994714.08807373 730894874.04960632 0 730894874.04960632 817123992.32000732 0 0 0 0 279947.64914864302 150364.53372024558 0 150364.53372024558 -256507.29047391657 0 0 0 0 973023591.75228882 18527689.966936111 0 18527689.966936111 731862610.82641602 0 0 0 0 -154344509.40872192 240242593.25874329 0 240242593.25874329 88679221.24288559 0 0 0 0 474132482.0401001 968807693.86200714 0 968807693.86200714 199030408.97851562 0 0 0 0 398750653.092453 119997727.33388901 0 119997727.33388901 107274619.4766922 0 0 0 0 662185239.47555542 682493208.67288208 0 682493208.67288208 297260280.32681274 0 0 0 0 42493173.305725098 66242497.24269104 0 66242497.24269104 130461473.89228058 0 0 0 0 60346573.416290283 74407045.800140381 0 74407045.800140381 131348539.17144775 0 0 0 0 41724374.812347412 77236419.548591614 0 77236419.548591614 137512960.91192627 0 0 0 0 54392139.905975342 72089857.455574036 0 72089857.455574036 132036800.99266052 0 0 0 0 35229481.882522583 27567295.687858582 0 27567295.687858582 590477.1814994812 0 0 0 0 8363961.7815971375 18936919.183958054 0 18936919.183958054 9421557.0803985596 0 0 0 0 7861725.7430725098 4664040.186164856 0 4664040.186164856 5427487.5439224243 0 0 0 0 15054810.954162598 4507573.3438491821 0 4507573.3438491821 -14676957.651287079 0 0 0 0 -42626906.875152588 47592939.988182068 0 47592939.988182068 -30605585.79630661 0 0 0 0 13087469.975326538 1310050.3383102417 0 1310050.3383102417 -5444746.9401626587 0 0 0 0 4374236.1006715372 4070866.8740413003 0 4070866.8740413003 -3197509.0632016007 0 0 0 0 8354667.1880683899 11519222.927202225 0 11519222.927202225 -6505555.5491333008 0 0 0 0 569864.64427707344 278216.35386234708 0 278216.35386234708 -62744.332540661097 0 0 0 0 -5060238.65205127 4278635.1908708978 0 4278635.1908708978 -73897.46530918777 0 0 0 0 15694984.669070244 15887697.179886341 0 15887697.179886341 1098534.3446426392 0 0 0 0 36968268.263900757 73627494.98589325 0 73627494.98589325 124765290.34259033 0 0 0 0 6519138.1284197047 4823038.289329594 0 4823038.289329594 -3642552.3584724721 0 0 0 0 144029458.07394409 -4321486.7057876587 0 -4321486.7057876587 -300793863.65496826 0 0 0 0 132684552.88691711 157055798.22341919 0 157055798.22341919 -158199253.5803833 0 0 0 0 214464744.79284668 186740583.04184723 0 186740583.04184723 -210342217.96174622 0 0 0 0 191898571.56262207 178703591.54821777 0 178703591.54821777 -491783531.74295044 0 0 0 0 180934785.59973145 -42806217.880844116 0 -42806217.880844116 -266275957.84500122 0 0 0 0 115138173.97477722 290670935.84841156 0 290670935.84841156 183640774.46572876 0 0 0 0 238202406.77706909 284373736.19387054 0 284373736.19387054 18643012.377990723 0 0 0 0 211911375.55569458 231259132.06344604 0 231259132.06344604 149750776.53286743 0 0 0 0 -72481488.057022095 86374189.978343964 0 86374189.978343964 79722112.693222046 0 0 0 0 399317503.45172119 453195996.55860138 0 453195996.55860138 364544572.85102844 0 0 0 0 368835183.40829468 481010786.98390961 0 481010786.98390961 356899576.52481079 0 0 0 0 202332517.67727661 379933681.69870758 0 379933681.69870758 302337153.32449341 0 0 0 0 309665654.26029968 343683414.97600937 0 343683414.97600937 314460248.03041077 0 0 0 0 204549660.81137848 271435076.42113113 0 271435076.42113113 620086971.86296082 0 0 0 0 210097108.57644653 422755146.56406403 0 422755146.56406403 345653831.62129974 0 0 0 0 541261906.57730103 701057358.34066772 0 701057358.34066772 435625746.93566895 0 0 0 0 106898600.8559494 723966123.39990234 0 723966123.39990234 933075182.00666618 0 0 0 0 221227242.24664307 328739711.09650421 0 328739711.09650421 142930288.12030792 0 0 0 0 94622672.989379883 424438884.42849731 0 424438884.42849731 507375523.33302307 0 0 0 0 116365410.97155762 651165410.33119202 0 651165410.33119202 553471154.31926346 0 0 0 0 316297056.91937256 694092169.11656189 0 694092169.11656189 262587514.21059418 0 0 0 0 141784376.96295929 351216634.22994041 0 351216634.22994041 220681720.86222839 0 0 0 0 120291286.55664062 460440736.58288574 0 460440736.58288574 69671812.407905579 0 0 0 0 1327767.9798428565 -604834.74210190028 0 -604834.74210190028 -173875.98533990234 0 0 0 0 -130555334.01226807 258231401.48085785 0 258231401.48085785 -66319532.796142578 0 0 0 0 5759143.3058624268 1054347.8994488716 0 1054347.8994488716 -3419053.8733978271 0 0 0 0 8284498.4646811932 2273502.4956889357 0 2273502.4956889357 -3768323.5525381826 0 0 0 0 520195.55340741575 -704037.40117300674 0 -704037.40117300674 -435285.95630506985 0 0 0 0 -166709617.89959717 -2819074.6474990845 0 -2819074.6474990845 -6100296.2219696045 0 0 0 0 151533086.86578369 221756899.66594315 0 221756899.66594315 -356443830.3951416 0 0 0 0 480960496.85673141 433883667.75626183 0 433883667.75626183 301645487.07333374 0 0 0 0 669321641.58062744 294656249.8563385 0 294656249.8563385 123957978.29342008 0 0 0 0 429326837.01861572 345206426.76309967 0 345206426.76309967 177495587.35202026 0 0 0 0 668503107.78811264 512585568.14549637 0 512585568.14549637 277232118.94358826 0 0 0 0 440336709.15251923 227306302.50047684 0 227306302.50047684 125313889.03116608 0 0 0 0 4644776.5419107005 174505.71358080395 0 174505.71358080395 -2286272.0364888515 0 0 0 0 604798.98413085938 1086917.7749938965 0 1086917.7749938965 -1599353.6476516724 0 0 0 0 3436184.1219406128 -2919127.5393238068 0 -2919127.5393238068 -8790389.4829711914 0 0 0 0 -2422538.5775756836 -819238.16325378418 0 -819238.16325378418 -1357693.6034832001 0 0 0 0 7863459.5450713467 -1216971.0960162506 0 -1216971.0960162506 -2433806.8748006374 0 0 0 0 6774281.1096496582 71018.894958496094 0 71018.894958496094 -5088170.7570877075 0 0 0 0 6544873.8855209351 -271718.11253356934 0 -271718.11253356934 -6783442.9377212524 0 0 0 0 -5378888.3068084717 -5737788.6962203979 0 -5737788.6962203979 5575611.0821151733 0 0 0 0 25975626.431621552 -487822.21982860565 0 -487822.21982860565 -22770976.913978577 0 0 0 0 3085429.9436672051 -531447.63080112264 0 -531447.63080112264 -185466.26160539687 0 0 0 0 948142.40175138973 -187838.3095042333 0 -187838.3095042333 -62309.566677987576 0 0 0 0 -8152516.6758422852 39922720.857326508 0 39922720.857326508 -54631075.814254761 0 0 0 0 -33704891.532592773 45812127.120620728 0 45812127.120620728 -19968778.539093018 0 0 0 0 -30256418.022186279 20071805.969932556 0 20071805.969932556 -3110674.9939002991 0 0 0 0 7849526.9268951416 71863611.880577087 0 71863611.880577087 -71173077.599639893 0 0 0 0 -21802101.940116882 62930739.398712158 0 62930739.398712158 -69591103.544448853 0 0 0 0 -9033198.249420166 30945593.717018127 0 30945593.717018127 -45342347.029884338 0 0 0 0 -19331958.957458496 52306957.544754028 0 52306957.544754028 -85175155.974815369 0 0 0 0 6132258.1844826639 1556671.9455278274 0 1556671.9455278274 -2042134.8655125797 0 0 0 0 -3098744.7537689209 1955552.9211845398 0 1955552.9211845398 -32518228.483184814 0 0 0 0 -15184392.40486145 16459789.191143036 0 16459789.191143036 -18864834.70173645 0 0 0 0 1444156.6704406738 -4505052.8411483765 0 -4505052.8411483765 -9178520.9463825226 0 0 0 0 -7038025.3246765137 -4093994.4805145264 0 -4093994.4805145264 -3159295.8414649963 0 0 0 0 4008808.6445053443 1142494.9319338538 0 1142494.9319338538 -1105916.0527607165 0 0 0 0 2280697.4830818176 9844364.7574806213 0 9844364.7574806213 -19760555.037956238 0 0 0 0 21916875.556915283 -18813909.673614502 0 -18813909.673614502 -25913729.764356613 0 0 0 0 11689450.965545654 -7618569.9558334351 0 -7618569.9558334351 5093241.4848175049 0 0 0 0 -4507083.0962219238 68309981.210212708 0 68309981.210212708 -234802764.29930496 0 0 0 0 2098003.6222048327 648849.45724707097 0 648849.45724707097 -1239444.252980046 0 0 0 0 49186496.673828125 -66260122.74180603 0 -66260122.74180603 22373542.470397949 0 0 0 0 -22824815.439193726 125447001.59200668 0 125447001.59200668 -179847325.84140205 0 0 0 0 13950575.877319336 69683004.222003937 0 69683004.222003937 -270012568.50361633 0 0 0 0 -188823997.83372498 2383152.778175354 0 2383152.778175354 -239367326.62142944 0 0 0 0 -57199775.669677734 98154363.47726059 0 98154363.47726059 -160699462.24876404 0 0 0 0 3310961.3780517578 59537057.560195923 0 59537057.560195923 -227013949.30541229 0 0 0 0 10705956.381671906 24249731.759299278 0 24249731.759299278 -129302593.16163635 0 0 0 0 -2607137.7239990234 105590336.66811371 0 105590336.66811371 -177427469.4175415 0 0 0 0 -36399284.783821106 135662229.68258286 0 135662229.68258286 -69187979.672355652 0 0 0 0 -20300610.856506348 141014168.61580658 0 141014168.61580658 -120036098.13150787 0 0 0 0 -80096360.812477112 154217789.46129227 0 154217789.46129227 -67821505.393211365 0 0 0 0 3907964.1014404297 180919794.37891388 0 180919794.37891388 -103498158.52754211 0 0 0 0 15306534.124961853 108014047.80982399 0 108014047.80982399 -71320902.951187134 0 0 0 0 25789440.082717896 121106909.5831871 0 121106909.5831871 -55086661.266777039 0 0 0 0 -16302451.162944794 176992345.03396797 0 176992345.03396797 -138516667.53771973 0 0 0 0 -137997668.57232666 247607695.03115463 0 247607695.03115463 -182301268.58947754 0 0 0 0 2436332.0805358887 -119673453.5314827 0 -119673453.5314827 -249289015.93250847 0 0 0 0 -242049674.64978027 49272520.556453705 0 49272520.556453705 45510214.937408447 0 0 0 0 -257657496.33661652 152685695.56602526 0 152685695.56602526 -7230394.6175460815 0 0 0 0 466027.85359458253 366391.22181802988 0 366391.22181802988 -1477812.3754660636 0 0 0 0 23914868.983734131 -94702392.390045166 0 -94702392.390045166 34804785.483689785 0 0 0 0 -81586170.294940948 9971391.3602561951 0 9971391.3602561951 -66581916.323272705 0 0 0 0 -59290332.43088913 63644187.137966156 0 63644187.137966156 -36728503.331924438 0 0 0 0 -53197526.6771698 69765566.127628326 0 69765566.127628326 -56747537.734794617 0 0 0 0 -53566574.442840576 113702603.35873413 0 113702603.35873413 -97208428.746006012 0 0 0 0 165989024.02992249 131879942.99485016 0 131879942.99485016 -47686256.667766571 0 0 0 0 133713600.59267044 206058311.21628857 0 206058311.21628857 72991978.416465759 0 0 0 0 350963893.60529327 166080689.47785568 0 166080689.47785568 -90268864.585548401 0 0 0 0 -92894966.395629883 72676814.996665955 0 72676814.996665955 14292477.686279297 0 0 0 0 -82774096.382446289 143191632.86650848 0 143191632.86650848 -68843046.121837616 0 0 0 0 156908560.99523926 121287724.34984207 0 121287724.34984207 -66813421.982486725 0 0 0 0 -366811883.79064941 224434597.17432022 0 224434597.17432022 26897230.616470337 0 0 0 0 -257597724.25541306 -58166592.320016861 0 -58166592.320016861 176608.42819213867 0 0 0 0 465120078.74546814 226609227.67317009 0 226609227.67317009 -114061275.86742401 0 0 0 0 187467557.77843475 52141881.082625389 0 52141881.082625389 -105348740.24480438 0 0 0 0 373742714.67816162 105016805.99323654 0 105016805.99323654 36953362.893501282 0 0 0 0 9947160.1152292807 4246015.1151942238 0 4246015.1151942238 1779660.8054030016 0 0 0 0 278810516.36566162 188088596.08340645 0 188088596.08340645 -4262986.3268508911 0 0 0 0 212382658.83330917 44241920.45422554 0 44241920.45422554 -41665337.869171143 0 0 0 0 85424664.122406006 14722354.4556427 0 14722354.4556427 29996827.907827377 0 0 0 0 2934916.2125464715 1148610.3324425146 0 1148610.3324425146 363765.77345704287 0 0 0 0 34816051.074760437 92778377.808263779 0 92778377.808263779 -238655669.99951172 0 0 0 0 55839703.166252136 168353142.18750381 0 168353142.18750381 -56326032.501525879 0 0 0 0 442345726.10499573 53506922.107091904 0 53506922.107091904 -174840537.82033539 0 0 0 0 463716771.83165359 400395531.52560616 0 400395531.52560616 193269091.75567627 0 0 0 0 537444114.3658638 250399780.19582748 0 250399780.19582748 -403728891.70007324 0 0 0 0 379884559.80615234 33293608.11100769 0 33293608.11100769 -609332520.95238495 0 0 0 0 189317297.25686646 -134979475.95446014 0 -134979475.95446014 -646814335.56380844 0 0 0 0 -68039365.120544434 54124493.50340271 0 54124493.50340271 -241140336.67476654 0 0 0 0 162498490.87902832 645634207.57527161 0 645634207.57527161 1246209255.3090553 0 0 0 0 1532672.7208617628 578006.98158266395 0 578006.98158266395 -366815.35452105291 0 0 0 0 369111935.06889343 578512461.60903168 0 578512461.60903168 1181792499.1961823 0 0 0 0 278254420.43639374 428056640.16597748 0 428056640.16597748 554336700.2409668 0 0 0 0 227928481.19537354 429011235.08830261 0 429011235.08830261 1214863230.3566895 0 0 0 0 534840927.61679077 213558134.2014389 0 213558134.2014389 651939550.49752808 0 0 0 0 670300996.33095551 469288150.91479301 0 469288150.91479301 324461555.50685883 0 0 0 0 241157538.63548279 -37250854.770767212 0 -37250854.770767212 226949349.85606384 0 0 0 0 297222981.05429077 760477547.75239563 0 760477547.75239563 1038914749.0449829 0 0 0 0 86703335.604385376 132354765.62056732 0 132354765.62056732 72387159.35332489 0 0 0 0 -121681499.95678711 -2848187.9670906067 0 -2848187.9670906067 215635265.58682251 0 0 0 0 53196261.441192627 131637789.51499939 0 131637789.51499939 446012085.59975052 0 0 0 0 60380390.989894867 115648154.96485615 0 115648154.96485615 145561902.89512634 0 0 0 0 -99073976.541854858 71185802.087097168 0 71185802.087097168 178940392.77802277 0 0 0 0 -112213271.42054749 101756890.09608459 0 101756890.09608459 113879260.64685059 0 0 0 0 -136320729.97201538 62288926.659538269 0 62288926.659538269 58241651.142837524 0 0 0 0 -164587596.2833252 14846771.128089905 0 14846771.128089905 151429228.36179352 0 0 0 0 -173869144.09507751 22105315.190525055 0 22105315.190525055 54811993.903411865 0 0 0 0 -96771913.444900513 -1540334.5003395081 0 -1540334.5003395081 60108113.777122498 0 0 0 0 -188067558.7066803 -132603349.20244217 0 -132603349.20244217 -42201935.200481415 0 0 0 0 -102897580.48373413 -30866432.78591156 0 -30866432.78591156 -390037297.18597412 0 0 0 0 99618571.827850342 171045173.50323868 0 171045173.50323868 -445617519.37268829 0 0 0 0 -221302309.24235535 34322027.268489838 0 34322027.268489838 51678631.978543282 0 0 0 0 -297188.3565042913 987551.77671384811 0 987551.77671384811 -159028.99067401979 0 0 0 0 -8737103.0464477539 57444036.430435181 0 57444036.430435181 142631206.86394882 0 0 0 0 -95882981.624843597 127927676.32638931 0 127927676.32638931 119741632.18711853 0 0 0 0 -70760112.19102478 254610424.12626648 0 254610424.12626648 -75932085.094497681 0 0 0 0 7210209.1847229004 151702601.53904724 0 151702601.53904724 -138430121.31774902 0 0 0 0 8215161.906036377 79953868.029800415 0 79953868.029800415 -69046683.854408264 0 0 0 0 53453688.061416626 117233445.4624939 0 117233445.4624939 -426594863.26086426 0 0 0 0 202867266.24417114 203050630.67369843 0 203050630.67369843 -144752750.08430481 0 0 0 0 16585905.157073975 352029658.98752594 0 352029658.98752594 173993960.10630798 0 0 0 0 348337483.17776489 493369094.09262848 0 493369094.09262848 335531843.29740143 0 0 0 0 371122124.47902107 295507426.29279327 0 295507426.29279327 169805812.684021 0 0 0 0 151166940.46060181 249841468.40566254 0 249841468.40566254 574727425.20698261 0 0 0 0 242559565.35467529 265566027.50554657 0 265566027.50554657 -181470231.20544434 0 0 0 0 126698342.44070435 -55833666.590393066 0 -55833666.590393066 -192627709.23127747 0 0 0 0 327177266.99421692 312169629.94573593 0 312169629.94573593 16440837.921943665 0 0 0 0 15689814.606445312 -8250693.9163284302 0 -8250693.9163284302 195293928.47629166 0 0 0 0 55366299.657516479 -263725539.98160553 0 -263725539.98160553 -836676931.47012711 0 0 0 0 80220730.678166389 150399451.25602794 0 150399451.25602794 -396346776.1693573 0 0 0 0 -963677.6570777446 3610288.7570248041 0 3610288.7570248041 -495131.39379761554 0 0 0 0 3274498.0494384766 18258317.93119812 0 18258317.93119812 -772214491.5298357 0 0 0 0 168361054.00318909 -77331079.553695679 0 -77331079.553695679 -775278751.30400848 0 0 0 0 46540802.262573242 47962444.619087219 0 47962444.619087219 48177320.933425903 0 0 0 0 -281616569.90408325 119176271.65467834 0 119176271.65467834 -325916483.32043457 0 0 0 0 -46296484.947387695 -39216516.426361084 0 -39216516.426361084 -300635254.76780701 0 0 0 0 -11250.437030062079 256766.28669916466 0 256766.28669916466 90473.30099260062 0 0 0 0 -221029096.99932861 -376318621.26559448 0 -376318621.26559448 -855553535.38296509 0 0 0 0 -29106603.857116699 105295862.2625885 0 105295862.2625885 -260996548.16143799 0 0 0 0 9524084.5144042969 267909468.93612671 0 267909468.93612671 -762748884.0351181 0 0 0 0 96668057.561462402 8875131.4342651367 0 8875131.4342651367 -304049287.3217392 0 0 0 0 -82802057.438964844 382567293.16790771 0 382567293.16790771 -255824140.35574341 0 0 0 0 37939961.943517685 77331557.813373566 0 77331557.813373566 84738931.635528564 0 0 0 0 21407318.757141113 67088536.750473022 0 67088536.750473022 134210962.20016479 0 0 0 0 28717331.090148926 72550872.753112793 0 72550872.753112793 130328981.54566574 0 0 0 0 11498368.664321899 78300178.1965065 0 78300178.1965065 176817244.6431427 0 0 0 0 24895940.468322754 40427156.396484375 0 40427156.396484375 77327525.907897949 0 0 0 0 2822303.3793640137 59303346.229345322 0 59303346.229345322 131092561.90937805 0 0 0 0 32718172.41809082 63397711.433513641 0 63397711.433513641 126586859.34965515 0 0 0 0 56926978.298019409 116644479.52106857 0 116644479.52106857 123013405.8501358 0 0 0 0 42568869.152633667 110308841.12535095 0 110308841.12535095 164717636.15992737 0 0 0 0 34128510.262489319 93961746.281768799 0 93961746.281768799 133057060.74066925 0 0 0 0 45400695.926376343 82848460.058921814 0 82848460.058921814 140505060.65457535 0 0 0 0 28768920.000061035 79121203.958187103 0 79121203.958187103 143805871.73791504 0 0 0 0 -42144221.233718872 150159993.86028671 0 150159993.86028671 274648507.01055622 0 0 0 0 -34705514.491744995 103133570.31162262 0 103133570.31162262 291381368.24948883 0 0 0 0 -34911257.181884766 58202851.725036621 0 58202851.725036621 254378140.09849548 0 0 0 0 36434518.792633057 102284776.01221466 0 102284776.01221466 80691162.78793335 0 0 0 0 12633136.211334229 179851972.47319031 0 179851972.47319031 2037046.7953109741 0 0 0 0 -63880542.928253174 138603781.43101501 0 138603781.43101501 148755150.45227051 0 0 0 0 -33616156.668006897 80637903.009479523 0 80637903.009479523 81923009.438705444 0 0 0 0 45980532.000015259 41640036.169891357 0 41640036.169891357 128985090.41910458 0 0 0 0 4395873.4276275635 65758221.60887146 0 65758221.60887146 248769477.04790497 0 0 0 0 -22797982.541213989 165484080.85760117 0 165484080.85760117 221184530.51055908 0 0 0 0 -7367652.8774550408 3474894.4825472236 0 3474894.4825472236 4846449.0057502463 0 0 0 0 176838142.38258791 228198801.66120768 0 228198801.66120768 119227893.86529541 0 0 0 0 100627476.92286682 185399198.88563919 0 185399198.88563919 216380987.65726757 0 0 0 0 -20259872.332148761 28074878.422364671 0 28074878.422364671 -19797536.861647066 0 0 0 0 -66312025.350334167 -7747315.8166389465 0 -7747315.8166389465 112824542.85282135 0 0 0 0 -16534482.749961853 321489017.77761841 0 321489017.77761841 334717716.75846863 0 0 0 0 148545323.0765667 372780982.12040138 0 372780982.12040138 340730303.44673157 0 0 0 0 -24902444.644315146 31397452.390545674 0 31397452.390545674 -17046100.659174368 0 0 0 0 42212030.116287231 243565231.96000671 0 243565231.96000671 455129351.08175659 0 0 0 0 170371883.69018626 285585262.28397131 0 285585262.28397131 176813675.69107056 0 0 0 0 -35513169.410171509 114254127.44157791 0 114254127.44157791 363254112.10822678 0 0 0 0 -46997211.690738678 323098816.99773407 0 323098816.99773407 177699453.47714233 0 0 0 0 158337977.03621197 331743980.6694231 0 331743980.6694231 165625964.46252441 0 0 0 0 196423843.74081993 191167579.63591194 0 191167579.63591194 167274528.04499817 0 0 0 0 237791983.59132385 250448553.81882477 0 250448553.81882477 127284167.98106384 0 0 0 0 176941780.54598236 239647712.06347656 0 239647712.06347656 192016346.70326233 0 0 0 0 300580956.18321705 369010302.78832054 0 369010302.78832054 286276328.24353027 0 0 0 0 339543528.31737614 225530596.68630695 0 225530596.68630695 102426461.6361084 0 0 0 0 108635424.509305 203326863.06451416 0 203326863.06451416 250888217.35430145 0 0 0 0 111699313.43505859 282756260.83612823 0 282756260.83612823 528832265.1006546 0 0 0 0 50437729.890365601 77880882.37896347 0 77880882.37896347 140750013.72673798 0 0 0 0 57746080.902191162 84417673.526611328 0 84417673.526611328 136212655.00928307 0 0 0 0 136477520.43772888 -137332343.54708862 0 -137332343.54708862 192261189.70834351 0 0 0 0 -14218609.389751613 16936440.99412562 0 16936440.99412562 -18345208.803018652 0 0 0 0 56480012.251708984 91000084.387252808 0 91000084.387252808 113487902.44657135 0 0 0 0 3758027.3723721132 7037752.4812356541 0 7037752.4812356541 -9385451.7621277645 0 0 0 0 530978795.10751343 436148478.91875458 0 436148478.91875458 264842486.05041504 0 0 0 0 -562035709.56216431 -5206606.1592941284 0 -5206606.1592941284 642762775.18920898 0 0 0 0 -1948166597.9456329 190819640.97618103 0 190819640.97618103 616027789.6655941 0 0 0 0 381900340.47235107 134943611.33337402 0 134943611.33337402 481232090.54937744 0 0 0 0 -877655965.57800674 737615660.18637085 0 737615660.18637085 344364793.56632996 0 0 0 0 -2801060505.7532997 -1504911332.2048531 0 -1504911332.2048531 1235389908.1141663 0 0 0 0 935019417.54321289 163184302.34950638 0 163184302.34950638 -331358896.10693359 0 0 0 0 832989592.91387939 361719917.86845398 0 361719917.86845398 -574852845.60933113 0 0 0 0 -776443953.25198364 1296832455.830452 0 1296832455.830452 -466487681.67645264 0 0 0 0 -8172062.6687195338 11693817.895490553 0 11693817.895490553 -17995011.577643603 0 0 0 0 -820174480.24006653 1289810216.0810471 0 1289810216.0810471 -2465110469.9223175 0 0 0 0 548677257.82634354 479182781.51063919 0 479182781.51063919 362110317.57991028 0 0 0 0 532559927.32350159 484416946.04246521 0 484416946.04246521 360749966.31361389 0 0 0 0 640143401.64979553 647957473.83376312 0 647957473.83376312 593592160.97909546 0 0 0 0 462668991.99143982 889151493.09489822 0 889151493.09489822 815536507.0267334 0 0 0 0 984096391.71379089 1018448532.5189056 0 1018448532.5189056 745789785.49237061 0 0 0 0 1337380569.6695175 843479934.61011505 0 843479934.61011505 381365449.68739319 0 0 0 0 1123480700.7911682 730129885.66085815 0 730129885.66085815 451477915.37492371 0 0 0 0 -2909103531.6772537 -892092301.03736115 0 -892092301.03736115 53179058.834747314 0 0 0 0 -1348688.2008715346 2323152.2528009377 0 2323152.2528009377 -4184605.4161251932 0 0 0 0 -5028012.4231027514 7437737.0903977966 0 7437737.0903977966 -11922254.539319538 0 0 0 0 1357748679.3895655 1040877099.6288085 0 1040877099.6288085 649596243.2822113 0 0 0 0 -88741608.206477165 539552017.8424139 0 539552017.8424139 1088075255.921608 0 0 0 0 -65718450.485679626 487846788.02558136 0 487846788.02558136 791038743.54701233 0 0 0 0 203081716.90547943 522057922.04239655 0 522057922.04239655 664970557.85963058 0 0 0 0 196151629.52765656 491656762.08053589 0 491656762.08053589 536952776.59028625 0 0 0 0 509913747.56538486 704033572.47552204 0 704033572.47552204 669936234.32740784 0 0 0 0 -177900013.62699127 708903618.52661896 0 708903618.52661896 986194654.67376328 0 0 0 0 111155752.31271744 677574857.07766342 0 677574857.07766342 976356845.46183777 0 0 0 0 111689491.96140289 692344641.73331451 0 692344641.73331451 737087667.56884003 0 0 0 0 -119317337.48185539 614289713.48773193 0 614289713.48773193 1099356204.9901505 0 0 0 0 -505950492.78457069 817287151.22160339 0 817287151.22160339 1027618336.9582214 0 0 0 0 -565403562.15520859 1003400492.3182268 0 1003400492.3182268 289470763.77449799 0 0 0 0 -197961650.56952667 745577805.9377327 0 745577805.9377327 470371071.61504364 0 0 0 0 -277284021.8134079 890088343.09075546 0 890088343.09075546 857507516.62959862 0 0 0 0 228345814.59478378 1230873510.7974529 0 1230873510.7974529 351189048.27685547 0 0 0 0 108168263.67288208 966892338.27969551 0 966892338.27969551 818382467.78213501 0 0 0 0 299687414.6545105 774499346.50245667 0 774499346.50245667 870425694.96756935 0 0 0 0 547772264.51255798 1085919621.1942787 0 1085919621.1942787 883161158.19530487 0 0 0 0 988399953.55200195 883275273.42237854 0 883275273.42237854 713689567.54875755 0 0 0 0 927326289.44332886 926748691.29514313 0 926748691.29514313 676393425.17254639 0 0 0 0 1080193385.0993423 1083637900.0145836 0 1083637900.0145836 891170153.14938354 0 0 0 0 1278900150.2563477 818967030.34347534 0 818967030.34347534 969567769.65576172 0 0 0 0 1662819606.2847595 589123023.79975891 0 589123023.79975891 906369774.69082642 0 0 0 0 1556290520.9972687 908191649.95123291 0 908191649.95123291 725048990.76441956 0 0 0 0 929095510.61430359 1062575916.0350647 0 1062575916.0350647 841497546.12486267 0 0 0 0 2667421128.2432022 982960269.5824585 0 982960269.5824585 330504208.41520691 0 0 0 0 2631406794.7041678 1955591852.1561019 0 1955591852.1561019 166002495.27973938 0 0 0 0 1589700348.6655579 1352950319.7813187 0 1352950319.7813187 322932764.51243591 0 0 0 0 1634618582.078331 1100392415.4637413 0 1100392415.4637413 448626712.51296997 0 0 0 0 946591390.30944061 1186963817.9342728 0 1186963817.9342728 498162011.95996094 0 0 0 0 1501579092.5557709 1453211465.6738739 0 1453211465.6738739 479491711.99546814 0 0 0 0 1445329658.6821289 1465722188.9545212 0 1465722188.9545212 310697612.36239624 0 0 0 0 867306420.95239258 1289476570.1519165 0 1289476570.1519165 338199449.96031857 0 0 0 0 1606022255.2193375 2176599884.6706767 0 2176599884.6706767 511588915.22529602 0 0 0 0 560958204.33577538 945259503.81627846 0 945259503.81627846 5684893.5219726562 0 0 0 0 381972823.16763306 966431349.55731201 0 966431349.55731201 739146816.88420105 0 0 0 0 1026554701.1565132 1118291428.948246 0 1118291428.948246 322180291.78497314 0 0 0 0 448651083.17137146 1023265097.6235199 0 1023265097.6235199 396753640.81074142 0 0 0 0 662726996.48062515 962906319.4655056 0 962906319.4655056 -183469008.00976181 0 0 0 0 8399286.172870636 720371643.95163727 0 720371643.95163727 114509296.53924561 0 0 0 0 548271809.37683868 896738579.18591309 0 896738579.18591309 204037331.16548276 0 0 0 0 561402012.97162247 1011220830.3501883 0 1011220830.3501883 799014779.10399628 0 0 0 0 1063456448.0596924 1678732376.1396465 0 1678732376.1396465 650896732.05929565 0 0 0 0 946630130.20172882 1290690006.8554726 0 1290690006.8554726 176190362.24888611 0 0 0 0 316752217.18369675 476379876.03106689 0 476379876.03106689 -1146767536.2264633 0 0 0 0 237948650.01572418 437428817.74896049 0 437428817.74896049 185511162.61390114 0 0 0 0 -134724745.25042725 1041732613.6099281 0 1041732613.6099281 -1753849246.8977928 0 0 0 0 -308199988.72197723 -402130838.38856888 0 -402130838.38856888 -1087383038.7369432 0 0 0 0 -1595415588.2287464 764033322.03626823 0 764033322.03626823 235631341.63144684 0 0 0 0 -118308695.76540756 833993099.6006279 0 833993099.6006279 23546284.835258484 0 0 0 0 66621733.761390686 349714334.9834013 0 349714334.9834013 133700835.22088623 0 0 0 0 19162823.232154846 683660413.79724455 0 683660413.79724455 152879567.77398682 0 0 0 0 -96664769.644439697 654625767.71743393 0 654625767.71743393 270337072.749403 0 0 0 0 -97386025.24621582 580362002.24069214 0 580362002.24069214 299006893.38331795 0 0 0 0 -96717126.683807373 507566809.19815826 0 507566809.19815826 210482554.75312614 0 0 0 0 115245904.61886597 529303358.79340363 0 529303358.79340363 206857768.18913651 0 0 0 0 109833732.1303587 395273475.09427953 0 395273475.09427953 132134247.08917999 0 0 0 0 40460979.294464111 589686738.57416153 0 589686738.57416153 159302015.06497955 0 0 0 0 335679556.68377686 587125290.52951431 0 587125290.52951431 91396852.74017334 0 0 0 0 89785410.257293701 734466303.11445236 0 734466303.11445236 65671143.224571228 0 0 0 0 272909471.53538513 456148144.29275322 0 456148144.29275322 100145432.40629578 0 0 0 0 497997416.46024323 625689305.2022419 0 625689305.2022419 152911619.13806152 0 0 0 0 610947184.27655029 390600739.64192963 0 390600739.64192963 110856457.71289825 0 0 0 0 549056231.82888794 463061018.50489807 0 463061018.50489807 52909972.143264771 0 0 0 0 506098634.64788818 597834883.48069 0 597834883.48069 27951101.670763016 0 0 0 0 -432422832.39850903 224324134.18601972 0 224324134.18601972 121227111.99927521 0 0 0 0 157854749.67214966 750126725.24584961 0 750126725.24584961 36512234.751449585 0 0 0 0 -1724019604.5107422 319971316.0897522 0 319971316.0897522 579117145.28553009 0 0 0 0 -399780777.56924438 927191127.47452545 0 927191127.47452545 170747041.58836174 0 0 0 0 22455013.019721985 637591113.44427681 0 637591113.44427681 164936664.99848938 0 0 0 0 2230605447.1613007 635475726.54866791 0 635475726.54866791 475191581.74460602 0 0 0 0 1348090.9558628649 860921.67015548795 0 860921.67015548795 -5994708.4425581992 0 0 0 0 1129956984.2597122 530410584.33628845 0 530410584.33628845 985764161.95723724 0 0 0 0 695889300.70785522 398368625.22823715 0 398368625.22823715 718391343.53564453 0 0 0 0 978609076.32849121 871847933.21613693 0 871847933.21613693 446912982.99033356 0 0 0 0 2259122918.004425 1243902432.4417229 0 1243902432.4417229 380203232.98957825 0 0 0 0 1678627649.084816 -41134950.117401123 0 -41134950.117401123 -282498371.88432312 0 0 0 0 87808108.131500244 1379142980.8633194 0 1379142980.8633194 568010131.45899963 0 0 0 0 -80524.396820627153 4747926.4866809398 0 4747926.4866809398 -13114494.642603155 0 0 0 0 477651063.79723167 628667773.41032767 0 628667773.41032767 246226239.8500061 0 0 0 0 468535798.24394226 543654717.56095505 0 543654717.56095505 94617241.683052063 0 0 0 0 173766323.89122009 457500641.85646057 0 457500641.85646057 303356703.9573288 0 0 0 0 513888001.0855484 341659499.23959351 0 341659499.23959351 470133858.81115723 0 0 0 0 385863422.38170624 602087618.47182465 0 602087618.47182465 127618231.9536438 0 0 0 0 -5586467978.8558197 879148774.82411957 0 879148774.82411957 2289919030.096283 0 0 0 0 -2878764735.7476044 -2630604515.5185852 0 -2630604515.5185852 -787334110.4520874 0 0 0 0 478497251.53710938 2006485798.5972824 0 2006485798.5972824 491682914.92900085 0 0 0 0 -1124695253.594223 -219183780.30771637 0 -219183780.30771637 -1133998814.6436157 0 0 0 0 -1260335.3932053372 2107774.3739140201 0 2107774.3739140201 -4343952.1604093015 0 0 0 0 1180812491.0753136 679356249.50444412 0 679356249.50444412 32836623.728477478 0 0 0 0 -2521211.4148035161 6075663.3756949045 0 6075663.3756949045 -11482443.364593036 0 0 0 0 1024024853.3598175 264772796.75200272 0 264772796.75200272 56817898.807014465 0 0 0 0 319657091.19441223 545681920.10787582 0 545681920.10787582 24252214.71522522 0 0 0 0 491317333.23538208 334393758.17392731 0 334393758.17392731 212273626.92096901 0 0 0 0 709492754.78492737 548939388.6836319 0 548939388.6836319 -7226841.7714385986 0 0 0 0 608497520.36550903 340738109.64842224 0 340738109.64842224 30414150.763900757 0 0 0 0 568289518.90527344 426440621.34451675 0 426440621.34451675 -149704700.56730652 0 0 0 0 339766020.39468384 319291340.79088593 0 319291340.79088593 -36147561.049751282 0 0 0 0 139058147.72491455 439991512.72658539 0 439991512.72658539 -62876274.972824097 0 0 0 0 317047161.72149658 406625405.8345108 0 406625405.8345108 -267482890.63220215 0 0 0 0 -203916788.24472046 537227356.88665771 0 537227356.88665771 -31116009.315753937 0 0 0 0 139041517.23693848 473132407.11437988 0 473132407.11437988 -457290480.51280212 0 0 0 0 -68674285.607284546 634531223.86539841 0 634531223.86539841 -62236111.054763794 0 0 0 0 305999284.98196793 486473745.26355934 0 486473745.26355934 -136508847.63624573 0 0 0 0 89222178.290000916 614335991.6556654 0 614335991.6556654 131636841.99690247 0 0 0 0 1176650.8049926758 495015543.44051552 0 495015543.44051552 204568363.3456192 0 0 0 0 -431853978.85783386 512353958.02214813 0 512353958.02214813 198841723.27476501 0 0 0 0 25383085.325912476 440229844.72377777 0 440229844.72377777 209992591.73673248 0 0 0 0 -76569901.071289062 537436859.9390564 0 537436859.9390564 -149271472.75505066 0 0 0 0 -189226708.15420532 443307482.56456757 0 443307482.56456757 -121042991.91182327 0 0 0 0 -348303820.80563354 655161523.15289688 0 655161523.15289688 -386864927.56214142 0 0 0 0 -278448793.78321457 421306284.40230465 0 421306284.40230465 -895077941.76477051 0 0 0 0 -484237619.340271 410439967.69885635 0 410439967.69885635 -930308969.46369934 0 0 0 0 -1101096763.2145233 -10542189.721565247 0 -10542189.721565247 -784846004.16473389 0 0 0 0 -85539724.559112549 80286695.447189331 0 80286695.447189331 -1088943926.0368652 0 0 0 0 -57397711.234893799 174939913.01644135 0 174939913.01644135 -845896272.13955688 0 0 0 0 106764319.30322266 203679777.35693359 0 203679777.35693359 -371531650.98296738 0 0 0 0 39826167.31729126 364473426.28462601 0 364473426.28462601 -696127598.14886475 0 0 0 0 359910986.74026489 274224632.10985565 0 274224632.10985565 -389051016.3957901 0 0 0 0 123364740.1305542 271408880.96154785 0 271408880.96154785 -228287553.48520088 0 0 0 0 140203595.34161377 -6508953.0141029358 0 -6508953.0141029358 -291325314.12266541 0 0 0 0 152656691.65786743 40023346.086193085 0 40023346.086193085 -507723305.83646393 0 0 0 0 -33093615.799102783 -95930464.642463684 0 -95930464.642463684 -570179645.79049492 0 0 0 0 -167060108.26937866 -222733671.92738342 0 -222733671.92738342 -294805025.48698425 0 0 0 0 52500031.071777344 -119239820.18151855 0 -119239820.18151855 -255152974.36592102 0 0 0 0 8349338.0924913287 3901913.5379253961 0 3901913.5379253961 -3442576.7798976339 0 0 0 0 -181021428.36621094 -328025589.06259918 0 -328025589.06259918 -748610833.92962265 0 0 0 0 55123587.781463623 101460358.63417053 0 101460358.63417053 99680306.535018921 0 0 0 0 -326769287.51367188 84197936.313533783 0 84197936.313533783 -19330525.736862183 0 0 0 0 -863876.52002681792 4945076.948121246 0 4945076.948121246 -2052369.6371784229 0 0 0 0 1283999.247056134 486526.87588608079 0 486526.87588608079 -1997700.1074720919 0 0 0 0 926161462.71786499 92050391.341026306 0 92050391.341026306 -78838473.5625 0 0 0 0 957741683.99417114 180627044.27886391 0 180627044.27886391 -317832869.7893219 0 0 0 0 808861275.13961792 168710866.88439941 0 168710866.88439941 259214851.11539078 0 0 0 0 743218686.56030273 500737850.27376556 0 500737850.27376556 377893827.20924377 0 0 0 0 950831541.64569092 175306432.54367065 0 175306432.54367065 -200231505.8567276 0 0 0 0 792032725.55465698 297225619.09761429 0 297225619.09761429 -132822877.23796082 0 0 0 0 354220794.51287842 152307094.82860565 0 152307094.82860565 -123293420.31535339 0 0 0 0 620835505.02041626 325500622.62135696 0 325500622.62135696 -192978781.39549255 0 0 0 0 824399238.55084229 464948768.77811241 0 464948768.77811241 -65851101.189086914 0 0 0 0 664118199.83520508 225189768.87609863 0 225189768.87609863 38590754.084747314 0 0 0 0 372300950.05899048 203924286.70688629 0 203924286.70688629 -91984842.08439064 0 0 0 0 364358755.60671997 165136865.78828812 0 165136865.78828812 -210540004.63308716 0 0 0 0 -4799276.2526702881 -115058883.09991455 0 -115058883.09991455 -154976199.72223568 0 0 0 0 217831069.61167908 279761578.57112122 0 279761578.57112122 22993023.00686264 0 0 0 0 789371211.19847107 397533678.48000717 0 397533678.48000717 -161983463.53573608 0 0 0 0 808357403.00538635 638439167.0477829 0 638439167.0477829 231801045.17401886 0 0 0 0 919814328.1836853 228683349.79109192 0 228683349.79109192 -254112900.0556488 0 0 0 0 976345488.76135254 281717577.12717056 0 281717577.12717056 -346173350.25428772 0 0 0 0 1338707336.6295624 213138222.73003387 0 213138222.73003387 -591026840.67623901 0 0 0 0 1320265576.2410736 469202366.15090179 0 469202366.15090179 -341301892.901443 0 0 0 0 948651583.17745972 110623038.2140274 0 110623038.2140274 -366886783.39470673 0 0 0 0 1047406256.3779449 207794011.92473602 0 207794011.92473602 -324317107.34127808 0 0 0 0 2838152.5572753772 1450862.352764599 0 1450862.352764599 -1124951.5018634452 0 0 0 0 160318.75442653149 1573792.4606843404 0 1573792.4606843404 -1900372.490894556 0 0 0 0 1895257403.1238403 -67400962.976226807 0 -67400962.976226807 -470055890.75392151 0 0 0 0 -1730330591.0275269 449504578.48205566 0 449504578.48205566 -411260350.75116348 0 0 0 0 -68704626.495819092 111891679.36672211 0 111891679.36672211 135060636.98474121 0 0 0 0 -238383695.45298767 266567987.43531799 0 266567987.43531799 99539997.539413452 0 0 0 0 372975221.54592133 110351237.53338623 0 110351237.53338623 -155134246.13835907 0 0 0 0 101632682.96865082 478435294.8208065 0 478435294.8208065 -639294966.84602356 0 0 0 0 -86594472.000686646 271219038.91525269 0 271219038.91525269 108342548.66884995 0 0 0 0 141661788.13087463 240072398.64031219 0 240072398.64031219 110116584.99969482 0 0 0 0 -5352429.5158201084 5363381.8166114297 0 5363381.8166114297 -2332476.4059517942 0 0 0 0 -10375923.401550293 72075270.785881042 0 72075270.785881042 144956267.00038719 0 0 0 0 25639327.218475342 197991950.63464355 0 197991950.63464355 114341596.61725426 0 0 0 0 53372477.88760376 80414291.007125854 0 80414291.007125854 137912256.66672516 0 0 0 0 28023339.132843018 19684043.838069916 0 19684043.838069916 -541409.40447616577 0 0 0 0 46814633.223815918 20418869.25022316 0 20418869.25022316 -30516251.350463867 0 0 0 0 36712470.771736145 44402099.732185364 0 44402099.732185364 5713385.4078063965 0 0 0 0 -4665941.5484109372 6262820.2698402368 0 6262820.2698402368 -4755643.8645475581 0 0 0 0 299930090.35006714 -36059026.78194809 0 -36059026.78194809 -4199469.5587434769 0 0 0 0 24073009.088302612 5665487.4641704559 0 5665487.4641704559 -3041271.9597930908 0 0 0 0 10761118.174377441 12327731.849781036 0 12327731.849781036 11857406.709587097 0 0 0 0 9246924.6740875244 17941751.099159241 0 17941751.099159241 -1654673.871307373 0 0 0 0 1889284.6338043213 -24430471.772742271 0 -24430471.772742271 -40356077.129623413 0 0 0 0 1628692.8874123544 1893458.74397346 0 1893458.74397346 -2755957.7288300581 0 0 0 0 -30341932.945053101 -30028889.840183258 0 -30028889.840183258 -39304966.657356262 0 0 0 0 112006131.95846558 45371885.142982483 0 45371885.142982483 -91380669.341869354 0 0 0 0 333561232.91743469 583339884.55638313 0 583339884.55638313 398390926.46366882 0 0 0 0 -22264745.662062645 -72175331.346192122 0 -72175331.346192122 -346664362.97703552 0 0 0 0 512633.46995931864 742776.76770025864 0 742776.76770025864 -1053990.2768591121 0 0 0 0 125739432.4944458 244049083.49485397 0 244049083.49485397 457429478.28356171 0 0 0 0 174071111.39479065 65449239.108062744 0 65449239.108062744 68485648.729606152 0 0 0 0 383195800.72038269 141741966.97432709 0 141741966.97432709 64796928.182621002 0 0 0 0 3428794.8654129952 7461416.5788827986 0 7461416.5788827986 -8902288.6062586792 0 0 0 0 230667790.51187134 355617244.80463028 0 355617244.80463028 -74596836.343833923 0 0 0 0 363005671.37254333 144492369.10274124 0 144492369.10274124 95602777.000671387 0 0 0 0 1147756135.5689545 63036200.381130219 0 63036200.381130219 -389268671.16328621 0 0 0 0 1452186.47918953 4230189.9463904649 0 4230189.9463904649 -8067686.0669218972 0 0 0 0 -3377001230.673233 1449187402.3184681 0 1449187402.3184681 74765310.543170929 0 0 0 0 -3088589660.3506393 605452359.99830818 0 605452359.99830818 -274477966.00576782 0 0 0 0 -302216.65253243595 412696.33988468349 0 412696.33988468349 -8062944.8087283745 0 0 0 0 -3239782484.2341537 711168594.42831039 0 711168594.42831039 89325283.441764832 0 0 0 0 1329916133.4690247 -791635345.35115433 0 -791635345.35115433 -147663754.70243835 0 0 0 0 2059533296.8878174 -598784865.88381195 0 -598784865.88381195 -454156748.20507812 0 0 0 0 693270144.3868866 117960773.49889755 0 117960773.49889755 -227587570.96356201 0 0 0 0 510192299.73403931 -116821813.03115082 0 -116821813.03115082 -476803946.79125214 0 0 0 0 359333542.93478394 404602074.95580101 0 404602074.95580101 -782801026.76301575 0 0 0 0 -408638845.55307007 835439892.3969574 0 835439892.3969574 -551303145.73954391 0 0 0 0 14679990.729431152 374518683.80664062 0 374518683.80664062 -488766191.85514832 0 0 0 0 22054123.399200439 531723239.89280701 0 531723239.89280701 -1006801225.8613129 0 0 0 0 -1249155360.5752869 168728086.30421448 0 168728086.30421448 -806206713.45927429 0 0 0 0 -567411041.37210083 771800834.89200592 0 771800834.89200592 -791029082.70118713 0 0 0 0 -413519886.01733398 450103927.85676575 0 450103927.85676575 -1045369434.4153366 0 0 0 0 -380160654.17788696 765869379.53239441 0 765869379.53239441 -760248287.31673431 0 0 0 0 -498580.37175109982 1760021.4154799543 0 1760021.4154799543 -730662.51546748914 0 0 0 0 -101769055.66747284 691740427.35906601 0 691740427.35906601 -1329039897.0847321 0 0 0 0 -143780369.30438232 170285848.23221207 0 170285848.23221207 381171999.17169952 0 0 0 0 -159877641.81292725 878124257.00135803 0 878124257.00135803 -1145600390.7028046 0 0 0 0 -38659709.66595459 569923059.95422363 0 569923059.95422363 -1098155038.3874741 0 0 0 0 -275205012.49090576 536179739.81047821 0 536179739.81047821 -387958917.02815485 0 0 0 0 361122852.22736734 590527730.12893796 0 590527730.12893796 -1076242182.8205261 0 0 0 0 -255288907.99853516 301411446.92224884 0 301411446.92224884 -217003529.32450104 0 0 0 0 827742533.02145386 946919922.00645733 0 946919922.00645733 232367834.96304321 0 0 0 0 -1881432.2862646729 4311365.5335273296 0 4311365.5335273296 -3999160.2946976423 0 0 0 0 1219084853.2655182 1303260398.6692924 0 1303260398.6692924 160045919.83906174 0 0 0 0 377825427.66344452 292665417.7549715 0 292665417.7549715 -95011517.213050842 0 0 0 0 270635964.19830322 322272643.40873528 0 322272643.40873528 444741031.36007118 0 0 0 0 -854152156.41738892 463959784.18793678 0 463959784.18793678 439523269.65451431 0 0 0 0 -837355403.51156616 966594160.08071899 0 966594160.08071899 -723392117.34351349 0 0 0 0 -2089419521.4719543 782498857.48834801 0 782498857.48834801 286290503.32222748 0 0 0 0 -2530311986.0720673 1587138057.3594904 0 1587138057.3594904 -451051149.07996368 0 0 0 0 -2252602769.8482666 414953652.93226433 0 414953652.93226433 -238327517.20940304 0 0 0 0 -1899777290.2900543 1091106361.634779 0 1091106361.634779 349549528.11865234 0 0 0 0 -1315333097.7714767 226598200.8479805 0 226598200.8479805 61199814.118873596 0 0 0 0 -1910534281.6594391 1377278259.5450497 0 1377278259.5450497 -456566270.05807877 0 0 0 0 -4342828.5385178495 1358212.2422589064 0 1358212.2422589064 1432921.9313143156 0 0 0 0 -44478306.224090576 227037548.42100143 0 227037548.42100143 -414457727.06093979 0 0 0 0 -3908204.4627990723 24716103.515029907 0 24716103.515029907 32673214.237224579 0 0 0 0 33539735.2419734 201701609.14119118 0 201701609.14119118 306534903.88656235 0 0 0 0 -1399547.7866201764 30107.025299996138 0 30107.025299996138 374491.84462078288 0 0 0 0 -915195168.72416687 503260694.40396118 0 503260694.40396118 -325766009.73729706 0 0 0 0 201683329.23428345 631200083.07129669 0 631200083.07129669 36993376.318157196 0 0 0 0 -29523174.391277313 207802617.88124466 0 207802617.88124466 704782821.52745056 0 0 0 0 41281061.254211426 -11108896.05474472 0 -11108896.05474472 57174959.472555161 0 0 0 0 -6283929.3387679905 4765204.0225827806 0 4765204.0225827806 2689390.3530466845 0 0 0 0 -740373184.5536499 692768654.28989029 0 692768654.28989029 -745204516.49329376 0 0 0 0 759307863.94801331 582667950.86177254 0 582667950.86177254 485064517.78538895 0 0 0 0 1211623794.0532379 597611057.90932274 0 597611057.90932274 303904673.73253632 0 0 0 0 -1390917420.4033813 1200600780.2454634 0 1200600780.2454634 -463945016.16755676 0 0 0 0 -1485552996.3047409 1076526066.6352625 0 1076526066.6352625 -368206000.60374451 0 0 0 0 -1138935681.5065155 1231937611.6277275 0 1231937611.6277275 -1015373591.6036758 0 0 0 0 -261670714.53970337 555724867.31163216 0 555724867.31163216 -573182353.35121536 0 0 0 0 -503646376.06058884 142979075.84350777 0 142979075.84350777 5399103.3930435181 0 0 0 0 -8252750.0590580702 6650920.5172370672 0 6650920.5172370672 4160956.9744231524 0 0 0 0 -155350575.90133667 223890509.99458694 0 223890509.99458694 -416353857.39951324 0 0 0 0 -6758439.5155056836 6233042.3490426019 0 6233042.3490426019 7688994.1490252577 0 0 0 0 134219392.40727329 144285551.75180262 0 144285551.75180262 133689729.58182526 0 0 0 0 -485147652.6335144 639258797.2638588 0 639258797.2638588 -671851767.15658951 0 0 0 0 -15652056.53219004 871654.94243609905 0 871654.94243609905 4476679.3751568012 0 0 0 0 -907088059.7653656 284517492.76397514 0 284517492.76397514 -79842190.511173248 0 0 0 0 -6726340.8553314209 418860479.07237434 0 418860479.07237434 -324341066.79385757 0 0 0 0 -912446802.2769928 -159107585.20165253 0 -159107585.20165253 51788768.534646988 0 0 0 0 330309421.81757879 -54289464.75366956 0 -54289464.75366956 -137930798.85115814 0 0 0 0 -954839701.19242859 202818151.82299232 0 202818151.82299232 220308551.67892075 0 0 0 0 -3629224.2794954106 5718519.9253361449 0 5718519.9253361449 3515502.1844132431 0 0 0 0 -1113652724.005661 608081062.0778203 0 608081062.0778203 -360312954.85876465 0 0 0 0 -1342176423.8262177 1151290940.3227997 0 1151290940.3227997 -533744697.70977402 0 0 0 0 -1092457757.6420898 333592155.27732849 0 333592155.27732849 47666366.791196823 0 0 0 0 -2182157524.5794067 732880989.50956726 0 732880989.50956726 -102404186.95635796 0 0 0 0 -2224104357.7771149 1547168298.7974262 0 1547168298.7974262 -493489103.20812607 0 0 0 0 -1581080022.8180389 1017095574.7693901 0 1017095574.7693901 -450395932.86973953 0 0 0 0 1974964033.4332275 -51323035.524749756 0 -51323035.524749756 276601271.09127808 0 0 0 0 1138897535.5784912 41768222.421760559 0 41768222.421760559 357668449.36383247 0 0 0 0 -116426237.41057587 171111456.66866112 0 171111456.66866112 135007325.2878952 0 0 0 0 272480372.7624054 169716345.89289474 0 169716345.89289474 115430867.06398964 0 0 0 0 233736915.77886963 -114819748.86254311 0 -114819748.86254311 -616326017.79681587 0 0 0 0 -546932303.18523407 396186190.87466526 0 396186190.87466526 17865854.787498474 0 0 0 0 1165020.3305034861 35115.308346740901 0 35115.308346740901 -2801930.0484295934 0 0 0 0 301382575.98058319 -405478051.9239006 0 -405478051.9239006 160052184.34832764 0 0 0 0 620974520.95916748 -158729689.39878082 0 -158729689.39878082 -702987389.28590012 0 0 0 0 687480703.71650696 83508446.595129013 0 83508446.595129013 149604059.86607361 0 0 0 0 291552913.33529663 -390593295.53159332 0 -390593295.53159332 410839338.18807983 0 0 0 0 1210492391.6646118 -436221714.15397644 0 -436221714.15397644 -298434036.21915674 0 0 0 0 1366587780.9471588 -101124301.15565491 0 -101124301.15565491 412766027.84088135 0 0 0 0 1338804022.3750763 -934802812.88296318 0 -934802812.88296318 460070902.52850342 0 0 0 0 -947147088.64776611 -1028132707.2615547 0 -1028132707.2615547 104287717.52499771 0 0 0 0 -3528351094.9253387 2693533837.2322693 0 2693533837.2322693 -1936470593.1067238 0 0 0 0 -5866581.6743250638 57742.261028010398 0 57742.261028010398 1197137.8427577 0 0 0 0 -5848405430.6370544 137601138.55239487 0 137601138.55239487 691976152.90432739 0 0 0 0 -913996209.36463928 -137119336.73509598 0 -137119336.73509598 -256095610.30910301 0 0 0 0 -4061269809.9929199 202468638.4832077 0 202468638.4832077 123420508.14645386 0 0 0 0 2197092979.4562225 -738212864.01347542 0 -738212864.01347542 167588010.70075226 0 0 0 0 -2908429454.0911026 1696656944.2947159 0 1696656944.2947159 -883426026.35667801 0 0 0 0 -3524380761.371994 2745158754.5718136 0 2745158754.5718136 -2284654395.0958061 0 0 0 0 -449991.00004439801 -505581.82806731761 0 -505581.82806731761 -4094822.4963161387 0 0 0 0 -1951096365.107914 1031746964.3394928 0 1031746964.3394928 -1709343312.7379608 0 0 0 0 -181122583.2059021 -1542727632.8829041 0 -1542727632.8829041 962387565.41607285 0 0 0 0 -2330415663.6010036 19908722.932138443 0 19908722.932138443 329894885.16519928 0 0 0 0 -2026813655.418993 698277876.10070705 0 698277876.10070705 281618808.97371292 0 0 0 0 -961917605.69358826 113790253.33197212 0 113790253.33197212 304694623.26723003 0 0 0 0 -2052565416.0145569 565826483.53467941 0 565826483.53467941 1032873709.4088647 0 0 0 0 337947746.56864125 339967493.86338001 0 339967493.86338001 -69864842.779289246 0 0 0 0 -164984.64817860723 1183502.2276538946 0 1183502.2276538946 -2864123.1449955106 0 0 0 0 336609769.23614502 119724999.08925438 0 119724999.08925438 126637049.431633 0 0 0 0 354957015.58187866 109948327.51558685 0 109948327.51558685 88003896.304393768 0 0 0 0 439485079.68790436 144020707.2100544 0 144020707.2100544 -3183458.8212814331 0 0 0 0 339957203.24353027 137621373.91566849 0 137621373.91566849 171811094.78851318 0 0 0 0 367811573.96643066 140398680.70744324 0 140398680.70744324 120204598.41776276 0 0 0 0 1111692.960687995 1258545.904504858 0 1258545.904504858 -5657447.651611764 0 0 0 0 316598136.59942627 190463702.11550522 0 190463702.11550522 185353996.78762627 0 0 0 0 324618780.19032288 255369718.06114388 0 255369718.06114388 118153559.21897888 0 0 0 0 1300065377.0209351 1612708922.1325607 0 1612708922.1325607 -2162098499.1460876 0 0 0 0 269876926.2940979 306547436.27445221 0 306547436.27445221 166033225.89596748 0 0 0 0 -70747266.372665405 332871073.30654716 0 332871073.30654716 164083302.64247131 0 0 0 0 237607061.23265076 268631132.52101898 0 268631132.52101898 130779242.32777405 0 0 0 0 391090987.74307251 222040066.92714691 0 222040066.92714691 143079532.61066055 0 0 0 0 389838975.7649231 368342413.45624542 0 368342413.45624542 121965047.48391151 0 0 0 0 318971015.39361572 295103427.31351089 0 295103427.31351089 100601672.4881897 0 0 0 0 502717896.83331299 289396700.37599945 0 289396700.37599945 92048524.147518158 0 0 0 0 371640528.58218956 194566122.72010875 0 194566122.72010875 112869164.89593506 0 0 0 0 498687475.39562988 243581772.89147949 0 243581772.89147949 118123346.5822525 0 0 0 0 424599501.59030151 185025698.514534 0 185025698.514534 96288734.899871826 0 0 0 0 458441612.65799713 297284514.73149872 0 297284514.73149872 108297126.49446106 0 0 0 0 667526858.34881592 338029130.73968506 0 338029130.73968506 116134568.36084366 0 0 0 0 808506566.5512085 415629101.63415146 0 415629101.63415146 226990541.23069763 0 0 0 0 612518670.79428101 289128042.29324722 0 289128042.29324722 426015413.94239807 0 0 0 0 673374881.48092651 309036410.62578583 0 309036410.62578583 188497499.56147623 0 0 0 0 506853784.53849792 213564683.51093292 0 213564683.51093292 182479341.04694366 0 0 0 0 652375022.78884888 191216548.83576012 0 191216548.83576012 553828445.51412201 0 0 0 0 404473129.442276 309381694.40419388 0 309381694.40419388 497504874.3276062 0 0 0 0 946522005.28875732 407401801.14954758 0 407401801.14954758 425535902.90510702 0 0 0 0 802163991.93440247 282605347.65069199 0 282605347.65069199 1017432578.8405228 0 0 0 0 381246540.72294617 601109133.0624218 0 601109133.0624218 835862955.1494503 0 0 0 0 343654913.81015015 406295926.67337799 0 406295926.67337799 505440226.14995575 0 0 0 0 -928481716.91997719 453138998.75703764 0 453138998.75703764 1276562628.2410927 0 0 0 0 -130066396.81533813 425737228.78332901 0 425737228.78332901 555710860.76090622 0 0 0 0 366115461.63759613 440669245.98386002 0 440669245.98386002 48505464.475692749 0 0 0 0 -381241806.74351501 1143564608.9472771 0 1143564608.9472771 -419058971.69900894 0 0 0 0 -821645413.33266449 66788362.96553421 0 66788362.96553421 -31428632.409047127 0 0 0 0 -1812567326.1155319 572695228.42058372 0 572695228.42058372 1088619044.8648758 0 0 0 0 -904675670.0491333 391911196.75283432 0 391911196.75283432 1088201723.2877102 0 0 0 0 -817141835.67460632 352999642.39519882 0 352999642.39519882 1051134959.4191399 0 0 0 0 -1286183084.5110626 538295881.26724243 0 538295881.26724243 1200335708.9852676 0 0 0 0 -1305027124.8414383 454133793.72616673 0 454133793.72616673 960870712.25203323 0 0 0 0 -1080114299.5393066 661667302.02242661 0 661667302.02242661 557976580.62950897 0 0 0 0 -1197278505.6371307 591013708.74208832 0 591013708.74208832 1059203678.5674907 0 0 0 0 65559878.628967285 332965656.6859169 0 332965656.6859169 304896868.99023819 0 0 0 0 148844020.52633667 491133636.83401871 0 491133636.83401871 531915674.76510048 0 0 0 0 1720819507.8361206 1224908344.8579025 0 1224908344.8579025 865505771.2784214 0 0 0 0 2297198173.4657288 176866253.92141724 0 176866253.92141724 1002609776.8596687 0 0 0 0 47931566.186668396 415054755.98901176 0 415054755.98901176 1744574210.4675903 0 0 0 0 -127988303.28373718 745482813.41086197 0 745482813.41086197 1176446938.5930061 0 0 0 0 -2791352501.1585999 1461976536.2132187 0 1461976536.2132187 -173488556.90504265 0 0 0 0 -2256403746.7628593 1502117430.9874015 0 1502117430.9874015 -303240933.07196808 0 0 0 0 -2046620580.2507401 1424804907.4408493 0 1424804907.4408493 -462183939.30744553 0 0 0 0 -2671432448.3371124 986130464.9799366 0 986130464.9799366 -255203801.63082218 0 0 0 0 -975891.66860468034 1456771.3430356234 0 1456771.3430356234 737878.47669164464 0 0 0 0 -2710110849.5382843 1063234960.0435753 0 1063234960.0435753 -215733024.08552933 0 0 0 0 -2233805.6231310628 4094045.1927204207 0 4094045.1927204207 1798256.8963348903 0 0 0 0 526992364.38578796 54090811.671401978 0 54090811.671401978 -91655063.118047714 0 0 0 0 1146919349.3697968 822319240.80212402 0 822319240.80212402 487299338.92321968 0 0 0 0 -743228919.47599602 320441610.28314018 0 320441610.28314018 396386727.68359756 0 0 0 0 -1693597293.7935028 1323749051.0640302 0 1323749051.0640302 888125509.02282333 0 0 0 0 -2103280326.511261 1007178378.0710506 0 1007178378.0710506 646659492.75537872 0 0 0 0 -2128020440.619339 1751305131.6136856 0 1751305131.6136856 238744748.63406563 0 0 0 0 -4896804712.2296371 1249428450.4033363 0 1249428450.4033363 384761872.84268188 0 0 0 0 -2987353488.9871368 1695571348.1650429 0 1695571348.1650429 408114596.59821129 0 0 0 0 -2735524589.4625626 1673378694.7383289 0 1673378694.7383289 285081069.24908447 0 0 0 0 -2724454383.1486206 1664609598.7947311 0 1664609598.7947311 -104893645.51110077 0 0 0 0 -2645087858.8472748 1369988110.6129379 0 1369988110.6129379 222159778.53078842 0 0 0 0 -2969933001.7853003 1363414067.555171 0 1363414067.555171 340401012.21092224 0 0 0 0 -2295065809.6489105 1615031768.6250954 0 1615031768.6250954 -174266393.61584473 0 0 0 0 -42723878.451725006 32273818.786898136 0 32273818.786898136 -43737210.744758606 0 0 0 0 -3205808.1825577877 4564446.9803413078 0 4564446.9803413078 -3053448.8691587895 0 0 0 0 -65874179.437347412 102772764.50860357 0 102772764.50860357 -88751893.750984192 0 0 0 0 -3087989595.6257515 395082848.94729519 0 395082848.94729519 42730645.962692261 0 0 0 0 -2682633960.9299469 1642014574.0685005 0 1642014574.0685005 -148776974.6547699 0 0 0 0 -2698240653.964447 1615072093.8968506 0 1615072093.8968506 -111334404.03736115 0 0 0 0 -2577819675.5267334 1795532297.7543888 0 1795532297.7543888 -595530067.94937515 0 0 0 0 -2588142617.6311188 1928085273.3604622 0 1928085273.3604622 -125109793.45157063 0 0 0 0 -2167334114.4031982 1800694902.4117603 0 1800694902.4117603 -642933417.73523521 0 0 0 0 -2550815482.1314278 1837458469.8046236 0 1837458469.8046236 -338024756.69764709 0 0 0 0 -2848692152.1723633 2203974617.2379017 0 2203974617.2379017 -409710698.81280804 0 0 0 0 -2488974600.8505402 2046934450.9010868 0 2046934450.9010868 -18541112.813400269 0 0 0 0 -2337835522.30867 1655760524.0260048 0 1655760524.0260048 395664572.89256001 0 0 0 0 -2489046375.9765887 1442050034.5112669 0 1442050034.5112669 142397104.72640991 0 0 0 0 -3293749986.5685425 2024233954.1667023 0 2024233954.1667023 -67328234.536640167 0 0 0 0 -2757348801.1550961 1902290704.3851175 0 1902290704.3851175 -536543665.73139954 0 0 0 0 -5889701254.338089 2826801696.7624092 0 2826801696.7624092 -804430849.30013657 0 0 0 0 -13285775.799531788 2760296.9780887626 0 2760296.9780887626 3164643.850644527 0 0 0 0 -1612946311.8664856 2890297217.2631121 0 2890297217.2631121 -4281371954.389473 0 0 0 0 -2294654737.8553162 2117045923.5062885 0 2117045923.5062885 -1428848502.7628708 0 0 0 0 -14292444.001417786 5351466.1553475782 0 5351466.1553475782 5324177.7154473029 0 0 0 0 -13231599.149803162 7097063.6599521637 0 7097063.6599521637 -1355604.854385376 0 0 0 0 -13162134.997036576 11944880.219313856 0 11944880.219313856 1723464.429339841 0 0 0 0 -25027247.514190674 17732738.835638046 0 17732738.835638046 14727406.190704346 0 0 0 0 -790230330.62426758 748361521.48215294 0 748361521.48215294 -1184124141.7861676 0 0 0 0 -16884407.34362793 17574995.263565063 0 17574995.263565063 11004582.808620453 0 0 0 0 -20707713.933021545 14134515.11987114 0 14134515.11987114 8250315.6614990234 0 0 0 0 -22969180.48903656 23838251.699695587 0 23838251.699695587 3072624.6394500732 0 0 0 0 -14978024.480733544 7041951.8842430338 0 7041951.8842430338 10265396.707042657 0 0 0 0 1509850229.8404007 340050997.79824829 0 340050997.79824829 -395954772.06144142 0 0 0 0 1454197822.9055939 297606903.13984108 0 297606903.13984108 12249406.208312988 0 0 0 0 368938237.77297211 11865385.534230232 0 11865385.534230232 -28672038.918441772 0 0 0 0 -76890543.23695755 595810993.21014595 0 595810993.21014595 301878030.59235382 0 0 0 0 -2340018509.4205856 699356725.69675195 0 699356725.69675195 668651605.74621582 0 0 0 0 -1756896569.4879913 931875921.30747986 0 931875921.30747986 244902559.81918335 0 0 0 0 -3523223988.7121124 587885196.9118576 0 587885196.9118576 222440091.77746201 0 0 0 0 -1907584965.8857422 462117102.89691544 0 462117102.89691544 96503839.123302221 0 0 0 0 -1074906615.4200668 -73614491.421089172 0 -73614491.421089172 68381111.679801941 0 0 0 0 -1836564536.6894379 417662222.32663631 0 417662222.32663631 -514030602.35004807 0 0 0 0 -3701204085.4537354 712974851.74530792 0 712974851.74530792 -381928814.65241528 0 0 0 0 -4703995268.0782089 -595273825.36396217 0 -595273825.36396217 -2082131541.9130249 0 0 0 0 -2838009175.6037292 1867503569.2516518 0 1867503569.2516518 -5335744596.5899582 0 0 0 0 -1564887146.4228811 441709000.52766156 0 441709000.52766156 -76486252.189483643 0 0 0 0 -2810080452.9562378 1435378205.7420273 0 1435378205.7420273 -724406316.12889099 0 0 0 0 -1515175012.4097748 654894222.05473709 0 654894222.05473709 -2441273501.3773193 0 0 0 0 -399012177.85270691 983001108.85234451 0 983001108.85234451 -1101567668.5068359 0 0 0 0 177711426.83380127 -105482512.96810532 0 -105482512.96810532 523469837.73309326 0 0 0 0 149743075.48587799 194239689.39271164 0 194239689.39271164 -1062542521.5632629 0 0 0 0 167332556.35542059 414400509.72587025 0 414400509.72587025 360523927.85435486 0 0 0 0 -2768734.4317710847 18577193.271962438 0 18577193.271962438 -7099843.4278747216 0 0 0 0 1583824950.9822998 742533711.77828598 0 742533711.77828598 -489770023.39852524 0 0 0 0 1272270842.5507812 1277810027.9553299 0 1277810027.9553299 991093608.13456726 0 0 0 0 24363099.148010254 29918163.637159348 0 29918163.637159348 -16682883.702728271 0 0 0 0 22483172.567368507 25192540.979206085 0 25192540.979206085 -8941554.4895019531 0 0 0 0 24191220.852111816 18002573.02646637 0 18002573.02646637 -33900230.464172363 0 0 0 0 23375925.100250244 23237604.578678131 0 23237604.578678131 -23505045.373748779 0 0 0 0 30919609.355560303 25458355.904537201 0 25458355.904537201 -31133172.352432251 0 0 0 0 35335475.841461182 28923179.957870483 0 28923179.957870483 -30041686.088691711 0 0 0 0 27951573.247772217 37598440.140739441 0 37598440.140739441 -4455784.184677124 0 0 0 0 65152223.829433441 120295237.326828 0 120295237.326828 -17281863.671035767 0 0 0 0 -26915908.12272644 38429153.617298126 0 38429153.617298126 5616808.4844474792 0 0 0 0 -2316221.9395759404 17233676.548992716 0 17233676.548992716 -11994168.40194359 0 0 0 0 5851736.1569213867 -29787859.681175232 0 -29787859.681175232 25079262.916526794 0 0 0 0 -977102.92955168337 2804562.5149886608 0 2804562.5149886608 -1886239.2311351001 0 0 0 0 143281481.67088318 5007854.3244991302 0 5007854.3244991302 -29930239.447593689 0 0 0 0 98210654.165107727 144619667.83549118 0 144619667.83549118 -94678719.015119553 0 0 0 0 -2083897.0688490793 20947575.793760691 0 20947575.793760691 -12273961.277791858 0 0 0 0 -78482127.613731384 -53394122.249664307 0 -53394122.249664307 53278067.378133774 0 0 0 0 -10529353.893433012 31050680.350727431 0 31050680.350727431 19029205.479912549 0 0 0 0 -10743157.954353333 86703687.279136658 0 86703687.279136658 -138580318.27566326 0 0 0 0 -120393276.90814209 48301736.245136261 0 48301736.245136261 58136131.750335693 0 0 0 0 -89330753.270065308 -25351326.108726501 0 -25351326.108726501 71209767.289108276 0 0 0 0 -94007766.834381104 73386753.265327454 0 73386753.265327454 -3555165.1871185303 0 0 0 0 -11794673.453063965 49716862.438728333 0 49716862.438728333 8758871.1480560303 0 0 0 0 -91542018.535217285 43552169.772655487 0 43552169.772655487 41724473.64862442 0 0 0 0 -102673854.61351013 17439248.906776428 0 17439248.906776428 16128936.910346985 0 0 0 0 2824596.3304966502 2658008.6549994908 0 2658008.6549994908 1825965.2378167361 0 0 0 0 35950601.849788666 52627080.188463211 0 52627080.188463211 10010683.402374268 0 0 0 0 -16203908.03455299 37047177.338677861 0 37047177.338677861 1628119.3362952992 0 0 0 0 76448964.498634338 -32943517.761863708 0 -32943517.761863708 20738227.341766357 0 0 0 0 -52023386.824905396 308904252.03105164 0 308904252.03105164 238152413.88947678 0 0 0 0 -142421282.04885864 200972632.29379272 0 200972632.29379272 9071776.3445973396 0 0 0 0 201332941.44423294 278048213.55632019 0 278048213.55632019 -36790326.430389404 0 0 0 0 -12585485.557094255 43666634.448520198 0 43666634.448520198 -16958607.680167496 0 0 0 0 -116789241.39231873 122897183.86668396 0 122897183.86668396 285530954.61746216 0 0 0 0 197482220.82516479 158988414.24671936 0 158988414.24671936 -91137605.578277588 0 0 0 0 34928420.96269989 21681058.234601974 0 21681058.234601974 -31721749.387886047 0 0 0 0 61073997.419158936 4344567.5369873047 0 4344567.5369873047 -59989425.511177063 0 0 0 0 -387163.42943745852 12066162.257875349 0 12066162.257875349 -9560515.3043244183 0 0 0 0 18407956.074745953 17843747.491753198 0 17843747.491753198 -21802430.481640924 0 0 0 0 12291827.062530518 17297861.565940857 0 17297861.565940857 -22307752.428497314 0 0 0 0 22552868.156059265 11108395.894432068 0 11108395.894432068 -38175300.647029877 0 0 0 0 14264113.799578262 23031265.692963913 0 23031265.692963913 -40526515.765205652 0 0 0 0 207941929.47380066 180609866.34628296 0 180609866.34628296 -329786755.13871765 0 0 0 0 -104075440.99163151 246970295.95622826 0 246970295.95622826 -115340802.21325684 0 0 0 0 -109347654.28013325 365020586.36651039 0 365020586.36651039 -218070791.38452148 0 0 0 0 279141772.53006744 27348287.953216553 0 27348287.953216553 -59354982.110719681 0 0 0 0 276521896.60187149 -123894621.45626831 0 -123894621.45626831 6209548.8147583008 0 0 0 0 233150682.25931931 -42239857.012130737 0 -42239857.012130737 -131713534.50491333 0 0 0 0 464237748.44494629 -357322422.74090576 0 -357322422.74090576 -319935828.70897102 0 0 0 0 225729146.93838882 167619992.69334412 0 167619992.69334412 -427047752.59875488 0 0 0 0 541310225.05342102 -192909245.98535156 0 -192909245.98535156 -504126285.86053467 0 0 0 0 46460215.532730103 558328962.38830566 0 558328962.38830566 -836283742.73242188 0 0 0 0 53258438.711364746 484779323.2913208 0 484779323.2913208 -763284754.3092041 0 0 0 0 856717042.45373535 -162403693.67169189 0 -162403693.67169189 -1307044090.520874 0 0 0 0 425430423.71430969 -208486398.89553833 0 -208486398.89553833 -313719941.46911621 0 0 0 0 -715964640.52680969 777770408.01620483 0 777770408.01620483 -615907705.52349854 0 0 0 0 55521695.376289368 -139171977.38482666 0 -139171977.38482666 -720376088.95110321 0 0 0 0 -758274045.99876738 202819743.65214539 0 202819743.65214539 -18438590.764831543 0 0 0 0 -1755478.2471520416 8562249.9222619757 0 8562249.9222619757 2373025.2413028926 0 0 0 0 144372027.41220093 -1958902034.1835022 0 -1958902034.1835022 -1037568073.4940186 0 0 0 0 565057840.38674164 409308318.99873352 0 409308318.99873352 -2199929645.4450684 0 0 0 0 -113607808.74984741 970458775.93536377 0 970458775.93536377 -1565492182.9158936 0 0 0 0 -436597187.2455368 355471779.03205872 0 355471779.03205872 -150016644.34173584 0 0 0 0 71687883.308639526 -37867683.441558838 0 -37867683.441558838 -151329284.16835022 0 0 0 0 292675701.35083008 566402242.70327759 0 566402242.70327759 -1224652761.6165161 0 0 0 0 180087150.37638855 406704834.33607483 0 406704834.33607483 -99188874.387145996 0 0 0 0 17293205.443397522 134115161.02037048 0 134115161.02037048 -94350368.274017334 0 0 0 0 88350598.137580872 196348532.64299011 0 196348532.64299011 -71136029.072052002 0 0 0 0 106734956.27817535 233618659.08639526 0 233618659.08639526 -433159798.91340637 0 0 0 0 12845031.675849915 72759466.703514099 0 72759466.703514099 -11371708.893447876 0 0 0 0 20686536.392861843 47645541.534907341 0 47645541.534907341 -28741777.54447937 0 0 0 0 62495818.681915283 78542449.867172241 0 78542449.867172241 -9833438.9865188599 0 0 0 0 17221346.313936234 66970901.359079361 0 66970901.359079361 3489468.4493713379 0 0 0 0 -3387828.5872576572 25257449.013400007 0 25257449.013400007 6878270.7244678512 0 0 0 0 57022817.328666687 51096595.826980591 0 51096595.826980591 43375990.107902527 0 0 0 0 387161.40010178462 2594247.4998120107 0 2594247.4998120107 6330841.5298997611 0 0 0 0 -112119754.99423218 153096795.41256714 0 153096795.41256714 71162185.20513916 0 0 0 0 -221000184.0845871 -14271884.207763672 0 -14271884.207763672 94914078.286621094 0 0 0 0 -425154984.88777161 181405163.2305603 0 181405163.2305603 84830092.330749512 0 0 0 0 -391881055.10978317 -33897686.493322372 0 -33897686.493322372 98639133.260009766 0 0 0 0 63697126.805305481 184508887.09919739 0 184508887.09919739 -40407823.154593468 0 0 0 0 -28764515.545342445 82626767.614674091 0 82626767.614674091 -11992598.660736084 0 0 0 0 59465414.683529854 127015648.86327767 0 127015648.86327767 -60079095.667999268 0 0 0 0 39750427.729852751 70413938.683655724 0 70413938.683655724 8183574.5971905813 0 0 0 0 -21124107.806561947 148974243.32197952 0 148974243.32197952 -45939329.15914917 0 0 0 0 21261797.037885532 60415854.888670713 0 60415854.888670713 14416228.862420425 0 0 0 0 57586712.667034149 183456406.12801361 0 183456406.12801361 114312108.96806335 0 0 0 0 6353413.6026306152 87552303.336559296 0 87552303.336559296 -16583250.124988556 0 0 0 0 16975444.601417542 59517248.285182953 0 59517248.285182953 112019585.13311768 0 0 0 0 -24489109.520698547 66807659.595916748 0 66807659.595916748 41323928.974990845 0 0 0 0 -6434019.157535553 97296245.261325836 0 97296245.261325836 58002527.541259766 0 0 0 0 -67976208.584845066 126155858.15062642 0 126155858.15062642 13180528.477767944 0 0 0 0 -69255568.013427734 116350502.88990021 0 116350502.88990021 88388136.044570923 0 0 0 0 -60047012.531078339 53280418.95378685 0 53280418.95378685 24940603.15083313 0 0 0 0 -159787908.02795792 -50820266.05222702 0 -50820266.05222702 181687336.80830765 0 0 0 0 -2918607.9827790111 2885143.932408208 0 2885143.932408208 9547393.8504163884 0 0 0 0 -26880156.892913323 43593752.942483082 0 43593752.942483082 -4255650.7508796193 0 0 0 0 -66749464.107391357 51690125.38457489 0 51690125.38457489 64921331.566642761 0 0 0 0 -34712060.142730713 12324605.222766876 0 12324605.222766876 3763475.8667678833 0 0 0 0 -51303464.095397949 80840519.352430344 0 80840519.352430344 79274497.236022949 0 0 0 0 31930154.415959362 24842493.940230444 0 24842493.940230444 -36320320.79831142 0 0 0 0 42903271.325424194 44145849.819213867 0 44145849.819213867 -7652688.3862991333 0 0 0 0 48504367.846206665 93481433.536590576 0 93481433.536590576 108426758.6352011 0 0 0 0 37163421.624427795 49354414.611045837 0 49354414.611045837 11582891.881797791 0 0 0 0 133330697.92169952 92322394.808666229 0 92322394.808666229 108413441.89044189 0 0 0 0 5260783.4293247536 39495940.134320527 0 39495940.134320527 -23717707.111175645 0 0 0 0 11597421.595207214 48345966.214523315 0 48345966.214523315 16948641.514343262 0 0 0 0 8226303.8306996264 21587783.654541161 0 21587783.654541161 6870397.1008050255 0 0 0 0 62420360.958862305 51918275.707321167 0 51918275.707321167 44842502.703369141 0 0 0 0 -8901106.5835266113 21370962.562610626 0 21370962.562610626 53127517.044006348 0 0 0 0 -13523139.121069828 25805779.479152638 0 25805779.479152638 30793378.328612149 0 0 0 0 -5853531.4840545654 17026411.93800354 0 17026411.93800354 13136989.02053833 0 0 0 0 -20377266.574827589 38913585.64569772 0 38913585.64569772 -1564886.3468591124 0 0 0 0 -8825974.5862871446 40096962.433306769 0 40096962.433306769 -10492294.228935003 0 0 0 0 -1821878.9297463018 9905376.1860988475 0 9905376.1860988475 9866705.3342568092 0 0 0 0 -4649688.8104248047 43287320.563842773 0 43287320.563842773 89047635.959442139 0 0 0 0 64364022.544212341 73278412.419425964 0 73278412.419425964 81828866.462158203 0 0 0 0 1939384.2357625477 1105640.5693551488 0 1105640.5693551488 -3043747.1704417989 0 0 0 0 6251100.5607452393 103551878.16791153 0 103551878.16791153 103525552.46250916 0 0 0 0 119876369.92933655 92012891.20526123 0 92012891.20526123 -3504686.8390045166 0 0 0 0 -12519070.238975525 14522030.203132629 0 14522030.203132629 16653181.057250977 0 0 0 0 -15119020.994168539 14635424.691619631 0 14635424.691619631 38532616.743028969 0 0 0 0 -8205788.0253304094 17637569.076632567 0 17637569.076632567 12694822.154936582 0 0 0 0 -3982028.4515283406 29079504.953138977 0 29079504.953138977 -13196691.825592434 0 0 0 0 5711097.4305648804 47768271.136413574 0 47768271.136413574 60005157.780130386 0 0 0 0 9302638.9523506165 36395545.37140274 0 36395545.37140274 30726958.177440643 0 0 0 0 -7275801.4037053585 27827781.19132743 0 27827781.19132743 -127835012.55029929 0 0 0 0 43319510.984352112 118475161.8219471 0 118475161.8219471 26528270.136260986 0 0 0 0 127064854.86294556 95767603.181793213 0 95767603.181793213 1721025.5690689087 0 0 0 0 -39953678.742477417 -11490314.678655624 0 -11490314.678655624 -101157262.54342842 0 0 0 0 32862861.898052216 7618344.0850686282 0 7618344.0850686282 -118218573.56242478 0 0 0 0 44331375.6235466 -9378891.1610488892 0 -9378891.1610488892 181455086.63570404 0 0 0 0 98954333.195526123 119638906.37140274 0 119638906.37140274 -30035446.821792603 0 0 0 0 53849568.039859772 -13184674.795185089 0 -13184674.795185089 28107837.103552818 0 0 0 0 121486798.62726355 115423677.97946215 0 115423677.97946215 357326.75714111328 0 0 0 0 2835601.1458716206 13550695.067434669 0 13550695.067434669 -19624392.211192053 0 0 0 0 43136232.375 -69969532.477462769 0 -69969532.477462769 -230293281.13042831 0 0 0 0 -76107120.923591614 -198535217.47816181 0 -198535217.47816181 -138105290.57363892 0 0 0 0 68907806.737361908 -143658587.24986458 0 -143658587.24986458 -41668105.476329803 0 0 0 0 207053939.88978195 11214605.929217339 0 11214605.929217339 -107355983.18233681 0 0 0 0 67646740.417953491 -71164238.651789665 0 -71164238.651789665 -126010632.63452148 0 0 0 0 -278677971.89344025 153292055.78958321 0 153292055.78958321 180146323.98732758 0 0 0 0 -37199201.711018093 35023016.36583361 0 35023016.36583361 -11326119.796619734 0 0 0 0 83556090.533377171 312151731.45864964 0 312151731.45864964 136873008.51643753 0 0 0 0 -25262719.373155594 82267394.960084915 0 82267394.960084915 68961592.690071106 0 0 0 0 -92926243.366989136 -40240278.186470032 0 -40240278.186470032 11385353.013174057 0 0 0 0 802204.60677898955 1457127.5891104541 0 1457127.5891104541 1555617.3144075014 0 0 0 0 216435893.28527641 245404782.67490005 0 245404782.67490005 -192112996.2990799 0 0 0 0 -212573032.92924118 -48355004.011520386 0 -48355004.011520386 84947365.911579132 0 0 0 0 -180078293.80456543 31790947.083396912 0 31790947.083396912 103941750.07382202 0 0 0 0 -80006670.940264463 67903465.516700268 0 67903465.516700268 73452538.365280151 0 0 0 0 -339210388.51147461 167180995.67445946 0 167180995.67445946 64351846.734954834 0 0 0 0 -388877483.12113094 19696820.402252674 0 19696820.402252674 176010476.26351929 0 0 0 0 -833079080.82380867 121958321.51424599 0 121958321.51424599 138571066.1240921 0 0 0 0 -458503772.04841805 -56653538.917203903 0 -56653538.917203903 -80069623.846374512 0 0 0 0 3559145.690560298 5746449.7622413933 0 5746449.7622413933 -15165098.463025816 0 0 0 0 -143790749.2254982 123250893.20840073 0 123250893.20840073 -25733569.591316223 0 0 0 0 -87842064.02715683 -121188057.30899048 0 -121188057.30899048 223470676.7869606 0 0 0 0 -271465009.95258093 -141520505.57948351 0 -141520505.57948351 -143758260.45445251 0 0 0 0 2247436.9845127501 1157299.3998234402 0 1157299.3998234402 -6591881.3889939226 0 0 0 0 -1521378287.665411 101616069.79160309 0 101616069.79160309 -99780323.709754944 0 0 0 0 211002266.02832031 -67740415.13359642 0 -67740415.13359642 119833698.53271425 0 0 0 0 95657553.417480469 64393617.008575439 0 64393617.008575439 -28866627.077827454 0 0 0 0 -285207692.73200989 -256390882.06339073 0 -256390882.06339073 -25985573.729103088 0 0 0 0 -216613819.51596069 2194098.7561378479 0 2194098.7561378479 -36525473.445636749 0 0 0 0 42188255.301282883 -142723801.22755671 0 -142723801.22755671 -45445657.200416565 0 0 0 0 -15522610.874885559 43936388.838745117 0 43936388.838745117 72005557.544992447 0 0 0 0 -30980974.460998535 -115307128.52721405 0 -115307128.52721405 -180326242.86298561 0 0 0 0 523276761.89186859 396657258.89124298 0 396657258.89124298 -137388886.80617523 0 0 0 0 521699146.45383197 644021084.1366415 0 644021084.1366415 379701526.86120605 0 0 0 0 100526172.38278961 -26200197.848258972 0 -26200197.848258972 38323810.612411499 0 0 0 0 372283039.46707153 219293048.26498032 0 219293048.26498032 116617553.33532536 0 0 0 0 392964562.42077637 112448356.24869347 0 112448356.24869347 368895314.82124329 0 0 0 0 1094090299.992363 746788264.74542236 0 746788264.74542236 373370423.00396729 0 0 0 0 566390175.56524658 411418138.56393433 0 411418138.56393433 688494133.27545166 0 0 0 0 710752623.05769348 323127927.65220642 0 323127927.65220642 262169087.70470428 0 0 0 0 383064553.63084412 83911654.23367691 0 83911654.23367691 271677305.94686484 0 0 0 0 364677849.82704163 416816285.93364143 0 416816285.93364143 479364725.8702774 0 0 0 0 824926799.96641541 528053254.32084656 0 528053254.32084656 393570488.28030396 0 0 0 0 577703491.22702026 300798832.99686432 0 300798832.99686432 163427857.45354462 0 0 0 0 430231681.8223877 137773044.15193176 0 137773044.15193176 58178680.074304581 0 0 0 0 375295641.50545502 162952268.20000648 0 162952268.20000648 69843099.034790039 0 0 0 0 -265292778.54568481 263911977.40599442 0 263911977.40599442 725165156.21356964 0 0 0 0 114852262.60021973 118550548.81591415 0 118550548.81591415 66067000.001148224 0 0 0 0 234637943.14785767 256115414.7098465 0 256115414.7098465 330290556.70394135 0 0 0 0 312881537.80151367 415100818.0757618 0 415100818.0757618 398676096.24448013 0 0 0 0 394001907.55422974 859050575.95684814 0 859050575.95684814 890191983.91947937 0 0 0 0 -101391790.86734009 425669335.48076248 0 425669335.48076248 761093893.67079163 0 0 0 0 -1013474352.5137634 548949690.71357346 0 548949690.71357346 1389551093.5339699 0 0 0 0 -46701009.206062317 529075741.58789062 0 529075741.58789062 851793534.0451889 0 0 0 0 -103217869.45368958 1327927472.8253937 0 1327927472.8253937 1970770592.2269135 0 0 0 0 -598768238.9041748 2062900801.0798645 0 2062900801.0798645 1356362442.6093445 0 0 0 0 488707776.14048004 1942893973.7894955 0 1942893973.7894955 1249626961.0462341 0 0 0 0 2580677644.7524948 2082018909.3776841 0 2082018909.3776841 657592848.0069809 0 0 0 0 1505595050.682312 1007220768.0378799 0 1007220768.0378799 583882933.56619263 0 0 0 0 376699295.93301392 811302259.85847092 0 811302259.85847092 793988712.82350159 0 0 0 0 960298262.49887085 981451365.67560196 0 981451365.67560196 951553854.43435669 0 0 0 0 -1010453849.341507 1677440991.2231369 0 1677440991.2231369 423081900.82164764 0 0 0 0 1311461377.9969635 1783675827.2917728 0 1783675827.2917728 -673912830.69810486 0 0 0 0 401094933.4466095 794730605.04796219 0 794730605.04796219 965781327.75427246 0 0 0 0 919463823.04846191 979393051.28508759 0 979393051.28508759 1031529925.2300453 0 0 0 0 2445810941.5403442 -202719013.86608124 0 -202719013.86608124 -110131055.53477097 0 0 0 0 -750035667.49551392 2574444776.4934692 0 2574444776.4934692 3249910419.9380798 0 0 0 0 777483628.12670898 601685126.8221283 0 601685126.8221283 413150643.57062531 0 0 0 0 541026184.22018433 385471158.92065811 0 385471158.92065811 225428378.57804871 0 0 0 0 158966462.65168762 769618248.64257431 0 769618248.64257431 190402535.19560242 0 0 0 0 591612202.36383057 420916516.85229492 0 420916516.85229492 265544350.42513275 0 0 0 0 722576048.0289917 817839246.29244232 0 817839246.29244232 64628472.785247803 0 0 0 0 1024274734.3508606 885487835.67371368 0 885487835.67371368 1038783538.5075264 0 0 0 0 837920493.70617676 831697773.99362946 0 831697773.99362946 813887282.80621338 0 0 0 0 627178455.78674316 447102909.31358528 0 447102909.31358528 340449550.25737 0 0 0 0 808813637.63601685 559963705.24589539 0 559963705.24589539 1217013587.4792862 0 0 0 0 738046495.68845367 387778374.12318707 0 387778374.12318707 784925105.16592407 0 0 0 0 821670412.53630066 655262694.29793167 0 655262694.29793167 746123371.4230957 0 0 0 0 681614369.62234497 360002548.07146454 0 360002548.07146454 517738999.89894104 0 0 0 0 1390609382.1678467 1449239970.5569801 0 1449239970.5569801 900465991.16293335 0 0 0 0 810871781.08932495 576181113.34748077 0 576181113.34748077 855298622.61946106 0 0 0 0 1647668452.1603088 1217169011.3880577 0 1217169011.3880577 1101728511.8037968 0 0 0 0 698606050.43273926 1010468299.1313019 0 1010468299.1313019 2106971299.8774567 0 0 0 0 1752874093.0190125 1884470045.9634056 0 1884470045.9634056 1421251626.1258698 0 0 0 0 -1139561.3989100382 -861054.94558767974 0 -861054.94558767974 4581756.9377464913 0 0 0 0 1940892808.2016602 2654369095.9702568 0 2654369095.9702568 2467810702.6495895 0 0 0 0 -1607340843.7233887 -305179757.82447243 0 -305179757.82447243 1300386628.9734688 0 0 0 0 -1106065113.5761719 647421285.59512711 0 647421285.59512711 3027221115.6225343 0 0 0 0 726563442.97357178 465287366.09960175 0 465287366.09960175 3379836951.1829758 0 0 0 0 -477758376.59098816 -177951915.10216141 0 -177951915.10216141 -98353247.784843445 0 0 0 0 -7339066.1047215946 2686348.5044649281 0 2686348.5044649281 15666342.105393074 0 0 0 0 -163568940.02867126 328363537.09192276 0 328363537.09192276 -140883106.71403503 0 0 0 0 -491345714.99067688 167593183.3737278 0 167593183.3737278 -20624938.690198898 0 0 0 0 112684534.67683411 476833307.66956711 0 476833307.66956711 1580620417.881321 0 0 0 0 1751442435.0152435 1439584066.2905245 0 1439584066.2905245 867811792.00688934 0 0 0 0 -3160960.906682536 4208119.2618533038 0 4208119.2618533038 3340510.3980020434 0 0 0 0 2097015282.2740002 -125477126.46015978 0 -125477126.46015978 -28831022.735198975 0 0 0 0 1065580136.7212524 -119558517.90617752 0 -119558517.90617752 60229242.932224274 0 0 0 0 -141325566.23425293 163771974.86247444 0 163771974.86247444 -51252950.191430092 0 0 0 0 -18328765.921704099 20640710.287962701 0 20640710.287962701 23455246.466235772 0 0 0 0 15406591.114273071 94463944.921556473 0 94463944.921556473 -129775095.9048481 0 0 0 0 -68704347.785865784 257007502.16578054 0 257007502.16578054 -88433036.207464218 0 0 0 0 59804773.179336548 84380484.052177429 0 84380484.052177429 -138509507.7825855 0 0 0 0 16407210.617897034 37487170.205022097 0 37487170.205022097 -157107534.98042679 0 0 0 0 187892630.97969055 25115807.497779846 0 25115807.497779846 -158573353.63890314 0 0 0 0 122859494.6997757 139839489.99390388 0 139839489.99390388 -128212822.5201683 0 0 0 0 241025632.81297302 -49421265.66027832 0 -49421265.66027832 -16524329.512459278 0 0 0 0 304334153.82099342 196774341.46929932 0 196774341.46929932 31588736.239170074 0 0 0 0 230195612.33470154 74899711.789855003 0 74899711.789855003 -99335034.676280022 0 0 0 0 127047305.1191864 328133518.85882282 0 328133518.85882282 29200421.789784193 0 0 0 0 -77067019.252410889 158344958.29962444 0 158344958.29962444 -78207556.220703125 0 0 0 0 -318118895.40761566 2082103829.0823178 0 2082103829.0823178 -202177180.30536652 0 0 0 0 66429758.756378174 1765746433.566206 0 1765746433.566206 -1124777263.2409706 0 0 0 0 -4036793.6406860352 2520389303.0881414 0 2520389303.0881414 -1638329271.9953909 0 0 0 0 -207739282.31484985 1634616849.3760529 0 1634616849.3760529 -756853157.12775803 0 0 0 0 261079347.20565796 2288309513.9350691 0 2288309513.9350691 -311937939.09148407 0 0 0 0 -556802340.39193726 2119349999.8066235 0 2119349999.8066235 1054949420.6524048 0 0 0 0 2438645.7079772949 2320322605.518528 0 2320322605.518528 1761860511.6660385 0 0 0 0 -629265029.64535522 1661188032.587738 0 1661188032.587738 -141640144.31354904 0 0 0 0 -284227755.60760498 1361371702.3049212 0 1361371702.3049212 -12728639.685470581 0 0 0 0 335379254.01992798 1403782504.8254852 0 1403782504.8254852 -576039726.45640182 0 0 0 0 -265896681.35852051 1324708466.1781082 0 1324708466.1781082 -487319777.55343246 0 0 0 0 370989742.68373585 1092107553.8774614 0 1092107553.8774614 -776413015.2437706 0 0 0 0 750789381.12686157 1086691575.3732338 0 1086691575.3732338 -993131295.22741508 0 0 0 0 88106092.450164795 1605602043.3247528 0 1605602043.3247528 -736916252.58995438 0 0 0 0 459410859.20465088 62290179.814413071 0 62290179.814413071 -2285474167.2032776 0 0 0 0 433878278.44358826 1645889869.3883476 0 1645889869.3883476 -1970762878.088707 0 0 0 0 586577284.11193848 589098251.50455093 0 589098251.50455093 -826639530.27734661 0 0 0 0 1332101397.4617615 1613536558.7561626 0 1613536558.7561626 -951024694.0721817 0 0 0 0 550828775.95132446 1733508085.3761148 0 1733508085.3761148 1240086059.8371086 0 0 0 0 355151564.04795837 368872869.77095604 0 368872869.77095604 -696800132.507164 0 0 0 0 949163210.34841919 784286817.55086708 0 784286817.55086708 -829427218.55611038 0 0 0 0 250684881.68835449 -80004489.082511902 0 -80004489.082511902 -1313989710.5054173 0 0 0 0 700398387.6162262 589631630.68529034 0 589631630.68529034 -1276523286.4953651 0 0 0 0 233114289.88842773 -11473570.034227371 0 -11473570.034227371 -1468085535.7516022 0 0 0 0 227000693.52728271 -8264918.9542388916 0 -8264918.9542388916 -1462122865.3755226 0 0 0 0 171673737.34835815 1753916344.8674221 0 1753916344.8674221 -1123770904.8492813 0 0 0 0 461533489.43445587 1825012256.274344 0 1825012256.274344 -3964609968.7265663 0 0 0 0 -77499.255041936136 27061918.408198945 0 27061918.408198945 -5606632.8687973022 0 0 0 0 -314328352.6053009 -1453916005.584898 0 -1453916005.584898 -5127678690.6903257 0 0 0 0 -1640580.6205749065 2425220.4397341125 0 2425220.4397341125 -2368884.9529617094 0 0 0 0 42617497.487594604 75094225.241949081 0 75094225.241949081 41874422.627829552 0 0 0 0 -201824181.78775024 -595468695.84531593 0 -595468695.84531593 -1291641314.7069168 0 0 0 0 -5103178.4250233471 7647568.2923309058 0 7647568.2923309058 -5309581.2115934491 0 0 0 0 44821045.287645817 -31839226.159163997 0 -31839226.159163997 -35441213.085729599 0 0 0 0 -27781555.704467773 18626703.946280479 0 18626703.946280479 16302305.415645599 0 0 0 0 483662.77836608887 56379843.679822445 0 56379843.679822445 83030760.640779972 0 0 0 0 121618496.52716064 214139003.37647772 0 214139003.37647772 281284633.51854515 0 0 0 0 180276423.47106934 -34837515.835743904 0 -34837515.835743904 1736950.6355805397 0 0 0 0 -59525180.743988037 -48384264.507505894 0 -48384264.507505894 105219915.90959167 0 0 0 0 487975560.41511154 153390181.51878178 0 153390181.51878178 -113635603.2481184 0 0 0 0 1613081.2151525021 1405645.6811719611 0 1405645.6811719611 -1759399.5532701607 0 0 0 0 32884063.720214844 -245141657.09317052 0 -245141657.09317052 -85667307.657606155 0 0 0 0 2029745940.1600342 1753805458.6542354 0 1753805458.6542354 177774362.30531824 0 0 0 0 575608015.28292847 635699886.56571627 0 635699886.56571627 323852655.15178776 0 0 0 0 244273.92808532715 454090912.99867368 0 454090912.99867368 1735731988.6913371 0 0 0 0 129352580.31643677 702717904.72949171 0 702717904.72949171 620357362.8459903 0 0 0 0 3973136.2686767578 138706573.90643021 0 138706573.90643021 -353622280.38448936 0 0 0 0 -8754126.6072387695 -262786.4672601819 0 -262786.4672601819 -87397049.826606989 0 0 0 0 -258680404.34516907 136248160.59325475 0 136248160.59325475 52579239.163849354 0 0 0 0 3253921.0998840332 -330192507.34631705 0 -330192507.34631705 -271968705.03831315 0 0 0 0 -71913734.448364258 -64546596.818421602 0 -64546596.818421602 169150832.5761137 0 0 0 0 -105340812.56512451 67349391.92006278 0 67349391.92006278 -2391018.1238632202 0 0 0 0 2079705.6087658405 5333243.3314252533 0 5333243.3314252533 -3188227.9229097823 0 0 0 0 -31797042.30330658 126336248.55011703 0 126336248.55011703 75618017.692893267 0 0 0 0 -31632773.574935913 -271067.83814895153 0 -271067.83814895153 16846009.104383945 0 0 0 0 -3495378.8915079534 287077.32966977358 0 287077.32966977358 4314675.1707518511 0 0 0 0 -13631603.357932091 -5886352.182970643 0 -5886352.182970643 -187390447.75879669 0 0 0 0 -8058913.9775835574 11392700.508438341 0 11392700.508438341 5842291.7706182729 0 0 0 0 -11787838.142364502 196012516.25070953 0 196012516.25070953 -440214402.01671982 0 0 0 0 -46210507.230102539 -31025955.959733963 0 -31025955.959733963 11597115.064006567 0 0 0 0 -13664020.142189026 -9469928.612665534 0 -9469928.612665534 -390445726.80187225 0 0 0 0 -9430461.2808692753 13587352.129818767 0 13587352.129818767 -4864257.2985577118 0 0 0 0 35758683.938568115 -135245107.84104919 0 -135245107.84104919 -405440334.88604832 0 0 0 0 252273374.30679321 158548117.95697975 0 158548117.95697975 -482284936.1930542 0 0 0 0 173578343.3067627 -18558146.858325958 0 -18558146.858325958 -848088881.10144043 0 0 0 0 516873612.2341156 263291988.40575409 0 263291988.40575409 -886594799.04150391 0 0 0 0 349235200.2409668 394863304.62534332 0 394863304.62534332 -622514097.8046484 0 0 0 0 209562835.82891846 266347860.30900574 0 266347860.30900574 -644966497.88084888 0 0 0 0 -421038038.71520996 440626759.91393661 0 440626759.91393661 -301404249.90573883 0 0 0 0 -511049066.11712646 461650791.77552414 0 461650791.77552414 -271281298.85818481 0 0 0 0 -3174221.9337770045 1381968.5657111332 0 1381968.5657111332 2793455.3666360267 0 0 0 0 252706364.97763062 449709488.4026947 0 449709488.4026947 -501951140.9919281 0 0 0 0 2887215975.8678284 483223298.88566208 0 483223298.88566208 -3639454.2717247009 0 0 0 0 1220573809.2021484 35260135.948921204 0 35260135.948921204 625406612.62873173 0 0 0 0 278641803.32113647 1501731930.1625328 0 1501731930.1625328 668570274.33181477 0 0 0 0 -308191.29790729284 2646229.4438337162 0 2646229.4438337162 -527161.96818346158 0 0 0 0 -13256448.138397217 -16991858.817464828 0 -16991858.817464828 403907286.73511505 0 0 0 0 1579639968.1954193 1182688560.5996723 0 1182688560.5996723 937001351.8710022 0 0 0 0 1561769796.4177704 581816803.6221199 0 581816803.6221199 10804873.319641113 0 0 0 0 -4458330.9452476501 33601104.585467517 0 33601104.585467517 7680807.8409738541 0 0 0 0 -6604878.3765928 17484330.280886024 0 17484330.280886024 -12326750.9441284 0 0 0 0 -11770862.973358154 193691045.59309387 0 193691045.59309387 -215342531.26438236 0 0 0 0 -9746088.6179881394 10141853.371908814 0 10141853.371908814 6450608.2464135475 0 0 0 0 -6148622.8124656677 24937290.01086247 0 24937290.01086247 2700632.0198264122 0 0 0 0 -17975945.923339844 19047920.608403683 0 19047920.608403683 5432850.0530914664 0 0 0 0 -18632011.961303711 23889502.980603874 0 23889502.980603874 10771249.464005232 0 0 0 0 -25476754.386207581 21554084.335197538 0 21554084.335197538 10945038.329283237 0 0 0 0 18326355.744888306 53582412.85830012 0 53582412.85830012 -8050207.3068954945 0 0 0 0 -19559897.542480469 24744705.757734179 0 24744705.757734179 10925448.148331106 0 0 0 0 -12693446.727355957 28997318.780143142 0 28997318.780143142 12582696.973758459 0 0 0 0 -1833073.5101852417 21676089.136910856 0 21676089.136910856 -6506137.385117054 0 0 0 0 -27514424.928146362 71409934.124937713 0 71409934.124937713 -11279216.349046826 0 0 0 0 12303843.050567627 37561067.491214752 0 37561067.491214752 -122395051.75645769 0 0 0 0 1323920118.9019165 1255172209.5867996 0 1255172209.5867996 1037756580.2749901 0 0 0 0 974014256.87095642 1440301053.1916542 0 1440301053.1916542 977633349.70184135 0 0 0 0 -7057160.0374101698 16631696.692797091 0 16631696.692797091 -9152108.6240561139 0 0 0 0 29250750.660461426 29723154.775678217 0 29723154.775678217 -38776595.925606608 0 0 0 0 -7174359.9092925936 16756741.391515821 0 16756741.391515821 -11810362.208666112 0 0 0 0 1890906221.6432495 1445746899.867445 0 1445746899.867445 436199770.31778717 0 0 0 0 1754199021.9543114 1018968502.6115236 0 1018968502.6115236 49832081.445579529 0 0 0 0 1052120663.4799805 1084860508.8752937 0 1084860508.8752937 -329484313.27415848 0 0 0 0 1280501154.0853882 705929310.56817627 0 705929310.56817627 293962788.48021698 0 0 0 0 1725868279.9606323 890577249.71194077 0 890577249.71194077 449339319.07617623 0 0 0 0 1433510452.8676834 1214436914.2405138 0 1214436914.2405138 112777372.21678162 0 0 0 0 1019023199.2843323 615958824.64631844 0 615958824.64631844 335223242.23244476 0 0 0 0 1215497948.2667847 550392131.32291031 0 550392131.32291031 22922102.290359974 0 0 0 0 842100871.90855789 51878992.021533966 0 51878992.021533966 -348432046.92248535 0 0 0 0 712835036.08248901 250571200.81586647 0 250571200.81586647 -644971171.74044323 0 0 0 0 1187513140.7696838 105817332.67648888 0 105817332.67648888 -652860635.44458008 0 0 0 0 811458764.14503479 1339476566.3750343 0 1339476566.3750343 941237367.27625275 0 0 0 0 828412161.40509033 -630461621.7560873 0 -630461621.7560873 -1993786753.5909767 0 0 0 0 2223335.9543461204 756512.60612648819 0 756512.60612648819 -619619.79952123202 0 0 0 0 121936632.50930786 -32683809.729916573 0 -32683809.729916573 -412472027.04653931 0 0 0 0 1350737583.6968384 219872861.58826065 0 219872861.58826065 -540842152.40364456 0 0 0 0 2500233862.5124969 1277258849.8725948 0 1277258849.8725948 -396097184.67275238 0 0 0 0 642138380.06311035 812258226.5005722 0 812258226.5005722 -502319058.69408417 0 0 0 0 707664276.2281189 1168287132.1831703 0 1168287132.1831703 -398966497.34086037 0 0 0 0 257765478.8875885 877846527.89390087 0 877846527.89390087 -38815134.321647644 0 0 0 0 755894834.9508667 1220177862.8325882 0 1220177862.8325882 -352075001.72804642 0 0 0 0 492448555.38909912 836790649.19830513 0 836790649.19830513 -184467506.56344795 0 0 0 0 865709627.43567657 1011645898.8829432 0 1011645898.8829432 -816746831.97325897 0 0 0 0 4071493.7444959134 1828170.8812900288 0 1828170.8812900288 -1355681.2978157597 0 0 0 0 673373184.25874329 407322486.25054359 0 407322486.25054359 -1492310079.1670799 0 0 0 0 383223124.35842896 525264750.12163544 0 525264750.12163544 -968003792.84844208 0 0 0 0 349751116.23530579 322216598.59474564 0 322216598.59474564 -2450858496.2543144 0 0 0 0 1870586.276292339 1133962.1549408995 0 1133962.1549408995 -721813.17787596257 0 0 0 0 113164665.2117157 764690367.65708447 0 764690367.65708447 -324455518.54343033 0 0 0 0 678266669.79476929 1274657783.6509457 0 1274657783.6509457 -78774732.915792465 0 0 0 0 951512173.26089859 840894521.64768457 0 840894521.64768457 98896004.986724854 0 0 0 0 1006688573.0357056 1023154997.7125206 0 1023154997.7125206 -192448173.63648891 0 0 0 0 1549707589.4394989 1022735979.2232513 0 1022735979.2232513 154032839.5210743 0 0 0 0 281881195.29491043 827453247.85682631 0 827453247.85682631 467444051.14067841 0 0 0 0 365541972.0005188 566043761.01090431 0 566043761.01090431 368265926.38473892 0 0 0 0 1078093435.3048553 419598949.06446457 0 419598949.06446457 28065841.549373627 0 0 0 0 758577174.69352722 903778350.27983093 0 903778350.27983093 96640253.375385284 0 0 0 0 742651402.71864319 790568295.42989349 0 790568295.42989349 495251167.16919327 0 0 0 0 859499640.57688904 886625754.30989838 0 886625754.30989838 551888130.11450672 0 0 0 0 266035661.67902374 1036908512.3811083 0 1036908512.3811083 518274287.02441788 0 0 0 0 76547538.559082031 863771898.91534519 0 863771898.91534519 395911468.40192413 0 0 0 0 521025074.24050903 893548343.98994541 0 893548343.98994541 220903789.63262558 0 0 0 0 -162392704.06587219 1166220270.3159065 0 1166220270.3159065 -246490082.28321457 0 0 0 0 296835964.39891052 690316511.32329845 0 690316511.32329845 58310620.050006866 0 0 0 0 -347666129.00885773 1891924211.3799908 0 1891924211.3799908 -617841817.59933472 0 0 0 0 -468968505.18469429 1055422159.2628887 0 1055422159.2628887 -282997649.53314209 0 0 0 0 -373381579.90013123 1252576360.3520069 0 1252576360.3520069 -519221143.23911667 0 0 0 0 -632060191.02993774 529596708.49446106 0 529596708.49446106 -282947999.36600113 0 0 0 0 412473851.45865631 483347327.77850819 0 483347327.77850819 -373257833.51428986 0 0 0 0 344434836.3626709 579988592.23293114 0 579988592.23293114 107079291.07995415 0 0 0 0 399943903.87602234 -83733322.008447647 0 -83733322.008447647 -753204486.63011551 0 0 0 0 -115975998.74784851 685536429.08292484 0 685536429.08292484 -631688065.95991516 0 0 0 0 3086952.6220989227 828829112.87426472 0 828829112.87426472 -2221272302.470871 0 0 0 0 -1309147802.002655 160135246.53081512 0 160135246.53081512 -720969768.54092407 0 0 0 0 24606388.455474854 1015671687.2548428 0 1015671687.2548428 -809927229.79448318 0 0 0 0 1113107928.6290588 1586606976.4048824 0 1586606976.4048824 -720676052.72747469 0 0 0 0 616913922.0533371 427086316.19877863 0 427086316.19877863 -355182447.82069016 0 0 0 0 -1581340023.1350098 764243082.80980492 0 764243082.80980492 -1196254479.934289 0 0 0 0 -1109400636.4636841 2681926157.1087551 0 2681926157.1087551 -2143975664.8958473 0 0 0 0 -335854717.30795288 1856108091.6804638 0 1856108091.6804638 -1267989324.1148643 0 0 0 0 -1026634619.6163025 3119814769.6830683 0 3119814769.6830683 -237696814.06311798 0 0 0 0 -381709229.20155334 1758789442.0257568 0 1758789442.0257568 721115542.23287582 0 0 0 0 -5237371.7233123779 3359867654.509284 0 3359867654.509284 424402051.67625809 0 0 0 0 3890966.7253493071 7950887.7867624983 0 7950887.7867624983 -822573.62409806997 0 0 0 0 -434631514.28216553 -71994099.879390717 0 -71994099.879390717 190368974.74784088 0 0 0 0 -65416705.986816406 144321477.72130203 0 144321477.72130203 94403798.321781158 0 0 0 0 -1171891.2076343745 624510.1732937023 0 624510.1732937023 406695.36980242562 0 0 0 0 -1192026668.8650303 1603781322.7873402 0 1603781322.7873402 -158648224.03677368 0 0 0 0 -4121162916.0941772 2049892812.3003616 0 2049892812.3003616 -158132439.35574722 0 0 0 0 -3703135271.6626892 1414778261.3716431 0 1414778261.3716431 -1165597644.1630821 0 0 0 0 -6336887231.531394 2611005287.8148761 0 2611005287.8148761 -341607433.52789307 0 0 0 0 1304855.9113533217 2989425.160100542 0 2989425.160100542 -5422988.5482362956 0 0 0 0 -2175176960.0750275 2633694018.157793 0 2633694018.157793 -5371003382.4745255 0 0 0 0 -77299600.670202494 -386728470.05193782 0 -386728470.05193782 -1830100630.3173218 0 0 0 0 -136257009.42327881 1711560873.5015602 0 1711560873.5015602 -2773315906.3401451 0 0 0 0 -1878140775.3799744 2505299360.1029501 0 2505299360.1029501 -1413464119.7854996 0 0 0 0 -3120873062.2376709 673522510.55335903 0 673522510.55335903 -1065412211.5640182 0 0 0 0 -1436998343.5756226 1400130976.8605137 0 1400130976.8605137 -787771902.94770813 0 0 0 0 -1218011997.1767826 1075582247.1346107 0 1075582247.1346107 -519980244.70897675 0 0 0 0 -1077706526.5079288 2136344731.3781648 0 2136344731.3781648 -753289332.212883 0 0 0 0 -676624184.96078491 1841210529.4011993 0 1841210529.4011993 -552514667.26324844 0 0 0 0 -855976811.6547699 2089662127.0016899 0 2089662127.0016899 -752862645.69676018 0 0 0 0 -1079344280.2250671 1651751703.0152264 0 1651751703.0152264 2606728.8975439072 0 0 0 0 -391529647.60652924 1537836475.8254385 0 1537836475.8254385 -1003545612.0480347 0 0 0 0 -138732059.93447113 972404293.38727951 0 972404293.38727951 -289022522.46477509 0 0 0 0 -668072685.23171997 1901440046.7724991 0 1901440046.7724991 -1113582307.7128334 0 0 0 0 -274181920.8175354 1044730901.4499092 0 1044730901.4499092 -729287777.54866028 0 0 0 0 749401.26143988967 5088719.3257640153 0 5088719.3257640153 853372.32145970128 0 0 0 0 -1006491156.0971985 719916387.47912025 0 719916387.47912025 -329071859.09568596 0 0 0 0 -1017907218.1327209 721448190.72714138 0 721448190.72714138 -197778464.69293976 0 0 0 0 -894045409.91075897 441304320.74831915 0 441304320.74831915 -24916765.715358734 0 0 0 0 -154928952.99085236 229415921.59783268 0 229415921.59783268 -93694951.56671524 0 0 0 0 -1112803860.1790314 778865415.6272068 0 778865415.6272068 405098535.23873901 0 0 0 0 -1063231002.4458923 887225519.72048187 0 887225519.72048187 -10297188.408805847 0 0 0 0 254613838.63302612 253130910.54060459 0 253130910.54060459 11044329.13804245 0 0 0 0 -1437957535.0439911 1195960604.7803307 0 1195960604.7803307 386607193.25035572 0 0 0 0 1314151757.5025711 1029653757.3014908 0 1029653757.3014908 808694018.14278412 0 0 0 0 -1139515.5000759661 2187484.3689326569 0 2187484.3689326569 -1463396.9657448605 0 0 0 0 -1985861665.2998352 781394633.48579788 0 781394633.48579788 1936722415.3724518 0 0 0 0 64079.170056775212 1863795.4697359055 0 1863795.4697359055 545509.93041086197 0 0 0 0 -1010224239.3664246 1984481331.5160046 0 1984481331.5160046 -1751044584.1442261 0 0 0 0 -1855884615.0293884 1082759058.2380142 0 1082759058.2380142 4428910293.8960266 0 0 0 0 -2011477564.0377579 2691553716.565443 0 2691553716.565443 -1076688890.9553528 0 0 0 0 -1246113944.4786682 1786391312.7278709 0 1786391312.7278709 3272083205.1260605 0 0 0 0 -1297238147.8899536 2783427946.632515 0 2783427946.632515 -3530465631.9418907 0 0 0 0 -2630215887.3814087 -420922826.59094238 0 -420922826.59094238 3399626234.2439618 0 0 0 0 1160646667.7050171 -64145061.201019287 0 -64145061.201019287 1477985956.0567589 0 0 0 0 -2695768.9623742998 2068630.2889311872 0 2068630.2889311872 1058739.1236650115 0 0 0 0 -1286978732.7542114 1292781525.8177547 0 1292781525.8177547 -489249531.49029541 0 0 0 0 -1992986919.72229 2098488490.0694962 0 2098488490.0694962 -1274073284.2105713 0 0 0 0 -798487948.28375816 1101214210.9624186 0 1101214210.9624186 -1932515246.4135742 0 0 0 0 -1884359064.4895325 1549298152.6470985 0 1549298152.6470985 -510790283.42617059 0 0 0 0 -1869565588.6774445 1634257571.1796165 0 1634257571.1796165 -727001690.12123871 0 0 0 0 -1079291555.166626 2123926753.3699551 0 2123926753.3699551 -446179204.09414291 0 0 0 0 -620891671.72027588 1824181193.434967 0 1824181193.434967 -711099805.47617531 0 0 0 0 -651161263.35610962 2081851421.825634 0 2081851421.825634 -836337396.53076172 0 0 0 0 -712039901.55691528 1868846985.519104 0 1868846985.519104 -575738107.27885818 0 0 0 0 645630571.9621582 1585579427.8215294 0 1585579427.8215294 -638355185.57231236 0 0 0 0 -660184383.84190369 1807928073.2126827 0 1807928073.2126827 -418663614.67159653 0 0 0 0 -2048066414.3937531 1730460213.4478893 0 1730460213.4478893 -153913583.39361286 0 0 0 0 -609400639.73580933 2502860454.6534567 0 2502860454.6534567 -11606178.977184296 0 0 0 0 2937046173.2118835 2126037601.056488 0 2126037601.056488 24403636.40184617 0 0 0 0 -2468853.5271671638 2976655.9844618551 0 2976655.9844618551 -1210724.7933059745 0 0 0 0 -3277849365.9074707 2255868294.8847218 0 2255868294.8847218 -672437838.68826246 0 0 0 0 -2403092636.7479324 1386192874.4519157 0 1386192874.4519157 -407813942.93482971 0 0 0 0 -2111849876.3732605 1403264288.6093369 0 1403264288.6093369 -485055400.49778748 0 0 0 0 -1957792765.0423698 1679506007.6459885 0 1679506007.6459885 -785125801.1844635 0 0 0 0 -1909616635.8754425 1511311387.2683487 0 1511311387.2683487 -565089664.16504288 0 0 0 0 -2360305204.4350739 631526541.01966286 0 631526541.01966286 10059760.162986755 0 0 0 0 -2102421349.4792175 1637824640.3581161 0 1637824640.3581161 -321006027.87761688 0 0 0 0 -2247269610.4870186 1481129494.6599441 0 1481129494.6599441 -469556739.350914 0 0 0 0 -5210740391.3053169 17104214.110601425 0 17104214.110601425 -12254789.694358826 0 0 0 0 537877821.04035187 1221674860.2951012 0 1221674860.2951012 1321939497.2038841 0 0 0 0 2091996283.3455658 1696973336.9072266 0 1696973336.9072266 973898411.80840302 0 0 0 0 -6770443.7707177773 7671624.8165308833 0 7671624.8165308833 -1201540.5435201526 0 0 0 0 -1383807606.6070518 -122212779.1634903 0 -122212779.1634903 -354539156.57715225 0 0 0 0 -1321655752.5842743 35702007.413040161 0 35702007.413040161 -13511759.356442034 0 0 0 0 -750531269.86457443 -106001259.06265354 0 -106001259.06265354 -386261155.56081009 0 0 0 0 -946573475.38079834 574016819.33712149 0 574016819.33712149 494137854.31822205 0 0 0 0 -228138646.38934326 567457395.66498184 0 567457395.66498184 174742199.073452 0 0 0 0 -409345255.66092682 610295665.53236771 0 610295665.53236771 1084866031.6097183 0 0 0 0 -764124005.58003998 176486742.44903183 0 176486742.44903183 1762234902.7156448 0 0 0 0 -612930019.07848358 -138680463.26570702 0 -138680463.26570702 2227405280.5082397 0 0 0 0 -750896388.85054016 456091097.28245831 0 456091097.28245831 410199562.45145416 0 0 0 0 -932339174.75619507 91044994.448989868 0 91044994.448989868 969872340.56780243 0 0 0 0 -634818035.29714966 62050116.145320892 0 62050116.145320892 929639747.33722878 0 0 0 0 -851956349.22476196 199357757.59990311 0 199357757.59990311 1308538428.2718735 0 0 0 0 -661705026.30038452 467943163.13529205 0 467943163.13529205 878846763.21496582 0 0 0 0 -617175854.52430725 68759587.297657013 0 68759587.297657013 829425145.22132492 0 0 0 0 91070897.225097656 674876100.41484451 0 674876100.41484451 110730696.50727081 0 0 0 0 -1584658443.4044037 968155708.3813324 0 968155708.3813324 311467425.78395081 0 0 0 0 -730212878.39757538 583340450.54310417 0 583340450.54310417 -51644636.41072464 0 0 0 0 -1257280360.7167053 1628010127.0439987 0 1628010127.0439987 14426452.556064606 0 0 0 0 -2322960901.1256924 1465802971.3291256 0 1465802971.3291256 93174998.006698608 0 0 0 0 -2629717200.6929388 1637231373.9561267 0 1637231373.9561267 647329997.86393738 0 0 0 0 -561252175.27526855 2142439226.298584 0 2142439226.298584 327557754.36983871 0 0 0 0 452573866.54043579 293787269.57712936 0 293787269.57712936 447039234.41410828 0 0 0 0 102655189.06188965 407727976.42336273 0 407727976.42336273 1310654913.8018532 0 0 0 0 -5076515.6219240725 1667771.2599740624 0 1667771.2599740624 2857056.1402467489 0 0 0 0 899560365.7950592 698908815.02760696 0 698908815.02760696 160210571.11363983 0 0 0 0 -1370107.6758677661 1773662.6000271291 0 1773662.6000271291 792112.40693437308 0 0 0 0 -109894995.38894653 845173245.28047943 0 845173245.28047943 1921663811.2725868 0 0 0 0 -127298195.63920593 -106347163.8067112 0 -106347163.8067112 1487301721.8785934 0 0 0 0 -422274122.45037842 253139098.71308136 0 253139098.71308136 803934818.44135284 0 0 0 0 57246199.440783501 393491973.47618389 0 393491973.47618389 714147234.3937912 0 0 0 0 8379418.8697967529 130731894.05576706 0 130731894.05576706 108091480.4107132 0 0 0 0 -14216440.230209351 20910204.63139534 0 20910204.63139534 -931768.42554473877 0 0 0 0 -8308163.2380265445 14486416.462907147 0 14486416.462907147 -5502455.6992922835 0 0 0 0 89689030.207504272 -12015653.363273621 0 -12015653.363273621 140928987.59233665 0 0 0 0 -13173405.425000705 5727964.3261089213 0 5727964.3261089213 7778759.3579011187 0 0 0 0 -12905557.815490723 14979967.784564972 0 14979967.784564972 104889.3499212265 0 0 0 0 -6089560.2493972778 21925760.291955948 0 21925760.291955948 6662574.5047988892 0 0 0 0 7666276.7659912109 -10562087.792575836 0 -10562087.792575836 90473397.197235107 0 0 0 0 -9041871.6124613807 15100644.114474237 0 15100644.114474237 -5351951.3251110166 0 0 0 0 -6734540.0384521484 17848487.429168701 0 17848487.429168701 6140969.3517961502 0 0 0 0 -4770722.8617148399 21610705.071947575 0 21610705.071947575 12017636.246017456 0 0 0 0 -16932264.872360229 18634934.01659584 0 18634934.01659584 18405452.39944458 0 0 0 0 -6613583.5480365902 11661638.167776935 0 11661638.167776935 16759360.731514014 0 0 0 0 -1297908947.4134674 101897624.77072906 0 101897624.77072906 -370467352.37538147 0 0 0 0 -1044687715.9537354 -262700219.29841614 0 -262700219.29841614 -84584272.95703125 0 0 0 0 -38952662.749282837 62663823.482849121 0 62663823.482849121 -13562745.473257065 0 0 0 0 -11842748.594664 18041484.242252506 0 18041484.242252506 -714075.86809253693 0 0 0 0 -4829201.7245249748 20538302.672130585 0 20538302.672130585 10740234.978286743 0 0 0 0 52953842.970748901 42934395.218215942 0 42934395.218215942 -29142846.904356003 0 0 0 0 -2817449.3984138593 7356260.9300774485 0 7356260.9300774485 12574728.408059131 0 0 0 0 -2329215324.5819168 391366122.31924248 0 391366122.31924248 1135705138.9691315 0 0 0 0 45010282.617126465 5219284.300163269 0 5219284.300163269 88627163.756412506 0 0 0 0 -153396980.70123291 46941377.480078697 0 46941377.480078697 163084162.82749176 0 0 0 0 -68524612.62336731 -21729535.40060997 0 -21729535.40060997 794017838.68909454 0 0 0 0 -467732613.84072876 -77610901.366657257 0 -77610901.366657257 789441807.66448402 0 0 0 0 -348557624.64385986 -368555162.26143456 0 -368555162.26143456 1373207232.476593 0 0 0 0 -419371121.01410675 154167500.93523598 0 154167500.93523598 1313008688.2977295 0 0 0 0 -324185.26681552827 3284977.8936877176 0 3284977.8936877176 4736708.5413670391 0 0 0 0 608314325.41004181 -1027320089.2017803 0 -1027320089.2017803 1256042260.973587 0 0 0 0 291798112.50662231 -501796499.60779953 0 -501796499.60779953 445760652.66540909 0 0 0 0 -316513937.22311401 -323796134.55591583 0 -323796134.55591583 1334409763.0760651 0 0 0 0 -323614211.67130613 -645299097.40651727 0 -645299097.40651727 2237841134.3380432 0 0 0 0 -172772789.85334778 2529376056.2791767 0 2529376056.2791767 1152598169.2665253 0 0 0 0 307759446.52296448 1972219289.8443527 0 1972219289.8443527 675627735.95720291 0 0 0 0 -330533846.07649231 2029849748.4218636 0 2029849748.4218636 1009341223.747036 0 0 0 0 -13685624.655319326 15628970.465594873 0 15628970.465594873 -3804784.8566033132 0 0 0 0 152660143.74460602 516171825.4233861 0 516171825.4233861 597568394.5073204 0 0 0 0 -530185050.77200317 448501612.64923096 0 448501612.64923096 -906133760.79834747 0 0 0 0 -534477134.29412842 925111790.04944611 0 925111790.04944611 2460914295.0423279 0 0 0 0 -1094469124.7754974 386221767.67137909 0 386221767.67137909 740934509.24530792 0 0 0 0 -1087491884.4219513 -248648971.49420166 0 -248648971.49420166 -77352388.981910706 0 0 0 0 1296228080.5731354 -639254999.10341644 0 -639254999.10341644 702723922.18830109 0 0 0 0 3426495850.8183174 1997858848.1759186 0 1997858848.1759186 191159730.7571106 0 0 0 0 2916405827.3070297 4895758928.4544458 0 4895758928.4544458 56942065.399856567 0 0 0 0 -2885061225.5968323 1491483558.9001541 0 1491483558.9001541 613418767.77835464 0 0 0 0 -1072903620.3678589 5012475663.2484684 0 5012475663.2484684 1242924697.9448853 0 0 0 0 -1163330646.2810211 311120098.34828186 0 311120098.34828186 -65584450.525115967 0 0 0 0 -1308405137.2668304 909710174.59291077 0 909710174.59291077 -1844181929.9148026 0 0 0 0 -1237802940.1335526 -604819981.85936546 0 -604819981.85936546 -847038547.8651886 0 0 0 0 -7098068.3559698164 1663479.4495190065 0 1663479.4495190065 1542832.287056528 0 0 0 0 -4746298126.0748901 -1557867921.1071301 0 -1557867921.1071301 1718054799.8359909 0 0 0 0 -3833534712.5338745 -1518460076.9189491 0 -1518460076.9189491 1677046671.971199 0 0 0 0 283102607.44094849 -263259007.65324402 0 -263259007.65324402 430713459.49669647 0 0 0 0 -5746043960.7506561 -1087587984.638546 0 -1087587984.638546 2063556393.6158905 0 0 0 0 4309181392.868866 -347889904.25197601 0 -347889904.25197601 -2462371701.6971836 0 0 0 0 -5406149551.4765015 -943243691.70443726 0 -943243691.70443726 1798367655.7355347 0 0 0 0 -1031662037.9436188 268091253.73711395 0 268091253.73711395 -72552802.997093201 0 0 0 0 -2035016093.7061462 -3052878406.467598 0 -3052878406.467598 -4302970826.5679398 0 0 0 0 -11909361.915007949 16388298.901966408 0 16388298.901966408 -12115292.378728393 0 0 0 0 -384622616.8583374 955561146.56935883 0 955561146.56935883 -2052248566.8776436 0 0 0 0 -2678929742.2198792 1617794121.2089195 0 1617794121.2089195 31798321.940006256 0 0 0 0 -1089430344.064435 1414430935.6537375 0 1414430935.6537375 858964352.5615921 0 0 0 0 -1109288890.8501344 697438912.06055772 0 697438912.06055772 550349498.54956818 0 0 0 0 -1295176252.7794495 1120356155.8922882 0 1120356155.8922882 1166057577.5012169 0 0 0 0 -1228320769.0490112 -259181094.06481934 0 -259181094.06481934 322357002.16840172 0 0 0 0 -656347316.93450928 651941766.14539337 0 651941766.14539337 911898289.04100418 0 0 0 0 124416125.58925629 479058896.38366318 0 479058896.38366318 723317265.3628006 0 0 0 0 -764591623.06097412 1035390640.9389877 0 1035390640.9389877 1115151583.0984612 0 0 0 0 -682144181.05076027 1717814961.9491477 0 1717814961.9491477 1786645240.5681229 0 0 0 0 -459973608.16116333 1342425670.6271057 0 1342425670.6271057 1375837155.1654587 0 0 0 0 -113893179.02711928 1401217760.2983062 0 1401217760.2983062 1131752154.0413132 0 0 0 0 -82086115.848724365 1371619035.2668839 0 1371619035.2668839 1057633739.1787338 0 0 0 0 296538365.4526062 1320744832.8377151 0 1320744832.8377151 1063434178.731822 0 0 0 0 283230124.58416748 1441539382.1984692 0 1441539382.1984692 740252161.23010254 0 0 0 0 230960245.86219788 1173040411.9731808 0 1173040411.9731808 1009197309.2823524 0 0 0 0 124926102.9899292 1048974737.0134459 0 1048974737.0134459 1034528066.2438431 0 0 0 0 105058185.67028809 1003789587.3200455 0 1003789587.3200455 1060819804.97995 0 0 0 0 1012633172.1202698 874046554.43176651 0 874046554.43176651 694209517.27637482 0 0 0 0 283903260.92597198 559022998.94497108 0 559022998.94497108 558153831.93739319 0 0 0 0 -10404980.274949566 10960574.10567059 0 10960574.10567059 334324.9894365333 0 0 0 0 1049504309.5709076 -2124837771.6580772 0 -2124837771.6580772 229952128.71025085 0 0 0 0 1159594881.1672821 1239624310.9700127 0 1239624310.9700127 835077568.065979 0 0 0 0 371407551.79057312 986994003.81310081 0 986994003.81310081 1000695815.3350105 0 0 0 0 373553143.40356445 1118297588.431839 0 1118297588.431839 1002864350.1186066 0 0 0 0 864399695.07072449 1058806286.2798996 0 1058806286.2798996 894785308.79063797 0 0 0 0 509057063.34335327 1149883923.3618851 0 1149883923.3618851 1048057748.0814056 0 0 0 0 875509845.1217804 1008394664.7088146 0 1008394664.7088146 1025325763.4615726 0 0 0 0 469982390.23382568 847439521.61870956 0 847439521.61870956 1011096986.0895271 0 0 0 0 495630701.49802017 795596160.81886292 0 795596160.81886292 559334579.66275406 0 0 0 0 548410112.07422638 1185337080.9268064 0 1185337080.9268064 739920145.3531189 0 0 0 0 458694471.19161987 1086395858.8025818 0 1086395858.8025818 786138446.04174232 0 0 0 0 461430140.0026474 1033607947.5168982 0 1033607947.5168982 879067880.91939545 0 0 0 0 732127527.28497314 1496407300.5863647 0 1496407300.5863647 -34112444.51486969 0 0 0 0 628914450.32867432 1413352359.6451111 0 1413352359.6451111 454672930.24820042 0 0 0 0 582943346.56155396 1314921717.9814358 0 1314921717.9814358 282901384.1628952 0 0 0 0 761089757.75198364 1083722614.6575413 0 1083722614.6575413 354624486.9981575 0 0 0 0 520241807.82365417 1191017794.6560345 0 1191017794.6560345 60816454.653831482 0 0 0 0 306476427.27880859 1208426721.288744 0 1208426721.288744 -178226319.52491379 0 0 0 0 595126651.75547791 1104153310.889555 0 1104153310.889555 -540289411.27016354 0 0 0 0 213582249.01673508 783756991.07659101 0 783756991.07659101 -491104909.80527496 0 0 0 0 734316949.78792572 1132169060.2844141 0 1132169060.2844141 -429712109.90023041 0 0 0 0 655465562.69972229 1530122657.3662796 0 1530122657.3662796 131529928.42401505 0 0 0 0 207702690.74798584 1002994237.3338051 0 1002994237.3338051 -223516129.83509445 0 0 0 0 756002570.30551147 1379180144.6401939 0 1379180144.6401939 -268944568.82565117 0 0 0 0 589027197.12831116 1453837036.8442421 0 1453837036.8442421 229263086.03123474 0 0 0 0 738561039.29368591 1431113719.0287313 0 1431113719.0287313 231769030.72128296 0 0 0 0 888417890.63046265 1672018788.2640877 0 1672018788.2640877 175007826.78942204 0 0 0 0 1047646262.4118652 1646433691.6479969 0 1646433691.6479969 -33014119.643638611 0 0 0 0 826936590.17236328 1585053284.6884499 0 1585053284.6884499 841419675.77363586 0 0 0 0 1112398499.0130005 1864596959.259697 0 1864596959.259697 469945129.694561 0 0 0 0 691600541.57048035 1866487708.4743938 0 1866487708.4743938 1148706205.416153 0 0 0 0 868682967.87805176 1821857792.6862907 0 1821857792.6862907 672329476.60946655 0 0 0 0 467256410.72799683 1948930235.8164806 0 1948930235.8164806 1165628347.1579971 0 0 0 0 638449204.18363953 1733402074.1265163 0 1733402074.1265163 688676960.98712921 0 0 0 0 642048171.00192261 1660184656.2407188 0 1660184656.2407188 418971820.4319315 0 0 0 0 393516474.64350891 1625817428.9788647 0 1625817428.9788647 893108844.77333832 0 0 0 0 387413911.12976074 1784759321.4215164 0 1784759321.4215164 930018879.40222359 0 0 0 0 -111839885.09816802 1763219688.2188575 0 1763219688.2188575 1343135390.4878387 0 0 0 0 131977607.73949814 2009929601.8466539 0 2009929601.8466539 1739521825.440979 0 0 0 0 65434124.55267334 1739754861.9469872 0 1739754861.9469872 1297787336.666111 0 0 0 0 1087467236.3084488 1342825547.4856286 0 1342825547.4856286 1963240894.6462173 0 0 0 0 668502973.87440491 1973545996.3576641 0 1973545996.3576641 1820847437.7977753 0 0 0 0 742769738.96826172 1916119618.1640854 0 1916119618.1640854 1155809279.4239082 0 0 0 0 984116373.80429077 2025953042.4201813 0 2025953042.4201813 1553084286.7239342 0 0 0 0 -553505783.28897095 1015454083.6564064 0 1015454083.6564064 1152921239.3658333 0 0 0 0 -378672987.01834106 1774797732.1705933 0 1774797732.1705933 2748679807.9584961 0 0 0 0 -72972332.210601807 184213158.16923523 0 184213158.16923523 -393098954.07252121 0 0 0 0 -14094724.671905518 381166986.69011497 0 381166986.69011497 183938690.46179581 0 0 0 0 -279336795.86709595 -147299844.94152069 0 -147299844.94152069 1138468071.0697708 0 0 0 0 -258971708.50865173 -231249365.72457504 0 -231249365.72457504 138610581.46985626 0 0 0 0 -259686.40634763241 -374104.81254523247 0 -374104.81254523247 4450493.9878904112 0 0 0 0 -14996071.458908081 122765493.77886772 0 122765493.77886772 79477180.464530945 0 0 0 0 -16393456.985260099 6566155.4067945834 0 6566155.4067945834 4659006.2015124243 0 0 0 0 68163333.550239563 79187706.473493576 0 79187706.473493576 -233522463.34771729 0 0 0 0 178142906.90893555 1020739270.0666656 0 1020739270.0666656 1466845212.8466015 0 0 0 0 203289408.68061066 1771904689.3498526 0 1771904689.3498526 -341125918.26667786 0 0 0 0 1195906.5745119154 5964542.169451572 0 5964542.169451572 4628642.9523881376 0 0 0 0 721897911.1847229 -332590897.70908356 0 -332590897.70908356 185005689.24717903 0 0 0 0 183837501.44458771 701087349.76199627 0 701087349.76199627 4478850733.9787598 0 0 0 0 1496776.6744283885 4079377.967696961 0 4079377.967696961 -343004.06428979337 0 0 0 0 -21703275.617108941 12147625.455760125 0 12147625.455760125 10166050.03139036 0 0 0 0 -66606311.367721558 -291274673.84123993 0 -291274673.84123993 1735865242.6137924 0 0 0 0 -5099944.2236299515 587968.90572459996 0 587968.90572459996 15709672.593483981 0 0 0 0 -106909787.05096436 49690591.85900116 0 49690591.85900116 41955118.806511879 0 0 0 0 945069646.94470215 2585845121.3126087 0 2585845121.3126087 3402792902.4426804 0 0 0 0 717009783.72229004 2127621092.329586 0 2127621092.329586 2486782597.2247162 0 0 0 0 1373761046.6656189 2829941838.6133766 0 2829941838.6133766 3813412546.9949799 0 0 0 0 613982302.05154419 2071213159.3728027 0 2071213159.3728027 3148383411.451149 0 0 0 0 1177583485.508152 1761647614.2468877 0 1761647614.2468877 2491468395.8223114 0 0 0 0 1102202300.4320374 2387217179.812767 0 2387217179.812767 2949964934.2835751 0 0 0 0 891345298.94998169 1851877956.3693123 0 1851877956.3693123 2056008824.8283691 0 0 0 0 621431260.62533569 1811642913.9085808 0 1811642913.9085808 3443449023.5986662 0 0 0 0 840434358.08233643 1973526974.4686031 0 1973526974.4686031 2042216876.1758347 0 0 0 0 1135640393.1048584 1844159630.0677071 0 1844159630.0677071 1149400467.2798617 0 0 0 0 1306164610.0697021 1947522670.6856098 0 1947522670.6856098 978401323.84185791 0 0 0 0 1787521517.6781311 1940238034.776165 0 1940238034.776165 1695190254.8927612 0 0 0 0 897861088.55731201 1514159045.8352737 0 1514159045.8352737 1543226267.1836205 0 0 0 0 1559032152.5650253 1378643171.3026886 0 1378643171.3026886 1131703827.3129845 0 0 0 0 875697248.52096558 803042960.95321655 0 803042960.95321655 1017093792.4904509 0 0 0 0 2379848644.4301453 1049130453.2586594 0 1049130453.2586594 2803557052.4630232 0 0 0 0 1094882412.5278778 1592614720.5614395 0 1592614720.5614395 2690482061.839325 0 0 0 0 2644350971.4672241 2416955968.4811096 0 2416955968.4811096 2771104428.6903267 0 0 0 0 404647868.09182739 2555178054.5118942 0 2555178054.5118942 4477511831.1995497 0 0 0 0 865593726.05818939 1660135991.2873793 0 1660135991.2873793 2864739516.9503937 0 0 0 0 973124158.9524231 1253662825.184124 0 1253662825.184124 4306103726.548996 0 0 0 0 479120802.05111694 2093402147.4595795 0 2093402147.4595795 2632684064.4912643 0 0 0 0 930351299.33934021 2495730838.5555038 0 2495730838.5555038 2804137278.4271851 0 0 0 0 740542750.56994629 2583450152.874855 0 2583450152.874855 1909192395.6214752 0 0 0 0 1040692355.2991943 1664623391.0508118 0 1664623391.0508118 846659099.30514526 0 0 0 0 2118390550.9795837 3222455861.4368362 0 3222455861.4368362 2301742174.7309799 0 0 0 0 2550080295.0148926 1477115240.9763412 0 1477115240.9763412 294791833.11671448 0 0 0 0 715236776.89361572 1582534522.9213104 0 1582534522.9213104 1313635951.7475586 0 0 0 0 174186686.36160278 2917081894.6010361 0 2917081894.6010361 3325328014.4422455 0 0 0 0 16162105.430999756 2610338276.8535538 0 2610338276.8535538 2832199970.0296478 0 0 0 0 1103220597.5665894 2782495284.0236969 0 2782495284.0236969 2259125671.9881592 0 0 0 0 1305406054.7138557 3513603041.1695499 0 3513603041.1695499 3454549687.121788 0 0 0 0 1181158268.5942078 2080218010.7150421 0 2080218010.7150421 3233738691.9224472 0 0 0 0 69863.831481933594 25220077.124031067 0 25220077.124031067 32630908.678070068 0 0 0 0 -2954819.7338253334 6201245.311608471 0 6201245.311608471 7950827.4292867258 0 0 0 0 4190294632.7795715 3516039536.7094803 0 3516039536.7094803 2657380944.4697533 0 0 0 0 -71372.740112304688 25105486.81414032 0 25105486.81414032 32738757.462909698 0 0 0 0 1460427235.5541687 1882548223.9802551 0 1882548223.9802551 2492531257.9483814 0 0 0 0 1456975995.9061127 1822040110.3000202 0 1822040110.3000202 1623408067.7808418 0 0 0 0 -3909102.0127841756 5928784.5189273134 0 5928784.5189273134 8956312.2483864799 0 0 0 0 26872943.933380127 9401087.9634590149 0 9401087.9634590149 -35571527.617355347 0 0 0 0 31335468.445907593 39181622.496391296 0 39181622.496391296 6105806.1244049072 0 0 0 0 4043032.6078522727 -46478385.539339699 0 -46478385.539339699 -40163277.347241595 0 0 0 0 -26591822.847747803 -136980.80564880371 0 -136980.80564880371 13861253.569854736 0 0 0 0 5615893.1810302734 -3617395.1579742432 0 -3617395.1579742432 11964605.122886658 0 0 0 0 -5596689.1445007324 -3909329.0425567627 0 -3909329.0425567627 1325587.1646175385 0 0 0 0 4450068.3448374644 5803435.7677683681 0 5803435.7677683681 828742.98994071782 0 0 0 0 -860467265.61221313 75390086.713176727 0 75390086.713176727 -5243224.2080078125 0 0 0 0 -147708.96368408203 6723349.8065643311 0 6723349.8065643311 -3836355.6449966431 0 0 0 0 8687528.2471313477 2103063.3375511169 0 2103063.3375511169 -4460803.5828475952 0 0 0 0 -326276134.2835083 270183982.57164192 0 270183982.57164192 -220318485.78518677 0 0 0 0 -354532.25727159902 6023620.4081441835 0 6023620.4081441835 6817070.627063565 0 0 0 0 -98612993.111694336 -15681551.730800629 0 -15681551.730800629 -2240437.8566017151 0 0 0 0 334974.90719214082 -1645957.9040547982 0 -1645957.9040547982 5083247.6397012845 0 0 0 0 3915052.7911199927 3088192.4981976897 0 3088192.4981976897 1705807.6154484143 0 0 0 0 -187017969.58676147 79673730.851932526 0 79673730.851932526 1991080.9797897339 0 0 0 0 -158271857.51528931 709069905.96429062 0 709069905.96429062 -753122560.79492188 0 0 0 0 -229642380.25817871 536663481.3890152 0 536663481.3890152 -391727036.44654083 0 0 0 0 61736294.022796631 356536927.67436981 0 356536927.67436981 -643812909.67861938 0 0 0 0 6707195.6655035317 3732833.879690852 0 3732833.879690852 -64356.943525708281 0 0 0 0 -183605481.04281616 178089238.98255157 0 178089238.98255157 -306119275.49897766 0 0 0 0 5763548.1595687866 5258069.1650066376 0 5258069.1650066376 4962889.7156524658 0 0 0 0 27205029.858596802 6874398.983335495 0 6874398.983335495 -2198324.1046142578 0 0 0 0 -3685609.5891109705 5278632.4255579114 0 5278632.4255579114 8234192.9429559484 0 0 0 0 1135090172.9592133 964537086.6896553 0 964537086.6896553 1003043021.9341888 0 0 0 0 555365391.16003418 752163838.10562515 0 752163838.10562515 1158190308.6603928 0 0 0 0 792608073.76242065 1034381487.1591034 0 1034381487.1591034 1238420527.094635 0 0 0 0 -247975.06125840545 1243871.0581540987 0 1243871.0581540987 1645081.8565891124 0 0 0 0 1076464077.6510468 1816135489.7115173 0 1816135489.7115173 804518918.82487488 0 0 0 0 761170947.37713623 1222022492.4595718 0 1222022492.4595718 248311026.68365097 0 0 0 0 515647697.97518921 1456421783.1145859 0 1456421783.1145859 29701990.841682434 0 0 0 0 526003711.08270264 866700811.40340042 0 866700811.40340042 -915497333.32540894 0 0 0 0 573915789.46414185 1272574055.8098984 0 1272574055.8098984 7759295.6708374023 0 0 0 0 274945635.21325684 -97871262.062309265 0 -97871262.062309265 -1514479560.0194626 0 0 0 0 -578412.18197081983 1317710.3648022711 0 1317710.3648022711 623442.08415220678 0 0 0 0 -643866027.04876709 920862759.36499023 0 920862759.36499023 -1278456509.7408066 0 0 0 0 573896293.30787277 1150072328.7460093 0 1150072328.7460093 -1565082411.9628983 0 0 0 0 -646261990.75701904 425088529.33016205 0 425088529.33016205 -684696774.57737732 0 0 0 0 -516469157.14672852 1108324424.8100967 0 1108324424.8100967 -1175322103.3793964 0 0 0 0 -988802974.38253784 722712485.25376892 0 722712485.25376892 -631469814.52856445 0 0 0 0 -63979909.9190979 672120504.51104736 0 672120504.51104736 -455861963.77459717 0 0 0 0 -311423453.86328125 757589942.5663147 0 757589942.5663147 -629953626.17990923 0 0 0 0 -580261209.26689148 910737770.36860275 0 910737770.36860275 -385603215.53191376 0 0 0 0 -471067971.92852783 440638080.89183044 0 440638080.89183044 -683886818.82766914 0 0 0 0 -367240343.44073486 905748936.11432838 0 905748936.11432838 -255539983.93321991 0 0 0 0 197020198.3614502 876360728.03379822 0 876360728.03379822 -434780431.71394348 0 0 0 0 260744808.09032059 862400724.79509878 0 862400724.79509878 -502803799.24500275 0 0 0 0 287265012.62454224 881530550.24235153 0 881530550.24235153 -784907362.89475882 0 0 0 0 112337599.47293091 867160448.01914978 0 867160448.01914978 -502371157.81615448 0 0 0 0 -319060695.50061035 952672370.5246315 0 952672370.5246315 -257047278.81710815 0 0 0 0 -22607939.527664185 1075401911.2879515 0 1075401911.2879515 -340584037.43006134 0 0 0 0 -498291031.54931641 1062863115.4531593 0 1062863115.4531593 -63311651.969890594 0 0 0 0 -641335113.44682312 965554504.55643272 0 965554504.55643272 -22288321.636817932 0 0 0 0 -605294253.60980225 847760173.79903412 0 847760173.79903412 -25783736.753119469 0 0 0 0 -1893902542.0601959 438625942.25411224 0 438625942.25411224 478417238.41369629 0 0 0 0 -209679.06106143817 2249155.2836132646 0 2249155.2836132646 2429122.3972000442 0 0 0 0 -1235269129.6655273 1029126281.4884224 0 1029126281.4884224 959443952.0334897 0 0 0 0 1312733647.3647461 1261329390.6730652 0 1261329390.6730652 828973198.38105774 0 0 0 0 -786948789.73239136 360730181.7713623 0 360730181.7713623 -164507306.25751495 0 0 0 0 1338680.349642731 -236569933.12562385 0 -236569933.12562385 -79731411.792022705 0 0 0 0 -302766290.78189087 301552470.75448608 0 301552470.75448608 -178858656.50204468 0 0 0 0 -428904879.93933105 608728497.31478882 0 608728497.31478882 -416517142.22006226 0 0 0 0 -453162751.88861084 774491091.31474304 0 774491091.31474304 -325751337.56406784 0 0 0 0 -417600524.1986084 859196631.38351822 0 859196631.38351822 -257397838.55780792 0 0 0 0 -761587883.26165771 724503885.68744278 0 724503885.68744278 -121440083.10120392 0 0 0 0 -455271569.63538361 742816244.05253482 0 742816244.05253482 -203808297.88032532 0 0 0 0 -262112691.06381226 198374535.28672028 0 198374535.28672028 -146752111.43514252 0 0 0 0 -165546389.62280273 426165629.24194336 0 426165629.24194336 -693200594.87722397 0 0 0 0 388188.43388366699 279348701.85713959 0 279348701.85713959 -612680494.68296814 0 0 0 0 -11270057.487945557 235218071.50367737 0 235218071.50367737 -689828717.72336876 0 0 0 0 -49974827.366958618 536668761.17020416 0 536668761.17020416 -1277124331.2911148 0 0 0 0 139266636.31217957 -152509400.3725853 0 -152509400.3725853 -761165804.6335144 0 0 0 0 -907190245.25619507 776261644.06568909 0 776261644.06568909 -664268305.57415771 0 0 0 0 -94840004.504043579 -169421067.31891251 0 -169421067.31891251 -69724809.74597168 0 0 0 0 803612.03736418486 1325146.3205673024 0 1325146.3205673024 -3256678.1557082385 0 0 0 0 104617777.72805786 -238307.6543006897 0 -238307.6543006897 -54156433.901489258 0 0 0 0 50368391.917755127 52578035.512420654 0 52578035.512420654 -93686088.674476624 0 0 0 0 2043059.8832742386 2498739.3629753888 0 2498739.3629753888 -8568122.6245258301 0 0 0 0 -11658625.519012451 43157788.693153381 0 43157788.693153381 -18647933.305587769 0 0 0 0 5846276.9020843506 -1929174.2923278809 0 -1929174.2923278809 -128575458.02191162 0 0 0 0 2659218.0350617319 14310847.005559534 0 14310847.005559534 12848055.998691596 0 0 0 0 402559.80426025391 37345360.788330078 0 37345360.788330078 -15853264.93561554 0 0 0 0 -24464.933319091797 49166072.664916992 0 49166072.664916992 20867700.079696655 0 0 0 0 11178085.754470825 10942032.823654175 0 10942032.823654175 -5940676.9240951538 0 0 0 0 -183717260.04496765 72982498.326931 0 72982498.326931 -16165363.615570068 0 0 0 0 -224947211.86546326 166071296.2572155 0 166071296.2572155 -188737263.22390747 0 0 0 0 -327312.11196899414 173083117.20591736 0 173083117.20591736 -320666888.89593506 0 0 0 0 101073.44508361816 70445554.057037354 0 70445554.057037354 -84898978.057647705 0 0 0 0 -116752132.57569885 211120054.12388611 0 211120054.12388611 -253886699.07807159 0 0 0 0 -86631623.629505157 60329896.265295029 0 60329896.265295029 9088669.5270996094 0 0 0 0 -90124591.576763153 38067236.152954102 0 38067236.152954102 -39277685.9637146 0 0 0 0 -17498358.958374023 179385393.46740723 0 179385393.46740723 44714756.577114105 0 0 0 0 4086589.1906509437 4525762.5968286321 0 4525762.5968286321 -13649352.451819062 0 0 0 0 -96811458.146865845 51369120.971672058 0 51369120.971672058 -63026984.091819763 0 0 0 0 109503372.88686371 302939182.01102638 0 302939182.01102638 781723006.36532593 0 0 0 0 355140802.15365601 -551825417.27453613 0 -551825417.27453613 538990794.94102478 0 0 0 0 597397102.93170166 -1053287748.4344788 0 -1053287748.4344788 1506372848.2111206 0 0 0 0 474501.23822280765 3160462.054735817 0 3160462.054735817 1662833.3028055429 0 0 0 0 -1114051854.5621948 603381236.92248535 0 603381236.92248535 3887628407.8909302 0 0 0 0 -123858210.05781555 -210470126.50978088 0 -210470126.50978088 1202070907.2784042 0 0 0 0 -613628.81480407715 6867757.429019928 0 6867757.429019928 720347952.85298157 0 0 0 0 -51614067.142242432 115597113.91340637 0 115597113.91340637 -73979464.779415131 0 0 0 0 598859.73774655163 -412013.20473581553 0 -412013.20473581553 -1838538.5652270876 0 0 0 0 1163220844.6209106 -1059103321.1521606 0 -1059103321.1521606 -608608033.07635498 0 0 0 0 97277071.420288086 2213319126.2800903 0 2213319126.2800903 3062794514.1870098 0 0 0 0 -255981915.04522705 929683947.39997864 0 929683947.39997864 3225003903.4820862 0 0 0 0 3442689.3831771761 -355358.17341091484 0 -355358.17341091484 107928.87080985308 0 0 0 0 -507400511.02044678 128053870.76088715 0 128053870.76088715 1192618971.2639771 0 0 0 0 -59395569.87600708 -477179107.47963715 0 -477179107.47963715 -690458109.56674194 0 0 0 0 285474095.00231934 550137932.34396362 0 550137932.34396362 16618651.308120728 0 0 0 0 295858133.24060059 1767773673.2737579 0 1767773673.2737579 1703874213.3431969 0 0 0 0 -639507659.76269531 732577577.20542145 0 732577577.20542145 1879731118.8009949 0 0 0 0 182468971.60346985 2209997525.6665268 0 2209997525.6665268 2164197125.1342316 0 0 0 0 -171901988.16665649 1296770412.1419754 0 1296770412.1419754 1304902269.8645782 0 0 0 0 694604992.96148682 2243767865.0362854 0 2243767865.0362854 1530463830.6612396 0 0 0 0 -5652517.3760007108 2420152311.9925752 0 2420152311.9925752 2747365243.9075623 0 0 0 0 485350373.08201599 2470720462.9618797 0 2470720462.9618797 2238245179.7468262 0 0 0 0 273236692.38122559 2608030587.4695969 0 2608030587.4695969 2822530627.0123749 0 0 0 0 46785715.278030396 1858407128.3175621 0 1858407128.3175621 2384164883.912796 0 0 0 0 275150988.40002441 272901216.33048248 0 272901216.33048248 -36749406.295166016 0 0 0 0 794915113.35064697 -124759799.46504211 0 -124759799.46504211 -522988210.25835419 0 0 0 0 1643807089.960083 1219620216.8581467 0 1219620216.8581467 338054621.05355835 0 0 0 0 272486302.0267334 314025123.49725342 0 314025123.49725342 -107570867.62744141 0 0 0 0 -255764954.12278748 1488203320.1268234 0 1488203320.1268234 969043103.2003479 0 0 0 0 169204982.91845703 1549634568.5349274 0 1549634568.5349274 1257393178.6649628 0 0 0 0 581777651.34225464 1860796001.0989532 0 1860796001.0989532 374101691.85829163 0 0 0 0 40127283.904968262 1266332378.7908478 0 1266332378.7908478 -336701600.75541687 0 0 0 0 203386447.14477539 934685163.4460144 0 934685163.4460144 -10198525.065654755 0 0 0 0 376082004.32946777 545207133.2462616 0 545207133.2462616 -153226390.47683716 0 0 0 0 536505951.47067261 1511919782.6644745 0 1511919782.6644745 422323362.30892944 0 0 0 0 707667422.73266602 939129440.76902008 0 939129440.76902008 -1288368120.8930817 0 0 0 0 849289508.55480957 142702806.35916138 0 142702806.35916138 -1339028788.8535142 0 0 0 0 -1448645.1828096434 4576728.1208493598 0 4576728.1208493598 -395122.72965682298 0 0 0 0 -1938894834.3515701 164351881.77780151 0 164351881.77780151 3070001.7274475098 0 0 0 0 -281858225.40786743 1955020762.8247299 0 1955020762.8247299 -1803356069.3334503 0 0 0 0 -1097414777.0356598 1613385598.1646538 0 1613385598.1646538 -1223175615.5925598 0 0 0 0 845286561.01501465 364025689.83761597 0 364025689.83761597 -2520946381.7248535 0 0 0 0 -1927047459.906662 -302752914.34838676 0 -302752914.34838676 665452701.45175171 0 0 0 0 246726309.42803955 -560383181.70683289 0 -560383181.70683289 385285421.80773163 0 0 0 0 737262477.57614136 200171495.55101013 0 200171495.55101013 -1089964361.6642723 0 0 0 0 -35225126.380645752 286236604.35301208 0 286236604.35301208 1061258765.9410248 0 0 0 0 2705205.7101768404 495076.98328840733 0 495076.98328840733 275986.81602160633 0 0 0 0 671494148.50518799 -135899566.04640198 0 -135899566.04640198 475742602.79138184 0 0 0 0 473174942.17883301 -150461818.26780701 0 -150461818.26780701 1119111924.9795113 0 0 0 0 560668184.20874023 -327917453.97181702 0 -327917453.97181702 488057521.52715683 0 0 0 0 3221948.2887777239 9079626.8464265242 0 9079626.8464265242 8217911.3564277217 0 0 0 0 26867206.41947937 25685172.923177719 0 25685172.923177719 -28757734.203063965 0 0 0 0 380831866.83728027 -484730157.8260498 0 -484730157.8260498 404568754.07460785 0 0 0 0 -366813099.18640137 -68066372.142616272 0 -68066372.142616272 780306628.88282776 0 0 0 0 -650812566.71006966 590503340.45410538 0 590503340.45410538 -109063549.62442017 0 0 0 0 -764720908.28894043 -285143389.46546268 0 -285143389.46546268 581572042.66098022 0 0 0 0 358258811.09487915 -247878517.77040863 0 -247878517.77040863 433968688.41308594 0 0 0 0 -63089624.103981018 201932054.01729965 0 201932054.01729965 -181158822.52258301 0 0 0 0 283034550.04486084 175111007.21379852 0 175111007.21379852 -500632171.44969177 0 0 0 0 93916452.966278076 -144678330.29772186 0 -144678330.29772186 252436022.57542419 0 0 0 0 -1351523792.5766296 -1288712717.5912933 0 -1288712717.5912933 56558322.179637909 0 0 0 0 125985767.28262329 840778680.92681122 0 840778680.92681122 -2099760626.8580017 0 0 0 0 -1187545852.4355974 1353748515.0296412 0 1353748515.0296412 -738998902.74276733 0 0 0 0 -259427678.7467041 673650913.83520508 0 673650913.83520508 -321676404.83118439 0 0 0 0 -305889422.50164795 811819439.36535263 0 811819439.36535263 -724242240.63204956 0 0 0 0 -689542633.65032959 472650842.18737793 0 472650842.18737793 -270324699.9095459 0 0 0 0 -170062983.30569458 867162231.88557434 0 867162231.88557434 -792756416.93319321 0 0 0 0 -112477956.05389404 609051287.24489594 0 609051287.24489594 -277497211.61006927 0 0 0 0 23700803.649398804 16683566.792156219 0 16683566.792156219 -206160913.23020935 0 0 0 0 196768145.62033081 186714534.25172424 0 186714534.25172424 -1754366876.3336391 0 0 0 0 -12416662.402435303 158776235.38378906 0 158776235.38378906 -64728107.54914856 0 0 0 0 -50438179.416381836 371009417.12308502 0 371009417.12308502 -790177751.19122696 0 0 0 0 -191561009.81504822 65387211.356542587 0 65387211.356542587 -110967842.42953491 0 0 0 0 19944153.161697388 -45808554.457485199 0 -45808554.457485199 65671735.696670532 0 0 0 0 -135773818.93370056 -33727074.195208549 0 -33727074.195208549 108189466.5955658 0 0 0 0 5496527.5179120973 25706167.033373557 0 25706167.033373557 8208602.9777395651 0 0 0 0 481352464.16340637 107253773.92396164 0 107253773.92396164 34814815.042952538 0 0 0 0 -553370157.35235596 -32276450.488288879 0 -32276450.488288879 9709813.0125732422 0 0 0 0 82244465.18825531 117691076.21401024 0 117691076.21401024 -1928240.6504974365 0 0 0 0 -4371957.7656933218 14764396.491408143 0 14764396.491408143 772205.11447442323 0 0 0 0 -39508502.016067505 192324646.6125412 0 192324646.6125412 -47668727.746231079 0 0 0 0 -526568452.83163452 -135276342.43534851 0 -135276342.43534851 169939076.2348938 0 0 0 0 898803041.73469543 367736092.42695236 0 367736092.42695236 -326869083.06678009 0 0 0 0 801579417.42843628 1083387648.0373497 0 1083387648.0373497 -1926247854.7635651 0 0 0 0 1059540329.1316757 398839614.85156441 0 398839614.85156441 -438167528.93984985 0 0 0 0 434347972.15744019 481448849.10491943 0 481448849.10491943 -96075939.614631653 0 0 0 0 41282554.51389122 -116428883.33466434 0 -116428883.33466434 -26490704.443954468 0 0 0 0 1966715596.0809855 210844824.29068595 0 210844824.29068595 -2996619871.4999771 0 0 0 0 2673435.5189572573 21648236.502211526 0 21648236.502211526 5973251.9942205511 0 0 0 0 1915786616.9584961 -1851813885.3110008 0 -1851813885.3110008 -260463641.99117804 0 0 0 0 7945006.2577514648 87704485.886772156 0 87704485.886772156 -643910823.09975433 0 0 0 0 528640.29817780852 11639205.198811403 0 11639205.198811403 -3404238.9363585934 0 0 0 0 176167952.08905029 108738619.72185516 0 108738619.72185516 -19183090.399733067 0 0 0 0 -172787816.87826538 -122709901.24181366 0 -122709901.24181366 30860761.644058228 0 0 0 0 -1145820213.0429344 356568820.211514 0 356568820.211514 114255685.74945068 0 0 0 0 375961445.4196167 1541746648.310463 0 1541746648.310463 -1562159752.5169067 0 0 0 0 1009132.6352054626 4027805.3461487461 0 4027805.3461487461 -2532231.7509756386 0 0 0 0 110494209.19976807 -632610305.4284668 0 -632610305.4284668 -2505215826.0268555 0 0 0 0 202094283.38414001 208746581.07143402 0 208746581.07143402 -762486090.58026886 0 0 0 0 239299617.5531826 119104303.80530357 0 119104303.80530357 -669481541.64303589 0 0 0 0 -22978032.96472168 88850172.896080017 0 88850172.896080017 174512226.61536407 0 0 0 0 139888223.82360077 36444210.77381134 0 36444210.77381134 21294341.292648315 0 0 0 0 -23828158.694755554 8686868.1396923065 0 8686868.1396923065 16933009.727745056 0 0 0 0 57122018.987884521 133905262.87198448 0 133905262.87198448 -60041759.423324585 0 0 0 0 25754456.112708315 21849264.099895284 0 21849264.099895284 11190461.026239723 0 0 0 0 3530184.7101135254 48386533.444923401 0 48386533.444923401 -71327687.738128662 0 0 0 0 -7430808.0870034546 10278554.758757845 0 10278554.758757845 3310871.7543461444 0 0 0 0 18935149.780700684 -23373511.495666504 0 -23373511.495666504 9870439.2952423096 0 0 0 0 -318046599.93959045 1037474307.6754265 0 1037474307.6754265 845340320.87425995 0 0 0 0 -9541805.9252024442 13072323.089241888 0 13072323.089241888 9204184.7178531494 0 0 0 0 -607489885.99185181 277052164.64247131 0 277052164.64247131 1746694181.584198 0 0 0 0 -21041143.367950439 73147703.117041588 0 73147703.117041588 45308234.859680176 0 0 0 0 19259383.414382204 19487593.747232452 0 19487593.747232452 9815258.0180407502 0 0 0 0 968725.37692064047 3850084.648301661 0 3850084.648301661 3508205.8659002297 0 0 0 0 -80847082.377441406 -770662606.7767334 0 -770662606.7767334 931211841.79016304 0 0 0 0 7971129.3775024414 31489366.021255493 0 31489366.021255493 -61024395.200622559 0 0 0 0 508979864.93783569 -575524211.04729462 0 -575524211.04729462 -157332101.5632534 0 0 0 0 50981014.91494751 34460235.768539429 0 34460235.768539429 -207019104.71922302 0 0 0 0 20384538.639022827 32904334.905586243 0 32904334.905586243 -121349779.83724976 0 0 0 0 57865066.565856934 64348971.05255127 0 64348971.05255127 -114723062.55844116 0 0 0 0 17198964.439788818 42730359.541748047 0 42730359.541748047 -60322718.211303711 0 0 0 0 -12230261.926055908 87447126.691268921 0 87447126.691268921 -81625422.70716095 0 0 0 0 38261260.077178955 85359810.385742188 0 85359810.385742188 -121093200.19984436 0 0 0 0 -23570217.50289917 108094162.67179871 0 108094162.67179871 -123992044.54396057 0 0 0 0 4102364.6014862061 75601067.843235016 0 75601067.843235016 -143941428.95373535 0 0 0 0 208600573.17657471 43907916.051498413 0 43907916.051498413 -207721458.46725464 0 0 0 0 108327717.31352234 156443148.8393898 0 156443148.8393898 -235121577.61456299 0 0 0 0 -45921088.721298218 243991761.8319397 0 243991761.8319397 -272782189.1520195 0 0 0 0 -102334286.81097412 91212928.265670776 0 91212928.265670776 -187891473.13330078 0 0 0 0 -65692089.117782593 65414096.422424316 0 65414096.422424316 -125943323.75723267 0 0 0 0 -26750783.430633545 121389361.14103699 0 121389361.14103699 -176550976.67304993 0 0 0 0 12771192.270004272 47777817.458892822 0 47777817.458892822 -179511321.14683533 0 0 0 0 21103100.147815704 76727516.87550354 0 76727516.87550354 -124694645.27410889 0 0 0 0 5727294.9810791016 34356994.400354385 0 34356994.400354385 -101538127.60224915 0 0 0 0 -35666733.150848389 82059371.408782959 0 82059371.408782959 -81519656.36889267 0 0 0 0 41521275.130158529 24684156.678445175 0 24684156.678445175 6084478.2749426812 0 0 0 0 241560279.52961731 -303111219.5500412 0 -303111219.5500412 173328276.56437683 0 0 0 0 341390185.2645874 -245575693.87415314 0 -245575693.87415314 143318964.50053406 0 0 0 0 265764980.45794678 -308546584.751297 0 -308546584.751297 124702117.55250931 0 0 0 0 158384382.26268005 -110829317.97139359 0 -110829317.97139359 100141034.30238152 0 0 0 0 32472357.905268088 24093887.204479761 0 24093887.204479761 10768761.125911154 0 0 0 0 18489778.328613281 70961373.107833862 0 70961373.107833862 -133947615.58396149 0 0 0 0 27102672.0625 60984740.02318573 0 60984740.02318573 -180807304.42654419 0 0 0 0 21951983.305297852 54148314.638885498 0 54148314.638885498 -165226853.28184891 0 0 0 0 27803502.330078125 55998755.293464661 0 55998755.293464661 -196453341.05657959 0 0 0 0 24173032.321418762 62033588.312171936 0 62033588.312171936 -163224760.59768677 0 0 0 0 -7093435.9309692383 25557565.8855896 0 25557565.8855896 -194917709.95834351 0 0 0 0 -93855610.230957031 50559509.27746582 0 50559509.27746582 -111905795.16967773 0 0 0 0 -4466414.6291503906 50889170.721374512 0 50889170.721374512 -145802021.27868652 0 0 0 0 -2003192.4188232422 91272015.798828125 0 91272015.798828125 -110490770.44915771 0 0 0 0 -7509098.2510566711 87797650.240543365 0 87797650.240543365 -104479184.40942383 0 0 0 0 -91113808.751342773 -200216369.51187134 0 -200216369.51187134 975621025.99188995 0 0 0 0 -29511612.957397461 102236146.54995728 0 102236146.54995728 -90757985.513244629 0 0 0 0 18132361.026123047 128567966.96075439 0 128567966.96075439 -80851704.918258667 0 0 0 0 41197431.308956191 35529816.513658524 0 35529816.513658524 8301056.4826701675 0 0 0 0 52687218.581542969 157418190.75619507 0 157418190.75619507 -119964159.01577759 0 0 0 0 114219756.41308594 165958153.31335449 0 165958153.31335449 -121438205.54818726 0 0 0 0 11280801.519205987 -7421114.8544834554 0 -7421114.8544834554 -10189621.229964584 0 0 0 0 -77886240.81237793 -420317681.97097778 0 -420317681.97097778 935119013.89361572 0 0 0 0 -71791141.907592773 52404700.092590332 0 52404700.092590332 -123638144.28050232 0 0 0 0 -6408399.0400390625 83371258.696166992 0 83371258.696166992 -116030866.34503174 0 0 0 0 -33352260.743408203 104604554.43917847 0 104604554.43917847 -100663345.26525879 0 0 0 0 -38882701.085205078 108800198.16540527 0 108800198.16540527 -101710774.59289551 0 0 0 0 7740699.9693603516 127883521.0489502 0 127883521.0489502 -95398332.617980957 0 0 0 0 4729347.3011474609 133658208.76567078 0 133658208.76567078 -103907328.1965332 0 0 0 0 4575.0936584472656 140419298.93885803 0 140419298.93885803 -81342938.779907227 0 0 0 0 69948027.635620117 165371958.6940918 0 165371958.6940918 -85948184.836093903 0 0 0 0 44610387.887939453 132393552.3838501 0 132393552.3838501 -81118294.304321289 0 0 0 0 44117788.279541016 153095465.39355469 0 153095465.39355469 -86809132.633708954 0 0 0 0 102519315.56503296 138019680.0856781 0 138019680.0856781 -63437039.449768066 0 0 0 0 51530956.461303711 147387684.10327148 0 147387684.10327148 -96280853.829467773 0 0 0 0 -6720464.8364868164 145398988.96403503 0 145398988.96403503 -95861452.642700195 0 0 0 0 -141355452.99291992 -354057134.24368286 0 -354057134.24368286 881387780.10983276 0 0 0 0 -120231949.66235352 -412795153.84606934 0 -412795153.84606934 804935345.95744324 0 0 0 0 -81105059.693664551 -323953634.5753479 0 -323953634.5753479 662565769.04998779 0 0 0 0 -85370349.544128418 -305624209.46847534 0 -305624209.46847534 712656340.01916504 0 0 0 0 -94501132.614868164 -304923640.89520264 0 -304923640.89520264 827237035.44798279 0 0 0 0 -60667382.526245117 -182362332.40267944 0 -182362332.40267944 884210057.04351664 0 0 0 0 -27896058.097900391 -193217830.60519409 0 -193217830.60519409 771932702.84942627 0 0 0 0 78920728.769836426 -36539695.308120728 0 -36539695.308120728 902177066.14758301 0 0 0 0 177465701.47692871 -1470889.9412231445 0 -1470889.9412231445 826706946.109375 0 0 0 0 -101815198.64605713 76386617.076438904 0 76386617.076438904 -112280547.54943848 0 0 0 0 -60978691.003173828 115999004.15551758 0 115999004.15551758 -108055357.60864258 0 0 0 0 423575486.11828613 -148900891.42767334 0 -148900891.42767334 -477797693.07525635 0 0 0 0 373068669.33319092 75528338.950386047 0 75528338.950386047 655129250.89624023 0 0 0 0 -456818342.72373962 319345910.84170914 0 319345910.84170914 519745392.60003662 0 0 0 0 -548789137.64746094 -15643479.73538208 0 -15643479.73538208 1005411170.6423645 0 0 0 0 451533091.7298584 -402964290.92596436 0 -402964290.92596436 670212507.16870117 0 0 0 0 579597187.52111816 -180856101.75244904 0 -180856101.75244904 586972290.38696289 0 0 0 0 165446337.35839844 164509648.83996582 0 164509648.83996582 -126069186.90093994 0 0 0 0 247907217.59179688 153337271.52062988 0 153337271.52062988 -130011873.56546021 0 0 0 0 118792038.45654297 152819594.32954407 0 152819594.32954407 -87798582.790649414 0 0 0 0 222030137.80664062 -487718579.24237061 0 -487718579.24237061 741736318.41625977 0 0 0 0 -83016978.895781517 -354623983.06819332 0 -354623983.06819332 670710948.80877686 0 0 0 0 -83534551.667419434 -413517955.47848511 0 -413517955.47848511 768665375.39932251 0 0 0 0 94249695.05255127 -388360869.07528687 0 -388360869.07528687 616990015.23223877 0 0 0 0 -87037672.242980957 -393851754.86691284 0 -393851754.86691284 737703349.0553894 0 0 0 0 88735572.388549805 -492087294.03927612 0 -492087294.03927612 756649665.79882812 0 0 0 0 134992299.48448181 -319754515.04875183 0 -319754515.04875183 648806990.14031982 0 0 0 0 151728896.25689697 -152283736.40855408 0 -152283736.40855408 590512391.14227295 0 0 0 0 261851388.14672852 -288014122.74697876 0 -288014122.74697876 606581043.25823975 0 0 0 0 -26482786.38269043 -235751846.42999268 0 -235751846.42999268 605590354.72958851 0 0 0 0 81435239.605010986 -166978470.65235901 0 -166978470.65235901 529593848.25521851 0 0 0 0 -114723704.00360107 -66624692.226699829 0 -66624692.226699829 596293537.4932251 0 0 0 0 -35122516.881713867 91372880.012054443 0 91372880.012054443 658783502.22970581 0 0 0 0 256292109.09631348 -70344172.139221191 0 -70344172.139221191 596107996.11277962 0 0 0 0 -260189967.40707397 -217847525.60296631 0 -217847525.60296631 422033336.53337097 0 0 0 0 -151751544.40190125 -159748920.00162125 0 -159748920.00162125 274831377.62750244 0 0 0 0 -174137533.57312012 -123162585.7878418 0 -123162585.7878418 522289278.26383209 0 0 0 0 -26390852.946502686 -301800399.05310822 0 -301800399.05310822 463821281.78710938 0 0 0 0 -220545953.54766846 -208751382.77230835 0 -208751382.77230835 424498095.09976196 0 0 0 0 -88156640.834869385 -328235617.391716 0 -328235617.391716 231508915.17630005 0 0 0 0 -60552085.809875488 -396824151.98814392 0 -396824151.98814392 633129966.62521362 0 0 0 0 -96918900.316345215 -277382969.0453186 0 -277382969.0453186 557901463.59655762 0 0 0 0 -57339609.59576416 -299415685.54711914 0 -299415685.54711914 481264876.09399414 0 0 0 0 -77595029.70954895 -348752030.52133179 0 -348752030.52133179 642369275.22650146 0 0 0 0 -72278431.166702271 -351877600.38809586 0 -351877600.38809586 393614396.40310669 0 0 0 0 -109732215.05584717 -272234652.88842773 0 -272234652.88842773 487020812.88615799 0 0 0 0 -77873053.065734863 -397876529.4442749 0 -397876529.4442749 -13846933.089141846 0 0 0 0 -189225639.88226318 -235543232.23550415 0 -235543232.23550415 210785785.47381592 0 0 0 0 -402708457.59962463 -193617113.6971817 0 -193617113.6971817 270260716.67391968 0 0 0 0 -152494805.33631897 -278820892.73792267 0 -278820892.73792267 -33549803.625549316 0 0 0 0 379127583.22550964 -116822301.79037857 0 -116822301.79037857 358063436.87670898 0 0 0 0 156159590.49060059 -229072804.38009644 0 -229072804.38009644 374723249.55453491 0 0 0 0 262424451.91174316 -163241782.08312988 0 -163241782.08312988 256442007.71592712 0 0 0 0 303118946.00970459 -263081585.11190796 0 -263081585.11190796 132477191.35649872 0 0 0 0 291348961.77362061 605943.27844238281 0 605943.27844238281 633754784.48486328 0 0 0 0 246890085.77947998 -89579689.533493042 0 -89579689.533493042 454089342.63873291 0 0 0 0 107770358.39129639 -129309203.34043884 0 -129309203.34043884 593263826.78088379 0 0 0 0 81360538.215148926 -99830484.717559814 0 -99830484.717559814 708310454.3704834 0 0 0 0 11686593.54006958 -178987493.13580704 0 -178987493.13580704 668072587.74243164 0 0 0 0 32847361.791259766 -222375580.00125122 0 -222375580.00125122 527859500.94000244 0 0 0 0 -25772343.391174316 -248156410.26661682 0 -248156410.26661682 499330152.53540039 0 0 0 0 -34541747.99597168 -283107924.98956299 0 -283107924.98956299 562918752.90649414 0 0 0 0 103252582.55490112 -219710543.32048035 0 -219710543.32048035 356758862.24014282 0 0 0 0 21876078.898132324 -282110824.09179688 0 -282110824.09179688 336027648.99747467 0 0 0 0 117440740.14602661 -157719411.77145386 0 -157719411.77145386 513771693.85974121 0 0 0 0 197566457.5791626 -263755920.64700317 0 -263755920.64700317 94177477.633087158 0 0 0 0 -43057305.751342773 -307349104.96058655 0 -307349104.96058655 189774332.9332428 0 0 0 0 53831333.252990723 -254049551.75021362 0 -254049551.75021362 207540283.99627686 0 0 0 0 125879632.31222534 -317991956.18180847 0 -317991956.18180847 -43887874.857147217 0 0 0 0 93421105.94241333 -334893008.75094604 0 -334893008.75094604 68368578.37878418 0 0 0 0 225105480.09210205 -274331842.74835205 0 -274331842.74835205 -81099554.458053589 0 0 0 0 274561792.58343506 -261426630.61745453 0 -261426630.61745453 -17599822.523620605 0 0 0 0 178326158.91314697 -248246103.78570557 0 -248246103.78570557 215879078.17585754 0 0 0 0 220478323.33441162 -342622200.91064453 0 -342622200.91064453 114268210.40074158 0 0 0 0 359021408.60202026 -258679590.23978424 0 -258679590.23978424 -249938170.41897583 0 0 0 0 244135366.36839676 -365606550.87843513 0 -365606550.87843513 -172463568.13165283 0 0 0 0 153345121.00967407 -382459022.2673645 0 -382459022.2673645 -232608779.98031616 0 0 0 0 -1176584.7186279297 -322149892.05821228 0 -322149892.05821228 -43766779.232067108 0 0 0 0 147578110.92904663 -302703397.29592896 0 -302703397.29592896 -257225344.79447174 0 0 0 0 115881551.05691528 -381980678.85858917 0 -381980678.85858917 -438886611.87121582 0 0 0 0 -132227083.96908569 -330511392.03871155 0 -330511392.03871155 -405131523.92527771 0 0 0 0 267259008.32971191 -395797512.07854843 0 -395797512.07854843 -452810146.57159424 0 0 0 0 444214326.4203186 -257818972.68582153 0 -257818972.68582153 -463861655.7810812 0 0 0 0 -324199425.07440186 -82162602.24061203 0 -82162602.24061203 -208029145.85290527 0 0 0 0 -466564345.36457825 -298339599.93299103 0 -298339599.93299103 -22747088.520599365 0 0 0 0 -184690607.62823486 -360510975.44400024 0 -360510975.44400024 -161554913.82824707 0 0 0 0 -121823896.20254517 -291721883.90638733 0 -291721883.90638733 -337117593.88290405 0 0 0 0 34861465.003585815 -278232045.37564087 0 -278232045.37564087 -132385083.57696533 0 0 0 0 -440488048.39642334 -323743599.92370605 0 -323743599.92370605 -316629737.40145874 0 0 0 0 -79765311.028411865 -295387958.00731659 0 -295387958.00731659 -606437886.65190125 0 0 0 0 -349327879.73755646 -245733417.82675171 0 -245733417.82675171 -746310519.12792969 0 0 0 0 -1173832586.6592407 106972748.55692291 0 106972748.55692291 -567617701.51094055 0 0 0 0 -544512541.9444046 137710378.3380537 0 137710378.3380537 -838109444.6733551 0 0 0 0 -521637461.05142212 -38704667.805801392 0 -38704667.805801392 -650760022.8843689 0 0 0 0 -492632359.92098618 -287493769.87368774 0 -287493769.87368774 -483929480.54730225 0 0 0 0 -658754879.76283264 -99143384.675827026 0 -99143384.675827026 -649019926.94012451 0 0 0 0 590103193.73925781 -441951378.74394226 0 -441951378.74394226 -680570830.63508606 0 0 0 0 548767887.41834259 -282011829.76114655 0 -282011829.76114655 -739943959.5055542 0 0 0 0 189665890.08053589 -502344081.01717377 0 -502344081.01717377 -664036327.57615662 0 0 0 0 540952206.03375244 -704476185.92494965 0 -704476185.92494965 -481770318.58912277 0 0 0 0 -283672264.24209595 -668127617.28988838 0 -668127617.28988838 -444704259.57575989 0 0 0 0 1493587790.3299561 -489539317.32163239 0 -489539317.32163239 -813421246.22785187 0 0 0 0 1110394718.4035645 561250738.60373688 0 561250738.60373688 -1838884011.939702 0 0 0 0 483298493.63730621 39483.799728393555 0 39483.799728393555 -376568172.44416809 0 0 0 0 389617530.35897827 536099022.19020081 0 536099022.19020081 -468173106.56988525 0 0 0 0 490748294.23681641 -235149932.78068542 0 -235149932.78068542 -704896342.21463013 0 0 0 0 332075397.29117393 -143029018.37248945 0 -143029018.37248945 -194065091.9679718 0 0 0 0 554498225.3122406 -100266786.59772491 0 -100266786.59772491 -420559584.39431763 0 0 0 0 323356986.68912506 -220704743.25297356 0 -220704743.25297356 -166962253.418396 0 0 0 0 367865532.22201538 -281826515.8123703 0 -281826515.8123703 -364427640.43530273 0 0 0 0 209458703.46485901 64231242.16116333 0 64231242.16116333 -89389008.989700317 0 0 0 0 420343058.53063965 39057309.775680542 0 39057309.775680542 -180136567.65701294 0 0 0 0 190628326.19177246 128726532.00376892 0 128726532.00376892 175822784.54899597 0 0 0 0 246666248.81411743 493595967.64953613 0 493595967.64953613 466615483.41935158 0 0 0 0 -2173745.4959791452 5141870.6110213362 0 5141870.6110213362 340800.62933159992 0 0 0 0 468860511.33340454 788479725.14709473 0 788479725.14709473 -1795615958.8867111 0 0 0 0 205089837.18643236 302440307.42538238 0 302440307.42538238 -782317369.62518311 0 0 0 0 -156667049.5774231 408530310.68994904 0 408530310.68994904 300018181.70456123 0 0 0 0 -155704387.39950562 406984083.9786911 0 406984083.9786911 -591924998.46025848 0 0 0 0 1719167998.8177032 -1980259386.3579941 0 -1980259386.3579941 919142640.64523315 0 0 0 0 3459706653.8777771 -842904496.75692749 0 -842904496.75692749 -1719251102.6080694 0 0 0 0 485450283.20388794 1934469190.7813568 0 1934469190.7813568 -9578262.4639434814 0 0 0 0 960166.04562101513 4961411.5810485259 0 4961411.5810485259 2094992.4806415737 0 0 0 0 3369585959.5893402 436076124.02363586 0 436076124.02363586 -461987764.32398987 0 0 0 0 925845263.36740112 371244017.26229095 0 371244017.26229095 2121650089.4436493 0 0 0 0 1849758897.934082 -365363667.35696411 0 -365363667.35696411 -630331292.1594696 0 0 0 0 3162402499.3282547 -1616963783.1671915 0 -1616963783.1671915 240913288.49604797 0 0 0 0 1440996711.5773926 -465238178.22186279 0 -465238178.22186279 -40926427.31978035 0 0 0 0 2108406954.7838669 -44003677.915805817 0 -44003677.915805817 -917176262.16375732 0 0 0 0 882587336.18319702 441665604.8470459 0 441665604.8470459 -674303829.92837524 0 0 0 0 777526076.49829102 47248149.508163452 0 47248149.508163452 22493812.290031433 0 0 0 0 9992766.4722499847 125824803.4784658 0 125824803.4784658 -361881866.28088379 0 0 0 0 3373712.8318846002 15022190.788620375 0 15022190.788620375 3966118.6360054463 0 0 0 0 1445081788.9928589 395454737.40008545 0 395454737.40008545 -15360837.556106091 0 0 0 0 -6003865.3819567338 18696142.892219786 0 18696142.892219786 -8710330.0949335247 0 0 0 0 -6578861103.3632202 4167372834.722641 0 4167372834.722641 -667296462.20370483 0 0 0 0 1445432533.8003845 243500607.73423004 0 243500607.73423004 -476696617.03837585 0 0 0 0 940212214.87879944 636559689.97322845 0 636559689.97322845 -774681194.64118958 0 0 0 0 -3213565.254531756 7173750.616152117 0 7173750.616152117 -4364931.2221507132 0 0 0 0 191709932.54818726 449852148.75165558 0 449852148.75165558 832559049.48600769 0 0 0 0 4369967501.8145752 -963513897.3577137 0 -963513897.3577137 1370787455.68927 0 0 0 0 -5114071.7956181169 7265462.1249094494 0 7265462.1249094494 -7459523.5772301331 0 0 0 0 -6063435650.5777893 -513982453.56201935 0 -513982453.56201935 2059506027.7557068 0 0 0 0 -6081859374.0391235 2102502811.9959908 0 2102502811.9959908 238128763.26220703 0 0 0 0 -4861993163.1137085 1333070503.3911438 0 1333070503.3911438 -29173784.131286621 0 0 0 0 -2931303573.5152283 2995584393.6389542 0 2995584393.6389542 -2713061872.1947784 0 0 0 0 -2149772802.0030975 598491584.83029938 0 598491584.83029938 -76248453.809776306 0 0 0 0 -2520653561.9980774 1731346016.3810349 0 1731346016.3810349 188106756.37252045 0 0 0 0 -2529933534.9114342 686654835.86189461 0 686654835.86189461 652544645.15368652 0 0 0 0 -815990566.24440002 1914790978.1813431 0 1914790978.1813431 -383982485.54846954 0 0 0 0 -898380834.18403625 2147218001.4339371 0 2147218001.4339371 947028785.41828918 0 0 0 0 -856105585.34080887 2112641482.1187172 0 2112641482.1187172 -953373557.33435059 0 0 0 0 -1936719218.421936 1645757797.1747284 0 1645757797.1747284 90972437.363235474 0 0 0 0 -629426792.01574707 1387088426.9012299 0 1387088426.9012299 -125749120.66253662 0 0 0 0 570261131.64904785 351232457.45391846 0 351232457.45391846 -536208785.09618759 0 0 0 0 116397325.503685 1158760669.9142342 0 1158760669.9142342 -1422638269.5892334 0 0 0 0 -725516272.23028564 1049926007.9572754 0 1049926007.9572754 -1047004800.0192261 0 0 0 0 -3767259951.8602295 3287761214.8850098 0 3287761214.8850098 -1379170811.3260956 0 0 0 0 -942767265.8270874 1917195810.1845245 0 1917195810.1845245 -4144443668.5020142 0 0 0 0 -5275460587.4903259 1508542448.1397591 0 1508542448.1397591 940520430.01351929 0 0 0 0 -5077794280.6533279 610385778.24663925 0 610385778.24663925 -536568138.64894104 0 0 0 0 -2058138001.710495 -761846222.74365234 0 -761846222.74365234 -2669689786.81427 0 0 0 0 939564819.01052856 670234859.18371582 0 670234859.18371582 -1835930575.5223846 0 0 0 0 -748379341.29725647 606689492.63700104 0 606689492.63700104 -1253961587.5269775 0 0 0 0 799056094.75512695 753565642.21694946 0 753565642.21694946 -305408496.48519516 0 0 0 0 -300460319.70219421 -97839660.710231781 0 -97839660.710231781 -851495024.82278442 0 0 0 0 328527306.32397461 -763046434.93080139 0 -763046434.93080139 111353947.17488098 0 0 0 0 -442218993.69682312 120176856.33364487 0 120176856.33364487 -62527085.724258423 0 0 0 0 -1983245060.40979 -690235519.6760788 0 -690235519.6760788 -330226613.46681213 0 0 0 0 -866431904.71582031 -675410576.59531403 0 -675410576.59531403 172031358.4085083 0 0 0 0 569245380.99194336 -626333643.49433899 0 -626333643.49433899 -663704527.57829285 0 0 0 0 -1952111444.6620636 599756646.55682373 0 599756646.55682373 -255729955.7868042 0 0 0 0 -2278238327.5121307 973518935.44216251 0 973518935.44216251 -522698778.12550354 0 0 0 0 -1344242156.6942673 545658050.28232574 0 545658050.28232574 -685364329.30854797 0 0 0 0 -2483938834.1228333 1728538166.8621063 0 1728538166.8621063 -988596070.41757202 0 0 0 0 -2365751487.0171204 1786908609.918457 0 1786908609.918457 -1074128057.0014725 0 0 0 0 -2301417711.0055542 1756866255.8669357 0 1756866255.8669357 -1060121182.3364563 0 0 0 0 -822618109.79846954 1005454408.9212112 0 1005454408.9212112 -1377539976.2822723 0 0 0 0 1562566848.3663292 720458858.00408363 0 720458858.00408363 161465161.22013855 0 0 0 0 -3696524.0128220208 6985100.637187168 0 6985100.637187168 -14730450.09242215 0 0 0 0 -2163710233.9194031 2371023376.4458504 0 2371023376.4458504 -2642933162.3686523 0 0 0 0 -2643496291.4708252 -1077477951.6559048 0 -1077477951.6559048 -441858968.63845062 0 0 0 0 -7780215.470230639 8039982.2188063562 0 8039982.2188063562 -770359.66688556969 0 0 0 0 -12253063.358791135 26323185.759084389 0 26323185.759084389 3560880.3346111923 0 0 0 0 -2108920.1268692017 23017848.451833725 0 23017848.451833725 12720207.995903015 0 0 0 0 34385308.153457642 17273369.409370422 0 17273369.409370422 -25690893.053657532 0 0 0 0 1421265.0748425871 1548238.3842456192 0 1548238.3842456192 4062120.2792072445 0 0 0 0 -2119766550.7883739 -173835820.06521904 0 -173835820.06521904 -3236517.9686584473 0 0 0 0 -10743548.910232782 25596376.762215734 0 25596376.762215734 24158153.592956543 0 0 0 0 -16948719.344747715 26807526.966493148 0 26807526.966493148 -129728.57112948596 0 0 0 0 -10516712.162597656 20781003.817043304 0 20781003.817043304 14989751.986976624 0 0 0 0 -7720142.6295623779 485353508.2694931 0 485353508.2694931 358597185.28408051 0 0 0 0 -5775064.1460723877 24881908.492298126 0 24881908.492298126 18194994.442893982 0 0 0 0 -7132648.053546451 27905987.673870407 0 27905987.673870407 -7737497.5320918653 0 0 0 0 -296434523.46405029 123846089.58959961 0 123846089.58959961 840597545.03639221 0 0 0 0 -14433523.430625916 426775947.23246002 0 426775947.23246002 1156949981.6319733 0 0 0 0 -1726772425.0412903 650805309.88962555 0 650805309.88962555 1131787253.1828079 0 0 0 0 -716462645.31691742 -233887038.77285385 0 -233887038.77285385 374695337.74163818 0 0 0 0 64442368.91456604 1629285201.4165649 0 1629285201.4165649 393984207.77090454 0 0 0 0 -2673235844.9011383 1567249247.1165695 0 1567249247.1165695 437898829.33907604 0 0 0 0 -3483543595.8697853 -1303850931.2395048 0 -1303850931.2395048 -6886210.4848022461 0 0 0 0 -2522158003.6413727 3593654016.3432083 0 3593654016.3432083 -5029726798.9275665 0 0 0 0 -7600689082.2103691 229945642.7843132 0 229945642.7843132 8447870.9061889648 0 0 0 0 1408682.6191516295 6575382.2864618571 0 6575382.2864618571 -11105154.978978746 0 0 0 0 -6691234470.9954548 3277490473.5023613 0 3277490473.5023613 -1234141551.5678406 0 0 0 0 -3319969363.6391144 -560329489.82879639 0 -560329489.82879639 -12836615.328109741 0 0 0 0 -2997093724.8319244 1966704828.5464554 0 1966704828.5464554 -855558922.25050354 0 0 0 0 -4500117664.0996552 1564777496.9866943 0 1564777496.9866943 203206087.5345459 0 0 0 0 2260121473.5889816 214427363.35456467 0 214427363.35456467 -4037473582.0090942 0 0 0 0 -696796820.29852295 -1772798.7073173523 0 -1772798.7073173523 744002013.17617798 0 0 0 0 -2618186.8670989424 -928341.39531251043 0 -928341.39531251043 -4598350.9572134316 0 0 0 0 4928906145.0020828 657496702.68592453 0 657496702.68592453 -4947838421.7127914 0 0 0 0 57127794.786071777 1242732785.636261 0 1242732785.636261 -4420032412.235817 0 0 0 0 -3939186964.3265381 3645643879.2157383 0 3645643879.2157383 -2516584251.342926 0 0 0 0 -926682996.81988525 833848276.13154602 0 833848276.13154602 -1850552006.5491562 0 0 0 0 -2371235477.545311 1674281424.3486137 0 1674281424.3486137 -962502154.04164124 0 0 0 0 -559563286.42425537 161591566.30284119 0 161591566.30284119 -1038704920.5539398 0 0 0 0 -926512620.39543152 55586197.031776428 0 55586197.031776428 -1054605998.0621796 0 0 0 0 -746559005.26704407 -382126199.47362709 0 -382126199.47362709 -120405680.90615845 0 0 0 0 -754839965.87283325 -226888493.00908661 0 -226888493.00908661 -254965186.60223389 0 0 0 0 51440482.563552856 -501865823.21271515 0 -501865823.21271515 -2683024897.676178 0 0 0 0 -1226956379.8936005 954083391.03695679 0 954083391.03695679 -1701491359.7425232 0 0 0 0 -523694906.07107544 -202678408.79698944 0 -202678408.79698944 -1176666882.4658623 0 0 0 0 -867465732.31929016 -139679878.24506378 0 -139679878.24506378 216031149.11709595 0 0 0 0 -926568641.77674866 136786074.08090973 0 136786074.08090973 275116016.63171387 0 0 0 0 13692707.375640869 212915769.63967896 0 212915769.63967896 116836852.29602051 0 0 0 0 51590019.303482056 -102925710.97013092 0 -102925710.97013092 1115637356.9546967 0 0 0 0 -570710492.90955734 -13858154.226234436 0 -13858154.226234436 473858806.18792725 0 0 0 0 -685353028.93997192 334422437.67783356 0 334422437.67783356 1100660129.0027618 0 0 0 0 -129037460.98406982 505113438.19816589 0 505113438.19816589 773419453.92018127 0 0 0 0 -317851922.64694214 303996202.90740967 0 303996202.90740967 681125941.37068176 0 0 0 0 -331819922.10427856 528276486.52082825 0 528276486.52082825 895591219.8800354 0 0 0 0 -248191219.89329529 872961709.61236954 0 872961709.61236954 1657889898.5096436 0 0 0 0 830285228.14704895 1191058711.2286911 0 1191058711.2286911 842494287.96046448 0 0 0 0 -368064641.85403442 -293247027.19790649 0 -293247027.19790649 -60675428.606002808 0 0 0 0 -669965392.38969421 -50658652.766414642 0 -50658652.766414642 374683926.1750946 0 0 0 0 -658754527.05361938 139256685.19795227 0 139256685.19795227 317781733.68042374 0 0 0 0 -488805716.50576782 -89632015.789031982 0 -89632015.789031982 -57443348.383098602 0 0 0 0 -565703999.57370758 61347014.671310425 0 61347014.671310425 645805047.98687744 0 0 0 0 -485483122.91018677 315853234.92765808 0 315853234.92765808 767161478.25130463 0 0 0 0 -339825597.38607788 -22042778.418945312 0 -22042778.418945312 363060902.87128448 0 0 0 0 -364571572.55043793 38717290.622848511 0 38717290.622848511 557675923.2479248 0 0 0 0 49473202.954914704 44286956.698126182 0 44286956.698126182 -2609655.5318108983 0 0 0 0 -118038427.34509277 149161396.92288208 0 149161396.92288208 724900203.45174026 0 0 0 0 -90874148.063476562 315530971.57562256 0 315530971.57562256 -86054783.624816895 0 0 0 0 -97256544.165100098 97257211.988327026 0 97257211.988327026 718910610.01355171 0 0 0 0 -197239809.19558716 153238129.8001709 0 153238129.8001709 731036716.19250488 0 0 0 0 -79523075.987579346 51085563.08430481 0 51085563.08430481 639502604.26708984 0 0 0 0 -100261201.25487518 82639535.111927986 0 82639535.111927986 624245665.78643799 0 0 0 0 -204028266.40338135 3729393.0490264893 0 3729393.0490264893 565207311.87173462 0 0 0 0 -352140231.08917236 127882892.5107193 0 127882892.5107193 702304065.83087158 0 0 0 0 -197651634.36077881 126430115.87442017 0 126430115.87442017 741771664.92959595 0 0 0 0 -202241181.66650391 139040264.53804016 0 139040264.53804016 703132080.40380859 0 0 0 0 -185925064.30236816 159662891.08615112 0 159662891.08615112 727525071.55725098 0 0 0 0 -237385606.96633911 221723774.41481781 0 221723774.41481781 707702973.38360596 0 0 0 0 -145177671.9609375 205029949.7902832 0 205029949.7902832 710481404.76598358 0 0 0 0 -256602617.00854492 156980402.86273193 0 156980402.86273193 729689118.70610046 0 0 0 0 -279112364.52331543 201041464.93728638 0 201041464.93728638 684555245.25699615 0 0 0 0 -290459420.03536987 200260534.92536926 0 200260534.92536926 702999825.21969604 0 0 0 0 -263093539.48861694 360580155.43424892 0 360580155.43424892 720518917.22174072 0 0 0 0 -112528968.00805664 210946333.08067322 0 210946333.08067322 606344100.35998535 0 0 0 0 -100049019.28738403 272078677.28391266 0 272078677.28391266 589794031.50131226 0 0 0 0 -160231425.06201172 229839633.40037537 0 229839633.40037537 669607578.16699219 0 0 0 0 -104203759.95422363 185727068.16267395 0 185727068.16267395 655134176.39385986 0 0 0 0 -150458119.6973877 146434744.5241394 0 146434744.5241394 729030690.69332886 0 0 0 0 -218780108.3972168 176083328.13566589 0 176083328.13566589 726365295.2975769 0 0 0 0 10934323.498413086 149066431.14065552 0 149066431.14065552 721636704.32914734 0 0 0 0 150187149.4500885 94500877.054725647 0 94500877.054725647 153271504.29293823 0 0 0 0 441979265.64579773 66101305.679654121 0 66101305.679654121 -32771449.720031738 0 0 0 0 111992040.09369659 328974620.13186264 0 328974620.13186264 282633075.43585205 0 0 0 0 362540434.13400269 482878282.10346985 0 482878282.10346985 371525938.34187317 0 0 0 0 99648371.357910156 580645295.24278259 0 580645295.24278259 336792262.8460083 0 0 0 0 85689690.037658691 599768496.6708374 0 599768496.6708374 651006856.25367737 0 0 0 0 -95585010.345550537 338763365.61029053 0 338763365.61029053 631381034.06436157 0 0 0 0 -88508836.321868896 440117776.7164917 0 440117776.7164917 516538828.02915955 0 0 0 0 97506546.450977325 398151137.79727173 0 398151137.79727173 487541173.91259766 0 0 0 0 28180793.721923828 287384881.34512329 0 287384881.34512329 407219952.64736938 0 0 0 0 55241584.552429199 25347213.184967041 0 25347213.184967041 543245985.43580627 0 0 0 0 73350260.796813965 258037918.39599609 0 258037918.39599609 423296860.46089172 0 0 0 0 4813838.3000488281 240014104.31387329 0 240014104.31387329 599499659.8427124 0 0 0 0 -4488824.4813232422 274471961.97286987 0 274471961.97286987 508812428.50549316 0 0 0 0 -20789785.357971191 154625792.50875854 0 154625792.50875854 626201981.18439484 0 0 0 0 65522261.545410156 157936660.48171997 0 157936660.48171997 499635930.00271416 0 0 0 0 81204735.980438232 251207214.16760254 0 251207214.16760254 314047593.86297607 0 0 0 0 117011119.94848633 36151350.113433838 0 36151350.113433838 394074748.28491211 0 0 0 0 116783103.85638428 43817587.713043213 0 43817587.713043213 163104765.15042114 0 0 0 0 57388044.582885742 196178426.8433075 0 196178426.8433075 320284256.62030029 0 0 0 0 161564018.4990387 227920562.26898193 0 227920562.26898193 81700192.468475342 0 0 0 0 51204825.240463257 221531181.64274597 0 221531181.64274597 321921983.4598999 0 0 0 0 22924523.693995047 22420383.669161823 0 22420383.669161823 -27218289.546664141 0 0 0 0 806746511.77820587 102365669.80380249 0 102365669.80380249 -294763962.74057007 0 0 0 0 8858598.6434383653 23451456.648007121 0 23451456.648007121 -13216699.794834793 0 0 0 0 410638894.27233124 43351082.365447998 0 43351082.365447998 -64210172.779022217 0 0 0 0 -2544336988.0975189 1004121573.4268951 0 1004121573.4268951 -18701045.030456543 0 0 0 0 825462204.52848911 -191414985.43875551 0 -191414985.43875551 -205066430.58837891 0 0 0 0 -2229274995.8181763 1181159584.5592804 0 1181159584.5592804 -18398193.035339355 0 0 0 0 3171819.4658873584 4669986.7045156844 0 4669986.7045156844 -2015268.1045354903 0 0 0 0 -2509158861.3382263 1110799128.9099426 0 1110799128.9099426 -20733792.755542755 0 0 0 0 -2715029421.0418396 1040656273.001709 0 1040656273.001709 345859188.40200806 0 0 0 0 -723530130.84713364 -34395806.31288147 0 -34395806.31288147 -477606908.92044067 0 0 0 0 -2468286190.8660278 1010141162.2331085 0 1010141162.2331085 13754039.184616089 0 0 0 0 5708433.4726968296 20671648.759403184 0 20671648.759403184 -26962972.825834751 0 0 0 0 -697587337.39117432 112867566.75331879 0 112867566.75331879 333264523.6937561 0 0 0 0 1220847996.9689636 1214108403.3270073 0 1214108403.3270073 1088936101.7293701 0 0 0 0 830301879.07948303 1669669759.3258209 0 1669669759.3258209 568304716.41576195 0 0 0 0 1541798524.8337708 509326753.52282715 0 509326753.52282715 -121846985.94599152 0 0 0 0 4824560.2436739951 7207447.9966171682 0 7207447.9966171682 -5265497.2081184238 0 0 0 0 10213957.959861755 30116641.049800873 0 30116641.049800873 -18270266.548461914 0 0 0 0 11332244.594039917 35818026.043067932 0 35818026.043067932 -12620130.719451904 0 0 0 0 13581897.289703369 24216613.370651245 0 24216613.370651245 -8656951.1357421875 0 0 0 0 15670078.745239258 27177878.690044403 0 27177878.690044403 -30840627.53729248 0 0 0 0 10785168.691589355 49860502.894897461 0 49860502.894897461 -49178077.255554199 0 0 0 0 12308095.462219238 37471979.35610199 0 37471979.35610199 -9836432.8363342285 0 0 0 0 15637466.629760742 27728171.611938477 0 27728171.611938477 -30218750.246734619 0 0 0 0 381989101.2538085 138225261.09791374 0 138225261.09791374 361134680.98220825 0 0 0 0 13206509.401401374 25053990.006517477 0 25053990.006517477 -12742640.719885945 0 0 0 0 493125630.15460205 126657062.30309868 0 126657062.30309868 -203423843.61657715 0 0 0 0 493161273.25453186 116065040.79621887 0 116065040.79621887 -2561024.4950790405 0 0 0 0 6099203.9906444922 8640722.6739621162 0 8640722.6739621162 -3257704.4876067936 0 0 0 0 358352814.5989033 -719097193.88887358 0 -719097193.88887358 334016227.40679932 0 0 0 0 -3793931.5949982107 7084231.0801233426 0 7084231.0801233426 1205028.4977423362 0 0 0 0 -1983509388.5345383 707198410.48655701 0 707198410.48655701 -490636635.3760376 0 0 0 0 443048436.76351166 -275558731.70848083 0 -275558731.70848083 60351234.515655518 0 0 0 0 208285.15711975098 18959590.255626678 0 18959590.255626678 -2593101.2565917969 0 0 0 0 6721442.8939666748 13928639.234237671 0 13928639.234237671 8795922.1259460449 0 0 0 0 1822412.7532610372 20044159.004089512 0 20044159.004089512 -4788991.991197858 0 0 0 0 12708550.95123291 11341620.724472046 0 11341620.724472046 -7709494.5305786133 0 0 0 0 -15751392.263587952 -232635.40714263916 0 -232635.40714263916 22846267.124908447 0 0 0 0 -7996576.8172466233 32932304.653120346 0 32932304.653120346 -917068.22230918705 0 0 0 0 -6539422.875044778 52219790.539517015 0 52219790.539517015 18824467.861469436 0 0 0 0 217051095.25662231 136953810.22177887 0 136953810.22177887 -326834421.61364746 0 0 0 0 7254713.940246582 100846887.5398407 0 100846887.5398407 -100365697.16701794 0 0 0 0 -8636039.4768981934 60444523.570648193 0 60444523.570648193 -43526284.866348267 0 0 0 0 -13659681.174072266 119476159.81355286 0 119476159.81355286 -18516801.927185059 0 0 0 0 -14468493.911148071 46256893.267219543 0 46256893.267219543 7723578.1475219727 0 0 0 0 39442251.252319336 80119308.073532104 0 80119308.073532104 1873752.2792282104 0 0 0 0 -1355606.3793120421 3739202.8278119639 0 3739202.8278119639 2870367.9711985886 0 0 0 0 15201695.608627319 19205306.980213165 0 19205306.980213165 -33768440.89666748 0 0 0 0 -38587576.422470093 133917156.63368225 0 133917156.63368225 5956406.5999145508 0 0 0 0 -116270219.34927368 -72686428.725128174 0 -72686428.725128174 12367635.092117786 0 0 0 0 -74666266.375946045 101131911.99563599 0 101131911.99563599 -49171590.118057251 0 0 0 0 12694320.861053467 41284184.394897461 0 41284184.394897461 -62982592.485015869 0 0 0 0 -15821550.284759521 47197186.51739502 0 47197186.51739502 40055.514739990234 0 0 0 0 -15650956.246185303 25980958.071090698 0 25980958.071090698 50902041.098007202 0 0 0 0 16169560.999649048 27984466.818634033 0 27984466.818634033 5469130.2814331055 0 0 0 0 82295680.96710968 13842912.77878952 0 13842912.77878952 6229363.3964004517 0 0 0 0 -50200910.578598022 66656228.307815552 0 66656228.307815552 42744206.488174438 0 0 0 0 -28786343.904841021 35959552.183727838 0 35959552.183727838 7203680.0411282778 0 0 0 0 -1264971.5394758806 29376733.212948523 0 29376733.212948523 -10172806.011582661 0 0 0 0 -9960807.5142822266 47673826.025421143 0 47673826.025421143 7576073.5341835022 0 0 0 0 -9658557.5305786133 44446563.796737671 0 44446563.796737671 30586222.932876587 0 0 0 0 -10224886.45841217 38400988.240821838 0 38400988.240821838 23313352.125061035 0 0 0 0 -13476134.073303223 49968813.115020752 0 49968813.115020752 28629295.25213623 0 0 0 0 -3848124.7157592773 40858206.331031799 0 40858206.331031799 12716316.302383423 0 0 0 0 -10150769.896411315 24711739.516155064 0 24711739.516155064 -1703021.1835944913 0 0 0 0 2572807.6106567383 51244881.136932373 0 51244881.136932373 -9893893.8887329102 0 0 0 0 1000945061.4680252 -491055376.92360687 0 -491055376.92360687 -309862925.91629028 0 0 0 0 16102529.901615296 23165823.164811142 0 23165823.164811142 -17963487.300619885 0 0 0 0 -11227133.78237915 20005214.397445679 0 20005214.397445679 -7294981.3591003418 0 0 0 0 -96348872.897994995 40080555.952667236 0 40080555.952667236 31414144.719055176 0 0 0 0 -40963362.965339661 68889412.244338989 0 68889412.244338989 45508466.954528809 0 0 0 0 -17433473.483123779 21297386.130371094 0 21297386.130371094 57139679.498840332 0 0 0 0 -5578208.7925518248 22547845.681008764 0 22547845.681008764 11851811.002112195 0 0 0 0 9139724.1003417969 58796739.025527954 0 58796739.025527954 22863075.953857422 0 0 0 0 -4228916.0594177246 60485964.730163574 0 60485964.730163574 40579164.131622314 0 0 0 0 -1185678.9143945575 -2185416.2892690301 0 -2185416.2892690301 1230966.2686350197 0 0 0 0 18612999.466281891 37548498.937374115 0 37548498.937374115 101594.33166503906 0 0 0 0 3258759.112991333 49534727.761199951 0 49534727.761199951 9140676.257019043 0 0 0 0 -22183317.363708496 43113741.366928101 0 43113741.366928101 8258440.5143356323 0 0 0 0 -4687451.0166931152 20951493.729415894 0 20951493.729415894 -11671159.249633789 0 0 0 0 -18764943.291625977 51259735.644897461 0 51259735.644897461 17860842.734802246 0 0 0 0 -13547167.103156328 54846231.39018333 0 54846231.39018333 18815187.76385498 0 0 0 0 -12580091.669418335 49234747.887748718 0 49234747.887748718 225559.24676513672 0 0 0 0 -19814745.367340088 49842325.866912842 0 49842325.866912842 6869065.1375732422 0 0 0 0 -28440427.879600525 37229304.850608826 0 37229304.850608826 -474030.53338623047 0 0 0 0 -79582953.043457031 31497495.189811707 0 31497495.189811707 3089636.3291625977 0 0 0 0 -58959071.448852539 11827229.041381836 0 11827229.041381836 -3086148.686416626 0 0 0 0 -30633575.030151367 40005733.883926392 0 40005733.883926392 -3749448.206451416 0 0 0 0 -54202945.916290283 25877460.784103394 0 25877460.784103394 -3475815.3538417816 0 0 0 0 -54522328.66242981 28002019.056583405 0 28002019.056583405 -14364665.944030762 0 0 0 0 -33035450.446662903 41756331.325050354 0 41756331.325050354 -3129064.7772827148 0 0 0 0 -23569460.517204285 34267496.914840698 0 34267496.914840698 -1553201.153717041 0 0 0 0 -26778587.76348877 42079054.789489746 0 42079054.789489746 9840.1918586158445 0 0 0 0 -52855719.510936737 22877699.181983948 0 22877699.181983948 -6545021.0964660645 0 0 0 0 -66251434.102401733 38171799.487277985 0 38171799.487277985 -24064.454147338867 0 0 0 0 -2492064.2877883911 42574165.646656036 0 42574165.646656036 -43471.682205200195 0 0 0 0 -13124036.342582703 32490293.893871307 0 32490293.893871307 -737953.52549743652 0 0 0 0 -14656348.735397339 48294872.474914551 0 48294872.474914551 6410926.2144165039 0 0 0 0 1940060.5958156586 38022304.881544113 0 38022304.881544113 26405190.208648682 0 0 0 0 443436.07557678223 44578809.834350586 0 44578809.834350586 4050943.1514892578 0 0 0 0 -14095138.64894104 52632481.494861603 0 52632481.494861603 19962464.443145752 0 0 0 0 -13825081.068832397 48983218.950454712 0 48983218.950454712 5827059.1911010742 0 0 0 0 -811102.25329589844 54144450.215835571 0 54144450.215835571 11903412.941375732 0 0 0 0 -83843970.215400696 12630710.324531555 0 12630710.324531555 91942605.239578247 0 0 0 0 2119286.1358070374 60074721.439311981 0 60074721.439311981 21757600.507781982 0 0 0 0 -13877717.619979419 9412298.4628311656 0 9412298.4628311656 9967222.080718115 0 0 0 0 -38019506.180557251 13504407.234313965 0 13504407.234313965 9897324.4209251404 0 0 0 0 -748974.35156293586 -335421.22760922275 0 -335421.22760922275 -331079.84987859428 0 0 0 0 -219129963.31826019 -14115833.98317337 0 -14115833.98317337 32639276.919708252 0 0 0 0 70349534.684646606 74049290.595211029 0 74049290.595211029 1287029.3141479492 0 0 0 0 -92530531.975601196 40025516.279514313 0 40025516.279514313 37546.888900756836 0 0 0 0 -44686571.756896973 77244434.213043213 0 77244434.213043213 4058540.2736663818 0 0 0 0 -64457129.131998062 50550371.702191353 0 50550371.702191353 -15069.702606201172 0 0 0 0 -69706081.690795898 33462967.403144836 0 33462967.403144836 -22844212.1222229 0 0 0 0 -79011462.394874573 51904364.018547058 0 51904364.018547058 16681085.729415894 0 0 0 0 -88484560.236923218 77947796.537368774 0 77947796.537368774 -32338469.710071564 0 0 0 0 -30275319.550354004 53287461.096908569 0 53287461.096908569 -21317936.459182739 0 0 0 0 -26226054.848304749 74704037.718604088 0 74704037.718604088 27669467.590576172 0 0 0 0 -25543303.615966797 46935391.898376465 0 46935391.898376465 7549262.1613464355 0 0 0 0 -78276683.641571045 65762283.896316528 0 65762283.896316528 118137605.73008728 0 0 0 0 32516575.087310791 241452350.92604637 0 241452350.92604637 339892041.65504456 0 0 0 0 1303439.4289690554 -1106.7813298106194 0 -1106.7813298106194 -727354.51805633307 0 0 0 0 146960389.51734781 204081860.72280717 0 204081860.72280717 -232601544.52264404 0 0 0 0 141791142.70904541 352304172.31506348 0 352304172.31506348 76054830.4947052 0 0 0 0 -54356481.394546509 128940991.4187851 0 128940991.4187851 276641982.2832489 0 0 0 0 124754804.06130981 110980600.05038261 0 110980600.05038261 137826339.59828186 0 0 0 0 -43862197.508274078 24422178.974713989 0 24422178.974713989 -4548432.2070398852 0 0 0 0 -47724001.755850196 34359098.434232697 0 34359098.434232697 -3356564.9458848182 0 0 0 0 -22269483.829071045 84116683.284484863 0 84116683.284484863 39430958.641490936 0 0 0 0 -53723523.883071899 94488055.442199707 0 94488055.442199707 59571515.280670166 0 0 0 0 56462002.722557068 191192533.45884705 0 191192533.45884705 -35478925.251098633 0 0 0 0 57248040.525222778 186476856.38516617 0 186476856.38516617 -8477104.354095459 0 0 0 0 91626659.963806152 151878095.80273438 0 151878095.80273438 -19429309.09834671 0 0 0 0 52876709.611480713 159194914.09197998 0 159194914.09197998 -43625152.13079834 0 0 0 0 8968879.3648681641 146863619.98498535 0 146863619.98498535 85653877.476287842 0 0 0 0 11138060.796661377 84891582.185371399 0 84891582.185371399 8315260.3637695312 0 0 0 0 115599534.22705078 72980048.254272461 0 72980048.254272461 -39567487.731781006 0 0 0 0 149805579.9274292 83096923.520324707 0 83096923.520324707 -36664707.31137085 0 0 0 0 92097032.968048096 146443041.40272903 0 146443041.40272903 -40167410.930023193 0 0 0 0 205960826.52067566 136291785.32595062 0 136291785.32595062 -45132589.33770752 0 0 0 0 120651553.81976318 148201188.44537354 0 148201188.44537354 -9565373.7480316162 0 0 0 0 250438934.17224121 111788913.27728271 0 111788913.27728271 -76011757.352584839 0 0 0 0 307272461.70080566 140222875.5085144 0 140222875.5085144 -127147723.65612793 0 0 0 0 23109201.354141235 -11302961.093486786 0 -11302961.093486786 113961925.36962891 0 0 0 0 158267716.34487915 62286014.420333862 0 62286014.420333862 5940954.1350097656 0 0 0 0 555267824.23364258 -56690444.230239868 0 -56690444.230239868 -37588366.044128418 0 0 0 0 169688325.25598145 -407429824.00128174 0 -407429824.00128174 562977762.39666748 0 0 0 0 26272711.826660156 -40834719.532409668 0 -40834719.532409668 136567700.34249878 0 0 0 0 57660839.854614258 151106440.24004364 0 151106440.24004364 -72532719.855102539 0 0 0 0 69113814.51335144 177646719.88179016 0 177646719.88179016 -44681457.070526123 0 0 0 0 47829098.15020752 157196186.91915894 0 157196186.91915894 -31276333.47052002 0 0 0 0 115674063.52853394 167417343.61395264 0 167417343.61395264 -67249392.286376953 0 0 0 0 94638655.941955566 147213903.67684937 0 147213903.67684937 -57727079.343933105 0 0 0 0 85978472.768066406 172391980.43502808 0 172391980.43502808 -56648318.987915039 0 0 0 0 58041051.89855957 142151131.17514038 0 142151131.17514038 -54556556.750854492 0 0 0 0 23495806.174102783 123884031.89584351 0 123884031.89584351 -76761607.727783203 0 0 0 0 17984185.888549805 139881776.29621887 0 139881776.29621887 -58122613.777099609 0 0 0 0 44073000.866333008 156067406.29110718 0 156067406.29110718 -66855047.111373901 0 0 0 0 35208356.503570557 97181421.069633484 0 97181421.069633484 -135820484.97909546 0 0 0 0 39038110.677734375 126226184.00057983 0 126226184.00057983 -90856652.587738037 0 0 0 0 19771966.459075928 88157374.608119965 0 88157374.608119965 -116792874.85369873 0 0 0 0 70638336.815979004 136843770.23762512 0 136843770.23762512 -101168961.12136841 0 0 0 0 41902560.191741943 166352615.55168152 0 166352615.55168152 -48279266.709838867 0 0 0 0 28708555.132080078 89335764.554611206 0 89335764.554611206 -123879546.75158691 0 0 0 0 32507560.637084961 100465139.40209961 0 100465139.40209961 -139552564.04533386 0 0 0 0 4344427.6920890808 30049825.876102448 0 30049825.876102448 -180353620.19139099 0 0 0 0 29617061.989562988 69160877.369262695 0 69160877.369262695 -169274845.20375824 0 0 0 0 66449567.736854553 70609643.795944214 0 70609643.795944214 -240858398.30627441 0 0 0 0 159177095.27429199 189549480.63158798 0 189549480.63158798 -120484206.59284973 0 0 0 0 44620473.140777588 183437825.37489319 0 183437825.37489319 -25578170.716056824 0 0 0 0 2414947.7007460445 112022.43502396345 0 112022.43502396345 -1300644.5495662317 0 0 0 0 -77581640.779846191 313850003.81388092 0 313850003.81388092 -285279481.13448334 0 0 0 0 -86812837.246826172 104680014.32820129 0 104680014.32820129 -177191099.65706682 0 0 0 0 -43980442.874336243 153353493.92861748 0 153353493.92861748 -301645500.76739502 0 0 0 0 1450815.853354305 -49119.540795050561 0 -49119.540795050561 -938512.27326247096 0 0 0 0 155142721.99682617 305294900.11057281 0 305294900.11057281 -462775975.42880249 0 0 0 0 28423211.684036255 270140250.90304565 0 270140250.90304565 -36514239.803283691 0 0 0 0 -132949736.76452637 255693844.64878845 0 255693844.64878845 -32684640.574325562 0 0 0 0 -20161445.859466553 125509851.76065063 0 125509851.76065063 -394766673.77107239 0 0 0 0 -185937398.81707764 107807370.1830101 0 107807370.1830101 19470569.118469238 0 0 0 0 -118451651.87940356 219988410.51309779 0 219988410.51309779 130617683.64845276 0 0 0 0 -118102492.42977905 91423296.139457703 0 91423296.139457703 249875891.15538025 0 0 0 0 -231692832.40524292 120890854.40543365 0 120890854.40543365 422028246.39352417 0 0 0 0 -158809386.50650024 50305761.547241211 0 50305761.547241211 430013385.34402466 0 0 0 0 -138623448.81625366 -3392448.8905944824 0 -3392448.8905944824 530832506.22558594 0 0 0 0 -28959755.734771729 15017662.366592407 0 15017662.366592407 270495830.36708069 0 0 0 0 -73361709.707000732 158161892.26322937 0 158161892.26322937 412724389.9886322 0 0 0 0 -57574171.801849365 -803159.02912902832 0 -803159.02912902832 659352905.69474792 0 0 0 0 -20402972.180206299 160702821.67538452 0 160702821.67538452 394475547.40775299 0 0 0 0 -64532885.620452881 264532058.3146286 0 264532058.3146286 320427707.09320068 0 0 0 0 61309541.872009277 139312258.33399963 0 139312258.33399963 424449651.74976349 0 0 0 0 -169976192.2633667 125194563.96723938 0 125194563.96723938 424759573.95714951 0 0 0 0 -145145436.86639404 267153525.39915466 0 267153525.39915466 340060481.86193848 0 0 0 0 -190843241.27545166 53163229.122695923 0 53163229.122695923 175564728.58089447 0 0 0 0 -118690465.32540894 241527620.38197327 0 241527620.38197327 456439298.89159393 0 0 0 0 -37213393.564272299 21638056.693437144 0 21638056.693437144 -6681804.2842563875 0 0 0 0 -32804702.116043091 60508134.360733032 0 60508134.360733032 71534799.419448853 0 0 0 0 -19418105.536315918 47090348.519546509 0 47090348.519546509 10645811.302307129 0 0 0 0 -29031227.298660114 22181596.874118771 0 22181596.874118771 -10348401.457421593 0 0 0 0 -65314618.710983276 158235745.26400757 0 158235745.26400757 597291777.203125 0 0 0 0 -23372617.898880005 48630008.938621521 0 48630008.938621521 14114728.330322266 0 0 0 0 -16127834.908706665 57995839.351028442 0 57995839.351028442 13899997.782500744 0 0 0 0 -11191076.676635742 55983614.62184906 0 55983614.62184906 -4882291.0132446289 0 0 0 0 -30226765.043624878 49384115.546676636 0 49384115.546676636 1000283.3974189758 0 0 0 0 -5691901.9354858398 53964478.554885864 0 53964478.554885864 -1871448.7266540527 0 0 0 0 -15316961.682220459 52884105.003318787 0 52884105.003318787 -1970219.5866088867 0 0 0 0 -15255067.567375183 61396379.405944824 0 61396379.405944824 -6632.1487121582031 0 0 0 0 55144097.124992371 23460256.055557251 0 23460256.055557251 -18112191.29977417 0 0 0 0 -13172960.317142099 5265499.2414282262 0 5265499.2414282262 -1033777.28531304 0 0 0 0 -6470161.9979705811 53176567.199615479 0 53176567.199615479 -955248.65696716309 0 0 0 0 19753696.841217041 62734436.588867188 0 62734436.588867188 -8779.8671417236328 0 0 0 0 -7577931.0268707275 19300653.065872192 0 19300653.065872192 -18292801.100189209 0 0 0 0 -11766434.143554688 31115492.098937988 0 31115492.098937988 -8744575.2965202332 0 0 0 0 21751689.604370117 41471335.66569519 0 41471335.66569519 -10343270.018554688 0 0 0 0 -24553568.957339317 17234745.734490719 0 17234745.734490719 -7054456.875974901 0 0 0 0 -19534272.715255737 29805829.054656982 0 29805829.054656982 -7007421.1524658203 0 0 0 0 -51604377.216369629 101449318.37402344 0 101449318.37402344 -43492953.842254639 0 0 0 0 -13288341.340072632 47504373.169998169 0 47504373.169998169 8639809.3367767334 0 0 0 0 -50346583.879089355 -66939736.65234375 0 -66939736.65234375 473966389.91077423 0 0 0 0 24599958.051836014 300340983.95171452 0 300340983.95171452 787809392.67224121 0 0 0 0 -6098703.6371286809 -2517944.0103063583 0 -2517944.0103063583 6990704.9845007136 0 0 0 0 -87413497.334228516 94054697.769622803 0 94054697.769622803 517918765.28929901 0 0 0 0 1705466.4180932343 4374456.9316918924 0 4374456.9316918924 -3738596.2552488148 0 0 0 0 -100776327.08709717 130561223.30503845 0 130561223.30503845 450445588.70788574 0 0 0 0 -180918.5424118042 79944660.468330383 0 79944660.468330383 485335992.7434082 0 0 0 0 -89348451.956298828 89380190.02243042 0 89380190.02243042 527476374.27505302 0 0 0 0 -157320810.78720093 28758772.511749268 0 28758772.511749268 484247028.89395142 0 0 0 0 -155285245.99391174 40488466.401672363 0 40488466.401672363 397747210.23770142 0 0 0 0 -142965177.02639771 -47869721.318267822 0 -47869721.318267822 505217343.40171814 0 0 0 0 -140234511.59014893 -63641021.121627808 0 -63641021.121627808 361502188.65361023 0 0 0 0 -54608482.505462646 10598686.348693848 0 10598686.348693848 181893944.22094727 0 0 0 0 -11092710.498260498 -78881729.933776855 0 -78881729.933776855 345628416.49588013 0 0 0 0 -75569600.141906738 -2178285.2158813477 0 -2178285.2158813477 377462257.45386505 0 0 0 0 -90692943.102584839 106711642.13357544 0 106711642.13357544 125172024.4664917 0 0 0 0 46459430.626342773 -16743818.064697266 0 -16743818.064697266 132931788.36421204 0 0 0 0 132906071.82220459 -217457827.97964478 0 -217457827.97964478 249700171.30815887 0 0 0 0 -9837940.5045005679 1508429.0721524954 0 1508429.0721524954 -3780168.767140165 0 0 0 0 -7342768.9030456543 -8536321.6789550781 0 -8536321.6789550781 150876843.75946045 0 0 0 0 -21868541.085525513 7137991.7460708618 0 7137991.7460708618 -17285913.27255249 0 0 0 0 -60169265.404907227 35530936.611679077 0 35530936.611679077 6259510.358581543 0 0 0 0 -3615292.8748270422 9528459.3336374685 0 9528459.3336374685 -1173724.3193720728 0 0 0 0 -17932232.38863425 15205750.999764241 0 15205750.999764241 -8493471.8089345843 0 0 0 0 5739194.447052002 -59564783.588104248 0 -59564783.588104248 53055531.882456422 0 0 0 0 -15805902.242271423 13267546.098657608 0 13267546.098657608 -15050426.761871338 0 0 0 0 -8601989.3231506348 -56998695.89225769 0 -56998695.89225769 93344460.570709229 0 0 0 0 -11532500.394042969 -3806379.9130554199 0 -3806379.9130554199 52668259.616729736 0 0 0 0 -58423839.736955643 20191773.037812233 0 20191773.037812233 138540803.54650879 0 0 0 0 -17951994.15826416 -21916767.258087158 0 -21916767.258087158 184316943.40217781 0 0 0 0 -12416091.510162354 20100421.097015381 0 20100421.097015381 -11781335.44140625 0 0 0 0 -23152270.267425537 34003788.384941101 0 34003788.384941101 -6243500.3266601562 0 0 0 0 -13964969.794058755 7848496.6202942282 0 7848496.6202942282 -4068022.4226077199 0 0 0 0 -37787102.520729065 28982979.04265976 0 28982979.04265976 -3175260.6611022949 0 0 0 0 -3579902.2626037598 2833213.8039245605 0 2833213.8039245605 -865902.673828125 0 0 0 0 -10935305.731895924 13955622.153767794 0 13955622.153767794 -8739489.2021875903 0 0 0 0 -27040987.165557861 14896866.261581421 0 14896866.261581421 -23810120.457519531 0 0 0 0 -14016789.586486816 7281112.3108215332 0 7281112.3108215332 3085864.3868408203 0 0 0 0 -460292.35390992463 482847.59028804302 0 482847.59028804302 -314426.27283180505 0 0 0 0 -8687807.4982947111 4802373.6697021611 0 4802373.6697021611 -1706319.1393075734 0 0 0 0 -14954774.29498291 14781198.424743652 0 14781198.424743652 -4531915.9879150391 0 0 0 0 -6414031.3442993164 23040128.219970703 0 23040128.219970703 -7197340.4975891113 0 0 0 0 -11413249.855651855 12355627.154541016 0 12355627.154541016 -4123533.5252075195 0 0 0 0 -30606816.12097168 22218913.629455566 0 22218913.629455566 -3337604.5344238281 0 0 0 0 8889696.7356567383 9796161.1089172363 0 9796161.1089172363 -13524605.186340332 0 0 0 0 -11322320.220401324 4456140.2136851102 0 4456140.2136851102 -1586924.6095581651 0 0 0 0 -19057132.478820801 29611890.248718262 0 29611890.248718262 -24385.594696044922 0 0 0 0 -46007643.431793213 20277283.401763916 0 20277283.401763916 -2340948.9601745605 0 0 0 0 -16318557.03742981 31606644.189910889 0 31606644.189910889 -8648224.9440002441 0 0 0 0 -5523100419.6844482 2875359200.9476318 0 2875359200.9476318 658182.86564735824 0 0 0 0 465531.4986114502 966110285.82147217 0 966110285.82147217 -579803025.69207764 0 0 0 0 -4352710017.1487579 5521673202.946434 0 5521673202.946434 -2024525592.973381 0 0 0 0 -1170579965.092804 -650644667.47128296 0 -650644667.47128296 -132653716.33332825 0 0 0 0 -2435715.3538693488 2238258.3827813379 0 2238258.3827813379 -817017.04504257441 0 0 0 0 -88779497.154060364 139317214.15901566 0 139317214.15901566 -207380568.26361084 0 0 0 0 71447730.940979004 -57986164.343048096 0 -57986164.343048096 -498499950.14061356 0 0 0 0 -6550297.2024223506 6775656.8559490666 0 6775656.8559490666 -2451234.0704275146 0 0 0 0 -6126641.2099185996 8713478.1070519164 0 8713478.1070519164 -3636522.826627329 0 0 0 0 -454362500.06285095 131793882.10357666 0 131793882.10357666 -728288.07904052734 0 0 0 0 -116104824.53918457 -62644913.368545532 0 -62644913.368545532 -46406855.701644897 0 0 0 0 -361188700.6685791 -35611830.284255981 0 -35611830.284255981 11383136.437316895 0 0 0 0 -201476139.4680481 76649178.810409546 0 76649178.810409546 -30053896.8162117 0 0 0 0 -469862690.33833027 517938298.48688745 0 517938298.48688745 -321860371.57305908 0 0 0 0 -447887748.43312359 160167633.04135227 0 160167633.04135227 3532908.8729858398 0 0 0 0 -1954139.5706860125 3068789.8046803325 0 3068789.8046803325 -7187390.6012357175 0 0 0 0 -1360659.0785801373 3065655.4061170965 0 3065655.4061170965 -1790964.947561115 0 0 0 0 -55636129.283035278 39481898.964630127 0 39481898.964630127 -119613543.28677368 0 0 0 0 44294585.595947266 31164654.01259613 0 31164654.01259613 2824020.3886184692 0 0 0 0 -13907565.203613281 95164697.144622803 0 95164697.144622803 206819009.9365387 0 0 0 0 402244.74662080407 1711404.5391105562 0 1711404.5391105562 -7788711.0711639225 0 0 0 0 -91023939.247375488 502024919.61239624 0 502024919.61239624 1410892714.6399078 0 0 0 0 36358.818303987493 -14789711.610920077 0 -14789711.610920077 323984654.02796936 0 0 0 0 383998941.49020386 -324941929.39572906 0 -324941929.39572906 1062874222.8491173 0 0 0 0 356630889.45654297 477380354.39567566 0 477380354.39567566 681925087.2149353 0 0 0 0 -137096208.02612305 448299952.10722351 0 448299952.10722351 1328432344.2785034 0 0 0 0 360070591.07478333 -644460772.55242157 0 -644460772.55242157 942946941.94802856 0 0 0 0 -198858159.34515381 123253101.99905396 0 123253101.99905396 88349232.224853516 0 0 0 0 336977.86648666114 3148693.4163039327 0 3148693.4163039327 -874588.1696882993 0 0 0 0 -206416753.02792358 -181722712.02650452 0 -181722712.02650452 1494975699.6195068 0 0 0 0 -65443294.786590576 -222664606.37293243 0 -222664606.37293243 618343275.48831177 0 0 0 0 -217719152.02124023 -21875682.462905884 0 -21875682.462905884 698407969.67475891 0 0 0 0 -82967670.032524109 -100403624.57118225 0 -100403624.57118225 714683924.63201904 0 0 0 0 -201940164.33065796 -5326919.82081604 0 -5326919.82081604 530019529.39655304 0 0 0 0 -190385892.27990723 -15489801.011283875 0 -15489801.011283875 538525925.71459961 0 0 0 0 -192156300.47866821 115473084.85632324 0 115473084.85632324 319942140.19036865 0 0 0 0 -237866915.93763733 130578232.73238373 0 130578232.73238373 595914469.09191895 0 0 0 0 -222411698.20269775 246262696.27511597 0 246262696.27511597 370761332.79615784 0 0 0 0 -220212216.48901367 237100662.04376221 0 237100662.04376221 327083606.14436245 0 0 0 0 -77241785.709564209 117932568.07131195 0 117932568.07131195 659223315.25505066 0 0 0 0 -300869475.14886475 208906820.74607849 0 208906820.74607849 842854585.17218781 0 0 0 0 -267962561.05551147 457134614.50338745 0 457134614.50338745 514112997.9190979 0 0 0 0 -114378028.49191284 299015332.20995331 0 299015332.20995331 25634681.536300659 0 0 0 0 -327451734.96157837 472532254.26428223 0 472532254.26428223 150085704.1431427 0 0 0 0 -22176082.591110229 425552727.21095276 0 425552727.21095276 -378536266.96684265 0 0 0 0 -179991613.35586548 193687957.10264587 0 193687957.10264587 314399629.26826477 0 0 0 0 -79270578.123474121 759460396.58784485 0 759460396.58784485 -777176802.35712266 0 0 0 0 205493938.78546906 418851211.67210007 0 418851211.67210007 -381173144.93008423 0 0 0 0 -717811165.87257385 510703178.85007858 0 510703178.85007858 -48624204.53213501 0 0 0 0 -224810117.27348328 -61952164.744308472 0 -61952164.744308472 -760542353.96347809 0 0 0 0 117528058.87179565 -103287891.27406311 0 -103287891.27406311 -249804492.26711273 0 0 0 0 -56089.051060794831 195225110.35799217 0 195225110.35799217 385649912.9786377 0 0 0 0 103949841.15965271 94287843.480613708 0 94287843.480613708 199603865.27906799 0 0 0 0 -61676753.517074585 328898457.68177986 0 328898457.68177986 30374323.23260498 0 0 0 0 -1990511202.0483799 2600998079.8338318 0 2600998079.8338318 -2370916432.756073 0 0 0 0 -20746916.175310507 35496908.874339864 0 35496908.874339864 -33215601.241599143 0 0 0 0 -412697517.83270264 56528501.193405151 0 56528501.193405151 -448601966.76512146 0 0 0 0 333357031.46452332 2014522689.0664215 0 2014522689.0664215 -1826853714.8230591 0 0 0 0 1768139303.03965 1088943007.5258484 0 1088943007.5258484 -2790756378.9164124 0 0 0 0 4101397341.0313492 -475700776.99339294 0 -475700776.99339294 -1799517681.0632629 0 0 0 0 1138954935.9852505 1269650495.8713455 0 1269650495.8713455 1472102684.4865112 0 0 0 0 351003524.13694763 1426628469.6022568 0 1426628469.6022568 -828292485.18832397 0 0 0 0 162310242.8691864 915021904.40312195 0 915021904.40312195 -1099078849.4449615 0 0 0 0 -5577082.4215461425 8230987.9478948023 0 8230987.9478948023 194836.04901117086 0 0 0 0 497097757.58628845 1202633043.2650604 0 1202633043.2650604 -1322334668.8964806 0 0 0 0 -2965399.4804382324 905340899.78085327 0 905340899.78085327 -1079756229.2497787 0 0 0 0 4564781.3995819092 933683429.62701416 0 933683429.62701416 -1692540702.5348511 0 0 0 0 -716532860.67920494 700393958.19091892 0 700393958.19091892 -1589698158.7620697 0 0 0 0 -645949682.40730286 1050777161.2434769 0 1050777161.2434769 -1185802552.9512863 0 0 0 0 -427400155.25177002 1350629949.5761871 0 1350629949.5761871 -23932522.655017853 0 0 0 0 -543567111.03816986 889097976.41178322 0 889097976.41178322 -213821474.96606445 0 0 0 0 -336412665.15885925 577600324.57216835 0 577600324.57216835 -1059930913.9541626 0 0 0 0 -106682574.48274231 1107428000.8573723 0 1107428000.8573723 -798640098.45588684 0 0 0 0 295506488.9508667 795243225.52280426 0 795243225.52280426 -1177669224.9390106 0 0 0 0 106931536.03871822 439334906.11800194 0 439334906.11800194 1456342177.5378723 0 0 0 0 -30705435.971101075 30965251.640894324 0 30965251.640894324 -18377105.264659241 0 0 0 0 207830363.0640564 1000752833.7108555 0 1000752833.7108555 578353761.09024048 0 0 0 0 1404651777.4808655 1751308628.6099854 0 1751308628.6099854 -495041517.10873413 0 0 0 0 1003210753.922348 1148879762.5103149 0 1148879762.5103149 2145877526.2473602 0 0 0 0 537599580.17382812 193343603.0791626 0 193343603.0791626 1560756235.1968613 0 0 0 0 750880212.42447472 1077183579.6717701 0 1077183579.6717701 1662119576.270752 0 0 0 0 -66433258.604721069 1723779032.0170593 0 1723779032.0170593 2081617498.030674 0 0 0 0 -330547889.05615997 1271476753.0396729 0 1271476753.0396729 2765981506.0179138 0 0 0 0 194748151.23852539 2622824329.2305603 0 2622824329.2305603 2031284300.1012878 0 0 0 0 -5005078.0332639739 5420758.01720009 0 5420758.01720009 -880735.92220340669 0 0 0 0 -197856847.07484436 392513063.53805542 0 392513063.53805542 1411511732.5156174 0 0 0 0 -620298421.98990631 483184232.25616455 0 483184232.25616455 2662051017.0979309 0 0 0 0 -875224421.97076035 1323417223.1107216 0 1323417223.1107216 170703723.53881836 0 0 0 0 -386703485.09860229 1030049202.8621826 0 1030049202.8621826 1866368583.9519043 0 0 0 0 120016562.96376801 464002654.52783203 0 464002654.52783203 442373644.79620361 0 0 0 0 870399322.3393631 641913173.73109436 0 641913173.73109436 -334951046.50679016 0 0 0 0 -461984466.34175491 233901870.53382111 0 233901870.53382111 3790699294.535202 0 0 0 0 59970634.77848053 -19656837.544143677 0 -19656837.544143677 1869934742.8998413 0 0 0 0 1763984795.1386185 580875855.45080566 0 580875855.45080566 2361162424.5089111 0 0 0 0 489770018.17458344 2120795418.1756439 0 2120795418.1756439 222682787.22659302 0 0 0 0 -795884370.385849 2421078788.6452637 0 2421078788.6452637 1039038311.2290649 0 0 0 0 -852918179.08372498 1726297176.9254761 0 1726297176.9254761 844976481.27438354 0 0 0 0 -768959666.30725956 2193182216.9819527 0 2193182216.9819527 176750889.77471924 0 0 0 0 -749421762.90058899 1589916132.6827087 0 1589916132.6827087 -172593420.83010864 0 0 0 0 -1869617699.3502235 1276574121.0631714 0 1276574121.0631714 -465775885.63189697 0 0 0 0 -1927668015.0863419 -934589466.52651978 0 -934589466.52651978 5861827102.9367218 0 0 0 0 -1342046.3896912746 2955441.6319022849 0 2955441.6319022849 2009592.8568772003 0 0 0 0 37019167.451356888 1542584867.8987579 0 1542584867.8987579 1635929844.0108948 0 0 0 0 430077048.31901932 1479136338.8085098 0 1479136338.8085098 281350000.27825928 0 0 0 0 119587116.21037483 467585581.92514038 0 467585581.92514038 -302109012.62497711 0 0 0 0 -3036007.0189673603 3051730.0848611072 0 3051730.0848611072 -522508.80301250517 0 0 0 0 164642783.55365753 1488992103.8014755 0 1488992103.8014755 304246754.06259155 0 0 0 0 167103130.89019585 275156300.64987183 0 275156300.64987183 1061008374.3560257 0 0 0 0 124840114.13113356 461001320.34771729 0 461001320.34771729 293303740.95025635 0 0 0 0 150648441.02046585 519746425.6285553 0 519746425.6285553 359806390.13470459 0 0 0 0 -390185412.07098389 442616647.04882812 0 442616647.04882812 2776391737.323761 0 0 0 0 -242959.92390405759 10692320.585341461 0 10692320.585341461 4870593.5550585575 0 0 0 0 -137277555.78659058 1054182598.5461502 0 1054182598.5461502 222917153.23445129 0 0 0 0 315999487.6005249 799462739.4223175 0 799462739.4223175 353072374.80667114 0 0 0 0 104681225.66058731 1188826979.6214371 0 1188826979.6214371 568613545.36880493 0 0 0 0 260422942.09477425 969384077.5553894 0 969384077.5553894 56668589.65512085 0 0 0 0 273795670.34999943 941231367.31934357 0 941231367.31934357 50342431.971084595 0 0 0 0 389523563.08967781 625317423.04620361 0 625317423.04620361 -806772328.44444656 0 0 0 0 232878388.49647331 1298836249.1517181 0 1298836249.1517181 -538375563.10554504 0 0 0 0 78300840.654756546 251549865.045578 0 251549865.045578 -1843658554.0867004 0 0 0 0 736943191.81765938 -803894471.75915909 0 -803894471.75915909 -2394216113.4158936 0 0 0 0 -2184304257.8556328 244670188.73856354 0 244670188.73856354 -354431683.25605774 0 0 0 0 -1827150399.8924637 1598711947.2534866 0 1598711947.2534866 -657385033.56562805 0 0 0 0 1485877758.9984894 1587926496.2813416 0 1587926496.2813416 -3247808502.4347839 0 0 0 0 1437808120.7455711 3102375819.6797028 0 3102375819.6797028 -1305161520.9147797 0 0 0 0 -2168479416.6832752 -512805960.12116241 0 -512805960.12116241 400392773.38977051 0 0 0 0 -392125.98039533012 5814219.940942578 0 5814219.940942578 -5412841.18043226 0 0 0 0 -877258388.37177277 39273564.016853333 0 39273564.016853333 142621388.30403137 0 0 0 0 -296040815.73455811 722851915.07928467 0 722851915.07928467 573922222.53839493 0 0 0 0 340080754.60179138 956205581.44430542 0 956205581.44430542 -238013452.17404175 0 0 0 0 67543612.517425537 443025456.00177956 0 443025456.00177956 82351866.707473755 0 0 0 0 210687.40130046755 19382974.358402923 0 19382974.358402923 -14577446.37499091 0 0 0 0 -267920995.59189796 -116426457.61750793 0 -116426457.61750793 -10726353.282409668 0 0 0 0 3621769.1924052238 103652414.28470612 0 103652414.28470612 -55512235.838256836 0 0 0 0 7651846.1431956952 38140463.689215697 0 38140463.689215697 -21061178.077673748 0 0 0 0 181147513.55961132 -550316092.58169556 0 -550316092.58169556 -20428542.814331055 0 0 0 0 -123353144.80306101 145106446.99240112 0 145106446.99240112 38831960.623138428 0 0 0 0 -24926838.725120544 187543479.10716248 0 187543479.10716248 12150660.074478149 0 0 0 0 -127517810.09368372 83129397.915277004 0 83129397.915277004 -1064680.7323913574 0 0 0 0 -154418700.3639946 -199980340.32427979 0 -199980340.32427979 -369462377.59967041 0 0 0 0 9700873.4163578376 3818288.1662256494 0 3818288.1662256494 -12247679.361456186 0 0 0 0 669910647.34128189 69774934.003189087 0 69774934.003189087 -143405900.24404907 0 0 0 0 333938538.91233063 432357557.94590759 0 432357557.94590759 -244694104.20491195 0 0 0 0 -96322304.74446106 157881934.76902771 0 157881934.76902771 43732851.287162781 0 0 0 0 -155836510.03435135 253315340.31031036 0 253315340.31031036 71123176.875778198 0 0 0 0 -54219122.76518631 289330776.80536652 0 289330776.80536652 148718837.35244751 0 0 0 0 -50136590.326076508 238185483.74198914 0 238185483.74198914 -78758826.004547119 0 0 0 0 -75923080.140594482 437516983.12060547 0 437516983.12060547 -92488537.426921844 0 0 0 0 144778718.82266235 225814704.97268677 0 225814704.97268677 57458753.233886719 0 0 0 0 199688330.21431351 86123054.422504425 0 86123054.422504425 110355754.72894287 0 0 0 0 321820469.28155136 123339618.24221039 0 123339618.24221039 -74604084.871520996 0 0 0 0 484026054.82446289 -180393890.599823 0 -180393890.599823 190359574.79994202 0 0 0 0 -167841626.38218689 149514971.91858292 0 149514971.91858292 998294863.12182617 0 0 0 0 -463594992.75346375 1609637346.5386658 0 1609637346.5386658 165029699.46795654 0 0 0 0 -386077436.53006744 -922559488.81402588 0 -922559488.81402588 2185260796.3167725 0 0 0 0 992369.55103792995 4248148.7511404753 0 4248148.7511404753 -3306967.0072354628 0 0 0 0 389478283.28123093 193150965.0469017 0 193150965.0469017 -48848930.053100586 0 0 0 0 25163782.62839742 5379940.5791958049 0 5379940.5791958049 -29640297.328243978 0 0 0 0 296505192.09627151 -452334694.54551697 0 -452334694.54551697 382887248.2399292 0 0 0 0 134370.96128845215 15113647.649307251 0 15113647.649307251 -7589328.0084161758 0 0 0 0 80650530.556121826 71452134.930370331 0 71452134.930370331 -312323937.60722351 0 0 0 0 4960450.9888082221 30832258.284876145 0 30832258.284876145 -32527165.541118883 0 0 0 0 87437958.484905243 71969991.436004639 0 71969991.436004639 62913693.991790771 0 0 0 0 5757423.4777418626 21636570.882595062 0 21636570.882595062 -26149148.486140877 0 0 0 0 72650112.918518066 -12828395.918548584 0 -12828395.918548584 -89363028.489059448 0 0 0 0 32743098.721602425 8765602.6053625513 0 8765602.6053625513 -31947306.316707242 0 0 0 0 122065591.86506653 -92426866.773429871 0 -92426866.773429871 -242949644.00843811 0 0 0 0 203359513.68662262 -103680504.98703384 0 -103680504.98703384 -504311008.62057495 0 0 0 0 271661395.72000122 33549028.591491699 0 33549028.591491699 -317910075.41618061 0 0 0 0 234761466.27584839 -3534916.0792999268 0 -3534916.0792999268 -485220823.83915901 0 0 0 0 219347841.0267334 764032021.19439697 0 764032021.19439697 -651114410.96020508 0 0 0 0 498913630.37521362 42413250.332698822 0 42413250.332698822 -562682532.460495 0 0 0 0 -745057.78077263385 10078681.098981984 0 10078681.098981984 -10011390.51758045 0 0 0 0 -6849938.9898022264 43214051.867053717 0 43214051.867053717 -47922624.970037997 0 0 0 0 418883229.13474894 425247292.56420612 0 425247292.56420612 -293604370.9715271 0 0 0 0 395921300.7383728 -109226647.68241882 0 -109226647.68241882 -632127137.21392822 0 0 0 0 204104015.90294647 -91605735.763904572 0 -91605735.763904572 -737439426.59796143 0 0 0 0 65652923.4609375 486273405.68816566 0 486273405.68816566 -987256883.09451294 0 0 0 0 120310254.28839111 254856402.31307983 0 254856402.31307983 -263929319.28067017 0 0 0 0 -45200411.201667786 759220092.83745766 0 759220092.83745766 -873503141.80316162 0 0 0 0 -18724848.4925307 47288296.77999787 0 47288296.77999787 -45810309.310369849 0 0 0 0 459880053.572258 -314822800.89437866 0 -314822800.89437866 -1015635226.3076782 0 0 0 0 17092940.151673347 -3367984.8241203874 0 -3367984.8241203874 -12913941.500064999 0 0 0 0 1280497282.2049866 3484049386.0286407 0 3484049386.0286407 101891427.90689087 0 0 0 0 -712107092.72382355 979346087.66624451 0 979346087.66624451 -1657786056.0739136 0 0 0 0 -837061603.18566895 731963336.76783371 0 731963336.76783371 -1957009546.5220337 0 0 0 0 -327612643.81106567 547082804.17281342 0 547082804.17281342 -1414133939.3816833 0 0 0 0 120873565.7401886 475974778.00175476 0 475974778.00175476 -1109119230.0407181 0 0 0 0 75012173.669448853 639908558.50424194 0 639908558.50424194 -1634065076.3505707 0 0 0 0 197619979.05049896 882182479.25018311 0 882182479.25018311 -1379070847.1999054 0 0 0 0 -142201501.78625488 372513525.17884827 0 372513525.17884827 -1152610776.1482544 0 0 0 0 206008008.80331421 -35744641.642936707 0 -35744641.642936707 -1326656636.9050522 0 0 0 0 -64011792.510982513 479148207.33804512 0 479148207.33804512 -2054518106.147049 0 0 0 0 -285276183.47134399 134885930.82501221 0 134885930.82501221 -1457834023.7118683 0 0 0 0 -196541624.59183121 -451989539.72172165 0 -451989539.72172165 -855863935.96688843 0 0 0 0 -94261875.126403809 278725978.4872818 0 278725978.4872818 -1349754589.1511307 0 0 0 0 258740192.35626221 75174127.970031738 0 75174127.970031738 -446890762.98407745 0 0 0 0 144575318.48153687 -236540631.2155304 0 -236540631.2155304 -653661550.53236604 0 0 0 0 53873878.947257996 25637378.453052521 0 25637378.453052521 -658341841.24649048 0 0 0 0 -15982045.864929199 -361098274.77347565 0 -361098274.77347565 -156924172.98565674 0 0 0 0 23089265.687433511 8201283.1288877204 0 8201283.1288877204 -19632094.768551961 0 0 0 0 174070976.47465515 3081631.8763122559 0 3081631.8763122559 -33899571.501678467 0 0 0 0 27035412.078735352 -112145625.9316864 0 -112145625.9316864 -235907763.56469727 0 0 0 0 26919620.398116022 -6312106.5758596398 0 -6312106.5758596398 28421433.129379272 0 0 0 0 9705987.6072224602 1513762.0549058821 0 1513762.0549058821 -7103288.9924530238 0 0 0 0 19968938.299624734 7615413.2144540586 0 7615413.2144540586 -17082949.00819074 0 0 0 0 -148360950.84237671 -2174961.3036460876 0 -2174961.3036460876 100242282.15574646 0 0 0 0 -376369063.57649231 -73039476.008655548 0 -73039476.008655548 164119091.97644043 0 0 0 0 37044910.162445068 -127916324.26085663 0 -127916324.26085663 125304373.73347855 0 0 0 0 -117367393.41073608 218359909.63415337 0 218359909.63415337 -128785975.668396 0 0 0 0 120313955.5856781 65061052.756999969 0 65061052.756999969 -39556759.479614258 0 0 0 0 2305118.1686401442 7381197.5565188974 0 7381197.5565188974 -8642711.5870758891 0 0 0 0 -252045827.08987427 722313550.85419846 0 722313550.85419846 -229727393.04359436 0 0 0 0 2108756029.3656616 -7752635.4178771973 0 -7752635.4178771973 -229133197.793993 0 0 0 0 876588.74851585925 2340085.3891890645 0 2340085.3891890645 -1027849.0935008982 0 0 0 0 -265523.01006085426 3764237.9885064177 0 3764237.9885064177 -2818710.0994495079 0 0 0 0 470573628.44628906 720142134.01338196 0 720142134.01338196 -3574748481.3540955 0 0 0 0 -466861238.78192139 154102454.26200962 0 154102454.26200962 -140292150.34759521 0 0 0 0 -348791156.26364136 -394435959.21843719 0 -394435959.21843719 -1183473515.1461334 0 0 0 0 -2203553018.0565338 1217976214.9547501 0 1217976214.9547501 46209763.623085022 0 0 0 0 -4810128287.9767761 2838802148.6851501 0 2838802148.6851501 -899517766.86315155 0 0 0 0 375206367.38195801 1351348430.4999542 0 1351348430.4999542 -378674372.07617188 0 0 0 0 42863697.689331055 2165265620.5029297 0 2165265620.5029297 696326317.57311535 0 0 0 0 -1861744798.2272644 2430392222.8881989 0 2430392222.8881989 -243731192.69297409 0 0 0 0 -1377681170.8019714 1160512485.2729836 0 1160512485.2729836 37675570.780990601 0 0 0 0 -2733724568.0437469 3133445215.1965332 0 3133445215.1965332 -2278684488.6127205 0 0 0 0 -2305281557.692688 2132654302.6046162 0 2132654302.6046162 -225575368.9017868 0 0 0 0 -4878261758.4229431 4140987353.2448273 0 4140987353.2448273 -2298001851.8031235 0 0 0 0 -3835562684.5114059 2730829709.2721405 0 2730829709.2721405 -399740805.19797516 0 0 0 0 -2667280089.2589111 2188264329.0326157 0 2188264329.0326157 -365677586.53422546 0 0 0 0 -3074396366.9659119 2387342785.3643456 0 2387342785.3643456 -401752215.54425812 0 0 0 0 -2710012636.8832607 3240401540.6158571 0 3240401540.6158571 -1023366680.6141968 0 0 0 0 -2785686661.288559 2764221676.5852699 0 2764221676.5852699 -1529789223.2122955 0 0 0 0 -2643080494.0103302 2275911346.3417969 0 2275911346.3417969 -1009142943.2409286 0 0 0 0 -2425999932.4779358 1891246643.6330147 0 1891246643.6330147 -1491965678.5136261 0 0 0 0 -2722317605.1315613 1277889383.4803772 0 1277889383.4803772 -1237565608.4544373 0 0 0 0 -1470590892.9419556 1026665312.7554855 0 1026665312.7554855 -370588848.04832458 0 0 0 0 -3022636783.0668945 1852895412.0831451 0 1852895412.0831451 -650873473.568573 0 0 0 0 -2423301212.0029144 1968322601.7507992 0 1968322601.7507992 -814439224.33828735 0 0 0 0 -1770684065.5230408 870925865.94909668 0 870925865.94909668 -331804461.19689941 0 0 0 0 -856847909.29447937 333039010.02674103 0 333039010.02674103 -184271456.90530396 0 0 0 0 -488616023.86708832 1593920415.4737701 0 1593920415.4737701 -460693683.09152222 0 0 0 0 -1054866491.1825485 452893137.47995377 0 452893137.47995377 -39247182.636077881 0 0 0 0 -3063425552.6863861 1769049453.5807953 0 1769049453.5807953 -237185237.80787659 0 0 0 0 -3195744840.7752228 1321151916.8528748 0 1321151916.8528748 -576303715.87013245 0 0 0 0 -2687524268.704895 1528312964.1988678 0 1528312964.1988678 -383633548.0508728 0 0 0 0 -3266266813.3429909 1059913735.9908466 0 1059913735.9908466 -1468938427.3923645 0 0 0 0 -3820503954.9671478 1468905991.3602448 0 1468905991.3602448 -1770148885.7435379 0 0 0 0 -5286449393.7195587 2061673808.1469574 0 2061673808.1469574 -1179418804.1640549 0 0 0 0 -2281249638.1600189 1200586986.9179459 0 1200586986.9179459 -1783000456.6399307 0 0 0 0 -2258378488.827774 907923168.89074707 0 907923168.89074707 -1376098556.2317429 0 0 0 0 -3869697654.8840179 1239388182.859848 0 1239388182.859848 -1347680381.5554428 0 0 0 0 -2053790706.6595154 1076506004.415184 0 1076506004.415184 -1598597862.3116913 0 0 0 0 -2060664396.1228926 1427713332.9263811 0 1427713332.9263811 -1786820261.3006287 0 0 0 0 -360381892.48609638 982546097.00795746 0 982546097.00795746 -2767046001.3647003 0 0 0 0 -4399645744.8927002 2464361807.8997269 0 2464361807.8997269 -1912922707.9461823 0 0 0 0 -2489033532.7777977 2144993500.5353622 0 2144993500.5353622 -3395940942.935791 0 0 0 0 -4135732426.1771698 810880204.80805206 0 810880204.80805206 -1532596630.6189041 0 0 0 0 235613991.96706581 -747566858.15519333 0 -747566858.15519333 1074806850.8688049 0 0 0 0 -109132610.49478149 43925806.66519165 0 43925806.66519165 41500585.02444458 0 0 0 0 -7482591.516257897 19123747.80480836 0 19123747.80480836 17936440.238439605 0 0 0 0 -21517414.568260193 20980063.926431656 0 20980063.926431656 17367034.751106262 0 0 0 0 -58950660.46105957 16630487.10660553 0 16630487.10660553 6629654.7608451843 0 0 0 0 -29494568.668497846 5107251.8785952367 0 5107251.8785952367 20750930.49800564 0 0 0 0 -20484743.940060228 252262.27172185294 0 252262.27172185294 16414533.597003546 0 0 0 0 -8531385.2478694897 7489029.9062980302 0 7489029.9062980302 144367.57267121226 0 0 0 0 3883003.5039901733 -35400876.396465302 0 -35400876.396465302 26273899.19430542 0 0 0 0 -105866990.83948517 -23912142.260070801 0 -23912142.260070801 81143879.647628784 0 0 0 0 -205450869.5007019 -106829714.75515366 0 -106829714.75515366 -70830965.195602417 0 0 0 0 -1100617039.5651398 322841340.54774094 0 322841340.54774094 38052856.423324585 0 0 0 0 -2213461358.5753136 -1364232609.2119255 0 -1364232609.2119255 -848414045.00511932 0 0 0 0 -28173272.061889648 -1058071.2565383911 0 -1058071.2565383911 -8106084.0680084229 0 0 0 0 -3879835.5177995637 1763760.6484352462 0 1763760.6484352462 2443155.0788214989 0 0 0 0 -6330292561.3944969 1392924294.6017742 0 1392924294.6017742 724951099.64665985 0 0 0 0 -2027931914.01474 -96061376.310752869 0 -96061376.310752869 742499995.38251483 0 0 0 0 -1808758858.3285675 600805689.9557457 0 600805689.9557457 223966168.37931824 0 0 0 0 -4180873649.5064316 1247788051.3266087 0 1247788051.3266087 224227238.88372803 0 0 0 0 -1641019394.9724579 538656405.53485107 0 538656405.53485107 -120088795.59457397 0 0 0 0 -1236864756.875 220933532.2013092 0 220933532.2013092 -34518619.349403381 0 0 0 0 -1236904399.0671539 207459105.7395401 0 207459105.7395401 161281537.40927124 0 0 0 0 -1070466605.1956406 -37752905.399116516 0 -37752905.399116516 259705964.36940002 0 0 0 0 -1175528243.4165955 304960629.01059341 0 304960629.01059341 80593014.361801147 0 0 0 0 -760987.84827469289 4182140.6860564388 0 4182140.6860564388 -1708830.6033731326 0 0 0 0 -48413284.632728577 -245526226.90603638 0 -245526226.90603638 134357374.14851379 0 0 0 0 -1312632590.7688599 -3461239.3321304321 0 -3461239.3321304321 113339999.24581528 0 0 0 0 -818327720.52796936 -9474685.424041748 0 -9474685.424041748 -95548642.777503967 0 0 0 0 -2556517.8246393465 8971747.0706176385 0 8971747.0706176385 9581520.1665719375 0 0 0 0 -172265175.03060341 130724123.25186062 0 130724123.25186062 1388577.4948120117 0 0 0 0 1513658811.5205154 -2223749471.026207 0 -2223749471.026207 241574839.81619835 0 0 0 0 -88466941.03918457 -255242888.07229614 0 -255242888.07229614 836653306.04059601 0 0 0 0 -842836628.39933777 -161454897.76228333 0 -161454897.76228333 1294971616.196701 0 0 0 0 -3031196962.9754944 2006412693.1276703 0 2006412693.1276703 -453513390.87984085 0 0 0 0 -1142909610.9474659 2342244552.386488 0 2342244552.386488 -1904263026.6304626 0 0 0 0 -1594473496.3231049 1218278934.09375 0 1218278934.09375 -1518673880.734642 0 0 0 0 -628613619.63597107 -375520650.76900482 0 -375520650.76900482 -4847127581.3605957 0 0 0 0 -554328344.74456644 -1459634457.2756586 0 -1459634457.2756586 -1368850464.5551147 0 0 0 0 -2884054.3180541992 1548786109.3128281 0 1548786109.3128281 -2660023666.521286 0 0 0 0 322569552.60323524 174023664.83713531 0 174023664.83713531 -508924527.18218994 0 0 0 0 2099794972.1570587 368699432.79390717 0 368699432.79390717 -1393917257.3230896 0 0 0 0 587776627.57759094 1217119029.5993423 0 1217119029.5993423 -1539031680.0910187 0 0 0 0 -784611456.71225548 1246561965.6028004 0 1246561965.6028004 -538187282.99273682 0 0 0 0 516671228.47004366 9932853.1539268494 0 9932853.1539268494 553794730.19247437 0 0 0 0 320270445.97039795 953389012.51444244 0 953389012.51444244 -483312268.47003937 0 0 0 0 904942490.93956757 -456664783.41983795 0 -456664783.41983795 453771751.39419556 0 0 0 0 2717916933.1901569 -1409990373.595438 0 -1409990373.595438 -506958849.91209412 0 0 0 0 -807727329.12614441 -39753150.281852722 0 -39753150.281852722 101723712.94000244 0 0 0 0 -788927784.74581909 443359179.12729263 0 443359179.12729263 -132637854.46209526 0 0 0 0 1636857.8721032366 4742994.4723180085 0 4742994.4723180085 1358154.1865342632 0 0 0 0 -874869834.69812012 387711987.03647614 0 387711987.03647614 -300213886.40556335 0 0 0 0 -908235634.91540527 57349155.477043152 0 57349155.477043152 69191900.358917236 0 0 0 0 -900619022.57546997 111307433.03463745 0 111307433.03463745 186419164.65980148 0 0 0 0 -1454174917.1927795 898383716.47128296 0 898383716.47128296 12141557.423366547 0 0 0 0 2292646.7354626656 2238874.3157675341 0 2238874.3157675341 -1499016.665645048 0 0 0 0 -1112757480.0252953 202534632.14398575 0 202534632.14398575 412405281.49432373 0 0 0 0 -966681800.48751831 787693274.15567017 0 787693274.15567017 464479169.08039856 0 0 0 0 -992887967.60334206 1074563016.3889923 0 1074563016.3889923 24476384.151733398 0 0 0 0 -705090369.03586006 -393084720.1301384 0 -393084720.1301384 -167485321.87304688 0 0 0 0 -2780033350.8228378 -112269772.94641113 0 -112269772.94641113 100309763.411026 0 0 0 0 -1920352913.2440948 1107127907.247261 0 1107127907.247261 -421740084.94036102 0 0 0 0 -565888581.98345947 833230721.11439514 0 833230721.11439514 -399629691.11405945 0 0 0 0 -999523042.06149292 1225703572.5164566 0 1225703572.5164566 -399240463.65626526 0 0 0 0 -666856476.70860291 1242181696.3515701 0 1242181696.3515701 -650737881.43185425 0 0 0 0 -24217438.067077637 832540541.18502808 0 832540541.18502808 -295842907.68349457 0 0 0 0 -772306298.75584412 1838549065.1380844 0 1838549065.1380844 -839784252.33394623 0 0 0 0 -700429055.81928253 1482601952.5802383 0 1482601952.5802383 -428024967.54226685 0 0 0 0 -241134988.79738617 814449277.21365356 0 814449277.21365356 -103059280.66896057 0 0 0 0 -1079331910.2145004 1410787458.1310196 0 1410787458.1310196 -384299329.18180847 0 0 0 0 -1071846514.4917145 1444276834.2079124 0 1444276834.2079124 -521325418.6706543 0 0 0 0 -1529994799.649704 1303697212.7958221 0 1303697212.7958221 -515361922.19824219 0 0 0 0 -1480579016.640274 1184335461.7655945 0 1184335461.7655945 -405117541.06161499 0 0 0 0 -2225883785.5616913 1172225516.6029663 0 1172225516.6029663 -214548718.21003723 0 0 0 0 -1904316852.2218323 1312829096.3340912 0 1312829096.3340912 -155658417.83324432 0 0 0 0 -2237114333.4401093 1440128755.3001175 0 1440128755.3001175 48382862.04699707 0 0 0 0 -1666330114.4510422 1647714690.9873505 0 1647714690.9873505 -228413109.97232056 0 0 0 0 -1547609542.2333374 1439140740.5666122 0 1439140740.5666122 -281660081.43951416 0 0 0 0 -1937013307.6291351 1952695599.4945526 0 1952695599.4945526 -456243841.99381638 0 0 0 0 -3011207111.6696167 1476284192.4198799 0 1476284192.4198799 80046808.970672607 0 0 0 0 -4837411826.8830986 -812893568.86384201 0 -812893568.86384201 -501841501.89555359 0 0 0 0 -4039993587.509903 97720473.648162842 0 97720473.648162842 -483893252.05234313 0 0 0 0 -3857651848.6302948 -267629367.01424789 0 -267629367.01424789 62903007.571411133 0 0 0 0 -2437213525.4092255 659820404.32533264 0 659820404.32533264 -658296542.65795135 0 0 0 0 -1692216050.9894867 -297689288.97695923 0 -297689288.97695923 -112779222.59545898 0 0 0 0 -2452833448.1676941 -70302062.112457275 0 -70302062.112457275 -724343233.83799839 0 0 0 0 -2109718154.5087891 1095006320.2354813 0 1095006320.2354813 -1099919951.4373245 0 0 0 0 -4221334525.469574 486440958.08081818 0 486440958.08081818 -913253640.53970337 0 0 0 0 -7316332942.8016205 452531243.91661835 0 452531243.91661835 100969816.0229187 0 0 0 0 -3982000028.1702576 1058662967.2219086 0 1058662967.2219086 -958392620.88757324 0 0 0 0 -3541087.2228549048 7624426.7570744641 0 7624426.7570744641 213349.71873378009 0 0 0 0 -124234114.45167542 -132786628.45122528 0 -132786628.45122528 -411448125.87443542 0 0 0 0 -3234991.0567971021 5068502.6469415277 0 5068502.6469415277 2311082.4463794008 0 0 0 0 826373612.58680725 1038186826.47892 0 1038186826.47892 -562066805.44743347 0 0 0 0 474224096.72866058 -53148245.049613953 0 -53148245.049613953 -116106978.72972107 0 0 0 0 -487835185.16017151 -180051556.93021011 0 -180051556.93021011 539410220.74942017 0 0 0 0 -253926714.306427 501475905.52081299 0 501475905.52081299 -36783001.006040573 0 0 0 0 -758148083.83378601 -75191164.530639648 0 -75191164.530639648 311510188.34405518 0 0 0 0 -907637225.85941696 276888267.58678818 0 276888267.58678818 320412966.67498779 0 0 0 0 -913437027.70706558 309131554.50293732 0 309131554.50293732 176905011.64932251 0 0 0 0 -930407252.73857117 409594043.80702972 0 409594043.80702972 209583891.21525192 0 0 0 0 -5848171.2621786278 8960140.8007959574 0 8960140.8007959574 4058235.5304512903 0 0 0 0 -867445008.96549988 381589663.06546021 0 381589663.06546021 35760257.343132019 0 0 0 0 -804346487.44106293 299324762.01066589 0 299324762.01066589 139598441.074646 0 0 0 0 -870995917.54091644 247428612.76300049 0 247428612.76300049 256602869.47154236 0 0 0 0 -7097380.6140855858 16063681.818423748 0 16063681.818423748 -1701271.9202422947 0 0 0 0 395082299.20003128 575153796.36149216 0 575153796.36149216 -460885063.96916199 0 0 0 0 -3385653.4452403523 5067613.5039299801 0 5067613.5039299801 2444834.3531418443 0 0 0 0 -293414069.38666534 -296438319.57458496 0 -296438319.57458496 -148542224.92649841 0 0 0 0 -3178692426.4253998 645850161.06500244 0 645850161.06500244 206442370.68042755 0 0 0 0 -3656527013.479599 -847124222.67034149 0 -847124222.67034149 -116434110.09944153 0 0 0 0 -2273786296.6325378 296782558.45007324 0 296782558.45007324 -157812341.52555466 0 0 0 0 -5032512520.5153217 -296625726.3650589 0 -296625726.3650589 529931880.82009888 0 0 0 0 -2332107096.8452759 618312331.31026459 0 618312331.31026459 471928933.2081871 0 0 0 0 -588970554.69222641 -658767840.6318512 0 -658767840.6318512 1179654116.0620728 0 0 0 0 -1523822361.066925 1270780904.2209015 0 1270780904.2209015 775068318.51030159 0 0 0 0 -27135908.526377469 22734244.739181645 0 22734244.739181645 -9509652.080218479 0 0 0 0 484975134.94290924 2732175960.5057373 0 2732175960.5057373 1072294540.6012878 0 0 0 0 -59585016.568206787 542529815.60540771 0 542529815.60540771 2437710837.9032593 0 0 0 0 1899054430.4723816 206332062.63754272 0 206332062.63754272 707472372.66377258 0 0 0 0 581296543.4236145 1213862308.6420288 0 1213862308.6420288 -50000991.259185791 0 0 0 0 -11674858.842709273 8566096.4064526521 0 8566096.4064526521 -2666198.5789482296 0 0 0 0 1956655060.264719 2404856802.7035642 0 2404856802.7035642 -712971310.14404297 0 0 0 0 -6848373591.1119919 -2731515012.6213379 0 -2731515012.6213379 2174418010.4831848 0 0 0 0 -1605203085.8820167 -6797229.986035347 0 -6797229.986035347 135752638.26571655 0 0 0 0 -3420222969.2956772 -168516982.12512207 0 -168516982.12512207 570747328.05709839 0 0 0 0 -7591826.6454242673 18657508.755447309 0 18657508.755447309 -9049254.5892063528 0 0 0 0 -4242521725.649044 155489748.03940582 0 155489748.03940582 928492697.06114197 0 0 0 0 -1748293101.1369171 33682003.072616577 0 33682003.072616577 281081307.28034973 0 0 0 0 -832092236.14929962 777321439.20874786 0 777321439.20874786 -6919656.9185333252 0 0 0 0 -2499876811.2026062 376554291.06580353 0 376554291.06580353 -97127171.905883789 0 0 0 0 799140131.98644257 1948066187.0471725 0 1948066187.0471725 -6497635211.600647 0 0 0 0 -3032872997.6725159 591137331.9631424 0 591137331.9631424 -61363655.323455811 0 0 0 0 -5347479032.2489929 2942866484.2014465 0 2942866484.2014465 1878688294.920105 0 0 0 0 -5584539.5708211651 14308705.953740116 0 14308705.953740116 -14446158.768453315 0 0 0 0 -3478656130.3863525 245467345.67292786 0 245467345.67292786 -258785652.3359375 0 0 0 0 -3492945454.7634659 1754901643.8162317 0 1754901643.8162317 -490284766.22836304 0 0 0 0 -8109927004.6177139 849608839.2877655 0 849608839.2877655 314720151.63577271 0 0 0 0 -2435855544.1818314 1476640499.4650574 0 1476640499.4650574 -1200891037.5675964 0 0 0 0 -2360160.5624650549 4933518.2716717161 0 4933518.2716717161 -7128266.0927827358 0 0 0 0 701529279.20211029 13573584.153182983 0 13573584.153182983 1354633211.3356934 0 0 0 0 1823040351.5523605 399018692.43107605 0 399018692.43107605 -506472280.28079224 0 0 0 0 -1342982636.5942764 1639727949.6963654 0 1639727949.6963654 96497661.360321045 0 0 0 0 -575386302.246521 2024306399.1834717 0 2024306399.1834717 366814100.36066437 0 0 0 0 -1419541484.3316956 1466812918.2409973 0 1466812918.2409973 158225847.23287201 0 0 0 0 -873145927.71829987 1665836912.0570679 0 1665836912.0570679 40859178.139038086 0 0 0 0 146582283.56144714 1505237429.9636078 0 1505237429.9636078 34612951.68239212 0 0 0 0 159026880.15107918 1486649171.6211052 0 1486649171.6211052 60908175.729156494 0 0 0 0 662433775.28561783 2528602386.044239 0 2528602386.044239 -295531656.61291504 0 0 0 0 -2202322151.5636597 1345178615.6626129 0 1345178615.6626129 2566039075.13591 0 0 0 0 -758905002.08982849 3622125162.6404114 0 3622125162.6404114 -990203437.91904449 0 0 0 0 -1789144212.1527252 2776729839.2917175 0 2776729839.2917175 -31059931.616760254 0 0 0 0 -1217846045.5424347 922200404.64608765 0 922200404.64608765 -401926243.79283142 0 0 0 0 -1219558174.3165512 931499229.87913513 0 931499229.87913513 -451468786.63673401 0 0 0 0 -1386731918.9767151 836376672.12420654 0 836376672.12420654 -496674876.73568726 0 0 0 0 -1617875020.8870544 1110910072.1908646 0 1110910072.1908646 -442746473.68096924 0 0 0 0 -1270384719.5091553 1299489936.7039185 0 1299489936.7039185 -525339471.28175354 0 0 0 0 -1348061248.6489258 1049302679.3089447 0 1049302679.3089447 -594441203.02261353 0 0 0 0 -1228923680.656311 1123816786.9121017 0 1123816786.9121017 -548843208.4743042 0 0 0 0 -1248853448.588829 1162188000.606987 0 1162188000.606987 -622650384.02883911 0 0 0 0 -977806249.79998779 1208804618.6534271 0 1208804618.6534271 -625807921.14984131 0 0 0 0 -1003475299.430707 1325315892.070199 0 1325315892.070199 -701671136.53414917 0 0 0 0 -953847613.79070282 1266291837.3499908 0 1266291837.3499908 -670187485.2208252 0 0 0 0 -859744243.71244812 1284340246.3480377 0 1284340246.3480377 -716083024.51654053 0 0 0 0 -799377139.53167725 1021018097.7161407 0 1021018097.7161407 -580009387.95363617 0 0 0 0 -912970309.23495483 1212092514.9307556 0 1212092514.9307556 -610772213.01986694 0 0 0 0 -1195333391.5066071 1477564883.9883347 0 1477564883.9883347 -671001171.93838501 0 0 0 0 -880587074.41810608 1264458340.9277649 0 1264458340.9277649 -739489032.90579796 0 0 0 0 -1083860098.2053528 1420862214.976059 0 1420862214.976059 -758187248.55193138 0 0 0 0 -1147406385.6611176 1299645048.2500916 0 1299645048.2500916 -653577476.67456055 0 0 0 0 -1116060636.9372711 1238485319.0776424 0 1238485319.0776424 -654981200.73703003 0 0 0 0 -1354184719.1879349 1200579008.6065788 0 1200579008.6065788 -657530655.67700195 0 0 0 0 -1932301123.4906158 1272269046.5595856 0 1272269046.5595856 -522532875.44654846 0 0 0 0 -1865849151.2417221 1144672825.1205444 0 1144672825.1205444 -352948337.19363403 0 0 0 0 -1955214131.6779041 2009869758.1999588 0 2009869758.1999588 -896006585.79745483 0 0 0 0 -2371379620.3497772 1025075509.8371429 0 1025075509.8371429 -363941194.19520569 0 0 0 0 -2412286374.7390518 1612285821.8639069 0 1612285821.8639069 -654055147.73962402 0 0 0 0 -680849091.9718461 1773252307.7572136 0 1773252307.7572136 -1492195218.503479 0 0 0 0 -604754166.48729706 863043146.29489136 0 863043146.29489136 -481701278.21557617 0 0 0 0 -536040958.79581451 1577940162.2926636 0 1577940162.2926636 -1095456869.5463867 0 0 0 0 -1168993174.9250412 1275518973.5806351 0 1275518973.5806351 -566995127.68841553 0 0 0 0 -200830313.47704315 788214048.88124084 0 788214048.88124084 -454076417.22515869 0 0 0 0 -435859431.09299469 1168954509.5326691 0 1168954509.5326691 -784211195.88189697 0 0 0 0 408424749.32974243 -109508143.39781189 0 -109508143.39781189 277523609.47888947 0 0 0 0 -14214421.232810974 922108348.70861053 0 922108348.70861053 -433220307.23722839 0 0 0 0 144130822.99531555 300112904.36851501 0 300112904.36851501 378587044.40785217 0 0 0 0 6335063.6818132605 7997083.7716833279 0 7997083.7716833279 -3377341.417231679 0 0 0 0 366989301.89364433 393486629.60301208 0 393486629.60301208 -519254505.8616333 0 0 0 0 324986162.08752441 -436793591.73912048 0 -436793591.73912048 222142685.86819458 0 0 0 0 -476674571.12839317 461818235.79350471 0 461818235.79350471 -174304172.28250122 0 0 0 0 -65118607.487983704 55004588.390304565 0 55004588.390304565 12141732.094085693 0 0 0 0 -2209057.8660256546 -4036896.5816133618 0 -4036896.5816133618 2257375.911039561 0 0 0 0 -2757214.7813429199 4573116.6358271688 0 4573116.6358271688 5719877.0451378673 0 0 0 0 -83230187.279899597 -14851439.873338699 0 -14851439.873338699 -13811428.515075684 0 0 0 0 614253752.75089264 -723408570.97994995 0 -723408570.97994995 -571142854.03215027 0 0 0 0 -3927844.5544265937 12114645.978518002 0 12114645.978518002 9863621.5011811107 0 0 0 0 4875042.7718737368 5029269.2183664739 0 5029269.2183664739 -2617192.1780948192 0 0 0 0 2008069969.3349915 -370564479.87298584 0 -370564479.87298584 -654988294.88496399 0 0 0 0 158195755.5262661 344980877.6949501 0 344980877.6949501 811386502.83554077 0 0 0 0 1233441937.6592636 664703220.11533737 0 664703220.11533737 -236658801.45626831 0 0 0 0 918495982.30610657 -779508062.10180664 0 -779508062.10180664 -1221688176.2288361 0 0 0 0 1057589903.266922 -646725160.48947144 0 -646725160.48947144 735012475.71303558 0 0 0 0 938589681.64437103 868988965.75164795 0 868988965.75164795 -354825934.41085815 0 0 0 0 439082683.32904053 125018774.38841248 0 125018774.38841248 -450774908.60974121 0 0 0 0 453123199.35257888 1034077906.9314907 0 1034077906.9314907 -1026459660.5862732 0 0 0 0 139453328.04094124 1201654344.2171612 0 1201654344.2171612 -1302182099.6216125 0 0 0 0 -1300642817.317688 832465263.21220398 0 832465263.21220398 -1055979906.7121353 0 0 0 0 -733421195.26250458 142862579.9508667 0 142862579.9508667 -266469271.74067688 0 0 0 0 -1108257949.8825302 1439023019.5914001 0 1439023019.5914001 -1966698086.6113129 0 0 0 0 -431080369.39366245 1306993051.7276077 0 1306993051.7276077 -163456524.07473755 0 0 0 0 -52121563.521844864 75642599.164596558 0 75642599.164596558 330513772.21148682 0 0 0 0 -267202830.15272331 459683183.61340332 0 459683183.61340332 201658831.55429077 0 0 0 0 112040652.90200424 1033048858.5965767 0 1033048858.5965767 479725937.12924194 0 0 0 0 2312886827.4194031 912871801.12820435 0 912871801.12820435 1147181.5014801025 0 0 0 0 2319471422.6548309 1138941722.8097534 0 1138941722.8097534 -9643916.5909576416 0 0 0 0 3752314790.4061584 -844469229.52702332 0 -844469229.52702332 -518610564.11218262 0 0 0 0 1851070.0643254239 1379174.3029226363 0 1379174.3029226363 -799748.08251713216 0 0 0 0 52571569.546722412 264394649.04535675 0 264394649.04535675 1335331356.8638306 0 0 0 0 -58901756.3111763 74510191.362163544 0 74510191.362163544 1331.7748718261719 0 0 0 0 3301043031.1184235 390160257.05737305 0 390160257.05737305 -1648457859.8421021 0 0 0 0 -2761788.1067000777 430217.38469996303 0 430217.38469996303 2470971.8480560035 0 0 0 0 -2432776.4601192791 -4446400.5370963663 0 -4446400.5370963663 2383909.2081575543 0 0 0 0 -107382251.00894165 23964441.731140137 0 23964441.731140137 3462538.6105499268 0 0 0 0 -4487047.653591156 5616309.7520217896 0 5616309.7520217896 -19913352.417297363 0 0 0 0 -50427211.472938538 29259510.788398743 0 29259510.788398743 -16120908.39074707 0 0 0 0 -2171770739.4488525 2584768632.1313705 0 2584768632.1313705 -1047819003.0191193 0 0 0 0 -1188111637.9405556 1451610228.827713 0 1451610228.827713 -881116781.72233582 0 0 0 0 -802188559.25047064 1142955237.0306416 0 1142955237.0306416 -666919103.20523071 0 0 0 0 -1002429773.9378128 1652773825.4552078 0 1652773825.4552078 -236970223.25975037 0 0 0 0 -638598035.3170352 2190682844.9185143 0 2190682844.9185143 -1525749045.1952057 0 0 0 0 1288170653.5191727 919932821.45983887 0 919932821.45983887 -1001261714.2198105 0 0 0 0 -5923695898.077404 3085712976.3462906 0 3085712976.3462906 -760734922.66317749 0 0 0 0 -2803277545.0879364 2947053332.6876564 0 2947053332.6876564 -2090384851.0638885 0 0 0 0 -2470169967.7496033 634824037.53740692 0 634824037.53740692 -309284158.13212585 0 0 0 0 -3284996992.1116905 2002154690.9817924 0 2002154690.9817924 75537027.38494873 0 0 0 0 -1780361962.710659 1520015055.9992294 0 1520015055.9992294 744279.43077087402 0 0 0 0 -1895602477.1373253 1441603090.6423492 0 1441603090.6423492 131060174.39813232 0 0 0 0 -2035478928.7890663 1594718581.7760048 0 1594718581.7760048 31599.096817016602 0 0 0 0 -1157492998.617939 1685730183.8157654 0 1685730183.8157654 -487081185.28572083 0 0 0 0 -1600346217.2340088 1289817105.704567 0 1289817105.704567 -464672.39448547363 0 0 0 0 -1835426857.9458618 1625054823.2096863 0 1625054823.2096863 -478414251.36436462 0 0 0 0 -1495239825.072403 1342907957.3157349 0 1342907957.3157349 -308349085.88121033 0 0 0 0 -1296565941.5493202 1095358853.7557144 0 1095358853.7557144 -122046.65383911133 0 0 0 0 -1301511825.6631508 1474346365.2869873 0 1474346365.2869873 -465914219.18630981 0 0 0 0 -1651740600.2034035 978649873.09779358 0 978649873.09779358 -456609644.96220016 0 0 0 0 -831684522.8047657 793564988.51947021 0 793564988.51947021 -329668.21394348145 0 0 0 0 -1098793132.290699 1122184067.4852486 0 1122184067.4852486 -403404922.28208923 0 0 0 0 -472333569.30218506 1022582622.6710358 0 1022582622.6710358 -416809852.97900963 0 0 0 0 -694854157.14973831 788907550.99556732 0 788907550.99556732 -646838163.60183716 0 0 0 0 -2176570.799519565 357517.57153715193 0 357517.57153715193 2576825.1170496643 0 0 0 0 232375474.47039795 673048440.37339783 0 673048440.37339783 -633021320.04547119 0 0 0 0 -168393470.94749165 1466682338.8837566 0 1466682338.8837566 -558923923.73942566 0 0 0 0 716403761.27275085 604629731.97991943 0 604629731.97991943 138395729.62535095 0 0 0 0 -66506517.317993164 389780246.35385132 0 389780246.35385132 466119580.09967041 0 0 0 0 -154005099.53144264 290314208.58137512 0 290314208.58137512 989913562.96264648 0 0 0 0 -581955869.63797569 459174950.02952576 0 459174950.02952576 969829568.99423218 0 0 0 0 -1158579936.2412529 1225623387.9474106 0 1225623387.9474106 -1188107026.3394623 0 0 0 0 425894.48025863618 1501493.3757220581 0 1501493.3757220581 -2918823.4764240682 0 0 0 0 -2135176458.2159557 790033406.15243149 0 790033406.15243149 69898200.024291992 0 0 0 0 -1693065226.717083 -225087897.70865631 0 -225087897.70865631 -12446560.142089844 0 0 0 0 -1215593726.1469173 1113431511.5799637 0 1113431511.5799637 -129167386.45742798 0 0 0 0 -1752267111.7529716 1595981050.2472992 0 1595981050.2472992 -552893076.13661194 0 0 0 0 -964152594.1191864 1300164045.8280945 0 1300164045.8280945 -25238376.904769897 0 0 0 0 -446653529.03427887 1072517530.2710876 0 1072517530.2710876 73646173.178695679 0 0 0 0 -300461430.90838623 1132955436.3444366 0 1132955436.3444366 90045221.069549561 0 0 0 0 -144212318.57292938 935685142.1071167 0 935685142.1071167 279763821.66287231 0 0 0 0 393121829.45798492 723968191.83216858 0 723968191.83216858 181242523.90664673 0 0 0 0 371681751.63488007 74576594.240615845 0 74576594.240615845 -8404381.7222747803 0 0 0 0 -253085591.64470768 478177628.11794949 0 478177628.11794949 106013342.91381836 0 0 0 0 -286795181.69578886 26449394.524837494 0 26449394.524837494 34885663.327148438 0 0 0 0 -354418702.83318329 521797757.11390686 0 521797757.11390686 90234731.222518921 0 0 0 0 -986866207.71816838 373302127.04017973 0 373302127.04017973 200324808.05984497 0 0 0 0 108451777.49233437 46937302.033908844 0 46937302.033908844 -37507387.116424561 0 0 0 0 -138969.093553029 4925525.5962391868 0 4925525.5962391868 -5457023.624419719 0 0 0 0 97494572.667800903 -98233846.570907593 0 -98233846.570907593 -102307971.23693848 0 0 0 0 37758488.746944785 104683813.0179646 0 104683813.0179646 546864067.14846802 0 0 0 0 33847176.765247345 220655350.38761902 0 220655350.38761902 531724790.8357811 0 0 0 0 111608298.86093903 -12654995.224029541 0 -12654995.224029541 25511005.14453125 0 0 0 0 137784200.57154846 34846222.325881958 0 34846222.325881958 30483156.573190689 0 0 0 0 100477350.70365906 117558553.78553772 0 117558553.78553772 43556773.487594604 0 0 0 0 174765343.71261978 -2289580.0064086914 0 -2289580.0064086914 9595568.3214111328 0 0 0 0 1607286806.8345184 60763748.076263428 0 60763748.076263428 -28240991.697296143 0 0 0 0 -805875.44798514619 1405541.671436049 0 1405541.671436049 1690236.1724612415 0 0 0 0 -4074430.1069734097 249169168.70960426 0 249169168.70960426 -941415411.82955933 0 0 0 0 -118938.02686956897 1457273.0296634734 0 1457273.0296634734 -1499539.6764257103 0 0 0 0 -1726044.0139324404 4167080.7030833513 0 4167080.7030833513 3799026.3471768945 0 0 0 0 -75116723.633110046 -332551277.25588989 0 -332551277.25588989 -314238759.99151611 0 0 0 0 -270265970.51708221 757655811.78089905 0 757655811.78089905 -834190297.50280762 0 0 0 0 -2721326707.7805328 1475524709.3586273 0 1475524709.3586273 -989196266.53088379 0 0 0 0 -821829732.83105659 75025245.659942627 0 75025245.659942627 -730595205.13153076 0 0 0 0 -426704734.54033661 1026016306.4585114 0 1026016306.4585114 392214670.27523804 0 0 0 0 -2291398580.0632095 1646428966.1755981 0 1646428966.1755981 -43095622.199905396 0 0 0 0 -399612872.75737762 1473768378.1202621 0 1473768378.1202621 -1320162837.6034241 0 0 0 0 182401217.50430107 1062524997.6177597 0 1062524997.6177597 681490047.78656006 0 0 0 0 -84016453.926700592 392054342.86975098 0 392054342.86975098 -116746424.94863892 0 0 0 0 1263141928.9111633 1133968016.8068695 0 1133968016.8068695 465268840.77993774 0 0 0 0 341175820.07012939 1548642871.2409058 0 1548642871.2409058 234674137.77272034 0 0 0 0 529431398.37571716 1016828493.1988068 0 1016828493.1988068 1397578868.2007446 0 0 0 0 -1796384.5269676223 2565341.8008181974 0 2565341.8008181974 -486243.97699159384 0 0 0 0 1106309299.9036522 285621070.27734184 0 285621070.27734184 748549574.11221313 0 0 0 0 788481464.52730179 915300402.09016418 0 915300402.09016418 -450598259.92318726 0 0 0 0 -498886853.90895844 1501685753.1663818 0 1501685753.1663818 942957899.85273743 0 0 0 0 48856384.936584473 1081608432.7668152 0 1081608432.7668152 1143486835.3451996 0 0 0 0 364131857.18273926 670170734.0210228 0 670170734.0210228 722469935.42681885 0 0 0 0 213069740.097435 1036903088.446991 0 1036903088.446991 305304907.24391174 0 0 0 0 25355404.548559189 718263225.56699753 0 718263225.56699753 452546899.3052063 0 0 0 0 965164104.92736816 1474259088.9549561 0 1474259088.9549561 512009467.56584167 0 0 0 0 226953393.30186081 1009186250.1268845 0 1009186250.1268845 542412997.4777832 0 0 0 0 -134188886.82319784 151312757.78348732 0 151312757.78348732 -250007510.7144165 0 0 0 0 -61035728.79073143 404797532.79530716 0 404797532.79530716 -774048681.62322998 0 0 0 0 -359844668.84418106 519375250.03326416 0 519375250.03326416 -518482116.97787476 0 0 0 0 -113290649.46250725 279208380.29310608 0 279208380.29310608 -452568271.9012146 0 0 0 0 -114999014.97722244 118744433.61076355 0 118744433.61076355 -186001181.30252075 0 0 0 0 -99986386.952178955 77688759.676851273 0 77688759.676851273 -114553706.35968018 0 0 0 0 -89773596.925770164 169557088.09759426 0 169557088.09759426 -269033966.65509033 0 0 0 0 4757795.0418571234 -18147121.323934555 0 -18147121.323934555 -102687060.8682251 0 0 0 0 -7660584.6930980682 89036139.504608154 0 89036139.504608154 -250977365.00952148 0 0 0 0 -1367425.6913183182 14049174.683690205 0 14049174.683690205 3390555.8266742229 0 0 0 0 -32654686.162412643 -70541776.375953674 0 -70541776.375953674 75164395.7527771 0 0 0 0 66141280.720668316 -74187860.55056572 0 -74187860.55056572 -105440589.10736084 0 0 0 0 -140216338.17871094 -69190660.603286743 0 -69190660.603286743 241147722.80932617 0 0 0 0 -7504457.2843695581 5923288.3237969205 0 5923288.3237969205 4331999.48020247 0 0 0 0 15518181.72946167 66714561.920959473 0 66714561.920959473 8178253.351776123 0 0 0 0 39970683.013019562 120037473.59831238 0 120037473.59831238 -291546562.57268524 0 0 0 0 -146673916.81685543 -140516928.76578522 0 -140516928.76578522 -79529430.839385986 0 0 0 0 405087516.12149048 -261043754.13565063 0 -261043754.13565063 -676851151.4798584 0 0 0 0 481131535.88612366 384098980.18122864 0 384098980.18122864 -1440647001.4273376 0 0 0 0 -2056576451.7687683 1060504874.1923828 0 1060504874.1923828 -1204856090.1990662 0 0 0 0 -2384519081.2763672 760676828.02545166 0 760676828.02545166 -381858507.10865784 0 0 0 0 -828585142.48066711 958137945.38249207 0 958137945.38249207 -1394507793.7966766 0 0 0 0 -3003542.8909447379 2327493.9225190431 0 2327493.9225190431 1038285.4779880047 0 0 0 0 -2864872875.029438 885682696.82138443 0 885682696.82138443 -913211163.02758789 0 0 0 0 -2685757372.6200523 775372860.16279602 0 775372860.16279602 -198656086.76431274 0 0 0 0 -1729468637.1975441 667992722.08457947 0 667992722.08457947 -1278125586.1014099 0 0 0 0 -1389565122.1634331 1406665421.1122742 0 1406665421.1122742 -1286394006.5424213 0 0 0 0 -783721.28709983826 580157922.58200073 0 580157922.58200073 -1077046116.3034668 0 0 0 0 -238704725.50862122 416061024.88964844 0 416061024.88964844 -623013684.69942856 0 0 0 0 -585912618.58448029 786053220.35803223 0 786053220.35803223 -1038412433.6239319 0 0 0 0 -524371119.68283844 1017859045.8886108 0 1017859045.8886108 -1453116087.0753174 0 0 0 0 -1039202465.4237652 897494825.61303711 0 897494825.61303711 -588832188.07870483 0 0 0 0 -629023907.71653748 1000659440.587677 0 1000659440.587677 -965311756.4655304 0 0 0 0 -764979817.51911259 698258268.58027649 0 698258268.58027649 -388774598.00094604 0 0 0 0 -1018225728.6762714 992796599.62424469 0 992796599.62424469 -441233043.54470825 0 0 0 0 -1053791397.7215805 1052627653.5087967 0 1052627653.5087967 -649017847.94641113 0 0 0 0 -1321704423.2938881 408971095.92793274 0 408971095.92793274 -121845071.59115982 0 0 0 0 -1573890588.9020882 1006216114.8388596 0 1006216114.8388596 -399187931.83978271 0 0 0 0 -4929890.6997044832 3805511.5482799187 0 3805511.5482799187 5311926.7525096089 0 0 0 0 -379110887.5160408 16555266.97492981 0 16555266.97492981 661666875.85835266 0 0 0 0 -1150780315.272459 895370523.59768677 0 895370523.59768677 -471023700.10671997 0 0 0 0 -1615697634.3821793 1628130455.0454865 0 1628130455.0454865 -460216657.6587584 0 0 0 0 -2321740.1814450715 1310068.9232568741 0 1310068.9232568741 2615793.1447842568 0 0 0 0 -1303854585.8691158 1034528961.5499802 0 1034528961.5499802 595104535.05485535 0 0 0 0 -649845444.35258007 617469628.77235413 0 617469628.77235413 -103175386.99441528 0 0 0 0 -840377247.98667526 650854134.24526978 0 650854134.24526978 283187690.46115112 0 0 0 0 -856853933.35626793 871917085.13363647 0 871917085.13363647 -130425134.85562134 0 0 0 0 -562817761.72494888 603696225.7081604 0 603696225.7081604 -255719390.73369217 0 0 0 0 -281491596.75126266 375387539.17669678 0 375387539.17669678 -292357298.10134888 0 0 0 0 -415934172.49683559 432664142.93875265 0 432664142.93875265 -296778094.28436279 0 0 0 0 -402496701.73528671 693493325.44308472 0 693493325.44308472 -617258422.18736267 0 0 0 0 -329050774.54010773 289408968.22946167 0 289408968.22946167 -151395652.45874023 0 0 0 0 -436397085.60843468 354599646.76629639 0 354599646.76629639 40318214.630462646 0 0 0 0 -209788001.96855927 253662932.67405701 0 253662932.67405701 -162553382.02688599 0 0 0 0 -410631827.35918236 376126857.42237854 0 376126857.42237854 24344608.826553345 0 0 0 0 -786816464.98018456 363953938.29993534 0 363953938.29993534 205878932.88287354 0 0 0 0 -808792811.54798508 283574497.35942078 0 283574497.35942078 274334008.51478577 0 0 0 0 -1132883023.4137039 228297026.72854614 0 228297026.72854614 293809964.14927673 0 0 0 0 -1188715270.6521559 505240795.65604401 0 505240795.65604401 457914145.21612549 0 0 0 0 -1178972677.5797758 398157943.1866951 0 398157943.1866951 1144542293.8360291 0 0 0 0 -1189333309.2806225 342870001.18492126 0 342870001.18492126 621114312.77368164 0 0 0 0 -994757926.70050812 175829999.06100464 0 175829999.06100464 286110214.82000732 0 0 0 0 -1239779900.120369 395929600.52258301 0 395929600.52258301 88498816.707214355 0 0 0 0 -1343847331.5504246 70679731.061019897 0 70679731.061019897 228280993.50946045 0 0 0 0 -1298838955.309525 -164965082.3384161 0 -164965082.3384161 137036581.20870972 0 0 0 0 -1273267724.9237475 101868288.08034992 0 101868288.08034992 86733787.740234375 0 0 0 0 -931168753.91284895 -148726651.63035202 0 -148726651.63035202 61265840.838684082 0 0 0 0 -1192853970.7150459 218902596.08966064 0 218902596.08966064 317922513.87249756 0 0 0 0 3733564.5892930031 -759573249.33187485 0 -759573249.33187485 1688399740.5481567 0 0 0 0 -791597052.87042046 552264762.75964355 0 552264762.75964355 1466703170.1155224 0 0 0 0 -558732251.92168808 176816379.19445801 0 176816379.19445801 368065416.30239868 0 0 0 0 -960179161.75780451 464927419.25014782 0 464927419.25014782 164080609.32162476 0 0 0 0 -893556382.85542297 299418282.08662415 0 299418282.08662415 64746563.485549927 0 0 0 0 -414270498.3686893 12366822.116077423 0 12366822.116077423 -16385282.23449707 0 0 0 0 -684544672.75401783 729087467.50756454 0 729087467.50756454 -429126730.71630859 0 0 0 0 -696418073.85980797 720092180.47169495 0 720092180.47169495 -205625401.08457184 0 0 0 0 -4173542.5001724642 809848.6828257665 0 809848.6828257665 4444210.1581506431 0 0 0 0 -587227750.52400827 461060307.28196335 0 461060307.28196335 -445504053.71347046 0 0 0 0 -5086437.8372974209 480187.86308394372 0 480187.86308394372 4073720.5167559981 0 0 0 0 -781707387.83743286 504952257.93569946 0 504952257.93569946 -770132.15914916992 0 0 0 0 -934509520.83115768 687883384.07176208 0 687883384.07176208 -578553648.73913574 0 0 0 0 -804969088.83869553 657653548.50102234 0 657653548.50102234 -422142490.71742249 0 0 0 0 -1006652648.8324137 -215495592.36700058 0 -215495592.36700058 -88973111.921127319 0 0 0 0 -1699366595.6268291 73356658.880187988 0 73356658.880187988 -348572397.76715088 0 0 0 0 -2669234620.4051647 -160000793.04177856 0 -160000793.04177856 -240620662.26473999 0 0 0 0 -2336483533.16012 -282859409.65371704 0 -282859409.65371704 -362672533.24010754 0 0 0 0 -1994033273.4798908 -1119094997.7687683 0 -1119094997.7687683 -86499751.984268188 0 0 0 0 -482135.6431780383 558224.08032718301 0 558224.08032718301 184749.4169187285 0 0 0 0 -1836710363.8447514 -2292864.854598999 0 -2292864.854598999 70292449.082458496 0 0 0 0 -1299607451.9663601 286516367.79501343 0 286516367.79501343 -9389081.0114593506 0 0 0 0 -1115825454.3571997 606104951.0925293 0 606104951.0925293 -358419083.88302612 0 0 0 0 -1553428097.6835566 543396429.9592514 0 543396429.9592514 -208869750.22161865 0 0 0 0 -2352423473.8753033 401811434.83917236 0 401811434.83917236 -200070745.60211945 0 0 0 0 -2493443806.0919266 865279113.11749268 0 865279113.11749268 -1653020.433454701 0 0 0 0 -990997779.90134192 502547441.38373184 0 502547441.38373184 -455761490.65509033 0 0 0 0 -1278006885.4185576 812497650.58648682 0 812497650.58648682 -389291874.2461853 0 0 0 0 -3541180601.9162059 -204795270.43738556 0 -204795270.43738556 168117727.74664307 0 0 0 0 3578885.7862504013 -1252261.0303087085 0 -1252261.0303087085 -2945660.9539803714 0 0 0 0 4512635.9449279308 7283747.5533981323 0 7283747.5533981323 2645.2945556640625 0 0 0 0 380780.9499168396 4791623.9256439209 0 4791623.9256439209 -797427.50804138184 0 0 0 0 -751021.06870068749 5290892.3900884315 0 5290892.3900884315 773922.02319701388 0 0 0 0 13756822.324932098 7776472.5188446045 0 7776472.5188446045 -15880859.854629517 0 0 0 0 24953599.227005005 -19084532.972976685 0 -19084532.972976685 8397519.7596740723 0 0 0 0 33294081.309003592 2726062.5611419678 0 2726062.5611419678 -46263149.575622559 0 0 0 0 -2645772.9332342148 6609990.8854904175 0 6609990.8854904175 -15844.049560546875 0 0 0 0 -10318466.528785706 -50707033.758377075 0 -50707033.758377075 48142475.274368286 0 0 0 0 -1233389.1690892503 4536867.510704428 0 4536867.510704428 1323584.4869103469 0 0 0 0 -2732824.0980396271 4129435.5664367676 0 4129435.5664367676 -3933876.2107391357 0 0 0 0 -2952293.6933670044 1121391.7164459229 0 1121391.7164459229 46943.928192138672 0 0 0 0 21968503.920352936 58601227.825820923 0 58601227.825820923 -51026195.002044678 0 0 0 0 47460218.17943573 3257567.3630065918 0 3257567.3630065918 -112498567.28433228 0 0 0 0 -130108.30602132156 107516.27454275638 0 107516.27454275638 107669.69619850814 0 0 0 0 -39910033.003482819 22009485.336425781 0 22009485.336425781 -67107997.360740662 0 0 0 0 -101342119.87130737 35804441.344299316 0 35804441.344299316 7959389.7128295898 0 0 0 0 -29885248.910928726 41828988.36831665 0 41828988.36831665 -27758365.444725037 0 0 0 0 -32639505.962043762 -9545572.9880142212 0 -9545572.9880142212 5368303.254491806 0 0 0 0 -13957519.697794721 366675.65351057053 0 366675.65351057053 6032604.2076770067 0 0 0 0 -25849434.833961993 5282393.3948173523 0 5282393.3948173523 1483295.8805847168 0 0 0 0 -25358815.378258109 10393057.009300232 0 10393057.009300232 -5160536.505279541 0 0 0 0 6489307.6208062172 10442096.968261719 0 10442096.968261719 -3272797.1062774658 0 0 0 0 -10251712.415343728 337242.21853767335 0 337242.21853767335 5285942.418360278 0 0 0 0 -3726064.0081005096 14703772.354263306 0 14703772.354263306 -4480046.5588264465 0 0 0 0 -537665.77471843921 3639770.5205527022 0 3639770.5205527022 -6097022.0835750997 0 0 0 0 -441684711.59204626 -51287442.997795105 0 -51287442.997795105 69318189.694396973 0 0 0 0 -303679496.48268151 120315765.65198898 0 120315765.65198898 8840478.4337768555 0 0 0 0 -970128.19894903409 1129194.4728679322 0 1129194.4728679322 -4404303.1058109105 0 0 0 0 38083223.912261963 -23012608.031585693 0 -23012608.031585693 -37733451.012363434 0 0 0 0 188340906.45582581 88030445.559677124 0 88030445.559677124 -18943388.128234863 0 0 0 0 69113704.480773926 38508525.51550293 0 38508525.51550293 -32066823.047241211 0 0 0 0 56381755.23830986 50450443.938131332 0 50450443.938131332 -51735.900680541992 0 0 0 0 36815909.676395416 43071066.344306946 0 43071066.344306946 -2207078.6297912598 0 0 0 0 57598217.688891411 47984848.815923691 0 47984848.815923691 -10074793.09588623 0 0 0 0 98477897.066223145 68138903.724365234 0 68138903.724365234 -7826639.1131706238 0 0 0 0 65638475.823112488 57453559.353683472 0 57453559.353683472 618.23731994628906 0 0 0 0 23838305.919771194 33766733.557579041 0 33766733.557579041 18058916.337493896 0 0 0 0 75071211.08971405 70324085.050521851 0 70324085.050521851 16232285.67288208 0 0 0 0 48091161.814460754 81385766.97328186 0 81385766.97328186 90425935.571228027 0 0 0 0 31171506.933456421 34980587.435760498 0 34980587.435760498 8163255.5863189697 0 0 0 0 20725290.406564713 13434619.529998779 0 13434619.529998779 -2575869.6390838623 0 0 0 0 -10857798.7578125 12422265.599563599 0 12422265.599563599 7863302.8809967041 0 0 0 0 -947568.83768570051 150297.63494328409 0 150297.63494328409 86004.935731619596 0 0 0 0 705932.77946472168 62962286.937438965 0 62962286.937438965 -48287.512557983398 0 0 0 0 106408165.77556419 22921097.568393707 0 22921097.568393707 -1601267.7669830322 0 0 0 0 -6714102.1095857248 1402470.7427143455 0 1402470.7427143455 4206919.1421769857 0 0 0 0 12026378.904960632 135093259.22174072 0 135093259.22174072 21265872.561100006 0 0 0 0 -889360.13936498761 2504410.7016594112 0 2504410.7016594112 902466.22507827729 0 0 0 0 -65541415.642791748 -24709814.901565552 0 -24709814.901565552 -49645738.845947266 0 0 0 0 -58555223.461952209 35833170.203292847 0 35833170.203292847 48412174.507003784 0 0 0 0 -2572819.1103973389 13728816.416015625 0 13728816.416015625 13135322.961883545 0 0 0 0 -7862933.5618463904 1831611.5145228431 0 1831611.5145228431 4316164.0426768064 0 0 0 0 357930.87582397461 5601473.5922546387 0 5601473.5922546387 -994761.80110168457 0 0 0 0 -29320257.1035285 66807098.164165497 0 66807098.164165497 -31978437.279998779 0 0 0 0 -10997587.131543085 8030960.1521143615 0 8030960.1521143615 476711.35480576381 0 0 0 0 -24501143.962938786 12683007.493469238 0 12683007.493469238 -2044143.5434875488 0 0 0 0 -23195181.75594008 12444806.311311722 0 12444806.311311722 -6638317.2329406738 0 0 0 0 -37750803.739105225 61039758.369674683 0 61039758.369674683 36063149.419006348 0 0 0 0 -8240609.1855049133 -289391.51738739014 0 -289391.51738739014 -7268098.9516906738 0 0 0 0 1737983.8139748052 4332301.5705632903 0 4332301.5705632903 -2299323.519401893 0 0 0 0 12002571.846702576 32467332.569625854 0 32467332.569625854 -109836602.0174675 0 0 0 0 3729395.4519447759 6706083.5426482409 0 6706083.5426482409 -3281614.3466579113 0 0 0 0 50458995.668468475 114526058.26581573 0 114526058.26581573 56078613.358612061 0 0 0 0 4220460.2451133728 -46460373.664352417 0 -46460373.664352417 162493923.77101135 0 0 0 0 -17057581.634719849 -5722574.4903869629 0 -5722574.4903869629 78653488.680786133 0 0 0 0 6945239.4212532043 132459335.39247894 0 132459335.39247894 130699705.8458252 0 0 0 0 -38001677.726959229 37628620.941802979 0 37628620.941802979 135285203.60540771 0 0 0 0 435338861.7702179 160146360.2253418 0 160146360.2253418 -46352011.469848633 0 0 0 0 1347595.1909267157 2400935.3931551129 0 2400935.3931551129 -1102532.6532121152 0 0 0 0 208628257.57439613 -81701424.235710144 0 -81701424.235710144 -157287223.61190796 0 0 0 0 -1814340.3474946413 -203248.33662489057 0 -203248.33662489057 2353982.5715255886 0 0 0 0 201811046.33107758 226757431.57014465 0 226757431.57014465 210171903.11550903 0 0 0 0 202823885.58688354 -512515930.56336975 0 -512515930.56336975 -122604575.04516602 0 0 0 0 458079920.6660614 87462905.94039917 0 87462905.94039917 -43707400.401941299 0 0 0 0 224518907.82951736 30664181.51084137 0 30664181.51084137 -39963073.128265381 0 0 0 0 2129143.9534316063 4369204.1493320465 0 4369204.1493320465 -41667877.319519043 0 0 0 0 1305452.0905943997 16983561.996186018 0 16983561.996186018 6812568.6829696894 0 0 0 0 40227470.139713287 48471129.100105286 0 48471129.100105286 -142667780.70906067 0 0 0 0 13652230.104454041 -32038903.26713562 0 -32038903.26713562 -28363076.702209473 0 0 0 0 -948599.0700340271 10231344.829566956 0 10231344.829566956 -90849789.250701904 0 0 0 0 -28706469.11019516 -7641109.0048370361 0 -7641109.0048370361 7423708.8354797363 0 0 0 0 3244358.6430528592 4347640.8038842492 0 4347640.8038842492 -3724690.1936711371 0 0 0 0 -44646644.275878668 22896581.255233765 0 22896581.255233765 -2937617.941608429 0 0 0 0 -30585409.553886414 -1257841.2589263916 0 -1257841.2589263916 -14174517.721069336 0 0 0 0 -12479120.091856003 13553234.428970337 0 13553234.428970337 -13118074.124145508 0 0 0 0 -228328976.88132286 406645883.82398224 0 406645883.82398224 -505039120.02735901 0 0 0 0 -224527958.63635826 419854755.71608734 0 419854755.71608734 -502102058.48748779 0 0 0 0 -186192145.50778961 592347167.49001694 0 592347167.49001694 -1009001701.9915619 0 0 0 0 -1982108.3331354409 17448124.927145004 0 17448124.927145004 7645979.7560810372 0 0 0 0 412106818.89634705 385935712.63108826 0 385935712.63108826 -1620533623.1533203 0 0 0 0 -228359093.79361916 526115697.11245346 0 526115697.11245346 -807733336.47109985 0 0 0 0 -236858154.10796356 915559964.70599365 0 915559964.70599365 -303311715.80532837 0 0 0 0 -241782977.67993355 953967040.99713326 0 953967040.99713326 554893573.09237671 0 0 0 0 1102340420.6457977 1906652361.631546 0 1906652361.631546 -1798885493.261673 0 0 0 0 161883563.99994659 209478473.55670166 0 209478473.55670166 -1738756280.1928711 0 0 0 0 -26709209.973082542 102211682.02179909 0 102211682.02179909 -1278075780.4928284 0 0 0 0 85258007.78187561 508191663.12388611 0 508191663.12388611 -1665785365.7770004 0 0 0 0 129198339.10352707 82484412.447540283 0 82484412.447540283 4034553.6938171387 0 0 0 0 85211658.323829651 77672666.378768921 0 77672666.378768921 161973828.67578125 0 0 0 0 150668461.33534813 222795393.78561401 0 222795393.78561401 199569845.98531342 0 0 0 0 -8872994.1154398918 60113041.798278809 0 60113041.798278809 157302428.65618896 0 0 0 0 34361078.500897408 37958012.456787109 0 37958012.456787109 -45523686.078033447 0 0 0 0 76053658.975854874 83630199.588287354 0 83630199.588287354 4341492.5965461731 0 0 0 0 99308996.514995575 30775516.727661133 0 30775516.727661133 -82452788.719665527 0 0 0 0 43258248.401054382 21783547.527160645 0 21783547.527160645 -51303579.354064941 0 0 0 0 39057917.183383942 44447149.928955078 0 44447149.928955078 -6287894.3135375977 0 0 0 0 -26378202.818454742 64786927.803039551 0 64786927.803039551 -132635357.52166748 0 0 0 0 -27369436.521276474 54659099.391723633 0 54659099.391723633 -60092833.531219482 0 0 0 0 -233190870.96127939 199246148.4549408 0 199246148.4549408 -35114891.824645996 0 0 0 0 -119205907.39766312 86411485.972244263 0 86411485.972244263 67888551.142150879 0 0 0 0 143074133.39079285 64210669.825866699 0 64210669.825866699 -21846072.178939819 0 0 0 0 -82193119.754592896 123741576.11151123 0 123741576.11151123 824136.70071411133 0 0 0 0 -6336354.7186927795 27310854.825683594 0 27310854.825683594 109165266.07995605 0 0 0 0 330112008.33901596 163655710.83416748 0 163655710.83416748 46664781.293212891 0 0 0 0 -189193521.0288496 65946230.696609497 0 65946230.696609497 34035210.535400391 0 0 0 0 213094532.52788925 49745596.693450928 0 49745596.693450928 81687286.493560791 0 0 0 0 -465828529.3352809 246829227.47183609 0 246829227.47183609 165371538.69952393 0 0 0 0 -166938090.21488571 33181411.840881348 0 33181411.840881348 238908648.03378296 0 0 0 0 -197862942.44927979 221914604.05429077 0 221914604.05429077 34079553.331504822 0 0 0 0 -13471539.225470543 12012953.457519531 0 12012953.457519531 4599116.4345397949 0 0 0 0 -31450232.748080969 -30248300.504348755 0 -30248300.504348755 16718070.170410156 0 0 0 0 124083503.5434761 192261064.30828857 0 192261064.30828857 258496011.50390625 0 0 0 0 -1409402.0926572066 284353.42299691588 0 284353.42299691588 567968.74987614155 0 0 0 0 -1003492.0072812783 330955.11061614007 0 330955.11061614007 598859.00031638145 0 0 0 0 -24132316.717900932 3642253.1404571533 0 3642253.1404571533 25822504.443939209 0 0 0 0 -14930136.963370711 26353878.753793716 0 26353878.753793716 13566350.576690674 0 0 0 0 -37043455.263754606 8085132.086227417 0 8085132.086227417 6536985.9026489258 0 0 0 0 -37075873.204489619 50261350.537582397 0 50261350.537582397 -5044515.5012512207 0 0 0 0 -27845260.148555383 41771697.211074829 0 41771697.211074829 -16169673.459777832 0 0 0 0 -22657750.448537827 47818545.538757324 0 47818545.538757324 48322484.135223389 0 0 0 0 -24995978.349657416 35765300.552513123 0 35765300.552513123 -4357382.9471740723 0 0 0 0 30514636.944656372 77640011.99961853 0 77640011.99961853 -12150396.824188232 0 0 0 0 -36647108.641629785 46871973.296646118 0 46871973.296646118 3083363.8798065186 0 0 0 0 2055236.1933646202 43337274.918334961 0 43337274.918334961 -51030592.036224365 0 0 0 0 3993115.5619185064 17323795.533776067 0 17323795.533776067 769278.08405559137 0 0 0 0 15030835.750429153 57447109.175537109 0 57447109.175537109 -62045619.531768799 0 0 0 0 -194512274.81428528 375596991.56738281 0 375596991.56738281 -584116617.20230103 0 0 0 0 6548344.5304654045 6705970.8365043923 0 6705970.8365043923 -8158170.294206351 0 0 0 0 -6473741.4974873606 18702544.840351999 0 18702544.840351999 9063268.6016518846 0 0 0 0 -4616697.6820049286 13847866.289657593 0 13847866.289657593 -36644479.969177246 0 0 0 0 1430768.1839112816 1602085.0822998174 0 1602085.0822998174 -1979356.7271224409 0 0 0 0 -217883756.27176476 406035472.21035767 0 406035472.21035767 -521057299.739151 0 0 0 0 -211712189.20710754 456465694.27934265 0 456465694.27934265 -405513142.67578125 0 0 0 0 -132849829.22221375 175474164.76538086 0 175474164.76538086 -293534067.89031982 0 0 0 0 4018579.6093029976 32423652.364570618 0 32423652.364570618 -47144063.929718018 0 0 0 0 -333813692.19394302 159360373.45405579 0 159360373.45405579 -43083080.015045166 0 0 0 0 9912937.6024971008 142633338.06787109 0 142633338.06787109 -195071876.4304657 0 0 0 0 -409848089.53427887 535208097.34710693 0 535208097.34710693 -434450758.58079529 0 0 0 0 1845819.8963784575 14472883.633463733 0 14472883.633463733 2340780.4909950122 0 0 0 0 -172227337.83975601 98660085.046279907 0 98660085.046279907 92853504.883575439 0 0 0 0 79685057.035010636 -310544.59602355957 0 -310544.59602355957 3734408.481842041 0 0 0 0 34616894.058965683 -3458917.3567657471 0 -3458917.3567657471 33843351.067993164 0 0 0 0 42518165.511119843 836567.64112854004 0 836567.64112854004 -69718453.582809448 0 0 0 0 9312192.9777694345 13513831.733875275 0 13513831.733875275 -73380595.278991699 0 0 0 0 72400669.515203476 43706193.747436523 0 43706193.747436523 -61829396.375976562 0 0 0 0 47422166.976688385 22029896.407485962 0 22029896.407485962 -68044961.917877197 0 0 0 0 21340102.035732269 34787892.605529785 0 34787892.605529785 -174812535.31167603 0 0 0 0 53036150.486955643 9437371.9004516602 0 9437371.9004516602 -118099504.62081909 0 0 0 0 16175919.681838989 8837438.7790527344 0 8837438.7790527344 -89794461.823669434 0 0 0 0 41219037.067714691 -6601795.0676727295 0 -6601795.0676727295 -94003662.569942474 0 0 0 0 18215639.185428619 24720723.640090942 0 24720723.640090942 -53216069.834411621 0 0 0 0 -1669912.80510912 7666553.5376531556 0 7666553.5376531556 5207987.9774585776 0 0 0 0 -8881187.4727315903 15551663.409301758 0 15551663.409301758 51693213.015293121 0 0 0 0 56666395.001179695 292264224.02442932 0 292264224.02442932 214089142.11802673 0 0 0 0 34829337.255937576 419018951.45431519 0 419018951.45431519 421129683.69750977 0 0 0 0 149316014.72805214 560544597.69042015 0 560544597.69042015 -190450022.47525024 0 0 0 0 -276306.72310771979 4180242.6430812106 0 4180242.6430812106 1013836.0789760649 0 0 0 0 55696967.626718044 225377097.32215881 0 225377097.32215881 -523325301.10412598 0 0 0 0 45665192.972072601 379830418.53045654 0 379830418.53045654 -807012072.16627502 0 0 0 0 197247955.10882664 626678380.32757568 0 626678380.32757568 -442833882.72250366 0 0 0 0 -26539940.972844601 573640449.21525669 0 573640449.21525669 -205024151.71850586 0 0 0 0 -12534151.366286993 407540716.76521683 0 407540716.76521683 -475822569.62069702 0 0 0 0 275159557.88452601 906606529.19844055 0 906606529.19844055 -355554984.16516113 0 0 0 0 248079436.95377779 816139957.07229614 0 816139957.07229614 -45586786.913032532 0 0 0 0 403500281.79043019 865955126.86476135 0 865955126.86476135 -416148875.82337189 0 0 0 0 389504214.56170243 671673478.19721591 0 671673478.19721591 -210572652.33328247 0 0 0 0 511881172.62482119 735524928.97918701 0 735524928.97918701 -408782566.92036438 0 0 0 0 231563607.31358337 328358549.22004318 0 328358549.22004318 -402847325.9029541 0 0 0 0 -1645026817.1120758 651975319.29304504 0 651975319.29304504 558872074.2635498 0 0 0 0 -293715.38508730754 10723902.723235145 0 10723902.723235145 15599308.838051707 0 0 0 0 -154368350.44336352 465020467.91651559 0 465020467.91651559 -454180555.40246582 0 0 0 0 -155992798.62937737 377689725.48506165 0 377689725.48506165 -299437088.87039948 0 0 0 0 -233031012.4472847 320229739.27096558 0 320229739.27096558 -401084311.45227051 0 0 0 0 -320950997.33971024 330636171.98223877 0 330636171.98223877 -369044885.42831421 0 0 0 0 -256177554.98265457 306294045.15089798 0 306294045.15089798 -438786618.51202393 0 0 0 0 -310374644.90812302 346063799.53749084 0 346063799.53749084 -405428392.26922607 0 0 0 0 -231006459.89923668 343451061.36125183 0 343451061.36125183 -444188914.3430481 0 0 0 0 -171934276.34537125 434710538.84538269 0 434710538.84538269 -323858491.73921204 0 0 0 0 -280730898.43545341 326202333.11320496 0 326202333.11320496 -350613765.73709106 0 0 0 0 -367020700.82328033 477952437.59030151 0 477952437.59030151 -485521919.93651581 0 0 0 0 -419224027.35570383 220599739.04472351 0 220599739.04472351 -508413482.15002441 0 0 0 0 -178464133.98123455 384847472.62737274 0 384847472.62737274 -511240280.02789307 0 0 0 0 -128528822.02075195 299148505.66560364 0 299148505.66560364 -733812632.2449646 0 0 0 0 -258436234.16133881 361557005.7822876 0 361557005.7822876 -515001295.24256897 0 0 0 0 -253486437.28728485 386006831.95706177 0 386006831.95706177 -443791358.8578949 0 0 0 0 -299118750.08560181 434489629.75474548 0 434489629.75474548 -489629729.28756714 0 0 0 0 -355520377.94436455 398731915.09784317 0 398731915.09784317 -387925981.23739624 0 0 0 0 5267664.0270710886 8576522.7368663698 0 8576522.7368663698 8399378.2058087811 0 0 0 0 -296995768.01020479 342859121.44984436 0 342859121.44984436 -380896268.79669189 0 0 0 0 -296085940.83925247 361888217.00428772 0 361888217.00428772 -418261993.68458939 0 0 0 0 -302361679.54181767 380836640.62919712 0 380836640.62919712 -440180964.09472656 0 0 0 0 505553211.17992783 -1332779920.3817396 0 -1332779920.3817396 -513112463.51507568 0 0 0 0 -284880271.96523285 308693176.7171936 0 308693176.7171936 497987022.88431168 0 0 0 0 1384982.4310133681 2765028.9530027173 0 2765028.9530027173 3061914.8820270896 0 0 0 0 -277811882.98937988 272000911.28067017 0 272000911.28067017 -196461053.0514679 0 0 0 0 699295559.06227875 223654171.0308609 0 223654171.0308609 -1817308284.0651398 0 0 0 0 600818083.45270538 -113833460.26742554 0 -113833460.26742554 -408804470.80981445 0 0 0 0 724728.11674918933 3632385.8009915482 0 3632385.8009915482 -141596.95279440284 0 0 0 0 -82343131.174041748 -20844952.87940979 0 -20844952.87940979 -174282267.03944397 0 0 0 0 245375884.41246033 79889740.771133423 0 79889740.771133423 -340970621.43648338 0 0 0 0 210195717.07266617 -193898772.12722778 0 -193898772.12722778 -269480549.77549744 0 0 0 0 -28246265.474082947 -512399947.22466278 0 -512399947.22466278 -161986874.79317474 0 0 0 0 -58321407.471693516 -127719514.21069098 0 -127719514.21069098 2636879792.8600769 0 0 0 0 -641721552.97857666 -73127233.220863342 0 -73127233.220863342 905160503.89271545 0 0 0 0 585602.32741249818 4785573.8378247619 0 4785573.8378247619 2209179.2483005375 0 0 0 0 1953241715.9150925 4458573451.975174 0 4458573451.975174 -1138957031.9215393 0 0 0 0 4997138.7873224746 12598599.822786327 0 12598599.822786327 14111648.156644508 0 0 0 0 -341793927.17356491 394365577.08023071 0 394365577.08023071 -411716033.6370697 0 0 0 0 423836720.5500946 -1937479072.1897202 0 -1937479072.1897202 -304456125.85902405 0 0 0 0 1672844769.0624084 1656339459.4051819 0 1656339459.4051819 1588596856.833931 0 0 0 0 60230.164831820875 1731871.7970378241 0 1731871.7970378241 10828336.28076756 0 0 0 0 2927302906.79739 855679709.43255234 0 855679709.43255234 264459767.81747437 0 0 0 0 -2277084961.044838 -1326980302.1477661 0 -1326980302.1477661 2135457122.5239487 0 0 0 0 659252469.97247505 -1192492150.9128571 0 -1192492150.9128571 806557965.03378296 0 0 0 0 -1050965524.7359848 -274265601.68939209 0 -274265601.68939209 313565109.87597656 0 0 0 0 1342171135.5970221 1149123033.6464081 0 1149123033.6464081 361157695.33758545 0 0 0 0 1519317330.6961136 114149585.00712585 0 114149585.00712585 -63717094.846298218 0 0 0 0 417159580.48962402 13794030.81439209 0 13794030.81439209 158326170.9322052 0 0 0 0 458664639.08740234 104274262.86677551 0 104274262.86677551 265932394.40898132 0 0 0 0 -890126846.08634567 13617767.086120605 0 13617767.086120605 621592782.47360229 0 0 0 0 1697295.7698112512 10283151.078166774 0 10283151.078166774 28959538.311214134 0 0 0 0 458562516.5988884 125702603.64450836 0 125702603.64450836 69348403.246643066 0 0 0 0 558047243.74073792 -273521688.24081421 0 -273521688.24081421 165763022.53036499 0 0 0 0 -3469433.5925682262 -50536.312640313059 0 -50536.312640313059 4562503.1647203416 0 0 0 0 -762584248.09436035 283566880.62442017 0 283566880.62442017 -305695800.46999931 0 0 0 0 506140866.34168243 454617640.12266541 0 454617640.12266541 -32571474.307723999 0 0 0 0 653686410.17763519 1011637915.8101044 0 1011637915.8101044 315773908.21191406 0 0 0 0 525239867.39063263 870461695.69987488 0 870461695.69987488 1053477645.3526764 0 0 0 0 -141054905.04597473 931259170.63273621 0 931259170.63273621 1213896565.7795563 0 0 0 0 418973617.84687805 603610345.16043091 0 603610345.16043091 595964652.77217865 0 0 0 0 705760263.65724945 883152063.35002136 0 883152063.35002136 328046061.61985779 0 0 0 0 265875.69179389952 2729949.9302350804 0 2729949.9302350804 1515807.7998427004 0 0 0 0 1026638185.7161407 1350105038.7926102 0 1350105038.7926102 569813165.25697327 0 0 0 0 -1914680764.4014626 1398052232.2269611 0 1398052232.2269611 1395162924.3840027 0 0 0 0 -1470842065.7249947 1335562885.2540665 0 1335562885.2540665 1294179427.7721558 0 0 0 0 -360487569.18864822 -57548441.416339874 0 -57548441.416339874 -222562258.14035034 0 0 0 0 -755074174.09075928 1222047704.7976227 0 1222047704.7976227 -913897970.43624878 0 0 0 0 -48636104.964909554 190135467.28113556 0 190135467.28113556 233161378.79202271 0 0 0 0 374897387.96040344 504424731.06158447 0 504424731.06158447 -402027.96240234375 0 0 0 0 -1465652643.3253479 762278942.18836975 0 762278942.18836975 -330307255.00315857 0 0 0 0 -166145345.82129669 207848696.11959839 0 207848696.11959839 -120633337.19195557 0 0 0 0 -652185022.79072571 562329737.23219299 0 562329737.23219299 -147874903.95910645 0 0 0 0 230537457.92127991 392301433.98025513 0 392301433.98025513 -571104291.08761597 0 0 0 0 7495045.0803794861 366967823.37181091 0 366967823.37181091 -613672871.56665039 0 0 0 0 -16330759.922908783 -91605496.941566467 0 -91605496.941566467 -331311973.24254608 0 0 0 0 3609008.172592856 4488176.7291017771 0 4488176.7291017771 -6900320.1543467492 0 0 0 0 -1880224382.7030869 1358730083.0989532 0 1358730083.0989532 -283104564.13332367 0 0 0 0 27992687.826400757 50152632.038955688 0 50152632.038955688 -38963337.973754883 0 0 0 0 10548059.169015057 14418446.067753002 0 14418446.067753002 -2768546.0634082109 0 0 0 0 294251163.36418152 -75974464.434165955 0 -75974464.434165955 -91597572.066711426 0 0 0 0 85075951.879714966 47532110.61038208 0 47532110.61038208 84163346.365234375 0 0 0 0 271371908.50704193 411424915.134758 0 411424915.134758 -242314254.97549438 0 0 0 0 -431032539.88106537 412573804.45845032 0 412573804.45845032 75390892.990615845 0 0 0 0 555713982.332582 152135831.52101517 0 152135831.52101517 -206720244.59411621 0 0 0 0 671813650.75391388 -213469198.10726357 0 -213469198.10726357 -282178819.86676025 0 0 0 0 2702544.8701609317 2471873.5100638494 0 2471873.5100638494 -2924869.3769490123 0 0 0 0 -31513619.670730591 -176894104.81585693 0 -176894104.81585693 154988639.45361328 0 0 0 0 -399570621.12359619 328621976.90365601 0 328621976.90365601 241548114.09195709 0 0 0 0 -328124896.9190588 -238878838.2463007 0 -238878838.2463007 187221698.01675415 0 0 0 0 -2195271.8017578125 2113265.4934692383 0 2113265.4934692383 5230179.2589950562 0 0 0 0 7186899.577609539 131896452.55218744 0 131896452.55218744 -49450454.06401062 0 0 0 0 -769694271.75440216 1034556309.0504761 0 1034556309.0504761 -246101135.26330566 0 0 0 0 6181103.9917702079 23475885.995016836 0 23475885.995016836 36110146.586274751 0 0 0 0 -918971409.66847992 592916935.6104393 0 592916935.6104393 20183994.189086914 0 0 0 0 -290451433.16759491 577482225.18649292 0 577482225.18649292 -120124908.14138794 0 0 0 0 140891132.21065331 458746287.46035767 0 458746287.46035767 -917676255.71224976 0 0 0 0 963011110.91992569 577261869.3924408 0 577261869.3924408 -318740380.32313156 0 0 0 0 14760610.002555847 586707344.15917969 0 586707344.15917969 -312149242.90280151 0 0 0 0 -290134740.38404751 841083717.82131958 0 841083717.82131958 903270901.90353394 0 0 0 0 -87031168.485916138 443596860.5244751 0 443596860.5244751 -713628220.27303314 0 0 0 0 21449368.879610687 37943246.16268374 0 37943246.16268374 34385541.520946957 0 0 0 0 -42062721.598508835 910600883.55540466 0 910600883.55540466 -907804319.80935049 0 0 0 0 191469659.99833107 242315118.93106079 0 242315118.93106079 -575575113.2265625 0 0 0 0 180835250.11161613 128697075.55471802 0 128697075.55471802 -1051722121.802475 0 0 0 0 594838089.37216759 495026407.271698 0 495026407.271698 -732131354.50854492 0 0 0 0 324405223.30887508 1142406420.9161377 0 1142406420.9161377 -1015466872.5827332 0 0 0 0 1063831723.8275471 -477119791.96255493 0 -477119791.96255493 -1500850278.64151 0 0 0 0 1257492801.4986877 -1049648247.6271362 0 -1049648247.6271362 35303761.046112061 0 0 0 0 -421570298.18999481 420297477.60955811 0 420297477.60955811 -768904720.68121338 0 0 0 0 512236419.13768339 76773712.33001709 0 76773712.33001709 -647628934.16262817 0 0 0 0 -457746967.43338823 -705480171.85118198 0 -705480171.85118198 -525587060.54675293 0 0 0 0 191020101.96319103 -411741523.50834656 0 -411741523.50834656 -395264598.25668335 0 0 0 0 -99265429.991335869 -277684799.55107117 0 -277684799.55107117 -79327468.866516113 0 0 0 0 733006101.99346948 -592310911.6526947 0 -592310911.6526947 33915747.150436401 0 0 0 0 439053988.49502563 250448364.29446411 0 250448364.29446411 340939288.36639404 0 0 0 0 234968925.84105301 176075127.44689941 0 176075127.44689941 -301542929.71081543 0 0 0 0 899886892.66825461 330879319.40315247 0 330879319.40315247 -290887446.44662285 0 0 0 0 2465776138.6735916 642964777.33872223 0 642964777.33872223 350947485.03634644 0 0 0 0 362012664.742136 -521692895.77157593 0 -521692895.77157593 1530911624.6288757 0 0 0 0 16952052.689223275 -43718773.986564636 0 -43718773.986564636 927819602.01507568 0 0 0 0 684012122.00196314 1306358079.5362778 0 1306358079.5362778 694745555.9433136 0 0 0 0 1012020981.1045308 378799824.57411957 0 378799824.57411957 -561000155.48496246 0 0 0 0 -106445563.49331284 -899087699.62776184 0 -899087699.62776184 2598727848.9032593 0 0 0 0 -2413423.7493061749 4128657.3960767016 0 4128657.3960767016 7896543.3639968932 0 0 0 0 -277531602.52195549 -121785893.90278625 0 -121785893.90278625 797246498.3371582 0 0 0 0 -1054104705.2872238 -170540505.87016296 0 -170540505.87016296 1329088207.2627258 0 0 0 0 -502214234.43592072 560028007.57992554 0 560028007.57992554 823851010.75898743 0 0 0 0 -789761465.57521439 457451970.31047058 0 457451970.31047058 810977490.84747314 0 0 0 0 -225288878.48692989 172581270.53298187 0 172581270.53298187 876627498.8968811 0 0 0 0 54883336.970302582 1103880000.452301 0 1103880000.452301 2529622834.0555944 0 0 0 0 -91911534.431526184 -21407601.053535461 0 -21407601.053535461 169303047.97609711 0 0 0 0 -25089057.260391235 95729138.022163391 0 95729138.022163391 -53990802.486450195 0 0 0 0 43938996.868172646 -212787849.40818882 0 -212787849.40818882 -192913008.29077148 0 0 0 0 -78126436.148765564 82072043.631416321 0 82072043.631416321 -138079733.9616394 0 0 0 0 4582401.8208801448 -778580.68411290646 0 -778580.68411290646 -781137.57143398747 0 0 0 0 -35556584.538696289 75541417.080505371 0 75541417.080505371 -162999231.30443573 0 0 0 0 -44392040.02517128 101510796.0632515 0 101510796.0632515 -174455494.17208862 0 0 0 0 12076179.919776917 -61801873.677825928 0 -61801873.677825928 67675891.125305176 0 0 0 0 -101401307.78569984 44208370.976600647 0 44208370.976600647 108083524.9344101 0 0 0 0 -5527118.3715698775 7355704.9513580278 0 7355704.9513580278 7055130.7450857051 0 0 0 0 7378766.3196921311 22271494.282199159 0 22271494.282199159 12992552.831392415 0 0 0 0 -143381034.00904846 15384985.079994202 0 15384985.079994202 109520351.47743988 0 0 0 0 7063508.6473274231 20859748.347013474 0 20859748.347013474 51842886.653884888 0 0 0 0 -29544096.814537048 133750090.70715332 0 133750090.70715332 -75238408.852073669 0 0 0 0 52073464.21119976 -125535865.23303604 0 -125535865.23303604 261937833.99661255 0 0 0 0 7747327.2249192558 15486607.24647476 0 15486607.24647476 12100307.485541001 0 0 0 0 -118844744.48161125 33548061.942342758 0 33548061.942342758 272378198.78182983 0 0 0 0 -46997881.948623657 3065392.6470184326 0 3065392.6470184326 279323377.66996765 0 0 0 0 -222726870.08768463 172995410.0267868 0 172995410.0267868 188077695.99529266 0 0 0 0 -98446738.790998459 71827049.41386795 0 71827049.41386795 270403816.67533875 0 0 0 0 -319373460.08149719 195276826.68801498 0 195276826.68801498 276879466.0166626 0 0 0 0 -372909562.32865906 211986931.35325623 0 211986931.35325623 332242578.38656616 0 0 0 0 -202338573.86304855 37768594.056900024 0 37768594.056900024 426386123.11122131 0 0 0 0 130190135.79588509 -437392810.40772629 0 -437392810.40772629 616903336.16122437 0 0 0 0 -342754289.93878937 -88740141.668075562 0 -88740141.668075562 557917243.39225388 0 0 0 0 7266439.9457875378 10510918.70711893 0 10510918.70711893 8842544.357505843 0 0 0 0 -419823437.06866455 80781898.586265564 0 80781898.586265564 -54379615.992714882 0 0 0 0 -369264503.34339142 -72125444.68321991 0 -72125444.68321991 364690561.91262817 0 0 0 0 -338758076.55996323 567609153.60006714 0 567609153.60006714 -80740026.972629547 0 0 0 0 -296707134.00076675 373229987.44422913 0 373229987.44422913 405936158.93727875 0 0 0 0 783773165.61109924 913825170.58117676 0 913825170.58117676 661922411.99613953 0 0 0 0 831985936.67728806 1260295981.2424355 0 1260295981.2424355 343525774.55575562 0 0 0 0 -2049519136.9741821 -1251430628.9178162 0 -1251430628.9178162 347098415.684021 0 0 0 0 -1195356859.3780746 2775479421.3845291 0 2775479421.3845291 3705273580.4981079 0 0 0 0 -724541199.16884613 33231267.299468994 0 33231267.299468994 1334141374.6341171 0 0 0 0 -736626159.79897308 -498958508.88256836 0 -498958508.88256836 -57333820.798706055 0 0 0 0 252657620.07209778 185306964.98249817 0 185306964.98249817 33460213.634033203 0 0 0 0 11119063.045043506 13197385.275683017 0 13197385.275683017 3965624.1874798611 0 0 0 0 3301031875.1890259 812467132.20349121 0 812467132.20349121 -377801426.39276123 0 0 0 0 1581407919.9120483 -636807349.77793884 0 -636807349.77793884 35992426.307243347 0 0 0 0 5046338776.9737549 2713222470.2384949 0 2713222470.2384949 670638580.31550598 0 0 0 0 4911947.6013543904 467142.78787178546 0 467142.78787178546 -183182.37083367258 0 0 0 0 28984672.258987427 509035378.99021912 0 509035378.99021912 1122571465.9080505 0 0 0 0 6398583217.800354 1972862151.4060059 0 1972862151.4060059 1451686973.1205444 0 0 0 0 4897632484.3682785 -762682205.02401733 0 -762682205.02401733 -28552166.222183228 0 0 0 0 5280883.7821321003 4395068.4131230973 0 4395068.4131230973 799884.93828887492 0 0 0 0 -511318189.75150299 2651825166.0382843 0 2651825166.0382843 2065941313.8214264 0 0 0 0 -42636324.798400879 150920307.98020935 0 150920307.98020935 -577713945.9944458 0 0 0 0 2587407045.2485008 954925286.0281601 0 954925286.0281601 -108747080.70129395 0 0 0 0 134296069.78495789 514707712.18673706 0 514707712.18673706 -174878119.77206421 0 0 0 0 1152456548.9472198 -99476811.065544128 0 -99476811.065544128 -369231802.88868713 0 0 0 0 1044117861.7038383 -262953033.2639389 0 -262953033.2639389 -101893873.92842102 0 0 0 0 304410015.18296051 133804565.12729645 0 133804565.12729645 -396031572.92710876 0 0 0 0 358813249.92853546 80448104.814102173 0 80448104.814102173 -345901139.70684814 0 0 0 0 237529760.66375732 129538314.78420258 0 129538314.78420258 -329785039.51776123 0 0 0 0 -343413945.0226059 146716836.90288544 0 146716836.90288544 -236786176.13204956 0 0 0 0 141304958.79184723 380224795.76544952 0 380224795.76544952 -622978435.07577515 0 0 0 0 -191113757.41004944 -525409224.51482391 0 -525409224.51482391 -607347686.77584839 0 0 0 0 8589728.4292592034 -486465.90901755542 0 -486465.90901755542 -1367254.4024674892 0 0 0 0 -84856711.371994019 222557329.19186401 0 222557329.19186401 -289461538.9828186 0 0 0 0 217327805.18025208 -239144988.0572052 0 -239144988.0572052 -87951304.88584137 0 0 0 0 -233458457.48234558 135461881.56947327 0 135461881.56947327 -85508176.196655273 0 0 0 0 324428911.01698303 -15539380.491500854 0 -15539380.491500854 -243086004.04670715 0 0 0 0 -107924212.2203064 22462608.294769287 0 22462608.294769287 -84632402.623199463 0 0 0 0 1734458.6649110913 -497250.90322590619 0 -497250.90322590619 -1557036.8191222697 0 0 0 0 2350110.0561828613 121932607.1703949 0 121932607.1703949 -271371512.85224915 0 0 0 0 -31694162.361875534 126351438.12375259 0 126351438.12375259 18416870.757507324 0 0 0 0 3165485.4008351155 -777695.35767672211 0 -777695.35767672211 -2730748.3336877823 0 0 0 0 226100607.59677505 115627070.10402679 0 115627070.10402679 -214518621.60513306 0 0 0 0 161905748.87294769 8770674.8714370728 0 8770674.8714370728 -246584054.98418427 0 0 0 0 40343521.851764679 120476841.18185425 0 120476841.18185425 277220733.53097534 0 0 0 0 81424845.531682968 126670520.16425705 0 126670520.16425705 2515307.518737793 0 0 0 0 -439005255.65271854 463220290.78113556 0 463220290.78113556 -179157112.71044922 0 0 0 0 272286590.07781219 129272298.14634705 0 129272298.14634705 -345662265.82739258 0 0 0 0 273804914.61014557 137199807.8223114 0 137199807.8223114 -306461219.63502502 0 0 0 0 205567430.07601166 287592312.96964264 0 287592312.96964264 -20329939.857559204 0 0 0 0 213198118.12242889 280153255.52752686 0 280153255.52752686 -290303402.83646011 0 0 0 0 -78179774.385631561 148247240.40694046 0 148247240.40694046 6831402.7533721924 0 0 0 0 624920222.19237232 829072315.64451599 0 829072315.64451599 794717869.73373413 0 0 0 0 284495581.76096344 336662066.68495178 0 336662066.68495178 82470769.934288025 0 0 0 0 -36571029.960567474 102185926.46468353 0 102185926.46468353 821561502.10481262 0 0 0 0 -230619019.02899361 -112663746.90982819 0 -112663746.90982819 631637351.61459351 0 0 0 0 -4711599.631153293 186338.46704024076 0 186338.46704024076 81582.24539948348 0 0 0 0 602333082.85116577 677553964.72027588 0 677553964.72027588 -1741634261.96175 0 0 0 0 1094532040.814642 1115940501.7586441 0 1115940501.7586441 -1352297062.4261475 0 0 0 0 257539449.83625793 -2243600907.2101746 0 -2243600907.2101746 -2410366488.1111755 0 0 0 0 -1028125393.8366547 9341128.5265197754 0 9341128.5265197754 2471395580.7921143 0 0 0 0 49568596.338739395 27166165.906486511 0 27166165.906486511 255489293.32696533 0 0 0 0 -106477340.23258972 37464201.699279785 0 37464201.699279785 264470059.37182617 0 0 0 0 32239802.810657501 118800334.57276154 0 118800334.57276154 276998866.06518555 0 0 0 0 -13050827.674649753 136243.73167692125 0 136243.73167692125 600897.77915689535 0 0 0 0 -62975326.643360138 18833648.643234253 0 18833648.643234253 574406438.38850403 0 0 0 0 -622038295.24734497 487054670.63433838 0 487054670.63433838 -405632931.23107719 0 0 0 0 9214411.0752716064 23361848.435180664 0 23361848.435180664 -696659967.93362808 0 0 0 0 -18777628.255545333 90194.638287417591 0 90194.638287417591 1591705.7242674306 0 0 0 0 -104251037.4995575 42566377.760818481 0 42566377.760818481 418899989.71359253 0 0 0 0 -5986764.9255142212 13879257.270545959 0 13879257.270545959 227598766.78201294 0 0 0 0 -121591680.5232048 30681743.576759338 0 30681743.576759338 227902360.95145822 0 0 0 0 -7132771.5285949707 57024708.34778595 0 57024708.34778595 9897106.1074981689 0 0 0 0 -111133134.47605133 217233231.04794312 0 217233231.04794312 -33335218.308433533 0 0 0 0 3063161.0903420784 -687399.11027228087 0 -687399.11027228087 -2558929.5014350563 0 0 0 0 -54538317.655312061 81504191.385850906 0 81504191.385850906 -119809763.48718262 0 0 0 0 -64437648.747077942 86508525.256729126 0 86508525.256729126 -121268202.18106079 0 0 0 0 11735166.682415009 126249105.76110077 0 126249105.76110077 -252800801.32571411 0 0 0 0 -48863046.326812744 74481560.736129761 0 74481560.736129761 -138012831.65531564 0 0 0 0 -7751531.3446998596 75178937.713531494 0 75178937.713531494 -113522555.27775574 0 0 0 0 417342.07811355591 78914338.743427277 0 78914338.743427277 -119206669.0688324 0 0 0 0 -22838314.587846756 52753769.304672241 0 52753769.304672241 -122571803.30477905 0 0 0 0 -54823668.363640785 80942606.011771202 0 80942606.011771202 -103051684.75299072 0 0 0 0 33466891.347579956 72419741.67868042 0 72419741.67868042 -128460636.00365448 0 0 0 0 1563484.9100351408 -378718.00699785352 0 -378718.00699785352 -1317475.9186302796 0 0 0 0 51000554.601951599 155917289.37107849 0 155917289.37107849 -36923212.498306274 0 0 0 0 -45946040.391490936 119616024.55844116 0 119616024.55844116 134917125.09725952 0 0 0 0 -13315716.143844604 32037601.677307129 0 32037601.677307129 105755165.77246094 0 0 0 0 57847953.292770386 88915178.56993103 0 88915178.56993103 122457164.29644775 0 0 0 0 23512372.874794006 122457178.16445923 0 122457178.16445923 204538245.02828979 0 0 0 0 -103714011.8001194 139185008.42285442 0 139185008.42285442 213878863.85351562 0 0 0 0 -35675502.389104843 83641951.015968323 0 83641951.015968323 179527890.31988525 0 0 0 0 321655339.53063965 236039074.71972656 0 236039074.71972656 -80978231.61756897 0 0 0 0 -23555389.11115855 2115392.3874143288 0 2115392.3874143288 4028304.1595763126 0 0 0 0 -7342348.510181427 63040519.201095581 0 63040519.201095581 194147768.45640564 0 0 0 0 -30091791.953558445 -3731684.6058063507 0 -3731684.6058063507 71007207.161651611 0 0 0 0 -37576101.554138184 23616853.337768555 0 23616853.337768555 145633621.16574097 0 0 0 0 -87914887.804683685 40850241.287727356 0 40850241.287727356 43992240.490325928 0 0 0 0 -634848639.0147934 689187349.418396 0 689187349.418396 -329704624.83758545 0 0 0 0 -3478135.0587229803 2141551.1155515332 0 2141551.1155515332 1454308.9347362667 0 0 0 0 -46781974.643890381 19825274.450958252 0 19825274.450958252 54036184.307495117 0 0 0 0 -28167720.084999084 -1065794.3149719238 0 -1065794.3149719238 44552850.709442139 0 0 0 0 -232625891.80462074 678412929.19804955 0 678412929.19804955 -465906658.2623291 0 0 0 0 -239706761.29650688 638518245.90567589 0 638518245.90567589 -441258977.6192627 0 0 0 0 -574903264.3651886 442062162.6060791 0 442062162.6060791 -447944289.48087883 0 0 0 0 -1462314.0564632416 -114024596.34711838 0 -114024596.34711838 -50292846.887420654 0 0 0 0 -60899821.077162504 539397141.44589663 0 539397141.44589663 -481174135.81726074 0 0 0 0 -1123875.7135704085 677148.39280068874 0 677148.39280068874 591798.60656070709 0 0 0 0 -63711192.167358398 428351743.54618835 0 428351743.54618835 -448935560.49853325 0 0 0 0 -220391923.44789124 355581338.96328735 0 355581338.96328735 34149724.058059692 0 0 0 0 -284756758.61335754 135699259.29203796 0 135699259.29203796 -614033125.73922729 0 0 0 0 55116161.130332947 237028626.11599731 0 237028626.11599731 -1014040930.926178 0 0 0 0 16684851.256118774 408395737.04922485 0 408395737.04922485 -538154154.58213043 0 0 0 0 -29642258.772079468 499787814.28059387 0 499787814.28059387 -659454216.09344482 0 0 0 0 269716062.47406006 13929075.413772583 0 13929075.413772583 -786390635.17692566 0 0 0 0 377159024.44985199 849070951.96498108 0 849070951.96498108 -1571222424.7312317 0 0 0 0 238022277.5870285 769208323.84554291 0 769208323.84554291 -881023156.0333252 0 0 0 0 271956443.18278503 828932872.8011322 0 828932872.8011322 -837277123.70892334 0 0 0 0 200174874.88198853 675614190.39764404 0 675614190.39764404 -995259266.73945427 0 0 0 0 -13254728.850646973 660558690.68661499 0 660558690.68661499 -738429075.40444946 0 0 0 0 -34596482.032608032 608952489.85168457 0 608952489.85168457 -593956375.52548981 0 0 0 0 47541211.367195129 775911673.30470276 0 775911673.30470276 -594584641.18539429 0 0 0 0 -141668466.47625732 865512972.50652313 0 865512972.50652313 -289070577.33297729 0 0 0 0 -25584857.034347534 808929588.28829956 0 808929588.28829956 -594208237.15123653 0 0 0 0 -277838864.37358093 758897932.91920471 0 758897932.91920471 -273993468.58734131 0 0 0 0 147019023.19407654 1088484447.7740021 0 1088484447.7740021 -304681127.84106445 0 0 0 0 86569395.871810913 994007359.0683136 0 994007359.0683136 -288873252.86108398 0 0 0 0 169482193.07495117 912142302.44725037 0 912142302.44725037 -845103573.11340523 0 0 0 0 91573432.260879517 962250466.30355835 0 962250466.30355835 -302399301.00945282 0 0 0 0 102276553.015625 867679859.16571045 0 867679859.16571045 -65172266.073486328 0 0 0 0 312614706.61773682 1014525637.5383453 0 1014525637.5383453 -132511950.10409546 0 0 0 0 276694538.24053955 912641546.23786926 0 912641546.23786926 -311628690.56829834 0 0 0 0 122027517.4871521 851167563.56062317 0 851167563.56062317 148442601.7328186 0 0 0 0 130118927.15795898 957174432.89004517 0 957174432.89004517 115820173.56738281 0 0 0 0 553073009.51132202 672831913.3520813 0 672831913.3520813 33224772.676254272 0 0 0 0 65324206.275238037 741408838.16110229 0 741408838.16110229 -60484254.261047363 0 0 0 0 -162507980.50761414 836597473.7933197 0 836597473.7933197 -222071062.30368042 0 0 0 0 -359937827.32940674 880124825.42185974 0 880124825.42185974 -35561885.023345947 0 0 0 0 -152429864.83262634 885097564.54862976 0 885097564.54862976 10633356.2265625 0 0 0 0 -412909007.98033142 740760992.61276245 0 740760992.61276245 -31596374.231516838 0 0 0 0 -477082996.89147949 792350903.27671814 0 792350903.27671814 -99567487.137756348 0 0 0 0 -787729455.90336609 665965757.69296265 0 665965757.69296265 16238635.864715576 0 0 0 0 -493309306.79428101 690703000.61003113 0 690703000.61003113 -173716171.94549561 0 0 0 0 -782902121.98609924 627442091.5120697 0 627442091.5120697 -8819496.0708007812 0 0 0 0 -897391698.20516968 453367804.21572876 0 453367804.21572876 70172894.567352295 0 0 0 0 -858904294.88392639 514057442.33288574 0 514057442.33288574 -76306861.643432617 0 0 0 0 -791731034.77293396 476134505.60098267 0 476134505.60098267 -119687583.5075531 0 0 0 0 -622694984.52586365 569369884.03630066 0 569369884.03630066 -385756535.06063843 0 0 0 0 -285422100.41226196 663559352.42532349 0 663559352.42532349 -430735762.90110016 0 0 0 0 -287386388.64266968 705433121.35778809 0 705433121.35778809 -458023368.8140831 0 0 0 0 -605383049.3747406 646949550.64661217 0 646949550.64661217 -190579112.79077148 0 0 0 0 570048604.6255188 -136886937.5954895 0 -136886937.5954895 -1447295091.0263824 0 0 0 0 267694189.46221161 -223702330.73966217 0 -223702330.73966217 -543527019.14916992 0 0 0 0 1158396765.9974747 1212647714.5915337 0 1212647714.5915337 -316505671.69158936 0 0 0 0 -124655031.52703857 1070125748.5345726 0 1070125748.5345726 3098065608.8833618 0 0 0 0 2036147914.9537849 110054847.79698181 0 110054847.79698181 -2035281124.9729004 0 0 0 0 290281.25619387487 607579.26523980126 0 607579.26523980126 -650384.46370516717 0 0 0 0 617561667.14912415 434835419.50737 0 434835419.50737 -1434478705.6459045 0 0 0 0 -4685271.2639007568 647041184.83981323 0 647041184.83981323 -1409733612.8323669 0 0 0 0 530288480.84248352 629170388.32067871 0 629170388.32067871 -1653777058.9882812 0 0 0 0 46182035.257980347 -209268884.68966675 0 -209268884.68966675 -1192255325.5890884 0 0 0 0 367189615.31660843 -178848807.11198425 0 -178848807.11198425 -1231967409.962616 0 0 0 0 299876264.87640381 -108114023.69116211 0 -108114023.69116211 -1085173683.6232147 0 0 0 0 -612908895.15306091 -1232472300.9872131 0 -1232472300.9872131 -1457565321.0597763 0 0 0 0 1405963.0554967849 985021.99649638683 0 985021.99649638683 -3717884.3875722289 0 0 0 0 284988956.78583717 85194583.07708931 0 85194583.07708931 -2617526158.5829773 0 0 0 0 -1386809809.4013672 1219245992.3844757 0 1219245992.3844757 -555419716.19338989 0 0 0 0 -103047214.92486191 903919382.24115753 0 903919382.24115753 -1972688300.0811768 0 0 0 0 -1620124431.0097656 -426027545.15267944 0 -426027545.15267944 -1181440489.2589111 0 0 0 0 409829100.57902527 183632049.65190125 0 183632049.65190125 -2981584355.2348328 0 0 0 0 383883619.17152405 466068108.25949097 0 466068108.25949097 -1313441146.2824249 0 0 0 0 329982582.02023315 -257744831.67700195 0 -257744831.67700195 -1919055540.0758362 0 0 0 0 53687011.612823486 1476338681.1790771 0 1476338681.1790771 -2282785903.6425323 0 0 0 0 179440533.59102631 981742703.71514893 0 981742703.71514893 -845143880.31289673 0 0 0 0 353350432.33311462 951242540.76895142 0 951242540.76895142 -845911532.80845308 0 0 0 0 -17490531.000720978 949194383.09758759 0 949194383.09758759 -256365555.41506958 0 0 0 0 405610631.25127411 169995472.05812073 0 169995472.05812073 -182137913.03549194 0 0 0 0 1270036047.8812294 -242764429.3852272 0 -242764429.3852272 -72170202.20513916 0 0 0 0 906520803.38264465 979525634.6625824 0 979525634.6625824 53955331.634155273 0 0 0 0 776446727.65512085 779213581.38421631 0 779213581.38421631 -248798421.67163086 0 0 0 0 325590199.27026367 722764391.72531128 0 722764391.72531128 324933682.17123413 0 0 0 0 1520466292.4940186 468867304.65301514 0 468867304.65301514 -19096018.177200317 0 0 0 0 704766835.35110474 661386597.83270264 0 661386597.83270264 2755220.8812255859 0 0 0 0 548169336.23086548 501966123.61860657 0 501966123.61860657 455948302.40026855 0 0 0 0 723786740.18304729 418435500.74832344 0 418435500.74832344 945129539.61303711 0 0 0 0 1368963324.3893127 590565808.73062897 0 590565808.73062897 250256089.2620163 0 0 0 0 -46904467.498336792 31284978.135299683 0 31284978.135299683 6819861.8711700439 0 0 0 0 -275988.7902157167 3795041.0109356865 0 3795041.0109356865 7061062.140567705 0 0 0 0 -294511.48729846627 1890230.0458455384 0 1890230.0458455384 703463.44464120641 0 0 0 0 -42399551.492337227 -134160073.5063839 0 -134160073.5063839 -399315233.45211792 0 0 0 0 382667707.19741821 178158664.9302063 0 178158664.9302063 -149445295.42819214 0 0 0 0 4477770.5518318973 4943802.8461662568 0 4943802.8461662568 -9669258.4206135422 0 0 0 0 5339233.1471108198 15063587.342768401 0 15063587.342768401 4785284.6398536041 0 0 0 0 -151794179.89556885 -97054221.822364807 0 -97054221.822364807 -411285165.53847504 0 0 0 0 -35137699.174465179 56769029.113311768 0 56769029.113311768 13242103.262512207 0 0 0 0 -42940595.879127502 43027962.555465698 0 43027962.555465698 -10831210.006492615 0 0 0 0 -30934906.900901794 55063450.860794067 0 55063450.860794067 -12042214.874511719 0 0 0 0 -10949605.613670349 86775885.804603577 0 86775885.804603577 16936662.993774414 0 0 0 0 18264730.997859478 121673469.04647446 0 121673469.04647446 -96636309.707763672 0 0 0 0 288415794.07270813 -23518410.278213501 0 -23518410.278213501 -1241467014.0045319 0 0 0 0 3367989.0846105143 16367684.847724631 0 16367684.847724631 6107707.2363201976 0 0 0 0 -19517330.566070557 15558298.49432373 0 15558298.49432373 -31171748.179916382 0 0 0 0 -43044036.629425049 19830464.085205078 0 19830464.085205078 -1740524.2070922852 0 0 0 0 -42733645.387866974 19244889.334480286 0 19244889.334480286 -21623501.643615723 0 0 0 0 -17127830.923362732 -2409929.6440429688 0 -2409929.6440429688 -6413197.6903076172 0 0 0 0 -39719934.377197266 4288861.9030151367 0 4288861.9030151367 38311771.437744141 0 0 0 0 -38019543.778270692 33445901.130557001 0 33445901.130557001 40551764.70916748 0 0 0 0 -57511047.436523438 43469838.176193237 0 43469838.176193237 80360518.498825073 0 0 0 0 -56780919.594664574 41564452.553064346 0 41564452.553064346 18409232.595550537 0 0 0 0 -55315837.12048912 28284657.537059784 0 28284657.537059784 11168627.698699951 0 0 0 0 -78825685.107543111 14281750.546703577 0 14281750.546703577 8325182.3941345215 0 0 0 0 -65881064.867805481 41163319.987930298 0 41163319.987930298 24226879.897346497 0 0 0 0 -78145552.257698059 39988964.213851929 0 39988964.213851929 25184078.766738892 0 0 0 0 -143930665.53561401 37976882.96257019 0 37976882.96257019 7319238.6750183105 0 0 0 0 2307855841.1605911 714486982.44760895 0 714486982.44760895 -79003454.367965698 0 0 0 0 1373097.3457622048 -6209.5950055010617 0 -6209.5950055010617 2922592.3339459896 0 0 0 0 1213630150.3063202 617968963.91688538 0 617968963.91688538 20868482.534179688 0 0 0 0 841983065.92308044 591073879.41989136 0 591073879.41989136 126827436.44017029 0 0 0 0 1759941847.3705559 361942800.96451569 0 361942800.96451569 -31507981.610229492 0 0 0 0 1721701197.4261723 363190430.08692265 0 363190430.08692265 266208720.67156982 0 0 0 0 1684693587.4234381 777241084.74180555 0 777241084.74180555 -105032656.95510864 0 0 0 0 2033474959.3481522 968511879.30825043 0 968511879.30825043 418342.22314453125 0 0 0 0 -354305348.93556976 333753482.6765213 0 333753482.6765213 1462565.0648803711 0 0 0 0 3461491159.0964813 471350122.88196564 0 471350122.88196564 -296729934.50390625 0 0 0 0 2238449.6325351065 -1841136.2295979299 0 -1841136.2295979299 423634.79778137803 0 0 0 0 -58648089.200870514 40107876.134269714 0 40107876.134269714 -44794410.836502075 0 0 0 0 -45612776.843719482 16926709.103042603 0 16926709.103042603 -20396877.347579956 0 0 0 0 -4610246.2972299457 -925807.8295892626 0 -925807.8295892626 4785373.1264021993 0 0 0 0 -55318795.079704285 35485211.165969849 0 35485211.165969849 10694.977934064629 0 0 0 0 -139949066.91984177 2261237.7462921143 0 2261237.7462921143 -14769249.226852417 0 0 0 0 -19615275.674804688 -10678723.242370605 0 -10678723.242370605 -28356983.176330566 0 0 0 0 -3802030.3833635338 -529099.50612456724 0 -529099.50612456724 4565837.3177359253 0 0 0 0 -41977508.079864502 24649451.212692261 0 24649451.212692261 -28843067.004547119 0 0 0 0 28911545.611843109 43846094.934194565 0 43846094.934194565 -25919915.551086426 0 0 0 0 -203106862.93625832 55026868.160667419 0 55026868.160667419 60717711.146881104 0 0 0 0 -575164732.77191925 919579923.50846863 0 919579923.50846863 201903002.93034363 0 0 0 0 -1269103088.6547165 629014323.02684021 0 629014323.02684021 231029627.22212505 0 0 0 0 -1654476634.9149704 620402858.91767883 0 620402858.91767883 190641097.0896759 0 0 0 0 -1084139652.3414154 462130390.68611145 0 462130390.68611145 -10209640.397491455 0 0 0 0 -1214836554.1796951 390692675.78189087 0 390692675.78189087 57946482.581512451 0 0 0 0 -1043219158.5511208 684790615.24602127 0 684790615.24602127 124795733.79724121 0 0 0 0 -1029928308.316246 762907993.94496536 0 762907993.94496536 242861001.95550537 0 0 0 0 -478576842.33537292 754659960.3228302 0 754659960.3228302 26080421.621520996 0 0 0 0 -643523302.69141388 851777629.51200104 0 851777629.51200104 109444557.95581055 0 0 0 0 -167770868.13911438 731292036.36186218 0 731292036.36186218 52691387.215621948 0 0 0 0 -196591596.17644501 963759553.14434814 0 963759553.14434814 93837151.70501709 0 0 0 0 -466642119.86255646 804573835.24119568 0 804573835.24119568 201952768.57946777 0 0 0 0 893159253.40736389 665751745.86369324 0 665751745.86369324 -16656093.226264954 0 0 0 0 631096979.3866272 842898829.18427277 0 842898829.18427277 249649945.87878418 0 0 0 0 -41552106.755485535 943181932.09226227 0 943181932.09226227 179783916.95925903 0 0 0 0 551907374.20101929 661718052.44199371 0 661718052.44199371 -58033148.421051025 0 0 0 0 -297063722.27944183 1160069919.823082 0 1160069919.823082 110897500.04251099 0 0 0 0 962951799.71843719 356101927.18393707 0 356101927.18393707 215956481.24370575 0 0 0 0 480246800.18215179 1090913850.044241 0 1090913850.044241 151101.41906738281 0 0 0 0 -854427707.75221252 450967711.24840546 0 450967711.24840546 54269444.777694702 0 0 0 0 -1251811192.3429585 1122399041.1788521 0 1122399041.1788521 -947161.61598205566 0 0 0 0 -1216198002.0972042 567153206.03055191 0 567153206.03055191 -14979078.21055603 0 0 0 0 -3701513650.7528 159135290.35287476 0 159135290.35287476 229992704.77539062 0 0 0 0 244358454.81571198 89062085.362205505 0 89062085.362205505 82145.245620727539 0 0 0 0 118609880.93028259 171254433.58992004 0 171254433.58992004 -14238694.864807129 0 0 0 0 -427473.410187684 -1592907.3303838521 0 -1592907.3303838521 -2472860.7792185396 0 0 0 0 382220583.62161255 147056105.37783813 0 147056105.37783813 -58514533.736938477 0 0 0 0 212017836.39898682 114041690.7689209 0 114041690.7689209 36678693.600952148 0 0 0 0 209492029.50372696 60864829.396284103 0 60864829.396284103 -31144020.281433105 0 0 0 0 16784008.886413574 19325116.660690308 0 19325116.660690308 -23974351.830032349 0 0 0 0 291511348.25662231 144747024.37936401 0 144747024.37936401 -46286231.521911621 0 0 0 0 240014657.17204285 112768821.25335693 0 112768821.25335693 -9037433.3538818359 0 0 0 0 233656351.91860962 166614862.94088745 0 166614862.94088745 -54797086.976119995 0 0 0 0 270818647.20894241 72300520.146648407 0 72300520.146648407 -155364739.71591187 0 0 0 0 -31359.626806478016 -1422684.4096884914 0 -1422684.4096884914 -225131.32748486102 0 0 0 0 88209297.692760468 -56677690.109165192 0 -56677690.109165192 98577789.088989258 0 0 0 0 429259545.66882324 112794337.05062866 0 112794337.05062866 -82927458.30859375 0 0 0 0 380286891.63215637 67963878.326370239 0 67963878.326370239 -45978191.630615234 0 0 0 0 262001026.76036072 89263075.40914917 0 89263075.40914917 19975614.819290161 0 0 0 0 57515237.52243042 102952292.87304688 0 102952292.87304688 89392468.783706665 0 0 0 0 -2196964841.0184135 -10861777.340461731 0 -10861777.340461731 141970332.54769897 0 0 0 0 -86735.453892754391 795180.35672435164 0 795180.35672435164 -5648873.7493417114 0 0 0 0 -1170349.4241953297 -433039.47388962656 0 -433039.47388962656 131928.02637429535 0 0 0 0 34396692.112289429 38685911.795120239 0 38685911.795120239 -53619723.74420166 0 0 0 0 345066895.00175476 186543858.40691376 0 186543858.40691376 -82741812.039886475 0 0 0 0 278506682.32971954 233241820.34053802 0 233241820.34053802 40437150.003555298 0 0 0 0 134965925.64842987 198240272.80724335 0 198240272.80724335 155890895.90878296 0 0 0 0 -1612312.10105104 2048888.5899282359 0 2048888.5899282359 -433456.87437677383 0 0 0 0 312230656.02687073 -2646175.1152038574 0 -2646175.1152038574 -14727912.529205322 0 0 0 0 -7139020.9663848877 4776482.6174926758 0 4776482.6174926758 55424991.797096252 0 0 0 0 -1597288.820870243 3451028.6761647314 0 3451028.6761647314 -1674078.0289060622 0 0 0 0 -1072386437.8910522 267875039.06434631 0 267875039.06434631 112470425.9960289 0 0 0 0 -1010247088.9495869 251921592.4514122 0 251921592.4514122 -8055203.0599365234 0 0 0 0 284014.68154860288 1987984.5700631663 0 1987984.5700631663 -5860259.6087470502 0 0 0 0 -97474568.478134155 15237877.015335083 0 15237877.015335083 58502116.350601196 0 0 0 0 -137886067.50297546 125579242.37620544 0 125579242.37620544 125942628.76675415 0 0 0 0 309840719.14437866 165906532.74230957 0 165906532.74230957 22714105.037628174 0 0 0 0 94806050.584220886 259139867.89994812 0 259139867.89994812 164861646.32215881 0 0 0 0 271349406.48471069 -12335195.076248169 0 -12335195.076248169 -274105747.67602539 0 0 0 0 -321101517.08876038 137576246.68663025 0 137576246.68663025 263570414.2117157 0 0 0 0 630909.71261543036 1996827.8960402608 0 1996827.8960402608 -980451.2169867903 0 0 0 0 -200084163.02156448 -164533179.90003777 0 -164533179.90003777 -80398129.124450684 0 0 0 0 -125766224.5128479 160239346.77648163 0 160239346.77648163 -95739543.441345215 0 0 0 0 -349818536.61967468 -57158749.384979248 0 -57158749.384979248 14092608.651763916 0 0 0 0 9532063.0189208984 48616762.949584961 0 48616762.949584961 38810311.994354248 0 0 0 0 -65116489.51486969 54232662.264770508 0 54232662.264770508 40778693.041564941 0 0 0 0 59119382.970977783 103072234.48164368 0 103072234.48164368 -135588.55048162883 0 0 0 0 -173249512.33376312 137763220.52323151 0 137763220.52323151 462742.04608154297 0 0 0 0 -175740996.2502594 158848815.41376495 0 158848815.41376495 80263634.284790039 0 0 0 0 3551271.1456330046 3771384.4191119224 0 3771384.4191119224 -3477441.990999952 0 0 0 0 -96380820.413818359 67359907.727729797 0 67359907.727729797 178364445.6423645 0 0 0 0 9802162.1507568359 8792487.0072021484 0 8792487.0072021484 -9351.0619483042738 0 0 0 0 16128079.456726074 -2043171.2044372559 0 -2043171.2044372559 114168389.61921692 0 0 0 0 -50172164.90625 30166241.842193604 0 30166241.842193604 100197341.7121582 0 0 0 0 34164277.107261658 7358621.4977493286 0 7358621.4977493286 63573611.41003418 0 0 0 0 -52117271.662506104 56879622.484359741 0 56879622.484359741 46408834.897377014 0 0 0 0 -37095580.228927612 33984203.434768677 0 33984203.434768677 62742995.114822388 0 0 0 0 122044836.11561966 110364932.3345871 0 110364932.3345871 141166373.9256897 0 0 0 0 41348987.145767212 49827273.953418732 0 49827273.953418732 47018641.500259399 0 0 0 0 62253487.261428833 101273479.91605759 0 101273479.91605759 140927536.17779541 0 0 0 0 92518976.508544922 44230915.50189209 0 44230915.50189209 139054.26222229004 0 0 0 0 3182235.4388155043 3517315.5014690459 0 3517315.5014690459 -3218983.4643542171 0 0 0 0 -6181571.879650116 52478575.942337036 0 52478575.942337036 133253634.83668518 0 0 0 0 13750297.598464966 14637705.39630127 0 14637705.39630127 74966461.904647827 0 0 0 0 1709175.1662562788 1873110.9749330059 0 1873110.9749330059 -1712451.5807620138 0 0 0 0 43633923.467330933 110402509.72737122 0 110402509.72737122 70067967.599243164 0 0 0 0 219483701.10913086 321841680.84355164 0 321841680.84355164 215268333.39646912 0 0 0 0 26455920.554428101 81563235.869911194 0 81563235.869911194 159217396.61828613 0 0 0 0 -90037.538009643555 35388618.310333252 0 35388618.310333252 -443640.41815185547 0 0 0 0 -15695931.699090004 -55734624.183813095 0 -55734624.183813095 65752035.631652832 0 0 0 0 524778.52081298828 39841845.744476318 0 39841845.744476318 57145790.960189819 0 0 0 0 -6240580.1811981201 13278696.479202271 0 13278696.479202271 6117753.1656265259 0 0 0 0 499613.10442900658 6916314.7033239231 0 6916314.7033239231 -871305.39339522272 0 0 0 0 17890341.685474396 -8560509.8466510773 0 -8560509.8466510773 -6401789.3207702637 0 0 0 0 -88649059.478652954 57411195.332771301 0 57411195.332771301 1940327.4920654297 0 0 0 0 323880581.82270813 -54453513.691452026 0 -54453513.691452026 -95433214.43157959 0 0 0 0 2277036.6977352798 1604940.1463568583 0 1604940.1463568583 -738973.25424210727 0 0 0 0 490065990.41311646 180478610.45536804 0 180478610.45536804 -1631026.1315460205 0 0 0 0 -905871.29578585178 2823477.3138345256 0 2823477.3138345256 4008586.9866923839 0 0 0 0 5476971.2951507568 -313350.00328063965 0 -313350.00328063965 -7060622.5406646729 0 0 0 0 692086.93000607193 4553240.0368892103 0 4553240.0368892103 -1441669.5612670407 0 0 0 0 -28136966.991867065 42687830.308837891 0 42687830.308837891 43683725.738647461 0 0 0 0 -6775932.7885437012 13890343.885169983 0 13890343.885169983 5646473.2823486328 0 0 0 0 -18353004.808151245 -1206315.406539917 0 -1206315.406539917 11292066.070846558 0 0 0 0 -49045719.38067627 -23807582.673080444 0 -23807582.673080444 -2631009.4134521484 0 0 0 0 -69406473.825088501 -6661786.2233581543 0 -6661786.2233581543 32517574.627868652 0 0 0 0 -48939633.919937134 17081987.807739258 0 17081987.807739258 41359128.630584717 0 0 0 0 -71324485.092178345 -3996459.9578399658 0 -3996459.9578399658 70348470.915130615 0 0 0 0 -67517736.228919983 32930119.411376953 0 32930119.411376953 55748137.453033447 0 0 0 0 -39574492.707504272 46094889.819732666 0 46094889.819732666 25061158.186096191 0 0 0 0 -32465261.234596252 60915398.076713562 0 60915398.076713562 54094626.757598877 0 0 0 0 -38592064.519073486 39934829.253097534 0 39934829.253097534 12840758.114318848 0 0 0 0 -51196114.336700439 10361691.44228363 0 10361691.44228363 21363938.727935791 0 0 0 0 -24529034.800109863 26323858.513061523 0 26323858.513061523 -1288905.501953125 0 0 0 0 -5503503.045425415 13334534.345443726 0 13334534.345443726 5152822.1626586914 0 0 0 0 -28687060.815765381 26682865.686294556 0 26682865.686294556 30264023.389572144 0 0 0 0 -148175781.26992798 134612651.81796265 0 134612651.81796265 42132869.280151367 0 0 0 0 -15093926.915633678 36195765.307324886 0 36195765.307324886 3599391.7561645508 0 0 0 0 12137517.332186788 11359656.517595459 0 11359656.517595459 453900.42793284357 0 0 0 0 -13567214.929042816 59487788.185396194 0 59487788.185396194 -30928637.250976562 0 0 0 0 885390.874292925 1293582.7364200652 0 1293582.7364200652 592525.48622778058 0 0 0 0 -65312678.289123535 69754161.66015625 0 69754161.66015625 1133436.686340332 0 0 0 0 -31156435.091491699 44906285.707061768 0 44906285.707061768 -473139.443359375 0 0 0 0 -13623498.49786377 55597640.500946045 0 55597640.500946045 -19915805.690368652 0 0 0 0 -14534216.642807007 56267201.525726318 0 56267201.525726318 572246.42901611328 0 0 0 0 -14907773.747886658 58280759.751995087 0 58280759.751995087 2263241.1713867188 0 0 0 0 -22800565.888122559 57714772.328964233 0 57714772.328964233 19095382.522033691 0 0 0 0 -32549486.520477295 45149258.73260498 0 45149258.73260498 16123234.120910645 0 0 0 0 37578498.400085449 -31408064.836837769 0 -31408064.836837769 -107510844.756073 0 0 0 0 -220750107.06481171 13305329.550041199 0 13305329.550041199 -11923100.623626709 0 0 0 0 -99928861.380111694 -110667216.14129639 0 -110667216.14129639 -141797004.54943848 0 0 0 0 6864597.1643519551 7276098.4048638754 0 7276098.4048638754 2598822.8122579902 0 0 0 0 -5678304.6664733887 12776638.795349121 0 12776638.795349121 5767875.2633209229 0 0 0 0 60738480.351184845 56283366.510692596 0 56283366.510692596 -161680135.92944336 0 0 0 0 288544977.75245667 108408725.54341125 0 108408725.54341125 -150974456.78069305 0 0 0 0 -135306250.89418983 214091442.78472328 0 214091442.78472328 323086675.01763916 0 0 0 0 -165264587.67123413 -102000646.31167603 0 -102000646.31167603 315985246.23996878 0 0 0 0 205729089.25509644 -94101899.833587646 0 -94101899.833587646 -163175115.95743561 0 0 0 0 -16087986.643707275 -62032529.062149048 0 -62032529.062149048 312764830.88885498 0 0 0 0 372532.98408079147 704168.11814770103 0 704168.11814770103 471518.44331637025 0 0 0 0 37028605.611602783 4527899.9797210693 0 4527899.9797210693 -34974168.087837219 0 0 0 0 30291782.306030273 236616201.97994995 0 236616201.97994995 164892917.99307251 0 0 0 0 51019046.764701843 103936488.9149704 0 103936488.9149704 -228891910.27770996 0 0 0 0 794953.14305703342 -2185379.4095868021 0 -2185379.4095868021 -2478987.9335890114 0 0 0 0 10046739.584350586 12880914.008209229 0 12880914.008209229 -23075344.277481079 0 0 0 0 18203540.031576082 14328709.139928326 0 14328709.139928326 -4597769.2031377591 0 0 0 0 7162890.5051103681 13768228.254124835 0 13768228.254124835 5337405.6644577682 0 0 0 0 338676741.26139069 -184687020.42169952 0 -184687020.42169952 -310829393.45465088 0 0 0 0 47911511.890655518 91792971.347724915 0 91792971.347724915 -158130193.64489365 0 0 0 0 23861487.504683003 15866443.207637087 0 15866443.207637087 -7340296.4074175395 0 0 0 0 77171327.171981812 66869457.732681274 0 66869457.732681274 -336095325.43444061 0 0 0 0 29126649.255439758 77700572.142631531 0 77700572.142631531 -153752921.35368347 0 0 0 0 -23688717.169372559 59676542.59475708 0 59676542.59475708 -151826.16116714478 0 0 0 0 5469715.3682861328 15318163.416622162 0 15318163.416622162 -19571080.341293335 0 0 0 0 7595260.4300035387 19215932.177842475 0 19215932.177842475 5567929.7217417508 0 0 0 0 -4527260.4151000977 59985773.840072632 0 59985773.840072632 -4135845.2466430664 0 0 0 0 -2365004.6941833496 67087720.371841431 0 67087720.371841431 -8125496.0380859375 0 0 0 0 1524655.5799560547 16476209.658752441 0 16476209.658752441 -3446338.3562316895 0 0 0 0 4677747.1095247567 15410909.215091303 0 15410909.215091303 4484406.3280261829 0 0 0 0 -149391856.64309692 -141639729.13844299 0 -141639729.13844299 -116229666.33987427 0 0 0 0 4864176.8711853027 83803961.180057526 0 83803961.180057526 -69921214.474227905 0 0 0 0 2296878.6186065674 87114339.790672302 0 87114339.790672302 -41093636.135250092 0 0 0 0 14571774.650720224 25275760.297638465 0 25275760.297638465 7500723.3548331056 0 0 0 0 -22027025.160858154 29371440.855926514 0 29371440.855926514 -14107261.347373962 0 0 0 0 -139694.22921270877 27835574.566862386 0 27835574.566862386 12635009.631625012 0 0 0 0 14763954.610999353 24993074.053832233 0 24993074.053832233 2022981.9077053815 0 0 0 0 11485224.58996582 56457486.738601685 0 56457486.738601685 -22377069.562072754 0 0 0 0 15796635.008026123 62910511.290802002 0 62910511.290802002 -13753289.30682373 0 0 0 0 -5140432.2636489868 55095297.616706848 0 55095297.616706848 -15453653.092834473 0 0 0 0 -2062283.3441467285 63663787.874816895 0 63663787.874816895 -5567098.826751709 0 0 0 0 41214320.721969604 33165295.9349823 0 33165295.9349823 -27517196.667861938 0 0 0 0 23682572.205581665 68621794.820053101 0 68621794.820053101 -11209061.525268555 0 0 0 0 416453.27597615868 23862744.143271104 0 23862744.143271104 5014376.6597342677 0 0 0 0 13062075.317619324 31261880.00744915 0 31261880.00744915 -29404579.182434082 0 0 0 0 19243347.907409668 26362429.703674316 0 26362429.703674316 8461501.0079650879 0 0 0 0 -13975666.672180176 16473718.079681396 0 16473718.079681396 2993931.6577148438 0 0 0 0 -7449247.116027832 26996520.31187439 0 26996520.31187439 15007011.102905273 0 0 0 0 -18591883.864624023 312857.75146484375 0 312857.75146484375 19508755.450439453 0 0 0 0 8220508.8046875 20650447.663208008 0 20650447.663208008 6891363.4788360596 0 0 0 0 17051075.231750488 12049761.104248047 0 12049761.104248047 -5695957.2602996826 0 0 0 0 11008753.802337646 26444447.082977295 0 26444447.082977295 12503147.428833008 0 0 0 0 5905314.709101256 9286577.2510747164 0 9286577.2510747164 5895465.4933348447 0 0 0 0 -253614.24664978683 1781019.9711570144 0 1781019.9711570144 514043.80714042764 0 0 0 0 11702167.647264797 19310119.917427994 0 19310119.917427994 7575151.370320946 0 0 0 0 16310212.31111908 30319101.215332031 0 30319101.215332031 29146218.260620117 0 0 0 0 -15992300.547964871 30034946.620495416 0 30034946.620495416 22338220.037632883 0 0 0 0 20851721.654296875 11930100.563598633 0 11930100.563598633 27449146.702346802 0 0 0 0 12787915.758789062 35163474.54309082 0 35163474.54309082 33208893.853271484 0 0 0 0 9732609.3807800114 28462062.599393357 0 28462062.599393357 -11879547.275430333 0 0 0 0 -222956.29659416527 294570.80913561583 0 294570.80913561583 665689.91252060235 0 0 0 0 1674912.2294006348 26154701.699188232 0 26154701.699188232 20482947.311218262 0 0 0 0 -18603675.495330811 41915688.694641113 0 41915688.694641113 1266624.4453277588 0 0 0 0 -30494047.771743342 14344355.441279009 0 14344355.441279009 10484954.424972339 0 0 0 0 -42486717.482131958 52618787.303161621 0 52618787.303161621 11407620.482971191 0 0 0 0 -3831063.2445678711 38851221.38861084 0 38851221.38861084 9357777.131652832 0 0 0 0 5762179.7450256348 1090445.3660583496 0 1090445.3660583496 32914695.551330566 0 0 0 0 -14701348.785018921 43154826.686035156 0 43154826.686035156 13135036.923583984 0 0 0 0 5358642.0300292969 30609816.694213867 0 30609816.694213867 15024028.930450439 0 0 0 0 -16090435.580993652 31601084.030639648 0 31601084.030639648 18230732.934326172 0 0 0 0 -15328131.090148926 31888255.539611816 0 31888255.539611816 17755444.297668457 0 0 0 0 -15010950.950592041 32460051.192733765 0 32460051.192733765 18185282.501831055 0 0 0 0 -24359033.111053467 39083512.137329102 0 39083512.137329102 21026652.178253174 0 0 0 0 -21810662.843902588 38174826.110908508 0 38174826.110908508 21171942.359375 0 0 0 0 -8613252.6603240967 18937884.777114868 0 18937884.777114868 6418543.7864379883 0 0 0 0 -1900855.8683198281 101909.53117772564 0 101909.53117772564 34158.587303265929 0 0 0 0 -48034110.041345596 39116522.153700829 0 39116522.153700829 28327929.599121094 0 0 0 0 -29011593.079071045 29399308.982910156 0 29399308.982910156 32592108.616191864 0 0 0 0 -27390918.494598389 32097140.59627533 0 32097140.59627533 19750867.388305664 0 0 0 0 -15705486.73046875 32127463.432373047 0 32127463.432373047 18568482.885925293 0 0 0 0 -19297524.665679932 29960800.719726562 0 29960800.719726562 16578097.057128906 0 0 0 0 -19063840.641822815 23189120.365066528 0 23189120.365066528 16452612.662536621 0 0 0 0 -20938678.305877686 16490533.184753418 0 16490533.184753418 14101079.437713623 0 0 0 0 -22661316.71774292 16897191.623016357 0 16897191.623016357 14216840.917602539 0 0 0 0 -29108290.791900635 17985769.49029541 0 17985769.49029541 30967245.90983963 0 0 0 0 -30803405.820610046 10268204.433757782 0 10268204.433757782 15767122.259094238 0 0 0 0 61791839.345222473 11770995.327539444 0 11770995.327539444 -12667797.29284668 0 0 0 0 63194309.621856689 28636301.856918335 0 28636301.856918335 9995003.12109375 0 0 0 0 -67861535.958358765 9285706.8069458008 0 9285706.8069458008 11896911.228939056 0 0 0 0 1865956.7538817562 12701624.834152848 0 12701624.834152848 -12136626.753661126 0 0 0 0 3604872.8820244744 8511041.8070887029 0 8511041.8070887029 1671949.6436534077 0 0 0 0 19690223.993057251 36072792.595611572 0 36072792.595611572 -26231551.854751587 0 0 0 0 910738.16355895996 12705077.686828613 0 12705077.686828613 11955149.108764648 0 0 0 0 -42903699.499481201 517629.79348754883 0 517629.79348754883 14260726.877441406 0 0 0 0 44626956.566986084 17558749.579696655 0 17558749.579696655 5815763.2159729004 0 0 0 0 5637444.1526353545 2695648.0141368806 0 2695648.0141368806 -9366494.3642651141 0 0 0 0 86206530.391876221 41805975.933395386 0 41805975.933395386 -26814902.240600586 0 0 0 0 31675173.336906433 1539407.8139419556 0 1539407.8139419556 -4308310.5051574707 0 0 0 0 -21958843.438568115 17640631.436096191 0 17640631.436096191 -13970225.542633057 0 0 0 0 -6985422.0590105206 3884832.6609661765 0 3884832.6609661765 1947521.7458646894 0 0 0 0 -21235445.862365723 13596327.617492676 0 13596327.617492676 -3128092.1085205078 0 0 0 0 -29656069.748947144 21697695.795837402 0 21697695.795837402 -4573544.4755020142 0 0 0 0 -12403149.996414185 9904155.3043365479 0 9904155.3043365479 -1450841.8557128906 0 0 0 0 -20961103.799819946 27400139.212493896 0 27400139.212493896 -10778644.332397461 0 0 0 0 -42816994.718017578 3265493.9635620117 0 3265493.9635620117 2760833.0324707031 0 0 0 0 -1921652.9341773856 10235137.169098515 0 10235137.169098515 -2215274.0661730021 0 0 0 0 1089512.826401731 -355169.1188506633 0 -355169.1188506633 -342341.2421657145 0 0 0 0 -776590148.39509678 374863752.11949825 0 374863752.11949825 -100589394.14816284 0 0 0 0 524653.13111877441 513141.93774414062 0 513141.93774414062 -364730.26489257812 0 0 0 0 44488970.758132935 8176131.2252807617 0 8176131.2252807617 -422419.6796875 0 0 0 0 -7910077.0013919994 9185786.5350399055 0 9185786.5350399055 -5875406.7070355415 0 0 0 0 -972140147.6947937 306102178.0501709 0 306102178.0501709 -115694302.61529541 0 0 0 0 129419217.525177 -21889143.469940186 0 -21889143.469940186 -11258724.236083984 0 0 0 0 164048787.71963501 87928559.821632385 0 87928559.821632385 -13784250.991821289 0 0 0 0 60829228.989639282 121782542.30641174 0 121782542.30641174 17272444.882354736 0 0 0 0 60849629.32933253 126540697.53696379 0 126540697.53696379 48499196.803100586 0 0 0 0 -22360258.9581604 64889081.039779663 0 64889081.039779663 21529258.632568359 0 0 0 0 -9718040.2066955566 93518797.898010254 0 93518797.898010254 33047763.076416016 0 0 0 0 -10520932.643859863 67142817.000640869 0 67142817.000640869 21957159.249465942 0 0 0 0 15619817.379774094 70201960.958293915 0 70201960.958293915 -3152110.9430541992 0 0 0 0 15139080.677314758 67128923.311849594 0 67128923.311849594 -7713672.0954589844 0 0 0 0 49717301.578155518 58564624.955978394 0 58564624.955978394 -21325665.482933044 0 0 0 0 61953543.391265869 83180701.345016479 0 83180701.345016479 -2388941.5706481934 0 0 0 0 936085326.41005707 4088280120.5843658 0 4088280120.5843658 892216166.59951019 0 0 0 0 4486685.1623651627 2447437018.662827 0 2447437018.662827 2284367381.9529724 0 0 0 0 1770381082.3495827 2279218166.9966354 0 2279218166.9966354 1391541123.464035 0 0 0 0 -1158102.3166898191 3489965.4552396089 0 3489965.4552396089 1282674.8558449596 0 0 0 0 3319871552.335495 4664102455.3109589 0 4664102455.3109589 -967838.44871520996 0 0 0 0 4372042339.9793396 3865398105.9794464 0 3865398105.9794464 -871486258.52458954 0 0 0 0 7494922114.3093109 3059513667.4309845 0 3059513667.4309845 -688939461.0164032 0 0 0 0 7444012.7714586928 4672601.6906725243 0 4672601.6906725243 1635739.1884344816 0 0 0 0 8805685528.1549072 -1271887398.9295654 0 -1271887398.9295654 -221201243.56640625 0 0 0 0 3603634244.1646461 -764740248.25056267 0 -764740248.25056267 -173911837.56268311 0 0 0 0 2143175195.4137001 894971501.77922058 0 894971501.77922058 -782827844.0765686 0 0 0 0 -794148.81342232227 1792509.9029893577 0 1792509.9029893577 477049.73085601628 0 0 0 0 2037505238.2932129 2394186057.1441422 0 2394186057.1441422 -1764499444.5207672 0 0 0 0 1730733733.6698303 874353427.76402283 0 874353427.76402283 961910700.68965149 0 0 0 0 2658534872.9831543 3027874798.5485992 0 3027874798.5485992 1671969934.3970795 0 0 0 0 1383756971.0960693 982416147.85800171 0 982416147.85800171 -222779117.51967812 0 0 0 0 519536709.31219482 -485444275.51688385 0 -485444275.51688385 -363659950.22181892 0 0 0 0 154522897.73651886 136311554.84015656 0 136311554.84015656 -433199224.89627075 0 0 0 0 7033286.9282845333 19598414.435507212 0 19598414.435507212 20856281.137901887 0 0 0 0 -386612598.74960327 663354412.32471466 0 663354412.32471466 164268509.53811646 0 0 0 0 -173897938.47407532 126896631.16638565 0 126896631.16638565 126195096.8838501 0 0 0 0 170688993.43075562 -81068815.48575592 0 -81068815.48575592 -120289554.98504639 0 0 0 0 1820353379.9877319 511761335.28945923 0 511761335.28945923 -1022795589.2329636 0 0 0 0 1870066915.9627838 173976937.90257263 0 173976937.90257263 -432425004.16629028 0 0 0 0 10184987.066282943 12912075.227817282 0 12912075.227817282 10647804.458954066 0 0 0 0 -92627782.630180359 68400561.455505371 0 68400561.455505371 -41576.864135742188 0 0 0 0 65424450.694389343 76255761.445110321 0 76255761.445110321 33470.042694091797 0 0 0 0 -27223278.5520401 -3866020.0517654419 0 -3866020.0517654419 -15379516.938720703 0 0 0 0 50184505.680786133 68409609.354217529 0 68409609.354217529 -62977383.441894531 0 0 0 0 48702207.675933838 51561824.637466431 0 51561824.637466431 13265991.106994629 0 0 0 0 121594332.50228882 97953461.563171387 0 97953461.563171387 -385309288.8196106 0 0 0 0 -686334611.36792374 -244916803.41322136 0 -244916803.41322136 127752484.87481689 0 0 0 0 188615675.06962585 31632246.472503662 0 31632246.472503662 -48925479.734474182 0 0 0 0 2087881.4287812728 -3520337.3862172663 0 -3520337.3862172663 -397450.32860872149 0 0 0 0 -138299958.22698975 49009363.040328979 0 49009363.040328979 -389006.63074083213 0 0 0 0 187653988.38088608 -5826622.132144928 0 -5826622.132144928 -87793439.71786499 0 0 0 0 573841123.82263184 209473670.96524048 0 209473670.96524048 -186630480.04257202 0 0 0 0 128960473.71084595 118134039.71414185 0 118134039.71414185 -27784445.028198242 0 0 0 0 -132480605.11837769 -400179586.2219696 0 -400179586.2219696 -132682061.14312744 0 0 0 0 113169605.56033325 -30679885.481445312 0 -30679885.481445312 506047804.10986328 0 0 0 0 1303106111.4751282 -767971701.58277893 0 -767971701.58277893 953668319.84570312 0 0 0 0 231124068.90301514 555682414.30993652 0 555682414.30993652 605197358.53599548 0 0 0 0 -11392658.046642303 -7171484.0826225281 0 -7171484.0826225281 391001080.09292603 0 0 0 0 -666992.07407380641 837218.09450174868 0 837218.09450174868 1754745.6694230586 0 0 0 0 76537587.320159912 50880314.43069458 0 50880314.43069458 -2890448.2677612305 0 0 0 0 680537333.28483582 -374352105.41966248 0 -374352105.41966248 25711600.292999268 0 0 0 0 277907899.34860229 716308987.04582977 0 716308987.04582977 418726232.9432373 0 0 0 0 50894348.456420898 43485906.41544342 0 43485906.41544342 26561938.214828491 0 0 0 0 2904025.2702532066 -929597.62582150102 0 -929597.62582150102 -1301887.3305510283 0 0 0 0 -886522380.48278809 207635475.60037231 0 207635475.60037231 663423312.79423523 0 0 0 0 830747.43950285017 393278.62477906421 0 393278.62477906421 -1209163.8734379262 0 0 0 0 -92894597.612724304 -69616990.539615631 0 -69616990.539615631 -136440977.63781738 0 0 0 0 -5067162.0375366211 73056815.381698608 0 73056815.381698608 -42319674.489181519 0 0 0 0 10401692.834801212 9028850.5208239555 0 9028850.5208239555 -5421468.6043625623 0 0 0 0 -17608148.987823486 356024.11349487305 0 356024.11349487305 561905.51306152344 0 0 0 0 -2143401.672250405 2703755.0520463474 0 2703755.0520463474 3741269.8532121778 0 0 0 0 -307217493.89105988 -208287447.41707802 0 -208287447.41707802 19295376.699951172 0 0 0 0 -238634253.78166199 465989025.29949951 0 465989025.29949951 -347902000.44927597 0 0 0 0 187245985.0300293 -463650303.45108032 0 -463650303.45108032 -575319563.55831146 0 0 0 0 -24835713.704040527 34114486.434555054 0 34114486.434555054 28630675.200149536 0 0 0 0 -3814323.2940979004 -8805196.5852813721 0 -8805196.5852813721 50547398.375366211 0 0 0 0 521465720.30731201 659959169.4899292 0 659959169.4899292 -283073643.88751221 0 0 0 0 196947.9517923668 2007701.3391160369 0 2007701.3391160369 1849499.1854099929 0 0 0 0 -3567661.2662489414 6685286.0001850128 0 6685286.0001850128 -3281686.0509643555 0 0 0 0 -5299802.6716576815 -1309827.441560559 0 -1309827.441560559 4580538.0499272346 0 0 0 0 3541409.0249345731 18973590.48982089 0 18973590.48982089 23631984.201951206 0 0 0 0 -40964356.021658897 -14925384.228693008 0 -14925384.228693008 62902960.078277588 0 0 0 0 -26756389.306594849 22616540.527297974 0 22616540.527297974 64254784.665122986 0 0 0 0 -19087328.734064579 5566259.86739254 0 5566259.86739254 90407818.838684082 0 0 0 0 43901885.630159378 136848358.42515945 0 136848358.42515945 -3702744.3838806152 0 0 0 0 -8979178.162109375 46259734.8150177 0 46259734.8150177 25377245.032852173 0 0 0 0 -9723465.6081237793 48880390.960174561 0 48880390.960174561 121654188.31291199 0 0 0 0 18907446.376953125 24125906.443450928 0 24125906.443450928 -55821067.95954895 0 0 0 0 17616642.1490345 25886997.236545563 0 25886997.236545563 5807423.9140625 0 0 0 0 23134282.131444171 10256164.328199863 0 10256164.328199863 -9427938.2771244422 0 0 0 0 85744356.296936035 112231177.91418457 0 112231177.91418457 -924958712.38506317 0 0 0 0 1026885.7963837683 2605385.8893311471 0 2605385.8893311471 338238.36029792577 0 0 0 0 -265041398.24329376 1000221491.0623913 0 1000221491.0623913 -3061660008.2803345 0 0 0 0 955156.67112268135 2058255.311826244 0 2058255.311826244 81221.449039235711 0 0 0 0 -11913464.354354858 36954265.123222351 0 36954265.123222351 17567681.383682251 0 0 0 0 -3630812.8946626894 13833330.591603801 0 13833330.591603801 27865989.073317453 0 0 0 0 -636396868.02548218 -112849071.68853378 0 -112849071.68853378 6644213.0933837891 0 0 0 0 -1193571957.2805824 248431440.77905893 0 248431440.77905893 4055208.6788024902 0 0 0 0 -247809740.88879395 388167737.72729492 0 388167737.72729492 -471901437.19830322 0 0 0 0 -274863943.68533325 180828627.68026733 0 180828627.68026733 -1417548603.7153625 0 0 0 0 -2464655384.9588623 212413919.97781372 0 212413919.97781372 294170568.97955322 0 0 0 0 293722869.38604736 -65544574.594902039 0 -65544574.594902039 -352273847.35818481 0 0 0 0 38796307.544815063 571197816.42028427 0 571197816.42028427 -190490587.00164795 0 0 0 0 60010692.521995544 228970555.66476822 0 228970555.66476822 589205876.09890747 0 0 0 0 -964756038.16299438 101093901.79810619 0 101093901.79810619 401131445.56738281 0 0 0 0 53528834.27154541 389304229.66275787 0 389304229.66275787 -34361955.371481895 0 0 0 0 381928295.20495605 199438205.60779572 0 199438205.60779572 -290104720.61691284 0 0 0 0 -789741.68982508779 -52826.551230698824 0 -52826.551230698824 1435780.4318135381 0 0 0 0 638595806.03557968 1246578455.2284336 0 1246578455.2284336 837806630.17884827 0 0 0 0 1131367015.5808868 1386624385.2567806 0 1386624385.2567806 524087871.81610107 0 0 0 0 1524693757.8200073 684567719.09575653 0 684567719.09575653 213412087.68144989 0 0 0 0 -488357.10378214717 463393.64193433523 0 463393.64193433523 1462501.5479627699 0 0 0 0 646412239.7868042 830749994.72445679 0 830749994.72445679 622068330.95675659 0 0 0 0 763788659.44590759 533856008.14268494 0 533856008.14268494 84629310.739120483 0 0 0 0 343579416.39511108 220831029.79411316 0 220831029.79411316 156755214.39347458 0 0 0 0 594522763.95304108 437513602.93750381 0 437513602.93750381 25445104.614532471 0 0 0 0 357278613.90370178 141321064.4694252 0 141321064.4694252 214111544.10049438 0 0 0 0 463131256.17105103 145563843.56590271 0 145563843.56590271 25531167.926807366 0 0 0 0 394277318.78712463 296679865.53225708 0 296679865.53225708 627203160.18774414 0 0 0 0 513746519.72312927 363929644.5185318 0 363929644.5185318 305773432.41952515 0 0 0 0 -322457.89972402155 412182.71171048284 0 412182.71171048284 771723.29215019941 0 0 0 0 526444473.6608429 390148458.28193474 0 390148458.28193474 209882219.60736084 0 0 0 0 257754947.91703796 517208799.21134949 0 517208799.21134949 271458040.76892853 0 0 0 0 -20138673.209495544 762049776.44460297 0 762049776.44460297 3184092499.9934235 0 0 0 0 -96984.213682169444 1641298480.1306286 0 1641298480.1306286 1113295211.2279968 0 0 0 0 2503690.1314544678 1643806328.3965302 0 1643806328.3965302 1114380595.2236481 0 0 0 0 1429605270.2783508 928400301.75649261 0 928400301.75649261 119615639.60422897 0 0 0 0 1066082738.864502 2423385067.9346581 0 2423385067.9346581 773802696.20696259 0 0 0 0 1425810176.4626827 1190163538.756176 0 1190163538.756176 763944881.64230347 0 0 0 0 2068876006.045002 1724345978.7275143 0 1724345978.7275143 864589408.08428955 0 0 0 0 -189343.15464510024 2733450.430603832 0 2733450.430603832 2923610.6549711823 0 0 0 0 -6095539.9128417969 46438712.561828613 0 46438712.561828613 -227460673.37854767 0 0 0 0 -28103110.485961914 85314874.913208008 0 85314874.913208008 -186043179.22961426 0 0 0 0 24517.389877319336 105818219.0313797 0 105818219.0313797 -300713780.83090973 0 0 0 0 -57675.660107571588 98545324.390283376 0 98545324.390283376 -358327751.88983154 0 0 0 0 3555197.4526196271 -1112964.1398420297 0 -1112964.1398420297 -186610.01304871961 0 0 0 0 -13430697.04095459 76721716.232185364 0 76721716.232185364 -323946659.63832855 0 0 0 0 -12787882.034117579 139754859.72584909 0 139754859.72584909 -429791579.63632202 0 0 0 0 6749720.2826995254 1210374.0470998734 0 1210374.0470998734 695957.40571374074 0 0 0 0 327267763.05368042 -247467062.07653046 0 -247467062.07653046 970393016.42639923 0 0 0 0 346769224.95933151 -179155238.03972721 0 -179155238.03972721 82283083.50100708 0 0 0 0 -34875625.216459274 183895807.20617151 0 183895807.20617151 -598487696.98867798 0 0 0 0 -30955510.024536133 83248178.129257202 0 83248178.129257202 -339828557.24752808 0 0 0 0 3136623.6214294434 52130183.10042572 0 52130183.10042572 -345543455.89765453 0 0 0 0 -90147399.899917603 66342085.931770325 0 66342085.931770325 -212048261.00313568 0 0 0 0 -16456039.60446167 36970958.941864014 0 36970958.941864014 -207532547.3165741 0 0 0 0 -25992352.315887451 467919.71739196777 0 467919.71739196777 -224812107.51322651 0 0 0 0 142604029.56523132 64813729.212417603 0 64813729.212417603 -1102051520.9595642 0 0 0 0 12953220.64155367 8191198.371825939 0 8191198.371825939 3809221.8139778189 0 0 0 0 -24943729.362564087 -20380215.839782715 0 -20380215.839782715 -438197491.35995483 0 0 0 0 -121800495.20283508 33511302.597496033 0 33511302.597496033 -219059084.63700008 0 0 0 0 129035371.44567871 -714868120.07233429 0 -714868120.07233429 909554097.98826599 0 0 0 0 9562458.5400238335 4085769.3399037644 0 4085769.3399037644 1975149.2165384367 0 0 0 0 -650812704.92355347 -476280109.41770935 0 -476280109.41770935 52894955.84941864 0 0 0 0 -311367847.03942871 -484108138.79785156 0 -484108138.79785156 -799073284.67602539 0 0 0 0 -1712210497.3888969 -432418241.17616367 0 -432418241.17616367 -662672880.99832153 0 0 0 0 -1988172400.0477295 1573816591.1117249 0 1573816591.1117249 -2534294854.0467072 0 0 0 0 -1032110120.0977478 697758427.3144989 0 697758427.3144989 -552673625.8079834 0 0 0 0 -777881429.69517517 146362786.71878052 0 146362786.71878052 967938341.31466675 0 0 0 0 417536580.40904999 -288803290.73367119 0 -288803290.73367119 39568261.340866089 0 0 0 0 -147098060.92956543 -602210134.51264191 0 -602210134.51264191 1336953502.967804 0 0 0 0 126197240.53155518 97836027.453773499 0 97836027.453773499 355823891.85011101 0 0 0 0 -315049145.12410736 345086468.82588196 0 345086468.82588196 304497524.3013916 0 0 0 0 -1113926909.6572266 629544443.8175354 0 629544443.8175354 -300098620.63531494 0 0 0 0 -82361330.321716309 -15373869.913917542 0 -15373869.913917542 54628651.587219238 0 0 0 0 -1052216411.3026123 288057479.38052368 0 288057479.38052368 -345816592.97851562 0 0 0 0 391951482.79881287 -245979647.65236473 0 -245979647.65236473 -2250309395.4239807 0 0 0 0 -1039196372.6035156 270505287.91030884 0 270505287.91030884 -808607019.54217529 0 0 0 0 1737815.8324432373 -19610376.234447479 0 -19610376.234447479 -404727156.83474731 0 0 0 0 -14929929.489883423 445924125.25120163 0 445924125.25120163 -435531785.03027344 0 0 0 0 -132083626.87744141 329628886.91526413 0 329628886.91526413 411733587.26029968 0 0 0 0 31160578.789550781 140524350.94721222 0 140524350.94721222 140181992.24729919 0 0 0 0 16985688.93129164 13162584.492980873 0 13162584.492980873 5509304.2824791372 0 0 0 0 -13347578.17565918 -101036835.89984131 0 -101036835.89984131 710367810.384552 0 0 0 0 93575826.524414062 -294662698.78637314 0 -294662698.78637314 -45420517.380096436 0 0 0 0 631793637.3412323 567176416.89486885 0 567176416.89486885 -1257771429.181778 0 0 0 0 -487548794.43569946 362495251.84430695 0 362495251.84430695 665687610.56532288 0 0 0 0 56974524.211547852 -447643098.83203888 0 -447643098.83203888 656973288.60487366 0 0 0 0 -191257814.94309998 22199490.236457825 0 22199490.236457825 532303240.38837433 0 0 0 0 295606907.47761536 467006190.00421143 0 467006190.00421143 327332458.67705536 0 0 0 0 296485215.9889679 330373108.08537102 0 330373108.08537102 113519055.40412903 0 0 0 0 194810700.73272705 7291992.6406097412 0 7291992.6406097412 -37868899.264692307 0 0 0 0 692663896.01368713 92019138.284305573 0 92019138.284305573 -28522087.297698975 0 0 0 0 1905297.1439972222 3331810.4230737016 0 3331810.4230737016 -2005384.8000203669 0 0 0 0 73082540.203308105 25089247.240737915 0 25089247.240737915 9973353.6878356934 0 0 0 0 157944641.9574585 22640395.563232422 0 22640395.563232422 -15953837.939682007 0 0 0 0 82256879.97668457 32696913.951797485 0 32696913.951797485 -5957941.166595459 0 0 0 0 113988415.17266846 29544407.444335938 0 29544407.444335938 -22116399.081214905 0 0 0 0 62200386.969482422 38559328.572479248 0 38559328.572479248 -7920742.3862304688 0 0 0 0 51548310.355459213 137251463.29781914 0 137251463.29781914 49279844.975616455 0 0 0 0 83017529.971374512 43736777.157981873 0 43736777.157981873 -2021373.0392303467 0 0 0 0 61224464.549804688 53094701.813751221 0 53094701.813751221 -5830223.0259399414 0 0 0 0 103570897.7814827 73078850.1317873 0 73078850.1317873 1689699.7689056396 0 0 0 0 139625278.7801857 191337037.32109642 0 191337037.32109642 49665206.182067871 0 0 0 0 167454544.75128174 76839538.467834473 0 76839538.467834473 -17074789.999740601 0 0 0 0 353664491.69033813 88954719.568016052 0 88954719.568016052 -50496510.155105591 0 0 0 0 155095688.38440037 78246314.082157373 0 78246314.082157373 -12166701.77722168 0 0 0 0 64662414.443389893 204890218.51226807 0 204890218.51226807 49323660.43359375 0 0 0 0 9308828.6451950073 205220907.92478371 0 205220907.92478371 87947231.071350098 0 0 0 0 64772835.758178711 229676239.97138977 0 229676239.97138977 96127042.333732605 0 0 0 0 46036880.948852539 151010073.76251984 0 151010073.76251984 36639378.475471497 0 0 0 0 -43862488.079772949 111322906.21218872 0 111322906.21218872 42813873.732505798 0 0 0 0 -9521207.3338012695 160696962.80270386 0 160696962.80270386 95162357.052927971 0 0 0 0 -8155886.0040283203 191965480.00792694 0 191965480.00792694 91757360.652532101 0 0 0 0 275234.13767242432 175767763.82744598 0 175767763.82744598 119070167.48934937 0 0 0 0 -37844702.748687744 149561744.037117 0 149561744.037117 73510212.835723877 0 0 0 0 -58317617.940826416 154544230.87413788 0 154544230.87413788 74516101.383911133 0 0 0 0 3618224.1078796387 278397339.60726166 0 278397339.60726166 214976412.05097198 0 0 0 0 -73065514.141448975 193609291.01151276 0 193609291.01151276 183616034.79156494 0 0 0 0 -126386113.94148254 25152454.811603546 0 25152454.811603546 27253576.792640686 0 0 0 0 -41717842.892700195 105303568.18839264 0 105303568.18839264 -53382895.539291382 0 0 0 0 -88537413.841339111 75681256.913627625 0 75681256.913627625 27077068.239959717 0 0 0 0 -48998019.674530029 181459618.90710449 0 181459618.90710449 120170382.70269775 0 0 0 0 -13284713.299713135 134105255.84832764 0 134105255.84832764 42242578.340925217 0 0 0 0 -1649552.7635650635 179091781.62845993 0 179091781.62845993 125887093.98432922 0 0 0 0 14466496.159744263 115540809.72993469 0 115540809.72993469 136135946.22852325 0 0 0 0 -20317777.546279907 156783350.51391983 0 156783350.51391983 105841527.43858337 0 0 0 0 -14097228.442162514 76414336.723679781 0 76414336.723679781 77051351.513900757 0 0 0 0 4293745.6829528809 120996815.34511948 0 120996815.34511948 146594158.37651825 0 0 0 0 60633787.580627441 93679540.796455383 0 93679540.796455383 158788125.77145767 0 0 0 0 39689.974243164062 101556762.2206459 0 101556762.2206459 171570518.69590759 0 0 0 0 26206574.241352081 71233473.285381317 0 71233473.285381317 83579132.216674805 0 0 0 0 -65026.157257080078 117503833.27677917 0 117503833.27677917 65439443.099225998 0 0 0 0 31604618.806503296 97812329.68157959 0 97812329.68157959 -26565408.999565125 0 0 0 0 -49054003.473571777 58233011.66204834 0 58233011.66204834 -38573076.405778885 0 0 0 0 -19184793.267993927 40139591.43885994 0 40139591.43885994 -147440126.97938538 0 0 0 0 30400.60539691315 109609294.78454001 0 109609294.78454001 -149241731.13938904 0 0 0 0 71704883.410980225 69162802.774154663 0 69162802.774154663 52587787.213783503 0 0 0 0 95681016.290718079 133457575.53969574 0 133457575.53969574 81700650.854858398 0 0 0 0 -3037540.368818678 27391049.065696053 0 27391049.065696053 8946345.394631952 0 0 0 0 -6137671.2579845935 8237252.7283050753 0 8237252.7283050753 3860453.8740225546 0 0 0 0 47107835.956512451 80030183.074676514 0 80030183.074676514 94226574.049957275 0 0 0 0 294525211.02072144 -21830883.015487671 0 -21830883.015487671 -13864986.674240112 0 0 0 0 -37531880.16085434 45652532.78345108 0 45652532.78345108 18528749.463012695 0 0 0 0 -18673069.015899658 196102394.89256287 0 196102394.89256287 155067128.88293457 0 0 0 0 409781248.17736816 105708884.45922852 0 105708884.45922852 53620910.115955353 0 0 0 0 151268260.52740479 155199024.96615601 0 155199024.96615601 -83717794.968353271 0 0 0 0 191769237.54065704 12379449.317131042 0 12379449.317131042 -368983380.33926392 0 0 0 0 11594094.195708275 -76897549.373274326 0 -76897549.373274326 -185964817.66958618 0 0 0 0 294865989.38064206 146837868.98889711 0 146837868.98889711 -90778239.442504883 0 0 0 0 116090726.97473145 181192078.5690155 0 181192078.5690155 -21415727.632781982 0 0 0 0 192897129.44433594 127931641.57667542 0 127931641.57667542 -65874953.699325562 0 0 0 0 -35831911.121116638 54436069.257881165 0 54436069.257881165 -495633.66567993164 0 0 0 0 95081852.734832764 53457993.420639038 0 53457993.420639038 -33580802.381347656 0 0 0 0 13707205.13620013 37006815.324597381 0 37006815.324597381 -17412685.628322095 0 0 0 0 -27439743.335936047 25714645.664366178 0 25714645.664366178 17802120.231791735 0 0 0 0 -35801907.287879944 58121822.171268463 0 58121822.171268463 12846936.192840576 0 0 0 0 -45116004.20475769 66147920.936630249 0 66147920.936630249 6718586.1194763184 0 0 0 0 -39641833.569770813 51568733.648696899 0 51568733.648696899 42012211.548706055 0 0 0 0 -20830840.5304121 23100232.12874829 0 23100232.12874829 22278708.714765996 0 0 0 0 -65785700.82472229 39337586.158905029 0 39337586.158905029 94409954.542976379 0 0 0 0 -39073487.414413452 47397962.559844971 0 47397962.559844971 -3452749.8326339722 0 0 0 0 8045825.0648999065 23037294.110030852 0 23037294.110030852 1469246.7604073733 0 0 0 0 -44655322.359565735 87274281.702484131 0 87274281.702484131 -30210226.334049225 0 0 0 0 -31621511.185789108 136367584.54516602 0 136367584.54516602 -36522030.047332764 0 0 0 0 -24382133.726547241 12757368.053375244 0 12757368.053375244 9988498.1660690308 0 0 0 0 -6244061.7969356067 30134853.855053555 0 30134853.855053555 18015883.985149376 0 0 0 0 -24675854.017860413 36881268.811286926 0 36881268.811286926 -1703586.2731246948 0 0 0 0 -74311365.016518116 98439855.056348801 0 98439855.056348801 14247585.51940918 0 0 0 0 -43305351.298152924 56409178.43649292 0 56409178.43649292 11864162.516998291 0 0 0 0 -6082074.225552747 25905776.278206889 0 25905776.278206889 13301338.828301981 0 0 0 0 -79121219.754369736 84925351.148944855 0 84925351.148944855 51754851.338317871 0 0 0 0 -64753390.336036682 46551873.238739014 0 46551873.238739014 53101249.288939476 0 0 0 0 -45483812.456703186 19326037.764556885 0 19326037.764556885 47069533.743331909 0 0 0 0 -65192115.225193024 44888339.936141968 0 44888339.936141968 116298614.77352905 0 0 0 0 -64976145.893332481 48509823.311030865 0 48509823.311030865 57337205.449493408 0 0 0 0 -65483220.262947083 21631954.952346802 0 21631954.952346802 63158941.743530273 0 0 0 0 -948057.77639770508 5486682.8830718994 0 5486682.8830718994 2454652.5581665039 0 0 0 0 37173876.50881958 18116226.025726318 0 18116226.025726318 6574100.283203125 0 0 0 0 27333521.011257172 14205092.790548086 0 14205092.790548086 5590712.563298896 0 0 0 0 -65747980.907966614 50926677.397491455 0 50926677.397491455 34359277.909912109 0 0 0 0 -64507559.20010376 21505259.466598511 0 21505259.466598511 33246747.181060791 0 0 0 0 2021934.0749294683 9668554.6995715871 0 9668554.6995715871 5523664.9435703307 0 0 0 0 15410532.32019043 18505756.555175781 0 18505756.555175781 7298884.1427612305 0 0 0 0 -8614173.1056167819 27996429.916401386 0 27996429.916401386 14263342.437690467 0 0 0 0 7609116.3121467419 11390162.709415756 0 11390162.709415756 79333.293507307768 0 0 0 0 26955702.476135254 17568903.188827515 0 17568903.188827515 -3191909.6687316895 0 0 0 0 4934744.2584228516 24464991.509811401 0 24464991.509811401 17122739.637009621 0 0 0 0 16523693.392166138 24586341.574485779 0 24586341.574485779 -7018466.8502807617 0 0 0 0 15318576.821655273 38500154.171356201 0 38500154.171356201 1419526.0383911133 0 0 0 0 3610174.5885009766 25750721.06451416 0 25750721.06451416 -11599140.235961914 0 0 0 0 -4486053.6154470444 38818240.387872219 0 38818240.387872219 -7941520.1313476562 0 0 0 0 1906157.4334801137 25207081.685065724 0 25207081.685065724 12949025.351078153 0 0 0 0 -5430493.2155456543 15934489.286895752 0 15934489.286895752 32522.691925048828 0 0 0 0 20294260.410327204 20723307.410880491 0 20723307.410880491 4012921.4337202311 0 0 0 0 9545573.0120115504 8532325.2360767201 0 8532325.2360767201 3827019.8994954079 0 0 0 0 7913833.996238865 4089892.2675681338 0 4089892.2675681338 1763001.1610028148 0 0 0 0 181903707.86761475 52869114.043121338 0 52869114.043121338 -1713244.0817871094 0 0 0 0 -995465.44744873047 5597033.0690917969 0 5597033.0690917969 3371553.36328125 0 0 0 0 20156332.332029872 13197861.245685965 0 13197861.245685965 -4088711.0304986909 0 0 0 0 2713770.9423828125 5655040.6136322021 0 5655040.6136322021 2932719.3249511719 0 0 0 0 81947115.10647583 39473157.014434814 0 39473157.014434814 29381933.540039062 0 0 0 0 -13531084.40568357 29942729.964961424 0 29942729.964961424 11024833.891965926 0 0 0 0 -23396548.106011167 29270182.910090145 0 29270182.910090145 16454946.384349026 0 0 0 0 -63935529.433288574 56611520.055450439 0 56611520.055450439 23740816.874450684 0 0 0 0 -34591755.391601562 42618925.997039795 0 42618925.997039795 16384486.817016602 0 0 0 0 -36518528.674133301 42155252.402450562 0 42155252.402450562 17341530.898132324 0 0 0 0 -33517201.833770752 46373932.364185333 0 46373932.364185333 18029873.554046631 0 0 0 0 -877932.87815856934 49523073.528236389 0 49523073.528236389 11662487.311553955 0 0 0 0 -19265367.739593506 61211463.463264465 0 61211463.463264465 4695901.8883666992 0 0 0 0 -7633215.6726379395 79287020.277000427 0 79287020.277000427 -16248705.639190674 0 0 0 0 -41680347.530273438 105220580.16378784 0 105220580.16378784 10885714.028739929 0 0 0 0 -33709561.281738281 132830909.13273621 0 132830909.13273621 27581763.064315796 0 0 0 0 8736734.3202972412 148694746.60114288 0 148694746.60114288 -44634746.426010132 0 0 0 0 -25551450.069381714 196536891.77920532 0 196536891.77920532 91458143.14100647 0 0 0 0 -72662412.801574707 137710603.7256012 0 137710603.7256012 28227372.985660553 0 0 0 0 -65837100.531280518 121907590.88117218 0 121907590.88117218 64775828.004638672 0 0 0 0 -75607766.479213715 102129782.32542801 0 102129782.32542801 33463652.116333008 0 0 0 0 80096838.370788574 161812004.81739807 0 161812004.81739807 -189431254.86552048 0 0 0 0 17893384.970245361 168866268.849617 0 168866268.849617 -211348.57322692871 0 0 0 0 28732985.075866699 171488730.26521301 0 171488730.26521301 106925.28196620941 0 0 0 0 -11843668.756149292 152826905.14492798 0 152826905.14492798 204959724.79621887 0 0 0 0 34366995.760375977 259990807.92098236 0 259990807.92098236 -13165879.537628174 0 0 0 0 6941828.3627319336 97806460.623275757 0 97806460.623275757 170056238.98262024 0 0 0 0 106824590.3258667 677563905.46873474 0 677563905.46873474 -1366838585.5097198 0 0 0 0 19409566.278290257 18026852.920874022 0 18026852.920874022 6341776.4093862362 0 0 0 0 64856365.102779388 -26821558.449220657 0 -26821558.449220657 299044014.09141541 0 0 0 0 -488863867.8878845 759462354.17581379 0 759462354.17581379 -187989957.4070282 0 0 0 0 -214060163.89842224 100954517.81255722 0 100954517.81255722 90261532.792694092 0 0 0 0 -113077538.81860352 -277240.43105316162 0 -277240.43105316162 -2659034.5548858643 0 0 0 0 -71873903.266448975 124452430.56298828 0 124452430.56298828 111663975.89107895 0 0 0 0 -84487821.058959961 158760101.47697449 0 158760101.47697449 84712593.605010986 0 0 0 0 -145869939.78681946 237138336.0618515 0 237138336.0618515 148404235.83239746 0 0 0 0 149737803.32272339 145812986.0008297 0 145812986.0008297 33790044.579528809 0 0 0 0 -387055525.44256592 101947266.97943115 0 101947266.97943115 161821939.45307922 0 0 0 0 6132322.3817063719 3557031.3921604156 0 3557031.3921604156 -2232670.3435946852 0 0 0 0 462252688.50085449 303793767.01272583 0 303793767.01272583 -521875247.41682434 0 0 0 0 -364377437.4414978 -103902131.70168304 0 -103902131.70168304 50072356.717048645 0 0 0 0 531210131.06663513 708853677.4196701 0 708853677.4196701 -338941996.87384033 0 0 0 0 184351932.34573364 543139889.47967529 0 543139889.47967529 182758311.46813965 0 0 0 0 -218660349.81643677 782185035.92758942 0 782185035.92758942 -27073023.374641418 0 0 0 0 -72052021.947208405 -386564913.13661194 0 -386564913.13661194 167990610.75656891 0 0 0 0 -409890132.48944092 -655123049.13656616 0 -655123049.13656616 -26398474.870487213 0 0 0 0 -1343912.7234134823 6048945.0456067286 0 6048945.0456067286 940480.28436989523 0 0 0 0 18343907.758035034 23753022.212391909 0 23753022.212391909 5935969.7914652638 0 0 0 0 -48692592.902618408 233921308.28842926 0 233921308.28842926 -275313784.7730484 0 0 0 0 -173999826.1730957 366163247.07781982 0 366163247.07781982 -28797251.602745056 0 0 0 0 -191276086.16662598 149020933.67547607 0 149020933.67547607 -94144810.156494141 0 0 0 0 -198274889.56660461 171443677.25603867 0 171443677.25603867 -5109795.5394897461 0 0 0 0 -123806318.91467285 99012794.301528931 0 99012794.301528931 -57584142.976394653 0 0 0 0 -134608849.69769287 125072703.11696625 0 125072703.11696625 -53494113.778579712 0 0 0 0 3152162.646484375 56311138.093490601 0 56311138.093490601 -56437786.646469116 0 0 0 0 4462806.4902954102 6390059.5952606201 0 6390059.5952606201 -94479547.047729492 0 0 0 0 -47241405.264892578 93797992.353149414 0 93797992.353149414 -151331630.88537598 0 0 0 0 -15595566.490722656 45411372.280273438 0 45411372.280273438 -169845597.2713623 0 0 0 0 -39528297.518554688 63843535.958007812 0 63843535.958007812 -56863140.221435547 0 0 0 0 -307072276.3638916 -54905821.656402588 0 -54905821.656402588 267337359.49432373 0 0 0 0 -148682764.66333008 9317272.6007385254 0 9317272.6007385254 292962020.19871521 0 0 0 0 -262643220.0272522 369079311.64966583 0 369079311.64966583 382188739.55474854 0 0 0 0 -163714524.00598145 387768316.61254883 0 387768316.61254883 380437427.58149719 0 0 0 0 -446966217.8012085 211031136.42715454 0 211031136.42715454 375307792.32911301 0 0 0 0 -59762424.033325195 255587848.73770142 0 255587848.73770142 367170956.65722275 0 0 0 0 -132202747.2585144 -314515983.54016113 0 -314515983.54016113 -302778665.49847412 0 0 0 0 -107630672.48937988 374718948.46160889 0 374718948.46160889 363162431.42073059 0 0 0 0 -113795678.04504395 540573528.57116699 0 540573528.57116699 388183422.6539917 0 0 0 0 158165109.42190552 374874611.02389526 0 374874611.02389526 324445760.05641174 0 0 0 0 -272560522.50889587 78007521.152706146 0 78007521.152706146 15938978.60383606 0 0 0 0 -211440266.6312561 62279469.438964844 0 62279469.438964844 16416946.323989868 0 0 0 0 -3226531.0198428631 3532484.8663778156 0 3532484.8663778156 5903662.6141021848 0 0 0 0 168512719.14892578 105750163.0967865 0 105750163.0967865 348896185.19696045 0 0 0 0 1827540.282427907 1185485.4981558658 0 1185485.4981558658 -2748106.6560384259 0 0 0 0 -158926654.34934998 -4746564.9847259521 0 -4746564.9847259521 286698063.59509277 0 0 0 0 -2877158.2763671875 34236549.500900269 0 34236549.500900269 221555737.44938278 0 0 0 0 -3924134.3639221191 95844478.354038239 0 95844478.354038239 296775505.31225586 0 0 0 0 -144675712.03835297 20677813.809858322 0 20677813.809858322 271510228.4703064 0 0 0 0 -170620657.43664551 157844668.53460693 0 157844668.53460693 344538705.34777832 0 0 0 0 12507541.144104004 225565058.04014587 0 225565058.04014587 347758883.58403683 0 0 0 0 -89043850.459655762 11483906.612930298 0 11483906.612930298 218804121.96495056 0 0 0 0 6950190.4017928541 11166873.706886046 0 11166873.706886046 -8763050.5379493386 0 0 0 0 67636845.803798676 47308836.429637909 0 47308836.429637909 -15148336.79901123 0 0 0 0 9567255.9474182129 13095747.596294403 0 13095747.596294403 -20683655.609558105 0 0 0 0 84822801.481210709 14732987.653112888 0 14732987.653112888 -34954642.04524231 0 0 0 0 -701541.73198889196 20418733.802870594 0 20418733.802870594 -10397630.307695739 0 0 0 0 -540237.59547495842 19874045.544217344 0 19874045.544217344 17183988.132767826 0 0 0 0 -14839775.412399292 56787163.873732567 0 56787163.873732567 -36640670.213676453 0 0 0 0 -108667211.34588623 40979685.082839966 0 40979685.082839966 12208793.894098282 0 0 0 0 13297393.486517251 10955538.149789512 0 10955538.149789512 -18215800.777971815 0 0 0 0 94377563.829681396 34024345.888946533 0 34024345.888946533 -76961618.040473938 0 0 0 0 10973343.056350708 4130991.2361030579 0 4130991.2361030579 -24430542.354904175 0 0 0 0 46772326.715118408 -2196918.685218811 0 -2196918.685218811 -15471735.142532349 0 0 0 0 8752550.478181839 -17827751.689729333 0 -17827751.689729333 209234913.99367523 0 0 0 0 -6614717.956821464 15870734.795431711 0 15870734.795431711 -17403538.945579425 0 0 0 0 -77349692.281921387 84969255.654283524 0 84969255.654283524 -25489151.11366272 0 0 0 0 -75732861.459365845 91518826.377702713 0 91518826.377702713 -3809812.1508026123 0 0 0 0 -131308192.14337158 83409979.497962952 0 83409979.497962952 12507183.242103577 0 0 0 0 -5038714.9310030639 27653314.742653482 0 27653314.742653482 27837620.34361288 0 0 0 0 -118261205.40426636 112763962.15229797 0 112763962.15229797 -3028656.8532943726 0 0 0 0 -138379349.28277588 165883876.66316986 0 165883876.66316986 -35034136.6222229 0 0 0 0 -89899391.721511841 44921395.507110596 0 44921395.507110596 2647766.6976165771 0 0 0 0 -13684314.413222313 47173832.314307198 0 47173832.314307198 3440002.8577255011 0 0 0 0 76551076.904067993 134157795.60991287 0 134157795.60991287 14319753.621902466 0 0 0 0 -18858387.907287598 93747409.297622681 0 93747409.297622681 -3494809.1717224121 0 0 0 0 27358792.18952179 110276395.90409088 0 110276395.90409088 41318050.728302002 0 0 0 0 -16927361.600906372 158427019.53361511 0 158427019.53361511 27946587.017700195 0 0 0 0 -41094704.340938568 80540079.591247559 0 80540079.591247559 32113506.490356445 0 0 0 0 -53714143.753334045 69340518.574775696 0 69340518.574775696 52156393.584541321 0 0 0 0 -28320813.528873444 119426420.43510246 0 119426420.43510246 93750799.645996094 0 0 0 0 -16238899.835968018 41160071.816413879 0 41160071.816413879 9167738.4832649231 0 0 0 0 68603007.414428711 72285601.480735779 0 72285601.480735779 -31413580.221405029 0 0 0 0 -15950525.182769841 45025267.994019777 0 45025267.994019777 2762743.3463092893 0 0 0 0 -9079072.0184969008 32107344.847569801 0 32107344.847569801 7783208.9285292495 0 0 0 0 8547635.8894958496 75121694.680828094 0 75121694.680828094 -4220547.819229126 0 0 0 0 -4316076.8220214844 28963446.650001526 0 28963446.650001526 6923949.7627105713 0 0 0 0 -68012672.208251953 28408513.520019531 0 28408513.520019531 -15553699.109405518 0 0 0 0 -57134658.508626938 54259014.668243408 0 54259014.668243408 13095061.62612915 0 0 0 0 -74264748.554889679 84465207.781417847 0 84465207.781417847 98397820.985778809 0 0 0 0 13924004.947818995 31621933.28743349 0 31621933.28743349 4345104.4610621855 0 0 0 0 16236393.846664429 59950933.596641541 0 59950933.596641541 -11119663.788825989 0 0 0 0 -16880649.585571289 28192294.604309082 0 28192294.604309082 6389505.4299316406 0 0 0 0 -51059843.228666812 24045398.715789013 0 24045398.715789013 13665841.814461771 0 0 0 0 6041435.9405695722 39709663.35071107 0 39709663.35071107 8752586.3589198366 0 0 0 0 18583725.986149292 39596475.819744229 0 39596475.819744229 -20823207.571511939 0 0 0 0 26150455.855712891 67551952.877700806 0 67551952.877700806 -26517465.902252197 0 0 0 0 10794659.861282349 50671547.459072113 0 50671547.459072113 54937045.809295654 0 0 0 0 -10909165.102573395 55613303.823474884 0 55613303.823474884 -4855111.9149780273 0 0 0 0 -1958174.4238586426 157358449.54214478 0 157358449.54214478 342167210.93055725 0 0 0 0 -185278344.0716362 421240801.01637077 0 421240801.01637077 66207082.103965759 0 0 0 0 10355697.110088617 37479193.377967797 0 37479193.377967797 6472438.5463113822 0 0 0 0 111421283.49234009 155797192.99017334 0 155797192.99017334 -52728924.362518311 0 0 0 0 -67183099.738952637 49866134.242248535 0 49866134.242248535 38031050.069816589 0 0 0 0 -37743411.917217255 71676404.307355881 0 71676404.307355881 52537745.220214844 0 0 0 0 -93435481.083068848 106493479.2774086 0 106493479.2774086 17734101.674438477 0 0 0 0 -21861431.714015961 78458573.108879089 0 78458573.108879089 -2647442.4832763672 0 0 0 0 16083660.320602059 74704895.040193796 0 74704895.040193796 -49369976.521148682 0 0 0 0 -23933339.047241211 85040523.395370483 0 85040523.395370483 -7538334.3365020752 0 0 0 0 -32244356.477767944 106872007.39285278 0 106872007.39285278 -56674620.290802002 0 0 0 0 -17687881.833984375 72428224.027313232 0 72428224.027313232 -53031775.65209198 0 0 0 0 -13696325.363793373 31334518.431983203 0 31334518.431983203 5090188.9677863419 0 0 0 0 -14432202.680541992 89442506.80682373 0 89442506.80682373 -47847684.410217285 0 0 0 0 -4863075.3973805308 11038233.556665458 0 11038233.556665458 1431098.0347875133 0 0 0 0 -42317207.359069824 175885994.07334137 0 175885994.07334137 -229889599.769104 0 0 0 0 -171522512.66660309 169578947.5450058 0 169578947.5450058 -16351519.519451141 0 0 0 0 -153589299.4752655 50055690.888145447 0 50055690.888145447 254787402.52396011 0 0 0 0 -236652533.46263123 135007135.20339203 0 135007135.20339203 200432280.86962891 0 0 0 0 -144049749.33528137 146726204.53453064 0 146726204.53453064 185037881.4418335 0 0 0 0 -58813471.571769714 143128586.88853455 0 143128586.88853455 76996812.458572388 0 0 0 0 -49502707.914825439 71333888.352508545 0 71333888.352508545 131586773.02832031 0 0 0 0 -49153783.730781555 86605968.885231018 0 86605968.885231018 69563605.194152832 0 0 0 0 -114554229.4535675 128409999.31251526 0 128409999.31251526 143174950.2617321 0 0 0 0 -17557352.075378418 169847318.52757263 0 169847318.52757263 83295379.994312286 0 0 0 0 -97384534.925895691 238795563.00616074 0 238795563.00616074 36596894.576858521 0 0 0 0 -196696604.12847137 255318401.17036057 0 255318401.17036057 169956129.73594666 0 0 0 0 -152673525.23351288 204511543.44191742 0 204511543.44191742 160190497.24866104 0 0 0 0 -208632546.64914703 323980146.60054779 0 323980146.60054779 142626530.13011551 0 0 0 0 -79397768.393373489 265666773.87992477 0 265666773.87992477 -172392529.93487549 0 0 0 0 -78276329.989387512 239461899.28800201 0 239461899.28800201 109819996.89143372 0 0 0 0 54480485.223297119 248822283.24567413 0 248822283.24567413 32563468.101696014 0 0 0 0 36799140.16037941 180196250.9546051 0 180196250.9546051 -63296932.828430176 0 0 0 0 160193845.15982819 117192091.29385376 0 117192091.29385376 -258795879.30674744 0 0 0 0 132465370.40756798 167372174.62054062 0 167372174.62054062 -129376823.89996338 0 0 0 0 -89934326.138702393 118478279.05744934 0 118478279.05744934 -104234549.23931503 0 0 0 0 5885106.7439727783 210721233.92156982 0 210721233.92156982 -139101323.26018524 0 0 0 0 -52790804.631378174 1225323.229675293 0 1225323.229675293 -285829151.38349915 0 0 0 0 50278057.840774536 -101645264.78508759 0 -101645264.78508759 527076161.962677 0 0 0 0 4128678.6419168413 4531637.4366447628 0 4531637.4366447628 3397272.4433933664 0 0 0 0 151717149.11429596 70630501.458312988 0 70630501.458312988 -459192862.59429932 0 0 0 0 -42984405.68081665 60555387.560623169 0 60555387.560623169 811110841.78128052 0 0 0 0 -957446987.09564209 707451273.20471191 0 707451273.20471191 981875002.91070557 0 0 0 0 182306849.42425537 -39432746.821014404 0 -39432746.821014404 185568684.31817627 0 0 0 0 15209246.355493002 32100668.715063725 0 32100668.715063725 -4077406.3509078398 0 0 0 0 12447282.991755769 13639377.407410577 0 13639377.407410577 11371052.863665894 0 0 0 0 24267808.919311523 92250634.711685181 0 92250634.711685181 290395985.96736145 0 0 0 0 54498198.535583496 152552908.60275269 0 152552908.60275269 232379690.56254578 0 0 0 0 96384806.051986694 172285410.97710419 0 172285410.97710419 134442463.70222473 0 0 0 0 15499303.820277683 43534839.176092617 0 43534839.176092617 -5485149.3557131588 0 0 0 0 9208680.1478881836 46329210.019992828 0 46329210.019992828 -24926757.89541626 0 0 0 0 65323971.438064575 66456018.252410889 0 66456018.252410889 93159237.517215729 0 0 0 0 -5104010.0485839844 49113158.757804871 0 49113158.757804871 15421334.305870056 0 0 0 0 11502961.137077332 39502960.657459259 0 39502960.657459259 -12297061.967262268 0 0 0 0 4243878.8227844238 36954411.039932251 0 36954411.039932251 3780264.4471359253 0 0 0 0 894929.06866455078 47276021.010139465 0 47276021.010139465 -8858779.0997314453 0 0 0 0 -36434747.527099609 49287059.168190002 0 49287059.168190002 13282262.801246643 0 0 0 0 -22519286.689666748 34259573.162761688 0 34259573.162761688 10802635.723220825 0 0 0 0 -34971287.790771484 53109497.880470276 0 53109497.880470276 9156945.9576339722 0 0 0 0 -35049716.062561035 51381901.329515457 0 51381901.329515457 19518777.75038147 0 0 0 0 -19700237.788341522 71117710.047737598 0 71117710.047737598 -21624389.187767029 0 0 0 0 -31766001.214691162 44451692.950330734 0 44451692.950330734 7582874.3954467773 0 0 0 0 -44822987.526702881 64850994.501163483 0 64850994.501163483 -19360815.764480591 0 0 0 0 -41197536.658447266 46779573.862472534 0 46779573.862472534 14049990.580307007 0 0 0 0 -39182198.16986084 47211453.770797729 0 47211453.770797729 -13938641.310546875 0 0 0 0 -57600577.093429565 38672491.429830551 0 38672491.429830551 10498585.065643311 0 0 0 0 7149431.086074993 42165537.710930243 0 42165537.710930243 31555192.249654621 0 0 0 0 -28511667.329391479 25826948.173048019 0 25826948.173048019 27840634.486656189 0 0 0 0 -36248017.846908569 31655146.612559319 0 31655146.612559319 40482842.004699707 0 0 0 0 -39529525.075439453 58408528.872955322 0 58408528.872955322 61640139.055732727 0 0 0 0 13786360.334195428 6202655.1838186327 0 6202655.1838186327 -16912404.058599688 0 0 0 0 4169455.1868009567 110531686.29467821 0 110531686.29467821 266248600.5914917 0 0 0 0 -117007592.83001709 24956324.641937256 0 24956324.641937256 -116506670.61853027 0 0 0 0 45473416.391161174 40902850.150120638 0 40902850.150120638 -3081475.2380476948 0 0 0 0 3461784.1566467285 90032064.531860352 0 90032064.531860352 209800396.14630127 0 0 0 0 130722748.74905396 236512680.69093323 0 236512680.69093323 177749409.09005737 0 0 0 0 42467689.013866425 178566192.11584473 0 178566192.11584473 277005223.83026123 0 0 0 0 37048334.364562988 142135763.54119873 0 142135763.54119873 144334499.3270874 0 0 0 0 40424342.488586426 258337774.9072876 0 258337774.9072876 155823409.54840088 0 0 0 0 209437985.50512695 105322226.16862488 0 105322226.16862488 -152931546.76416016 0 0 0 0 -58115909.913696289 -39947736.273406982 0 -39947736.273406982 20422260.634490967 0 0 0 0 66489638.629882812 2063696.9772644043 0 2063696.9772644043 17826207.214370728 0 0 0 0 -116470628.60153198 -7233498.8314056396 0 -7233498.8314056396 66258231.247314453 0 0 0 0 36481596.820678711 43809009.5887146 0 43809009.5887146 146093573.75659943 0 0 0 0 92021009.661224365 162733463.21685791 0 162733463.21685791 73386715.950317383 0 0 0 0 73295550.573303223 155209111.14938354 0 155209111.14938354 146136610.49905396 0 0 0 0 -14062287.881011963 27363782.728790283 0 27363782.728790283 57115419.605194092 0 0 0 0 19368497.453028157 35729150.188586056 0 35729150.188586056 24772030.013443921 0 0 0 0 -69986996.585723877 31699315.070114136 0 31699315.070114136 61709843.830024719 0 0 0 0 -115288940.26207066 33116804.622088194 0 33116804.622088194 72879790.302154541 0 0 0 0 -9283616.6344470531 30071803.950431127 0 30071803.950431127 31306535.88468229 0 0 0 0 -26556228.250930786 54693630.385629654 0 54693630.385629654 10207370.676544189 0 0 0 0 -38708006.847442627 56976485.390693665 0 56976485.390693665 14312424.23626709 0 0 0 0 -46010267.349121094 25368670.148033142 0 25368670.148033142 -5166483.9468383789 0 0 0 0 -21111321.085773706 47601229.741357505 0 47601229.741357505 51918559.204696648 0 0 0 0 -26441631.307373047 23931615.253814697 0 23931615.253814697 12554801.563755035 0 0 0 0 -12796659.611135282 60753821.961571693 0 60753821.961571693 9450929.5369239226 0 0 0 0 -11227435.12040329 100393571.21162796 0 100393571.21162796 146769599.7338562 0 0 0 0 30741341.94942411 34343955.794525914 0 34343955.794525914 5999917.8336820751 0 0 0 0 139865216.90179443 91316515.31804657 0 91316515.31804657 24793992.546218872 0 0 0 0 13230022.118707884 18351002.190122686 0 18351002.190122686 7420574.5528161898 0 0 0 0 -16643281.889428325 46442818.538522586 0 46442818.538522586 32251582.746267322 0 0 0 0 7484478.468671307 8801884.5936246291 0 8801884.5936246291 3520298.2394774035 0 0 0 0 -97477003.571128845 -32020719.539901733 0 -32020719.539901733 134160336.06637573 0 0 0 0 63420809.558818817 371982105.40207672 0 371982105.40207672 294347335.78549194 0 0 0 0 146399828.01789856 167969945.31053162 0 167969945.31053162 -8917781.0295476913 0 0 0 0 87782671.004257202 89187974.789123535 0 89187974.789123535 -131066953.17904663 0 0 0 0 37070220.283472061 133199853.22590733 0 133199853.22590733 26317853.492370605 0 0 0 0 96989609.496986389 50614680.662441254 0 50614680.662441254 -9692237.7415924072 0 0 0 0 38979982.159896851 138554487.21841431 0 138554487.21841431 18462424.99294281 0 0 0 0 -103945550.30596924 92943607.519989014 0 92943607.519989014 -14710039.120620728 0 0 0 0 5049665.088549003 3571689.969563432 0 3571689.969563432 -6288868.7397636622 0 0 0 0 429858370.11035156 58059828.736444473 0 58059828.736444473 -255513964.31666374 0 0 0 0 -417699698.34918213 75491987.883842468 0 75491987.883842468 562495365.76387405 0 0 0 0 246022162.9440918 258894815.94529343 0 258894815.94529343 166772039.30499268 0 0 0 0 279587965.00708008 262016239.07534599 0 262016239.07534599 110314520.14981842 0 0 0 0 264209597.55029297 233813210.09815216 0 233813210.09815216 99217725.154625893 0 0 0 0 -241730315.66668701 111209957.65605545 0 111209957.65605545 118977298.04082298 0 0 0 0 309652973.24325943 -3986418.3248691559 0 -3986418.3248691559 125369435.50641251 0 0 0 0 -382760591.20495605 236255760.29078674 0 236255760.29078674 148252699.50112152 0 0 0 0 -32231563.300178647 35638271.882031381 0 35638271.882031381 49182775.663539976 0 0 0 0 -242347671.7041626 -63304526.24136734 0 -63304526.24136734 -56080297.269744873 0 0 0 0 -114804100.39074707 -16009975.577480316 0 -16009975.577480316 -60153237.703529358 0 0 0 0 -25246473.8237205 35705909.135124624 0 35705909.135124624 43520301.0448149 0 0 0 0 114560496.85220337 -259057727.20019341 0 -259057727.20019341 36691804.0129776 0 0 0 0 126112905.44699097 -113591298.09302139 0 -113591298.09302139 -256489756.96811295 0 0 0 0 19925916.54586792 46664879.14666748 0 46664879.14666748 149397091.89670563 0 0 0 0 141961753.16333008 -43352662.049320221 0 -43352662.049320221 54192057.311336517 0 0 0 0 50479523.936981201 -82440869.934337616 0 -82440869.934337616 42613220.261665344 0 0 0 0 156206910.37335205 162360088.91147232 0 162360088.91147232 217339643.61174774 0 0 0 0 287632589.16802979 187106479.19075775 0 187106479.19075775 122289047.25235748 0 0 0 0 164196024.09130859 186774567.68020248 0 186774567.68020248 124692929.74497986 0 0 0 0 143770123.87841797 271235804.10560608 0 271235804.10560608 99733156.200962067 0 0 0 0 141919837.87231445 120068891.83779526 0 120068891.83779526 25150536.592941284 0 0 0 0 198349504.87158203 176944830.85338783 0 176944830.85338783 66093091.643161774 0 0 0 0 81891958.049301147 16374937.76249218 0 16374937.76249218 -893039.89032745361 0 0 0 0 170523613.34890747 138072566.439394 0 138072566.439394 -168431738.65553284 0 0 0 0 11173229.189819336 266935222.12664223 0 266935222.12664223 -12977867.506795883 0 0 0 0 24362522.201738358 127078191.12745452 0 127078191.12745452 -35638113.26599884 0 0 0 0 145750784.96795273 91248983.325335979 0 91248983.325335979 -429896134.20274353 0 0 0 0 143207196.77105713 56446134.849903107 0 56446134.849903107 -103129089.43909454 0 0 0 0 27106708.704071045 226891073.97413015 0 226891073.97413015 337486695.38785934 0 0 0 0 78891518.129760742 175126944.19093323 0 175126944.19093323 92886234.78175354 0 0 0 0 106306989.22039795 301316174.56357193 0 301316174.56357193 274364806.70510864 0 0 0 0 174585300.39819336 277855925.46860981 0 277855925.46860981 103227967.26407719 0 0 0 0 -10352683.8507348 14923537.605397861 0 14923537.605397861 16446233.532858467 0 0 0 0 178056653.06544495 257381163.83768606 0 257381163.83768606 239027322.6439743 0 0 0 0 183366136.39990234 238134081.30726385 0 238134081.30726385 307604105.95992756 0 0 0 0 164051453.0748291 225855438.10344505 0 225855438.10344505 144929262.43163109 0 0 0 0 291205623.88031006 269871255.7859621 0 269871255.7859621 239301884.07387924 0 0 0 0 162148267.02054214 238199123.71307456 0 238199123.71307456 293058999.02556229 0 0 0 0 -35745731.522949219 157781944.45257854 0 157781944.45257854 -89496171.029119968 0 0 0 0 47959522.366973877 117036424.97416496 0 117036424.97416496 -365596556.02678871 0 0 0 0 60612121.362945557 26246558.409676552 0 26246558.409676552 -142428266.6279335 0 0 0 0 290198259.7310791 384010924.8341589 0 384010924.8341589 302068404.44506139 0 0 0 0 72264244.871582031 -47714126.736325741 0 -47714126.736325741 -537415749.99316597 0 0 0 0 -8907896.6969520599 6458913.5560877584 0 6458913.5560877584 9596636.5948933102 0 0 0 0 98120784.170394897 419359745.52850741 0 419359745.52850741 679411044.40453792 0 0 0 0 -22605362.789775044 26736484.348432757 0 26736484.348432757 50091724.760822549 0 0 0 0 9908237.9302062988 38330886.34412384 0 38330886.34412384 17874703.397338867 0 0 0 0 -148311597.6494751 29563187.850784302 0 29563187.850784302 95768936.759733677 0 0 0 0 15851421.753990091 39598643.586086638 0 39598643.586086638 12269599.611600805 0 0 0 0 9405039.0206298828 34966036.936187744 0 34966036.936187744 34159969.08767271 0 0 0 0 9705549.3978473842 43043579.906285346 0 43043579.906285346 23080770.76640068 0 0 0 0 12865261.964370728 34418464.190975189 0 34418464.190975189 15653073.636383057 0 0 0 0 -1497090.3799999356 15575316.28445708 0 15575316.28445708 6510512.351764326 0 0 0 0 78209900.687805176 -25757045.234773636 0 -25757045.234773636 44733711.093324661 0 0 0 0 -4579601.7707519531 157286855.28213024 0 157286855.28213024 310694073.58916283 0 0 0 0 -8244636.1039228439 706820.88691040128 0 706820.88691040128 7286413.0290731825 0 0 0 0 -14720621.79473877 168392700.26729441 0 168392700.26729441 -177001530.87604141 0 0 0 0 2436038.7037231922 31088381.642281234 0 31088381.642281234 14954316.737146676 0 0 0 0 -33729331.065767288 8618264.3897167146 0 8618264.3897167146 -19177890.988443375 0 0 0 0 1028838.633392334 32502011.764701843 0 32502011.764701843 15795594.389598846 0 0 0 0 21310408.42597596 38606297.342831112 0 38606297.342831112 6314450.8906414788 0 0 0 0 13303566.527236938 49215600.723918915 0 49215600.723918915 -9394155.0278778076 0 0 0 0 -539371521.25595093 482319673.16533756 0 482319673.16533756 -266443245.11053848 0 0 0 0 79768724.310348511 -2793928.3231916428 0 -2793928.3231916428 -860015339.47364426 0 0 0 0 3217879.7965357006 11384949.504257724 0 11384949.504257724 3139801.3219571561 0 0 0 0 -379259740.74768066 249857830.0159359 0 249857830.0159359 -3074339.5845122337 0 0 0 0 -145061439.88986206 618896658.03873444 0 618896658.03873444 -833267467.3147049 0 0 0 0 134595824.72396851 212391825.47870541 0 212391825.47870541 -375902693.99802315 0 0 0 0 88878330.236373901 333509960.21335649 0 333509960.21335649 -564564671.31512833 0 0 0 0 277673826.58899307 177207789.24172449 0 177207789.24172449 -673728441.89258575 0 0 0 0 205977952.05706787 -63201679.174026489 0 -63201679.174026489 -1158550346.2645292 0 0 0 0 -530564931.49050903 709828776.94536018 0 709828776.94536018 -641331269.80548477 0 0 0 0 44208295.76473999 494373657.67446136 0 494373657.67446136 -1230965990.4344301 0 0 0 0 131175160.63617706 112694060.92593312 0 112694060.92593312 -495498954.56946564 0 0 0 0 19856091.034713745 59471204.565838814 0 59471204.565838814 -507686208.70367193 0 0 0 0 -80412470.327484131 -99080984.621156216 0 -99080984.621156216 -530950067.22252274 0 0 0 0 139278842.9005127 136465460.1816721 0 136465460.1816721 -609380059.9471283 0 0 0 0 257944189.86807251 60952309.390357971 0 60952309.390357971 -659173189.29339981 0 0 0 0 365491884.27203369 -112135548.3714962 0 -112135548.3714962 -478002195.8300457 0 0 0 0 215015568.90435028 -31671984.742107153 0 -31671984.742107153 -467606734.96551514 0 0 0 0 107780226.59133911 9306526.3236942291 0 9306526.3236942291 -386162606.52192783 0 0 0 0 101585550.14891624 -79827602.415200591 0 -79827602.415200591 -223159979.28786087 0 0 0 0 27835531.815307617 -142593284.33835793 0 -142593284.33835793 35365194.460337639 0 0 0 0 228867909.9041748 -181730188.88644695 0 -181730188.88644695 -242489494.34563828 0 0 0 0 20239615.350311279 -123193772.51847219 0 -123193772.51847219 -12065047.794513702 0 0 0 0 51617542.770016193 -173174442.82317185 0 -173174442.82317185 -49744206.774723053 0 0 0 0 51264415.49217701 -182928453.954261 0 -182928453.954261 15313769.691390991 0 0 0 0 360860156.86135864 -317134463.22909355 0 -317134463.22909355 -92864429.123044968 0 0 0 0 218622378.87838745 -95997104.792782784 0 -95997104.792782784 -383407833.62574005 0 0 0 0 -763187.28771972656 -64944973.836055756 0 -64944973.836055756 158942046.57132149 0 0 0 0 432385280.67709351 -307071829.4015913 0 -307071829.4015913 -92630929.011390686 0 0 0 0 37772764.261901855 -257227657.70592213 0 -257227657.70592213 315419159.40432549 0 0 0 0 142370199.56881714 -353797228.28359985 0 -353797228.28359985 669221524.50570107 0 0 0 0 -17505674.058166504 -132888701.45609283 0 -132888701.45609283 35744524.393104553 0 0 0 0 4159967.6675109863 -110098853.99873257 0 -110098853.99873257 57587567.935333252 0 0 0 0 58891415.065765381 418376028.3237648 0 418376028.3237648 -524110989.28814125 0 0 0 0 138067673.96728516 411410319.61959076 0 411410319.61959076 -276520959.18574524 0 0 0 0 411910766.90390015 563517303.33942986 0 563517303.33942986 -469882427.48141003 0 0 0 0 734311448.96011353 -76908338.985029221 0 -76908338.985029221 -640417641.14855361 0 0 0 0 76194269.50328064 198778570.36675644 0 198778570.36675644 -187947066.85389328 0 0 0 0 754737152.83432007 -52472399.367780685 0 -52472399.367780685 -129737048.05191088 0 0 0 0 1096260452.312458 386620261.84826934 0 386620261.84826934 354908684.72073364 0 0 0 0 947929075.32376099 -735270908.61904716 0 -735270908.61904716 262965847.23402786 0 0 0 0 1625288776.6339722 -726442465.66881561 0 -726442465.66881561 656618539.81238699 0 0 0 0 582260761.27779388 611139528.48814917 0 611139528.48814917 -193762114.54611206 0 0 0 0 820743954.39065552 73421646.663259506 0 73421646.663259506 -50452988.03751564 0 0 0 0 213355235.2322998 295222928.68686867 0 295222928.68686867 274226248.75532532 0 0 0 0 -52394469.689971924 312882913.05432129 0 312882913.05432129 -59066310.977518082 0 0 0 0 -72384604.597717285 556447726.77804184 0 556447726.77804184 -611439677.25566483 0 0 0 0 247194832.29515457 503526295.63909268 0 503526295.63909268 -363578497.68031693 0 0 0 0 -144895195.67819214 634976073.90011597 0 634976073.90011597 -184430978.35341263 0 0 0 0 186948632.87737274 622345135.71288323 0 622345135.71288323 -464750775.60308838 0 0 0 0 -323357363.1463623 778403877.51035976 0 778403877.51035976 -369202423.05641556 0 0 0 0 -142077168.08358765 586651124.33546448 0 586651124.33546448 -546623900.99031067 0 0 0 0 -87432682.946929932 727222777.34661961 0 727222777.34661961 -581406931.50320816 0 0 0 0 -94864970.009002686 766695403.84188271 0 766695403.84188271 -422111125.84870768 0 0 0 0 -433826177.56274414 592437127.96852493 0 592437127.96852493 -584510312.55945587 0 0 0 0 -921535075.94915771 606400005.4695015 0 606400005.4695015 -382411955.10868645 0 0 0 0 -377642898.56924438 758877556.20564651 0 758877556.20564651 -472818302.13014221 0 0 0 0 -451216687.42718506 494467876.410326 0 494467876.410326 -355277369.51341438 0 0 0 0 -741964713.15405273 872773162.11145782 0 872773162.11145782 -666544089.41955566 0 0 0 0 -1030721291.1349945 829300376.83423519 0 829300376.83423519 -416995571.95747375 0 0 0 0 230529244.2769165 63204933.991674423 0 63204933.991674423 -190840695.58010101 0 0 0 0 -937295466.82949829 596592352.61448479 0 596592352.61448479 -607816649.85310936 0 0 0 0 -214285311.09767151 173035988.80630875 0 173035988.80630875 50735936.969053268 0 0 0 0 -95420329.327026367 -447338565.47443199 0 -447338565.47443199 68454078.352848053 0 0 0 0 10949126.343452826 9640117.927695781 0 9640117.927695781 4884670.8005897002 0 0 0 0 14854944.191223145 -33968276.362036943 0 -33968276.362036943 361143737.62900013 0 0 0 0 85318600.780166626 -122812806.06426349 0 -122812806.06426349 -365186945.38383901 0 0 0 0 34230966.2279789 32128033.996501099 0 32128033.996501099 13830177.099119306 0 0 0 0 -125352528.82061768 355076550.70399094 0 355076550.70399094 -193171773.11000824 0 0 0 0 2762428.9949951172 53875313.507564545 0 53875313.507564545 -20551375.866867065 0 0 0 0 182737723.79504395 310618560.67887402 0 310618560.67887402 -384461991.85672379 0 0 0 0 91715913.48147583 234825302.36632633 0 234825302.36632633 -207125873.4305582 0 0 0 0 220138351.05334473 -67420859.996007919 0 -67420859.996007919 -108392786.91296864 0 0 0 0 -166941928.89501953 41943422.211830139 0 41943422.211830139 -102559591.35815239 0 0 0 0 13341494.162710935 3161564.0133870393 0 3161564.0133870393 -15032522.957963055 0 0 0 0 20112086.554735929 17318175.957535468 0 17318175.957535468 7051381.4534039777 0 0 0 0 28834557.108459473 100646699.09833717 0 100646699.09833717 -126895883.64487839 0 0 0 0 139680220.52410889 35759556.267220497 0 35759556.267220497 -172298005.48319244 0 0 0 0 -299451762.68658447 -175145984.46908188 0 -175145984.46908188 -206299275.93825531 0 0 0 0 -384661967.25674438 -35022731.265405655 0 -35022731.265405655 -45278119.273910522 0 0 0 0 455662727.74890137 -101386365.69345093 0 -101386365.69345093 -483716224.23160934 0 0 0 0 273415413.92118073 373610438.59750175 0 373610438.59750175 73544777.153461456 0 0 0 0 3569998.9376831055 237797793.39643478 0 237797793.39643478 197542894.56336594 0 0 0 0 4590463.061706543 50466786.268859863 0 50466786.268859863 -23209953.195808411 0 0 0 0 2818098.7028808594 48980867.341506958 0 48980867.341506958 -21343068.197879791 0 0 0 0 2870542.2407989502 50094081.65473175 0 50094081.65473175 -21265601.355895996 0 0 0 0 2747806.3002624512 49154830.846992493 0 49154830.846992493 -18364952.45743084 0 0 0 0 2262876.1304779053 48309922.493232727 0 48309922.493232727 -18445627.15940094 0 0 0 0 5265438.1789855957 48668348.490768433 0 48668348.490768433 -21301539.663888454 0 0 0 0 4248953.8505401611 50589616.718614578 0 50589616.718614578 -19674232.299926758 0 0 0 0 5499009.1499633789 48468304.782852173 0 48468304.782852173 -19472405.332221508 0 0 0 0 6094103.6150217056 49750050.356985331 0 49750050.356985331 -17714190.420425415 0 0 0 0 5814492.1385774612 44354953.204097986 0 44354953.204097986 -11943909.098022461 0 0 0 0 5025578.0758972168 53065724.464309692 0 53065724.464309692 -21786986.646965027 0 0 0 0 34758225.028087541 29218576.111271419 0 29218576.111271419 -5044964.4357564673 0 0 0 0 2324252.5224761963 53114857.172603607 0 53114857.172603607 -20447221.411514282 0 0 0 0 -29043934.502746582 124902621.1040535 0 124902621.1040535 83408422.705032349 0 0 0 0 193543469.79858398 281681529.66043472 0 281681529.66043472 63217636.46585083 0 0 0 0 19659546.751645908 4840158.0344965197 0 4840158.0344965197 -17005220.208648302 0 0 0 0 -3382414.3923950195 206431069.1137085 0 206431069.1137085 183553711.68135452 0 0 0 0 -66471635.310653687 42119957.777032852 0 42119957.777032852 -71870617.613945007 0 0 0 0 -70690466.963928223 18884292.825080872 0 18884292.825080872 -67131207.012390137 0 0 0 0 -24700757.550262451 -35838730.15146637 0 -35838730.15146637 -294782122.97529602 0 0 0 0 -16763622.137634277 153711578.51779175 0 153711578.51779175 94114757.086269379 0 0 0 0 -59477804.54675293 119356829.72047424 0 119356829.72047424 62791927.863845825 0 0 0 0 -6877988.4086914062 149562057.18270874 0 149562057.18270874 69977025.465774536 0 0 0 0 -35648512.778808594 151271014.73617935 0 151271014.73617935 112507274.20437622 0 0 0 0 -44971124.939575195 121434185.07693863 0 121434185.07693863 65028117.37612915 0 0 0 0 -27293973.574707031 137938972.16962433 0 137938972.16962433 73188992.769424438 0 0 0 0 -58076892.542053223 85086937.762159109 0 85086937.762159109 329880.5173034668 0 0 0 0 66789785.774169922 236402400.03720093 0 236402400.03720093 50747563.323104858 0 0 0 0 -43409346.903137207 92663648.17224884 0 92663648.17224884 60584022.664038897 0 0 0 0 182958797.25415039 -47500426.084888458 0 -47500426.084888458 -501611062.34436035 0 0 0 0 275603896.29101562 71249472.981323242 0 71249472.981323242 -512129430.5610199 0 0 0 0 428828384.37762451 304367720.11338425 0 304367720.11338425 -375422984.7100296 0 0 0 0 2805152.3248643875 4080268.5151694715 0 4080268.5151694715 2152279.0073553072 0 0 0 0 92737877.733398438 119069728.26168823 0 119069728.26168823 -119142800.32765961 0 0 0 0 21665676.407836914 149003454.87824249 0 149003454.87824249 -111192999.22146606 0 0 0 0 -82668703.957550049 79758898.862598419 0 79758898.862598419 -3729393.2414360046 0 0 0 0 -43597520.926574707 105391938.29810333 0 105391938.29810333 2478823.8491020203 0 0 0 0 -50737814.479431152 41699640.491046906 0 41699640.491046906 -33924799.163188934 0 0 0 0 29799154.854553223 -42309477.521602631 0 -42309477.521602631 -588793604.59073257 0 0 0 0 -23178973.391479492 73194508.069179535 0 73194508.069179535 -167625396.25274658 0 0 0 0 30254175.316103593 29717468.796733204 0 29717468.796733204 4058324.7414116235 0 0 0 0 -238533096.54547119 -124316969.21332169 0 -124316969.21332169 387099475.14170837 0 0 0 0 -115851963.19445801 -133983347.74432373 0 -133983347.74432373 -137001098.6003294 0 0 0 0 -38606600.944519043 69333738.038585663 0 69333738.038585663 -20432075.293479919 0 0 0 0 -103069257.63595581 83887274.092554092 0 83887274.092554092 164547218.36796951 0 0 0 0 -127087529.83120728 198721667.99741936 0 198721667.99741936 344969218.67659473 0 0 0 0 23132838.112854004 451525687.9120369 0 451525687.9120369 -467711762.71544409 0 0 0 0 -285729663.44356155 659742291.77306175 0 659742291.77306175 -602413775.55760193 0 0 0 0 220352924.3825531 21443400.577895164 0 21443400.577895164 -88758352.142227173 0 0 0 0 24049163.412766904 21043271.434459209 0 21043271.434459209 2339750.4211402815 0 0 0 0 -275726254.95730591 713325059.60019779 0 713325059.60019779 -551265452.30999088 0 0 0 0 13769185.879627891 6168346.0500475466 0 6168346.0500475466 -7845411.245068768 0 0 0 0 37843947.930480957 161376111.31289673 0 161376111.31289673 50077591.231079102 0 0 0 0 22220046.25769043 214640689.82062149 0 214640689.82062149 156247021.93265533 0 0 0 0 87437.184219360352 46397877.502105713 0 46397877.502105713 -18200290.696430206 0 0 0 0 19546322.58363831 40544117.738028631 0 40544117.738028631 -30175128.576347351 0 0 0 0 22105373.131164551 59009043.561267853 0 59009043.561267853 -87152325.031288147 0 0 0 0 19586506.695526123 45408388.387268066 0 45408388.387268066 -60617155.889907837 0 0 0 0 10678028.245574951 126584241.7236557 0 126584241.7236557 -122628128.64178467 0 0 0 0 17821419.079502106 87432239.650955439 0 87432239.650955439 -53196201.510482788 0 0 0 0 10203077.499481201 128448763.20328522 0 128448763.20328522 80026204.195007324 0 0 0 0 -30873.415542602539 86950697.712509155 0 86950697.712509155 219876804.55522156 0 0 0 0 59018175.012573242 60522699.065044403 0 60522699.065044403 138400183.87841797 0 0 0 0 26248020.16696167 70498896.379043579 0 70498896.379043579 203164236.12611389 0 0 0 0 14135432.397972107 105111412.19038677 0 105111412.19038677 264039775.33996582 0 0 0 0 8254296.9778137207 154938608.34817314 0 154938608.34817314 499594504.66011047 0 0 0 0 232769724.56002808 31547123.728462219 0 31547123.728462219 -241418804.82849121 0 0 0 0 98205152.347259521 156000617.25056458 0 156000617.25056458 233925745.5328331 0 0 0 0 -404485.60539974272 -2091920.1456371546 0 -2091920.1456371546 258543.26397485379 0 0 0 0 -144721650.52053833 1318442.3089523315 0 1318442.3089523315 -20124767.821670532 0 0 0 0 19981636.260391235 130315988.63418579 0 130315988.63418579 252177102.02659607 0 0 0 0 48538401.084106445 80468313.757400513 0 80468313.757400513 223843958.55813599 0 0 0 0 33732806.610031128 149561410.30602074 0 149561410.30602074 180589916.050354 0 0 0 0 40430897.805145264 57052946.787231445 0 57052946.787231445 270442475.25918579 0 0 0 0 33626423.401397705 65622277.767402649 0 65622277.767402649 149092272.29940796 0 0 0 0 3462100.537109375 136377552.28346252 0 136377552.28346252 173499221.57492065 0 0 0 0 -678584.76806388795 -3588984.2772092186 0 -3588984.2772092186 -5758.6440124567598 0 0 0 0 -8410569.2553405762 -2794345.1514205933 0 -2794345.1514205933 -45415256.63079071 0 0 0 0 28464457.185852051 -2266824.2106704712 0 -2266824.2106704712 -73064118.03351593 0 0 0 0 7044046.7479858398 107687078.1659565 0 107687078.1659565 285395581.95470428 0 0 0 0 5083614.1283798218 36258196.466013908 0 36258196.466013908 -16930508.446853638 0 0 0 0 2056761.6803305 -663881.13311807066 0 -663881.13311807066 -4050768.9516692311 0 0 0 0 -15821278.738311768 -30951907.541244507 0 -30951907.541244507 -17651636.430603027 0 0 0 0 15737568.482756615 65762029.995150566 0 65762029.995150566 -93502898.201896667 0 0 0 0 -7605006.1454467773 37964058.698204041 0 37964058.698204041 -91812059.876858711 0 0 0 0 -28995093.857452393 40940591.838249207 0 40940591.838249207 -43948545.894363403 0 0 0 0 -28576590.49156189 40466481.865650177 0 40466481.865650177 -56357066.016845703 0 0 0 0 -17390026.785797119 28169277.883766174 0 28169277.883766174 -76931072.942871094 0 0 0 0 -8736006.4370727539 11829187.051124573 0 11829187.051124573 10303953.872398376 0 0 0 0 3675848.9760344774 315108.06537665613 0 315108.06537665613 -11346844.245739654 0 0 0 0 -33301849.084197998 35301648.117408752 0 35301648.117408752 -51331675.791770935 0 0 0 0 -1430344.2988815308 14042112.260043144 0 14042112.260043144 154985.96046447754 0 0 0 0 -5393173.2463019043 15019989.054618649 0 15019989.054618649 -27538314.527163632 0 0 0 0 -3929012.6416119114 13186978.885795698 0 13186978.885795698 3953543.5526249036 0 0 0 0 -9424869.429901123 12917731.551670074 0 12917731.551670074 13302432.134273529 0 0 0 0 -2154576.237651825 51975550.929307461 0 51975550.929307461 38539323.187713623 0 0 0 0 4569992.4429914504 12186827.290481679 0 12186827.290481679 -33789152.458363667 0 0 0 0 -17548646.61831665 -19917432.928562164 0 -19917432.928562164 20051027.304206848 0 0 0 0 -5315902.2112426758 20962736.659339905 0 20962736.659339905 -5899241.8155288696 0 0 0 0 -2105713.1059570312 10386481.83052063 0 10386481.83052063 -8059863.3262805939 0 0 0 0 -11484590.050170898 18222502.585510254 0 18222502.585510254 10072065.856678486 0 0 0 0 -80981.644866943359 14755852.059108734 0 14755852.059108734 -18050284.479522705 0 0 0 0 568200.8678894043 79616431.732910156 0 79616431.732910156 110426296.93637848 0 0 0 0 -519439.59941788018 -2988098.2446598597 0 -2988098.2446598597 -1231301.3881976809 0 0 0 0 3871994.2932434082 10424414.841388702 0 10424414.841388702 -25698381.933288574 0 0 0 0 25278031.756652832 91080429.110445023 0 91080429.110445023 84003594.93788147 0 0 0 0 13971382.91583252 105887715.87889099 0 105887715.87889099 107926789.69363403 0 0 0 0 2288032.5171928406 156372005.6975739 0 156372005.6975739 78182155.273345947 0 0 0 0 4228608.9898376465 167697758.3065033 0 167697758.3065033 46278875.657119751 0 0 0 0 -75845377.087219238 133193253.34712219 0 133193253.34712219 52127702.318706512 0 0 0 0 45312716.451293945 -3509555.548538208 0 -3509555.548538208 20547668.726454735 0 0 0 0 1153947.6578979492 142757167.2292614 0 142757167.2292614 9766805.068649292 0 0 0 0 -57587089.623062134 85629015.861370087 0 85629015.861370087 -1730317.9987182617 0 0 0 0 -1444477.684053801 6746855.4551518708 0 6746855.4551518708 2721116.7387556061 0 0 0 0 -80098561.411743164 119260683.22886086 0 119260683.22886086 -177561061.23208618 0 0 0 0 -72753180.523284912 -45795911.34777832 0 -45795911.34777832 -28243298.902130127 0 0 0 0 -364035.45077064633 -748056.15118327364 0 -748056.15118327364 611952.39481423888 0 0 0 0 -49290673.281097412 -8154590.0439510345 0 -8154590.0439510345 28212339.397247314 0 0 0 0 1118508.9159240723 7662742.0600204468 0 7662742.0600204468 -17640266.060142517 0 0 0 0 -353199.45119572803 805811.83870696276 0 805811.83870696276 227501.05128765106 0 0 0 0 99967032.385131836 158899871.03531647 0 158899871.03531647 -10274563.874305725 0 0 0 0 -137841489.54479218 189501143.65254974 0 189501143.65254974 14138699.934494019 0 0 0 0 -8185311.4028552175 16215028.387669317 0 16215028.387669317 -24208913.08164648 0 0 0 0 -123043489.63458252 26252856.753845215 0 26252856.753845215 1901424.446472168 0 0 0 0 -154729555.61346436 175944762.54029846 0 175944762.54029846 -76179170.012298584 0 0 0 0 83754204.592926025 -50912845.93812561 0 -50912845.93812561 -58045124.151702881 0 0 0 0 -64001332.136779785 120831878.9586792 0 120831878.9586792 38324114.597579956 0 0 0 0 10000954.12286377 6750886.159942627 0 6750886.159942627 4245805.9385375977 0 0 0 0 -8099964.5896875709 16149555.039183177 0 16149555.039183177 -21474007.844855558 0 0 0 0 157179643.67263794 76041275.998519897 0 76041275.998519897 -46173306.262001038 0 0 0 0 -411650795.815979 742672118.41842079 0 742672118.41842079 -938152139.14768982 0 0 0 0 83126821.380409241 44308192.732364655 0 44308192.732364655 -7844524.4649353027 0 0 0 0 204503567.1078949 -228982951.71328831 0 -228982951.71328831 -469261624.48722076 0 0 0 0 -381164985.06637573 367068976.80331612 0 367068976.80331612 -232137022.26585388 0 0 0 0 -436065973.08695984 -49668187.186674058 0 -49668187.186674058 54423101.687726974 0 0 0 0 172658919.99389648 -486625681.36763 0 -486625681.36763 538430253.41799545 0 0 0 0 -3765445.0642089844 281846891.72079086 0 281846891.72079086 -669935239.93803978 0 0 0 0 -2866234.8120671511 1893879.2932979316 0 1893879.2932979316 279452.96864164434 0 0 0 0 -296933584.38922119 245698028.8177433 0 245698028.8177433 -70461803.289247513 0 0 0 0 -175262395.0163269 193359222.75021839 0 193359222.75021839 109159928.15868187 0 0 0 0 137630331.89654541 145995945.28270054 0 145995945.28270054 68748726.131669998 0 0 0 0 -33112743.043762207 186137074.6219902 0 186137074.6219902 305780068.57975006 0 0 0 0 184705847.10528564 79402875.090110779 0 79402875.090110779 -98204625.565849543 0 0 0 0 -106100565.6236763 -159053617.56553304 0 -159053617.56553304 -30788291.334592819 0 0 0 0 -206747822.22457886 358347843.20129204 0 358347843.20129204 -122743189.50149536 0 0 0 0 2580780.5104467794 -3133883.00370574 0 -3133883.00370574 -11792733.788649868 0 0 0 0 -115099129.80003357 101842506.84228516 0 101842506.84228516 234346355.2258873 0 0 0 0 -38097881.259796143 -57364989.335810184 0 -57364989.335810184 -22343575.364189148 0 0 0 0 122084085.30566406 33544962.630109787 0 33544962.630109787 213025373.5625515 0 0 0 0 -12837333.707641602 23665713.099732399 0 23665713.099732399 -90351032.190757751 0 0 0 0 183230933.47802734 -166429336.67942429 0 -166429336.67942429 -36004020.850502014 0 0 0 0 335471585.07757568 683037774.84699011 0 683037774.84699011 155134603.62663603 0 0 0 0 419368388.85534668 486546623.89159203 0 486546623.89159203 -50552299.492577553 0 0 0 0 511035204.77526855 701012534.28292847 0 701012534.28292847 73136977.458545685 0 0 0 0 107710261.89431763 744238749.56534004 0 744238749.56534004 1000883876.0450423 0 0 0 0 273521201.42334747 127687398.98943448 0 127687398.98943448 310179835.3019371 0 0 0 0 38307398.445739746 250682077.6380558 0 250682077.6380558 829746002.43606305 0 0 0 0 2545902.8850097656 -211694637.64176846 0 -211694637.64176846 -870883898.08146286 0 0 0 0 -3902315.2629872113 1358075.7611631677 0 1358075.7611631677 3633290.5179651342 0 0 0 0 292485192.36407471 69469775.229624748 0 69469775.229624748 -1881786925.8409519 0 0 0 0 121136625.18017578 -362404931.81626797 0 -362404931.81626797 34215756.736596823 0 0 0 0 -23729510.821502686 104636556.23778248 0 104636556.23778248 -433494132.24645042 0 0 0 0 -744933083.45788574 1675394087.6453705 0 1675394087.6453705 465175162.52317429 0 0 0 0 324545347.37413025 156731080.1916194 0 156731080.1916194 9422516.4101438522 0 0 0 0 507301931.5632515 753122240.25702488 0 753122240.25702488 -641242611.29481888 0 0 0 0 1695949457.8248291 -2010595816.3259773 0 -2010595816.3259773 -298148450.04987907 0 0 0 0 2217719.3654712737 332950.95655420795 0 332950.95655420795 -4074390.646218786 0 0 0 0 2396558.2721404023 -7280379.5073758364 0 -7280379.5073758364 -2252233.0931569692 0 0 0 0 -11158903.520751953 -27364653.615571976 0 -27364653.615571976 45559790.383533478 0 0 0 0 1830108.1946185678 -1025656.2316072639 0 -1025656.2316072639 -37698925.946007207 0 0 0 0 489534250.70741272 22952374.432797909 0 22952374.432797909 -202702387.53158569 0 0 0 0 1215564.700238578 11389527.036843643 0 11389527.036843643 -38552943.939861953 0 0 0 0 127016925.67950439 -83772538.114991188 0 -83772538.114991188 -49701267.374918938 0 0 0 0 -66315860.832702637 -36652585.186001778 0 -36652585.186001778 -106279884.90225029 0 0 0 0 11407694.215698242 81977326.586704254 0 81977326.586704254 -431352689.91133213 0 0 0 0 27373020.663543701 -63189972.465133667 0 -63189972.465133667 -167421500.72334671 0 0 0 0 73172428.545166016 -153308313.56629944 0 -153308313.56629944 -139732675.71195269 0 0 0 0 128569885.46485901 -83173742.89816761 0 -83173742.89816761 -68925347.619441986 0 0 0 0 42431048.924194336 -123934214.7921567 0 -123934214.7921567 -49674107.311332703 0 0 0 0 28016708.979156494 -111006657.3969841 0 -111006657.3969841 6433526.3379440308 0 0 0 0 14990537.936523438 -89493667.927186966 0 -89493667.927186966 15409211.256795883 0 0 0 0 18396807.699241638 -69532029.057563066 0 -69532029.057563066 -23309976.364860535 0 0 0 0 54795419.579025269 3445628.7769126892 0 3445628.7769126892 -79542875.84431076 0 0 0 0 -20905008.801330566 -2327280.6659793854 0 -2327280.6659793854 -52089186.822174072 0 0 0 0 70679697.138305664 -55064556.056512833 0 -55064556.056512833 -34086811.780730367 0 0 0 0 112444568.45419312 -76439553.225711823 0 -76439553.225711823 -23714003.646826744 0 0 0 0 107759578.62043762 -55864021.974715471 0 -55864021.974715471 -12382977.02721405 0 0 0 0 834069.48940505087 2270411.5704793232 0 2270411.5704793232 -6336579.2317495523 0 0 0 0 177372878.78439331 -63166541.171483994 0 -63166541.171483994 -64502864.929317474 0 0 0 0 1612398.4962921217 6891058.6276805475 0 6891058.6276805475 -40212148.14846684 0 0 0 0 221824932.2802124 76973314.136550903 0 76973314.136550903 -64899118.301559448 0 0 0 0 272375273.078125 107440690.62718964 0 107440690.62718964 -248084131.67993927 0 0 0 0 208274869.81762695 -111984114.75414276 0 -111984114.75414276 -304559256.50537109 0 0 0 0 -237444519.34777832 196201609.97622681 0 196201609.97622681 362614911.40371704 0 0 0 0 -158088072.78210449 -232797126.29058838 0 -232797126.29058838 -61371165.668045044 0 0 0 0 -43937801.436889648 -319604849.13106155 0 -319604849.13106155 -469174035.02365875 0 0 0 0 205580335.91851807 206372939.97975731 0 206372939.97975731 349193405.68048859 0 0 0 0 433160934.7308197 192388467.16971207 0 192388467.16971207 -594897862.33116913 0 0 0 0 -2574471.27522102 3075794.8078707755 0 3075794.8078707755 -17715362.796262644 0 0 0 0 10968662.488647461 -51452627.27961731 0 -51452627.27961731 84867186.59091568 0 0 0 0 1251510.7754552066 -3435341.6667428464 0 -3435341.6667428464 -16706281.568279129 0 0 0 0 3924492.2622680664 -1954481.6237335205 0 -1954481.6237335205 -8383793.1944103241 0 0 0 0 4164944.6064623259 5068383.275196664 0 5068383.275196664 -27015379.345453717 0 0 0 0 -496914560.12359619 -510224603.25782013 0 -510224603.25782013 -136047169.97486877 0 0 0 0 -7272119.4327534437 -1522682.7018773519 0 -1522682.7018773519 -9255926.7302774787 0 0 0 0 -125189716.02200317 88395802.359527588 0 88395802.359527588 -135149062.4669981 0 0 0 0 2341004.3373022825 1142719.9616471492 0 1142719.9616471492 -6773042.0412561409 0 0 0 0 -30663164.977905273 9342285.4885807037 0 9342285.4885807037 -30002467.493530273 0 0 0 0 -572997939.05654907 -251397016.02659988 0 -251397016.02659988 41405994.660690308 0 0 0 0 -148665.10288076103 355152.61212225258 0 355152.61212225258 -1017556.3463657945 0 0 0 0 -290554769.52352905 298730614.67162323 0 298730614.67162323 128967382.14665222 0 0 0 0 -590545186.94680786 71426887.295413971 0 71426887.295413971 112728254.95623779 0 0 0 0 -75781867.870483398 69891097.372711182 0 69891097.372711182 -63798681.904632568 0 0 0 0 -184001085.66603088 7180961.9679174423 0 7180961.9679174423 -19897143.439025879 0 0 0 0 -86036673.768692017 88598419.469009399 0 88598419.469009399 -69203275.820358276 0 0 0 0 295505.22796301916 -772360.68441484869 0 -772360.68441484869 -4125728.8821928948 0 0 0 0 -66608081.745788574 88594362.836257935 0 88594362.836257935 -56766047.777786255 0 0 0 0 -93625326.601036072 74831748.885211945 0 74831748.885211945 -54936475.773406982 0 0 0 0 -95738297.728637695 42401815.080047607 0 42401815.080047607 -33638925.686264038 0 0 0 0 -180677035.80352783 76507276.220046997 0 76507276.220046997 -33889621.870048523 0 0 0 0 -102955049.31356812 97155229.684843063 0 97155229.684843063 -66493551.857620239 0 0 0 0 -75839387.09942627 -170756610.74038696 0 -170756610.74038696 53216602.753158569 0 0 0 0 111086509.61450195 -25200187.165354729 0 -25200187.165354729 -77886472.515319824 0 0 0 0 262216763.99523926 -29885596.120098114 0 -29885596.120098114 -279378387.96886826 0 0 0 0 1599522.4835068882 -1996501.7793979272 0 -1996501.7793979272 -1876968.1325969324 0 0 0 0 -82817086.304473877 -31450969.983417511 0 -31450969.983417511 28057218.961372375 0 0 0 0 14206991.201293945 -156181170.96394348 0 -156181170.96394348 -27342361.997329712 0 0 0 0 -25485236.71081543 -73554790.495231628 0 -73554790.495231628 105302151.15021515 0 0 0 0 -76833924.815307617 -122242788.86038208 0 -122242788.86038208 71450479.370292664 0 0 0 0 39711543.446228027 -42463569.467178345 0 -42463569.467178345 -36269390.686103821 0 0 0 0 7108011.6108107939 -7919424.9555479288 0 -7919424.9555479288 -8077759.8294467814 0 0 0 0 8047061.9451904297 -15509939.44878006 0 -15509939.44878006 12648819.776184082 0 0 0 0 45589222.286437988 -5196602.5753707886 0 -5196602.5753707886 -34626010.883331299 0 0 0 0 2746701.4900188595 1923491.3596934378 0 1923491.3596934378 -44669926.875657409 0 0 0 0 -810937.58483886719 -2650593.7916183472 0 -2650593.7916183472 -20548324.922370911 0 0 0 0 1012934.8898323327 -7374600.7224445716 0 -7374600.7224445716 -4701603.2567787543 0 0 0 0 5219835.5564448014 2481917.9219488725 0 2481917.9219488725 -10853215.504280604 0 0 0 0 -4062882.8118286133 -43583020.261489868 0 -43583020.261489868 -25167791.220794678 0 0 0 0 10303524.035217285 -359195.53004455566 0 -359195.53004455566 -7175655.326839447 0 0 0 0 -18269956.125869751 20416264.443965912 0 20416264.443965912 -39329423.158935547 0 0 0 0 -55172121.160568237 46475663.720031738 0 46475663.720031738 -42615856.866363525 0 0 0 0 -51652032.16305542 37330787.982543945 0 37330787.982543945 -20202379.616546631 0 0 0 0 -78309249.048950195 54219991.291137695 0 54219991.291137695 -26874451.900772095 0 0 0 0 -68893819.946655273 15700795.692703247 0 15700795.692703247 1556464.0560302734 0 0 0 0 -115924081.24243164 33430785.76058197 0 33430785.76058197 4823093.8729248047 0 0 0 0 829704.79387006164 -636764.64459721744 0 -636764.64459721744 -1095650.3351717852 0 0 0 0 -21274029.572479248 55935371.206047058 0 55935371.206047058 -48301629.2825737 0 0 0 0 -33101184.055114746 59963034.914772034 0 59963034.914772034 -47638304.813358307 0 0 0 0 -19644898.861755371 58452248.058326721 0 58452248.058326721 -49058081.910770416 0 0 0 0 -20324845.807128906 49289708.737678528 0 49289708.737678528 -51186638.589324951 0 0 0 0 -11889727.023696899 58731015.916852951 0 58731015.916852951 -50522804.660446167 0 0 0 0 15105076.631256104 44228725.55178833 0 44228725.55178833 -69526178.838562012 0 0 0 0 14831900.049823761 46956379.726893425 0 46956379.726893425 -9471355.0712814331 0 0 0 0 26450260.154403687 -3965207.0241546631 0 -3965207.0241546631 -45857101.706962585 0 0 0 0 77251179.153198242 37263741.116073608 0 37263741.116073608 -82570607.734493256 0 0 0 0 -23159521.34552002 96085436.304309845 0 96085436.304309845 -97875211.819229126 0 0 0 0 337898734.53277588 76369288.576629639 0 76369288.576629639 -102560160.610919 0 0 0 0 40281110.003997803 -29809685.378284454 0 -29809685.378284454 -36332013.597801208 0 0 0 0 -12375625.225944519 -20857803.395586967 0 -20857803.395586967 -36924835.261062622 0 0 0 0 -5480094.3399600983 -2452962.5808145106 0 -2452962.5808145106 -4745542.2038392778 0 0 0 0 11295260.989212036 -3748338.4323186874 0 -3748338.4323186874 -34478506.108055115 0 0 0 0 14151130.054046631 -2428453.0555992126 0 -2428453.0555992126 -40140114.821525574 0 0 0 0 21362932.950317383 -1442690.2330093384 0 -1442690.2330093384 -46297502.449940681 0 0 0 0 9436196.9187927246 11462117.337612152 0 11462117.337612152 -48768410.44082737 0 0 0 0 4794311.0967407227 10971980.838878632 0 10971980.838878632 -26706424.335138321 0 0 0 0 -3509.2073273683563 24013469.626616154 0 24013469.626616154 -9105275.3571624756 0 0 0 0 -13275.916946411133 26951236.009178162 0 26951236.009178162 -45733068.714523315 0 0 0 0 -4560293.9430449605 -405389.34017215669 0 -405389.34017215669 4517395.2507631704 0 0 0 0 21839900.533584595 2835655.4730129242 0 2835655.4730129242 -87169824.361625671 0 0 0 0 21447671.893470764 -982310.31114959717 0 -982310.31114959717 -25328733.664329529 0 0 0 0 23008223.189315796 -4708592.1065979004 0 -4708592.1065979004 -42724680.125409126 0 0 0 0 -2515232.2689000666 -211687.63598299026 0 -211687.63598299026 2470684.5342166014 0 0 0 0 18844175.778381348 4188489.8714561462 0 4188489.8714561462 -73568061.386192322 0 0 0 0 2706.24267578125 30641976.742015839 0 30641976.742015839 18496192.595081329 0 0 0 0 17253548.815925598 6922523.2332220078 0 6922523.2332220078 -13433103.537956238 0 0 0 0 -11713330.534759521 81080380.280757904 0 81080380.280757904 -75828002.00965786 0 0 0 0 -8249873.8299560547 95268196.328548431 0 95268196.328548431 -18298757.050949097 0 0 0 0 15252193.718551636 73318540.180821419 0 73318540.180821419 -111224754.31750488 0 0 0 0 17044976.530090332 63679708.615776062 0 63679708.615776062 -69790603.216144562 0 0 0 0 -49578644.213317871 240863304.24979973 0 240863304.24979973 76279723.772911072 0 0 0 0 -48695396.638916016 -138440640.43518829 0 -138440640.43518829 -459333309.6285553 0 0 0 0 23980117.536315918 76355787.692089081 0 76355787.692089081 -122000998.75978088 0 0 0 0 -60241065.486816406 36481667.266418457 0 36481667.266418457 -145040748.66605759 0 0 0 0 18257484.901855469 100894398.50814819 0 100894398.50814819 -189552285.04927063 0 0 0 0 -80672730.486694336 -17573375.882717133 0 -17573375.882717133 -215945348.71291351 0 0 0 0 -10615296.821411133 44758649.610549927 0 44758649.610549927 -258787451.02315903 0 0 0 0 46133927.958969116 170234869.72621536 0 170234869.72621536 -160346163.74353027 0 0 0 0 -4866289.5928955078 116872195.79208374 0 116872195.79208374 -124574633.46159172 0 0 0 0 -3333691.8844604492 135360169.83879089 0 135360169.83879089 -101599403.5273447 0 0 0 0 6476941.1076769233 709521.63562664017 0 709521.63562664017 -6538224.2407402229 0 0 0 0 -371269990.85678101 761307227.49576759 0 761307227.49576759 -1095205857.5974965 0 0 0 0 -41977425.621887207 63637626.199462891 0 63637626.199462891 -34174724.787416458 0 0 0 0 -49987658.775760651 42026113.456321239 0 42026113.456321239 119038673.56731415 0 0 0 0 -21937684.796127319 54834074.471136093 0 54834074.471136093 -61280554.466358185 0 0 0 0 -5182.3858392863258 66093846.631381206 0 66093846.631381206 -56650183.488388062 0 0 0 0 -517751930.59283447 986036193.93391609 0 986036193.93391609 -1989393375.1114066 0 0 0 0 -84191.611697225788 54410484.942817561 0 54410484.942817561 -63235221.556827545 0 0 0 0 4993318.5419115424 236078.02562798187 0 236078.02562798187 -6453276.9822281636 0 0 0 0 -6000824.7416569097 1477434337.7036045 0 1477434337.7036045 -1996499693.1281967 0 0 0 0 -93536572.577453613 665371224.74211502 0 665371224.74211502 -2785304195.9018192 0 0 0 0 -2605334.8204948157 -3066587.2108811513 0 -3066587.2108811513 -3336546.8677871265 0 0 0 0 91015973.911941528 63612045.754665375 0 63612045.754665375 -1674613432.9286194 0 0 0 0 -239941513.12347412 590927199.33476639 0 590927199.33476639 -1127338401.2013607 0 0 0 0 -600012991.42271042 859329176.15519381 0 859329176.15519381 -1323535625.0186729 0 0 0 0 -214290806.19281769 404460982.41866708 0 404460982.41866708 -901960844.7730484 0 0 0 0 -143693967.95294189 191284547.80240822 0 191284547.80240822 -702010356.24243259 0 0 0 0 6204793.5349502563 27228755.389575005 0 27228755.389575005 -393200680.83312988 0 0 0 0 67092911.551864624 148877140.29730034 0 148877140.29730034 -915726344.12652969 0 0 0 0 -130499270.51925659 461883312.10699081 0 461883312.10699081 -874921557.02612114 0 0 0 0 -30639250.70451355 326819175.27927113 0 326819175.27927113 -802688104.10540009 0 0 0 0 4224336.0038604736 370439242.28863525 0 370439242.28863525 -920285983.8347168 0 0 0 0 -157825158.86898804 458177385.74009705 0 458177385.74009705 -864424558.70578766 0 0 0 0 -208607079.90689087 417789576.2758379 0 417789576.2758379 -771800648.74137878 0 0 0 0 -70723120.156402588 365827913.71392441 0 365827913.71392441 -776114472.55965042 0 0 0 0 -432848685.58422852 603360593.27953339 0 603360593.27953339 -888436636.97280431 0 0 0 0 -438696123.96505737 271964156.19800758 0 271964156.19800758 46852053.742791653 0 0 0 0 -2860085.5659590364 -1049761.9859887622 0 -1049761.9859887622 2028447.1383782942 0 0 0 0 110818648.68774414 -47749402.678928375 0 -47749402.678928375 -529553424.32813907 0 0 0 0 -332207481.95740509 -468282887.45043421 0 -468282887.45043421 -108103404.65662003 0 0 0 0 190089086.53677368 317886509.18007088 0 317886509.18007088 -327786250.82380676 0 0 0 0 147341720.89419556 95521522.901708603 0 95521522.901708603 -522451572.454422 0 0 0 0 8124637.5706459284 1553797.2706572115 0 1553797.2706572115 -6607546.2843783759 0 0 0 0 -191314305.99642944 446599678.69471741 0 446599678.69471741 -775562237.76875734 0 0 0 0 -199777075.88034058 428655570.65653324 0 428655570.65653324 -713448640.81272125 0 0 0 0 -80906336.973327637 329465430.40278435 0 329465430.40278435 -752173273.4083252 0 0 0 0 -171300697.42422485 315897090.23528099 0 315897090.23528099 -455598529.91184926 0 0 0 0 -31535983.349456787 332084100.91464424 0 332084100.91464424 -844619300.70977592 0 0 0 0 -87889364.002410889 247245988.24744415 0 247245988.24744415 -562205508.92914963 0 0 0 0 -225338340.58630371 448067617.13143253 0 448067617.13143253 -769036415.2152462 0 0 0 0 -110408409.00085449 363078070.72677612 0 363078070.72677612 -757738766.59379196 0 0 0 0 -353807821.87609863 225875546.85273361 0 225875546.85273361 -796578348.29240417 0 0 0 0 -282404043.70898438 272497481.32289505 0 272497481.32289505 -782160854.26111412 0 0 0 0 -39532433.146080017 316572350.08411646 0 316572350.08411646 -952876672.1962204 0 0 0 0 -126634601.20213318 343941642.11652279 0 343941642.11652279 -738906929.41612244 0 0 0 0 -69283945.271270752 352920617.20464134 0 352920617.20464134 -856251621.55173492 0 0 0 0 -8103276.5667114258 344159916.03591537 0 344159916.03591537 -863742080.96138382 0 0 0 0 -7461071.6010131836 342311922.95293427 0 342311922.95293427 -834685247.3708086 0 0 0 0 -43726953.472961426 328989062.20003128 0 328989062.20003128 -836916773.9648056 0 0 0 0 -78552805.07901001 332057810.96479797 0 332057810.96479797 -679235245.82723999 0 0 0 0 -89000263.123718262 333063942.47295761 0 333063942.47295761 -678594281.95472717 0 0 0 0 -28438672.709777832 364674860.07824707 0 364674860.07824707 -743541858.6684494 0 0 0 0 -81557220.496124268 194676567.93128395 0 194676567.93128395 -360494084.0218811 0 0 0 0 -15143745.005889893 78921192.31161499 0 78921192.31161499 -250202329.49756622 0 0 0 0 9814673.2177734375 193730607.33360291 0 193730607.33360291 -763296696.66129398 0 0 0 0 -149111999.99108887 232617344.06703568 0 232617344.06703568 -308757478.5748024 0 0 0 0 -81608065.348114014 133675638.48609734 0 133675638.48609734 -258476131.33868408 0 0 0 0 132391243.14865112 1013420.4987258911 0 1013420.4987258911 -179981237.86504364 0 0 0 0 787653.39938896336 -1510794.3043461442 0 -1510794.3043461442 -8761804.2325748373 0 0 0 0 30791000.230865479 -55080381.672119141 0 -55080381.672119141 -145386235.56274414 0 0 0 0 42827676.480499268 -60278373.727743149 0 -60278373.727743149 -87097447.760093689 0 0 0 0 -153711904.65600586 122502605.39343262 0 122502605.39343262 -110696822.27803898 0 0 0 0 -212619610.95959473 364256565.41659927 0 364256565.41659927 -315300893.79435158 0 0 0 0 -440244729.52441406 160935840.52848053 0 160935840.52848053 143663365.81764221 0 0 0 0 -610439657.21051025 507577579.72759628 0 507577579.72759628 -241931504.97071457 0 0 0 0 -473992.88075343519 -1472130.6052208394 0 -1472130.6052208394 -1027993.4801755734 0 0 0 0 150041771.91660309 -267877364.32007408 0 -267877364.32007408 -515294908.07762909 0 0 0 0 -185668895.99841309 305077620.57739258 0 305077620.57739258 -370583070.46014404 0 0 0 0 -372566123.50097656 662628758.54827881 0 662628758.54827881 -654030368.62996292 0 0 0 0 -144034311.88291931 280925713.04526711 0 280925713.04526711 -1236840184.8734894 0 0 0 0 -111042410.7328186 396607596.47902107 0 396607596.47902107 -836265357.88707733 0 0 0 0 -300226547.50744247 440192532.45383048 0 440192532.45383048 -722942901.92037582 0 0 0 0 -72913133.321258545 172450390.30934811 0 172450390.30934811 -251249838.88994598 0 0 0 0 79263148.926025391 180641962.51709366 0 180641962.51709366 -905621169.77455139 0 0 0 0 -199682229.20724487 -7042805.8967266083 0 -7042805.8967266083 -31355720.828594208 0 0 0 0 4429993.3187876344 -8568677.4331957474 0 -8568677.4331957474 -16273844.485878918 0 0 0 0 -2294522.3642432094 -3506191.1028518733 0 -3506191.1028518733 -3622282.6337977536 0 0 0 0 591513.1692237854 -260312.95242893696 0 -260312.95242893696 -2690058.29088974 0 0 0 0 31922321.709075928 618028.12210273743 0 618028.12210273743 -53518344.043589115 0 0 0 0 12676814.19934845 -39903467.904840708 0 -39903467.904840708 -25406918.393577576 0 0 0 0 3878998.0707648546 -16671255.315116618 0 -16671255.315116618 -9082732.8359701913 0 0 0 0 836759.66845703125 -20498743.867790222 0 -20498743.867790222 -32148849.045391917 0 0 0 0 -284457.33547344804 -680286.03844230622 0 -680286.03844230622 2782180.7427967563 0 0 0 0 -55934038.428504944 11124494.7697258 0 11124494.7697258 -219800824.51690674 0 0 0 0 31316238.666397095 177371562.10373402 0 177371562.10373402 -511054967.02475739 0 0 0 0 -195086296.19464111 403795513.86930275 0 403795513.86930275 -597326914.39226913 0 0 0 0 -129345528.42151642 221195529.07391405 0 221195529.07391405 -433597648.41114426 0 0 0 0 -143268344.76330566 238404220.63313866 0 238404220.63313866 -438005383.21436882 0 0 0 0 -241576715.31033325 450173651.63879585 0 450173651.63879585 -665224739.73737335 0 0 0 0 -99640295.825622559 361011675.63407326 0 361011675.63407326 -718818813.33722687 0 0 0 0 -381299104.54425049 736656575.04794693 0 736656575.04794693 -834928434.76218367 0 0 0 0 -146435435.40725708 373837144.25876045 0 373837144.25876045 -707882293.96313477 0 0 0 0 -276522634.44799805 428650762.01441002 0 428650762.01441002 -488588935.25772285 0 0 0 0 -173341266.46569824 477994070.85335922 0 477994070.85335922 -532433674.52530289 0 0 0 0 -279239878.26930237 684583072.36978769 0 684583072.36978769 -8668558.551697731 0 0 0 0 -163687251.46377563 732270939.18776894 0 732270939.18776894 -535672812.133623 0 0 0 0 -195936252.36785889 519101001.90634537 0 519101001.90634537 1302273696.1399212 0 0 0 0 14904918.49331665 333675043.26285648 0 333675043.26285648 -1744171932.3717136 0 0 0 0 -880257.61339321733 -426337.40233911574 0 -426337.40233911574 103514.25641127629 0 0 0 0 166893532.62728882 177509852.98417282 0 177509852.98417282 520891736.84748077 0 0 0 0 -219240398.50790405 780726201.72632313 0 780726201.72632313 495534130.05328751 0 0 0 0 136602363.55343771 202436026.70607436 0 202436026.70607436 114763628.6502285 0 0 0 0 134801565.37525892 280593600.54916686 0 280593600.54916686 432124994.48412895 0 0 0 0 -55256751.15637207 306736561.57432556 0 306736561.57432556 87393660.080238819 0 0 0 0 -35235295.05330658 381434430.60845405 0 381434430.60845405 -196449863.73939514 0 0 0 0 37148475.051559448 408691730.70998251 0 408691730.70998251 3155241.0703437328 0 0 0 0 -67568687.724746704 -14156404.620754123 0 -14156404.620754123 243389950.4435395 0 0 0 0 250026660.53924179 216871821.02894765 0 216871821.02894765 -62439037.215912819 0 0 0 0 258364950.73654175 238263776.86756766 0 238263776.86756766 -73923562.144789785 0 0 0 0 229072078.23591614 -52580959.792934775 0 -52580959.792934775 -530144502.28387368 0 0 0 0 44286586.663040161 409125871.29102808 0 409125871.29102808 726184656.18536925 0 0 0 0 1081187.6753329486 -1285000.0139922276 0 -1285000.0139922276 -249154.35513617381 0 0 0 0 1963765.5243812501 -1918362.0655288557 0 -1918362.0655288557 -416487.65088943642 0 0 0 0 -93825371.072990417 288823893.43647707 0 288823893.43647707 154961870.07347822 0 0 0 0 137391567.13153076 249510010.7829175 0 249510010.7829175 -183145032.75765061 0 0 0 0 128879588.35818481 196258943.17276096 0 196258943.17276096 166866849.03574264 0 0 0 0 -35966011.977996826 196402670.79943776 0 196402670.79943776 458375567.06675625 0 0 0 0 -168616.68432617188 28130685.659605026 0 28130685.659605026 955276438.35763931 0 0 0 0 275368421.54528809 111622955.20454216 0 111622955.20454216 -33371295.258230209 0 0 0 0 223331441.82177734 396071001.50087452 0 396071001.50087452 410479570.08590317 0 0 0 0 103225162.03079224 41268804.123627186 0 41268804.123627186 491489851.51627922 0 0 0 0 -1484993.5224052966 10467.013640791178 0 10467.013640791178 -415471.54188741418 0 0 0 0 280010538.63482666 426242966.64146423 0 426242966.64146423 628459855.36632156 0 0 0 0 -81713192.630554199 234778718.95197487 0 234778718.95197487 -540390611.62260246 0 0 0 0 143266.89305964112 255936.87699808925 0 255936.87699808925 -368776.76664103568 0 0 0 0 158256655.6685791 381145897.6374712 0 381145897.6374712 744096660.74098873 0 0 0 0 37432730.954208374 176959609.87886143 0 176959609.87886143 -658699492.92261887 0 0 0 0 -8909211.2485855222 315117.21632855758 0 315117.21632855758 3081535.064355324 0 0 0 0 8259364.6170505583 3773665.4395243414 0 3773665.4395243414 -4794233.8485374358 0 0 0 0 -87480457.439605713 126977167.2586832 0 126977167.2586832 -455409397.75832647 0 0 0 0 -30008872.322357178 213340022.81568146 0 213340022.81568146 -609664387.5387001 0 0 0 0 96946791.899642944 68037934.166119099 0 68037934.166119099 27971630.066541672 0 0 0 0 48255008.345825195 129102416.7253952 0 129102416.7253952 68326706.341859818 0 0 0 0 -247511378.80264282 -24626819.277340412 0 -24626819.277340412 175168497.894063 0 0 0 0 -191251871.15189362 -165059774.54637909 0 -165059774.54637909 97937929.338176727 0 0 0 0 -121256131.53082275 -88134802.782655716 0 -88134802.782655716 113159926.57535172 0 0 0 0 -3764580.9443217814 -1276775.9893213976 0 -1276775.9893213976 1590675.4454344434 0 0 0 0 -138446428.96902466 11780982.286295891 0 11780982.286295891 186442554.21667194 0 0 0 0 97829333.724182129 237131949.56901622 0 237131949.56901622 -180674505.54479599 0 0 0 0 -69078705.175872803 219097512.66616416 0 219097512.66616416 468341661.8505373 0 0 0 0 53455992.243637085 174869907.64931655 0 174869907.64931655 185427049.0107336 0 0 0 0 -9913351.9528808594 147381188.28536105 0 147381188.28536105 181020105.84196949 0 0 0 0 28029919.922317505 311839492.3787331 0 311839492.3787331 -26223863.733356684 0 0 0 0 401841979.38830566 213744185.11658084 0 213744185.11658084 -604233405.02090609 0 0 0 0 267002703.15332031 34807158.78419137 0 34807158.78419137 -484293401.58884513 0 0 0 0 -74916006.066177368 23783916.094820872 0 23783916.094820872 -19121053.455266461 0 0 0 0 1003063.5616109073 -1309221.8008226184 0 -1309221.8008226184 -262391.69506350544 0 0 0 0 -86767821.188537598 126405979.16785181 0 126405979.16785181 458585081.13303614 0 0 0 0 -76389931.430755615 406287753.34680557 0 406287753.34680557 751731986.34246874 0 0 0 0 460334993.21939087 -141638447.26942348 0 -141638447.26942348 420632961.82437992 0 0 0 0 -1817909.7370311096 5684376.5074657574 0 5684376.5074657574 -1096045.2500946783 0 0 0 0 490905950.50302124 98228917.955338478 0 98228917.955338478 302280361.61646461 0 0 0 0 312788439.43569946 314484535.89380622 0 314484535.89380622 -245384050.84000921 0 0 0 0 395494029.9861145 188223171.20383054 0 188223171.20383054 -337651600.57068932 0 0 0 0 284930553.19018555 167930745.9184171 0 167930745.9184171 -84812725.652666286 0 0 0 0 382703770.76168823 228322292.44658315 0 228322292.44658315 -111321921.78564572 0 0 0 0 -1536361.7959504649 4754227.2394564748 0 4754227.2394564748 -251805.07701190235 0 0 0 0 -18305.244506835938 7722795.3677067757 0 7722795.3677067757 1271642.7630634308 0 0 0 0 -1536.2799530029297 9934880.8821363449 0 9934880.8821363449 489891.11372852325 0 0 0 0 6120924.885269165 10079754.803950787 0 10079754.803950787 -1394131.866558075 0 0 0 0 4636040.4317016602 8063075.2450866699 0 8063075.2450866699 928056.29709625244 0 0 0 0 2844242.1972045898 12259255.330969334 0 12259255.330969334 -1741948.0688381195 0 0 0 0 -130780713.10797119 711925352.5543623 0 711925352.5543623 203724872.7750535 0 0 0 0 -1095363303.0457764 -561843282.85654116 0 -561843282.85654116 1044085462.1301613 0 0 0 0 -44512939.116394043 17488855.201478958 0 17488855.201478958 81121580.627796173 0 0 0 0 79420716.671020508 335661023.72186661 0 335661023.72186661 -243720843.96574402 0 0 0 0 -652552847.03295898 1210135298.3465042 0 1210135298.3465042 -1066451623.2771053 0 0 0 0 -23816424.122741699 -102057223.62230492 0 -102057223.62230492 107697488.78947258 0 0 0 0 159302745.6060791 211829204.86047173 0 211829204.86047173 -166817324.67433167 0 0 0 0 -1861674.062563017 5729571.8265011981 0 5729571.8265011981 -671239.509910753 0 0 0 0 -32827415.720336914 -39945945.834938049 0 -39945945.834938049 106036303.00571442 0 0 0 0 109613904.24249268 -55660512.512126923 0 -55660512.512126923 62099806.545482635 0 0 0 0 -110233828.77456665 51661046.63541317 0 51661046.63541317 12406319.659805298 0 0 0 0 -177135.62660371885 310730.47298780829 0 310730.47298780829 111154.24909588136 0 0 0 0 11282960.000793457 -12235261.165866852 0 -12235261.165866852 -62834987.314424515 0 0 0 0 131117853.87963867 -17190716.246017456 0 -17190716.246017456 -259191062.73538208 0 0 0 0 78337.293258666992 65087801.117990494 0 65087801.117990494 -61687099.781085968 0 0 0 0 -2956629.9625050724 -3101334.7763950005 0 -3101334.7763950005 593527.71244903188 0 0 0 0 7876094.1745910645 865942.50093483925 0 865942.50093483925 -17784342.069036484 0 0 0 0 -7471792.6603088379 55155034.07489109 0 55155034.07489109 -17681764.288629532 0 0 0 0 428813372.94293213 -332111974.83024454 0 -332111974.83024454 -341744835.32805061 0 0 0 0 -93714362.05770874 -36490265.85966301 0 -36490265.85966301 -472044934.46241927 0 0 0 0 554375053.78800964 -271857234.17488527 0 -271857234.17488527 -504537845.70820236 0 0 0 0 623667277.14770508 -567983595.53275537 0 -567983595.53275537 -298654102.95042014 0 0 0 0 627192839.69717407 -322655367.96039677 0 -322655367.96039677 -410269926.68103743 0 0 0 0 798119561.0559082 -563090310.3294673 0 -563090310.3294673 -229889778.32422423 0 0 0 0 707431604.71896362 -46281591.61252141 0 -46281591.61252141 -243239025.02403736 0 0 0 0 606753592.26078796 139060631.29135585 0 139060631.29135585 -541237247.68438721 0 0 0 0 418189499.2199707 -199024334.41925335 0 -199024334.41925335 -317424736.76345634 0 0 0 0 262450692.28076172 442945161.50812626 0 442945161.50812626 -344306886.76392078 0 0 0 0 342335549.43493652 509105945.36641312 0 509105945.36641312 -391376864.46014214 0 0 0 0 559336614.48052979 236535117.69036388 0 236535117.69036388 -227049406.18205214 0 0 0 0 298105444.65655518 560764778.57291842 0 560764778.57291842 -92418874.153814316 0 0 0 0 380045098.58621216 467046402.5360899 0 467046402.5360899 -695595699.65412903 0 0 0 0 64039914.718475342 568969531.35864449 0 568969531.35864449 -392085914.78415298 0 0 0 0 39268204.843414307 608199119.92338371 0 608199119.92338371 -680510813.24878025 0 0 0 0 -147574392.59796143 828566107.11164856 0 828566107.11164856 -918347334.68906975 0 0 0 0 91898025.093170166 -62937061.055339813 0 -62937061.055339813 -350463132.28994274 0 0 0 0 212998929.32940674 319840589.3055315 0 319840589.3055315 -614768725.21479416 0 0 0 0 2235850.9482727051 266352654.54128647 0 266352654.54128647 -601704195.41856289 0 0 0 0 36705958.299713135 -28263782.31146574 0 -28263782.31146574 -864159101.07778168 0 0 0 0 -405959414.27468872 563762094.24379253 0 563762094.24379253 -785419973.85308838 0 0 0 0 -389318911.48391724 613226484.241539 0 613226484.241539 -1824902461.5749626 0 0 0 0 -656763472.4317627 431669672.19477844 0 431669672.19477844 -849859100.15691376 0 0 0 0 -14764254.521882057 916189077.48412883 0 916189077.48412883 -867110681.56536484 0 0 0 0 -740507569.94354248 257047123.13018799 0 257047123.13018799 -1045803576.1120529 0 0 0 0 -862966696.21691895 1032078966.1337242 0 1032078966.1337242 -794905162.85914421 0 0 0 0 -299886763.56820679 1316065960.3446617 0 1316065960.3446617 -984017233.7617836 0 0 0 0 225175458.58729553 -160089033.91849709 0 -160089033.91849709 -369154582.45626068 0 0 0 0 -120959487.78839111 487429502.61488247 0 487429502.61488247 -1332398998.126152 0 0 0 0 1921586.5548983067 -423610.13029427081 0 -423610.13029427081 -2935814.5477485061 0 0 0 0 -1936972669.3716736 1573011796.4094601 0 1573011796.4094601 -959543562.53879547 0 0 0 0 -1302539196.607666 1426159608.2970657 0 1426159608.2970657 -1584493033.082346 0 0 0 0 -642337709.12133789 702154830.41867352 0 702154830.41867352 -1078570859.8031349 0 0 0 0 -1826976327.7040138 950819560.91345954 0 950819560.91345954 -591533470.06090927 0 0 0 0 -283613995.00146484 387364055.91840553 0 387364055.91840553 -758183331.62197161 0 0 0 0 -322496440.75939941 357163806.77317905 0 357163806.77317905 -377692141.92403793 0 0 0 0 163954972.53121948 136748797.84984589 0 136748797.84984589 -696066603.61957741 0 0 0 0 -711854979.80657959 672607852.87558174 0 672607852.87558174 -837701279.23449326 0 0 0 0 -152236814.90527344 154584585.50520515 0 154584585.50520515 -978113959.40503263 0 0 0 0 351196441.84420776 -153062022.78974342 0 -153062022.78974342 -700880713.4323101 0 0 0 0 -220340785.32795715 141215529.52697229 0 141215529.52697229 -470605511.04860687 0 0 0 0 286667084.39660645 -331251928.26051807 0 -331251928.26051807 -231876060.79076958 0 0 0 0 547672179.94882202 -147095508.00935555 0 -147095508.00935555 -470311291.23174667 0 0 0 0 115198992.12561035 5466002.5470199585 0 5466002.5470199585 -126821316.19048882 0 0 0 0 416612718.03306961 135334787.48466063 0 135334787.48466063 -419503052.83973694 0 0 0 0 379268616.01443863 19159203.893018246 0 19159203.893018246 248709343.62634277 0 0 0 0 918214068.33508301 -273579198.41782188 0 -273579198.41782188 -177062469.89898491 0 0 0 0 994234164.56546021 -114223215.79909229 0 -114223215.79909229 -149949.21647644043 0 0 0 0 1394570287.4075317 -471220348.81989288 0 -471220348.81989288 234598630.91537666 0 0 0 0 1734827609.0980225 -294189497.60050964 0 -294189497.60050964 71188089.487606049 0 0 0 0 784919835.36019897 25583896.608068466 0 25583896.608068466 490551217.19269562 0 0 0 0 2699475325.8380127 -324512204.40956593 0 -324512204.40956593 -52986458.98682785 0 0 0 0 2599664949.3566895 -345996458.23530579 0 -345996458.23530579 77942493.926254272 0 0 0 0 1860307370.6556549 74668336.900960445 0 74668336.900960445 332270677.58798218 0 0 0 0 -214845.31634315196 -5719124.697612524 0 -5719124.697612524 780780.18277740292 0 0 0 0 -85072555.898296356 122472108.34908879 0 122472108.34908879 281748021.2674942 0 0 0 0 66962.03248091042 -310742.24167571508 0 -310742.24167571508 -472645.13604637864 0 0 0 0 1369602017.5147095 -157148459.0000782 0 -157148459.0000782 398901622.0436883 0 0 0 0 2469430170.9220581 335817605.44370651 0 335817605.44370651 -76317793.119992733 0 0 0 0 6997924.8150874069 -256818.06000410765 0 -256818.06000410765 -26391403.915898599 0 0 0 0 1531922009.4722748 -113080698.17633295 0 -113080698.17633295 -168089698.15010452 0 0 0 0 1425614522.6525879 -14099423.553128242 0 -14099423.553128242 -164899983.59993553 0 0 0 0 79131875.052490234 -25666685.837352753 0 -25666685.837352753 -69535530.772609711 0 0 0 0 644501784.25134277 -446044561.71748793 0 -446044561.71748793 -106996533.73071098 0 0 0 0 546782189.91577005 -284049215.3154037 0 -284049215.3154037 -28679284.451782227 0 0 0 0 933134222.6194458 -240647196.64485168 0 -240647196.64485168 -259346727.54043007 0 0 0 0 1054960917.400177 -427143497.26768684 0 -427143497.26768684 -69262826.229827881 0 0 0 0 -43912603.325256348 -1810040.4306697845 0 -1810040.4306697845 39843466.576581478 0 0 0 0 128433873.87023926 -52725941.667551041 0 -52725941.667551041 -2819153.3031730652 0 0 0 0 5732491.4491144717 -15532728.897920659 0 -15532728.897920659 -6523687.1168483552 0 0 0 0 7620261.6327209473 -25715256.617733002 0 -25715256.617733002 8236755.9470114708 0 0 0 0 -42334405.725060463 -73477926.552917808 0 -73477926.552917808 157809833.46488571 0 0 0 0 -16332032.64175415 -1115783.660982132 0 -1115783.660982132 26418591.72071743 0 0 0 0 -846129.36767578125 -58197345.332948685 0 -58197345.332948685 -45891300.268619537 0 0 0 0 -127914085.27667236 245491847.44297218 0 245491847.44297218 -375855960.32274246 0 0 0 0 -43110095.525924683 82556072.784924507 0 82556072.784924507 -140367231.97882271 0 0 0 0 -45452547.727172852 78294692.892871857 0 78294692.892871857 -147548563.81392097 0 0 0 0 30694507.535888672 107605814.27945137 0 107605814.27945137 -174700416.14525414 0 0 0 0 -15882778.248321533 -16880510.17758894 0 -16880510.17758894 8275620.199256897 0 0 0 0 -163916320.39208984 105334417.99822998 0 105334417.99822998 -9733439.4543199539 0 0 0 0 -253623186.99874878 360641165.9038372 0 360641165.9038372 -309796315.55724335 0 0 0 0 -161867385.30349731 426949991.7880919 0 426949991.7880919 -307936223.46650696 0 0 0 0 813483750.09790039 -470604410.2603817 0 -470604410.2603817 -258458107.15391731 0 0 0 0 779055238.06986237 -301025249.07494593 0 -301025249.07494593 -147325071.06252193 0 0 0 0 3329455.5832683742 1584526.9458576143 0 1584526.9458576143 -18854598.056240775 0 0 0 0 815149066.77462769 -212958642.63669062 0 -212958642.63669062 -10111546.739269733 0 0 0 0 501056783.61013794 -261405504.85172486 0 -261405504.85172486 -99617455.248354316 0 0 0 0 475017870.94125366 -557702181.52338886 0 -557702181.52338886 -130049435.66740286 0 0 0 0 636508987.05560303 -515247107.70284557 0 -515247107.70284557 -122666941.44184494 0 0 0 0 1191287.5364879575 1531072.0000800043 0 1531072.0000800043 -10939453.612003641 0 0 0 0 -120331190.91421509 -414705482.35055465 0 -414705482.35055465 106164615.36050445 0 0 0 0 -171385511.48693848 -124130869.2840583 0 -124130869.2840583 -158139203.62923229 0 0 0 0 -1061733933.2144928 -300629446.50067699 0 -300629446.50067699 263006843.93889642 0 0 0 0 102119.85114984307 788400.89515137672 0 788400.89515137672 -3462321.5393954348 0 0 0 0 180705710.25854492 -671888372.92441273 0 -671888372.92441273 230594624.95727813 0 0 0 0 398184653.10712433 -393194718.01185393 0 -393194718.01185393 159342912.3810575 0 0 0 0 -317098061.47070312 582486653.53617096 0 582486653.53617096 -268171691.01224244 0 0 0 0 -411641933.32254601 291407274.86769593 0 291407274.86769593 -143493880.50597763 0 0 0 0 -1715992252.8142395 570720598.61203253 0 570720598.61203253 28786042.007557154 0 0 0 0 -776961515.72650146 234097479.31017065 0 234097479.31017065 -54980882.936733246 0 0 0 0 -545293376.67046356 740243230.40446615 0 740243230.40446615 -169067115.67392349 0 0 0 0 -250059189.68452454 373808044.1058135 0 373808044.1058135 45451938.308949471 0 0 0 0 -242728775.89477539 361145630.31963348 0 361145630.31963348 -407949855.18345815 0 0 0 0 -755602490.94181824 804843655.15300989 0 804843655.15300989 -641544097.83278108 0 0 0 0 -453930723.72039795 -97112885.3463642 0 -97112885.3463642 -296822239.39575291 0 0 0 0 -1338074117.1185913 444868946.00539064 0 444868946.00539064 866901969.189767 0 0 0 0 -416427735.90722656 175066529.01546931 0 175066529.01546931 630951528.10876203 0 0 0 0 158076082.77482605 -233416199.7167294 0 -233416199.7167294 916814015.91400528 0 0 0 0 23940981.302185059 108122508.68326449 0 108122508.68326449 73462919.371280015 0 0 0 0 376917308.55085754 443725898.05546343 0 443725898.05546343 284460260.48186564 0 0 0 0 -264068131.4019928 -363849150.99997383 0 -363849150.99997383 -489136683.93908381 0 0 0 0 -442885971.54035187 1306853526.0453186 0 1306853526.0453186 -213091874.84290171 0 0 0 0 -370691653.56863403 920614303.65873873 0 920614303.65873873 1448275004.5641813 0 0 0 0 -125065615.12504816 1021497837.5498077 0 1021497837.5498077 2057878477.3498573 0 0 0 0 691051512.72766113 774230860.61581993 0 774230860.61581993 1291880830.6888862 0 0 0 0 956390293.05331421 94846750.574458122 0 94846750.574458122 3026215157.2309117 0 0 0 0 1252982911.1198425 1597104228.3741493 0 1597104228.3741493 1907302706.2425299 0 0 0 0 1770922932.2222595 461191740.09424925 0 461191740.09424925 2255357051.0288658 0 0 0 0 1379486802.9362946 -58838790.429567456 0 -58838790.429567456 912247500.81890059 0 0 0 0 1633331861.3182983 -736436168.21125269 0 -736436168.21125269 2570114659.6119623 0 0 0 0 496156256.2376709 -45678188.133611202 0 -45678188.133611202 2090129596.3904955 0 0 0 0 862252549.52655029 -673162645.65453625 0 -673162645.65453625 246855197.71189272 0 0 0 0 895106159.80322266 -323412166.84441781 0 -323412166.84441781 462500231.03296924 0 0 0 0 1379902897.3613892 -801210486.9617157 0 -801210486.9617157 933212753.40434933 0 0 0 0 1716295276.6228333 -21167531.939121902 0 -21167531.939121902 475912922.91365623 0 0 0 0 1506000736.6462097 -345597748.41312456 0 -345597748.41312456 218891440.46263719 0 0 0 0 1136359905.7324724 -86160800.785162166 0 -86160800.785162166 38610191.586184025 0 0 0 0 1146776739.4063146 -713930730.96905327 0 -713930730.96905327 119965270.67494988 0 0 0 0 726545404.24090576 -450171444.12108111 0 -450171444.12108111 -42104982.389568686 0 0 0 0 713354431.69387817 -715004033.10660529 0 -715004033.10660529 -37648401.195110679 0 0 0 0 620441412.09759521 701486805.29648054 0 701486805.29648054 460699930.78415906 0 0 0 0 938643057.15032959 416205426.61032915 0 416205426.61032915 148182915.53478628 0 0 0 0 610006330.57772827 627318413.25862134 0 627318413.25862134 233874183.27271795 0 0 0 0 281819585.72363281 638649951.57818186 0 638649951.57818186 237186348.02840805 0 0 0 0 568520564.11898804 457994545.36048985 0 457994545.36048985 146359063.81097078 0 0 0 0 618320896.0383606 449843948.26886606 0 449843948.26886606 -73077768.407096863 0 0 0 0 882372927.24389648 358478758.5483098 0 358478758.5483098 -181464452.52235126 0 0 0 0 1135020422.2307129 -236041472.99902296 0 -236041472.99902296 -167541072.54359889 0 0 0 0 699472175.74221802 167894750.1730907 0 167894750.1730907 55538652.01853323 0 0 0 0 898940287.64260864 468335778.50039184 0 468335778.50039184 456316865.8178609 0 0 0 0 1350846781.5792847 108554191.68139589 0 108554191.68139589 59827406.518980414 0 0 0 0 1408468267.0648499 403373419.27237511 0 403373419.27237511 457007362.46591973 0 0 0 0 1387338171.5664978 228569315.26396012 0 228569315.26396012 296649478.72854567 0 0 0 0 1939010085.1394348 -61898480.602546215 0 -61898480.602546215 417341351.15959406 0 0 0 0 1637428332.5591736 -171345226.0639143 0 -171345226.0639143 978464973.17503643 0 0 0 0 1631783445.3984375 723349580.22261477 0 723349580.22261477 904973641.31356049 0 0 0 0 1210383514.2976685 996270052.60615444 0 996270052.60615444 920006920.02520704 0 0 0 0 682692086.83642578 986954983.33037615 0 986954983.33037615 1339988697.1368179 0 0 0 0 898469265.20489502 606709576.49235368 0 606709576.49235368 480162679.15888345 0 0 0 0 472343386.77936554 750949287.97643077 0 750949287.97643077 721670832.53383112 0 0 0 0 477005803.46786499 801455446.99744892 0 801455446.99744892 1174059264.0076828 0 0 0 0 1400935056.696167 1568785699.0797606 0 1568785699.0797606 2400522846.8535309 0 0 0 0 1046865044.2414551 856267290.51453876 0 856267290.51453876 1312860824.9643552 0 0 0 0 214149825.44128418 752555012.16173363 0 752555012.16173363 2375830049.2404156 0 0 0 0 2955420135.605896 -114560847.41797447 0 -114560847.41797447 974856577.10218561 0 0 0 0 2718522392.6387329 593988525.05307293 0 593988525.05307293 910326678.99660206 0 0 0 0 5097917626.6871338 -284305415.44893265 0 -284305415.44893265 1605179678.9255481 0 0 0 0 2336128085.5341339 292988324.56949425 0 292988324.56949425 1529466591.931242 0 0 0 0 -91538404.122207642 -162432532.67653561 0 -162432532.67653561 2697930588.323616 0 0 0 0 2089200941.2456665 -637209501.18792486 0 -637209501.18792486 5632294896.0834522 0 0 0 0 2053533126.3795013 2258215421.369204 0 2258215421.369204 4566577899.9984455 0 0 0 0 4139345720.8531189 2242044739.3288088 0 2242044739.3288088 2969986924.5483761 0 0 0 0 82895479.881561279 476035633.7100296 0 476035633.7100296 2613386076.5585899 0 0 0 0 730307236.19848633 483910106.66120148 0 483910106.66120148 2709564191.4604034 0 0 0 0 733345065.54470825 527424264.41894245 0 527424264.41894245 1961498150.1345634 0 0 0 0 -43401804.489135742 -523618567.93663788 0 -523618567.93663788 2575748154.0683517 0 0 0 0 12126543.722106934 -231377459.79122162 0 -231377459.79122162 1580569434.6248169 0 0 0 0 -270982500.7121582 70237487.844242096 0 70237487.844242096 1886979756.2928143 0 0 0 0 -57483755.548355103 -378240651.43745995 0 -378240651.43745995 1518865204.0497208 0 0 0 0 -1820175.2797088623 105603834.23883057 0 105603834.23883057 1726189668.1415024 0 0 0 0 -382638345.73901367 382631141.86686897 0 382631141.86686897 1464650069.4199786 0 0 0 0 -249901198.89399719 73318640.742093086 0 73318640.742093086 1324244022.4223518 0 0 0 0 -408758575.80093384 170616819.53214741 0 170616819.53214741 1082555456.3343945 0 0 0 0 -414666284.05233765 162110260.10606384 0 162110260.10606384 1070399893.7588911 0 0 0 0 -535839957.23306274 402371160.06281471 0 402371160.06281471 1095594579.47229 0 0 0 0 -388084997.4102478 17707251.216097832 0 17707251.216097832 1416607956.8857689 0 0 0 0 -461302415.13461304 273803090.79756355 0 273803090.79756355 1315240129.7234287 0 0 0 0 -534537140.65637207 543169318.72009325 0 543169318.72009325 1249187952.6998787 0 0 0 0 -444283541.28219604 589669465.01565838 0 589669465.01565838 1262805630.725502 0 0 0 0 -274405555.68945312 500140627.8393836 0 500140627.8393836 1160350766.368289 0 0 0 0 -188905816.66134644 690220272.8202095 0 690220272.8202095 1582057165.4325783 0 0 0 0 -26907588.044464111 513467230.33169842 0 513467230.33169842 1433390699.7208595 0 0 0 0 217372845.61383629 694808399.32130206 0 694808399.32130206 1525502322.701973 0 0 0 0 -196721064.75341797 498878232.71446228 0 498878232.71446228 2091597190.4166498 0 0 0 0 -259093886.33163452 298239585.41719055 0 298239585.41719055 1447560449.7367973 0 0 0 0 -97970848.580181122 508846418.3269304 0 508846418.3269304 809929632.16813278 0 0 0 0 -415948643.31890869 580067085.83482933 0 580067085.83482933 807088743.894804 0 0 0 0 -607418323.37088013 383351017.95180035 0 383351017.95180035 1123756927.656744 0 0 0 0 -638254267.50809479 585949557.85290003 0 585949557.85290003 1001418119.741394 0 0 0 0 -521258786.44229126 577992183.92727327 0 577992183.92727327 914662330.20191526 0 0 0 0 -517125465.18562317 690359985.94796467 0 690359985.94796467 1065976646.9113655 0 0 0 0 -259364717.79031372 695653869.82600689 0 695653869.82600689 879852983.48625374 0 0 0 0 -263921306.13068819 813625699.7210567 0 813625699.7210567 673743595.41696167 0 0 0 0 -671437503.61969376 1102925396.6216788 0 1102925396.6216788 1143411990.8861027 0 0 0 0 -956389116.26397705 482635259.07052517 0 482635259.07052517 1003782204.6809648 0 0 0 0 -624854498.36663818 774923382.12809157 0 774923382.12809157 476697871.47444224 0 0 0 0 -575593030.0584259 517630031.54687774 0 517630031.54687774 451698839.8176198 0 0 0 0 -644551297.98143005 541632872.1351254 0 541632872.1351254 910530678.2892952 0 0 0 0 -509437681.20205688 678341484.3673799 0 678341484.3673799 269345446.66629314 0 0 0 0 -523698073.14239502 906190102.20852685 0 906190102.20852685 166843603.50462079 0 0 0 0 -481480670.64752197 786001846.64693689 0 786001846.64693689 -32509583.237096786 0 0 0 0 -527491337.21566772 847066096.95070076 0 847066096.95070076 95251436.541409492 0 0 0 0 -692023044.05539179 571970217.34546506 0 571970217.34546506 -45644653.296093583 0 0 0 0 -692469770.03430176 581288572.74442577 0 581288572.74442577 127328210.92167997 0 0 0 0 -152642404.01516724 787677511.45588493 0 787677511.45588493 823377116.22218418 0 0 0 0 -120213582.93530273 806497409.16420579 0 806497409.16420579 532943434.49591732 0 0 0 0 81521355.450653076 911823253.26220083 0 911823253.26220083 1333916521.6635094 0 0 0 0 -20341460.49987793 670790297.40010166 0 670790297.40010166 763926825.31233454 0 0 0 0 -304012335.50024414 748514919.16892624 0 748514919.16892624 1317822947.3140545 0 0 0 0 -334749739.33766174 594974176.91425586 0 594974176.91425586 830839647.66035748 0 0 0 0 -372983924.19284058 692396521.47068286 0 692396521.47068286 602511103.51489723 0 0 0 0 -469554442.59735107 713588954.22220445 0 713588954.22220445 924326736.14702284 0 0 0 0 -343066654.17038345 680643247.38840306 0 680643247.38840306 463870721.33750248 0 0 0 0 -331441131.28445435 863852422.90262222 0 863852422.90262222 289443916.81757164 0 0 0 0 -560303322.41552734 729186504.02842426 0 729186504.02842426 630444701.98285663 0 0 0 0 -532597029.53668213 915391420.46988678 0 915391420.46988678 69669843.93560791 0 0 0 0 -453313272.61181641 732354791.8366189 0 732354791.8366189 175298393.24647617 0 0 0 0 -156305677.52059937 838100499.85337806 0 838100499.85337806 157962426.43551993 0 0 0 0 -67035637.934356689 623998268.26141226 0 623998268.26141226 55029813.971632004 0 0 0 0 172205492.7098999 762665740.76555991 0 762665740.76555991 756264563.62012362 0 0 0 0 164046435.86117554 673656417.58653355 0 673656417.58653355 370017784.22071886 0 0 0 0 301559515.97518921 583000914.86830616 0 583000914.86830616 -32420615.88676548 0 0 0 0 -9187103.1776123047 772316475.85634899 0 772316475.85634899 377636315.39787108 0 0 0 0 26802054.987609863 633306300.8812418 0 633306300.8812418 -29376237.138292968 0 0 0 0 62881770.007232666 614547680.32856321 0 614547680.32856321 -325340376.66968727 0 0 0 0 -214067038.64752197 723337280.73844147 0 723337280.73844147 33089174.209471226 0 0 0 0 -179357283.41386414 748604067.9147501 0 748604067.9147501 -198676972.54282188 0 0 0 0 -155233966.34864807 639893142.78759861 0 639893142.78759861 -616436181.26353645 0 0 0 0 116601919.93070984 592450580.64218235 0 592450580.64218235 -753991343.08956909 0 0 0 0 -208012754.52600098 617598839.12414742 0 617598839.12414742 -325049796.40967524 0 0 0 0 84268706.968223572 825926600.08818102 0 825926600.08818102 -1155353367.3988991 0 0 0 0 -35573514.636352539 601700881.77942467 0 601700881.77942467 -740744560.24387169 0 0 0 0 -22116011.317901611 586690158.93271303 0 586690158.93271303 -1118112589.2729492 0 0 0 0 -538499186.9211731 570086661.45422077 0 570086661.45422077 -626636839.91493797 0 0 0 0 219887403.64068604 716138212.35131264 0 716138212.35131264 -1575229223.2194366 0 0 0 0 -220050897.32244873 484483772.23993683 0 484483772.23993683 -1165071611.9373951 0 0 0 0 -294824659.24107361 236883199.88526869 0 236883199.88526869 -1586274690.5069199 0 0 0 0 42715252.906555176 426526549.00367737 0 426526549.00367737 -1592415487.4043131 0 0 0 0 40064939.222045898 461257200.84975815 0 461257200.84975815 -1826982027.9049568 0 0 0 0 228633144.48828125 848730638.15971756 0 848730638.15971756 -1174843670.1352024 0 0 0 0 -912240538.50135803 690488661.29901934 0 690488661.29901934 -1270660426.1642914 0 0 0 0 -1024794012.9463501 1010349481.4338965 0 1010349481.4338965 -1046948636.6311798 0 0 0 0 -445433849.85766602 951106595.12324524 0 951106595.12324524 -1645802644.0750427 0 0 0 0 -599239069.8046875 918116342.81069946 0 918116342.81069946 -1651191796.8597584 0 0 0 0 -2214263986.6987915 1214272479.3208714 0 1214272479.3208714 -1433884427.0025635 0 0 0 0 -804911576.72418213 893707208.38149643 0 893707208.38149643 -1090692500.4216003 0 0 0 0 -466452158.93457031 545681768.90328217 0 545681768.90328217 -864713251.29430866 0 0 0 0 -1192474187.2231445 466199372.01563454 0 466199372.01563454 -868666498.57686234 0 0 0 0 -875335775.06118774 755648123.74219227 0 755648123.74219227 -506920212.19992447 0 0 0 0 -621314576.63952637 929958813.26389313 0 929958813.26389313 -743895979.79067421 0 0 0 0 -938190539.95739746 792446520.248312 0 792446520.248312 -790625949.4405365 0 0 0 0 -598386851.87945557 936661033.21272278 0 936661033.21272278 -1038536987.2737427 0 0 0 0 -635850681.32275391 781069873.82929516 0 781069873.82929516 -525225616.79697227 0 0 0 0 -508237514.70004272 886700409.79668999 0 886700409.79668999 -321684748.00938034 0 0 0 0 -639474706.62723923 940820597.04988551 0 940820597.04988551 -337463122.76760483 0 0 0 0 -483348699.47296143 608359368.51193428 0 608359368.51193428 -259637097.47324944 0 0 0 0 -461033004.06567383 830505107.57009315 0 830505107.57009315 -338667820.12445641 0 0 0 0 -588092912.29781342 681390038.59796548 0 681390038.59796548 -489763258.27548599 0 0 0 0 -400282172.3036499 695950295.29927635 0 695950295.29927635 78895965.777605057 0 0 0 0 -338749571.32872009 813788816.70291853 0 813788816.70291853 -68638246.951896667 0 0 0 0 -551529618.58569336 735003665.20947838 0 735003665.20947838 -92944506.178878784 0 0 0 0 -520217097.2583313 781308649.05257225 0 781308649.05257225 -63147558.84611702 0 0 0 0 -518932134.00460815 962355291.13594055 0 962355291.13594055 -176791344.31824112 0 0 0 0 -384671787.7036438 793633560.51011467 0 793633560.51011467 -356716950.047369 0 0 0 0 -353941351.51489258 807880130.25404072 0 807880130.25404072 -509087023.27493668 0 0 0 0 -615480100.17750549 677327646.05733109 0 677327646.05733109 -192118968.14006424 0 0 0 0 -300512950.20571899 660321692.51270294 0 660321692.51270294 -200572258.83766294 0 0 0 0 -43641742.790616035 115118384.03833431 0 115118384.03833431 -107045152.86805153 0 0 0 0 -78688132.43182373 442984320.87001991 0 442984320.87001991 -752465667.49850273 0 0 0 0 -114959112.71109009 363606964.49843979 0 363606964.49843979 -673830556.93514633 0 0 0 0 -493889833.64004517 960669161.39676571 0 960669161.39676571 -742118793.08316803 0 0 0 0 -240619989.75750732 774332624.7059021 0 774332624.7059021 -853030834.96425247 0 0 0 0 -512829627.49267578 949477743.25769806 0 949477743.25769806 -499209756.01425171 0 0 0 0 -627921024.13134766 923075222.68375397 0 923075222.68375397 -707706736.04398155 0 0 0 0 -265991544.86953735 704211284.70027351 0 704211284.70027351 -475900508.74807835 0 0 0 0 -336982010.36291504 917252687.60309792 0 917252687.60309792 -1056301548.2709274 0 0 0 0 -446246958.60461426 880375613.57791901 0 880375613.57791901 -1039390711.1416206 0 0 0 0 -8829797.0234375 433378660.97769165 0 433378660.97769165 -1343488729.8275528 0 0 0 0 195578372.1418457 330492242.43418884 0 330492242.43418884 -1631416957.0799484 0 0 0 0 -288081242.2723999 975036123.75124741 0 975036123.75124741 -2302812480.1358185 0 0 0 0 -54907222.093994141 517280136.86881256 0 517280136.86881256 -1408258061.2469788 0 0 0 0 205673513.02871704 472198035.78261948 0 472198035.78261948 -2310066264.6547546 0 0 0 0 226295855.18115234 439146402.6264801 0 439146402.6264801 -2301132306.5340576 0 0 0 0 55087672.775232635 31229506.56807407 0 31229506.56807407 3984701.1203169106 0 0 0 0 76812916.255569458 40996397.836727142 0 40996397.836727142 -45193225.577644348 0 0 0 0 10340675.614654541 93864707.626731873 0 93864707.626731873 -16716729.084838867 0 0 0 0 27245119.342910767 64423933.914916992 0 64423933.914916992 -52619073.987731934 0 0 0 0 184253429.20133591 12173956.366124153 0 12173956.366124153 -299782670.28071594 0 0 0 0 167108228.6439743 62246152.643745422 0 62246152.643745422 -103947968.26963043 0 0 0 0 92974046.969955444 272463756.33204079 0 272463756.33204079 -48458616.843032837 0 0 0 0 99889704.018508911 117750534.3998642 0 117750534.3998642 -145102198.94694519 0 0 0 0 141111247.87996292 376987400.46342278 0 376987400.46342278 158363860.65220642 0 0 0 0 33971118.658401489 119185676.84655762 0 119185676.84655762 9063724.8236083984 0 0 0 0 71327668.843811035 94805309.960990906 0 94805309.960990906 -37063850.633869171 0 0 0 0 -623018.49273681641 101622767.26375961 0 101622767.26375961 21764851.037994385 0 0 0 0 -5623143.8804016113 80149716.275157928 0 80149716.275157928 -8117262.875793457 0 0 0 0 9586132.6769828796 94263171.700778961 0 94263171.700778961 1056966.47265625 0 0 0 0 303108095.12805176 -1222010858.0687733 0 -1222010858.0687733 -481124984.03492546 0 0 0 0 675446408.77243805 578768658.43950391 0 578768658.43950391 -274184779.7692337 0 0 0 0 -114359769.1618042 607539015.62742996 0 607539015.62742996 -201298611.3693428 0 0 0 0 3400024.1773305833 2990198.9560483545 0 2990198.9560483545 1617775.183994595 0 0 0 0 -164297087.32254028 1155664783.4556551 0 1155664783.4556551 -868437255.35956192 0 0 0 0 125607046.00567627 1728141353.4140778 0 1728141353.4140778 119252004.22358227 0 0 0 0 466266001.34362793 1557094891.9840031 0 1557094891.9840031 -1007047725.4001455 0 0 0 0 -6252162.019323349 1131113778.1384637 0 1131113778.1384637 -1361865354.329586 0 0 0 0 1352404234.8953857 2249157027.3896961 0 2249157027.3896961 -1035438354.5843239 0 0 0 0 617767670.21885681 1196147149.7935843 0 1196147149.7935843 -2287589728.6031113 0 0 0 0 1999838408.2660522 644757210.20804787 0 644757210.20804787 -3681564590.0024796 0 0 0 0 -1774047162.2483521 -758475897.43035698 0 -758475897.43035698 -2164027367.9509659 0 0 0 0 37662115.801569872 40775453.085834742 0 40775453.085834742 32740941.227286022 0 0 0 0 -503794226.81607056 1260120704.0587397 0 1260120704.0587397 903857955.3992424 0 0 0 0 -1978317049.4484863 -758614586.36441803 0 -758614586.36441803 -583955551.5474205 0 0 0 0 -995098252.98779297 1486909886.1507225 0 1486909886.1507225 -2458283406.3492432 0 0 0 0 -325581053.6550293 1153896896.2744598 0 1153896896.2744598 -2916938998.6133299 0 0 0 0 -6128723.9781057835 14864223.071574472 0 14864223.071574472 8019644.16058248 0 0 0 0 1202489264.1890259 -536380673.53969574 0 -536380673.53969574 161498026.86451721 0 0 0 0 234345904.73144531 33897019.342300415 0 33897019.342300415 -151798969.28744507 0 0 0 0 144354054.87796021 -1859852085.12327 0 -1859852085.12327 -687825922.35014534 0 0 0 0 3335025693.7673645 -566676101.21461105 0 -566676101.21461105 -1636816315.5226626 0 0 0 0 3723896080.3657227 289378136.77384377 0 289378136.77384377 -1537679531.790863 0 0 0 0 2092215584.035965 23059496.861118317 0 23059496.861118317 -905619282.50904846 0 0 0 0 2371128385.6164551 -48821958.971237183 0 -48821958.971237183 -1524621134.0053122 0 0 0 0 2157699449.0525208 -860474242.6169014 0 -860474242.6169014 -1579477026.4631872 0 0 0 0 1454102690.1332703 -508143341.18647194 0 -508143341.18647194 -674280938.83490753 0 0 0 0 1965404768.2718353 -127179190.04431915 0 -127179190.04431915 -542083979.64890289 0 0 0 0 1874968388.6837616 -416151042.02856445 0 -416151042.02856445 -492901817.99549866 0 0 0 0 1337687953.6244659 140820211.52013779 0 140820211.52013779 -922719974.60430908 0 0 0 0 2155065202.5935059 -425373052.23188019 0 -425373052.23188019 -100243783.45422363 0 0 0 0 3831853646.8423767 898628266.39050293 0 898628266.39050293 -823684141.86169434 0 0 0 0 1891190580.9330969 416623796.38041949 0 416623796.38041949 -829908289.4776001 0 0 0 0 1888472343.9292908 -357886348.24507141 0 -357886348.24507141 -772122721.42618942 0 0 0 0 -733688239.4774704 1504537641.4732208 0 1504537641.4732208 28171425.881607056 0 0 0 0 1278105369.2981262 537171712.02102661 0 537171712.02102661 -745941930.93708801 0 0 0 0 1862169670.4335938 2174852335.1965637 0 2174852335.1965637 -634355957.23098755 0 0 0 0 2283045073.6105042 1931679038.8111725 0 1931679038.8111725 -550167907.30432892 0 0 0 0 2160859972.4000854 1819894689.0904541 0 1819894689.0904541 -591841473.20454407 0 0 0 0 5122074980.7649536 2306861325.9854431 0 2306861325.9854431 -529090328.48381805 0 0 0 0 6427574.6889003962 3441149.2399927117 0 3441149.2399927117 -3152324.0044637248 0 0 0 0 461244363.66638184 1300647647.0984192 0 1300647647.0984192 3178598.3103179932 0 0 0 0 977712441.89770508 -1734190306.2798462 0 -1734190306.2798462 -3757503031.4993286 0 0 0 0 303287083.6431427 3078808323.6924286 0 3078808323.6924286 -1436304610.3769226 0 0 0 0 -30914424.612190247 3047526973.4484787 0 3047526973.4484787 -272085601.49206543 0 0 0 0 1466778535.1603851 2549686292.0909729 0 2549686292.0909729 -1670619398.557312 0 0 0 0 1691022295.8324814 3177620119.7442474 0 3177620119.7442474 -5178545.2299499512 0 0 0 0 262240272.67544556 262134601.26196289 0 262134601.26196289 -3596917367.3395233 0 0 0 0 548779351.3759613 584051162.92127991 0 584051162.92127991 -679916681.21743774 0 0 0 0 474464858.47070312 283573066.46553802 0 283573066.46553802 -1869975019.8377304 0 0 0 0 172110457.22607899 5863662486.4439306 0 5863662486.4439306 599924536.00416565 0 0 0 0 125266249.85113525 -208082357.08883667 0 -208082357.08883667 -1208943278.8452911 0 0 0 0 144181853.24041748 -51678865.527122498 0 -51678865.527122498 -345185381.21396637 0 0 0 0 -99447893.572723389 -90154698.095554352 0 -90154698.095554352 63658061.606872559 0 0 0 0 12712468.715536047 12140845.90639307 0 12140845.90639307 -8482058.8769930787 0 0 0 0 50820196.322815835 26775846.580113746 0 26775846.580113746 3181641.5498351795 0 0 0 0 -140215103.08622742 -251503762.16080475 0 -251503762.16080475 -447052839.58044434 0 0 0 0 973204443.69511414 2170975601.1716785 0 2170975601.1716785 -1672670801.1324883 0 0 0 0 -1204136030.3528175 -184384576.33099174 0 -184384576.33099174 1222009445.767395 0 0 0 0 520539329.25743103 301519403.78496361 0 301519403.78496361 240341080.94980574 0 0 0 0 192167664.70300293 270769001.38384438 0 270769001.38384438 484200930.51437473 0 0 0 0 35232878.709933266 7784019.319501657 0 7784019.319501657 -1283292.3714539199 0 0 0 0 -114022901.17724609 236146298.621943 0 236146298.621943 -217787676.3285017 0 0 0 0 15266926.638339899 11374914.508215658 0 11374914.508215658 13782178.395219352 0 0 0 0 -1082392171.3923645 462078124.30293357 0 462078124.30293357 33154810.363849223 0 0 0 0 -526478676.33287811 387636721.67123628 0 387636721.67123628 -6144082.1911888123 0 0 0 0 1280222266.5947571 697229829.42900944 0 697229829.42900944 96458626.401684761 0 0 0 0 1572520958.4929047 863773637.40113354 0 863773637.40113354 175545040.56632805 0 0 0 0 959857117.94607544 992159133.22946262 0 992159133.22946262 258508204.05750084 0 0 0 0 1522261557.8217773 1245913118.3799877 0 1245913118.3799877 -170037808.36980152 0 0 0 0 1170966600.7507629 950026601.00068665 0 950026601.00068665 93485598.581376076 0 0 0 0 1442085796.8797607 1372386915.871839 0 1372386915.871839 334727551.41051865 0 0 0 0 1121878392.7425308 1292255898.6731925 0 1292255898.6731925 548011103.77169228 0 0 0 0 2318729276.1809998 -1345211225.3075485 0 -1345211225.3075485 -2207786539.7979002 0 0 0 0 46292298.849731445 518977067.26578474 0 518977067.26578474 2201174527.0594606 0 0 0 0 13863377.924311213 122534.54424937442 0 122534.54424937442 -644543.66156167944 0 0 0 0 1450121986.6957703 1821484098.9360628 0 1821484098.9360628 800465700.7436614 0 0 0 0 272636708.33192444 2282940086.2429352 0 2282940086.2429352 5775435817.3358631 0 0 0 0 1614885621.743309 1439834625.4447269 0 1439834625.4447269 211051535.30813217 0 0 0 0 -586641523.31396484 2520276841.8996134 0 2520276841.8996134 9553965301.6589985 0 0 0 0 2768659661.1194458 4537079536.9984779 0 4537079536.9984779 3379948312.2743139 0 0 0 0 7042174495.7140808 4451388763.9679222 0 4451388763.9679222 -4235026155.7275772 0 0 0 0 -754188719.98722649 -668568012.39840698 0 -668568012.39840698 -348275112.80947876 0 0 0 0 -38224642.461940922 21488191.504993889 0 21488191.504993889 34883009.179441102 0 0 0 0 576929598.82580566 -510472092.70068932 0 -510472092.70068932 -591539546.29492569 0 0 0 0 -880700652.02626324 -470748614.06824303 0 -470748614.06824303 -241104712.14608765 0 0 0 0 3173655648.336586 -374503015.27245927 0 -374503015.27245927 -2406158026.2531271 0 0 0 0 -336567702.90434074 -420591089.13973236 0 -420591089.13973236 -441689834.23724365 0 0 0 0 -1793078420.5338268 -961426624.55181503 0 -961426624.55181503 -606039665.37569046 0 0 0 0 1739349.09715271 207215390.44882965 0 207215390.44882965 -820344490.16079712 0 0 0 0 -286160076.03016996 -684776124.60356045 0 -684776124.60356045 -672665629.52996826 0 0 0 0 1149207417.1969681 954009740.87182188 0 954009740.87182188 144100498.41135216 0 0 0 0 1300106540.0575562 1104930482.1910238 0 1104930482.1910238 239556472.78052139 0 0 0 0 1175666073.4309387 988092371.87766838 0 988092371.87766838 515469771.23778152 0 0 0 0 984237931.58110809 931798209.17466891 0 931798209.17466891 518104271.11701965 0 0 0 0 1032007610.0881653 778476381.32187557 0 778476381.32187557 156951759.49525267 0 0 0 0 711782490.11456299 758884486.3490181 0 758884486.3490181 547067328.01704407 0 0 0 0 -1191620981.5971832 -1633520627.7815704 0 -1633520627.7815704 -467610049.46972656 0 0 0 0 -827509594.46522141 -1219048177.5973053 0 -1219048177.5973053 206552301.50027466 0 0 0 0 1088055.3707739888 -800731.14311711863 0 -800731.14311711863 -813917.99345961213 0 0 0 0 -40476721.164495394 19233987.345031537 0 19233987.345031537 34127752.284430079 0 0 0 0 580296931.94091797 1022428418.9859753 0 1022428418.9859753 676600526.83752441 0 0 0 0 687533473.61199951 928707219.73353577 0 928707219.73353577 722112824.64891815 0 0 0 0 716656303.92373657 1274539621.3136683 0 1274539621.3136683 361481716.75524139 0 0 0 0 -889983732.45104599 -244746844.64900208 0 -244746844.64900208 10179410.448852539 0 0 0 0 -877327025.83281326 109648381.52331543 0 109648381.52331543 -1647720224.5232239 0 0 0 0 -755591598.4515667 -479185183.56639862 0 -479185183.56639862 -336077189.97668457 0 0 0 0 -717289402.56628799 -696442955.66517639 0 -696442955.66517639 170589831.4881897 0 0 0 0 -875260463.21421623 -1318084125.3031387 0 -1318084125.3031387 749382864.46453857 0 0 0 0 -698409503.74407578 -633990330.2111969 0 -633990330.2111969 271147935.1657486 0 0 0 0 -670791467.82430458 -991501536.4504776 0 -991501536.4504776 1645886099.4143295 0 0 0 0 302060162.67843485 -1399329940.3043728 0 -1399329940.3043728 685870628.29983521 0 0 0 0 -1110474059.9214249 -515270545.17478943 0 -515270545.17478943 140018754.4278717 0 0 0 0 8028557.082180799 2299670.5832795575 0 2299670.5832795575 7989676.9099328145 0 0 0 0 -678933149.65535736 667517998.14618826 0 667517998.14618826 701751.24148201942 0 0 0 0 1373478274.7904663 867440558.00400686 0 867440558.00400686 372364445.44040108 0 0 0 0 2284445785.8144531 700238361.62315845 0 700238361.62315845 383744328.06952286 0 0 0 0 1449075470.451355 929840596.94719982 0 929840596.94719982 266435421.38706374 0 0 0 0 1054766259.3564835 1034777644.1489854 0 1034777644.1489854 909151794.84809875 0 0 0 0 1302515142.575943 1347311860.7171404 0 1347311860.7171404 719327796.50421333 0 0 0 0 1064709130.604126 1044792373.0354557 0 1044792373.0354557 496910637.72121811 0 0 0 0 1236540829.3397827 249649932.29387665 0 249649932.29387665 -164145751.80073118 0 0 0 0 1625381717.8701782 738093647.2702179 0 738093647.2702179 564772241.18190193 0 0 0 0 1136949240.2280884 917223201.08904648 0 917223201.08904648 -263274028.70555496 0 0 0 0 1125842682.5305023 903666460.76645041 0 903666460.76645041 589904954.34708405 0 0 0 0 1168129929.819458 120479497.10083771 0 120479497.10083771 350334191.80826664 0 0 0 0 1615204004.0440521 2082191986.770555 0 2082191986.770555 1808650212.4624214 0 0 0 0 2246957616.854187 1261472385.4457808 0 1261472385.4457808 639520939.23537827 0 0 0 0 4422148911.4936218 1782258640.2366323 0 1782258640.2366323 168148087.01190758 0 0 0 0 -2242067628.0130615 245628546.87310314 0 245628546.87310314 680826011.11208344 0 0 0 0 2670329.148104215 -287552.34470763057 0 -287552.34470763057 2593673.0826931205 0 0 0 0 527201582.9493866 1276453896.3434916 0 1276453896.3434916 878428195.16564655 0 0 0 0 685751856.39053345 828934135.50751305 0 828934135.50751305 2162437263.104136 0 0 0 0 772039534.21124268 946272738.42930412 0 946272738.42930412 248793777.21469879 0 0 0 0 841816409.09887695 625439917.61984205 0 625439917.61984205 689424989.03604889 0 0 0 0 -1494889626.8509865 -66701802.904129028 0 -66701802.904129028 187560603.92514038 0 0 0 0 504021678.49594116 -52321772.596557617 0 -52321772.596557617 562980364.12461662 0 0 0 0 263090595.98248291 471691799.50201988 0 471691799.50201988 627363267.92478943 0 0 0 0 -50015534.763112187 20032751.006893218 0 20032751.006893218 32431724.753373522 0 0 0 0 288794463.44116211 567461200.21845245 0 567461200.21845245 787240043.99812317 0 0 0 0 519600575.03405762 756226245.51031876 0 756226245.51031876 886114453.46385956 0 0 0 0 1107170425.3137817 642866731.67666245 0 642866731.67666245 760389098.67634583 0 0 0 0 459213141.32703018 217613854.75420237 0 217613854.75420237 920848444.57849121 0 0 0 0 1087922799.6120605 611440061.7542305 0 611440061.7542305 1269535586.9857368 0 0 0 0 911527806.62811279 227918096.84950161 0 227918096.84950161 843009165.67809296 0 0 0 0 -1333012116.4191818 -89200691.944458008 0 -89200691.944458008 60620433.093902588 0 0 0 0 -1187943700.8708935 106047370.09078217 0 106047370.09078217 -177068949.63166046 0 0 0 0 301150501.76932526 739630758.46832991 0 739630758.46832991 -714992154.51750183 0 0 0 0 598259189.31066895 276466928.94359779 0 276466928.94359779 66458442.591140747 0 0 0 0 -8539761.7145683169 -50333.074017100036 0 -50333.074017100036 6446337.3758214992 0 0 0 0 -31940268.66025015 38227594.779089794 0 38227594.779089794 25261872.401685614 0 0 0 0 243646243.22201538 308166049.5031662 0 308166049.5031662 169775417.70342255 0 0 0 0 285872107.1647644 473654902.74710464 0 473654902.74710464 38033215.053025246 0 0 0 0 -108352891.7111969 412412174.54532123 0 412412174.54532123 354124257.42801285 0 0 0 0 426229706.03201294 768509792.4965744 0 768509792.4965744 567165392.60360336 0 0 0 0 -861443100.03359604 71755611.651077271 0 71755611.651077271 585877635.0777359 0 0 0 0 -133543332.88302088 255590824.18271446 0 255590824.18271446 815339945.91162109 0 0 0 0 -590196801.93735123 -175262047.9081955 0 -175262047.9081955 454574816.41460419 0 0 0 0 -1023700894.5821838 8198866.4923400879 0 8198866.4923400879 414335507.06989288 0 0 0 0 -637265153.48930502 20661465.786190033 0 20661465.786190033 183546455.96975708 0 0 0 0 -1039748295.4941759 116856038.07067108 0 116856038.07067108 -208818383.95993042 0 0 0 0 -1559585796.0128956 266514164.29421234 0 266514164.29421234 -21933092.814544678 0 0 0 0 -1360926945.0271111 -13226945.094612122 0 -13226945.094612122 345478199.69396973 0 0 0 0 -1081937422.6530876 54317590.964630127 0 54317590.964630127 183050453.03564453 0 0 0 0 -1316183306.9728012 141021272.87771606 0 141021272.87771606 284414544.10568237 0 0 0 0 -1001590334.6578426 258046932.21595764 0 258046932.21595764 408355815.25165558 0 0 0 0 -1029181174.5349488 441500397.54013062 0 441500397.54013062 44646539.995452881 0 0 0 0 -1059717894.1269569 372945610.58512878 0 372945610.58512878 -61226141.944519043 0 0 0 0 -979806864.75775862 263345638.70581818 0 263345638.70581818 296688689.24650574 0 0 0 0 -1171650491.0556526 237761152.99272919 0 237761152.99272919 353555040.40494537 0 0 0 0 -517837067.20209503 387208904.42032623 0 387208904.42032623 215246981.17321777 0 0 0 0 -385561101.36930919 -192284812.08256245 0 -192284812.08256245 748559264.5791626 0 0 0 0 -160849790.02676105 -144206525.57046509 0 -144206525.57046509 629499325.51059723 0 0 0 0 413213782.25295973 -652682284.75673485 0 -652682284.75673485 835959262.97397614 0 0 0 0 425891860.24845314 -90117496.980609894 0 -90117496.980609894 1239733092.4694977 0 0 0 0 816795403.07911682 566203059.74229431 0 566203059.74229431 796244489.44130707 0 0 0 0 -276890007.80070114 -111661037.95931816 0 -111661037.95931816 1549290289.5261383 0 0 0 0 2383373410.7319775 2412368829.720829 0 2412368829.720829 2500770890.3046188 0 0 0 0 560529734.57113457 761953181.59520721 0 761953181.59520721 1057879333.3410645 0 0 0 0 4870102717.6977367 983588242.89151001 0 983588242.89151001 -20939119.588916779 0 0 0 0 1208253130.1087532 237346381.30891418 0 237346381.30891418 81931660.267700195 0 0 0 0 734426.66033707513 3065971.5949233519 0 3065971.5949233519 6096068.9896794483 0 0 0 0 56006859.421642303 -1006470432.337532 0 -1006470432.337532 3657767239.1690216 0 0 0 0 31426875.710730553 2022874179.7085571 0 2022874179.7085571 4628918855.0130424 0 0 0 0 4812228073.3208065 401241057.00073242 0 401241057.00073242 827187408.96294403 0 0 0 0 -453618122.83191681 49785482.227050781 0 49785482.227050781 4055304813.3909798 0 0 0 0 1786692036.5767622 -1041519988.0789433 0 -1041519988.0789433 -1668688278.3606262 0 0 0 0 9725783.3008027822 562370.62010996416 0 562370.62010996416 -1852718.2843701653 0 0 0 0 -535451490.81892395 409609338.58682823 0 409609338.58682823 948574765.8968811 0 0 0 0 4040496.4762716293 -53750919.822925568 0 -53750919.822925568 -170207902.76432419 0 0 0 0 8282012.8493465185 -14543116.170467377 0 -14543116.170467377 -151076186.42709541 0 0 0 0 1846673.1722393036 -241542036.04838181 0 -241542036.04838181 -415020249.22329712 0 0 0 0 98421665.093510389 -75792514.265323639 0 -75792514.265323639 -430787516.45181274 0 0 0 0 -126184024.79004955 -657604035.8550415 0 -657604035.8550415 -1031114612.0728111 0 0 0 0 -291815519.88015079 -229673169.21024323 0 -229673169.21024323 -322101255.55522156 0 0 0 0 719029895.2223382 -259476536.01980591 0 -259476536.01980591 -517350009.15571594 0 0 0 0 93412329.412452459 251001627.27676392 0 251001627.27676392 124638403.10093689 0 0 0 0 -200274536.76407623 -932223653.8509903 0 -932223653.8509903 736079851.46266937 0 0 0 0 3894811.1745914943 -206670.91964146495 0 -206670.91964146495 -433349.68703005835 0 0 0 0 -1106636334.018055 -174404498.09667206 0 -174404498.09667206 1429469703.2049217 0 0 0 0 -127068070.82495308 167759860.51729202 0 167759860.51729202 779274905.23035431 0 0 0 0 -429103648.32252121 110862720.4744339 0 110862720.4744339 223031985.25052643 0 0 0 0 13995074.603835106 309886210.32995987 0 309886210.32995987 490286673.64096832 0 0 0 0 2523642.8015989754 4212619.5530560277 0 4212619.5530560277 -56768.286720193923 0 0 0 0 -236093760.0298748 -280326623.86087227 0 -280326623.86087227 -110056552.47291565 0 0 0 0 -76395938.312456131 659581901.92024994 0 659581901.92024994 1005975523.82658 0 0 0 0 310627079.50294304 941650809.8636322 0 941650809.8636322 1097912650.85956 0 0 0 0 -108263371.28993988 415375406.66107941 0 415375406.66107941 1244163646.4162598 0 0 0 0 -56655123.733443856 313602773.66011047 0 313602773.66011047 690680043.25169373 0 0 0 0 -98176422.585179925 249396436.41833496 0 249396436.41833496 299379625.75030518 0 0 0 0 190902532.10416412 -426914227.78572083 0 -426914227.78572083 510470498.09329224 0 0 0 0 -69391774.906326294 1407435351.2627411 0 1407435351.2627411 1869553430.3472939 0 0 0 0 -211033928.54065084 -14751030.31937027 0 -14751030.31937027 2662323143.6802521 0 0 0 0 341890210.15500498 1287606471.6321335 0 1287606471.6321335 1259823889.6898804 0 0 0 0 10145888.779374363 2462261.0735604912 0 2462261.0735604912 -2817888.1852319501 0 0 0 0 1420231335.7777627 602158569.42232895 0 602158569.42232895 -914518109.07397461 0 0 0 0 4636313.4700361732 2154029.8995668218 0 2154029.8995668218 -1715996.2750943583 0 0 0 0 488313387.16463852 1410421789.7356377 0 1410421789.7356377 1348307721.1842232 0 0 0 0 66004400.750141144 1152706779.0652466 0 1152706779.0652466 1352852512.4192657 0 0 0 0 42942839.841822624 615912152.09203339 0 615912152.09203339 937378289.34584045 0 0 0 0 1025531021.2341461 884789431.10623932 0 884789431.10623932 921777625.82494426 0 0 0 0 -74584013.707080841 610725091.51490402 0 610725091.51490402 1012847308.7633362 0 0 0 0 208385414.61435413 205841425.86473083 0 205841425.86473083 1222620220.0064316 0 0 0 0 741602274.72785091 509161603.35403061 0 509161603.35403061 -12995318.157073975 0 0 0 0 -152504450.67746353 573924511.44181442 0 573924511.44181442 523735448.47256279 0 0 0 0 -870682720.0561161 278929362.11487293 0 278929362.11487293 434602631.62012482 0 0 0 0 -155949923.15838528 697077573.52831078 0 697077573.52831078 1177315183.013382 0 0 0 0 551054731.20055389 -304854612.01102257 0 -304854612.01102257 -275111929.74106598 0 0 0 0 245271891.6041441 -59997401.84506321 0 -59997401.84506321 -421491348.58791351 0 0 0 0 103016439.89616776 -247567034.81666946 0 -247567034.81666946 88386665.885690689 0 0 0 0 15176575.309006214 -63147722.728649139 0 -63147722.728649139 -192560216.12590027 0 0 0 0 8614131.2264723778 -149464434.11548996 0 -149464434.11548996 -130794615.12327194 0 0 0 0 205939668.46426964 -202683264.10497665 0 -202683264.10497665 -291937711.88476562 0 0 0 0 42150034.41069746 -85459868.755194664 0 -85459868.755194664 -367853789.11512756 0 0 0 0 32458008.014072418 -78596155.874717712 0 -78596155.874717712 -397540538.73884964 0 0 0 0 17022437.310284615 25519671.681541443 0 25519671.681541443 -511317213.80887413 0 0 0 0 65389339.606063366 145623226.68998623 0 145623226.68998623 -377866838.6313324 0 0 0 0 92084077.114702225 180793574.51272202 0 180793574.51272202 -510910277.06156921 0 0 0 0 165949452.73822021 -82546204.552570343 0 -82546204.552570343 -456515053.90311432 0 0 0 0 121125806.00747108 -37999185.062137604 0 -37999185.062137604 -418129092.33544159 0 0 0 0 308436639.41490936 -22246058.177570343 0 -22246058.177570343 -953408827.51989746 0 0 0 0 -151836779.10811424 -133021619.32769394 0 -133021619.32769394 -459214894.18172455 0 0 0 0 -108715187.27918243 427077410.25542068 0 427077410.25542068 -794772963.44945431 0 0 0 0 -759748434.73020077 1099931026.7512283 0 1099931026.7512283 -1860277334.3506241 0 0 0 0 -56193425.504295349 318481400.84444618 0 318481400.84444618 -312972060.37358093 0 0 0 0 -1023057089.5214353 -525378640.18722248 0 -525378640.18722248 -1048530826.7554626 0 0 0 0 -196975783.30105495 -214038608.13813782 0 -214038608.13813782 -113528884.88768005 0 0 0 0 -70647079.403773904 -240232055.48679733 0 -240232055.48679733 -385227853.77534485 0 0 0 0 1947689.428448606 -471369.65122165345 0 -471369.65122165345 -1901428.6344303191 0 0 0 0 -253223037.1150589 -344192851.5872345 0 -344192851.5872345 -201572114.87670898 0 0 0 0 -707820291.78810501 -172840633.65023804 0 -172840633.65023804 -247237004.30451965 0 0 0 0 -353188221.39787292 -224097452.31695557 0 -224097452.31695557 -294230416.81137085 0 0 0 0 -167967531.41257477 -326739922.20425415 0 -326739922.20425415 -362576764.6295166 0 0 0 0 -497857466.9697752 -264882706.60430145 0 -264882706.60430145 -309180378.24290466 0 0 0 0 2820766.4212333374 -1198542.4218505286 0 -1198542.4218505286 -2376723.1571299881 0 0 0 0 -702244144.47298431 -360228504.81762695 0 -360228504.81762695 -185496074.1399231 0 0 0 0 -391035455.09997749 -412274348.15511322 0 -412274348.15511322 -212610935.83666992 0 0 0 0 -873893404.48196471 -248337188.7382977 0 -248337188.7382977 -117219927.37969971 0 0 0 0 -115722377.54022521 -82795755.197963715 0 -82795755.197963715 -330158991.66555023 0 0 0 0 19979330.612554073 -54961687.665565491 0 -54961687.665565491 -276536439.76396179 0 0 0 0 -47731288.587844849 -154680217.53348923 0 -154680217.53348923 -253613154.87967491 0 0 0 0 -436208.26748800278 -116279032.53713799 0 -116279032.53713799 -245413809.84322357 0 0 0 0 -47777143.27192682 -167747949.78898239 0 -167747949.78898239 -206499700.9822464 0 0 0 0 -136903141.50278401 -76124769.979598999 0 -76124769.979598999 -162925356.89169693 0 0 0 0 -45658835.412911415 -86538373.05210495 0 -86538373.05210495 -353597477.69748688 0 0 0 0 -53928963.930851698 -125798639.65671539 0 -125798639.65671539 -349736935.91237068 0 0 0 0 -36241127.748405457 -119103814.00222397 0 -119103814.00222397 -244196441.77984715 0 0 0 0 55480091.396943569 -129885328.3866148 0 -129885328.3866148 -366618391.07376862 0 0 0 0 -9970343.4896039963 -57069786.767662048 0 -57069786.767662048 -407101166.86564636 0 0 0 0 -12434954.987742424 -83705698.595451355 0 -83705698.595451355 -384536045.64920425 0 0 0 0 -5135468.7399859428 -99352698.160892487 0 -99352698.160892487 -359427541.69270325 0 0 0 0 -74725144.361577511 -74190386.241436005 0 -74190386.241436005 -365498948.92061234 0 0 0 0 -76156456.413041592 -118891421.92019653 0 -118891421.92019653 -333921405.98332977 0 0 0 0 -16915883.86873873 -6234892.3741143905 0 -6234892.3741143905 9580903.1184863113 0 0 0 0 -68962828.581448078 -98284976.491210938 0 -98284976.491210938 -322309305.07674026 0 0 0 0 -337499598.79562378 147898243.28468466 0 147898243.28468466 8390724.6032409668 0 0 0 0 -46148093.884816498 46701950.090227775 0 46701950.090227775 7846648.0363088958 0 0 0 0 -93905156.024701357 -195650994.73544884 0 -195650994.73544884 -657858726.43466187 0 0 0 0 -304491106.62103081 345918797.14998627 0 345918797.14998627 -504000392.99260712 0 0 0 0 -25493961.349252701 -106122399.52741623 0 -106122399.52741623 -90335259.939048767 0 0 0 0 -3898725.2403533002 -1390831.3481970951 0 -1390831.3481970951 1542571.0413043946 0 0 0 0 -449913318.91447258 -263249617.30859375 0 -263249617.30859375 -72246007.394515991 0 0 0 0 -530617848.69210243 154938016.10496521 0 154938016.10496521 -402399343.78989792 0 0 0 0 -789702628.5329628 -307497212.09771538 0 -307497212.09771538 531892034.36251831 0 0 0 0 -290251836.14283943 -369589659.2744751 0 -369589659.2744751 -70079718.168395996 0 0 0 0 -21325801.457725048 -210188116.77435303 0 -210188116.77435303 -190187511.90396118 0 0 0 0 -43541477.646841489 31949539.419924513 0 31949539.419924513 28887948.538678613 0 0 0 0 -691261316.773983 -1023706455.5316277 0 -1023706455.5316277 1459845333.3118896 0 0 0 0 -261714276.19876671 -375030308.79099274 0 -375030308.79099274 -134782154.11230469 0 0 0 0 -250394235.15708542 -445631338.25346375 0 -445631338.25346375 574927.53673553467 0 0 0 0 1430921860.0685425 943751307.19996643 0 943751307.19996643 -776841528.49257278 0 0 0 0 -427664971.94689941 718862585.60273743 0 718862585.60273743 -259780846.19962311 0 0 0 0 522023848.16665649 255542818.0304184 0 255542818.0304184 -133059943.07270813 0 0 0 0 624331372.23623657 374044337.52680206 0 374044337.52680206 -237412528.54444122 0 0 0 0 778923257.06719971 94578161.452384949 0 94578161.452384949 -84267750.603103638 0 0 0 0 770416564.58493042 263140462.27329254 0 263140462.27329254 -256103449.95967102 0 0 0 0 26601974.221755981 149666276.02001953 0 149666276.02001953 -210226747.69976044 0 0 0 0 35662549.731633097 19633879.562647037 0 19633879.562647037 -7546045.9822046831 0 0 0 0 -520269369.64728165 233900711.28080559 0 233900711.28080559 1355524732.2384033 0 0 0 0 118736916.4662323 6111556.4081420898 0 6111556.4081420898 1082794296.3942051 0 0 0 0 -304749576.89222717 206601521.01086426 0 206601521.01086426 562885302.13111877 0 0 0 0 493179520.41151428 455970648.38768005 0 455970648.38768005 462729970.7177124 0 0 0 0 60853227.162719727 617953416.95437622 0 617953416.95437622 917609815.97253036 0 0 0 0 -1812538830.1564636 610664526.68644714 0 610664526.68644714 811161977.93843842 0 0 0 0 1481046.9694374241 1412022.5966128372 0 1412022.5966128372 -1036410.0709530711 0 0 0 0 650061615.84092712 882048537.12184906 0 882048537.12184906 710422231.25280762 0 0 0 0 292179785.65694809 47686535.635875702 0 47686535.635875702 1383030099.4978714 0 0 0 0 1190312454.8870621 807209652.05324554 0 807209652.05324554 700655186.44526672 0 0 0 0 -62470050.814575195 159731032.34712982 0 159731032.34712982 -54401613.297715187 0 0 0 0 -74245991.334718227 -83223953.157907486 0 -83223953.157907486 143454090.15579224 0 0 0 0 -57042153.556481473 41084943.151442617 0 41084943.151442617 3152689.1459335452 0 0 0 0 -2201468.8889547009 13765491.031426093 0 13765491.031426093 -1631500.8380155629 0 0 0 0 -31411092.54747963 113797250.49020386 0 113797250.49020386 -21587729.789078712 0 0 0 0 16917871.269046783 -100851634.07205868 0 -100851634.07205868 -3400725.9473571777 0 0 0 0 -46620847.783733599 27781829.623872273 0 27781829.623872273 -11391081.842933267 0 0 0 0 579335728.40258789 377544304.20969009 0 377544304.20969009 -87636263.630355835 0 0 0 0 -211105698.53500366 430864271.36246872 0 430864271.36246872 1207712236.2038574 0 0 0 0 -10646209.962648153 4901399.8572058976 0 4901399.8572058976 12969732.498476073 0 0 0 0 332714073.69949341 1787068689.4258728 0 1787068689.4258728 871976517.11053467 0 0 0 0 591898117.52445984 1300820316.8317375 0 1300820316.8317375 1706723212.625061 0 0 0 0 -409915946.76690674 -24288046.502075195 0 -24288046.502075195 287978465.46884918 0 0 0 0 575579935.66679382 -361696856.4698143 0 -361696856.4698143 -251397942.92871094 0 0 0 0 1214957858.8623199 654169322.75047302 0 654169322.75047302 119830837.95405579 0 0 0 0 -77890463.124633789 64596715.579345703 0 64596715.579345703 -111911250.63890076 0 0 0 0 140854589.34475708 871395441.14898682 0 871395441.14898682 1090494552.6244125 0 0 0 0 449697355.89532471 482118409.22040558 0 482118409.22040558 -100309187.38677979 0 0 0 0 -218587285.66145325 362449375.38970947 0 362449375.38970947 553975358.573349 0 0 0 0 -177026006.02437782 887092018.67579556 0 887092018.67579556 2415772231.4253998 0 0 0 0 2411402.0252856538 6220843.8479298502 0 6220843.8479298502 3082372.725503508 0 0 0 0 48182841.272777557 216680429.35245419 0 216680429.35245419 -242319412.04768372 0 0 0 0 -81920840.432128906 320850180.60943604 0 320850180.60943604 -262114548.35856819 0 0 0 0 9760026.2862392217 -53313.936218965799 0 -53313.936218965799 -6135717.7268384881 0 0 0 0 43845027.426315308 252257635.87176895 0 252257635.87176895 -507256096.14068604 0 0 0 0 552256.61880493164 11691986.46021843 0 11691986.46021843 -14308948.32131958 0 0 0 0 5111543.5766334236 4825132.3972644322 0 4825132.3972644322 305987.86065264419 0 0 0 0 156636364.95451355 -112246567.65653992 0 -112246567.65653992 -304616369.81999207 0 0 0 0 -126140.00674438477 8638427.0333557129 0 8638427.0333557129 -28005901.331848145 0 0 0 0 11528931.341334302 6817603.6013553478 0 6817603.6013553478 -2524205.1341289505 0 0 0 0 -162885.34448242188 9512497.7193756104 0 9512497.7193756104 -14080201.820081711 0 0 0 0 -489821064.06942749 406774195.19137573 0 406774195.19137573 -671044893.88800049 0 0 0 0 11780110.818596866 10076135.227413401 0 10076135.227413401 -5095287.9475337118 0 0 0 0 53394331.71194458 663706102.87635803 0 663706102.87635803 -939194096.97038269 0 0 0 0 -14474968.035980225 2396035.9027862549 0 2396035.9027862549 8122598.0566482544 0 0 0 0 1629825.3427317515 1223681.5037288368 0 1223681.5037288368 -619898.72879989818 0 0 0 0 -261339048.86038971 553577266.99266052 0 553577266.99266052 -521766731.51167297 0 0 0 0 4067529.6287918091 781417126.71100235 0 781417126.71100235 -388054776.93305969 0 0 0 0 -260566366.92150879 404069260.52841187 0 404069260.52841187 -109881080.46091461 0 0 0 0 435104840.55657578 235408371.38688278 0 235408371.38688278 -459780054.17553711 0 0 0 0 310733238.92614937 590761475.75148678 0 590761475.75148678 481629038.00080872 0 0 0 0 322956263.80771446 609081807.0436039 0 609081807.0436039 -41766017.658660889 0 0 0 0 5295297.8029907811 4439753.0738754123 0 4439753.0738754123 -5624199.5004139245 0 0 0 0 -329271574.21707153 -233191151.17092896 0 -233191151.17092896 -40196482.545822144 0 0 0 0 -306046934.33326113 341982369.09252393 0 341982369.09252393 -204631104.37382507 0 0 0 0 -419197736.74371338 863532428.66053772 0 863532428.66053772 -370280225.21117783 0 0 0 0 -1008699957.3083572 763516289.16584015 0 763516289.16584015 -263236131.76123047 0 0 0 0 -734680726.86471891 635619539.05651498 0 635619539.05651498 -104856900.65660095 0 0 0 0 -246379795.7768364 486943819.70928574 0 486943819.70928574 -610419372.57059097 0 0 0 0 -314593669.77399158 332648860.79073906 0 332648860.79073906 -539970005.32994843 0 0 0 0 -247597327.60782957 433280135.06355 0 433280135.06355 -182761226.34188843 0 0 0 0 -157070000.79884529 436055042.31257629 0 436055042.31257629 -194893500.89965248 0 0 0 0 -180093423.67782021 452487804.43725204 0 452487804.43725204 -2303708.7221670151 0 0 0 0 -547806845.01219177 277047845.66427994 0 277047845.66427994 -184663447.00517273 0 0 0 0 -42589614.470746547 30714300.19278387 0 30714300.19278387 -16826457.430085398 0 0 0 0 -42273873.794898987 212940749.48077202 0 212940749.48077202 -53510693.424919128 0 0 0 0 -80613330.298276901 351564699.02002716 0 351564699.02002716 -508887024.90174866 0 0 0 0 -30331712.515686989 87148555.822532654 0 87148555.822532654 -349279543.38864899 0 0 0 0 -243921429.59509277 -125113527.10050964 0 -125113527.10050964 -200227722.62345886 0 0 0 0 3164611282.3688202 1387908610.6736603 0 1387908610.6736603 16441445.668741226 0 0 0 0 1821354832.1237946 -920107301.28611755 0 -920107301.28611755 -2115026058.6977539 0 0 0 0 2401302674.6482544 3859389368.337204 0 3859389368.337204 749589649.80764771 0 0 0 0 3564746.5522997081 1752468.923836004 0 1752468.923836004 -668224.01634263992 0 0 0 0 -172393552.6965332 -238903588.01734924 0 -238903588.01734924 -184770262.51277161 0 0 0 0 -1836993434.3887558 1852174723.2296219 0 1852174723.2296219 547034690.00746918 0 0 0 0 915232037.28518677 762088306.2015686 0 762088306.2015686 -532655275.6179657 0 0 0 0 -313009319.42660522 854440708.78245544 0 854440708.78245544 -521987550.21503544 0 0 0 0 3166109.3513131142 7178023.3366373926 0 7178023.3366373926 -4638301.0643176362 0 0 0 0 -2963574097.4159164 175110251.23374939 0 175110251.23374939 403584957.32849121 0 0 0 0 -5649987669.8430786 611336437.16430664 0 611336437.16430664 6562468.2170562744 0 0 0 0 732758106.23928833 134132126.7582016 0 134132126.7582016 -106073012.88997364 0 0 0 0 -40661124.433144853 32386168.742786855 0 32386168.742786855 -16048803.76356329 0 0 0 0 -304828526.11372185 574172874.34332085 0 574172874.34332085 163853811.60227394 0 0 0 0 758982450.21614838 306543523.73887634 0 306543523.73887634 -107669094.45571136 0 0 0 0 -341717522.07329559 123062948.07367897 0 123062948.07367897 168692076.37844086 0 0 0 0 -156325507.84173965 398057222.08726883 0 398057222.08726883 -9632560.7585029602 0 0 0 0 264185318.44717407 207820234.11782837 0 207820234.11782837 92586417.7227211 0 0 0 0 192665082.73246765 317215903.79946518 0 317215903.79946518 183640455.3840332 0 0 0 0 145069001.24772644 108737427.92883301 0 108737427.92883301 146182627.28593063 0 0 0 0 104179033.27783203 163462296.06906891 0 163462296.06906891 84904575.39755249 0 0 0 0 -116619173.4112854 68754381.681247711 0 68754381.681247711 107598899.90739441 0 0 0 0 -47413788.56586647 398242509.81499195 0 398242509.81499195 131091090.96849823 0 0 0 0 268801323.75583076 412953691.67844772 0 412953691.67844772 63623802.122245789 0 0 0 0 12099258.004612755 26027596.408333682 0 26027596.408333682 -10676174.69721888 0 0 0 0 533398708.94655609 286027521.37482071 0 286027521.37482071 32757653.190355301 0 0 0 0 -325650407.52366638 52703298.454536438 0 52703298.454536438 3984444.2434082031 0 0 0 0 192194667.40991211 299221879.83982849 0 299221879.83982849 89188440.287185669 0 0 0 0 -124616531.47583008 -48608414.534301758 0 -48608414.534301758 45752517.766830444 0 0 0 0 -116292289.10919189 -43355662.793212891 0 -43355662.793212891 47294507.470214844 0 0 0 0 -78721795.606201172 -6431113.9622192383 0 -6431113.9622192383 42911185.405914307 0 0 0 0 -183792821.92541504 1591084.6311645508 0 1591084.6311645508 44165572.73651123 0 0 0 0 -186513362.49304199 -28594017.860321045 0 -28594017.860321045 39506523.536682129 0 0 0 0 -219839193.06738281 -4881381.0656738281 0 -4881381.0656738281 49669608.542633057 0 0 0 0 -119669331.87848186 124576413.08758974 0 124576413.08758974 49239944.952728271 0 0 0 0 -240473048.7671814 103474840.24066162 0 103474840.24066162 29863825.552947998 0 0 0 0 -121835452.97494507 53167837.284606934 0 53167837.284606934 49830849.039276123 0 0 0 0 -126900376.66351318 63780007.554534912 0 63780007.554534912 67133287.988525391 0 0 0 0 24137085.010719299 197612061.28003693 0 197612061.28003693 -71201425.539245605 0 0 0 0 -84897109.434020996 82575548.95098877 0 82575548.95098877 5519656.3296966553 0 0 0 0 -212422618.15332794 248633506.43540192 0 248633506.43540192 -70353255.60458374 0 0 0 0 -126907255.27587891 132247852.36526489 0 132247852.36526489 -43282663.742584229 0 0 0 0 -155223932.0776825 129810468.36338806 0 129810468.36338806 -43303360.704459548 0 0 0 0 -373759687.92581177 392688212.24194336 0 392688212.24194336 -51948906.683853149 0 0 0 0 -378814183.08204269 310126881.73201466 0 310126881.73201466 -180010448.77352905 0 0 0 0 125154912.94288635 467019023.32940674 0 467019023.32940674 -530228398.5891571 0 0 0 0 -396859659.03652954 686958956.34564209 0 686958956.34564209 -266703830.65792847 0 0 0 0 -635270275.59507751 714610586.89896393 0 714610586.89896393 -255446841.14785767 0 0 0 0 -396871119.15773964 689293996.03402996 0 689293996.03402996 -313057108.06283569 0 0 0 0 3293974.9112720415 3107708.3537715981 0 3107708.3537715981 -3676047.4907384664 0 0 0 0 430895504.00965786 202385881.09238338 0 202385881.09238338 -7448925.9310913086 0 0 0 0 425503589.9030304 153798168.62854767 0 153798168.62854767 -230217072.62329102 0 0 0 0 88836727.461669922 112381069.77056122 0 112381069.77056122 40924249.486724854 0 0 0 0 195209689.05937195 -84310983.656570435 0 -84310983.656570435 -349738525.05249023 0 0 0 0 421542517.76628876 63899586.222251892 0 63899586.222251892 -56648436.858169556 0 0 0 0 2423565.5597175136 3867005.8074258305 0 3867005.8074258305 -1476855.461196363 0 0 0 0 174212483.44927979 215953830.32078552 0 215953830.32078552 25341478.047855377 0 0 0 0 163481872.3821106 -3058702.6944122314 0 -3058702.6944122314 20953992.838241577 0 0 0 0 139653905.4557457 22812362.311611176 0 22812362.311611176 -36992530.791625977 0 0 0 0 55206166.448280334 60823575.533409119 0 60823575.533409119 19122742.292388916 0 0 0 0 84262607.199478149 62833779.030075073 0 62833779.030075073 -61294386.465515137 0 0 0 0 -49421910.690811157 79984724.721153259 0 79984724.721153259 35415843.531845093 0 0 0 0 -34070225.582702637 92451604.179779053 0 92451604.179779053 65038147.045471191 0 0 0 0 74630954.196792603 144662531.8759079 0 144662531.8759079 61921085.945343018 0 0 0 0 -1675920.815612793 79172483.126403809 0 79172483.126403809 30950346.197982788 0 0 0 0 -26126665.105712891 124975136.1187439 0 124975136.1187439 47012577.499389648 0 0 0 0 21390245.753097534 84153117.451301575 0 84153117.451301575 54928025.578826904 0 0 0 0 -84550238.496124268 55951851.941825867 0 55951851.941825867 67687003.216491699 0 0 0 0 -67153455.211791992 57962702.55569458 0 57962702.55569458 62890359.548957825 0 0 0 0 17276965.725387573 21974297.935775757 0 21974297.935775757 10142595.354064941 0 0 0 0 1277502.2348772548 36912259.075527698 0 36912259.075527698 22090043.156389982 0 0 0 0 15936762.221214294 49976956.603923798 0 49976956.603923798 15458345.234313965 0 0 0 0 -22476544.397979736 -5855216.8673248291 0 -5855216.8673248291 37504276.897460938 0 0 0 0 16421935.603519622 17925810.419336848 0 17925810.419336848 -20242755.773004472 0 0 0 0 137251596.36856079 218420071.88015747 0 218420071.88015747 172611769.03579712 0 0 0 0 31363627.714941714 56502276.226137407 0 56502276.226137407 -16118191.87133719 0 0 0 0 -27019172.847442627 74274421.344772339 0 74274421.344772339 2014828.4917907715 0 0 0 0 5377806.000729084 -100142918.79914856 0 -100142918.79914856 -724426597.48565674 0 0 0 0 26317958.430147171 -27082035.608840942 0 -27082035.608840942 -538056044.41287231 0 0 0 0 -35807897.677696228 113518349.65844154 0 113518349.65844154 13303465.079498291 0 0 0 0 34062332.367009431 53550661.02152735 0 53550661.02152735 29909901.519409865 0 0 0 0 -382497986.98154736 109119569.07785034 0 109119569.07785034 342782290.80926514 0 0 0 0 -66896.269462676952 25308921.20693697 0 25308921.20693697 14016972.084428638 0 0 0 0 49128013.901588663 28933385.489158139 0 28933385.489158139 -76680251.508208752 0 0 0 0 443104661.67328453 756387090.73764038 0 756387090.73764038 -141946542.12837219 0 0 0 0 52602833.414471395 28461613.29699304 0 28461613.29699304 -76857004.624322578 0 0 0 0 123285109.70672607 168122448.96412659 0 168122448.96412659 -49481236.488815308 0 0 0 0 221656835.85494995 250983243.44345856 0 250983243.44345856 -22113927.249401093 0 0 0 0 96000212.439086914 122438503.24138641 0 122438503.24138641 156940956.87327576 0 0 0 0 324819849.54170227 111318886.11735535 0 111318886.11735535 -193034485.56163025 0 0 0 0 106799116.81596804 175592353.01556396 0 175592353.01556396 -88088474.481628418 0 0 0 0 130016674.8977952 51811989.681015253 0 51811989.681015253 -111714066.39675903 0 0 0 0 136815374.06068993 219393103.67250633 0 219393103.67250633 315259878.66256714 0 0 0 0 11416184.859206833 698649.1495317826 0 698649.1495317826 -14719546.565110281 0 0 0 0 -5656308.4066314697 23222196.855232239 0 23222196.855232239 -61429943.642196655 0 0 0 0 15091402.990487732 19162136.84932559 0 19162136.84932559 652272.63760051876 0 0 0 0 -27601325.622413635 -46683498.192832947 0 -46683498.192832947 90940057.916519165 0 0 0 0 -120016020.91732788 62090770.390533447 0 62090770.390533447 53799309.344657898 0 0 0 0 -13829100.012252808 -94172707.525604248 0 -94172707.525604248 -4828410.1875076294 0 0 0 0 171429513.68421936 -70636983.463500977 0 -70636983.463500977 -38259379.971954346 0 0 0 0 -131460377.6690979 26360855.085835457 0 26360855.085835457 3363142.0401763916 0 0 0 0 -107723094.30226135 -24863769.688114166 0 -24863769.688114166 -3212161.9784469604 0 0 0 0 -3695750.1249068603 795604.22801859304 0 795604.22801859304 -69931.329824380577 0 0 0 0 -81984005.909408569 17317394.00535202 0 17317394.00535202 -94556.98664855957 0 0 0 0 -74886439.286560059 195151157.72190857 0 195151157.72190857 -125970611.38896179 0 0 0 0 50138429.858901978 -137665163.2537384 0 -137665163.2537384 163398006.12632084 0 0 0 0 -152095323.01159477 74319493.953458786 0 74319493.953458786 184669528.56033325 0 0 0 0 -893118982.2949295 946474974.20628357 0 946474974.20628357 -445719593.58983612 0 0 0 0 92702539.830200195 592016811.87120056 0 592016811.87120056 -407473813.39929199 0 0 0 0 2636889.3345419168 604356.57427001558 0 604356.57427001558 -3455323.8934296444 0 0 0 0 -765490220.5680542 779599421.57991791 0 779599421.57991791 -723581160.92869568 0 0 0 0 -831853783.71293259 1103983552.8200531 0 1103983552.8200531 -998112024.47070312 0 0 0 0 -55852302.368942261 52997128.359512329 0 52997128.359512329 48605330.59475708 0 0 0 0 -646177464.69456482 669762082.86383057 0 669762082.86383057 -992360501.78420234 0 0 0 0 2647528.9444445744 1505140.0025278516 0 1505140.0025278516 -5447667.3037697822 0 0 0 0 -406758030.05434036 741424493.82773972 0 741424493.82773972 -874824893.4458313 0 0 0 0 -1073156168.0369949 1043246519.7984962 0 1043246519.7984962 -705922404.41864014 0 0 0 0 -879567961.99125671 298626063.95211792 0 298626063.95211792 -40362385.362281799 0 0 0 0 -793279236.86840057 789035160.50834656 0 789035160.50834656 -373414964.09391785 0 0 0 0 277473453.79734802 146259195.96047974 0 146259195.96047974 -343790511.31575012 0 0 0 0 5078576.9392071702 4729381.4194599641 0 4729381.4194599641 -5655512.7891612649 0 0 0 0 -11638656.584022522 119992938.34307098 0 119992938.34307098 -400861655.62753296 0 0 0 0 -321337750.18965149 216024039.40117645 0 216024039.40117645 250655686.71676636 0 0 0 0 5886244.3691144884 8487625.7829505205 0 8487625.7829505205 -2421909.0022369176 0 0 0 0 -299953215.90683746 564449471.2363205 0 564449471.2363205 -127349711.77258301 0 0 0 0 -697868482.84548187 447465290.823349 0 447465290.823349 -586277139.66937256 0 0 0 0 -229287015.49871063 636064387.82650375 0 636064387.82650375 -539417780.11221313 0 0 0 0 -281336488.84238434 279848098.74089813 0 279848098.74089813 -289169205.45846558 0 0 0 0 -3982583.9220129624 2078461.8280122429 0 2078461.8280122429 -2274749.4665045515 0 0 0 0 -990516971.67677879 1012123522.8195133 0 1012123522.8195133 -600284045.29879761 0 0 0 0 -616529480.86395454 597801797.51079941 0 597801797.51079941 -635227589.795578 0 0 0 0 -74816255.702259064 13220746.218711853 0 13220746.218711853 34746351.66166687 0 0 0 0 -189149749.14262009 139302662.0514164 0 139302662.0514164 170900986.5267334 0 0 0 0 15038567.896013819 20720739.472413749 0 20720739.472413749 835114.88718730211 0 0 0 0 961763510.80279541 -32780882.510353088 0 -32780882.510353088 -91233596.779396057 0 0 0 0 1295815042.506258 528697184.53684807 0 528697184.53684807 -67217904.685699463 0 0 0 0 1545949005.7470245 584938915.45056915 0 584938915.45056915 -379954437.70594406 0 0 0 0 990268220.50008392 399543852.84551239 0 399543852.84551239 -82657671.155593872 0 0 0 0 104773477.28970337 -93663407.036758423 0 -93663407.036758423 77670698.203773499 0 0 0 0 965025996.49248505 347612722.94248962 0 347612722.94248962 144706894.14822388 0 0 0 0 275850.71961811185 -687267.8392551057 0 -687267.8392551057 -1368118.9690670297 0 0 0 0 443397171.77407837 -78091290.654052734 0 -78091290.654052734 233449855.1000061 0 0 0 0 82767098.938465118 102307752.05580902 0 102307752.05580902 -15475772.670959473 0 0 0 0 278168669.7648468 134526738.03071976 0 134526738.03071976 -39515159.777908325 0 0 0 0 965693447.29032135 163853173.36639404 0 163853173.36639404 -240049653.21818542 0 0 0 0 1398763093.0031128 -505261189.09663391 0 -505261189.09663391 -16497798.807647705 0 0 0 0 1581520070.0771751 -394020148.97545624 0 -394020148.97545624 -293850987.37052917 0 0 0 0 288373861.82833862 174565994.13902283 0 174565994.13902283 241674109.59384155 0 0 0 0 521732633.38407898 135823971.13887024 0 135823971.13887024 -95594795.301651001 0 0 0 0 735944086.37534332 373109181.8490181 0 373109181.8490181 6897551.1903686523 0 0 0 0 1750750.3802666068 -923139.75125493109 0 -923139.75125493109 -981812.81084764376 0 0 0 0 -92215747.727800369 -113418074.95424271 0 -113418074.95424271 83430671.112426758 0 0 0 0 669368905.44795227 70393317.71938324 0 70393317.71938324 -206084945.57231522 0 0 0 0 1989493032.9169922 155782232.02500916 0 155782232.02500916 -238553051.4802475 0 0 0 0 1785441808.5264244 -657737763.80699921 0 -657737763.80699921 44988745.194229126 0 0 0 0 1189586137.0834465 -383442404.3118248 0 -383442404.3118248 1096712620.580368 0 0 0 0 943047983.60701752 813638633.92277527 0 813638633.92277527 625927078.59609985 0 0 0 0 3629002.2404407039 2409249.8822460473 0 2409249.8822460473 571682.56941105425 0 0 0 0 700498931.27027893 -728152814.23015594 0 -728152814.23015594 1844588913.3343124 0 0 0 0 1713938240.0292225 865281466.16111374 0 865281466.16111374 -425128821.04518127 0 0 0 0 1227382991.2977829 909682333.11022949 0 909682333.11022949 862290981.6808033 0 0 0 0 1454775223.4375935 395099070.33694077 0 395099070.33694077 -532690996.8026123 0 0 0 0 6535051.2864400446 6536810.6237429213 0 6536810.6237429213 4479255.9432984293 0 0 0 0 518691664.7230835 -814863991.25059509 0 -814863991.25059509 637092163.08374786 0 0 0 0 -525424627.08023453 -589765937.20044327 0 -589765937.20044327 -106331854.83843994 0 0 0 0 581230621.6740799 -177127243.24652863 0 -177127243.24652863 98841435.712890625 0 0 0 0 -204704155.29756927 -105797931.66409302 0 -105797931.66409302 623873664.95650208 0 0 0 0 -326561097.72538376 517417790.32047272 0 517417790.32047272 -146945269.59089661 0 0 0 0 -188664532.37006378 2275007.7887039185 0 2275007.7887039185 355724125.10897827 0 0 0 0 -653828864.95589447 270215937.03410339 0 270215937.03410339 427823898.49223328 0 0 0 0 -456514455.02455902 69242781.420654297 0 69242781.420654297 443939711.32199097 0 0 0 0 -1611261413.6464539 546318165.2574234 0 546318165.2574234 256743256.46850967 0 0 0 0 -395180590.43623734 1027598850.9441967 0 1027598850.9441967 -706255315.25834656 0 0 0 0 -31821358.254798889 451760672.81289673 0 451760672.81289673 -162960287.49349976 0 0 0 0 410871884.57809448 644384229.09387207 0 644384229.09387207 -879981162.89044189 0 0 0 0 -226490967.76858521 629360527.25061798 0 629360527.25061798 -323607324.1217041 0 0 0 0 416288252.09614563 210115870.02259827 0 210115870.02259827 -415964213.73239517 0 0 0 0 -44213303.974380493 337470650.50561523 0 337470650.50561523 -445720951.74446487 0 0 0 0 112595639.55410767 507027875.8855896 0 507027875.8855896 218000901.38074493 0 0 0 0 4181773.2045723088 746487.98743581586 0 746487.98743581586 -5364804.3595233411 0 0 0 0 304900964.60470581 3446805312.8178711 0 3446805312.8178711 -674356490.12817383 0 0 0 0 -54719752.27015686 -619885718.12747192 0 -619885718.12747192 1547176775.9197388 0 0 0 0 -1576910541.4128265 475382362.85655022 0 475382362.85655022 99211445.914535522 0 0 0 0 602888.00269354135 5759412.9113961831 0 5759412.9113961831 3341493.67414736 0 0 0 0 54529103.151546478 -88534032.262493134 0 -88534032.262493134 -1069361998.4032745 0 0 0 0 -1324015526.7221756 -72946597.559318542 0 -72946597.559318542 51207322.221206665 0 0 0 0 6624891.0389299169 25169760.974582732 0 25169760.974582732 23342984.216206089 0 0 0 0 -854018148.20754242 -62963741.761978149 0 -62963741.761978149 2647965.1413345337 0 0 0 0 -737619667.8813858 546844255.55374908 0 546844255.55374908 59295169.955970764 0 0 0 0 -3603970.7049407959 50594030.839981079 0 50594030.839981079 2052929.7390899658 0 0 0 0 -5292957.0237178802 43455590.703380585 0 43455590.703380585 -1376625.934211731 0 0 0 0 1051465.6987738609 43949349.890781164 0 43949349.890781164 -7556865.1936340332 0 0 0 0 -123521339.82038879 768226062.43608093 0 768226062.43608093 237639759.76317596 0 0 0 0 -216064593.2694397 -69839829.815681458 0 -69839829.815681458 723935675.37155151 0 0 0 0 -292890114.31419373 389456142.54271698 0 389456142.54271698 -686307494.24605942 0 0 0 0 -1166020547.9355316 878690777.58544922 0 878690777.58544922 1234230.0731430054 0 0 0 0 -1062607953.0189667 638811134.43221283 0 638811134.43221283 86278827.570556641 0 0 0 0 -316158224.6058197 493735395.83101654 0 493735395.83101654 -32872443.334060669 0 0 0 0 -844591359.28750229 803857258.73238754 0 803857258.73238754 -358512143.12591553 0 0 0 0 136663444.74845886 580156525.16349792 0 580156525.16349792 -111336412.03360939 0 0 0 0 552640295.80769348 201389561.91646957 0 201389561.91646957 -31042837.019714355 0 0 0 0 -175618917.54558563 287014094.71219254 0 287014094.71219254 -323015041.48526001 0 0 0 0 -97198853.834922791 615340365.32991028 0 615340365.32991028 -356231382.47663546 0 0 0 0 2528280.7104280852 -302477.75946975686 0 -302477.75946975686 -3181833.203544572 0 0 0 0 -1081985383.2220864 966633551.4597044 0 966633551.4597044 -270654683.31263733 0 0 0 0 6691281.0829058886 19488786.893232565 0 19488786.893232565 22162434.180141389 0 0 0 0 -31476770.720718384 69314065.934082031 0 69314065.934082031 -29499940.927330017 0 0 0 0 -52106574.99193573 42949332.222099304 0 42949332.222099304 -9832564.2221832275 0 0 0 0 -24350112.51448822 46551357.797889709 0 46551357.797889709 -39098659.582954407 0 0 0 0 -1118739045.4676874 305265221.00694323 0 305265221.00694323 -590056430.55441284 0 0 0 0 -1120782246.2790222 1587171514.1456985 0 1587171514.1456985 -401445516.11876297 0 0 0 0 -2585905.8433227539 46342698.543016434 0 46342698.543016434 -8579813.758026123 0 0 0 0 -3759919.2461395264 47185691.232177734 0 47185691.232177734 -18138712.114368439 0 0 0 0 -6335246.6426239014 51978224.857854843 0 51978224.857854843 -16859746.914283752 0 0 0 0 -34772741.937843323 59229341.251556396 0 59229341.251556396 -11375416.732681274 0 0 0 0 -20008997.53793335 44621418.103816986 0 44621418.103816986 -1435455.3527145386 0 0 0 0 -15978218.038604736 48920904.882194519 0 48920904.882194519 -18459104.990325928 0 0 0 0 -24691918.199440002 50559366.63350296 0 50559366.63350296 -14523653.618026733 0 0 0 0 -12858817.517097473 50745010.901575089 0 50745010.901575089 -16493944.598503113 0 0 0 0 -12691994.398666382 49394922.834342957 0 49394922.834342957 -25715667.758636475 0 0 0 0 -5735339.2440643311 49641355.854587555 0 49641355.854587555 -17741769.245220184 0 0 0 0 -5142385.695892334 51007856.446395874 0 51007856.446395874 -16984223.606555939 0 0 0 0 -562558.87379455566 50514864.133090973 0 50514864.133090973 -19532376.348876953 0 0 0 0 2809899.0503787994 50849322.930161238 0 50849322.930161238 -19777621.515533447 0 0 0 0 3383937.4129581451 58975643.066879272 0 58975643.066879272 -10781811.748405457 0 0 0 0 -14891605.594650269 57207447.075901031 0 57207447.075901031 4718258.1154251099 0 0 0 0 -21529108.585266113 48973641.101696014 0 48973641.101696014 -2677175.3981056213 0 0 0 0 -16713671.87727356 47542825.437858582 0 47542825.437858582 -3290673.7742767334 0 0 0 0 -22102426.681045532 37453268.44272995 0 37453268.44272995 -2540204.1355819702 0 0 0 0 -24520424.45941925 47774637.689424515 0 47774637.689424515 19888595.489608765 0 0 0 0 -25375682.3360672 65070231.126411438 0 65070231.126411438 26702165.986763 0 0 0 0 -29841555.463180542 57602983.372379303 0 57602983.372379303 15648949.402114868 0 0 0 0 37027764.001179464 37001675.015604474 0 37001675.015604474 24942964.10462641 0 0 0 0 -25189385.197822571 64619868.350189209 0 64619868.350189209 7430859.1608657837 0 0 0 0 -459528226.81752014 483077327.35655046 0 483077327.35655046 -29756058.409989357 0 0 0 0 6951592.3419298753 15040354.867572343 0 15040354.867572343 16686902.869117275 0 0 0 0 -53251319.195114136 97887000.974887848 0 97887000.974887848 -22027768.600975037 0 0 0 0 8301040.2857208252 68654622.558509827 0 68654622.558509827 -36862250.505180359 0 0 0 0 -25567943.37020874 56071346.290603638 0 56071346.290603638 -4681582.7290649414 0 0 0 0 -16269754.670410156 21907509.5427742 0 21907509.5427742 29006203.716991425 0 0 0 0 -15012159.815155029 110382347.44526672 0 110382347.44526672 46565675.440853119 0 0 0 0 -34839933.505224228 62296279.244700432 0 62296279.244700432 78772587.644348145 0 0 0 0 20093738.764831543 -78077718.307285309 0 -78077718.307285309 169954932.21959686 0 0 0 0 -35700914.011764526 137419823.83548355 0 137419823.83548355 110897962.91602325 0 0 0 0 -9667779.7911453247 221391960.30981827 0 221391960.30981827 298730391.2894516 0 0 0 0 -41304266.427215576 314866331.43623352 0 314866331.43623352 153669850.91313219 0 0 0 0 7455223.945957005 9396890.9576255251 0 9396890.9576255251 5907039.035321705 0 0 0 0 -580294050.73590088 558087215.19450378 0 558087215.19450378 1804870504.1663799 0 0 0 0 -12547419.882904053 -287969955.49929047 0 -287969955.49929047 1025941653.0743256 0 0 0 0 -2900122635.9150848 1716115712.933136 0 1716115712.933136 -152818895.68699646 0 0 0 0 -12520752.84928894 1978895843.8942032 0 1978895843.8942032 -603545599.05742264 0 0 0 0 6417803.8449836969 -422371.1320158001 0 -422371.1320158001 -6494265.3053251281 0 0 0 0 -909592006.0647378 -532935913.43589377 0 -532935913.43589377 -291726662.40097809 0 0 0 0 4785387380.254776 -1169926845.0165863 0 -1169926845.0165863 -1417748140.4032593 0 0 0 0 1411715614.3841858 -2083172735.5544128 0 -2083172735.5544128 -911529792.84967422 0 0 0 0 7472090366.0844727 4976908501.9892578 0 4976908501.9892578 6585266917.4708252 0 0 0 0 5857388.8500173539 -280511.29898030311 0 -280511.29898030311 -5168832.2193817049 0 0 0 0 145497989.21750879 -1302503093.4731834 0 -1302503093.4731834 -866754825.05395508 0 0 0 0 -131553785.1158371 -1176466402.1768188 0 -1176466402.1768188 1340375984.8994904 0 0 0 0 -1507462801.9388275 -1166721076.6231918 0 -1166721076.6231918 541394847.7298584 0 0 0 0 -1579751590.7592926 -1559076002.4469185 0 -1559076002.4469185 -1103117380.4726257 0 0 0 0 513841126.76115417 1102817495.7471848 0 1102817495.7471848 -1568009305.5176392 0 0 0 0 491262459.72296143 1423727881.8622742 0 1423727881.8622742 437386071.82651901 0 0 0 0 -2418736204.171463 -6226766254.486702 0 -6226766254.486702 -2191232497.7630157 0 0 0 0 1642966293.3688049 2696517075.6452255 0 2696517075.6452255 1782878076.9525909 0 0 0 0 4151210482.143055 -862904880.69822407 0 -862904880.69822407 -21668909.838256836 0 0 0 0 13249490.087051809 -1229729.2275390476 0 -1229729.2275390476 -2492403.3641276141 0 0 0 0 991133450.67207336 1631544091.280983 0 1631544091.280983 4197133996.6863136 0 0 0 0 168843070.96429443 -1634438645.067337 0 -1634438645.067337 2037666711.9362602 0 0 0 0 679045640.48629761 -204454515.30408096 0 -204454515.30408096 181697122.36756897 0 0 0 0 2354436936.7181473 831232670.63389587 0 831232670.63389587 -3386404.0526123047 0 0 0 0 102139461.81766891 110598528.99586964 0 110598528.99586964 2029988931.6832886 0 0 0 0 973710193.85772705 1189394302.9014587 0 1189394302.9014587 1582025407.4670029 0 0 0 0 5060548887.3869781 2372982813.6066284 0 2372982813.6066284 821953200.59310913 0 0 0 0 2114050794.6940155 255277606.12233734 0 255277606.12233734 -276879806.7996788 0 0 0 0 1928684924.2180252 -157431255.05773926 0 -157431255.05773926 -973196831.25476074 0 0 0 0 3115791162.167572 5155260.4140625 0 5155260.4140625 -965065766.78688049 0 0 0 0 1684824305.1681442 -417900165.75073624 0 -417900165.75073624 -954371545.06730652 0 0 0 0 1324818361.3764343 550860577.13954163 0 550860577.13954163 -379714018.55096436 0 0 0 0 1230412444.7839355 155930496.51766968 0 155930496.51766968 -406366395.84533691 0 0 0 0 920201003.20091248 117714184.59161377 0 117714184.59161377 -385440266.91820908 0 0 0 0 971012538.229599 499530056.29421997 0 499530056.29421997 -369867759.42603874 0 0 0 0 1022250133.5712585 -368681966.34001923 0 -368681966.34001923 -1022999070.3020592 0 0 0 0 1432739713.5051651 -64508032.31186676 0 -64508032.31186676 -918825794.34645081 0 0 0 0 1440207955.4894409 -137266564.08224487 0 -137266564.08224487 -284537567.73214769 0 0 0 0 1317281142.773695 -132259310.3838253 0 -132259310.3838253 -486922199.40414429 0 0 0 0 1276378875.8950272 -418784129.84468079 0 -418784129.84468079 -683207283.85238647 0 0 0 0 267376471.57669067 -232866720.17298889 0 -232866720.17298889 -430640276.27241516 0 0 0 0 -184389068.62975311 243309661.19742966 0 243309661.19742966 -221419060.00372314 0 0 0 0 767202994.70183563 202606202.19271469 0 202606202.19271469 -333429483.15863037 0 0 0 0 -353435738.6305542 177517239.24737549 0 177517239.24737549 -416043490.26573181 0 0 0 0 394304760.63311005 -67995426.735534668 0 -67995426.735534668 -380833973.58387756 0 0 0 0 -582707270.93323517 -864424056.85872269 0 -864424056.85872269 -239444622.03855896 0 0 0 0 1214592430.9998779 -801720343.72266769 0 -801720343.72266769 -406941628.07693481 0 0 0 0 1556944962.8251343 -405906530.45636749 0 -405906530.45636749 -687492527.0562439 0 0 0 0 
</DataArray>
<DataArray type="Float64" Name="cross_section_updated" format="ascii">
1 1 1 1 1 0.043495024841532517 1 1 1 1 1 1 1 0.047233604474425567 1 1 1 1 0.043301050549912512 1 1 0.057043007146932445 1 1 1 1 0.022927915562683518 1 1 1 1 0.032567291778953192 1 1 1 1 1 1 1 1 1 1 1 1 1 0.049407105911752465 1 1 0.050093319560033225 1 1 1 1 1 0.053455026752104152 1 1 1 1 1 1 1 0.019870159995976848 1 1 1 1 0.047101765481513791 1 1 1 1 1 1 1 1 1 0.046911272142633603 1 1 0.051436162068283622 1 1 0.064236301365987181 1 1 1 1 0.051803477740940525 1 1 1 1 1 1 1 0.048151443217623782 0.050003743225790445 0.049133690618776815 1 1 0.049393365698983643 1 1 1 1 1 0.049498954722045588 1 1 1 1 1 1 1 1 1 1 1 1 1 0.050472106046333606 1 1 1 0.049276464115023969 1 1 1 1 1 1 0.050029177701545219 1 1 1 1 1 1 1 1 1 1 1 1 1 1 1 1 1 1 1 1 1 1 1 1 1 0.049825387445120779 1 1 1 0.046570474454985335 1 1 0.049187013098698606 1 1 1 1 1 1 1 1 1 1 1 0.050242474682368046 1 1 1 1 1 1 1 1 0.051132324711318455 1 1 1 1 1 1 1 1 0.053324272119424629 1 1 1 1 1 1 1 1 1 0.048849231475910616 1 1 1 1 1 1 1 1 1 1 1 1 1 1 1 1 1 1 1 1 1 1 1 0.049991120783961882 1 1 1 0.017492580282080047 1 0.050260333808243698 1 0.034026395252103728 1 1 0.070682973028459883 1 1 1 0.057818551206626351 1 0.041128288458441672 1 0.050598566977404738 1 0.034870605501260879 0.038827168113074295 1 0.045795988385038802 1 1 0.044200132903034053 1 0.056371559533986829 1 1 1 0.04598030453865265 1 0.042968539058897491 0.049344915495740514 1 1 0.054031285879004548 1 1 1 0.045897424736592661 1 0.065126876560001601 0.060527048117647919 0.046381408484215424 1 0.050014804529780424 1 1 1 0.050091176514446764 1 0.058231235207920826 0.041552909039642531 0.049487131779300739 1 1 0.059589182887839681 0.059360521421204793 1 1 1 1 0.065385389727128165 1 0.049948311867033163 1 1 0.055346464352065208 1 1 1 0.045768966501357894 1 0.048512040089254964 0.043701600884297587 0.048391263348304778 1 1 1 0.052235932633051103 1 0.044780683117586831 0.062212524819871065 0.0511836171249683 0.058955971818738295 1 1 1 0.048190004325435312 0.049996953137414708 1 1 0.039164514793708693 0.057483205225278791 0.056315512710259412 1 0.053326941722212945 1 1 1 1 0.049982942443010936 1 1 1 1 1 1 1 0.05354322632947562 1 1 1 1 1 1 0.049020761599054288 0.049988225993879448 1 1 1 0.054287476810114699 1 1 1 0.049992347032009651 1 0.057750508943033275 1 0.036235649996543648 0.068276879279905972 1 1 1 1 0.050651615539927294 1 1 0.068042613187994136 1 1 1 1 0.049910641844283524 1 0.049969553969849687 1 1 1 1 1 0.038661988712217377 0.064816597221211705 1 1 1 1 1 1 1 1 0.049566449180609581 1 1 1 0.048746254251587032 1 1 0.047597235421669652 1 0.049997580383826609 1 1 1 1 1 1 1 1 1 1 1 0.069159351189532703 1 0.047502724718125618 1 0.064123588566827316 1 1 1 0.047817007953863844 1 0.05003216395865874 1 0.043638366672767673 1 1 1 1 1 1 0.056989560419226301 1 0.04342945964190259 1 1 1 0.055373337785639964 1 1 1 0.062917781359797684 1 0.043514513181322163 0.07262952065504244 1 1 1 1 0.048263537256234827 1 1 1 1 0.032923799464449358 0.070769057616914668 1 1 0.056605309408373029 1 0.053484156785073442 1 0.051674663114282302 0.054933939535986409 1 1 1 0.049974498247855006 1 1 1 1 0.036231929090368681 1 1 1 1 1 1 1 1 1 1 1 0.049973079961489558 1 1 1 1 0.060654804759726413 1 1 1 0.041050312014554349 1 0.054410815599849852 0.049466067431475469 0.049999249261869633 1 1 1 0.067830585785076586 0.036375196661354095 1 0.030591148109694575 1 1 0.047091818214146097 1 1 1 1 0.034954915794864927 1 1 1 1 1 1 1 1 1 1 1 0.030869152221695829 0.080532441758518342 1 1 0.03755349975341557 1 1 1 0.050035752347665718 1 1 1 1 1 1 0.0666030651201584 1 1 1 0.051554327512357556 1 1 1 0.048363558191601444 1 1 1 1 1 1 1 1 1 1 1 0.06564037266806097 1 1 1 0.064558004373457184 1 1 1 1 1 1 1 0.04836611317220512 1 1 1 1 1 0.045207377701583978 1 1 1 1 1 1 1 1 1 1 1 1 1 1 1 1 1 1 1 0.051300853538173527 1 1 1 1 0.051192399290755169 1 1 0.050557941051219885 1 1 1 1 1 1 1 0.050635464394514343 1 1 1 1 1 1 1 1 0.04996911180628652 1 0.051934493052461145 1 1 0.045908227644038083 1 1 1 0.04802338134051333 1 1 0.051346660499416913 1 1 1 0.044180494214516045 1 0.048319532005042402 1 1 0.050008960867470156 1 0.044560930011291189 1 1 1 1 1 1 1 1 1 1 1 1 1 1 1 1 1 1 1 1 1 1 0.049628565026232016 1 0.048297579007305719 1 0.04944497246682443 1 1 1 1 1 1 1 1 1 1 1 1 1 1 1 0.049792266506645297 1 1 1 1 1 1 1 1 1 0.049836298519586722 1 1 1 1 1 1 1 1 1 1 1 1 1 1 1 1 1 1 1 1 1 1 1 1 1 1 1 1 1 0.04987129270261751 1 1 0.050029247060210627 1 1 1 0.04633975192374843 0.059301827015676795 1 0.05839359635352237 1 1 1 1 1 0.046977796419660697 1 1 1 1 1 0.047674122071863473 1 1 1 1 1 1 1 1 1 1 1 1 1 1 1 1 1 1 1 1 1 1 1 1 1 1 1 1 1 1 1 1 1 1 1 1 1 1 1 1 1 1 1 1 1 1 1 1 1 0.051281474049649903 1 1 1 1 1 1 1 1 1 1 1 1 1 1 1 0.056741024272584942 1 1 1 1 0.052805954119679283 1 1 1 1 1 1 1 1 1 1 1 1 1 1 1 1 1 1 1 1 1 1 1 1 1 1 1 0.055231506199394875 1 1 0.047362767773054627 1 0.036514006333637605 0.052942386210690334 0.053296914277059189 0.074415911192526302 1 1 0.0499053623390198 1 1 1 1 1 1 1 1 1 1 1 1 1 1 1 1 1 0.033959142251285726 1 1 0.044865671229308721 1 0.057567614688777385 1 1 1 1 0.024531113790756703 1 0.050415911993611326 1 1 1 1 0.049770843316827358 1 1 1 0.051544749168165808 1 1 1 1 1 0.041493890454370325 1 0.052956132897011579 1 1 0.051039859056678141 0.057451174484914436 1 0.047601823300390742 1 1 1 1 1 1 1 1 1 1 1 0.027340209891164438 1 1 1 0.028937523771706893 1 1 1 0.057000870767257739 1 1 0.02455367830625859 0.049741179871588333 0.049888046037452616 1 1 1 1 1 1 1 1 1 1 1 0.049901226620157238 1 1 1 1 1 1 1 1 0.025526423630155524 0.0096488485659478457 0.02651768399358316 1 1 1 1 1 1 1 1 0.0162826478343812 0.049793029172818831 1 1 1 0.054786702849684274 1 1 0.047899399698554182 1 1 1 1 1 1 1 1 1 1 1 0.049351242529934752 1 1 1 1 1 1 1 1 0.049200806038075293 1 1 1 1 1 1 1 1 1 1 0.050044704440726145 1 0.049569805604491014 0.041646013256883385 0.043886914602162777 1 1 1 1 1 1 1 0.022823501194868534 0.016983598922201311 1 0.053726522310624254 1 1 1 1 1 0.052607554388866704 1 0.049742242878763096 0.042630837285708045 1 1 1 0.042344352479820518 1 0.041663063467634417 1 1 1 1 0.049943693297081405 1 1 1 1 1 1 1 1 1 1 1 1 1 1 1 1 1 0.052511185191035759 1 1 1 0.048913769619334052 1 1 1 1 1 0.051200276643413326 1 1 1 1 1 1 0.049569161228003575 1 0.049884764847773724 1 1 1 1 1 1 1 1 0.047725480577916132 1 1 1 0.054620997490851135 1 1 1 1 1 1 1 1 1 1 1 1 1 1 1 1 1 1 1 1 1 1 1 1 1 0.046464302421573046 0.053504116150294434 0.078784362549159034 1 1 1 1 0.042071208497007642 1 1 1 1 0.036706134780367133 1 1 1 1 1 1 1 0.052680321870739871 1 1 1 1 1 1 1 1 0.054512444863191581 1 1 1 1 1 1 1 1 1 1 1 1 0.056897090454323188 1 1 1 1 1 1 0.05057670232977475 1 1 1 1 1 1 1 1 0.049444249121033845 1 1 1 0.069300933271538342 1 1 1 1 1 1 1 1 1 1 1 1 0.051832122992451685 1 1 1 1 1 1 1 1 1 1 1 1 1 1 1 1 1 1 1 1 1 1 1 1 1 1 1 1 1 1 1 1 1 1 1 1 1 1 1 1 1 1 1 1 1 1 1 0.049377579253386136 1 1 1 1 1 1 1 1 1 1 1 1 1 1 1 1 1 1 1 1 1 1 1 1 0.051748583530449699 1 1 1 1 1 1 1 1 1 1 0.049851361053568063 1 1 0.05488936178662307 1 1 1 1 1 1 1 1 1 0.049253500297124123 1 0.048407540516247391 1 1 1 1 0.05751065062756032 1 1 0.048991628844082799 1 0.046388228677786081 1 1 1 1 1 0.048113657905038063 1 1 1 1 1 1 1 1 0.052174827346437164 1 1 1 1 1 1 1 1 1 1 1 1 1 1 0.048058290585065999 1 0.052173898749145062 0.05022997134545111 1 1 1 1 1 0.050087809771583267 1 1 1 1 1 1 1 1 1 1 1 1 1 1 1 0.049505777490560746 1 1 1 1 1 1 1 1 1 1 1 1 1 1 1 1 0.049126668490361278 1 1 1 1 1 0.044175624685029662 0.04905553090378361 1 1 0.047260358822278928 1 1 1 1 1 1 1 1 1 1 0.048594818015993489 1 1 1 1 1 1 1 1 1 0.044375290435164506 1 0.10794323655825006 1 1 1 1 1 0.047744739015678661 1 1 1 1 0.10400039733833406 1 1 1 0.041631204226283101 1 1 1 0.09241353574290731 1 1 0.048375295364466192 1 1 1 1 1 1 1 1 1 1 1 1 1 1 1 1 0.046717360704864333 1 1 1 1 1 1 1 0.049063216100084961 1 1 1 1 1 1 1 1 1 1 1 1 1 1 1 1 1 1 1 1 1 1 1 1 1 1 1 0.092028986003976715 1 1 1 1 0.049450252920400707 1 1 1 0.0031800745230896391 1 1 1 1 1 1 1 1 1 0.0070079637594550968 1 0.05000960525165779 1 1 1 1 1 1 1 1 1 1 1 1 1 1 1 1 1 1 0.050043723610902535 0.079284531702492195 1 1 1 0.0465921910319059 1 1 0.065982891700869475 1 1 0.055030222771041151 1 1 1 0.049261781424762084 1 1 0.051792954066376864 1 1 1 1 1 1 1 1 1 1 1 1 1 1 1 1 1 1 1 1 0.048388449915123352 1 0.052083912467370798 1 1 1 1 1 1 1 1 1 1 1 0.053727844456457528 1 0.052024263880791642 1 1 1 0.024616465643811411 1 1 1 1 1 0.050097308266797307 1 1 1 1 1 1 0.031146678210283232 1 1 1 1 1 1 1 1 1 1 1 0.038809630077505736 1 1 1 1 1 1 1 1 0.016202083792546215 1 1 1 0.031984228707989927 1 1 0.046159048186410596 1 1 1 1 1 0.055967447917972014 1 1 1 1 1 1 1 1 1 0.050012806657197914 1 1 0.074183465894414186 1 0.063517092886541449 1 0.039972018050772801 0.058632800215169922 0.052087542935744871 1 0.049774732677028505 1 1 1 1 1 1 0.029854546186032435 1 1 1 1 1 1 0.050601317335638329 1 1 1 1 1 1 1 0.0278755172547724 1 1 1 1 0.026265101987624027 1 1 1 1 1 0.054465021548518483 1 0.049917860704463454 1 1 1 1 1 1 1 1 1 1 0.05155401507902109 1 1 1 1 1 1 1 0.041814405850471296 1 1 1 1 1 1 1 0.050018211841898343 1 0.052253313745233045 1 1 1 1 1 1 1 1 0.077586811001819037 1 1 1 0.081656014356627227 0.050130486229342228 1 1 1 1 1 0.073936261132169542 0.049981739933166409 1 0.070265633615467768 1 1 0.038499616403589627 1 1 0.039252459750847603 1 1 1 1 1 1 1 1 0.0147305646211224 1 1 1 1 1 0.11315147448913684 1 1 1 1 0.092044797771514822 1 1 0.087477126610336811 1 1 1 1 1 1 1 1 1 1 1 1 1 1 1 1 1 1 1 1 1 1 1 1 1 1 1 1 1 1 1 1 1 1 1 1 1 1 1 1 1 0.047347380332244178 1 1 0.050207176185282643 1 1 1 1 1 0.053529339879109718 1 1 1 1 0.047591463790302165 1 1 1 1 1 1 1 1 1 1 1 1 1 1 1 1 1 1 1 1 1 1 1 1 0.053120200203557073 1 1 1 0.051382286875856727 1 1 1 1 1 1 0.050269364912611351 1 1 1 1 1 1 1 1 1 1 1 0.055176272105077771 1 0.045500824689854488 0.056030404533343604 1 1 0.052929100033813382 1 1 1 1 1 1 1 1 1 1 1 0.065784119227398116 1 1 0.057331202530848349 1 1 1 1 1 1 1 1 1 1 1 1 1 1 1 0.061212922379629928 1 1 1 1 1 1 1 0.049808012965633142 1 0.053416303331033546 1 1 1 1 0.046468847641216005 1 0.047657929730300162 1 1 1 1 1 1 1 1 1 0.045433834985957884 1 1 1 1 1 1 1 1 1 1 1 1 1 1 1 1 1 0.046868583920637572 1 1 1 1 1 1 1 1 1 1 1 1 1 1 1 1 1 1 1 1 1 1 1 1 1 0.045343044791110967 0.049968299414093684 1 1 1 1 1 1 1 1 1 1 1 0.04394857474264724 1 1 1 1 0.034280695692597521 1 1 1 1 0.038193773527521804 1 1 1 1 1 1 1 1 0.058844109971610568 1 1 1 1 1 1 1 1 1 0.051659298851800851 1 1 1 1 1 1 1 1 1 1 1 1 1 1 1 1 1 1 1 1 0.0018740447495690492 1 1 1 1 1 1 1 1 1 1 1 1 1 1 0.059675403938712783 1 0.050253040348815982 1 1 1 1 1 1 1 1 0.057385142714594849 1 1 0.050522405261427324 1 1 1 1 1 1 1 1 1 1 1 1 1 1 1 1 1 1 1 1 1 1 1 1 1 1 1 1 1 1 1 1 1 1 1 1 0.050283059294793798 1 1 0.050335089275780294 1 1 1 1 0.039643681160250084 1 0.056800605387007791 1 1 0.05460251923886595 1 0.053459584005628745 1 1 1 1 1 0.051492361403415614 1 1 1 1 1 1 1 1 1 1 1 1 0.030214512907005844 1 1 1 0.037315166682486398 1 1 1 1 1 1 1 1 1 0.059504342298917982 1 1 1 1 0.057568616577602275 0.043353850343831692 1 1 1 1 1 1 1 1 0.049883230036713563 1 1 1 1 1 0.080324868473242161 1 1 1 0.072701850480235544 1 1 1 0.0043338655539961538 1 1 1 1 0.061565338162308025 1 1 1 1 1 1 1 1 1 1 1 1 1 1 0.02869132175452694 1 1 1 1 1 1 0.042883533211951229 1 0.028740249743951611 0.050001677100696612 1 0.045135484548345026 1 0.055023047047171564 1 1 1 1 0.049345073155167507 1 1 1 1 0.048210218209004604 1 1 1 1 1 1 1 1 1 0.051745781504951932 1 1 1 1 1 1 1 1 1 1 1 1 1 1 0.05371300410716507 1 1 1 0.050199507373013499 1 1 1 0.050493981977886744 1 0.050057376443700188 1 1 1 1 1 1 1 1 1 1 1 1 1 1 1 1 0.053443147282521544 1 1 1 1 1 1 0.061124990778320933 1 1 1 1 1 1 1 1 1 1 1 1 1 1 1 1 1 1 0.080685815851073484 1 1 1 1 1 1 1 1 1 1 1 1 1 1 1 1 1 1 1 1 1 1 1 1 1 1 1 1 1 1 1 1 1 1 0.045756640450107688 1 1 1 1 0.050449732971411934 1 1 1 1 1 1 1 0.073163820364175389 1 1 1 1 1 1 1 1 1 0.024503785947878474 1 1 0.089379641641023092 1 1 1 1 1 0.049946113874431208 1 1 1 0.043729362981075354 1 1 0.051434639445822397 1 1 1 1 1 1 1 1 1 1 1 1 1 1 1 1 1 1 1 1 0.022855466254244412 1 1 1 1 1 1 1 1 1 1 0.060350854449453192 0.021412442414402738 1 0.090958380187416282 1 1 1 1 1 0.094192140076409608 1 1 1 1 0.054914100411522809 1 1 1 1 1 0.049585704352153148 1 0.049589540597952543 1 1 0.042926414810138015 1 1 1 1 1 1 1 1 0.047633503501013683 1 1 1 1 1 1 0.050207639546385074 1 1 1 1 1 1 0.050790723990328204 1 1 1 1 0.052358969634763317 1 1 0.050023798140079012 1 0.053858887059198356 1 1 0.050038361136267306 1 1 1 1 1 1 0.051177558480209995 1 1 1 1 0.04997851095245931 1 1 1 1 1 1 1 1 0.051624231385697147 0.055544211453400646 1 1 1 1 1 1 1 1 0.049751180001707265 1 1 1 1 1 1 0.050028099759957464 1 1 1 1 1 1 1 0.052556906286276212 1 1 1 0.060529707508775961 1 1 1 1 1 1 1 1 1 1 1 1 0.040151292636786781 1 1 1 1 0.03316036108842399 1 1 0.057233836424044844 1 1 1 1 0.051161786493802638 1 1 1 0.05009736947881413 0.053133104948335008 1 1 1 0.0497443034796613 1 1 1 0.035822256730603158 1 1 1 1 1 1 1 1 1 0.054451459546733874 1 1 1 0.050040475957204816 1 1 1 1 1 1 1 1 1 1 1 1 0.048342686122475234 1 0.049919356191047343 1 1 0.026819163009381451 1 1 0.037785742629804456 1 1 1 1 1 1 1 0.05003898618554041 1 1 1 1 1 0.049930333300902463 1 0.024163239248395217 1 1 1 0.050960909000523621 0.052347007212874275 1 0.059973565527145729 0.040842471960052175 1 0.038778150293849692 1 1 1 1 1 1 0.050749661637767882 1 0.077758337377132419 1 1 1 1 1 1 1 1 1 1 1 1 1 0.049980531508517369 1 1 0.059352367675154914 1 0.05236791976969591 1 1 0.069316088143941912 1 1 1 0.053143901710274666 0.043318999866314101 1 1 0.0736836110860912 1 1 1 1 1 1 1 1 1 1 1 1 1 1 1 1 1 1 1 1 1 1 1 0.047689113102802327 0.049932300090621815 1 0.049544633173385824 1 0.050182407879050983 1 1 0.050002025057014371 0.051121857374325577 1 1 0.049996603816920462 1 1 0.052144779124860353 1 1 0.048952787855741975 1 0.050012614182733534 1 1 1 1 0.050054721321184645 1 1 1 1 0.049514439743646152 1 0.047017765339156185 0.052151622019983496 1 0.053040005718897151 1 1 0.04885222543587614 0.04702952839705745 1 1 1 0.051072040192317897 1 1 1 1 0.058753656117933248 0.048319780711806842 1 1 1 1 1 0.050335743583527409 1 1 1 1 1 1 1 1 1 1 1 0.059537865339859039 1 0.042750324927499944 1 0.032746854552878776 1 1 0.049998328640307135 1 0.033757534857918672 1 1 1 1 1 1 1 1 0.048117082194829526 1 1 0.052651836070137112 1 1 1 1 0.050001439070958102 1 1 1 1 1 1 1 1 1 1 1 1 0.046955269400731581 1 1 1 1 1 1 1 1 1 1 1 0.050238580462991192 1 1 1 1 1 1 0.0502227978693374 1 0.053317561718488442 1 1 0.050688642029699499 1 1 1 1 1 1 1 1 1 1 1 1 1 1 1 1 1 0.048838814468184777 0.043813818522968485 1 1 1 0.049748261287207593 1 1 0.041784561481783528 1 1 1 1 1 1 1 1 1 1 1 1 1 1 1 1 1 1 1 1 1 1 1 1 1 0.050010439474385007 0.027817037008562626 1 1 1 1 1 1 1 1 1 1 1 0.025393933270740812 1 1 1 1 1 1 1 1 1 1 1 1 1 1 1 1 1 1 1 1 1 1 1 1 1 1 1 1 1 1 1 1 1 0.049647606916859849 1 1 1 1 1 0.049718814874088677 1 1 0.051606816679676974 1 1 0.036538012502844143 0.087097411620662007 1 1 1 1 1 1 1 1 1 1 1 1 1 0.082387415948804651 1 1 0.050557990064707917 1 1 1 1 1 1 0.049987248585572339 1 1 0.077215568599817347 1 1 1 1 1 1 1 1 1 1 1 1 1 0.077283293083748983 1 1 1 1 1 1 1 0.049983046581335705 1 1 1 1 1 1 1 1 1 1 1 1 0.050349931827539142 1 1 0.050127133958201751 1 1 1 1 1 1 1 1 1 1 1 1 1 1 1 1 1 1 1 1 0.0718342834907304 1 1 0.0501840221787535 1 0.056391483039533424 1 1 1 0.049934028246350029 1 1 0.043012719588453457 1 0.066042530535601038 1 1 1 0.042215347564284855 1 1 1 1 0.04979983466699052 1 1 1 1 1 1 1 0.04946828707916056 1 1 1 0.047231913522928243 1 1 1 1 1 1 1 1 1 1 1 1 0.05216676825852707 1 1 1 1 1 1 1 1 0.051515068591707971 1 1 1 1 1 1 1 1 1 1 1 0.046991619909888788 1 1 1 1 1 1 1 1 1 1 1 1 1 1 1 1 1 1 1 0.054367372661143804 0.045799562429819585 1 1 1 0.048586001430040687 1 1 1 1 1 1 1 1 1 1 1 1 0.050328161726312305 1 1 1 1 1 1 1 1 1 0.050859988406865869 1 1 1 1 1 1 1 1 1 1 1 1 1 1 1 1 0.037208112575865385 1 0.048371541493370085 1 1 1 1 1 0.040369116837318093 1 1 1 1 0.050262019152366583 1 1 1 0.050069123992093359 1 1 1 0.046087949314250309 1 1 1 1 1 1 1 1 1 0.047739243772929256 1 1 1 0.04371945490958256 1 1 0.049253467839982495 1 1 1 1 1 1 0.049507652879126791 1 1 1 1 1 1 1 1 0.049351861062244297 1 1 1 0.049526486317642775 1 1 1 1 1 1 1 1 1 1 1 1 1 1 1 1 1 1 1 1 1 1 1 1 1 1 1 0.047781747965293955 1 1 1 1 1 1 1 0.049074529175813619 1 1 1 1 1 1 1 1 1 1 1 1 1 1 1 1 1 1 1 1 1 1 1 1 1 0.049381528950126319 1 0.049851858291129009 1 1 1 1 1 1 0.048379433953734022 1 1 1 0.049663844805935983 1 1 0.049109381229658286 1 1 1 1 1 1 1 1 1 1 1 1 2.7755575615628914e-16 1 1 1 1 1 3.1918911957973251e-16 1 1 1 1 1 1 1 1 1 1 1 1 1 0.048849763294736698 1 1 1 0.048401817082452031 1 1 1 1 1 1 1 1 1 1 1 1 0.045682994606516397 0.068474711899573229 1 1 1 1 0.068425705325958777 1 1 1 1 1 1 1 1 1 0.049974682702460971 0.040247908741229257 1 1 1 1 1 0.037499646000684145 1 1 1 1 1 0.049718749032439641 1 1 1 1 1 0.050069238982574017 1 0.031348651651768117 1 1 1 1 0.048083589074889015 1 0.047191541317737909 1 0.063713961259783986 0.05003635204414425 1 1 1 1 1 1 1 0.050215760289278356 0.048779717179428833 1 1 1 1 1 1 0.050010018417745938 0.057834506160327856 0.052680701969660279 1 0.044854153769364344 0.046016099575035288 1 1 1 0.054366916179750674 1 1 1 1 1 0.066661038168336628 0.0483788762616559 0.050001045130393343 1 0.060423935430722622 1 1 1 0.049904704048701148 1 0.048937842892823713 0.050548710202510144 1 1 1 1 1 1 1 0.047748173953231596 0.051719637493968421 1 1 0.048594217570653249 0.035008027729274208 0.060586556647124062 1 1 1 1 1 1 1 1 1 1 1 1 1 1 1 1 1 1 1 1 1 1 1 1 1 1 1 1 1 1 1 1 1 1 1 1 1 1 1 1 0.049895467497682373 1 1 1 1 1 1 1 1 1 1 0.048800562869952491 1 1 1 1 1 1 0.04623529067982321 1 1 0.04241432797694461 1 1 1 1 1 1 1 1 1 1 1 1 1 0.052869551248989566 1 0.058746255665874256 1 1 1 1 0.052876618065318057 1 1 1 0.067890259036238881 1 1 0.070576244271306945 1 1 1 0.049970316529245842 1 1 0.049874080840742338 1 1 1 1 1 0.049868617339344584 1 1 1 1 1 1 1 0.049942266422694878 1 1 1 1 1 1 1 0.07187995710846988 1 1 0.0725900738634363 1 1 1 1 0.048633517309854823 1 0.050639783087787882 1 1 1 1 1 0.045483134088764504 1 1 1 1 0.052059513318218398 1 1 1 1 1 1 0.056463512124387508 0.022036780746518519 1 1 1 1 1 0.073649510906085403 1 1 0.051844568985826484 1 1 1 1 1 1 1 1 1 1 0.052043847054012729 1 1 1 1 1 1 1 1 1 1 1 1 1 1 1 1 1 1 0.050664897658505612 1 1 1 1 1 1 0.050074704259655108 1 1 1 1 1 1 1 0.041895495607057881 0.05023208459018362 1 1 1 1 0.049948515621359268 1 1 1 1 1 1 1 0.048940627759729863 1 1 0.027601766649595738 1 0.052744446190931216 0.067756920009758748 0.031056149205522826 1 1 1 1 1 1 0.032819741181492293 1 1 1 1 1 0.050007446477542988 1 1 1 1 0.034122074131635927 1 1 1 0.059775971284637436 1 1 1 0.057711301497816461 1 1 1 1 1 1 1 1 1 1 1 1 1 1 1 1 1 1 1 1 1 1 1 1 1 0.054843055757258508 1 1 1 1 1 1 1 0.052446586477739185 1 0.056954612740312383 1 1 1 1 1 1 0.075205977990938574 1 1 0.052493870212470331 1 1 1 0.049904331249772456 1 1 0.047406979794438017 1 1 1 1 1 0.049751169003060577 1 1 1 0.049923744256926098 0.049376271481649178 1 1 1 1 1 1 1 1 1 1 1 1 0.051940687626697332 1 1 1 1 1 1 1 1 1 0.055914053467947589 1 1 1 1 1 0.050162102988435403 0.034139050863111711 1 1 1 1 1 1 1 1 1 0.048062044978369148 1 1 1 1 1 1 1 1 0.040193348120190181 1 1 1 1 1 1 1 1 1 1 1 1 1 1 1 1 1 1 0.047499859210016183 1 1 1 1 0.044731772732944389 1 0.046735956629965283 1 0.049408868559056351 1 1 1 1 1 1 1 1 1 1 1 1 1 1 1 1 1 0.050129364591890463 1 1 1 1 1 0.041624850003261341 1 1 1 0.054189665640918483 0.037302548605392227 1 1 1 1 1 0.04361502772612999 1 1 1 1 0.047096049876288529 1 1 1 1 1 1 1 1 0.040467649627612484 1 1 1 1 1 1 1 0.044063945605360047 1 1 1 1 1 1 1 1 1 0.050745857944288722 1 1 1 1 1 1 1 1 1 1 1 1 1 1 1 1 1 1 0.049621432984384858 1 1 1 1 1 1 1 1 1 1 1 1 1 0.051305039134358771 1 1 1 1 1 1 0.050056013749031097 1 1 0.049825374744601525 1 1 0.050133502285841028 1 1 1 1 1 1 1 1 1 1 1 1 1 1 1 1 1 1 1 1 1 1 1 1 1 1 0.050095956244870996 1 0.046843909985458884 1 0.050006246055829193 0.051384361171136941 1 1 1 0.05682145597172053 1 1 1 1 1 1 1 1 1 0.048916658079265637 0.053824851918168694 1 0.081292062771928547 1 1 1 1 1 1 1 1 1 1 1 1 1 1 0.049997519207374441 1 0.04357296919759665 0.042315883583365424 1 0.062273099013504203 1 1 1 1 1 1 1 1 1 0.043152004937673377 0.049231336251371799 1 1 1 1 1 1 1 1 1 1 1 1 1 1 1 1 1 1 1 1 1 1 0.052238351768283647 1 1 1 1 1 0.048776033725594664 1 1 1 1 1 0.045924184917685268 1 1 1 0.059004451390569923 1 1 1 1 1 1 1 1 1 0.053409735084291948 1 1 1 1 0.081006903701464378 1 1 1 1 1 1 0.044259617948476992 1 1 1 1 1 1 1 0.047943911281128293 1 1 1 1 0.042150053185155703 1 1 1 1 1 1 1 1 1 1 0.051208234273852155 1 1 1 1 0.047338825329774986 1 1 1 0.069830438481549947 1 1 1 1 1 0.028535909857751521 1 1 1 1 1 1 1 1 1 1 1 1 1 1 0.042929051190360903 0.083365509790988918 1 1 0.07025531285697903 1 1 1 1 1 1 1 0.047605916293738781 1 1 1 1 1 1 0.045602995282177566 1 1 1 1 1 1 1 1 1 1 1 1 1 1 1 1 1 1 1 1 1 1 1 0.038626812885246622 1 1 1 1 1 1 1 1 0.050196523537743745 1 1 1 1 0.051511721149697223 1 1 1 1 1 0.034157861789031491 1 0.050079849772497478 1 0.056284648068650328 1 1 1 1 1 1 1 0.050022251698023962 1 1 1 0.048072114544211883 1 1 1 1 1 0.05586883420914085 1 1 1 1 1 0.050044736790502989 1 0.049996037018334813 1 1 0.05052065908819349 1 0.055714971564491039 1 1 1 1 1 0.045576496142359868 1 1 1 0.036605676046256252 1 1 1 1 1 1 1 1 1 1 0.050694529037050455 1 1 1 1 1 1 1 1 1 1 1 1 1 1 1 1 1 1 1 1 1 1 0.043763889099087475 1 1 1 1 1 1 1 1 1 1 1 1 1 1 1 1 1 1 0.033216954499545738 1 1 1 0.025071475508228309 1 1 1 1 1 1 0.069486619776437095 1 1 1 0.05621085360082971 0.055957971891280392 1 0.036330143132648665 1 0.052674256613144774 0.061935899791605381 1 0.062273936312987568 1 1 0.049988809562185696 1 1 0.052149584452353848 0.050086080174950823 1 1 1 1 1 1 1 1 0.049967591340345688 1 0.049992505072684851 1 1 1 1 1 1 1 1 1 1 1 1 1 1 1 1 1 1 1 1 1 1 0.060832710121372438 1 1 1 1 1 1 1 1 0.065305231950173445 1 1 0.050248586456048253 1 1 0.069487286627347489 0.050301186159739164 1 1 0.050096536803235128 1 1 1 1 1 1 1 1 1 1 1 1 1 1 1 1 1 1 1 1 1 1 1 1 1 1 1 1 1 1 1 1 1 1 1 1 1 1 1 0.067775722224744442 1 0.068104475241546503 1 1 1 1 1 1 1 1 1 1 1 1 1 1 1 1 1 1 1 1 1 1 1 1 1 1 1 1 1 1 1 1 1 1 1 1 1 1 1 1 0.043279669867736764 1 1 0.040603993906517061 1 1 1 1 1 0.051310102675440492 1 0.050408540216909714 1 1 0.046687429682049843 1 1 1 1 1 1 0.046706095323319298 1 1 1 1 1 1 1 1 1 1 1 0.04966998055602944 1 1 0.086332509324236667 0.066930074470676004 1 0.070015215722905755 1 1 0.03128362658064765 1 1 1 1 0.068635287804882386 1 1 1 1 1 1 1 1 1 0.049958038221088616 1 0.07980346031522266 1 1 1 1 1 1 1 0.050037999476842947 1 0.042461422705986379 1 1 1 1 1 1 1 1 1 0.050652612649098011 1 0.043391954063412688 1 1 1 1 1 1 1 1 1 1 0.052128993156342868 1 1 1 0.078310708068138585 1 1 0.04999207730741935 1 1 0.054762764196980104 1 1 1 1 0.052755774524119274 1 1 1 0.050077488536809975 1 1 1 1 1 1 1 1 1 1 1 1 1 1 0.050892841798086834 1 1 1 1 1 1 0.051174549001843775 1 0.050676637534899455 1 0.080784960336736572 1 1 1 0.051643612403835262 1 1 1 1 1 1 1 1 0.085471671870144802 1 1 1 1 1 0.049981144876349921 1 1 0.087811688300295995 1 1 1 1 1 1 1 1 1 0.063438456122221154 1 1 1 0.054569429592353155 1 1 1 1 1 1 0.072009806395677584 1 1 1 1 1 1 1 1 1 1 1 1 1 1 1 1 1 1 1 1 1 1 1 1 1 1 1 1 1 1 1 0.043842463742437977 1 1 1 1 1 0.048322541067617603 1 1 0.048769464922321024 0.043897467902601808 1 1 1 1 0.037272541615383875 1 1 1 1 1 0.049481203872057566 1 1 1 1 1 1 1 1 1 1 1 1 1 1 1 1 0.0472927550618822 1 1 1 1 1 1 1 1 0.045261861392444598 0.040812153991109525 1 1 1 1 1 1 0.044889998302797496 1 1 1 1 0.052536099868718794 1 1 1 1 1 1 1 1 1 1 1 1 1 1 1 1 1 1 1 1 1 1 1 1 0.044878389316480902 1 1 0.048328680635925179 1 1 1 1 1 1 1 1 1 1 1 1 1 1 1 1 1 1 1 1 1 1 1 1 1 1 1 0.047469010047190965 1 0.044657402035182078 1 1 1 1 1 0.039389570434672894 1 1 1 1 1 1 1 1 1 1 1 1 1 1 1 1 1 1 1 1 0.05842210995721453 0.041875445094277125 1 0.054900242220520201 1 1 1 1 1 1 1 1 1 1 1 1 1 1 1 1 0.052416148244588109 1 1 1 0.050700165079611378 1 1 1 1 1 1 1 1 1 1 1 1 1 0.044732168399490846 1 1 1 1 1 1 1 1 1 1 1 1 1 1 1 1 1 1 1 1 1 1 0.096045204632531328 1 1 1 1 1 1 1 1 1 1 1 1 1 0.092199089449250149 1 0.0097157068090211185 1 1 0.062775607136990347 0.030885217280630234 1 1 1 1 1 1 1 1 1 1 1 1 1 1 1 1 1 1 1 1 0.050788917637948607 1 1 0.11164469577723898 1 1 1 0.051280940112198761 1 1 1 1 1 1 0.11446968529956794 1 1 1 0.052845033886715922 1 1 1 1 1 1 1 1 0.050071686889702122 1 1 0.032092999742669694 1 1 0.085094209555300129 1 0.08218261802304383 1 1 1 1 0.06274250104601975 0.085450687922035778 1 1 0.055080035532038857 0.083037063212010653 1 1 0.029357928153743974 1 1 1 1 0.050802873150097218 1 1 0.03249728344077138 0.021738781066970983 1 0.049979226061016263 1 1 1 1 1 1 1 1 1 1 1 1 1 1 1 1 1 1 1 1 0.031484633551292142 1 1 1 1 0.031659959044910577 1 1 1 1 0.049278243247744206 0.050897739620345481 1 1 1 1 1 1 1 1 1 1 1 1 0.050408284268475448 1 1 1 0.0023768501005751175 1 1 1 1 1 1 1 0.0060494325776910655 1 1 1 0.048524292357831691 1 1 0.050388740071155326 0.05057340274297914 1 1 1 0.0067218492306368172 1 1 1 0.050185679631392845 1 1 1 1 1 1 1 1 1 1 1 1 1 1 1 1 1 1 0.04997074865640231 1 1 1 1 1 1 1 1 1 1 1 1 1 1 1 1 1 1 0.050371042656319656 0.050042110461782099 1 1 1 1 1 0.05029738204215975 0.050958251391291703 1 0.050692351510857978 1 1 1 1 1 1 1 1 1 0.077193534658412971 1 1 1 0.073570738937961705 1 1 1 1 1 1 1 1 1 1 1 1 1 1 0.080409454359963994 1 1 1 1 1 1 1 0.066348669401995006 1 1 0.069946554024250054 1 1 1 1 1 1 0.02494157482024887 1 1 1 1 0.027647320484988892 1 1 1 1 1 1 0.046872771848944991 1 1 1 1 1 1 1 1 0.050140765406477467 0.022531421138321614 1 1 1 0.050226766855802317 0.030672105217653255 1 1 1 1 1 0.050188263684943772 1 1 1 1 1 1 0.052695182606242383 1 1 1 1 0.049445107826723816 1 1 1 1 1 0.050906239177959126 1 1 1 1 0.044885829462102782 1 1 1 1 1 1 1 1 1 1 1 1 1 1 1 1 1 1 1 1 1 1 1 1 1 0.050296458594401031 1 1 1 1 0.062952277646819474 1 0.064744632350115364 1 0.065165717449725866 1 1 0.06949206254621737 1 1 0.033518654613379342 1 1 0.047348397691754446 1 1 1 1 1 1 0.049441110403279739 1 1 0.051392393715395931 1 0.052991679463601019 0.032299889476200223 0.054044596667726444 1 1 0.02178081447008047 1 0.049855751146062527 0.031501482700234881 1 1 1 0.043061396225293418 1 0.050081248882426155 1 1 1 1 1 1 0.050093049875916937 1 1 1 0.049944771936393975 1 1 1 1 1 1 1 0.055733694762882383 1 1 1 0.052800630609254627 1 0.045817243050688489 0.0465147139689297 1 1 1 1 1 1 1 0.04690994800722835 1 1 1 1 1 1 1 1 0.049280075632451868 0.054659619579593512 1 1 1 1 0.055767958486124404 1 1 0.05571517494163028 1 1 1 0.049999046496898715 1 1 1 0.054330651238619736 0.050911457496937824 1 1 1 1 0.049842649097554155 1 1 1 1 1 0.051156462556506951 0.05343884548866068 1 1 1 1 1 1 1 1 1 1 1 1 1 1 1 1 1 1 1 1 1 1 1 1 1 1 1 1 1 1 1 0.048252227428291189 1 1 1 0.050150909815503492 1 1 1 1 1 1 1 1 1 1 1 1 1 1 1 0.051805808630753979 1 0.049993868265668109 0.045262264294703342 1 1 0.053155142111299604 1 1 1 1 1 1 1 1 1 1 1 1 1 1 1 1 1 1 1 1 1 1 1 0.049732414797524965 1 1 0.053192475277790252 0.049950642320278953 1 1 1 1 1 1 1 0.052463314734894545 1 1 1 0.047987247313473924 1 1 1 1 0.04978710507763974 0.049923732178235355 1 1 1 1 1 1 1 0.054099757088371656 1 1 1 1 0.052648015931516245 1 1 1 1 0.050716145227818248 1 1 1 1 1 1 1 1 1 1 1 1 1 1 1 1 1 1 1 0.048905387354919547 1 1 1 1 1 1 1 1 1 1 1 1 1 1 1 1 0.050282454662974943 1 1 1 0.049996822499012501 1 1 1 1 1 1 1 1 1 0.050969353630503068 1 1 1 1 1 1 1 1 1 1 1 1 1 1 1 1 1 1 1 1 1 0.049434952615848272 1 1 1 1 1 1 1 1 1 1 1 1 1 1 1 1 1 0.048030361964663863 1 1 1 1 1 0.04984729368900246 1 1 1 1 1 1 1 1 1 1 1 1 1 1 1 1 1 1 1 1 1 1 1 1 1 1 1 0.050183885241864644 1 1 0.015337828611651103 1 1 1 0.010776046030615865 1 1 1 1 1 1 1 1 1 1 1 1 1 1 1 0.025979736709924213 1 0.0459358236316715 1 1 1 1 1 1 1 1 1 0.030105322321421414 1 1 1 1 1 1 1 1 1 0.045671793658443538 0.0370530540519316 1 1 1 1 1 1 1 1 1 1 1 1 1 1 1 1 1 1 1 1 1 1 1 1 1 1 1 1 1 1 1 1 1 1 1 1 1 1 1 1 1 1 1 1 1 1 1 1 1 1 1 1 1 1 1 1 1 1 1 1 1 1 1 1 1 1 1 1 1 1 1 0.045741976950510119 1 1 1 1 1 1 0.038537602868113419 1 1 1 1 1 1 1 1 1 0.045713772772236962 1 0.038467419576046852 1 1 1 1 1 1 1 1 1 1 1 1 1 1 1 1 1 1 1 1 1 1 1 1 1 1 1 1 1 1 1 1 1 1 0.05531759151581285 1 1 1 0.04797144735069319 0.048979266859462814 1 1 1 1 1 1 1 1 1 1 1 1 1 1 1 1 1 1 1 1 1 1 0.051775499964417833 0.048709674724275384 1 1 1 1 1 1 1 1 0.043204116368878928 1 1 1 1 1 1 0.041482259510385928 1 1 1 1 1 0.048143020146314289 1 1 1 1 0.049229004210183162 1 1 1 0.047343983592139906 1 1 1 0.046288083182677367 1 1 0.044379906384471805 1 1 1 1 1 1 1 1 1 1 1 1 1 0.049130715346574226 1 1 1 1 1 1 1 1 0.044380480058089852 1 1 1 1 1 1 1 1 1 1 1 0.051185351053361902 1 1 1 0.050297560991612811 1 1 1 1 0.047205973413075447 1 1 1 1 1 1 1 1 0.046506191011669751 1 0.05632845052684491 1 1 0.038838272471941326 1 1 1 1 1 0.053000170689644008 1 1 1 1 1 1 1 1 1 1 1 1 0.048550634065419304 1 1 1 1 1 1 1 1 1 0.045693850563116603 1 1 1 1 1 1 0.04679011088779237 1 1 1 1 1 1 1 0.047452900468064593 1 1 1 1 1 0.046003534533483867 1 1 1 1 1 1 1 1 1 1 1 1 1 1 1 1 1 1 1 1 1 1 1 1 1 1 1 1 1 1 1 1 1 1 1 1 1 1 1 1 1 1 1 1 1 1 1 0.05063918395484672 1 0.051578071464635881 1 1 1 1 1 1 1 1 1 1 1 1 1 1 0.049823608487046409 1 1 1 1 1 1 1 1 1 1 1 1 1 1 1 0.039294623111009258 1 1 0.052233848112311798 1 0.055991876142049563 1 1 1 1 1 0.055704781545155367 1 1 1 1 1 1 1 1 1 1 1 1 1 1 1 1 1 1 1 1 0.036525465286462069 1 1 1 1 1 1 1 1 1 1 1 0.033579803800755606 1 0.05034768012456263 1 1 0.031767214306210739 1 0.073667616091924182 1 1 1 1 1 1 1 0.049760301789109528 1 0.014248626662963181 1 1 1 1 0.0039731791722961707 1 1 1 1 0.051104776855388306 0.036177279934534644 1 1 0.039784100145004581 1 1 1 1 1 1 1 1 1 1 1 1 1 1 1 1 0.04679513696029676 1 1 1 1 1 1 1 1 1 1 1 1 1 1 0.040654446835048465 1 0.049896472180284521 1 1 1 1 1 1 1 0.12120387961150661 1 0.11055976603245488 1 1 1 1 1 1 1 1 1 0.049852218373069634 0.0021323572386138315 1 1 1 0.031381162910311719 1 1 1 1 0.075997273047519714 1 0.040197404581045912 1 1 0.055686563738457998 1 0.073048782928585812 0.073361635286196325 0.051203233579727572 1 1 0.050019996850774059 1 1 1 0.066888638078205248 0.037016409099841982 0.020650732831553258 1 1 1 1 1 1 1 1 1 1 1 0.029864380842477153 1 1 1 1 1 1 0.0011152151568827057 1 1 1 0.050363253180728276 1 1 1 1 1 1 1 1 0.038174899287682779 1 1 1 0.045992393596124045 1 1 1 1 1 1 1 1 1 1 1 1 1 1 1 1 1 1 1 1 1 1 1 1 1 1 1 1 1 1 1 1 1 1 1 1 1 1 1 1 1 1 1 1 1 1 1 1 1 1 1 1 1 1 1 1 1 1 1 1 0.05363710211033057 1 1 1 1 1 0.059747835066828729 1 1 1 1 0.052540273782257334 1 1 1 0.063029138667443585 1 1 1 1 1 1 1 1 1 1 1 1 1 1 1 1 1 1 1 1 1 1 1 1 1 1 1 1 1 1 1 1 1 1 1 1 1 1 1 1 0.046487538776985526 1 1 0.039799760147303888 1 1 1 1 1 1 1 0.051386866264603495 1 1 1 1 1 1 1 1 1 1 1 0.054208217128091596 1 1 0.0500624115129681 1 0.056262067365831211 1 1 1 0.033524169212105187 1 1 1 1 1 1 1 1 0.049632685358310058 1 1 1 1 0.051709408606292931 1 1 1 1 0.028675795603866197 1 0.054626333868056751 1 1 1 1 1 1 1 1 1 1 1 1 0.030886170064810675 1 0.029345087944616703 1 1 1 1 1 1 1 1 1 1 1 1 1 0.051477214350393374 1 1 1 1 1 1 1 1 1 0.052574418572833431 1 1 1 0.051097204222440101 1 1 1 1 1 1 1 1 1 1 1 1 1 1 1 1 1 1 1 1 1 1 1 1 1 1 1 1 1 1 1 1 1 1 1 0.057479748726895319 1 1 0.049750905515318106 1 1 1 1 0.045769448587280638 1 1 1 1 1 1 1 1 1 1 1 1 1 1 1 0.053943620040374146 1 1 1 1 1 1 1 1 1 0.047470532050861505 1 0.051353855346801716 1 1 1 1 1 1 1 0.048806052410205941 1 1 1 1 1 1 1 1 1 1 1 1 1 1 0.04676877665920369 1 1 1 1 1 1 1 1 1 1 1 0.042745908068993019 1 1 1 1 1 1 1 1 1 1 1 1 1 1 1 1 1 1 1 1 1 1 1 0.048515317195093006 1 0.051327543948592 1 1 1 1 1 1 0.033543314446349524 1 0.054055762903941387 1 1 1 0.03291282245301335 1 1 1 0.066637974876308376 1 1 1 0.032008981111843166 1 1 0.062052181969396929 1 1 1 1 1 1 1 0.054776091934305889 1 1 1 1 1 1 1 0.034427485746720485 1 1 1 1 1 1 1 1 1 1 1 1 1 0.044122231493603628 1 1 1 1 1 1 1 1 0.029262544123139424 1 1 1 1 1 1 1 1 1 1 1 1 1 1 1 1 1 1 1 1 0.040726313716895196 1 1 1 1 1 1 1 1 1 1 1 1 1 1 1 1 1 1 1 1 1 1 1 1 1 1 1 1 1 1 1 1 1 1 1 1 1 1 1 1 1 1 1 1 1 1 1 1 1 1 0.052508739576958723 1 0.035634013151146018 1 1 1 0.056671854200807212 1 1 0.049351598376222938 0.030432294174828026 1 0.056250691061562476 1 1 1 1 1 1 1 1 1 1 1 1 1 1 1 1 1 1 1 1 1 1 1 1 1 1 1 1 1 1 1 1 1 1 1 0.050305979291333687 1 1 1 1 0.050939091626211887 1 1 0.024477417430472895 1 1 1 0.049914590765318581 1 1 1 1 0.054579108784875263 1 0.049987490106751437 0.053724092579369984 1 1 1 1 0.056010923962040882 1 1 1 0.050960713889435266 1 1 1 0.050090984276541378 1 1 1 1 1 1 0.04941502906045947 1 1 1 1 1 1 1 1 1 1 1 1 1 1 1 1 1 1 1 1 0.051617703396352355 1 1 1 1 1 1 1 1 1 1 1 1 1 1 1 1 1 1 0.048032246232045051 1 1 0.044479614852840563 1 1 0.062411994711554147 1 1 1 1 1 1 1 1 1 1 1 0.041426570560945356 1 1 1 1 0.052362610446016991 1 1 1 1 0.04986485535530237 1 1 1 0.052144743887441947 1 1 1 1 1 1 1 1 1 1 1 1 1 1 1 1 1 1 1 1 1 1 1 1 1 0.045930291111654142 1 1 1 1 1 1 1 1 0.052142292185024253 1 1 1 0.058878022704610664 1 1 1 1 1 1 1 1 1 1 1 1 1 1 1 1 1 1 1 1 1 1 1 1 0.07520118727323423 1 1 1 0.038011539732599839 1 1 1 1 1 1 1 1 0.069992657346623507 1 1 0.040082064086672135 1 1 1 1 0.04652164830138307 1 1 1 1 1 1 1 0.081759043508610282 1 0.042161329675388173 1 1 0.040025155007293492 1 1 0.075899774885936674 0.050022192412732869 1 1 1 1 1 1 1 1 1 1 1 1 1 1 1 1 1 1 1 1 1 0.092962254789855508 1 1 1 1 0.087427455753556718 1 1 1 1 1 1 1 1 1 1 1 1 1 0.095777645735264663 1 1 0.05124158265878169 1 1 1 1 1 1 1 1 1 1 1 1 1 1 1 1 1 1 1 1 1 1 1 1 1 1 1 1 1 1 1 1 1 1 1 1 1 1 1 1 1 1 1 1 1 1 1 1 1 1 1 1 1 1 1 1 1 1 1 1 1 1 1 1 1 1 1 1 1 1 1 1 1 1 1 1 1 1 1 1 1 1 1 1 1 1 1 1 1 1 1 1 1 1 1 1 1 1 1 1 1 1 1 1 1 1 1 1 1 1 1 1 1 1 1 1 1 1 1 1 1 1 1 1 1 1 1 1 0.047266124986965218 1 1 1 1 1 1 1 0.054977589372026583 1 1 1 1 1 1 1 1 1 0.064541179656211922 1 0.029792280791248765 1 1 1 0.041487794312165149 1 1 0.039584240683524785 1 1 1 1 1 1 1 1 1 1 1 1 1 1 1 1 1 1 1 1 1 1 1 1 1 1 1 1 1 1 1 1 1 1 1 1 1 0.041570670770867374 1 1 0.040847472840181226 0.062221857044188048 1 1 0.051205782155223686 1 1 0.026678540736946754 1 1 1 0.032474553803214942 1 1 1 1 1 1 1 1 1 0.038955756169371442 1 1 1 1 1 1 0.046090906058723236 1 1 1 1 1 1 1 1 1 1 1 1 1 1 1 1 1 1 1 1 1 1 1 1 1 1 1 1 1 1 1 0.10488496651334139 1 1 1 1 1 1 1 1 1 1 1 1 1 1 1 1 1 1 1 1 1 1 1 1 1 1 1 1 1 1 1 1 1 1 1 1 1 1 1 1 1 1 1 1 1 1 0.021619557953677565 1 0.05450888111901149 1 1 1 1 0.051212500079827458 1 1 1 1 0.020849948197789184 1 1 1 1 0.050780717072131554 1 1 1 1 1 1 1 1 0.056160591048563885 1 1 0.052595746223378204 1 0.050311786046560808 1 1 1 1 0.059564802609302817 1 1 0.029573530003115883 0.06859350147498583 1 1 1 1 1 1 0.049754153566899599 1 1 1 1 1 1 1 1 1 1 0.030767774751749903 0.04009766216253681 1 1 1 1 1 0.034872919869539581 1 1 0.051857643107296375 1 1 1 1 0.069731701281403824 1 1 0.050065739916831206 1 1 1 1 1 1 1 1 1 1 1 1 1 1 1 1 1 1 1 1 1 1 1 1 1 1 1 1 1 0.049624159925957909 1 0.049878225005939365 1 1 1 1 1 1 1 1 1 1 1 1 1 0.050589218918249607 1 1 1 1 0.0091131003966009871 0.0032664862499981739 1 1 1 1 1 1 1 1 1 1 1 1 1 1 1 1 1 1 1 1 1 1 1 1 1 1 1 1 1 1 1 1 1 1 1 1 1 1 1 1 1 1 0.051182873589967731 1 1 1 0.0505936546717181 1 1 1 1 1 1 1 1 1 1 1 1 1 1 1 1 1 1 1 1 0.014960862256004966 1 1 0.020959387401204219 1 1 1 1 1 1 1 1 1 0.050037546269975641 1 1 1 1 1 0.022163137741948814 1 1 1 1 1 0.050215111733876022 1 0.049911980747040077 1 1 1 1 1 1 1 1 1 1 1 1 1 0.044485913813906972 1 1 1 0.055476855624506757 0.026930277322532944 1 1 1 1 1 1 1 1 0.050088826037564677 1 1 0.031624678095758391 1 1 0.050000403074012045 0.041294387498806005 1 1 1 1 1 0.050040995519428005 1 1 1 1 1 1 1 0.046822203986869745 1 1 0.040837057250827175 0.05070594430663139 1 1 1 1 1 1 0.049507407200889489 0.049925231796715916 1 1 1 0.049825879540795467 1 1 1 1 1 1 1 0.051925487478318946 1 1 1 1 1 1 1 1 1 1 1 1 1 1 1 1 1 1 1 1 1 1 1 1 1 1 1.0408340855860843e-17 1 1 1 1 1 1 1 0.047458084773390349 1 1 1 1 1 1 1 1 1 1 1 0.0068647877456824019 1 1 1 1 1 1 1 1 0.043546512107910371 1 1 1 1 1 1 1 1 1 1 1 1 1 1 1 1 0.050195420707599317 1 1 1 0.046213717751318453 1 1 1 1 1 0.054040107975157438 1 1 1 1 1 1 1 1 1 1 1 1 1 1 0.042676000649737644 1 1 1 1 0.027834480169865283 1 1 0.012335212509845844 1 1 1 1 1 0.050190448368115675 1 1 1 1 1 1 1 1 1 1 1 1 1 1 0.051032878428831099 1 0.070227975857941494 1 1 1 0.048414605465812596 1 0.02360362891671966 1 0.076431734858248029 1 1 1 1 1 1 0.04954559960349586 -3.4694469519536142e-17 1 1 1 1 1 1 -4.163336342344337e-17 1 0.052651722870693946 1 1 1 1 1 1 1 1 1 1 1 1 1 1 1 1 1 0.068760751065734912 1 1 1 0.050512037933602261 0.066256018059465377 1 1 1 1 1 0.040631793230741654 1 1 0.050831326002441161 0.046284438053622173 1 1 1 1 1 1 1 1 1 1 1 1 1 1 1 1 1 1 1 1 1 1 1 1 1 1 1 1 1 1 1 1 1 1 1 1 1 1 1 1 1 1 1 1 0.072249715096778411 1 1 0.027716730988140186 0.035898145781893986 0.053070665724416655 1 1 1 1 1 1 0.051327160811103022 1 1 1 1 1 1 1 1 1 0.050796857041631845 1 1 1 0.061318112404983943 1 1 1 1 1 1 1 1 1 1 1 1 1 1 1 1 1 1 1 1 0.054493422728027027 1 1 1 1 0.05121641195800293 1 1 1 1 1 1 1 1 1 1 1 1 1 1 1 1 1 1 1 1 1 1 1 1 1 1 1 1 1 1 1 1 1 1 0.048898064719645189 1 0.049490952543409267 1 1 1 1 1 1 1 1 0.049072834768422634 1 1 1 0.045992561869397069 1 0.049581882225013363 1 1 1 1 1 1 1 1 0.018561311551592276 1 1 1 1 0.038072974085764967 1 1 1 1 0.039796780258366457 1 1 1 1 1 1 1 0.036282915526721318 1 1 1 1 0.04358063241810671 1 1 1 1 1 1 1 1 1 1 1 1 1 1 1 1 1 1 1 1 1 1 1 1 1 1 1 1 1 1 1 1 1 1 1 1 1 1 1 1 1 1 1 1 1 1 0.052209236685612989 1 1 1 1 0.05010826058640544 0.056110255092644792 1 1 0.062907089648720105 0.05112204979752745 1 1 1 1 1 1 1 1 1 1 1 1 1 1 1 1 1 1 1 0.050296059255465222 1 1 1 0.051638995545118166 0.050042557803529356 1 1 1 1 1 1 1 1 1 1 1 1 1 1 1 1 1 1 1 1 1 1 1 1 1 1 1 0.050734831273894332 1 1 1 1 1 1 1 0.047462871243225443 1 1 1 1 1 1 1 1 1 1 1 1 1 1 1 0.043405534387329497 1 1 1 1 1 1 1 1 0.051444360619043408 1 0.048087699368516007 0.054080730196083254 1 1 1 1 1 1 1 1 1 1 1 1 0.047332794356591934 1 1 1 1 1 1 1 1 1 1 1 1 1 1 1 1 1 1 0.054385020546083483 1 1 1 0.043270480778750585 1 1 1 1 1 1 1 1 0.047308261302018165 1 1 1 1 1 1 1 1 1 1 1 1 1 1 1 0.053081607512622073 1 1 1 0.051113020955675187 1 1 1 1 1 1 1 1 1 1 1 1 1 1 1 1 1 1 1 1 1 1 1 1 1 1 1 1 1 1 1 1 1 0.05127840842971633 1 0.050544478992817457 1 1 1 1 1 1 1 1 0.04981031360821718 1 1 1 1 1 1 1 1 1 0.049026249464236643 1 1 0.051083280200137145 1 1 1 1 1 0.050500085271549547 1 1 1 1 0.049877535938110146 1 1 1 1 0.046943939344282926 1 1 1 0.048139881349350003 1 0.043785952065316006 1 1 0.046258415841978012 1 1 1 1 1 1 1 1 1 1 1 1 1 1 0.049992193472196217 1 1 0.050007346459615742 1 0.050122429077236672 1 1 1 0.04992256579762417 1 1 0.039748566978613266 1 1 1 1 0.051661021697217313 1 0.051453616679814601 1 1 1 1 1 1 0.050531104510485148 1 0.050444448858510349 1 1 1 1 1 0.057637478845020129 1 1 1 1 0.051031820885161921 1 1 1 1 1 1 0.055394303924370253 1 1 1 1 1 1 1 1 1 1 1 1 1 1 1 1 1 1 1 1 1 1 1 1 1 1 1 1 1 1 1 1 1 0.050088666728853912 0.050085803380615385 1 1 1 1 1 1 1 1 1 1 0.059489875573480726 1 1 0.050340613814870844 0.052574069659484489 1 0.050039955480139481 1 1 1 1 1 1 1 0.056894395028900278 1 1 1 1 1 1 1 1 1 1 1 1 0.047618015656482486 1 1 1 1 0.049188421357672915 1 1 1 1 1 1 1 1 1 1 1 1 0.063050742981151944 1 1 1 1 1 1 1 1 1 1 1 1 1 1 1 1 1 0.061810861337364298 1 1 1 1 1 0.053767670082192409 1 1 1 0.050434866965755359 1 1 1 1 1 1 0.052454795648317676 1 0.066585238942371644 1 1 1 0.058772636237476764 1 1 1 1 1 1 1 1 1 0.075428237380431362 1 1 0.050115381483514923 1 1 1 1 1 1 1 0.051600899804624428 1 1 1 1 1 1 1 1 1 1 1 1 1 0.046570812843054615 1 1 0.053174361457828237 1 1 1 1 1 1 0.049887981401607599 1 1 1 1 1 1 0.08430520605558077 1 1 1 1 1 1 1 0.1017068599553643 1 1 1 1 1 1 1 1 1 1 1 1 1 1 1 1 1 1 1 1 1 1 0.054508695293952206 1 1 1 1 1 1 1 1 1 1 0.052763483431808901 1 1 1 1 0.050442750208643493 0.075896956454873196 1 1 1 1 0.070287752467004888 1 1 1 1 1 1 1 1 1 0.064738906536265642 1 1 1 1 1 1 1 1 1 1 1 0.06643600699119255 1 1 1 0.053675597780197939 1 1 1 0.05588616677942284 1 1 1 1 1 1 1 1 1 1 1 1 0.055678174934735356 1 1 1 1 1 0.050197109424454725 1 1 0.050482598138970346 1 1 1 1 1 1 1 1 1 1 1 1 1 1 0.046303161516315999 1 1 1 1 1 1 1 0.039717209464942338 1 1 1 0.035195819746601159 1 1 1 1 1 0.050535556386417768 1 1 1 1 1 1 1 1 1 0.050250067671902189 1 1 1 1 1 1 1 1 0.031671903894661874 1 1 1 1 1 0.051369598315577525 1 1 1 1 1 1 1 0.050492901102647446 1 1 1 1 1 1 1 1 1 1 1 1 1 1 1 1 1 1 1 1 1 1 1 1 1 1 1 1 1 1 1 1 1 1 1 1 1 1 1 1 1 1 1 1 1 1 1 1 0.04958097112206214 1 1 1 1 1 1 1 0.046963882388795064 1 1 1 1 1 1 1 1 1 1 1 1 1 1 1 1 1 1 1 1 1 1 0.055180867680261189 0.050518964366682524 1 1 0.041857095342971384 0.059838615028818709 1 1 1 1 1 1 1 0.058915105779028976 1 1 1 1 1 1 1 1 1 1 1 1 1 1 0.052314785682480741 1 1 1 1 1 1 1 1 0.050535445319504171 1 1 0.050227752706653306 1 1 1 0.050672006664508655 1 1 1 1 1 1 1 1 1 1 1 1 1 1 1 1 1 1 1 1 1 1 1 1 1 1 1 1 0.04864741048234611 1 1 1 1 1 1 1 1 0.050058893048292502 1 1 1 1 1 1 0.045456772383136487 0.050165098368931196 1 1 1 1 0.050880238817416018 1 1 0.048099879917084754 1 1 0.044910736373347818 1 1 1 1 1 1 0.049326189307661111 1 1 1 1 1 1 1 1 0.049910946417999619 1 1 1 1 1 1 1 1 1 1 1 0.049831558415957058 1 1 0.04992035606404191 1 1 1 1 1 1 1 0.046723372792353585 1 1 1 0.050701686495810278 1 0.053725813745261128 1 0.048015601748712292 1 1 1 1 1 1 1 1 1 1 1 1 1 1 1 1 1 0.063264279467911161 1 0.049991093937864245 1 1 1 1 1 1 1 1 1 1 0.059231884368530892 1 1 1 1 1 1 1 0.050892912330933959 1 1 1 0.049982537996946692 1 0.067705265608805437 0.048240493413112123 1 1 0.057440680897609578 1 1 1 1 0.070206359082714692 1 1 1 0.045565503113321512 1 1 1 0.068055753975219943 1 0.057498662508271722 0.075580714813510003 1 1 1 1 1 1 0.056711436277835259 1 1 1 1 1 1 1 1 0.050001885480643271 0.050010233047210279 0.049691532343879241 1 0.056235736684932799 1 1 0.060957823692863129 0.050002583888311483 1 1 0.027652506668162356 1 1 1 1 1 1 1 1 1 1 1 0.049993272649003134 1 1 1 1 1 1 1 1 1 1 1 1 1 0.036629587859045937 0.047554743380508288 1 1 1 1 0.042219834940435103 1 1 1 0.051940578415037415 1 1 1 1 1 0.046547494779574206 0.049996751261932176 1 1 1 0.051760545154247786 1 1 1 1 1 1 1 1 1 1 1 1 1 1 1 0.047177858294583805 1 1 1 0.056344025863644252 1 1 1 0.048398374612608888 1 1 1 1 1 1 0.077560390556974168 1 1 1 1 1 0.068002035947783979 1 1 1 1 1 1 1 1 0.049978438877826714 1 1 1 1 1 1 1 1 1 0.05122557319726858 1 1 1 1 0.04905189327831673 1 0.050178006984792946 1 1 0.044990643652777274 1 0.052733018852598103 1 1 1 1 1 1 0.052392131089257374 1 0.050026067751846114 0.067157426562313355 1 1 1 1 1 1 1 1 0.059685920164511519 1 0.049371863661417867 1 0.049897579279041607 1 0.070914937791835275 1 1 1 1 1 1 1 1 1 1 1 0.050088489226136609 1 1 1 0.049846332041398711 1 1 1 1 1 1 1 1 0.049757842815262104 1 1 1 1 1 1 1 1 1 0.048774457382668182 1 1 1 1 0.051821880241428302 1 1 0.055367597499010796 1 1 1 1 1 1 1 1 1 0.063736959515721045 1 1 1 0.058991590951697294 1 1 1 1 1 1 1 1 1 1 1 1 1 1 1 1 1 1 1 0.06937735674565404 1 1 1 1 1 1 1 1 1 1 0.052020662189028059 1 1 1 1 1 1 1 1 1 1 1 1 1 1 1 1 1 1 1 1 1 1 1 1 1 1 1 1 1 1 1 1 1 1 1 1 1 1 1 1 1 1 1 1 1 0.047472222776443751 0.050169373002960399 1 1 1 1 1 1 1 1 1 1 1 1 1 0.024929626581331216 0.045218063983798261 1 1 1 0.048956923623741974 1 1 0.071505122977283661 1 1 1 0.07971069467751371 1 1 1 0.051151671572247093 1 1 1 1 1 1 1 1 0.050534375138448329 1 1 0.051012383138800355 1 0.031801750526543132 0.045377569165850604 1 1 1 1 1 1 0.076319605741503593 1 0.042364756753223723 0.049533235420355565 0.0499698666669256 1 1 0.04447187364550971 1 1 0.073910494052238124 0.07248209720072521 1 1 1 1 1 1 1 1 1 1 1 1 1 1 1 1 1 1 1 1 1 0.073761973994080049 1 1 1 1 1 1 1 1 1 0.048220573969518801 1 1 1 1 1 1 1 0.050882791714482151 0.076082560996270129 1 1 1 1 1 1 1 1 1 1 1 1 1 1 1 1 1 1 1 1 1 1 1 0.050199480372817587 1 0.050019691840432506 1 1 1 1 1 1 1 0.055877395013985559 1 1 1 0.029401240841531118 0.0737273781730933 1 1 0.052613071822253214 1 1 1 1 0.027298240262908904 1 1 1 0.083800229921890484 1 1 1 0.036278937987661242 1 1 1 1 1 1 1 1 1 0.036402725842367034 0.053291261130043274 1 1 1 1 1 0.078236401036148942 1 1 0.018983520679502715 0.043533003714839785 0.021662473392385209 1 1 1 1 1 0.078071087405582065 1 1 1 1 1 1 1 1 1 0.049447734055285027 1 0.049764857623136802 1 1 1 1 1 1 1 1 1 1 1 1 1 1 1 1 1 1 1 1 1 1 1 1 0.053593185358222009 1 1 1 1 0.039951023917181694 0.060833014185995821 1 1 1 0.033026178661457808 1 1 1 1 1 1 1 1 1 1 1 1 1 1 1 1 0.10019607965363304 1 1 1 0.050161414808611041 1 1 0.054548237494988494 1 1 1 1 1 1 1 1 1 1 1 1 1 0.06788420071344585 1 1 0.086203768401246328 1 1 1 0.036694223117988978 1 0.036386261090386021 1 0.050750045608679004 1 0.049744877282310918 0.096914131152745803 0.050179703600668257 1 1 1 1 1 1 1 1 0.050870321334320866 1 1 1 1 1 1 1 1 0.093083982545540372 1 1 0.017963936969043331 1 1 1 1 1 1 1 1 1 1 1 1 1 1 1 1 1 1 1 1 1 0.03650071395742599 1 1 1 1 1 1 1 1 1 1 0.041567577528273225 1 0.025896600349738619 1 1 0.046595241230054221 1 0.060740168025257626 1 0.049915808929016842 1 1 0.05010912374159425 1 0.081514911581928556 1 1 0.042625570802141327 1 1 1 0.048677964383143521 1 1 1 1 1 1 1 1 1 1 1 1 1 1 1 1 1 1 1 1 1 1 1 1 1 1 1 1 1 1 1 1 1 1 1 1 1 1 1 1 1 1 1 1 1 1 1 1 1 1 1 1 1 1 1 1 1 1 1 1 1 0.063961566637166095 1 1 0.091382459867697718 1 1 1 1 1 1 0.044494885881742184 0.074582989442918135 1 1 1 1 1 1 1 1 1 1 1 1 1 1 1 1 1 1 0.079774025664810261 1 1 1 0.050593555880971572 1 1 1 1 1 1 1 1 1 1 1 1 1 1 1 1 0.049666460386795244 1 1 1 1 1 1 1 0.087320473053192085 1 1 1 1 1 1 1 1 0.077271701752962108 1 0.051040800729312399 1 1 1 1 1 1 1 1 1 1 1 1 1 1 1 1 0.050041147161761876 1 1 1 1 1 1 1 0.050078499861017339 1 1 1 1 0.050223425376353228 1 1 1 1 1 1 1 0.050696005747916079 1 1 0.022326300876108922 0.04975328312892633 1 1 0.055224673445876712 1 1 1 1 1 1 0.050089750374415293 1 1 1 1 1 1 1 1 1 0.050425457977338654 1 1 0.049847413316853134 1 1 0.049971823900437279 1 1 0.022791643164630199 1 1 1 1 1 0.024432444771260747 1 1 1 1 1 1 1 1 0.04855739868980085 1 1 1 1 1 1 1 0.044793388731833042 1 1 1 1 1 1 1 1 1 1 1 1 0.047103943805163292 1 1 1 1 1 1 1 0.050958067713235147 0.04986756633945303 1 0.044422860717301088 1 0.017528697325741069 1 1 1 1 1 1 1 1 1 1 1 1 1 1 1 0.050024717251665143 1 0.017222091214117094 1 1 1 1 1 1 1 1 0.047002790654767909 1 0.044245589523811371 1 0.027930475435560761 1 0.044542332874255575 1 0.050529515608571329 1 1 0.049122230504001538 1 1 1 1 1 0.04700061833000177 1 1 1 1 1 1 1 1 0.050289379888574681 1 1 1 1 1 0.050858812624809693 1 1 0.045761928676271144 1 0.052731782424490045 0.041089789112198745 1 1 1 1 1 1 1 1 0.04999985908616647 1 1 1 1 1 1 1 1 1 1 1 1 1 0.04622200693491367 1 1 1 1 1 1 1 0.049962138077437865 1 1 1 0.049962207693379029 1 1 1 1 1 1 1 1 1 1 1 1 1 1 1 1 1 0.0516209152301993 1 1 1 1 1 1 1 0.050566718872791072 1 1 0.048618907734278016 1 1 1 1 1 1 1 1 1 1 1 1 1 1 1 0.049056479813113604 1 1 1 1 0.053046530644905526 1 1 1 1 1 1 1 1 1 1 1 1 1 1 1 1 1 1 1 1 1 1 1 1 1 0.043520204479143211 1 1 1 1 1 1 0.049512921564150179 1 1 1 1 1 1 1 1 1 0.04238969731912165 0.048643682018114337 1 1 1 0.055249985830595011 1 0.050006396151169988 1 1 1 1 1 1 1 1 1 1 1 1 1 1 1 0.049495585591610158 1 1 1 1 1 1 1 1 1 1 1 1 0.050670589822535417 0.051276198064200501 1 1 1 1 1 1 1 1 0.048863164506401477 1 1 0.050152095892591925 1 1 0.043326370346907062 0.055400102799920095 1 1 1 1 1 1 1 0.047696252282121793 1 1 1 1 1 1 1 1 1 0.050605608241665087 1 1 1 0.047461355585803715 1 1 1 1 1 0.048385759275311579 1 1 1 1 1 1 1 1 1 1 1 1 0.047772527146812668 1 1 1 0.04999016419009944 1 1 1 0.050035918573009874 1 1 1 1 1 1 1 1 1 1 1 1 1 1 1 1 1 1 1 1 1 1 1 1 1 1 1 1 1 1 1 1 0.048161147853632819 1 1 1 1 1 1 1 1 1 1 1 1 1 1 1 1 1 1 1 1 1 1 1 1 0.051111325096580888 1 0.050091901994115506 1 1 0.029155331829517014 1 1 1 1 1 1 1 1 1 0.056571685650115527 1 1 1 1 1 1 1 1 1 1 1 1 1 1 0.034951458832412061 1 1 1 1 0.041214238612259008 1 1 1 0.047192427745716053 1 1 1 1 1 1 1 1 1 1 1 1 1 1 1 1 1 1 1 1 1 1 1 1 1 1 1 1 1 1 1 1 1 1 1 1 1 1 1 1 1 1 1 1 1 1 1 1 1 1 1 1 1 1 1 1 1 1 1 1 1 1 1 1 1 1 1 1 1 1 1 1 1 1 1 1 1 1 1 1 1 1 1 1 1 1 1 1 1 1 1 1 1 1 1 1 1 1 1 1 1 1 1 1 1 1 1 1 1 1 1 1 1 1 1 1 1 1 1 1 1 1 1 1 1 1 1 1 1 1 1 1 1 1 1 1 1 1 1 1 1 1 1 1 1 1 1 1 1 1 1 1 1 1 1 1 1 1 1 1 1 1 1 1 1 1 1 1 1 1 1 1 1 1 1 1 1 1 1 1 1 1 1 1 1 1 1 1 1 0.097876525621001687 1 1 1 1 1 1 1 1 1 1 1 1 1 1 1 1 0.054372415829574208 1 1 1 1 1 1 1 1 0.10853010189520769 1 1 1 1 0.047366942562366135 1 1 1 1 1 1 1 1 1 1 1 1 1 1 1 1 1 1 1 1 1 1 0.053403220025196457 1 1 1 1 1 1 1 1 1 1 1 1 1 0.041943557909184859 0.09387180264690323 1 1 1 1 1 0.078842269377373403 1 0.059618006375020294 1 1 1 1 1 1 1 1 1 1 1 0.060924966849936757 1 1 1 1 1 1 1 0.048793540149780608 1 1 1 1 1 1 1 1 1 1 1 1 1 1 1 0.050711898836942784 0.049442054471021735 1 1 1 1 1 1 1 1 1 1 1 1 0.056072976308078559 1 1 1 1 1 1 1 1 1 1 1 1 1 1 1 1 0.052092337418019899 1 1 1 1 1 1 1 0.04602513728072212 1 1 1 1 1 1 1 1 1 1 0.049922992055904038 0.032822572018586585 1 1 1 1 1 1 1 1 1 1 1 1 1 1 1 1 1 1 1 1 1 1 1 1 1 1 1 1 1 1 0.055926723069926326 1 1 1 1 1 0.056635592768454771 1 1 1 1 1 1 1 1 1 1 0.052875624537929169 1 1 1 1 0.04902058891100515 1 1 1 1 1 1 1 1 1 1 0.0560066164143182 1 0.052246648183792578 1 1 1 1 1 1 1 1 1 1 1 1 1 1 1 1 1 1 1 1 1 1 1 1 1 1 1 1 1 1 1 0.050327728637815705 1 1 1 1 1 0.051039627474758487 1 1 1 1 1 1 1 1 1 1 1 1 1 1 1 1 1 1 0.047925160618544731 1 1 0.013838919085832575 1 1 1 0.049318465737465449 1 1 1 1 1 0.037024927369133313 1 1 1 1 1 1 1 1 1 1 0.080436472084375127 1 1 1 1 1 1 0.04978810112286676 1 1 1 1 1 0.0098604532038093096 0.049885240156855117 1 1 0.001377852058174707 1 1 0.052353433091123155 1 1 1 1 1 1 1 1 1 1 0.054312094558307281 1 1 0.055015376171064834 1 1 0.0556585562085549 1 1 0.0612056829526458 1 1 0.050267523602309017 1 1 0.051649705144152791 1 1 1 1 1 1 0.047583710469960336 1 1 1 1 1 1 1 1 1 1 1 -2.7755575615628914e-17 1 1 1 1 1 1 1 0.053254657775058722 1 1 1 1 0.043420017230374537 1 1 1 1.3183898417423734e-16 1 1 1 1 1 1 1 1 1 1 1 0.030525195736869806 1 1 1 1 1 1 1 1 1 1 1 1 1 1 1 1 1 1 1 1 1 1 1 1 0.049846197077323434 1 1 1 1 1 0.050280959838283963 1 1 1 1 1 1 1 1 1 1 1 1 1 1 0.047211763000782558 1 1 0.030046071949564969 1 0.10236735602777174 1 1 1 1 0.11786780736774721 1 0.047208688701897789 -5.7592819402429996e-16 1 0.0011491555932635067 1 1 1 1 1 1 1 0.050147482709208796 1 0.057968557473594688 1 1 1 1 1 1 0.048196084303002436 1 1 1 1 1 1 0.050134646647505693 1 1 1 1 0.050056494472350686 1 1 1 1 1 0.049734178478931031 1 1 0.051257627089849968 1 1 1 1 0.049172111655973544 1 1 1 1 0.058659937300811198 1 1 1 1 1 1 0.049494797263335055 1 1 1 1 1 1 1 1 1 0.050905833758874301 1 1 1 1 1 1 0.053387840888726529 1 1 1 1 0.05939076296490145 1 1 1 1 1 1 1 1 1 1 1 1 1 1 1 1 0.049523775531045346 1 1 1 0.04737751650189808 1 1 0.082659262756358098 1 1 1 1 1 1 1 1 1 1 1 1 1 1 1 1 0.049624957688508449 1 0.077686489902322617 1 1 1 1 1 1 1 1 1 1 1 1 1 1 1 1 1 1 1 1 1 1 1 1 1 1 0.10152539486204773 1 1 0.071774167695519753 1 1 1 1 1 1 1 1 1 1 0.06257273352503688 1 1 1 1 0.049915355205253725 1 1 1 1 0.050290397516745272 1 1 1 1 1 1 1 1 1 0.060299950770886464 1 1 1 1 1 1 1 1 1 1 1 1 1 1 1 1 1 1 1 1 1 1 1 1 1 1 1 1 
</DataArray>
</CellData>
</Piece>
</UnstructuredGrid>
</VTKFile>
